Cr H  Ni
 1.0000000000000000
    21.0001515495310151    0.0000000000000000    0.0000000000000000
     0.0000000000000000   21.0001515495310151    0.0000000000000000
     0.0000000000000000    0.0000000000000000   21.0001515495310151
 Cr  H   Ni 
 259  17 605
Direct
  0.0810926730666482  0.9202730162862343  0.1711742273689835
  0.7494564225090252  0.6683175799230133  0.5865178107561473
 -0.0012795740257466  0.1695767398206172  0.8368845031071417
  0.9155160580360049  0.0865110494086112  0.3344611470998484
  0.1655298880512961  0.0868494909960809  0.2536690270448142
  0.1665686790090991  0.8356568995130603  0.3331992784606597
  0.9155089094617316  0.9191291385892429  0.3359466564376429
  0.0010454724353340  0.1684561635084408  0.6704811983069602
  0.1643958489090793  0.7506336277691861  0.5872641342464178
  0.9137892437032975  0.0017450027005865  0.7493880119564055
  0.2475551202602408  0.7512460387184836  0.8359200576769841
  0.0823151874060373  0.9241608862811731  0.0028342280993051
  0.7474328694944365  0.2533194774942898  0.5017507667532856
  0.7473105192374476  0.5851885537761681  0.3347170352073583
  0.0816083536958693  0.1700182324621693  0.7527365770924701
  0.7477686566308597  0.9197652481671375  0.8363871067454092
  0.8312727006977527  0.5850513836122476  0.9195703312719636
  0.0817035671794518  0.2549693184011732  0.0032802236122762
  0.8315670884627890  0.0857470376906257  0.0872488492598500
  0.9128852058845270  0.0062394300523806  0.9249777788264439
 -0.0004268145340172  0.5011124357088801  0.4994405809294623
  0.1642917629293023  0.2518818125520662  0.0832612413336200
  0.8307539732471162  0.6685444305801206  0.5018868707300815
  0.7494121986168171  0.9191510152119038  0.6692935168400170
  0.0822060895751183  0.5840487743349854  0.1689824257131582
 -0.0017642955373440  0.7518043540970244  0.0863942746275815
  0.8299656552487830  0.4179698413009054  0.2544666037490182
  0.0828550679235195  0.1697826926447289  0.2527203786881595
 -0.0015286263184227  0.4993214679457772  0.1691751763943207
  0.8313851594887532  0.0034221652097679  0.0035062462329509
  0.7494333173166433  0.7516242134716652  0.6687781479670845
  0.7496080543485363  0.6670699251406493  0.9193939794967524
  0.0819405165878498  0.1699143780242945  0.4203153966578613
  0.5820214760049475  0.0866006945697762  0.6693824004463523
  0.6626617497740558  0.2527657036894347  0.2540288400802767
  0.9139657032371983  0.5020153705068220  0.9212615873269400
 -0.0005864900575070  0.4168947499851083  0.5853587057610303
  0.0804015087893109  0.1709274498261649  0.9204413977593825
  0.8324814980359508  0.2517653123462941  0.7485581093296014
  0.9162015927596399  0.5841252107533736  0.6697992892021631
  0.9160360101050338  0.2551791415051424  0.4994282590636971
  0.8302429465212858  0.5010601245504411  0.5010660786934735
 -0.0015898700818171  0.4179593697179602  0.2517318461845875
  0.3346198877467901  0.5033889115891821  0.3365596195939712
  0.8305701911416514  0.1700614542525237  0.1686622952400750
  0.3311239812848623  0.7519550604651348  0.7544613715320135
  0.9149490144481900  0.0883449272656415  0.0053200188337845
  0.7497823805101136  0.0866523213748599  0.8380738211502948
 -0.0017788801556140  0.4181818367262503  0.0877648436436182
  0.5802716419383270  0.5860032145707840  0.6696299292437807
  0.8304693148672888  0.4196977479289828  0.4195459117023012
  0.6637750995485593  0.0846728445438501  0.2528976486242172
  0.9146420528739041  0.2539759062927665  0.0022363623962031
  0.6630112260688268  0.2521425898423391  0.9196822965936955
  0.8326285392372403  0.2531730600881891  0.9235538063332028
  0.8313826846728696  0.0865675548442056  0.4180932416667401
  0.0822684718825867  0.7518048897832643  0.6695945400632531
  0.0020484660183031  0.3380780141665632  0.6681539060905362
  0.0837833851135817  0.3370100767501764  0.4189542653253743
  0.7474774666610770  0.7521003651633377  0.3358231861694452
  0.1671842152389145  0.5025564097929297  0.3337874631669404
  0.2480520645616105  0.1685925754660762  0.2552298999868743
  0.0814337749320453  0.8349127327017476  0.9167444970610816
 -0.0005014425320778  0.4198778810248764  0.4187950985334743
  0.0004825456062126  0.6681720939702347  0.5005971628712714
  0.8295350798124588  0.5863737318371481  0.0879962509897516
  0.0818018057197263  0.0004780525533917  0.9206015034245720
  0.8315905895248611  0.0870542226999042  0.9227511229490092
  0.1676269670876693  0.4191028948299047  0.5856108182742582
  0.8306693464233847  0.6639098683684070  0.1677284787804532
  0.8311421891188544  0.9199086631988953  0.5868402218711458
  0.7479989889527054  0.7502063568513488  0.5035839256907171
  0.2482384713393165  0.6681026398834342  0.4189106887857063
  0.6664953855041027  0.7513035943364080  0.5867485933341762
  0.6638406046301699  0.4203363454295541  0.7526663525840365
  0.9151709472178697  0.5844330977689915  0.3352121664043058
  0.8350342224786262  0.9189062898488161  0.4173887668242884
  0.1636947383163646  0.0892033227706821  0.0840793942466724
  0.5818251495925408  0.9193976167913178  0.1696121085585075
 -0.0016800158296930  0.3373364204379277  0.1690798689846962
  0.3320878190825692  0.9200355369688147  0.4199972401420675
  0.6624475757371968  0.5006533405577140  0.1703837393313865
  0.9172737275618275  0.7516048194163001  0.3337677786133871
  0.7481979830405665  0.6670886528523690  0.0871308786734077
  0.7494630690729978  0.8353229978179538  0.9194987725114885
  0.6642293407503692  0.9182437958000331  0.2520604728772354
  0.8316403242219045  0.8384715907086780  0.1699260449570403
  0.6661010148333956  0.7507109895243016  0.7535299863127737
 -0.0007863332100376  0.5023346503138693  0.8368670249304363
  0.8317808459266886  0.9194534462273868  0.7513433560555264
  0.5819178945566610  0.6686634281875294  0.4189188259786039
  0.0809706396428873  0.5023899007807279  0.9198005742754396
  0.7488411012284359  0.8364855571569904  0.0875360890602048
  0.7489591795720780  0.5854899029565795  0.6700046720888512
  0.8282006024476715  0.4178363453129978  0.0858704511456205
  0.9140675247111895  0.0871525514369317  0.1689822488003447
  0.1666303397257768  0.9206987950584142  0.4206295635987444
  0.7484700129129197  0.4189522806300550  0.6697915704194570
 -0.0014084587892156  0.6678630662173561  0.8369760478605608
 -0.0018614594621266  0.8351855358540143  0.8357998611106869
  0.0822909252540460  0.6689515427228926  0.9204869841048559
  0.7483376566978139  0.3373334208983734  0.0863641420666125
  0.7465225793084918  0.4194733728405474  0.0034887111505882
  0.7485663474119045  0.1697578404814673  0.0886898877255458
  0.6640008564934671  0.2523005780993606  0.5834674769582042
  0.9145400975322995  0.3369280773621658  0.7543682069327189
  0.8299563436626057  0.3366833398981501  0.3363676093509511
  0.7503608962295576  0.0877683693652305  0.6687388194986909
  0.0017506715433445  0.8366896600616787  0.5017462936037104
  0.5803478951486846  0.2523494950286925  0.3356077758711944
  0.6678926368232221  0.9198703669517977  0.7526105658227003
  0.6641317306801832  0.3364069823285311  0.8344489569220450
  0.6632174681452739  0.5864326320054704  0.4205137504470924
  0.0811574800870405  0.7514897726877428  0.1702353286326211
  0.9157030667876120  0.7509633129830422  0.0042164208360514
  0.4156651367668330  0.6704067941948038  0.9193695617381310
  0.6664030618098388  0.9194425436440703  0.5868314822480364
  0.0823633904977083  0.5848048534310705  0.6698125346676300
 -0.0000826755716661  0.9185748935130903  0.4191896129454803
  0.5815828798592125  0.5015679900444532  0.2525472842836913
  0.9158804349108295  0.0026107261678746  0.5853565623152235
  0.2482060625827003  0.0889668975058249  0.6701869929001438
  0.8331696738090004  0.7508966185755704  0.7519887076190951
 -0.0002351118277392  0.5834881390104921  0.0881136920537149
  0.2466162580118133  0.9194965346047381  0.6688367420079909
  0.4143594089235885  0.3357486501473532  0.0859294711894390
  0.8303246650499309  0.1685053263095808  0.6683547305137336
  0.6627455972156955  0.4201815652639803  0.2522850071116394
  0.4156938109889162  0.5032447336986746  0.9170651914784355
  0.9156308194794017  0.7517797067472342  0.6733664296426601
  0.2490566353098392  0.4193045482572588  0.5028920540218935
  0.4985322504029178  0.0021071285965638  0.0016656681093169
  0.0830892577372321  0.9193087817642561  0.6694982536941038
  0.2476474331536802  0.0861397566990032  0.8370353983717460
  0.6629266764626602  0.0011450021969947  0.1708331366648946
  0.5830865729579000  0.6695572562993877  0.5877454533915710
  0.5847950477660434  0.9197127662775537  0.8356916962542573
  0.2480878781894644  0.1696748918319713  0.7534870258476725
  0.5826157744112703  0.8370720107058911  0.9187170303131670
  0.6649400357658360  0.0033324344522164  0.0030848500780724
  0.3340920054407963  0.2523811539365622  0.7526391048834264
  0.5834021992117426  0.1685223684121115  0.7526411192993021
 -0.0016038452703311  0.7519243484348866  0.2526529634879972
  0.5829883761616935  0.1699617237296709  0.9204097809786203
  0.7482634382507537  0.0050401369000664  0.4182130360420586
  0.2481288748841474  0.7520243253806296  0.0024236752886893
  0.3348250063883558  0.4188536191727283  0.0850274521463731
  0.4975839230038874  0.8348620692531858  0.3369866636545896
  0.4150816097148032  0.8363324754027318  0.9174724863235999
  0.0785838816035036  0.0877756623039865  0.6696509233538347
  0.4162978779962387  0.7531467687454079  0.3367477990949152
  0.6656394573581919  0.6684988907960926  0.8355158166041393
  0.2503814147873445  0.2519327255988023  0.6725470841317229
  0.4988968796908650  0.5865299389719812  0.2531421133245348
  0.0803650284586517  0.1705825120722851  0.0861124916600362
  0.4147162676541268  0.9189946902035245  0.6699792389654861
  0.4151146167822909  0.4203289274912294  0.3360815138469069
  0.2484106097934508  0.0864930011476047  0.5018462885875639
  0.4164930165980613  0.2522058417771116  0.8354024245345515
  0.4152166453047219  0.7520186280253220  0.5029818270982302
  0.4138412831802877  0.0015644982172055  0.4206055858003338
  0.4971671197997431  0.4195319504321379  0.0841790407617157
  0.3342047091433673  0.0857730337527362  0.0856100063482025
  0.5814965068094492  0.6695742292171502  0.2511361450194314
  0.3359723981282136  0.1681526477404742  0.1689480309649321
  0.2495353056874833  0.8371257402342369  0.2521062567349413
  0.4154761410103092  0.5021098815817997  0.7516718611012774
  0.5009424974551870  0.5866214260264571  0.4207299825213958
  0.4153149849061473  0.5038474463634075  0.2527993955831417
  0.6645783977893259  0.2529025107510417  0.7524324599716107
  0.5829467436640209  0.3349391840719197  0.7524656599024941
  0.7489926117178409  0.4207624021769496  0.5018202023170300
  0.5830979182369520  0.3363299920134283  0.5854795869470062
  0.4150237545601562  0.1694915461596252  0.5850839434226714
  0.5825519591185517  0.5035760529974618  0.4198284769568303
  0.4141044984486518  0.1698428658398902  0.7533246670371301
  0.4984083687739551  0.5033049081416203  0.6678717611195505
  0.1663125810432038  0.3352697682375353  0.3371949921124197
  0.8324259021438990  0.4206228022297040  0.9194913837492522
  0.6649004704130821  0.8366253616755200  0.1696455211734258
  0.3335225198933037  0.2518438445218231  0.4189347208221177
  0.5813569850811510  0.4188646911501503  0.0020637342775040
  0.2498010135225586  0.3356621961811229  0.9185787345749870
  0.1648237228664030  0.1683207287468219 -0.0000453153006404
  0.2477657242413688  0.9217693962057442  0.0006661169420360
  0.5833237027403442  0.2525347957394121  0.5033581330175457
  0.3328491140258314  0.9199331882702241  0.2528072203292472
  0.4982156163447433  0.2520637489184818  0.2547330033399691
  0.5813735794810830  0.0839005426327332  0.5020972883261631
  0.6666743867848827  0.0041290236582284  0.8361896032484077
  0.4983615131899432  0.5858282226283731  0.0841767185583767
  0.5832630131223425  0.0026740877462748  0.4201132845142505
  0.1655371955504092  0.9202054994899411  0.5890117205267611
  0.0022889603609130  0.1693358360452197  0.5003668569596518
  0.3321663383904458  0.9200184018283231  0.0849913084917277
  0.3331225198166665  0.7500750731413131  0.5859171843255083
  0.4170853259210327  0.0020761060137841  0.0858801519440735
  0.4996253619097707  0.8351758837462810  0.6708214234313071
 -0.0017389099026134  0.3371495925639126  0.8357752171464266
  0.1654904876431612  0.5836922779962285  0.0880097528862216
  0.4173703534087872  0.9196622876703510  0.8351793965599067
  0.4156638600815814  0.5027330785318604  0.0858561375800092
  0.2479270748557628  0.5020187079995009  0.9181446944691840
  0.2515044235757373  0.8361092793466711  0.4203056314708786
  0.4987163744720018  0.8323162221511570  0.5039517395044436
  0.3335255207839743  0.5856396639689221  0.2543738251221668
  0.4133030381934624  0.6724421132538639  0.5864609522404924
  0.2487811516241066  0.5852581987205880  0.5020256109934994
  0.1658893361203243  0.5036327068553978  0.1690430427339777
 -0.0007526518709635  0.0014717234272788  0.5013691045632538
  0.1649419476344050  0.7520253470509309  0.9199122267284192
  0.4139921869073091  0.0012381757088270  0.5882380104292648
  0.6649534520525064  0.6680845466140394  0.1695494624560701
  0.6656933654933544  0.5020899990777067  0.8360141226446489
  0.4163090416644435  0.0003810254475417  0.7523793235417047
  0.4970855119822702  0.8346281986545158  0.1688221644555393
  0.4973340147226913  0.0844557596891861  0.2542495413865592
  0.4984805462593143  0.7526088927340848  0.7534126868423842
  0.4142388738565235  0.1713153398663280  0.4203607505865153
  0.3326937258774520  0.1709409854492573  0.0013784450812184
  0.5840538771449338  0.0024222020292105  0.7524464605965174
 -0.0012242180208648  0.9196866729488493  0.2527016643128139
  0.1640675434643460  0.9208894916392512  0.7514119527220192
  0.4150465276391950  0.0005292487399613  0.2529368744824869
  0.1638746668285838  0.0030115399517922  0.0024531939488153
  0.1666456195020588  0.2519902024454315  0.5862610975766855
  0.5803160704202924  0.5032161190321907  0.5881654971980196
  0.5818390312010173  0.1692606716204092  0.0869276907895298
  0.5826625552080935  0.6685843413839518  0.9183370616710813
  0.2496630360882604  0.2516742166434734  0.8340754354911819
  0.4135028060063926  0.5031486609197000  0.5863166565841781
  0.2502646864121152  0.7523837389986470  0.1692862788257593
  0.3332750386243581  0.5848962315619420  0.0842735738344754
  0.1667099901000343  0.5850947389828626  0.2517814921063593
  0.4143121482566415  0.1681689189268274  0.0857942930307005
  0.4981432647973141  0.3375181353331930  0.0035198062393133
  0.2474064856042185  0.0044344525759871  0.2519343783209813
 -0.0017196030545364  0.0873367942286080  0.2536329418770241
  0.3332202047529483  0.3369484490423483  0.0018619979314330
  0.9153285104045169  0.2539938866963393  0.3354927318462759
  0.3335427012901656  0.4195736354317418  0.7524786363139656
  0.3340221162607334  0.5028816556197078  0.5033038295568274
  0.2492136720195867  0.5850672704791910  0.6700482359700893
  0.1671749278841797  0.4180670816209656  0.0859226019005696
  0.4994167980849073  0.3353179130484271  0.6686409151042711
  0.1656352133129750  0.4196837123291806  0.7536538541110146
  0.0821075947340777  0.6676872648762670  0.4186995573146735
  0.2478046677014179  0.9201940827667225  0.8351886284774437
  0.2474889053642701  0.0024667743261237  0.9181686055624551
  0.1651839610761945  0.7509425816858976  0.7536729673179967
  0.4976923883969879  0.6693767990137002  0.0004533773804047
  0.3339990545610887  0.3357128320066420  0.1685828098144127
  0.4139394647540839  0.4207619948874703  0.5042752845639744
  0.2487577781072217  0.5841645255833555  0.8366183542212214
  0.4146892133027053  0.2519640781049700  0.3365790010563859
  0.0832575082415995  0.7487647218189597  0.0006795137390322
  0.4995420494809713  0.7540221013326909  0.0850309011716522
  0.4990827181766774  0.3345621204219196  0.8351589890013981
  0.4167450503378410  0.7535674452489978  0.1678897648886070
  0.9143354256461123  0.9147514873164228  0.9199330695574761
  0.2474195204048645  0.1707216267200771  0.1668356090005998
  0.4996580147340267  0.9223624882935378  0.5045301441894340
  0.9153613502355067  0.0023181945595657  0.8371473670321929
 -0.0001011730219318  0.5052525210502400  0.5886346722080485
  0.8325338382162885  0.7512957803606407  0.1702414828989774
  0.0819645567703039  0.8360457410218662  0.0040496171868555
  0.9111588846101353  0.8350119992952159  0.5015974754545999
  0.9126051988130430  0.3374426270438868  0.6660150979014663
  0.8316267223125531  0.2526197552540581  0.8358157680616151
  0.9154803453433497  0.2521447358425145  0.5887502097517200
  0.1642881787335028  0.8332554083197072  0.4210875404160698
 -0.0830328506059255  0.7513973231088208  0.5825370655302671
  0.7455873990526258  0.9161994328527361  0.4185838197262519
  0.3351520580836213  0.0828722549646720 -0.0022848651365461
  0.9124513189381303  0.1663019464155825  0.5011334282033280
  0.9149775084307493  0.9183874958086276  0.0876606828555612
  0.2475811362294029  0.8356348519270742  0.7522321587694050
  0.1650306831329152  0.8357141801317969  0.8350006934228057
  0.0819782179285516  0.7512286235921640  0.8362259054159328
  0.4158174404802921  0.9189454505126230  0.0011688522231556
  0.2487633663471422  0.0857870329299527  0.1680845147301797
  0.4162951487003577  0.0011891732452079  0.9177429820012745
  0.4184467285217883  0.0853701416897138  0.0014260287858359
  0.1645241702855058  0.9182814714916059  0.9170175025409579
  0.1656375333165756  0.1695062380249197  0.3367192335732296
  0.1654778225120565  0.8349110212044539  0.6702180276371682
  0.0820319880688848  0.8348337076385772  0.7526799067374367
  0.2479832117655525  0.8364179526254489  0.9185311599562247
  0.3317414983981859  0.0023325670086979  0.8344381153871708
  0.0828328417762649  0.8354068906779734  0.5870271140404015
  0.0823125723647827  0.0028905650678160  0.5861468066560946
  0.3322948415734727  0.0029807653395020  0.1688686429712150
  0.3327749261782951  0.0852137672809682  0.9159906980894774
  0.7494604408847091  0.0853567657736020  0.5014411600419064
  0.4144857625205025  0.0849256472768215  0.3368674034566397
  0.9156078337647383  0.1698230390485965  0.7523510561870087
  0.4165426674092909  0.0844214600927477  0.1699993488326197
  0.8289681709972558  0.3358012901277616  0.6686209804910694
  0.3328109622548340  0.0858798746514538  0.4209011348039451
  0.0819663835442959  0.3366498401601493  0.7522224217585255
  0.2495824959412262  0.9208236898930363  0.1692428407176401
  0.0818670014295706  0.4192366390653212  0.8363440479774155
  0.3319503102038922  0.0858790157105054  0.5868694136794391
  0.9150994076189354  0.1716899206014803  0.0869671322454422
  0.4979387632877298  0.0856579794678860  0.5861391103330735
  0.7483504711135351  0.0859468532287376  0.3354204331207270
  0.3322431357747518  0.0859461862679891  0.7527445105440612
 -0.0019943503190015  0.1706726862253135  0.1702435321885278
  0.3329587432714067  0.1678783222941148  0.6692645752058379
  0.0821463031994819  0.0034558220726558  0.2532525276086602
  0.9140999109333753  0.5012746482318321  0.0866329540789187
  0.8310138950799573  0.4200461352081499  0.5846797101087349
  0.2507190479423921  0.5021710646445906  0.2523737401313305
  0.0833890561664017  0.4188199464782375  0.1695862182790696
  0.9152518337721735  0.1700694033852529  0.4169821396779901
 -0.0006959338498440  0.4190395512283762  0.7532647421645707
  0.8317874570493164  0.2533039788812447  0.4181625005508554
  0.9142911906000363  0.3366290021645509  0.2529562512044852
 -0.0018386213336049  0.4197105310283917  0.9194471731007072
  0.9143291966614761  0.2540985854786983  0.1704773072070056
  0.8296865211372885  0.2525906290901939  0.5847549328212019
  0.9152410494657435  0.1705129129183675  0.2529360591432785
  0.9157499397661503  0.1688720005457509  0.5862155503879470
  0.0828063474156593  0.3368024917722441  0.0866028412147012
  0.8297230528549837  0.1700523206735106  0.5010527128723843
  0.7481210282469830  0.1699614593567384  0.4181591121461908
  0.0812832347531374  0.2537343157173615  0.8363418838152018
  0.0836058857953154  0.4191476591134614  0.6692416320045186
  0.8316853149248351  0.1699388297411132  0.3354815313568426
  0.9145341483543251  0.3376232310796858  0.5831559761749416
  0.9145664472311903  0.5020228060431920  0.4182806437410672
  0.8310250081061081  0.5014238095397024  0.3359078935919487
  0.8321307885648180  0.5024290461619875  0.8364548087179779
  0.7482857158167604  0.4190181591956371  0.8358559021747697
  0.0829359722147193  0.2535838388849438  0.5022191382883946
  0.8304634372298847  0.5014407616550449  0.1695738787881249
  0.9154952758361433  0.4192762572676681  0.5010253440726319
  0.0839209442533871  0.4189432678507735  0.5021596584336154
  0.0822911027744301  0.2531946942791901  0.6692472673319880
  0.9145183591065295  0.5847414020362859  0.0038876692203179
  0.9147595733458936  0.3370188609598206  0.9196640866562298
  0.7473108249162547  0.4186553213649074  0.1702717135655519
  0.9164270948907468  0.2533553184241081  0.8361473277126752
  0.8308914254280070  0.5853430654428410  0.2529275063531282
  0.0831962533664952  0.3367347313155236  0.2525258379471202
  0.9139600917300588  0.5011271297651407  0.2527491275080451
  0.7477486736429131  0.3363815942427174  0.9202198978567037
  0.9155269198553643  0.5831214496548179  0.1692686446068175
  0.2494627970624252  0.5027250577905200  0.5863396568569372
  0.0817778365151103  0.5840893971499962  0.0040136694727023
  0.6652439924663368  0.0866018339921794  0.9205062264373115
  0.4157086195166658  0.4210794948915951  0.0003895105270854
  0.4158375965683209  0.5865368052708528  0.1686396260763096
  0.2498762169358586  0.6692314601902604  0.2514611080034849
  0.3327089462414533  0.4196818459252202  0.9180350361012253
  0.4171057485597788  0.5868837744284284  0.3369774171987237
  0.3322149804073424  0.5027561779339520  0.6695222927808521
  0.4986950261466496  0.5860963997038152  0.9186089409697475
  0.1662915998417996  0.5850846282510892  0.4179969822500119
  0.3328057739480628  0.5860841221497084  0.4191907135194810
  0.2496056852936980  0.4197006181768478  0.0023047638582737
  0.1652609829868470  0.5848363747864177  0.7528998476932779
  0.2493717582985810  0.6686863452168481  0.0866610852861097
  0.4164758650642194  0.3359214556539973  0.7522045435029908
  0.4154389967700685  0.7531637593747050  0.8364195334530606
  0.3329770623722350  0.2525018851356157  0.9178573545353785
  0.4160680394655731  0.6693474341941984  0.2521277822673426
  0.4150907474797288  0.5853248000300536  0.0009797460715000
  0.1659757632426694  0.7496454150436818  0.4190951319041640
  0.8297846117254133  0.9184576539726067  0.9204093311191581
  0.9153281557388946  0.3369963455247642  0.4185091664639237
  0.9133416297037136  0.3366165125702169  0.0868689345254739
  0.9155462643746898  0.4197322485709282  0.8361414681874521
  0.9158191643848177  0.0836452235665328  0.5013309188304624
  0.8302057820306117  0.3362915780102632  0.1705080902893535
  0.8326234394674519  0.0860693577262359  0.5849230108198512
  0.9147836411221850  0.4188098198365602  0.3356306676377228
  0.8325850061683665  0.0868415190502605  0.7522242794413024
 -0.0015080394039427  0.2539610735477451  0.0864842510901533
  0.0825087202917289  0.4994400650736808  0.0853543264778888
  0.9136104373914909  0.4186888252989093  0.1697468631128949
 -0.0025481299531482  0.0856795261677401  0.7534330814518176
  0.1671111869980943  0.3359947254579083  0.5025064505332705
 -0.0019487389572289  0.5016417135915483  0.0039040754118109
 -0.0004742012831164  0.5021321663789164  0.6705943948007013
  0.7478991627303920  0.0868536667497530  0.0040342572486095
  0.9143806704974350  0.0873270953169548  0.8370036277096968
  0.3332870161500350  0.6688626698995763  0.1685542436424915
  0.0824864881771985  0.5006328471968507  0.2523305013872155
  0.3313878566015444  0.8354678420738548  0.5047661717281526
  0.3306528483903889  0.6682169407366334  0.5018376538788754
  0.3313691220491093  0.6687318557817140  0.8361046260568809
  0.1659566493940553  0.5019264147949460  0.0036080079831671
  0.1670149964363526  0.5022940805159950  0.5026119905012106
  0.3328477020720554  0.6695568221488248  0.3358338716473158
  0.2486232939353704  0.4189841428715803  0.6702346046286033
  0.4149880353262191  0.8358600127083297  0.2528729509113807
  0.1659576897145292  0.5854361100957567  0.5865293723476310
  0.4159387692836659  0.6696738157640161  0.4197652931263116
  0.3324042921557812  0.7531541212636453  0.2523712448462592
  0.4988976614377660  0.7522852958093680  0.5875097208756049
  0.1649218729543863  0.5847966127873749  0.9197764597523927
  0.3311438526574276  0.6692758434347067  0.6708496911853992
  0.3319118147862894  0.7522176355453082  0.4198323423073875
  0.1651175279275703  0.6676738762302492  0.8363232238499190
  0.2484750199872547  0.6686167571378138  0.5869752109710906
  0.1666516602034999  0.5023417033191935  0.6694736379696519
  0.4157076924138972  0.9193077798787088  0.1687996113992853
  0.4148672454583263  0.8349257091475459  0.5876939495696657
  0.3316765759781075  0.0028972953556373  0.3366813195283002
  0.2502439637859490  0.5850941440783319  0.1692470230744871
  0.3314022468210119  0.9196093724900342  0.5877883967664391
  0.2488259491809902  0.0034202276151663  0.0850795921329498
  0.2493885775172715  0.5839414200957572  0.0024861181366395
  0.3324608044239254  0.8362134359959192  0.1684259759394583
  0.2494791454303720  0.5855819465351175  0.3356655283192002
  0.3321075939458555  0.7530575135623789  0.0853147363813359
  0.2489098934608380  0.3354550023957989  0.5866946105459677
  0.3316805138956992  0.8359510678289647  0.3363290919816538
  0.1651302400903101  0.0040345962908226  0.1687979409148541
  0.4979947353746840  0.9190343825850279  0.4196969571143270
  0.5827071863217131  0.9188686530935528  0.0024445844959370
  0.1658880150657300  0.6686923472225657  0.3346864590786585
  0.1657732408566606  0.0025826288451316  0.3362055239840357
  0.8310823667008148  0.2535016689846375  0.2536239822544780
 -0.0005248198846586  0.1702652575624526  0.3363314294131614
  0.2501621860542848  0.5020586459607886  0.0861998853476756
  0.5824724783023285  0.1685864644998551  0.5847977127734271
  0.5005883953855981  0.0025325082615427  0.8351295097390316
  0.5822594627198676  0.0860700447240889  0.0035266158306198
  0.5835784810264546  0.0025070252259594  0.9194156819408461
  0.5832508926028973  0.0862315073896797  0.8356114096593240
  0.4983331898937041  0.1684477363184926  0.1701064965107595
  0.4980094900416789  0.2525095060521443  0.0860011095526340
  0.2501045154295821  0.4190235126349443  0.1686352426040744
  0.5811526389758592  0.2526800891052145  0.0036921030636759
  0.4988254580079441  0.0856406660287170  0.0858490856215844
  0.5806499696413192  0.2521492173400219  0.1705159116702913
  0.4984000859683806  0.1681593398491840  0.3375185683871945
  0.4988678658437229  0.4192347072500925  0.7521375927294708
  0.6641985984651625  0.0860253972600869  0.0868406097566575
  0.4992025730276713  0.9191446137150022  0.5884354276837432
  0.2492949532983013  0.4196428963867733  0.8360431029682480
  0.3319923969969744  0.9194565096913857  0.9177571657350034
  0.4153688271991687  0.6689982577018008  0.0844911842508923
  0.2492104937504281  0.2531129540567476  0.0019281883693120
  0.1654603698228694  0.4195767137354717  0.9186116765347976
  0.2492604898434879  0.3357169260130856  0.7529509458440601
  0.0843335586833460  0.5018609943505282  0.5859646739726385
  0.1664407279349705  0.2523641811151343  0.2532121771674152
  0.4986680585774831  0.0019167522373907  0.1696254365617506
  0.7473097282268042  0.9202120954757019  0.1693145561656700
  0.1669291742846429  0.4198251948132787  0.4183637136656703
 -0.0007152230321563  0.3361296227868519  0.3358362870351060
  0.3327563339954308  0.4189955356784082  0.2526831258812075
  0.9144003076017263  0.9185637667505856  0.0032992181893976
  0.9155379587866983  0.8322127171462338  0.9193323211282569
  0.8319313257486997  0.8349120598687053  0.8356477071753469
  0.8320228482089588  0.0037518015708390  0.1704660900257511
  0.7471642994209047  0.7519770765567166  0.1693018106586668
  0.9155476203638017  0.9197619189397043  0.1720708310650061
  0.0810016323075395  0.8358251192029903  0.4190106951829827
  0.9152297631196663  0.0027256349276739  0.4185421677665532
  0.7474703353396713  0.1692770720772103  0.2528548548913853
  0.9146826786586950  0.1701386314477830  0.9208294753677768
  0.9170853936794522  0.2518328916785333  0.6707461316043195
  0.8312246819166211  0.3371235825534646  0.8365162170009350
  0.8306052735434397  0.5022964764512798  0.0038215570922617
  0.9157039754121993  0.8364727431326633  0.5869514342930029
  0.8317372805072392  0.0038563731056132  0.6684451891545498
  0.9151216192131754  0.9199474979348238  0.5015245575133160
  0.0833968311519470  0.2534675081165445  0.1692468579845012
  0.5835124215237760  0.9192006039566474  0.5031477935144693
  0.2487852893354361  0.0853364834275163  0.3369709248327101
 -0.0011413188863749  0.7511775043274991  0.7532039269731475
  0.9159416309963453  0.0869248353615865  0.6690270598678543
  0.9153446440495288  0.8343429330343668  0.0875135948511751
 -0.0001503086399258  0.3371598917890870  0.5015339683932397
  0.0798383943005129  0.0865422420103339  0.0015608420020657
  0.0803925089136407  0.0866627040663856  0.8365273037076121
 -0.0019991140805843  0.0875411804995894  0.0869115161455805
  0.7470384653345522  0.0857437244605767  0.1703228826250074
 -0.0013798907890568  0.5012779353660901  0.3352133747747323
 -0.0018040999072134  0.0859834751320754  0.9201637257267864
  0.8299327453638302  0.0031451294531496  0.8367665788757910
  0.0811802187147908  0.0033781305879350  0.7513232681248200
  0.1652473297336602  0.0046947953010245  0.6699699613809571