Cr H  Ni
 1.0000000000000000
    20.9952649783643750    0.0000000000000000    0.0000000000000000
     0.0000000000000000   20.9952649783643750    0.0000000000000000
     0.0000000000000000    0.0000000000000000   20.9952649783643750
 Cr  H   Ni 
 259  17 605
Direct
  0.0828016314533601  0.6714297171849188  0.7520564387240067
  0.4993238374195981  0.3366470526027039  0.8360197700017212
  0.1654698731889879  0.1702583370903637  0.3376414393599032
  0.2497063583275920  0.3374740610973053  0.2526843162135790
  0.2491939338382388  0.1699935440449527  0.5852795188098818
  0.1653853314021094  0.2529718805860551  0.2531392674456438
  0.8317296859127991  0.5015623329082253  0.1691879322502078
  0.0802405202074029  0.4210281159757615  0.0028727614201369
  0.4158883788680621  0.2524262529333225  0.8357524303526985
  0.7466020490911097  0.4214263753379400  0.5056738248233760
  0.1670058156354593  0.0807258078778076  0.9180336844933457
  0.6645952383563480  0.4206378333950559  0.5846957084342373
  0.1663242545841647  0.2554686810692636  0.9202550544573993
  0.2489584571336855  0.2526951950827561  0.0007691967384925
  0.2497607372845940  0.1683568204165684  0.0861578215057665
  0.7493725703115252  0.4213643468825126  0.8349133323549127
  0.4158631554962980  0.2519198157658993  0.6695846085480399
  0.3331722098495580  0.4197408529298882  0.4206580173037187
  0.3316601181085652  0.1690945526026262  0.5043141790344465
  0.6652595289516758  0.5882206863410401  0.0908525700715335
  0.8327419632548618  0.6696867256985368  0.1711305969679996
 -0.0033827380829570  0.0851723022350136  0.9204218121834764
  0.3336144543596085  0.1694992177487563  0.8361146775178989
  0.4992110281860227  0.4176927555464187  0.2532769340039157
  0.6666853965643983  0.0036786569008485  0.5013930012031268
  0.2489457635122755  0.4193260784213924  0.1713008914240243
  0.1654083135005391  0.4197219677764930  0.9180413134126875
  0.4172059210451566  0.4200227681125968  0.8360647409456670
  0.7485691547066813  0.5873050079177105  0.6695584651354498
  0.5814188595659695  0.4204770118199003  0.1702333016629182
  0.5825734275605186  0.7523212887975014  0.3366453237565095
  0.2483736247138778  0.3373621216762576  0.5872242731781404
  0.9173015788754262  0.2523500362062757  0.3364153806963174
  0.1650987634598656  0.0855582732625564  0.0870901791421996
  0.3330099376441332  0.9200292774144120  0.4202628315151916
  0.4162082096372207  0.6696265304438154  0.0881934797787594
  0.4146196205591814  0.6702818699654876  0.2528786465222588
  0.2500013999278814  0.0006135485281736  0.5849114508401222
  0.5821566184090833  0.1679595425233356  0.5870127398760453
  0.0822398218666496  0.5860193635543156  0.0060525362413912
  0.2498500959470603  0.0032396973120425  0.9184126463815511
  0.3332988074802066  0.9199366248779606  0.5859292165516110
  0.4985596406721687  0.4197232467582771  0.0857785550633127
  0.7461377564763827  0.4227178059630134  0.0018661980256019
 -0.0017252837692395  0.3358283144544388  0.0034643506528095
  0.5855107793674802  0.0859191336695591  0.6700124920175536
  0.3336628197752295  0.5029338947705905  0.6690060439199785
  0.2492977936508521  0.8347964823940897  0.0872239663516456
  0.9161732919078650  0.2529469380161211  0.5040109806201716
  0.7474814744086676  0.3350690065530300  0.9170107163915884
  0.4170788814297664  0.2514015671724651  0.0029370261212092
  0.3328533919920801  0.5864851096658054  0.4192894637021605
  0.7486405908185745  0.5038036570472570  0.5857998177320638
  0.3320712183897229  0.5029432035129873  0.0032293431575395
  0.2492243894123523  0.1709611833948661  0.2543805463196079
 -0.0029457256448919  0.1723716671622402  0.3361801576033125
  0.7496458741781643  0.4212384174213071  0.1697003703170422
  0.4139117891214378  0.5873752145288269  0.8371174631626288
  0.4988952800702837  0.6709093385418430  0.1700061499367397
  0.8347302512761687  0.3376247812264020  0.6694300602911237
 -0.0007233833328271  0.5003920945712584  0.3381411083763574
  0.4127033484934832  0.4214657141132483  0.6673386877470450
  0.7485902384646268  0.2516310844884595  0.1698813668660767
  0.8333950969653615  0.8368884311531811  0.6681481783662718
  0.7490656398131333  0.7534445080686571  0.0049118831986741
  0.9152799107435703  0.0039209179182377  0.4194519797038320
  0.4974085940079288  0.0022054263636308  0.1720966678944803
  0.2503605343418088  0.5015727504617727  0.5877855719656467
  0.9170311465047045  0.7537052603542923  0.5019168850856534
  0.0820836778113401  0.0047136769438899  0.0878873373243546
 -0.0017362507500626  0.9214359461453091  0.0886995191229346
  0.1648898701424721  0.6697795933677486  0.6686345634395231
  0.8307684202360613  0.1684650437781482  0.0031327219802918
  0.6653557974403537  0.8372043999611511  0.6693830675565957
  0.1665133425464150  0.4207408561529964  0.7525894874188054
  0.2488911706772979  0.5892734245093777  0.8367879572150548
  0.6660903057137167  0.8359232228361096  0.8363177801150197
  0.2478574810005550  0.7523920227810564  0.3366677894750998
  0.2483976153359606  0.6699524272006616  0.9189777581482182
  0.0811159583166492  0.6684599627693780  0.2544025204973303
  0.3339841222995305  0.8370405421759309  0.8360810872875505
  0.5844989097169283  0.9171584758983815  0.8359513173400053
  0.4986288249495473  0.0022336728776015  0.0023792976301566
  0.1658500501492340  0.6688500821519647  0.1699590591870631
  0.2481298331598381  0.9207945798556585  0.1730081756939809
  0.3325853858864548  0.8373631383430137  0.5013981399133252
  0.3322792277241995  0.0877790074413334  0.2528203018296355
 -0.0007145140018466  0.9196991162908847  0.7516778896730726
  0.6661836917530932  0.8356804698639638  0.0034810515322847
  0.3330296974394397  0.8370722759418759  0.0031332210073776
  0.4139747324988963  0.6696795167471361  0.4181571232589297
  0.5809597257948099  0.4201561086214530  0.8348085322419271
  0.5823457007078836  0.6722260155115077  0.4175225116535991
  0.3325285531722582  0.0018252780503481  0.5029183370014580
  0.4996826713062066  0.7524223811529379  0.7533761724799755
  0.6638580926945120  0.0022025593457904  0.0045718650193471
  0.7482261758326337  0.5877850225877073  0.5033725480772050
  0.3329730569380023  0.1698856989352584  0.6681022247117497
  0.8337565993939103  0.0031681207824548  0.3369498449973275
  0.4173677803327914  0.0015147599703003  0.5854731345479107
  0.3340015153805191  0.8372753572744805  0.6682738561469095
  0.7483712162516729  0.8367051144776513  0.2527840898633355
  0.1650501268130698  0.9197435354024063  0.4176527298488649
  0.6659246004773388  0.8370450005893025  0.5006319880138752
  0.2501380711370220  0.3354959350705881  0.9193289124377763
  0.9155005388420345  0.7544605383646731  0.8348696009709273
  0.4153469263356172  0.2531721210552804  0.3367004625390684
 -0.0032500881174485  0.0036234304908038  0.3366526623015939
  0.4168548414209494  0.2513772016050158  0.1699626491651406
  0.3318693235999583  0.5021842501406752  0.3358832769218809
  0.4160126669037740  0.5015525271245586  0.2537025862294572
  0.0001261710344899  0.0035066701035875  0.1691286961681737
  0.3328612066272634  0.0868018944525398  0.0864641185986841
  0.5004240617452183  0.1684241870273789  0.0035755290280208
  0.4979799038000092  0.4204866047453937  0.7556792335877489
  0.7483768633386051  0.7537977008158202  0.8346816946603426
  0.1661120300608145  0.2506287417358350  0.4207971265425550
  0.9157306960429564  0.2527176119470963  0.1688797741005893
  0.8343098019985346  0.7528863727038342  0.4197848869937817
  0.7507589849488503  0.6699665677152238  0.7513388290957680
  0.4171593683016673  0.0027430584120212  0.7541102966881159
  0.7498189155629325  0.1697758321309047  0.2532903600334170
  0.5819297916923690  0.0859633862183800  0.0040696451494735
  0.5803790759753524  0.4192239918544892  0.0046408947316087
  0.1663373405084542  0.4175311761477806  0.2512763995179899
  0.8327003956820388  0.4219767193063628  0.7538358830975607
  0.6656377853641638  0.5881914549055232  0.9158001247674132
  0.3325165139459117  0.4188349256734894  0.2535651824670684
  0.2479581767654197  0.9205017550602499  0.3367969294922956
  0.2486561204252373  0.3415004999176962  0.7524786036931124
  0.1652444926766252  0.8367886016842205  0.8362812539079515
  0.9160673491770968  0.0014101173819489  0.7521959797131881
  0.8306924246378377  0.9199311637840062  0.9200455353384703
  0.4983964386366723  0.7516939326266447  0.4187261002325874
  0.4148502112454566  0.5027155701023740  0.0856896579887180
 -0.0019018592074799  0.1676765379158802  0.6667954578836832
  0.6651157216678018  0.0037689207514897  0.6690925891149843
  0.6660648437383584  0.2516398298770617  0.0881486310321231
 -0.0001119539292269  0.9207151860067047  0.5847590241680374
  0.1658659096863120  0.1713256427820261  0.6679898321128853
  0.2479081488014420  0.4195428573283558  0.6686113910366434
  0.8324663693563097  0.9194660680496548  0.5866723674994362
  0.3349473871475588  0.4197584251979536  0.0851838622126818
  0.5829369486666769  0.0866555372009172  0.8365398052131053
  0.5805503131466596  0.6720788425358534  0.7543403170598723
 -0.0013055793900495  0.4191673180760725  0.2528295321560569
  0.0833390669636300  0.2515018094119864  0.8359488153326872
  0.6652216899894112  0.2517829013696277  0.7530351824569492
  0.5809922290222675  0.6715339964490381  0.9193323661887141
  0.0778248695814688  0.3364276371910407  0.0841416254629066
  0.9158063667867086  0.8370852773986704  0.2520798194176648
 -0.0008526624965186  0.6684212914698335  0.3351607544897743
  0.4997686063992650  0.7529303157166560  0.9186409311671360
  0.0827121733937354  0.3355960908410350  0.2534068178531831
  0.5010492066072171  0.3361220760020222  0.0026505711553315
  0.5010594896447476  0.0871955427157979  0.5855512684842352
  0.9155385179945876  0.5041903074923416  0.5845426261311357
  0.5826562017585227  0.9191673171040130  0.0048822923725185
  0.2499589256189072  0.1699441191404485  0.4199643892936340
  0.4147403863436048  0.0027432970853343  0.2529607238463185
  0.4980770400138874  0.5026720073344652  0.3359252151131640
  0.5808856658523155  0.6723513801395197  0.5861591503056631
  0.1672611432862136  0.9187333055615587  0.9187864089723248
  0.7494927165341034  0.0855238282818766  0.6694366967860177
  0.1647407586271772  0.0885680721830270  0.4203280742391973
  0.5814084921929120  0.3390884921424377  0.2518964034455433
  0.5805392659231658  0.6707928395726142  0.0879935029004870
  0.4980656737822883  0.5872097569751026  0.0869202406736234
  0.2484784712855970  0.6703461266783098  0.0868814762600395
  0.7496304216694584  0.6687055568709110  0.4210534918595761
  0.0803328708732309  0.3363307467338348  0.5861474660595837
  0.1658830202909553  0.1700671522209292  0.5027283315237283
  0.5821168370594937  0.5039027402799839  0.5858027395493608
  0.4156172175914795  0.5030061230942721  0.5852795898343266
 -0.0016938512834807  0.0865228339005802  0.0859579660251846
  0.1658965833771956  0.0900310887882687  0.2550376083311668
  0.5809577928785542  0.5022381475215215  0.7547475477837238
  0.6666623738939450  0.5864709626360752  0.2545628687237476
 -0.0026309371502852  0.1704495970452835  0.5034542371573691
 -0.0028971772572223  0.2509456953028151  0.9201096463133750
  0.5808888889299814  0.1647480674766121  0.4191612009774450
  0.7482250078669848  0.2523733599044177  0.3353476875803740
  0.2489237111529153  0.0015461451675868  0.7528506572922017
  0.4174950154991171  0.4208616130149154  0.5031824738015140
 -0.0016791970461592  0.1674672875774386  0.0045400628918442
  0.6656236626020956  0.2528513816664996  0.9191502242523428
  0.0816696905974532  0.1670094553376300  0.0851932482246066
  0.7484854950679112  0.0018886425573835  0.9202269018402827
  0.4159880552776699  0.2530867950242412  0.5026406904937114
  0.7475061467982490  0.1690317785513786  0.9193969136657325
 -0.0018270403961741  0.8378606691053327  0.0046078491131589
  0.4990516634193470  0.5040555634850016  0.5037534528149642
  0.1651319378353545  0.4188068681141317  0.4212910474786425
  0.6662391355357919  0.5039508915981674  0.3366297655406061
  0.1654667075639052  0.1688776396343372  0.8339555552913250
  0.0808506196277028  0.8388853549852906  0.0876297931377414
  0.7496703360319241  0.4210585862847588  0.3370400194740254
  0.3331233986982444  0.6688829790676822  0.6682103194939296
  0.0799046406236612  0.0009383918395567  0.7522435854560506
  0.0811209942329557  0.7551927338893374  0.0048548594774975
  0.3329615428900020  0.0861488199208974  0.4202256475079854
  0.4148973264518114  0.0038513956522846  0.4194159239797491
  0.1651466573871938  0.8379111764367678  0.6683850700745643
  0.0816410279109144  0.4177417353094266  0.8360707141136605
 -0.0011209928348722  0.8382993661423597  0.1686539433787273
  0.4170766034265370  0.9204318793637607  0.0032248443360597
  0.0819592545672787  0.8370623376143572  0.2533603465976900
  0.9143009388557581  0.7538226333495396  0.0051007875128908
  0.1658793532083884  0.5902041869824450  0.0868706727739507
  0.4135566835511077  0.6713104315769102  0.5863337736228572
  0.6663602633439655  0.0033440175585257  0.1714917006577590
  0.6662289187712652  0.9199415871869552  0.4182965269470587
  0.8320520099912307  0.9196863243960517  0.7517866878483866
  0.8310815791316361  0.6724761995076562  0.0032701248934910
  0.1661866817428066  0.5866635931316933  0.4195028108956763
  0.7484846379573410  0.2525709243260785  0.5029577418461609
  0.4170360296853762  0.0018449951082745  0.9205281311633182
  0.9149102485551740  0.8354610208433167  0.4211577496954195
  0.3321700374335185  0.6703063005356553  0.0035710174337897
  0.9159459953996482  0.5029157823962507  0.9192235989038445
  0.4980920002258363  0.8354169167952101  0.5026677813591489
  0.8304638134543854  0.1684632319463649  0.8371951128766992
  0.1645339406703087  0.7532340016482494  0.4194750876587083
  0.4984495374380310  0.8351933247423901  0.1728384663091536
 -0.0012281981685122  0.2536709911536884  0.7529451948435150
  0.8305386260738846  0.1681880697015233  0.6703854799794483
  0.7492216188536993  0.5029733922863827  0.7535656160649924
  0.0832869974285133  0.7558268402856629  0.5009662011146618
  0.9136131108808884  0.0007970683509085  0.9201350490378940
  0.5823367336886945  0.7526481834948556  0.8353400316641151
 -0.0006106419138487  0.6695359142221736  0.1729213229825404
  0.0830793409372652  0.7548758657023423  0.8360298286174200
 -0.0009126002301917  0.5893379409497556  0.7517009355873344
  0.9175268346892872  0.3345387968122121  0.9196339246463132
  0.4986136353986024  0.1706629826970039  0.1715292209143621
  0.9149588474395708  0.3354961020315397  0.5865510261042977
  0.4985234477633124  0.7545378343888276  0.5854270779599258
  0.5838355273720577  0.9196204304447078  0.6682266458441247
  0.9142329755490074  0.5043818017731325  0.0870962214742109
  0.0802281655720810  0.5040283470962578  0.0854206496997267
  0.1652379868272374  0.6704643792911149  0.8372452590000472
  0.5826807511251630  0.3395886940665446  0.4191436262857545
  0.4156527911382191  0.8364864240799554  0.5867825842734898
  0.7490451425210882  0.0846749918277597  0.5018968105979997
  0.8305411199099986  0.5006794503968913  0.3375558805616211
  0.8324423246424355  0.7531991080556460  0.5861397161290657
  0.9170086465051638  0.5857112748155081  0.5032626563881046
  0.4991021361163963  0.9187531817996841  0.4180252679416025
  0.0833006740265754  0.6702853233918328  0.5893196715647488
  0.5822103855018944  0.1698304978855842  0.2528366787620020
 -0.0024284675916540  0.4194777142520356  0.4191640940462641
  0.0824722301702135  0.5034390704695199  0.5858238020378712
  0.4988790405181099  0.7532698449563572  0.0870816034207500
  0.4992103378944581  0.0874098172550128  0.4195391263945378
 -0.0005882444894594  0.4206745913962883  0.7533861445469388
  0.6666666207510783  0.0018529480220503  0.3375050352490868
  0.8310390386988151  0.9196814645943734  0.0880970837782259
  0.9169892061537809  0.6681548589807388  0.2535504414551388
 -0.0006466956729093  0.6692401926713205  0.6704868867237870
  0.7443460859692116  0.3360081888034657  0.6696306855605924
  0.4964660727168125  0.0873161868694037  0.6736322077382627
  0.5012414602381179  0.4180909976137063  0.6673956929675131
  0.1648705609930721  0.0812376178835462  0.6686327266940211
  0.9975720542123691  0.1657400517627651  0.7552615456010199
  0.5824312420232777  0.2520547819712122  0.4203938388374734
  0.9151214710914132  0.5927010423165383  0.9190092586234251
  0.2494356191022948  0.9231313809504247  0.0844928303085670
  0.2489093425783680  0.2504575816459796  0.7524763565390936
  0.8358973324143167  0.4201757743957503  0.0023297775609507
  0.6657995753760162  0.5869164987693006  0.0035153711859671
  0.0827816712719398  0.6666698200015653  0.5000625134000134
  0.1687550115672227  0.5013787894242756  0.0863988527031503
  0.1657102778366134  0.1683669966771951  0.9202222560121186
  0.7494182807153331  0.3338427532281653  0.0057571942858504
  0.0821034112448246  0.5073553791865397  0.8368078021932409
  0.1690569719285679  0.3358510852371643  0.0853523602848637
  0.9158301596968543  0.7532190341876993  0.1714188102931366
  0.6656113498647661  0.9193342855619696  0.9203442217394172
  0.8325668436554210  0.0871727249587947  0.4189273940659039
  0.9160095545324627  0.5876555093557589  0.8345180954322006
  0.7501838718677861  0.0026877536265310  0.4189501839752738
  0.5829334995786662  0.3357719523408855  0.0878180754111253
  0.8323758717120116  0.7534137086941883  0.0882305164433561
  0.8316000660759472  0.7544155337602334  0.9194717203421993
  0.8330756344305736  0.8362329958624358  0.3359198780335707
  0.7482087547447152  0.0852405493804261  0.0032007417564034
  0.7501334161263443  0.9195684254709452  0.3363298104213284
  0.8322794878847666  0.0867741930489723  0.2539625767644066
  0.5819991976173940  0.0026360437928407  0.4191094841084160
  0.9147537202472493  0.6702216329546743  0.0882851963750318
  0.6652500742241154  0.1696980446202087  0.1714457437447960
  0.6652513976985883  0.0022869201470042  0.8365796862319289
  0.6662926968965966  0.0859523563625436  0.4183041425963866
  0.4979055377929348  0.5862027384446358  0.2532184889032132
  0.9143803276479621  0.5016475623065443  0.2540170802530766
  0.5825214336929276  0.1695047460557330  0.9194677028578969
  0.7490992949474697  0.0858563899679444  0.3361664297953746
  0.6640846806920838  0.5027989636097058  0.0030779789147285
  0.5829302151930635  0.8359309140369376  0.9200793683343622
  0.6648932287938639  0.3369314837643870  0.8353561042056178
  0.8330006388815946  0.6699882800183484  0.3370646671344437
  0.7480572115025926  0.5035551376022428  0.9190468319601843
 -0.0014091721211464  0.6695152157954057  0.5023266449954826
  0.4991462405106472  0.3364403980327559  0.3366954577159093
  0.4999078840330300  0.8363251743643925  0.8358487791388902
  0.4981159416360291  0.5877239239689448  0.9195182872054989
  0.5834212430473485  0.0021830286621054  0.7535710466445180
  0.5810619187433439  0.5880713754481661  0.0034783751559318
  0.5825703080756335  0.0854879806450516  0.5022282487272859
  0.5823317037354306  0.5027944210970517  0.2535746001385474
  0.7492040244767030  0.5029840985122482  0.2532802236325024
  0.5822472248270140  0.2518366187026309  0.0036720368974040
  0.3308511978744090  0.7530621134003433  0.2530629296730157
  0.5822214271427512  0.8363179340885284  0.0882234446492381
  0.2494692373205994  0.0858172187145352  0.0026050440620152
  0.4158046294158610  0.0869102850891185  0.1703123742534239
  0.4989854385704280  0.0029658949173041  0.5020941475493487
  0.2488715806759838  0.0852820021407404  0.5040613588520655
  0.3335383576594395  0.0857149471894965  0.9192187280773514
  0.2487914938704228  0.0035278328309498  0.4199342883049210
  0.4995975714543219  0.2524021822186665  0.9196726639619623
  0.4164117188031744  0.0867104942449785  0.5039822641141883
  0.4979095631410637  0.3356333950575823  0.1689733879540416
  0.2483388669407624  0.9191653366770446  0.5012491946104556
  0.4984283808098198  0.5031754582051503  0.1699455563592898
  0.4138012175113813  0.0852166294821278  0.6690265469451214
  0.5831174244652632  0.3357097966004799  0.5857790921249901
  0.4992028201614512  0.3348499515503678  0.6697499618216836
  0.1655164796980339  0.9185698773372399  0.7528859710724173
  0.5816491421628426  0.1692108483813748  0.0878120569432583
  0.4992193772123623  0.5037175896051962  0.0028057905820506
  0.1653752107255005  0.8366036706883755  0.1708019920716027
  0.4995943277350273  0.3362730357340001  0.5027698782376604
  0.4987468259317314  0.2525253127558300  0.5859505893896361
  0.4992048386758646  0.2539521928099590  0.2538717785413208
  0.6662455075447602  0.2517798168598466  0.5856871146448643
  0.4990261605693770  0.0857178905913033  0.0875506567854417
  0.5826230815154433  0.2518268360770630  0.5035984195944730
  0.5821469897003440  0.2530457809967544  0.1707253704934853
  0.4986987191107221  0.2530231357086217  0.7531310702540330
  0.4986872667502910  0.1697798540571814  0.3355977180412981
  0.5832053459196890  0.2522353815580046  0.6693380681498622
  0.4980485358085752  0.2525802410099762  0.4193635281102255
  0.4155548404885013  0.3364327550533792  0.2532593824292554
  0.4989836110162951  0.1694906877852385  0.5029838448851335
  0.4997418627807752  0.2523640792655668  0.0862703742148265
  0.5821515344982608  0.2529177855441740  0.3348705000640065
  0.6653056678347445  0.7534322217579279  0.0879192002419105
  0.4155300899628865  0.8362275656072178  0.4190693927451120
  0.5815521360125587  0.5871283088052293  0.3359496587956874
  0.4158472765439745  0.7531751816050296  0.8362292284571387
  0.9156214716873546  0.9197770577200999  0.3357430822135536
  0.6656191233124098  0.7529170241923994  0.7516210225849004
  0.4987052513278292  0.6701678212126667  0.6692920519751075
  0.9149646395099449  0.0032412446611622  0.0868523982077463
  0.9158075873246511  0.6716674534540825  0.7523673940574802
  0.5830932568732505  0.0029052405471314  0.5851143559505668
 -0.0004671775011451  0.8370774255333667  0.5019762302236321
  0.6652554468044736  0.5873059704089518  0.7530121495243201
  0.6655277469359057  0.3358196270091158  0.5026045336645160
  0.5822377884490464  0.7531629994295341  0.0034931734334854
  0.4993094720990873  0.9193371642851402  0.5861193533233343
  0.4143365577004675  0.7538459402862143  0.1707177800592765
  0.4980568158312244  0.7531603236593921  0.2536755905745600
  0.4153978432848570  0.5031968150860243  0.9198666914686622
  0.4983862413452235  0.6703621783652307  0.0042642578941211
  0.6643595343587450  0.5870013861369517  0.5861427090652812
  0.5818416819653712  0.5035242760635702  0.9191724072737100
  0.5815313643684358  0.5880454839631216  0.8357801612295841
  0.4146198007181650  0.6701863466947898  0.7530758846863616
  0.6660911101436895  0.1694115423545652  0.8361849096922174
  0.2490891550015115  0.5036588518221460  0.9190003126924212
  0.4992999226949072  0.4199892287421056  0.9190480761936850
  0.5816913830495607  0.5035262211114403  0.4189528995443448
  0.4169545396538826  0.4189929155203366  0.0019442581583916
  0.3321492039188998  0.5028492513508181  0.5027356043971235
  0.4155232637145993  0.5862655975672989  0.3360174404882968
  0.5839633970946503  0.4210043122767212  0.6703987738630842
  0.4157548579927745  0.5037623074455980  0.4192800190185181
  0.5816124010102073  0.5874978318979157  0.6694018354470037
  0.4154184273968994  0.1701779065463905  0.2533426712637832
  0.5823287365561312  0.4204125601069504  0.5024438522383000
  0.3324422702065384  0.1699087751588611  0.1697058484212792
  0.5827477145870482  0.0021397643586693  0.9201951685463050
  0.4997295399913245  0.1697078457113571  0.8358357372093058
  0.2488515426325344  0.6707692460695299  0.7529555990750647
  0.3320326509209250  0.6699034426242257  0.8369172288137882
  0.7490762426414068  0.9192029884631354  0.8360530874167835
  0.7488455681979285  0.3364067604222143  0.4203073647683820
  0.8322360745461946  0.0021040406087159  0.8362218861107699
  0.6661576268136198  0.0859824566831304  0.7536888848972340
  0.7489613745377796  0.8365503263341748  0.0877341970654766
  0.6653902875919674  0.6716594040130358  0.0033878376967771
  0.7493859480256887  0.5873310024364626  0.8345553611370297
 -0.0017709129766030  0.0827951925997603  0.7526004019215172
  0.9144811140938552  0.0846966695183031  0.8370875667019900
 -0.0021309882110946  0.2514383359947514  0.0853540211993955
  0.7487701987328407  0.6718795400367144  0.9190271046810711
 -0.0022727459488526  0.5873649572303279  0.0866182120307626
  0.8321798084117225  0.0018846979464564  0.6688174011000058
  0.7494972634592174  0.7526556515462604  0.1713077226921604
  0.8322384810271165  0.4195633206046336  0.0870392943878018
  0.5825571529074499  0.0024373197455686  0.2529435146669880
  0.7501445198648247  0.6691483742105355  0.2535675284999219
  0.9144666186884463  0.0855994007139482  0.6690402811078513
  0.5817693213501692  0.5859209176223984  0.1714433400454841
  0.9164505423543691  0.8369074194429246  0.5850891957230502
  0.8326335940520628  0.5871140561344217  0.5856294885538503
  0.6666200589596031  0.7527063436555332  0.4194937367692170
  0.8324673018661090  0.5034027736159203  0.6690968012412720
  0.5811526037549424  0.5886268578941817  0.5027716665013466
  0.6639134804704504  0.5053278329956671  0.5024772821222602
  0.4981641375647756  0.5047788025608524  0.8375499237778701
  0.4984579008201369  0.8355930180627748  0.3367622336262893
  0.6667862244518784  0.6697184781502211  0.3364637990872146
  0.7500230227023190  0.7530255978777642  0.3366081212868942
  0.8316568414188511  0.1705471359164553  0.1699757870896722
  0.9142864068296656  0.1686548109921041  0.0865163363459663
  0.8323034458042001  0.1716527009684242  0.3363351666154114
  0.6646596241633856  0.6698818657763417  0.6696373048576659
  0.8314273564267864  0.2525456972460100  0.0869676471434331
  0.8323005124434043  0.2535967293061919  0.2531565652194031
  0.7483619072982830  0.4222415901592529  0.6693854128667083
  0.8324962623183310  0.5865604305665717  0.7521217966020211
  0.2491128807695095  0.7540143159026743  0.0035950203311163
  0.9139135543455503  0.1683934309946826  0.9200273224303976
  0.3328126929221368  0.3364390746386850  0.5030949111563070
  0.8322764533811938  0.5870585067604729  0.0875513396606351
  0.6656500038212219  0.7529122368561493  0.9193160509337245
  0.6660123515620432  0.6705031644493654  0.8347576950013075
  0.7484525392877629  0.0859379434088158  0.1709023976800844
 -0.0022485507379688  0.0873476306926252  0.2536365119300439
  0.8323026966631891  0.7539043094176568  0.7515456404473649
  0.7487512058129758  0.0026488309613962  0.5856701178164547
  0.9151058247400675  0.0025648649372777  0.5854122386535284
 -0.0018956840564073  0.0022994090802533  0.5019124243116170
  0.9159615217395370  0.9199308765482843  0.6681488900707458
  0.7489505445993427  0.5039001471530502  0.4210624492116776
  0.6653448127073726  0.7532698015673202  0.5859495780926669
  0.6653402460338589  0.6704956280168175  0.5029043765550644
  0.3326888239047136  0.0855122533848289  0.7523297432609660
  0.2484467970875219  0.2543226954357874  0.6674916255825306
  0.2489504868222780  0.2525662146126134  0.8368051288224583
  0.3324962724930178  0.0848601718805792  0.5863045921049650
  0.1654134715659417  0.1673694229786961  0.0037581296010782
  0.3336622701820803  0.2526010165277666  0.9189814631321478
  0.3334859883296226  0.3354582640146141  0.1687347614704423
  0.1652891220362186  0.2504739332176268  0.0848031314696719
  0.0815283833369466  0.4190700427040995  0.1692782325264012
  0.1647786235057821  0.3344675895423297  0.1693274617267086
  0.2521848300620135  0.3356682570790944  0.0855729943243062
  0.6667086804038627  0.7529133444879548  0.2541700946057979
  0.6661219988452751  0.9199728043318107  0.5845138203376674
  0.7486776288551588  0.8373697057642452  0.5858569745397308
  0.7489649490911361  0.0031275280193251  0.2538236725388036
  0.6653234586324213  0.6697045762686021  0.1712124039343307
  0.8325040017535534  0.0028117433831537  0.5022441599802867
  0.7487503535495793  0.7533307606436173  0.6686815626813312
  0.7486653559804080  0.8365539178444316  0.7516737421593619
  0.7486226423073715  0.0020081958534003  0.7521632735061664
  0.5830112658014190  0.8364862088036460  0.7525537172881931
  0.7477753492299332  0.9193495610994652  0.0045997314553595
  0.7489326735451635  0.8362511722532859  0.9201951668108922
  0.4984441770966097  0.5882861338604818  0.4192125604892762
  0.4161590689430654  0.3360710077947147  0.5859541785355549
  0.5004383543093067  0.4189916338042611  0.5849423342167793
  0.3331963713655324  0.3374831156120323  0.6690743922024017
  0.3327537856406717  0.4196297700959092  0.9197655972183033
  0.4158711393674275  0.1696816342515202  0.7531691775832117
  0.2495782053344446  0.4188716851307856  0.0024893723344369
  0.4153929281391853  0.0858154962122363  0.8360543137181623
  0.3319978515141265  0.5863744972659252  0.5856928391198225
  0.2485760173362882  0.5016196173726335  0.2538894188670278
  0.4991183935315300  0.5048561357915046  0.6687376904843384
  0.4156951554523117  0.5872588107473243  0.6688454342119877
  0.3319723784376826  0.5871628052442471  0.7528076722814747
  0.4152616909491438  0.5037709782021552  0.7537345510306493
  0.3322371086046503  0.5866477199736170  0.9199745095643339
  0.4164810405176431  0.3356654609789363  0.9196101741591580
  0.4151121020882711  0.6708451025448552  0.9199203693816004
  0.2493277069807925  0.5874695079298613  0.0032709457263863
  0.4153043875756030  0.7536404599302483  0.0035023880181209
  0.4168863462707206  0.0855967053102724  0.0032093172093584
 -0.0016114223479726  0.0027519568751136  0.0036406672699234
  0.1652277475428853  0.9203071439470705  0.2540949322503167
  0.1654286662407917  0.8371093770148496  0.5015887375930521
  0.0822245271730053  0.9197512812676222  0.6686738143447701