Cr  H Ni 
 1.0000000000000000
    21.1200000000000010    0.0000000000000000    0.0000000000000000
     0.0000000000000000   21.1200000000000010    0.0000000000000000
     0.0000000000000000    0.0000000000000000   21.1200000000000010
 Cr  H   Ni 
 259  17 605
Direct
  0.6618758714245866  0.5818288430616821  0.4146673289380145
  0.7466969694528931  0.3339608448970884  0.4161878621456430
  0.4122559150667978  0.4993818169024960  0.7501172026338476
  0.6635786676499096  0.3326428872144843  0.1659718220350688
  0.4129751671852063  0.4179657562286201  0.8338427458128178
  0.0788012869021198  0.0840635999856901  0.6652174913997650
  0.7466930177956488  0.9998058500932990  0.7492273798309778
  0.4950877867445242  0.2495955208091940  0.9154236598592629
  0.9124403371370202  0.5842917547461771  0.1684317078578852
  0.8304047985143196  0.4171805851650610  0.4174623981134241
  0.6623437901255720  0.1668470057150105  0.8345558107763950
  0.2460015447183334  0.3341562756914646  0.2504754998101725
  0.4116052324166993  0.4174760272210463  0.3324740598981606
  0.4944128487690752  0.6657478734012506  0.3346701486256939
  0.9956042459993094  0.4166792088297979  0.4155640219557710
  0.1621053741457812  0.4158177259544177  0.7492744457283578
  0.3293024300165339  0.1654838417770822  0.0015521497431725
  0.4950259517825680  0.3321839042968439  0.8348338651293451
  0.4123113606580379  0.4195789208635554  0.6676168546005038
  0.4114572121801820  0.1671900965299893  0.7494881743060268
  0.3298588782987095  0.3348621111248539  0.4993193381636035
  0.4948765330242205  0.2511536218751096  0.4159607777867248
  0.7455465169567663  0.5837797236376232  0.8341433587800791
  0.6648459610254499  0.1673654198209194  0.5000549405394361
  0.4946434219305322  0.4991518751213543  0.1667044000715576
  0.1613211746541050  0.3348824677052603  0.6667264140272945
  0.9958575959070162  0.1667515901149595  0.6659362070083822
  0.9124123503343129  0.2495173799099761  0.1665703398610344
  0.2434479070895639  0.7481951318065504  0.6669946559534646
  0.2462377010509771  0.3328046203291075  0.0839928969366496
  0.9126330463518744  0.0819556876558758  0.1676898030901723
  0.4120626466856315  0.9994134377805338  0.2489190889167976
  0.9121586495003265  0.4155304836705750  0.8332420102266231
  0.3273622101403856  0.5823964197862712  0.9173148402552375
  0.4130257901452934  0.0036367392299125  0.4160089448634984
  0.8305268426121640  0.4165706212826524  0.7482380326026409
  0.8297232021442132  0.4994736193243090  0.6669627675566135
  0.9104822587586981  0.8340792137153533  0.4181661816387495
  0.0784948459778047  0.2503198978831406  0.8347637415011848
  0.8301549034280552  0.4161755618267954  0.9172757327283987
  0.3268469142421814  0.5818995908594936  0.5839785761084674
  0.9946197987945579  0.9170159395740041  0.5804615068487469
  0.4956497857875763  0.6650996511184843  0.6651244139441037
  0.0805822444882557  0.5839100961282077  0.6662126576324683
  0.1622070650726370  0.9994103043637662  0.1677127765984786
  0.9131321429334476  0.9173812971628882  0.8323192003138221
  0.4129102576500113  0.1680815337615990  0.4164868404518691
  0.2473478765174408  0.9159491792705793  0.5005567505875294
  0.5791420903174996  0.3332347697481316  0.2497037333047033
  0.2455247895964341  0.6673490643476618  0.4163449649491319
  0.7443074664097555  0.3330318755117441  0.0847620450214069
  0.8280153148010136  0.4161828255577248  0.2492995541526163
  0.1620508780717003  0.0032716066746462  0.8325508890064054
  0.4948628755058291  0.5004967465338710  0.4995011253459997
  0.8283952762865832  0.2483607792699310  0.7478749752407825
  0.6632014209764356  0.5012571134618485  0.1655890834581816
  0.9956802919722681  0.1671513557227112  0.3337081337548717
  0.3276527999998736  0.5011278697077842  0.1663948216955921
  0.2449955942478005  0.4995111676102861  0.5832626511752089
  0.4110743506375024  0.9994708691530492  0.7494791912020039
  0.1626790531675675  0.6669097302842185  0.6672817612236827
  0.9123710221264872  0.3332338518550289  0.0836619625642042
  0.9953504558381748  0.3341402406589416  0.6668733495532262
  0.9955757994014638  0.0845732235314347  0.5850669753841349
  0.4133606888616694  0.5811405207200956  0.8327583812943977
  0.3285021771718113  0.3335357977574366  0.3329145897390569
  0.0803586018180087  0.5833094776293247  0.8346775188051107
  0.2461714113206868  0.8299997700300955  0.4180257928186590
  0.4124415996827859  0.6663704997876522  0.7484337251836531
  0.1612299059774374  0.5832234647912234  0.9177986226890735
  0.1617693948860452  0.0845360276789606  0.5828953755381872
  0.6628780388182370  0.9158937224961906  0.0834491665476159
  0.5789700369601605  0.5826753812844527  0.8337552561873084
  0.6628310048004358  0.8327344973437049  0.6657340325248724
  0.9111736572516362  0.9168733695987795  0.5009535574801439
  0.4955655650115456  0.5831772265701843  0.5836325028312757
  0.2453044244138218  0.7475142114801602  0.8338563967169340
  0.6621922076781116  0.2490187584650881  0.9178403158618058
  0.7453160246978247  0.7484462866789576  0.4999978012026486
  0.9953395803734826  0.9988796659099379  0.8319225800243396
  0.9117864828195965  0.6657762235596516  0.2491485752543567
  0.8303478497807242  0.7510944473448520  0.7506654117862663
  0.3293496948901875  0.7516357897667280  0.4172909644811829
  0.4133809891244684  0.6661680809320120  0.2501948089671123
  0.0797612091208894  0.8334036061852302  0.2507152874944079
  0.0793213980676061  0.8339808174860937  0.0829422292524653
  0.8288492849478243  0.0840004055319555  0.4157215587544226
  0.3278986971186576  0.9162013987714034  0.0845042818817649
  0.6640334721972305  0.4997817757377425  0.9987874428553952
  0.6620747922652348  0.7500578100367991  0.0847595286855301
  0.8311766823066493  0.5833698356057635  0.9170951401301185
  0.8294595549191776  0.8329378808454142  0.8328838538172919
  0.3300749689975511  0.9183335841784374  0.9165627234989403
  0.3269390388411945  0.5838467719297207  0.4160873937433253
  0.4105841852550696  0.9993193596938619  0.9172462291149629
  0.4948578365292944  0.8334348683026751  0.8334807869503008
  0.2468615374144844  0.3321658095481884  0.9159299119213188
  0.4120653336587334  0.1656711050532626  0.5850127441304328
  0.9117317253888437  0.2488128420935349  0.4993793441052841
  0.4085490892206675  0.0009472405694930  0.5848091536919920
  0.8284381939263551  0.5822381187339427  0.5829036947319254
  0.9967865562648938  0.0843398808553790  0.7478815220320003
  0.2443773890925175  0.0840090115271869  0.5007264499199907
  0.1603315481529106  0.5013428790838271  0.1652806391377151
  0.2449563135456407  0.4167143142093599  0.6673933434748005
  0.3285030098716728  0.5830562884316446  0.2483226596408875
  0.7460985135024955  0.9177378995615737  0.4998559401447479
  0.1619000945501210  0.4153482604601017  0.2515759273781021
  0.0786905780350775  0.5844888667850620  0.0001413337581352
  0.7451707544470996  0.2507185628160555  0.1671928447649537
  0.7455029346415507  0.0824368871956255  0.9990455484616889
  0.6623451809577652  0.5826261850832308  0.5837605506785517
  0.6617563914397555  0.5831253956797482  0.0839748196464764
  0.2458082220522950  0.0851060093099671  0.3312117614428166
  0.1622121187118899  0.9991254941191294  0.0004744471041854
  0.9112520966846256  0.1654990882390417  0.0846555862551047
  0.2448108996238621  0.0833649349317233  0.8342873176255347
  0.8268361217774819  0.0004147528610887  0.0010719981470036
  0.4128189240150709  0.1675843133906668  0.2493727134081380
  0.2434890694659108  0.0848376518593447  0.6678656378234427
  0.2461833238498833  0.6675401053796959  0.0835985954080581
  0.8304457168690010  0.1669081823790495  0.3340802308083602
  0.1592534811189000  0.9158577692772099  0.5829093784822501
  0.4962390275919885  0.0848948800482058  0.0835878113964506
  0.2454712554010517  0.2496078434328577  0.8354756573832866
  0.4119316598141969  0.7483968463105185  0.6677207526730167
  0.5814837622590427  0.9992610485260031  0.0836789847196047
  0.4952030992524431  0.0819294050070467  0.9158720301341366
  0.4948289618743765  0.5002624976633516  0.0005745749034001
  0.6634218149607412  0.8316729199248075  0.1658152495497390
  0.2440075475870833  0.4990061896260138  0.9171666679166017
  0.4941816113980946  0.8330669392667357  0.0001657127725269
  0.9943904234647902  0.3329021871586493  0.0018153692907126
  0.9960247811275038  0.2472692382754652  0.2498771716364994
  0.8303604792323787  0.7511996378567227  0.9152619600306935
  0.5785157765463040  0.7490340012003371  0.4996761249154842
  0.7457415710818036  0.6657352234583042  0.7505243497455576
  0.5797515693932652  0.3330334610690427  0.0834587812610712
  0.8296527774736736  0.9164187057180169  0.4164735893008675
  0.6616795512265408  0.1697983758269005  0.1662026195207164
  0.9114086239244413  0.5841447907419131  0.3329918147494454
  0.9114493832194750  0.8350131344964190  0.2504648927945344
  0.4116062402289829  0.4162123695283117  0.4995144885886579
  0.4123621182390980  0.3335175307872544  0.0856252517902260
  0.4950171923939074  0.0854354944237267  0.5826291368132854
  0.9950823437730073  0.6680566100653542  0.1668174527946541
  0.3285749385104136  0.5821927729595830  0.0850914068520364
  0.5798134149496573  0.2509978653383679  0.6669393280738631
  0.0785333538453557  0.4157207882213331  0.3349945715928721
  0.0778630018319904  0.4993765360608221  0.4161453994141747
  0.9961784263094023  0.4163233168982312  0.2503003273792608
  0.0780034625525112  0.3336485872902841  0.0831185684493284
  0.9114578306233940  0.5838070803877744  0.8359381478420929
  0.5778184846501722  0.0004308817969672  0.9175428706959724
  0.9121340059944752  0.9164747552695777  0.6651454798977764
  0.6623582230774604  0.8292261549123826  0.8345941123078182
  0.2441934053555818  0.4987351671416556  0.7498048733473094
  0.5799606826939713  0.9994394433682987  0.7500869631867078
  0.5793764478470026  0.6660888539462918  0.7496386384601681
  0.0791798827379740  0.1663448101544534  0.2518494526727388
  0.1638336265628150  0.2508432586124094  0.4171898726572212
  0.7445734418377778  0.7498625541379529  0.3318247383404448
  0.0783348887788076  0.7522666481401268  0.0015148603426639
  0.3279683049046638  0.8332780570236972  0.5005872713332641
  0.6621371795055802  0.4171918494227155  0.7507060400770058
  0.0778516190720501  0.0845752875971698  0.3336137980911735
  0.2450119606896339  0.6663113020152970  0.2501496175718625
  0.9939289475594824  0.9984721460123819  0.0009080007992904
  0.2449341155433612  0.1659732656880313  0.2507978026729777
  0.4943228026418593  0.4978235320442356  0.8332885376120058
  0.4952958279849639  0.4992255134479821  0.6662849368994044
  0.6634364931420326  0.8328661285222096  0.3335184525406222
  0.5789736458351924  0.3338877941691483  0.5836472470911876
  0.6632942957720689  0.4993511068304543  0.8351898503471809
  0.9119215385836749  0.0016495098365775  0.2491779416099827
  0.5781322360076906  0.6662223561006729  0.2506723569314346
  0.4955577885610177  0.8319832264941535  0.3325905264684531
  0.6620730067449615  0.4174749712858131  0.9181201986049289
  0.3252624016638546  0.3335414573168018  0.6665370958864776
  0.9113595761487443  0.1700507282593756  0.9160581149328711
  0.4959663021844554  0.5820814163560903  0.4165855549286661
  0.1620049349863551  0.1671199999940928  0.0009800699480086
  0.9967939460225063  0.4989082169653926  0.9996943380209904
  0.4956839260559725  0.8319221921793453  0.6667040821845759
  0.1631593488817602  0.3344301123524306  0.3316307028118775
  0.2463121130390198  0.8352623463353843  0.0833333605270394
  0.9122751186260816  0.4164151805309590  0.4999896845932356
  0.5775891310750190  0.3334493564954158  0.4167345448705004
  0.1623793836114480  0.2522200189142030  0.5818899856197173
  0.4949194229190609  0.4998707825059881  0.3344340030370684
  0.3282082118685288  0.3328694769234883  0.8346487450031076
  0.2438242173971037  0.1679665228063617  0.7500542014979233
  0.5016658874273794  0.3309953716868765  0.6657998499111019
  0.6619818958690283  0.9994141558662734  0.3334094804751930
  0.0800227251181974  0.1653516269791636  0.0822840829673585
  0.8289201477250475  0.1673881038649739  0.6671698274053510
  0.7458659882494972  0.3336538540832117  0.5834040654057508
  0.4939331539315077  0.6667815165040695  0.0007349686419357
  0.6628259777646871  0.1658243878186588  0.9984985454826349
  0.9103917594408978  0.6662582859887455  0.4158624677629877
  0.7453515774430273  0.9161869127170955  0.9997857386736044
  0.0773183046382765  0.5009877267840703  0.5824697875119004
  0.7448172888473699  0.3331224650801439  0.2495499693185069
  0.9959252881666215  0.7487353723871839  0.5816309233587164
  0.9958031904819858  0.6676790111839419  0.4988672775171464
  0.3292689520879796  0.9181427269515766  0.7495183215275746
  0.4111302373847173  0.7492464593374064  0.4991147202340097
  0.0780630592361418  0.1654628022307313  0.9176025093546076
  0.9944857460092720  0.0002676153752700  0.1682013056004275
  0.6619178939743235  0.1664481921077189  0.3344522368914505
  0.9105209292718904  0.8338490792676084  0.0828078480968655
  0.4137758134009563  0.6662942738471929  0.0826166500178838
  0.1614683327732627  0.7503441762528046  0.2495755850261786
  0.9115244653403658  0.4156909999936992  0.6675419958424286
  0.6631368940214568  0.5004376527717928  0.3336902095150138
  0.9124577069042663  0.5013403579877173  0.0840017267128730
  0.3290875191056059  0.7495109265942058  0.9128915436015207
  0.9119731006294537  0.6657984187316999  0.0844782991672268
  0.9951819987482363  0.9991592323335378  0.5000657522580347
  0.8289019046088720  0.5850469547633649  0.4147767974516286
  0.1619250963179368  0.6663403018496596  0.4990886807058335
  0.5788616159033292  0.6659045677381551  0.5830320050204456
  0.9955802360161630  0.7509763707458514  0.7504791622962359
  0.5827200206905579  0.9985855064162340  0.5814553319603314
  0.2466046033650757  0.2508287875348720  0.4988238172684998
  0.0781883978396133  0.9158631074812087  0.3329672737520534
  0.9950236829170286  0.7523160046068518  0.9174830496802724
  0.8293572884773501  0.4985599621608026  0.5004792824752049
  0.8303416344359147  0.2483419846717178  0.9174236314566921
  0.4119836918570170  0.7498059210775467  0.8336638231877097
  0.1604998131300988  0.6659910634817083  0.8343256634017198
  0.0784544430519765  0.4994370910647387  0.0833017566770479
  0.3281992405358837  0.0841429177498231  0.0842168054830360
  0.4105155279101076  0.0838262917999283  0.6669627273501172
  0.5801121960937395  0.9993736978434525  0.2510738150419826
  0.4942439663902382  0.0827278829824408  0.4163918229416029
  0.9952884520175251  0.4156623655274299  0.7504380945106545
  0.1617626101212527  0.5003842054038569  0.9997107101463879
  0.8295340737042334  0.8329733616973231  0.6657772039878500
  0.9974246548404954  0.5836856951959696  0.9193791737799493
  0.9120871293650216  0.7512539814528688  0.8346874389920650
  0.0773935241329879  0.8327310358813756  0.7493637139819079
  0.4948219478256858  0.8336864908903866  0.1664949311055213
  0.7436536981047318  0.6662355448698386  0.2505726500820558
  0.5793473514648416  0.0000182157210777  0.4156576823499483
  0.6605809213880801  0.9176299950034321  0.9186677504944664
  0.6623490480389785  0.1675027589611746  0.6668119994585187
  0.0794798624267081  0.8349552875906217  0.4152566974082300
  0.4959107876307259  0.2519591238653679  0.2498891827442218
  0.5793102589477359  0.9172528996186425  0.5001291918763082
  0.3317007582420622  0.9156584225925009  0.5839062144618927
  0.7439094581101984  0.8346728565347976  0.0831843261520069
  0.0777194762273378  0.4179791434786276  0.4965553178485633
  0.7467983094514378  0.9996780491766741  0.5824071411672619
  0.2463328413355645  0.9165292273217218  0.3286200808741447
  0.6609430004592928  0.7503429123465996  0.9160801140400935
  0.7470815133614956  0.0837815771584069  0.1680114494821730
  0.0798154597201043  0.5832297210095235  0.1656596663674866
  0.9963415634389892  0.5838550014336004  0.5815604549229714
  0.3292026692414481  0.7512707352661073  0.0039538350338857
  0.8284850702799937  0.0834392305006661  0.8318291460431481
  0.1612582819086802  0.9130529786760202  0.8332852614669666
  0.6583514019262022  0.0806077529591394  0.1681340839550791
  0.5749676633862734  0.1667919660245244  0.5007781279214154
  0.4925310194453407  0.9960848764682437  0.0841022053850760
  0.4991448941781153  0.0846843636713272  0.6704642610877027
  0.4134090848527627  0.3315831744157878  0.6673320227604017
  0.6620882128547837  0.9186653651848441  0.8299829020868073
  0.4121675290347816  0.3331900378010954  0.9967039052683160
  0.2457714705269182  0.9167392599037338  0.5866939520350898
  0.2457686509536079  0.9179258075200457  0.4148528788181420
  0.9923449740988242  0.5835139840535554  0.6703887427057463
  0.9118782599202148  0.0793390881962009  0.9162238413703555
  0.4134539714835636  0.9134451912606593  0.4151253305875047
  0.2443115260727277  0.8375382938541319  0.8331035026254848
  0.4957651631536494  0.9977182456606448  0.5839828525514118
  0.6621252268084100  0.9982007504071141  0.1675315988512966
  0.9116976558927876  0.7504149944766074  0.1668797296526820
  0.9118548422533526  0.0003591146033122  0.4166987285273621
  0.6627759441187182  0.9999604701471357  0.4992599976924297
  0.9954618785212086  0.4166921301844079  0.0843151771242080
  0.8277480913099039  0.6680688209024398  0.3320315998071468
  0.7449068494431106  0.0001784764968988  0.0834068363781452
  0.9115871344137892  0.7495123571109498  0.4997201574093241
  0.8283449954794496  0.0842259926462260  0.2509025485569754
  0.7453315276312547  0.8327535969202555  0.5828052821512162
  0.6621280803038927  0.7493784699307698  0.7499423378714880
  0.7457063721976699  0.2500284483343899  0.9997255673575450
  0.7458218862762359  0.9999092994130706  0.4165382470043984
  0.9948772471689107  0.8334611309754734  0.3334059969506213
  0.9949502905021280  0.7512405186370139  0.2503310242258518
  0.6633264895921506  0.0832170953216138  0.5831513416736310
  0.6620051504180151  0.5827212677936571  0.9169443077479182
  0.2458195540388982  0.7493222926496663  0.3325675393670089
  0.7451852950675160  0.8324090273073143  0.9169945421187838
  0.2469463125215644  0.9199753451247314  0.8335531131724087
  0.8292854515246907  0.6670034566267096  0.1669251940337484
  0.4951138465109102  0.1664225854368452  0.8336282712118468
  0.9118062257251169  0.7509269614888312  0.0000741431563198
  0.4967048556387198  0.3325509502816502  0.0003312765864204
  0.5787568016581091  0.2503676253736304  0.3339074998319397
  0.5786917424887303  0.1663795486841663  0.9165449383258178
  0.8295317132071593  0.5836106537690182  0.0840477643473892
  0.4958497143744395  0.4170037224098169  0.0840967380590165
  0.6621405689256856  0.9159146926509669  0.2503937433722882
  0.4964648154599792  0.3334411941452354  0.1663191252074846
  0.5781003062304395  0.7495359383271022  0.8334205144252492
  0.4958804781126240  0.4168132818895164  0.2493732601535981
  0.4953749699744050  0.9173718132512936  0.9166542623435242
  0.4110951993239065  0.5830792937105127  0.4998287159286948
  0.3289832769819941  0.7484237989342403  0.2497864361430509
  0.2460997768321116  0.9175907089942605  0.0007015545903215
  0.3284757991423138  0.5001658732110703  0.4998236220154212
  0.4128109070102426  0.5834742742882479  0.1665187180035299
  0.4949600742232992  0.1673957324970040  0.3329575327610359
  0.3269436998382227  0.3327090329420928  0.0008109968779689
  0.2461801012061789  0.2497746747860018  0.3330339378070513
  0.3288851874202579  0.0012050657853267  0.8324591508926599
  0.5782576999915595  0.1668875560105627  0.4155610691506941
  0.4958769847847593  0.2505057444897684  0.0841925101471628
  0.6627675490936550  0.3333737014187149  0.4993457056427704
  0.5798572180427124  0.3332870491594167  0.7516725260821895
  0.4956916161984213  0.2506310967670066  0.7512501232245345
  0.5786901377176467  0.1679044752231726  0.2505087353013024
  0.4932443030717450  0.1667580151889259  0.4995546282200922
  0.5767455543007691  0.0835762652920526  0.1674948053613839
  0.4968048570076392  0.1686355642596204  0.6678721370643718
  0.5803278329207443  0.1677861846572858  0.7510870842046100
  0.5790225546996801  0.1663629210542179  0.0823792267309911
  0.2454334449024045  0.7506653579943072  0.0004540746405042
  0.0787453344638103  0.9995555307642812  0.0834132629577637
  0.3284101216710052  0.2499002553574814  0.7502382072058389
  0.4950794292002983  0.1672020749323714  0.1673242522008486
  0.1616542426573181  0.5841597716633027  0.2497398546781333
  0.1629425165313681  0.8331361602273749  0.3330032995196952
  0.4120588335642705  0.4169881736608844  0.1667570184417721
  0.2447795978105697  0.0838603233309420  0.1663947135141279
  0.2452457644334351  0.5838559177586340  0.3327731333501170
  0.3283872662216230  0.5825888580203269  0.7500913087629486
  0.3281320335912766  0.2506442213496197  0.5832330283504813
  0.3281206574943437  0.2498314331211725  0.0838463701546991
  0.6621086085239669  0.6664214296889198  0.1663609497709436
  0.2444854487716482  0.4165281553133587  0.1662355247777405
  0.3286851260696266  0.4172364599373891  0.5837332021637582
  0.4122546761514074  0.2500171683376929  0.1666006004503530
  0.4954052331420103  0.4172694021654144  0.5831793067444597
  0.3282507785689031  0.4164517309252524  0.0841881683829635
  0.4951433974358982  0.2496358674060587  0.5825589226084011
  0.5780652662217725  0.5828959888726717  0.1664061360375029
  0.4120020158863252  0.9167584574831239  0.0004519047917530
  0.2447975687105719  0.1660447603263640  0.9174041297795653
  0.8283659003346482  0.9167182262938585  0.9168804178723280
  0.8287869609013861  0.8331316272440591  0.1667887501953580
  0.7456960247302737  0.1669598389515548  0.4158510687349149
  0.5791810480744178  0.8321649973858509  0.5826586472081624
  0.4954135674128273  0.7505581131150777  0.0836525241758836
  0.4134519819990037  0.7502085889737135  0.9995007079941636
  0.5783343654036294  0.6661334246925514  0.9173048614588662
  0.4951430441812936  0.5826278097445818  0.9168911591364028
  0.5786124295079464  0.5828190431222749  0.0005604315848297
  0.5788460953787599  0.4165099239364577  0.8348342904337763
  0.4962617588261800  0.5827837784283801  0.7488319758943948
  0.5786407925838412  0.5000165488514113  0.2493918240948067
  0.9953856140046752  0.8330267841616700  0.4993504499080739
  0.4950141367161905  0.6655747892732214  0.8324834663214588
  0.5780693128848672  0.8326119181104060  0.9171378215365423
  0.6624108384518363  0.9157766920639824  0.7476761947148506
  0.4955957278882003  0.9145260551864898  0.5835372125536574
  0.8283010603460497  0.8331451275419786  0.0000907712751520
  0.4125559063337904  0.0837908088835926  0.1668857402924057
  0.2448240702536450  0.6662022796196886  0.7505704787108231
  0.4962959292863672  0.9987660242816763  0.6682124195269850
  0.3288620029764157  0.0002669894021812  0.0009190522899852
  0.4122621699316604  0.0830880336772306  0.0005099566209123
  0.2443077488418610  0.0017720661461534  0.7495784889952202
  0.2454957943583612  0.9168626071828651  0.1667121317397605
  0.3291531863749861  0.8356533947255070  0.9998765658576653
  0.4120326707558219  0.1659086939962250  0.0833343648500447
  0.1610616729663796  0.8325583846574052  0.6668340227064097
  0.4134449564741486  0.8330066926723075  0.2498919025363783
  0.0773877888659194  0.7504338204775423  0.8341142425417993
  0.3290780258993168  0.0841000857127546  0.2494233087062658
  0.2463925265007247  0.8340036189438356  0.9172308747441319
  0.2452795870955530  0.0024675815592956  0.4163233160200149
  0.2453795887786110  0.6658911186963919  0.9170558185940229
  0.3276696212124492  0.0843343175872089  0.5838430217820776
  0.5795056028270058  0.0820802901436486  0.4995032917441345
  0.3281082408219049  0.0842514967249794  0.7502161691992552
  0.7450621635047340  0.9994710543274659  0.9164279049524197
  0.5801240381072046  0.5816642043517681  0.6674127166216922
  0.7450799496880648  0.0837798439147000  0.6666806881336820
  0.9124453513411618  0.9996958418151761  0.7482954974185045
  0.7458798742390498  0.6666740566671513  0.9166147705806390
  0.9122355564391151  0.5000103849406230  0.2503976838924846
  0.7452399586412207  0.5831086532965195  0.3329003851115253
  0.9121776142444771  0.9162998652006877  0.3334555380279971
  0.8293133597666350  0.9164550129145946  0.2502662352042407
  0.4116833899490681  0.6661413621318881  0.5831229821289962
  0.9124066002911304  0.0838167120244759  0.5001187286254828
  0.2444072015535541  0.1679431761228044  0.5833722087073260
  0.4974985439347224  0.4150213646947604  0.7498753650695602
  0.8295854705844139  0.0001662678516263  0.4998708869567283
  0.8278599178303736  0.0842235056828337  0.5833371568789716
  0.9114012361905791  0.0012963233676661  0.5835682393786216
  0.7462651844695843  0.4996356981349053  0.7511807474934314
  0.6620749812700013  0.5822896773031709  0.7506643117494470
  0.8283971533308980  0.9995077107026550  0.6658034384514027
  0.8289151101402356  0.0002463706748748  0.1673163131549675
  0.7452406045847437  0.5833688262535823  0.1663671714601213
  0.9946807959520789  0.8344021803161550  0.8334593950906186
  0.7457423011856223  0.7489819050059848  0.1675513832546361
  0.5790523744170892  0.9154062050855130  0.1673590940592349
  0.7459512468886246  0.4166259894994471  0.6668672207156949
  0.8281777537922582  0.0830128989397740  0.9176384812802226
  0.9116702694919788  0.3321730816674077  0.7505039732009873
  0.9122442999010899  0.9975348822860172  0.9169676541365838
  0.9128400818197399  0.1675136565441179  0.7491218872932280
  0.7455986416976669  0.5827322763660534  0.4997367997447248
  0.7465946666961406  0.5000228824404561  0.4165056520684313
  0.9123645605931238  0.0833266999911243  0.0015285311265736
  0.8288692475633257  0.4995218598012167  0.3335330844196778
  0.6628913603106882  0.5003997334302146  0.4991326992918463
  0.8285724929081323  0.2496543443579385  0.0839239722741019
  0.7449250540539081  0.2500263658473394  0.6666679987396158
  0.5784408427996103  0.5000216420605093  0.9176901312557806
  0.0798559405056279  0.2507564042721497  0.4994691824893122
  0.3287036956773935  0.0014863500673462  0.5000611692399247
  0.4119441742173954  0.9164942839680364  0.5008745962996609
  0.3287553455424682  0.6663338151796107  0.3328943215387027
  0.4122401635636430  0.8318794485771869  0.5838571145517694
  0.1625206045497410  0.6673410635816968  0.3330773819966260
  0.0791207361989444  0.6666170070701710  0.4172880064841297
  0.0786851801937251  0.7495921512977484  0.6661252013767578
  0.9954387260688421  0.6671128663397483  0.8346393539481718
  0.7462012207219719  0.7491892743991212  0.8335453036924919
  0.9952001936552389  0.9170107486123925  0.7489686865839772
  0.9946388441774039  0.7514460452487213  0.0838252621754227
  0.7454973373691035  0.9159774439945214  0.3332552371730301
  0.0784978362912178  0.9161283899552854  0.1667373732483397
  0.9945569095312207  0.8332488232887897  0.1669594659850128
  0.1614185466947484  0.2497992399357318  0.9178783587893290
  0.9125257641096406  0.1663484731292580  0.4169553934515934
  0.6623994952501303  0.3333203035466687  0.6664475275734304
  0.7462898139677361  0.4995687246178678  0.5835058988943662
  0.9949327381540111  0.3335433388854706  0.4995256111443448
  0.7451746139764786  0.4165073407101447  0.4994137064837526
  0.7460421349165363  0.3335074589719830  0.7504707395138003
  0.5793890711892479  0.5002956249119158  0.5830322704055821
  0.8283784304368230  0.2502831132420355  0.5830614014425459
  0.9119470977997104  0.3329830008593858  0.5832353721085562
  0.8283111447119633  0.0833120588984016  0.7476080667191789
  0.6623658783446152  0.4160563529833503  0.4160019951989171
  0.9140943599203514  0.0834543063759714  0.8312528156099296
  0.6626600168819106  0.2498036783011425  0.7502369895490252
  0.7454714299986945  0.1672432742007046  0.5836222787240894
  0.7446654450784420  0.8327251319974761  0.2503735938439898
  0.0785322711786081  0.0822613207017548  0.0006290765340262
  0.4121945491223961  0.3337877052563021  0.4159137297275835
  0.2454780792442455  0.2498433158905283  0.0007114207105985
  0.1616194914784456  0.1667558397019502  0.1668319783238574
  0.3290240566825305  0.4168870983186769  0.4161611894710555
  0.1629562623813247  0.2498626048321030  0.2503069187893152
  0.2452328711207406  0.1656834072448093  0.0826765928949198
  0.6623958831260994  0.9157873039195443  0.4167876037889112
  0.0786396861480970  0.7512628544824040  0.3335499244094297
  0.3288998613082146  0.2497574591512072  0.2495501777982429
  0.3284531254615278  0.5008848179181333  0.3323907429000217
  0.2450796536754173  0.2497648084202969  0.1664821823818600
  0.0784907922698612  0.0836986239122190  0.5009943807279228
  0.1618134320478181  0.2502867569979145  0.0834999845739163
  0.1620908554219215  0.1668534266094703  0.3337813629208429
  0.3284972128425066  0.1662265778929323  0.5002711944271661
  0.3289170868381100  0.2503175430743910  0.4163556552451281
  0.0781663662296546  0.3340444088676622  0.5822426003271974
  0.1611457006841966  0.1680996327137408  0.6659198459791494
  0.3285569716446506  0.1662095884477313  0.8331932150873448
  0.9957845417069807  0.1673407872553271  0.8330948597133280
  0.3286865363676361  0.0836668245379077  0.9170037769237204
  0.1619886509783103  0.2508663189739128  0.7507899728754498
  0.9949870209822069  0.3325409797601482  0.8337105536251470
  0.6623119070306325  0.0842904099603102  0.2521589336135562
  0.8281628138826347  0.9170957386463001  0.0845004980961871
  0.5781197549335773  0.7500483798110277  0.0005833003739800
  0.5788423323063002  0.9164792410340720  0.3327575100131948
  0.4947365204530658  0.0005617970786186  0.4991835473372554
  0.5785820293981173  0.8325766681560820  0.2501862990309933
  0.4962560163632183  0.9164829323173056  0.2501914290379311