Cr  N Ni 
 1.0000000000000000
    21.1201135712910144    0.0000000000000000    0.0000000000000000
     0.0000000000000000   21.1201135712910144    0.0000000000000000
     0.0000000000000000    0.0000000000000000   21.1201135712910144
 Cr  N   Ni 
 259   9 605
Direct
  0.9973796564270226  0.0844977584160311  0.0845551921461147
  0.1681442279153249  0.1657738452856369  0.3396137403614442
  0.4985173129792137  0.1650122954826096  0.5020072731328786
  0.5802765024282606  0.1647367726937044  0.4183417591631158
  0.5826055443632089  0.1666878817482517  0.2492501625117039
  0.5840270658516674  0.3329430826526232  0.0808525348507149
  0.1633081837783748  0.3353460089494230  0.6713957899791361
  0.5015403108807386  0.4999188990554818  0.9988626471500320
  0.4997462767219957  0.3344955350411609  0.6678129123009484
  0.5832860479514912  0.4177517183568256  0.5020212465647357
  0.1656369672275506  0.1661108064796480  0.0013660229572833
  0.5802607588901305  0.3425013720033917  0.4205610840903666
  0.5829427174148958  0.2525435727382126  0.8336993241675453
  0.1668849380222510  0.2560745247481615  0.2501904965197315
  0.4945216896244553  0.2520652188378674  0.4189312488840869
  0.5848767851421556  0.1684299191430906  0.0826293871772986
  0.5844870271306948  0.0820181540291968  0.8353870384813992
  0.2495519624774931  0.1616888188992002  0.7504063881914202
  0.2512724692990689  0.2485354388930763  0.8421968042676724
  0.2484555075026155  0.2508056228680688  0.6640477448898756
  0.4981032460734201  0.0841517767083022  0.5832743734213214
  0.5827834130966230  0.9980026682571801  0.4188687257072876
  0.5853116593272915  0.0821980511435417  0.9979345979465080
  0.3324045189625333  0.8340969654893058  0.8330821894939877
  0.9979093791975389  0.9986130840222346  0.8268040132577901
  0.3320027655546982  0.8348081539702794  0.6675593875851968
  0.4950861885962584  0.6664001997882493  0.4994644203479759
  0.1677511432083201  0.4166430059053269  0.2500545180784977
  0.5842356625159154  0.7482811821396701  0.1648289096489909
  0.5025670447622602  0.1667818261707311  0.9999791543280976
  0.1659853043589622  0.5030178619134994  0.3333840379278704
  0.2499519585571244  0.5002905696077828  0.2489563712976888
  0.4148524841138234  0.3331698497138706  0.2484435999240368
  0.0000799580352683  0.8312891643761446  0.6652294162760066
  0.5003415663471976  0.5842717001302751  0.7518644827370126
  0.1670308524204274  0.9164224787543686  0.7493376192590611
  0.1658203843950568  0.9981238609877664  0.3340205685429681
  0.5846078419196232  0.7495089085681447  0.6693527955199170
  0.2494577208479844  0.9968347673284604  0.4177805597885754
  0.4994385000780598  0.6645421653301714  0.6707945633993529
  0.5824066238405002  0.5006356539670570  0.5854706857971291
  0.4985100518301862  0.6675791319721888  0.3324400953641635
  0.4984194745857124  0.5001735202479567  0.3323632414634737
  0.5834658166913083  0.7495372699945090  0.9970547474440156
  0.4968308774443318  0.5823396353262691  0.4158659247231841
  0.5824899362103126  0.5018530761532528  0.2481647058629730
  0.5830675886721750  0.5825207576278570  0.1649706518471636
  0.4998915471316752  0.6665243325315281  0.1647266051589072
  0.0820504514351204  0.9989913892312331  0.2498207974143061
  0.3333347380005554  0.8340126670677507  0.5015511409691774
  0.4980613618543721  0.5009434376949230  0.6695782009228476
  0.2496031081162152  0.0840189133071185  0.8333268332812303
  0.5836685980372698  0.7543430761638127  0.5006784072773940
  0.3315664454085550  0.3349753524008513  0.4987719559529147
  0.1663068266801529  0.0836458067642203  0.5819784531954176
  0.4156956434467183  0.5831800902820372  0.5005344092450927
  0.2480374650845857  0.0823799577934736  0.5007798346664376
  0.3323941445448285  0.6660635190250658  0.5015274719806143
  0.1658957737241171  0.0827067650925432  0.7511537169584059
  0.5854507062140953  0.9155286145515166  0.1660373209752863
  0.5009386717597263  0.5004835977904278  0.8330778153069429
  0.4170777199093949  0.5852995492232861  0.3342480081714269
  0.5835053203441685  0.5822736088181213  0.9976021631039245
  0.4989728791274974  0.7497120042516993  0.9159972384734613
  0.6680236702517001  0.6675697835510638  0.6672053480780036
  0.4158347988333252  0.6669277776689653  0.7509066463991763
  0.4173722094388664  0.8333284424447862  0.2468628641638287
  0.4143559510117705  0.1722441278921649  0.2488533622919077
  0.3323223678620526  0.2510641242547979  0.2484290818497999
  0.2504559374944643  0.9138942334998640  0.3312688773426931
  0.1665770948022739  0.8335958763966909  0.0019785357235657
  0.4154852725815085  0.0828572296979799  0.8340044048286636
  0.4154826499473204  0.8329190771216515  0.7481920889757935
  0.3329032737276170  0.3354186754129045  0.0002103285119438
  0.1679025825371475  0.5841013944018403  0.9168379166625003
  0.4150424834168196  0.6656169678504830  0.9169942154597038
  0.2499027317380931  0.5836270822831640  0.8354244051486602
  0.4166652460339158  0.1656923880394175  0.9164446070550636
  0.2494656482235593  0.8323540966307698  0.2480199424905251
  0.3395077803257838  0.2496115501503799  0.7522340500691393
  0.1647837882687120  0.2472348908633424  0.5825079499212973
  0.4169729063457803  0.2509410021728813  0.8346071588579823
  0.4169655960356886  0.0834413201577760  0.3371930626381680
  0.3338248963110465  0.2502537296199110  0.9183674584182668
  0.4179443498795588  0.9920443203898577  0.2477000933377095
  0.3331299584567415  0.2494630525228573  0.5846869090940223
  0.2483470770140000  0.7492817447671581  0.8336257216742508
  0.1669273063065061  0.6663602529775752  0.4985995701072660
  0.2502394613056458  0.7508568553586185  0.6660024257815255
  0.3349658124919685  0.8332435419361326  0.3324722744883330
  0.1674012109816043  0.7485148914736020  0.9167361248514536
  0.4963202390492728  0.3353059539206911  0.5014707301362354
  0.2491018581278280  0.9158586445832945  0.1655576842087663
  0.2502000698865018  0.4153640478242654  0.3331597964184375
  0.1673376614591051  0.7489286818388405  0.4153126326948428
  0.3350047823023612  0.1647387693153412  0.8343719604931824
  0.1665747435015517  0.6665519389929370  0.8336125254654944
  0.3325298776022407  0.4182558932894715  0.2484624185701066
  0.5009913856097733  0.5003204172812442  0.1658995608732619
  0.2548065193532204  0.3340374388118575  0.5844772115658249
  0.5023498591365324  0.9164809362717485  0.2496814083562373
  0.4156516547003124  0.7519606285161777  0.3326795592715138
  0.5001864373800947  0.9161822132428035  0.0832986810878418
  0.2481543934504627  0.4991037273895006  0.7512512012725066
  0.3333971929013655  0.5841208826818217  0.5836605457401806
  0.4180530066191960  0.5827215547681606  0.1650583690430596
  0.3322194639002344  0.4993531101622980  0.0006390916665559
  0.2514355157998993  0.6679530027752292  0.2474504754321945
  0.1665936842220054  0.5859356795445146  0.4148757532039869
  0.2477960475781705  0.3402379011557907  0.7516478442478084
  0.3332061554799621  0.4162024937612462  0.7522652896139037
  0.0816362439879283  0.5836578991367301  0.6645879744575560
  0.2491762087512686  0.5824702180295562  0.6663211220730288
  0.4181440581087642  0.9169581390270060  0.1637415115557809
  0.2488679391487810  0.7483534497301086  0.1662375305791365
  0.0770260482671067  0.3335163407772684  0.5808806113844310
  0.4164638042006588  0.0000502643730875  0.9176336742063163
  0.4153967648618585  0.9159958093066543  0.3344463010451063
  0.2493776244479617  0.6679506319666976  0.4157349315816923
  0.5023507253840775  0.0840069937395465  0.0815809366724962
  0.4163779738236988  0.0831175042645893  0.5017062578030612
  0.4157464203888075  0.9146411829114943  0.6685650525033517
  0.4171221702822190  0.0843697095905615  0.1589281967001151
  0.4159933513113886  0.9148613462324188  0.5023149185848028
  0.4170309295339216  0.9985795634540827  0.0836113220903571
  0.3352822278261781  0.0822921920135914  0.5839534231924660
  0.1659109240770330  0.9157827842531486  0.5831875819468927
  0.3326463427645464  0.6672841050007515  0.8340388287090581
  0.2509556005092502  0.5008139960025921  0.5837886837530158
  0.2493036275074861  0.5013395275138212  0.4138291659474419
  0.1668157317215802  0.5835645933021416  0.0834573195112958
  0.8340934756484084  0.2516706567301652  0.2502260670415505
  0.0002965735906852  0.1677556989430394  0.6667383030415114
  0.9993058755650491  0.2517623086603699  0.0834196286298224
  0.9991291912162706  0.0893898642494907  0.9175057516376741
  0.9993766456176265  0.3347032193382434  0.3327858338383661
  0.9989822755115849  0.1654376755066262  0.4990062189660950
  0.8339349052528350  0.9997627690068970  0.8321312480906877
  0.8333741914508747  0.2488574213605063  0.7492097477730629
  0.8343174057701849  0.9969829920079143  0.3321606292045413
  0.8320019466250028  0.3354194906821180  0.3313923337892565
  0.6658191994927808  0.8351981682929687  0.8354165632418412
  0.8330065187335659  0.1665160896178263  0.5004039821877564
  0.6669062882506576  0.9157956677221121  0.5847996730672635
  0.5004051687679082  0.8329116533617509  0.3314999049100515
  0.4992920936738698  0.9147490137670221  0.4156741603878210
  0.7500350344998404  0.8326960293117277  0.4171985169722948
  0.9974246708697023  0.9112484826894183  0.9163942776586416
  0.9155381492806181  0.1669183172881889  0.0834534411846589
  0.9990679164458705  0.4161707982033216  0.4153377799042363
  0.6669051089852914  0.9164626993260750  0.2481437950510969
  0.8332013265516767  0.0856331371948938  0.7487688511004045
  0.9164858326448192  0.7509400182746977  0.6655807976895143
  0.6676139168020373  0.9153627973976547  0.9173162838697981
  0.5840246018264008  0.0837193923253828  0.6658720016947210
  0.1666512339581867  0.4249377790484998  0.5821196518359365
  0.6669627885090943  0.1653540007450738  0.3248763382610865
  0.9974435889978085  0.4161132340036268  0.7497937495540604
  0.0852333637983453  0.7497048988116479  0.8349102313394453
  0.9996012127926112  0.3335779977001174  0.1645959429727036
  0.9992966387783977  0.9147939682945748  0.0826625035559726
  0.9106016455582894  0.9998120435157931  0.9159637515950363
  0.5827216930785025  0.8327014223967614  0.9159953176010369
  0.5825970841345439  0.9156475537997456  0.6674634927681912
  0.8328610638489938  0.9169668745293029  0.5832574014912869
  0.9180534230171661  0.8331581105861250  0.4179447612940351
  0.8319504922882833  0.9151254681616425  0.2499837862952699
  0.9159583559553430  0.8326598290437749  0.0823712742431134
  0.7497881959783858  0.7494545155408274  0.6673678593008374
  0.0817450593573249  0.0824328119645222  0.6658826540409881
  0.0007940155071741  0.4999023243868286  0.3334513598117479
  0.9151381427219485  0.4162381107678411  0.5001359098902336
  0.9176817227798231  0.1664635687837988  0.2497114118423329
  0.1670937666653455  0.1667630612942838  0.1600053749845426
  0.9143025236173192  0.9155591995878284  0.8313637126668227
  0.8327993648218260  0.8325293040755480  0.8325928540705989
  0.0000015218664617  0.9986588144269128  0.5003061526122896
  0.8349885733816669  0.9160033622965306  0.7493815384184003
  0.9991101177045747  0.7513556610707584  0.4168240795999420
  0.0890270112143711  0.9994272944253882  0.9174150559424025
  0.9177732247168171  0.7507367633518952  0.1650632813083009
  0.8321051369704491  0.5773470926048367  0.2489831865035422
  0.9176082065698253  0.6671514640049028  0.0837088095466877
  0.2572877977819996  0.1685672933841023  0.2490403464355550
  0.9164883175792945  0.5002358235769224  0.9176325842904894
  0.8342523479967499  0.6679082523595101  0.8346284240862941
  0.9184145095497751  0.5849441170165107  0.6685793560973645
  0.8349624926597962  0.5006264254105658  0.6674900041280573
  0.9998594528587401  0.2495363973030794  0.9180983081177284
  0.9164827224359692  0.4164361142524386  0.0008064128040448
  0.8337320202114124  0.1649828316577790  0.6680130540429899
  0.7517207676499118  0.4157866715072102  0.5011077796090389
  0.8342762061626795  0.3347458457959380  0.5003656513471494
  0.0828537318306588  0.4171005189695546  0.0003911523976369
  0.0822391270152886  0.2480389560843370  0.6658229424503079
  0.6653050985995974  0.9988351760656576  0.8338057700777093
  0.7507583735144437  0.0833718932039225  0.6668694311670060
  0.1669247269224984  0.9150468499920849  0.0829379884023422
  0.7485206275467536  0.9989274938324889  0.7498830818026746
  0.1666941992030138  0.9164091582122812  0.4156930902850316
  0.6678223928575736  0.1643541489881220  0.5050493788755825
  0.8330826728933434  0.4164952607659572  0.2482623565830970
  0.6676516726634242  0.0826644360687023  0.2514192562939770
  0.0010012938178678  0.8329421412607243  0.0021481979027634
  0.6664665845854052  0.9997402140283792  0.9991743916372244
  0.4984570280592876  0.9151578154311393  0.9161879765923185
  0.0829927336816591  0.8333683833210831  0.2490111085799520
  0.4991371424790115  0.9161816401633659  0.7501186624697480
  0.9988017871994245  0.9978791651865211  0.3326312844735477
  0.5808794062054227  0.8353123144250052  0.4167891873480283
  0.0000862848593970  0.8331139979100414  0.8334042222643829
  0.0808237623981152  0.4171821893852144  0.8358347972521427
  0.7593066380226003  0.1650105189710663  0.4181187632742007
  0.6660770731064756  0.0000357244623493  0.1651034773923211
  0.7506497986451189  0.5825507130454479  0.9995101649020313
  0.6673411060591463  0.2510619825197754  0.0828390639560363
  0.6643197047015835  0.5816135292857408  0.2487576595311108
  0.8324603441496631  0.6666545684327931  0.3402860880054309
  0.4974170713831348  0.2522243797051476  0.2492843318361109
  0.0772590985014728  0.1666726456922094  0.2509957328079664
  0.6665582912357949  0.3342654773849095  0.6691876984970492
  0.8332417771627856  0.5019412324576901  0.3328908408526471
  0.9174512511895273  0.3325841042838196  0.7509341407859054
  0.8324436789009780  0.4190016488904694  0.9188032698783370
  0.8349190306610184  0.4156816189232543  0.7496468650843843
  0.9165342221099564  0.4162080563379607  0.6675846151597898
  0.9995499524548539  0.5843315052434190  0.7494034153079665
  0.6669165643084132  0.1666420178505048  0.6673752806351381
  0.7500307550199485  0.5002186700103224  0.0812443160337856
  0.7499612252765233  0.8328793275037187  0.0825725969110899
  0.6677279553282950  0.0828536745053781  0.9151735616922380
  0.7508452956385117  0.2515453826112549  0.8341489578054084
  0.1662582677443945  0.6669207692514644  0.3336025702763015
  0.7510943550697220  0.5006625880697946  0.4178173321691859
  0.7506088554387242  0.0834085951848049  0.8325636657849781
  0.7485808699766299  0.3325609804780345  0.0834610856963649
  0.6659756723082721  0.7501675623000322  0.9163905466823291
  0.9984720144418140  0.7505014931650599  0.5833732778070383
  0.7501100150554537  0.7512921796791242  0.4990676961113040
  0.6724349978289608  0.6670960821943427  0.5008319027832836
  0.0822628878294726  0.6678094520641943  0.5837955836776636
  0.8327117866657381  0.7545336587265188  0.2489305074170709
  0.0846882287954833  0.4993478539201984  0.2496134327663571
  0.2489059035839984  0.9160252897587617  0.0006816044212790
  0.0000625304119315  0.5830281986481221  0.0836682243823541
  0.0822173798847454  0.5842179809494205  0.4999827245223378
  0.7479419880484180  0.6657718140229709  0.4166101131733418
  0.6667823040123093  0.4158099810760694  0.7487383125866348
  0.7479230916396394  0.8338958326949891  0.2493325393035156
  0.7531102171383722  0.3345785987798589  0.2505163385903183
  0.7513533365484825  0.4996474714339368  0.5848974306589627
  0.6676556739850861  0.4177055220628694  0.9158866953729723
  0.8334592501574114  0.0013004596536246  0.0008689670692774
  0.7521225624739635  0.5003502258539401  0.7498326751723490
  0.7499479801740276  0.9165565713209274  0.3330644874717919
  0.9980758685489839  0.5837468127206882  0.9172292278106493
  0.6707177536422063  0.2559807042430972  0.4179181025743822
  0.0824180306935416  0.7492237639213596  0.1671371081694242
  0.7494233908998688  0.1678242543683382  0.0815362368878221
  0.5835922677528264  0.6664057204604076  0.5005320005284826
  0.0003525607917284  0.0006072800593714  0.9169251525847383
  0.6708134506385389  0.1637967602345167  0.4154700077565513
  0.1657810482116225  0.3361049998240628  0.5801618845837303
  0.5819922219986648  0.2544503852461598  0.4163411879365557
  0.2488217411512423  0.2515001419751346  0.7536640252855088
  0.1669534796908988  0.1662869255135749  0.2498447769559301
  0.4171071218955579  0.0820449833843848  0.2484761526858283
  0.8322301053838955  0.6659223086422990  0.2516768090695607
  0.8340220293083939  0.5827509412602873  0.9172723650951702
  0.0806643900479764  0.5009379027452203  0.5828105310552437
  0.7483862075950213  0.5815928216261195  0.1655583245191042
  0.6655007481777340  0.4994151074838653  0.3333473591436186
  0.9987617836643379  0.5002216577617945  0.4997021409937074
  0.6674556755000367  0.4993013322113783  0.5011023769959752
  0.7503110140712803  0.5826944304221621  0.5002014630461834
  0.6663581035484154  0.5811482155412395  0.4168908037218423
  0.0007576410272171  0.5824352838763143  0.2496165400987721
  0.6681975856267580  0.5835567415998298  0.7500419506264611
  0.6659680609306603  0.7489195614501968  0.0813245783006108
  0.9164363399725555  0.4174750240080892  0.3324273735193883
  0.6657120672080170  0.6663108823729899  0.1651526742985265
  0.0839065228307946  0.5834419952180534  0.1662029439986869
  0.6663049379930108  0.6661549605954170  0.3335946299264441
  0.6656768489892267  0.5830146449654101  0.0817480298548306
  0.7492972114521709  0.7508946446546505  0.1654982570042936
  0.7512643595219167  0.4165305742493058  0.8325867689008476
  0.7512584435468123  0.5834938062220725  0.8336260741165674
  0.5829082185147413  0.9157932400848708  0.9993661709715460
  0.7487535894515748  0.5818415423323631  0.3337550370127829
  0.5017429489020400  0.8321775852013891  0.1649516525834425
  0.6681028168707336  0.5823300807150179  0.5843197317100984
  0.0827188174989199  0.9155688797226553  0.4999615879649771
  0.0822802821397655  0.5011192879476288  0.4152517814873242
  0.5836787896179824  0.8320829239940808  0.2486344289368158
  0.6663993200656069  0.7512286202520365  0.4162857801964621
  0.6686291563914175  0.4995320494196327  0.6675064506138437
  0.6683630753325366  0.4992263257531501  0.8330936584293004
  0.7489886570463418  0.6660335578825043  0.0824225623730555
  0.6674644798131275  0.5832091310528339  0.9166769439758711
  0.1659130376110321  0.8323108461715082  0.1661591078409650
  0.9996142509148424  0.5830973713083962  0.4160459641828250
  0.7508886463835904  0.5835778814001269  0.6675351179181531
  0.6661251710267020  0.6664850452907282  0.9989750698777846
  0.5825960181566552  0.2515536020977734  0.5056253581838843
  0.9995860863602866  0.4172265986921300  0.9178279749641308
  0.2507228985710718  0.1659479394731489  0.4184542813050316
  0.5006176570099771  0.1656719750650657  0.6673169747800298
  0.5833393840808266  0.2516598625391369  0.3271788552380751
  0.5002037049035326  0.2498147011403952  0.7506056972987708
  0.1664076950700307  0.2491840570267593  0.4164818397891022
  0.5006468048140160  0.0826814772647466  0.9167762320514006
  0.4992228176265530  0.2510789478239037  0.5842931804704266
  0.4987016734970203  0.4171636742329608  0.5849701932525896
  0.5831141303407728  0.1675703319330711  0.5843335146546474
  0.5825434411943885  0.3347120379678777  0.5846226739707790
  0.5826806882412346  0.6662687942466854  0.9156142653054328
  0.0839330733011522  0.9164153480769438  0.6659868339017543
  0.4993770870696798  0.8328028786903164  0.9996059137872720
  0.9993522092092610  0.9149118240910902  0.7492588241064039
  0.5837997989860231  0.8320284813913656  0.0818970655983453
  0.2503144639335926  0.2518154859781476  0.1641821884616527
  0.4992110636739514  0.1673561677412916  0.3340164354471460
  0.5841700704420578  0.2511236011829664  0.1664793764752632
  0.0822901656911008  0.3333591163043487  0.9182961654959848
  0.6665990254476661  0.8330257221992703  0.9995038338271703
  0.6656926705142503  0.7500063914279408  0.2498983055336096
  0.7497592912565018  0.7499011799315854  0.9995789263474801
  0.7486599105978310  0.7516388646902434  0.3353387389232454
  0.6665828083896368  0.8322498018186298  0.1647080683852225
  0.6676897016233825  0.7504637203654367  0.5847294556081595
  0.7507965215085843  0.6672425655238007  0.5839688776524867
  0.0834840388731824  0.5003301663622609  0.0830744251024354
  0.5825986138435859  0.7498608072668691  0.8336163974134897
  0.6672107069988541  0.7496371219860687  0.7513346669284061
  0.7508425970887097  0.6676377364920371  0.7509529217888741
  0.8328701879932404  0.7500502478273235  0.7504770041251346
  0.6673183556610184  0.6667607251574569  0.8343850981845580
  0.9994478985798818  0.5007278070340118  0.9999913000077997
  0.7517160636337733  0.5002359201667913  0.9161762790315594
  0.7499582027965296  0.7506639836372675  0.8336753391459356
  0.7497920715527234  0.9164206670453576  0.1659836503904482
  0.0835153291822999  0.8328480812337279  0.5832158247259273
  0.5828566413927625  0.9160254123246232  0.5011310403863104
  0.7517153953848494  0.1663081135508578  0.2497448287456848
  0.7500825512800121  0.2509962373820981  0.9998594527981239
  0.7500840004869336  0.9992175067275865  0.5848581375428296
  0.6678887549596375  0.2512079229888128  0.2488493808612461
  0.6677655561355791  0.3344917405341774  0.8327515161093915
  0.7521696001923833  0.0815567608978370  0.5017794559205798
  0.6658699834586211  0.9998720388096709  0.6670817006260056
  0.0830723842347980  0.7504472140951651  0.6661670957440928
  0.0826979492121358  0.6671193116889713  0.7494597575086905
  0.9992387800097575  0.6686125202083097  0.6674831909168115
  0.0830146069573687  0.7505303323565973  0.4993455482832501
  0.6659388464121159  0.1672542158365404  0.8332598183474423
  0.7510738307026440  0.9989301590482766  0.9162554319346798
  0.9999336374820881  0.6676480417268030  0.5006016114826648
  0.0826867342754593  0.7504174825234755  0.3333417837011927
  0.0836208239889049  0.6672915636540032  0.4171284343730437
  0.6674874033500334  0.1672329498163854  0.1675678395751562
  0.9995636369000035  0.8327906548964018  0.3330373590108630
  0.4994434926265200  0.9155536757705949  0.5854454087316190
  0.2507949800657580  0.2514451281904855  0.3341982493149998
  0.4978659244800156  0.3349057171703615  0.3330655414035556
  0.4967320505869178  0.4186813376530341  0.4170226727279145
  0.0814374921389714  0.1670903271803926  0.0835433363944795
  0.5823122767066413  0.4166375240013058  0.3321310712346788
  0.2510356414914122  0.2497053287803419  0.5005471594223779
  0.5017619166063250  0.2509303320309422  0.0821950723100536
  0.9999026004909484  0.9162669496996673  0.5837053742012329
  0.2500345141818627  0.1659496455976909  0.5837724672679578
  0.9998012775859120  0.8326782648682558  0.5007936612460762
  0.1661583583832461  0.1661085999323368  0.4993926873575607
  0.0824933168280111  0.8327108834877639  0.4163815834706693
  0.5006686792904663  0.1690972679221734  0.1643957373732941
  0.5844651015309013  0.9172642370322993  0.3324898349263639
  0.5823335587957220  0.3343798010407655  0.2488980194933736
  0.4993489242164628  0.8342384045744629  0.5016317454994601
  0.5836301260077025  0.8329606981602588  0.5852510227940940
  0.7510110303509314  0.9161109102672157  0.8340698684840331
  0.6672884749543831  0.3333644226887320  0.9990438609484472
  0.9998948390309716  0.6678824489552626  0.3337184360065794
  0.0817634264388679  0.5015591185247387  0.9175595772713282
  0.6669040584363531  0.3340019508039248  0.1658569933814234
  0.1661198467119821  0.5836805678284658  0.7502332015092770
  0.0832539589759137  0.6661179497114966  0.0826261370142252
  0.9998468780335386  0.7497099051800901  0.0832533608684536
  0.0001245678250583  0.6665395566700404  0.0002177402783020
  0.7494679093455758  0.4164353613911264  0.1654873835890199
  0.6677543718950718  0.3350843468011704  0.3318771890421782
  0.6680674511705141  0.4175891659983502  0.4175592604086570
  0.7517928435291884  0.3351799605255365  0.4162953979443004
  0.7495155090333415  0.4189113328917860  0.3336863373471315
  0.6678915749946845  0.3363031465764513  0.5018908515415929
  0.6670141792450875  0.4171480704094803  0.5850191931925657
  0.7509992550407226  0.3331803285371494  0.5847793539773514
  0.8343911964270333  0.2492478445760583  0.5835017658432303
  0.9994398338029893  0.5005540392030535  0.8341153091266736
  0.0824943779396554  0.5842841638440597  0.8346059602427809
  0.6665377482109133  0.1677469913065417  0.9983853522248100
  0.6662705769019889  0.2507075932981390  0.9151397231710378
  0.7491830918218531  0.4162361178186510  0.0003346237542866
  0.7494787434268422  0.1674653164441852  0.9154798315657066
  0.7502059975053226  0.2500125605717285  0.1665464272297186
  0.6664424627205012  0.4160297215588208  0.0822389550787741
  0.6679936020250525  0.0764381648853288  0.4173506214332700
  0.7507115336525078  0.2503888245890561  0.3327844009269350
  0.0825785024392869  0.6672626582335924  0.2499272659935010
  0.6672386572454538  0.2505537890371981  0.5839753144423979
  0.7509882173675133  0.1673148586237674  0.5841238019669202
  0.7517234523200067  0.2512339628266551  0.5013959822493164
  0.0002940176201781  0.7505095800516398  0.2492118560932435
  0.6662060473737800  0.2505248491426386  0.7506451006970964
  0.7483563149356398  0.1676468081027554  0.7511537370070802
  0.7503769087142035  0.2493499182802997  0.6670752803006522
  0.0003147487399937  0.6661463270367330  0.1658939152324059
  0.5001942427291742  0.5831941234487535  0.0815313278757329
  0.9157165816223418  0.0841050691175970  0.8322255124932552
  0.9173772969122133  0.5003980254950721  0.7514123186331783
  0.9987601774391824  0.2512559721785246  0.2495973846845471
  0.8341041149848862  0.5001534702512797  0.8333858271052914
  0.9985403594221557  0.1677729159276452  0.1659658161061934
  0.9165629572381759  0.5841079066184685  0.8338433036154723
  0.0830827292723839  0.9995961969746447  0.5830615761241094
  0.7507985610516291  0.9165418897260296  0.0001799239933028
  0.9156443933964111  0.8339500801729749  0.5829795451282022
  0.8333755055000914  0.8334020740374373  0.5004149967142164
  0.8330206852307634  0.7494164840208111  0.9168322232892474
  0.9174133816807162  0.6671398208759727  0.9166861543064543
  0.0836837415610089  0.9987882223715659  0.7491545297351531
  0.8328551828191471  0.8322618929702321  0.0012074591800668
  0.8324807346723229  0.9163204422605371  0.0832210313708127
  0.9145026903504477  0.9157420251450629  0.0000457363626065
  0.0001015480749254  0.0838069114598816  0.7492185307477816
  0.8325906343954532  0.8331329149235394  0.1653901352657037
  0.0006272522022333  0.9995071646728378  0.6667183700528541
  0.0813636940544721  0.2502983358684214  0.8356954397007804
  0.9987877755583404  0.2489558202840621  0.5818027198461553
  0.8342167903774906  0.4166328583370745  0.5845513578257842
  0.9170720060075050  0.3329752443243628  0.5832724364653911
  0.9172481987249591  0.2496907496685626  0.6664764185297016
  0.7510689060294823  0.3329752719643720  0.7500943429475754
  0.7511717788298985  0.4161384429791691  0.6669470909425227
  0.8338282586873345  0.3329226555018299  0.6673584067886914
  0.0816731610255016  0.2504978135153973  0.3336527260983062
  0.8339982732886164  0.3335368461524543  0.8337750496890256
  0.0816780253733158  0.1656808415129787  0.4164043294485338
  0.9166229359398560  0.3334999244223575  0.9172524100562008
  0.9164279070306768  0.4167964820753255  0.8336065039780809
  0.9979529095160025  0.2499755336064680  0.4159629197831249
  0.8330676165212918  0.5833516921450684  0.0828073993420220
  0.9170358307393842  0.5002150153518755  0.0827826610488270
  0.0821278832511649  0.1657892683010171  0.5820056016444380
  0.8323377743123531  0.4995851922607240  0.1648164641029278
  0.9166314631596416  0.5842340614801810  0.0002162738972356
  0.9161918591331949  0.2500895219212951  0.0007035473258867
  0.9154544709190801  0.0850262540877009  0.0008923031237602
  0.8331132267829078  0.9994767606711780  0.1665782370350378
  0.8342617132430162  0.0827500898662816  0.2499048472004084
  0.9162921116856279  0.9989499141480965  0.2500647008387947
  0.9160627016067699  0.0834955584741557  0.1665523056509048
  0.9982698410131707  0.3344281409122223  0.4982118062827056
  0.8351218067963536  0.0808683427682379  0.4171267047263673
  0.9175123027351532  0.9984894665247229  0.4165736759237689
  0.9167341355274267  0.0821686947148187  0.3333123410739742
  0.8336397233704181  0.9974199938981188  0.5013427687838512
  0.8340257096157789  0.0834147270545803  0.5836323090897658
  0.9171290473161988  0.9996217527309480  0.5839789585042054
  0.9169793494942777  0.0822234674401968  0.4999445524097597
  0.8332056140876789  0.9995991952189675  0.6671619212073004
  0.0837363848285293  0.4166532922974086  0.3331512741755801
  0.9171590393510549  0.0841761143823593  0.6662221456786450
  0.8323390275472967  0.0843219584522151  0.0831772151885946
  0.9157188703418174  0.9997858289678758  0.0834519201962511
  0.5831442670832765  0.4165120290168092  0.1658712431872339
  0.8323842673180514  0.1677914481224494  0.9999979103777827
  0.8320827653080126  0.2500847803480442  0.0835961530181438
  0.0825033495499028  0.3341025885274981  0.2497922929315693
  0.0003353147935603  0.4169533347483227  0.2505515080810038
  0.8337062623264454  0.1673228753895882  0.1666490036797111
  0.9168694486776258  0.4168766195393825  0.1662547048826564
  0.9990069060098957  0.0824861190203767  0.2501417281761263
  0.9160567009741680  0.2505405849858055  0.1667590068529324
  0.8342225394894900  0.1664646660845434  0.3314307940143280
  0.9159456661946954  0.2494546059063556  0.4990975190615697
  0.9149787770793333  0.1661430739126525  0.4173749653181880
  0.9161169254754958  0.2507427183064719  0.3328302589149456