Cr  N Ni 
 1.0000000000000000
    21.1201135712910144    0.0000000000000000    0.0000000000000000
     0.0000000000000000   21.1201135712910144    0.0000000000000000
     0.0000000000000000    0.0000000000000000   21.1201135712910144
 Cr  N   Ni 
 259   9 605
Direct
  0.9971606026654009  0.9984118670277848  0.0083818165439827
  0.5817523996713315  0.2494353880584569  0.8328450209441948
  0.2511503680146955  0.4172098745727655  0.9992902293748580
  0.6646751441190232  0.4980089349064416  0.3320785398251678
  0.0828547359920909  0.1671074999974573  0.2507375124332206
  0.5841965426093427  0.2487721787220892  0.6652207659897647
  0.5005796836965239  0.1656290278561868  0.3341391633334073
  0.5822656613340760  0.1665112999377968  0.4157091164626001
  0.5003267940249909  0.2516415365012146  0.0839728892767972
  0.1623862084091264  0.3402558423533535  0.8324593281750015
  0.4171147170862123  0.4989343909710475  0.0843195239622177
  0.5005410201444025  0.3326283938190320  0.8325838000868374
  0.3319565117268935  0.5023525064941825  0.5006913994248366
  0.0829896913549062  0.0754094683328989  0.8313795187749050
  0.6571222996113864  0.5835658142574316  0.4149207043011364
  0.5825263396184517  0.2520753269787029  0.0015369174288894
  0.5009372522045712  0.0820265413104966  0.5825184094713121
  0.7498168082076208  0.9979669666804204  0.4155709356830188
  0.5844137593682655  0.0847146115822480  0.0010477442602325
  0.0829776536628455  0.8316843701445971  0.9177222677253291
  0.3326065481691023  0.9162218436448070  0.5817510724229462
  0.2506791875749049  0.4155729491959157  0.1663848050896499
  0.5023991169041639  0.3313688056792413  0.0009899624323020
  0.5840646271364016  0.0827866875969779  0.8329170622941456
  0.0841413825587122  0.7507824462905569  0.3317309788015166
  0.1707991354801255  0.1629023146436091  0.8319938769159002
  0.3329894757019017  0.8342707554484140  0.3335357236214517
  0.3435598218787143  0.3344671317678522  0.8324053307574539
  0.4990646240540264  0.3319136832783056  0.3347535002263168
  0.2520718554645361  0.1656383256315288  0.7468143688462746
  0.4160344095875060  0.9165869869404699  0.3335273433221203
  0.9147084735532841  0.3309721474172888  0.5824684754562210
  0.4159570195654106  0.9157546582489312  0.1647314294102407
  0.4172960997432486  0.7501576116083734  0.3336449497185223
  0.2503391317833565  0.8325315149416437  0.4166428768524218
  0.5009025836968291  0.7491066436320419  0.0832938062652785
  0.4175644561436801  0.8312726448858734  0.9161030151745327
  0.7477988060701397  0.6774886580093720  0.4139823560563334
  0.4163024478262182  0.6678938874429875  0.9166225726029996
  0.9155147067873135  0.7530621809826686  0.6684988199666597
  0.4192118819482560  0.5012959153940979  0.9181273487206409
  0.0838346024206145  0.8324038522608471  0.7488542754919582
  0.4192534867638029  0.5000543652025646  0.7487747271888586
  0.5805003690561680  0.8346423843645245  0.5841619797234481
  0.5004491941342383  0.3338741738835056  0.5008277205178980
  0.4994141367299925  0.7498788331610083  0.7493671113989109
  0.4977557311643873  0.8323933652340996  0.3334591922028089
  0.3340115050433520  0.6649571443883274  0.8348084623641633
  0.3329801131977531  0.1649920448625452  0.5003467315990844
  0.2508771802563038  0.7509324745182447  0.6677879227816370
  0.3334222855302740  0.0831533819884444  0.7500848291258559
  0.3334097461538456  0.5826607143785654  0.0842434590614226
  0.5848122661825228  0.5006535664880751  0.9172795116491104
  0.2517899715774916  0.4279815352645150  0.8331402363091508
  0.1666576271996973  0.0879428944845644  0.0850893359817593
  0.3334792416417074  0.5823506893378706  0.2511197028823679
  0.5819730296651994  0.4994540330835947  0.4151537531405348
  0.9172780480455857  0.6674971324583475  0.5901261282769871
  0.5011203026949259  0.8335993983924324  0.6664771711329265
  0.2501325822518847  0.5012506013401657  0.7488733434994592
  0.1648059748721097  0.0836331969715493  0.5809910408649681
  0.0832134182971224  0.5829925212315986  0.6686283277126547
  0.2509546022761656  0.4172031633384338  0.3351883972060355
  0.5011951455645334  0.8311584238878831  0.9995163652018224
  0.0835458523823059  0.5818611625349055  0.3325102928265955
  0.3329372358749844  0.6659553650492310  0.5010206364613728
  0.6644387338141232  0.5825813869210851  0.2502008946281934
  0.1655047665100251  0.2508436487596753  0.9222832716141723
  0.3340159638167851  0.2507870479410788  0.5819446436056878
  0.3318846867434790  0.8338253169356683  0.5009569464627649
  0.3347911060205713  0.0834795786854971  0.2514147734231764
  0.3324920934387719  0.2503064647493066  0.2526211385258330
  0.3340423907264151  0.0841694098116893  0.0864418749484992
  0.3332924203783039  0.7480359289832521  0.0846355564965933
  0.4179755339852829  0.1655541163863260  0.7472674186260710
  0.3329278485453413  0.2496048593384782  0.4191378454401880
  0.3324050100191849  0.3347605467182289  0.9996887245553600
  0.0822135516192751  0.5852662345975713  0.8359503979908195
  0.5839997751298104  0.5823200816988052  0.9993304436465875
  0.4185517543738563  0.1674227400870041  0.9165419260615562
  0.3323950565636880  0.9146602898452983  0.9150964570108238
  0.6657076559066534  0.5828433787871123  0.9177182547101014
  0.0003249848333236  0.7483142266036188  0.0848542664655508
  0.1672794641672500  0.0003486415828602  0.1755166632884387
  0.3332746702350293  0.9130879079147629  0.0862695667284662
  0.2487708126571150  0.0011256249614455  0.4161737164615306
  0.0848333647458971  0.8326374634541642  0.4154282734147507
  0.5819130779832273  0.4160098186345524  0.6672027466696980
  0.5815826159525013  0.9170292593565076  0.3332266910107569
  0.4991219497695135  0.5006086056322373  0.3330615812730687
  0.4157382823474202  0.0017193894044556  0.2489688507973775
  0.3323482210120435  0.8324697687130368  0.6673524409948025
  0.3333081906271851  0.8327159383332545  0.8335886343736011
  0.8339363827075332  0.5837302279127212  0.2491726265911879
  0.2504697977324777  0.8307799801854059  0.7475845728581044
  0.2493934743748221  0.3345127205903305  0.9239309518115334
  0.5820358638428005  0.5826966175778304  0.1670768164340995
  0.3318405265260023  0.3329496353288460  0.1666037742902514
  0.1663117308447281  0.1658696697554340  0.5009901224027952
  0.5823847425149687  0.8321664176671320  0.0828671733816430
  0.4154206668816677  0.2494904393750361  0.8329250098470173
  0.3325946936074852  0.6666241895732655  0.1663126708700843
  0.2552432681878460  0.2468609958091220  0.8321881515279305
  0.4178097750157799  0.4172063109613195  0.1672355174791920
  0.2496043522900681  0.4986360622790952  0.2493958908108861
  0.0823307822582935  0.4166631184759000  0.3346522254910461
  0.3320852728054983  0.4175587607001932  0.4163080031738193
  0.4167834568623749  0.4996944392387014  0.5830058438497708
  0.2512436460004696  0.5842623908290203  0.6678827835198224
  0.1660247075896175  0.5822376870344697  0.0833279530179680
  0.3327628231771945  0.0000956891269012  0.6650434106400811
  0.4174002150287625  0.9970050995968807  0.9111435839166405
  0.3334169661622484  0.9975193903641923  0.8348338756308132
  0.1658671620073749  0.6650741243277055  0.1676196791919938
  0.3335513985392902  0.0829803992835157  0.5822992432429318
  0.4146045866635090  0.9167668248806879  0.5016446352551635
  0.4989076419728913  0.4980889309126210  0.1656572966134550
  0.4177997158886286  0.0014340741223833  0.0873869744400113
  0.4166283914114370  0.0845826971884114  0.1682950171826567
  0.3299963888069796  0.9989735605239564  0.9989779468178804
  0.5853025565406256  0.9998383883748675  0.0850835301235527
  0.1652680270006516  0.9162900084963764  0.5828549758066059
  0.7475240694817981  0.5832727390018826  0.8328223607864307
  0.2501831645277386  0.6653011901067459  0.7508934876443335
  0.0811279276018869  0.1652554210332809  0.9205665469337148
  0.3328195645419452  0.8321903601674471  0.1671120606777701
  0.5801344114444057  0.6679229822390155  0.5849405723567351
  0.4160939104187231  0.6669311670524092  0.5822851827577242
  0.2516406603600407  0.3368554539641352  0.7421307479028708
  0.5027233882924831  0.0857667503600642  0.0857771618935841
  0.2493233555187730  0.7487079912103873  0.0002402848116896
  0.7498566379079300  0.1651071370975598  0.7486990740748298
  0.7489716211785057  0.4083867196467348  0.4990264457086632
  0.7484156161379180  0.1677341577793632  0.9179763679970696
  0.8332308151579032  0.2506915703302067  0.5821181257031161
  0.0086513102737557  0.6676528473091400  0.4998343077790119
  0.4972591026429806  0.7512483260268534  0.4163862913606832
  0.2503344939869668  0.5838393596237480  0.5002468611169388
  0.9969596953013307  0.1666440660324405  0.6666130132283842
  0.7483794284722294  0.8333478328138523  0.7498753490141865
  0.9162670065745052  0.1648028517114247  0.9178781595053950
  0.6657943996082337  0.0828072976109457  0.5814004457226327
  0.9992629002585103  0.1663444050713276  0.5005514788958438
  0.8302069066643905  0.0818209891980512  0.7496415799738431
  0.9147345513302241  0.3350924223171235  0.7484973678352939
  0.6668722191317349  0.1654628167470363  0.4998557143074793
  0.7491797345499841  0.9153776206594956  0.3344945518162478
  0.0808142987844371  0.2503728674322098  0.6656658007630054
  0.9152371247066563  0.8322189223538863  0.9178487716397320
  0.9971170122907284  0.4170915102589519  0.7500130572712771
  0.6654523951279365  0.0009608697005178  0.9998491200154807
  0.9157679323506820  0.3346863067688475  0.0853748664666185
  0.4994440287516220  0.7505174758012924  0.9167467512770415
  0.0869395889472963  0.9998854864713499  0.9164383871552388
  0.9978959870145416  0.9161269748958207  0.0846101200211817
  0.9995079811002655  0.4166446867922358  0.5841322622528402
  0.6669369846024921  0.7513568781940768  0.7493219658622662
  0.7477104339445891  0.3337156619220480  0.7515131788260924
  0.5823532594239444  0.4151294258540629  0.5003966204185829
  0.7454324343801549  0.8307555756397369  0.9183300298951914
  0.1656702143033410  0.4197483705484820  0.7474722913262443
  0.6651037797046085  0.0849498290094186  0.0855732315964319
  0.9984181947347521  0.9992903922648569  0.1674406003586263
  0.0842363358354244  0.6654713874287081  0.2481817398712135
  0.9146533630012742  0.8301789405425760  0.7483465970152995
  0.0820940984647432  0.9994942571507387  0.4152439968353173
  0.9169982663427539  0.9987106728338134  0.5825133597068350
  0.9990748598773833  0.9168753545835368  0.5839273053469309
  0.9168908035632469  0.7561024423466725  0.4999354940728530
  0.1650172573809604  0.2499396084224707  0.0841873556564856
  0.7496524982999929  0.5829292771095660  0.1699318672800816
  0.8318641833698142  0.7504900780436723  0.7495127977657681
  0.0823832009564250  0.0002874297434471  0.7493006422302114
  0.8331121234110406  0.4141816239155803  0.2502074091059384
  0.0016119246010822  0.4163282564395768  0.4173826087759040
  0.0001919176671963  0.1680720604633333  0.3325803106892588
  0.2498249847320056  0.1678313832112162  0.9172149146176107
  0.9977626513318439  0.9990777092013416  0.8278535844147685
  0.0011497997914180  0.8309467778542955  0.4992669990658063
  0.1647722238568576  0.2509438055344789  0.2518045210489029
  0.0830842111325669  0.6651722218362504  0.9171238302024812
  0.9151136317787939  0.6642982958218121  0.9179229885915126
  0.7475910821453532  0.6654446622289403  0.5846808975389655
  0.7474678559820888  0.5875583964090938  0.5035160390116907
  0.0800017689790112  0.3364362488091321  0.7477767637736540
  0.8392383168667908  0.4991005319749838  0.5009693923965601
  0.9975761164481208  0.1687853902129296  0.1672993623642358
  0.8320210834476937  0.7506694509774121  0.0840702897490759
  0.9085888989842545  0.9985088954879500  0.9189093212453241
  0.9152947881794988  0.5826754158859193  0.1672336872052468
  0.6664030210591411  0.2492701541964298  0.5829536627784103
  0.8320599955055314  0.8302127421823358  0.0024487667085847
  0.7478863880314802  0.5846357364908692  0.6662955979095250
  0.7476865575643187  0.1664711255021303  0.0863180453115509
  0.6571406881123567  0.4994987364256477  0.4985677400064049
  0.5009762461925308  0.0012032362088374  0.6658165789526704
  0.7487637435205644  0.0842311894521427  0.1677331413168336
  0.9153214071547868  0.5831745037926263  0.0015870120597306
  0.0839329983141573  0.7522927545298242  0.4975556211812105
  0.6633451584761890  0.7499630819627164  0.4170939445788348
  0.8321870469721013  0.8332293657983687  0.1666958206655563
  0.6655171704146220  0.8326568613974710  0.1676864266950216
  0.9895501464952043  0.1642709582060308  0.8334372004833106
  0.6659074208239414  0.8321546065049796  0.9991168330897585
  0.7482457881430776  0.0013816670426107  0.7490652821746325
  0.9986292250058648  0.9991958168987811  0.3339499119605576
  0.9983564080393631  0.9075561683957749  0.9155940061706855
  0.7492333324971192  0.2495673918713040  0.1680857987083966
  0.9147692478009311  0.3347476809937093  0.2506203267920563
  0.7486362922042404  0.5834405038789587  0.0008206588289881
  0.9174284964768635  0.5778520350162116  0.4997563980544786
  0.7482360222278330  0.5848186141564468  0.3234194308312522
  0.7477389953776432  0.3340366544517795  0.9159005328938387
  0.5006540004112378  0.3326583691165489  0.1664298824451374
  0.0813233464358894  0.4152663971338128  0.6663590383267544
  0.6659069886695159  0.4159824648623822  0.7507483103095558
  0.1661124813573413  0.9122070063307175  0.0853005599105227
  0.0807765671837224  0.1650509822852895  0.7389287049130631
  0.0844114685093029  0.7495035210567685  0.1679186790358448
  0.9147302161490765  0.3351561450586811  0.9182685799108803
  0.0827030599638716  0.4166106306286230  0.1669387972114301
  0.9157366152106883  0.9165820153208278  0.6671399517990781
  0.1658934215686000  0.3339193835058096  0.5012856464231893
  0.6649587660705951  0.4151890889432703  0.2509564479497308
  0.0774041519671931  0.2566628575066097  0.8323366947969083
  0.2520496560964207  0.9975835829474978  0.9172847558390935
  0.8332255795094615  0.0816273658379493  0.5816496105912031
  0.5001838955826781  0.1651392269156021  0.4999798632778429
  0.9173219851003434  0.3327058657934349  0.4165239001442270
  0.8337040194513440  0.7520561402737852  0.2485844308566532
  0.2517145030905422  0.5823480900354805  0.3327253952306020
  0.7487657839889366  0.8333461293422615  0.4153636347091869
  0.8302378499358732  0.9150258409783972  0.0866627971691860
  0.7480326702490286  0.9992043631419579  0.9186954680460377
  0.9959990599440182  0.0883279601700358  0.9192692327112254
  0.1654017054310021  0.7486296639781815  0.0846791497667755
  0.7467669694121974  0.4985817998698838  0.4108941903768006
  0.7492622484659712  0.9169959483544891  0.1668392992512571
  0.8320787730355295  0.4145595623893879  0.0827071224699065
  0.6666054392475377  0.7497261652576470  0.9166545533494346
  0.9158185890881048  0.5848217863065029  0.6677237306168662
  0.7470906725501127  0.8356686753053717  0.5815978301733344
  0.9168268018751825  0.5008724769655870  0.4156713041292470
  0.0830892696247586  0.3347089710126511  0.9182629629807246
  0.8316441550273147  0.1670285455537643  0.3336054576414290
  0.9142604015507909  0.5029517735466054  0.9174776781134654
  0.9977368280824090  0.4166183607646861  0.0831608910026652
  0.9990265324260188  0.5819786981805963  0.0840224694331937
  0.0823834429855688  0.2489463000105636  0.3339591637949559
  0.9169419686677460  0.6670976254987004  0.4106537111644067
  0.9151217819674234  0.1669983471892673  0.0872743554713567
  0.0830885689300633  0.5834063642662898  0.4997064863599465
  0.9174207804571803  0.9999026219872221  0.4154587732640215
  0.7481006431981789  0.5006131752738230  0.5920987863721264
  0.5831136784828651  0.9165526621205673  0.8320409490421298
  0.5823136333948893  0.2529011643817463  0.1680162380186213
  0.7485904414564852  0.9172072016164269  0.4986785535338332
  0.7489508411685308  0.4164138297997226  0.8324726157421637
  0.5824520206010824  0.9995248662696623  0.4158664049613849
  0.2550851848044560  0.3392209988442010  0.8325928242746637
  0.1662217469967486  0.2513264896853486  0.8327036145075307
  0.1668765282008083  0.0002034567930993  0.0868449265944042
  0.7481417158834671  0.4968799361499620  0.5027059402004008
  0.9180482596154828  0.6673129193197618  0.4998460838147143
  0.7467517159241154  0.5892360583372185  0.4125738688525236
  0.0785340594356041  0.1652675844909181  0.8297881926253819
  0.4185866060784995  0.0004701735319574  0.9988513927826996
  0.9975778345139408  0.9973024594315162  0.9182987449166180
  0.6658913929507062  0.4164039895586845  0.9158419367463683
  0.6659676914677870  0.5822944695537027  0.0841160164615183
  0.8306213157520038  0.5831769547424180  0.9170862036039759
  0.9169221288142235  0.4158862243818390  0.4998542818554503
  0.5834161790933742  0.6657573536268201  0.0834678650515296
  0.5814740271387644  0.4985558327638052  0.2500300067446201
  0.0824328437150114  0.4167656964660141  0.5007416462345884
  0.8332692030221828  0.5000245931019467  0.6679576832548735
  0.0826198528681687  0.5824568324545681  0.1663665439487050
  0.6635894231926016  0.6688476942421843  0.3305650025202479
  0.7490439304359168  0.7511223712304728  0.1664939275439609
  0.9165697893637690  0.6673724338789867  0.2486670333145204
  0.6657172761298903  0.5832318358821791  0.7498130118678116
  0.6650711501424833  0.7499764165146163  0.0836190742870088
  0.0003374781316889  0.4158439393626706  0.2503602116759684
  0.6662363052384088  0.6655222764075350  0.0005642187522268
  0.6653417705564652  0.6654740784839347  0.1669772485543790
  0.7481095746401526  0.6671711971029893  0.7500852850840245
  0.5833047765230117  0.5833926383579635  0.8345321395507186
  0.5010196458081446  0.9154162200202475  0.9152982585917578
  0.7499702691973145  0.4151902239099971  0.3330227197830036
  0.9994733906269967  0.9145670007717527  0.7499064287851455
  0.5814131638407803  0.5847097682413024  0.6670947636711100
  0.5834265712425151  0.7481039905446586  0.9991504913755923
  0.7489173876796195  0.6691054598148468  0.2477200541565996
  0.5839957181894115  0.9156015952445543  0.9994463445686279
  0.6629707149983567  0.5842771940504699  0.5844435535557133
  0.1658137992543686  0.5005413106619790  0.5006531812699696
  0.0830551540892942  0.9172020831824518  0.3335641832098501
  0.6628894339643674  0.6684037287925346  0.5014338885441457
  0.7490088281146212  0.4150051686389951  0.6682268584482013
  0.6639664984209235  0.4999445030887000  0.6675738334444035
  0.6662188859435628  0.5001454988564445  0.8328381028346679
  0.8323623623137558  0.6659355021415797  0.0008977364696596
  0.9162160446818605  0.5829994009494976  0.3314972381619419
  0.2493516101347978  0.2498222348578265  0.3347996461450274
  0.0810197061807978  0.4169678079377955  0.0013140069245021
  0.6658942694645732  0.2501250834984269  0.2511059956809545
  0.7496201409808245  0.0832092551252361  0.6649659173140698
  0.5819391146153119  0.2501256873244502  0.3339591247848193
  0.5835259387265709  0.1658285109760915  0.5818908236442419
  0.5824537221715107  0.2487902644666830  0.4998897143585491
  0.1663620656239366  0.1679052218282213  0.1683225829203827
  0.1646918630208109  0.0833110487170182  0.4170166583054599
  0.4991120154706873  0.9174576546730479  0.5838377323624776
  0.5822973331651876  0.1677126522184513  0.2515319858491172
  0.5009458930084613  0.3324650705334235  0.6660399140446857
  0.5012959004162274  0.0841960222822796  0.9154486679183664
  0.4999992750273237  0.4162018217199875  0.5834101179325690
  0.5829931267859941  0.3322311182175889  0.5837163476265760
  0.5836483807929170  0.6662977140953872  0.9165908639496634
  0.0830071591142640  0.9163554366083878  0.6663107099565675
  0.1654430679466778  0.2500149015088748  0.4183954012393632
  0.5821446234273022  0.3332898640511716  0.2511337892418917
  0.5006804489167425  0.1682296287154360  0.1683471490489094
  0.7488430295601266  0.7497208957471148  0.8332083547622197
  0.6646802362632819  0.6675933962464925  0.6668728488317115
  0.9975176331926650  0.4176257648631416  0.9167976125395931
  0.6660389688826518  0.6666529672715447  0.8332471864786575
  0.6644180799321666  0.7514774988555537  0.2489167706373449
  0.7484097118550075  0.5006409018426591  0.9165035304915552
  0.7483258833339786  0.7520741987794735  0.3309805412858451
  0.5835954781851065  0.8321667071449652  0.9163183116957850
  0.6643976612953193  0.7510191061596901  0.5836752454066041
  0.7488488449946118  0.6654645778889671  0.0851198782571824
  0.9983512723771560  0.5001997487884037  0.0002183302396138
  0.7485211690552149  0.8339164535072572  0.2494738178452838
  0.5827060342370961  0.8328733742120858  0.7497105867778457
  0.8332668832653972  0.5840065681300467  0.5854364614996919
  0.7477888415797400  0.7511651642133298  0.6663518493243211
  0.5832754448162311  0.7502510084765812  0.8329963865653834
  0.9150093126681430  0.5841784499522144  0.8348127570892335
  0.6656952894683549  0.9165379195252630  0.2506437453973031
  0.4987213981712838  0.6677667263357604  0.3332543662241229
  0.4990304163103809  0.8341701365393445  0.4999114002638634
  0.6652937631837436  0.1678078366380340  0.1687522509072720
  0.6669928270360265  0.1667989209888389  0.8332677904010900
  0.6652325177399354  0.2491831569037987  0.4170090483146494
  0.0019037721908009  0.7507457261991821  0.5846979982118157
  0.7495362867088585  0.0000966456772095  0.5815252584741111
  0.0841865303507668  0.7506204574034442  0.6682559239819962
  0.6660318353476016  0.2492620193914814  0.7502594645352909
  0.6659917352050911  0.2500537191387390  0.0843985317983659
  0.6668485347334140  0.0006751504863971  0.6659446065742695
  0.7497547997451561  0.3328408401255085  0.2505364722670062
  0.0832778651190019  0.6648698822264044  0.7509901175328391
  0.6658793232895884  0.0827740525916932  0.4160289422196686
  0.0842489025450007  0.6664661423915310  0.5847923898498381
  0.1668233724560544  0.7485140993557543  0.7510056318936608
  0.8310511691709701  0.0839130819081284  0.9179093119398370
  0.0003686998296214  0.6669810049176327  0.6683238203852727
  0.0010539487370407  0.8329554880761095  0.3330190926087071
  0.0844693806103222  0.6668560981733846  0.4146488698724645
  0.1675564782807404  0.7485687065621852  0.4156776633504255
  0.1663505164396546  0.3348671301853496  0.6649747581450486
  0.4156866612480171  0.3331537344514366  0.2512779224346969
  0.7497373157105149  0.4976901139420311  0.2487838804756540
  0.5817980494074912  0.4160594659549202  0.1677306121936901
  0.4162768270016641  0.3328156243331812  0.4171987146245729
  0.4984324165567669  0.4161374762181778  0.4167795147511246
  0.0826153240547150  0.0840584396117533  0.0024356265049339
  0.0830690655399009  0.9161426779309558  0.4987055134514811
  0.5806545678459167  0.4157540454095547  0.3336549704860138
  0.5814704239479129  0.8333298059218277  0.2502142206663193
  0.2499071991542002  0.2495558679229520  0.5009864762412649
  0.0838293310020873  0.8332900103922198  0.5830339443769555
  0.5013359542385515  0.1679508615812267  0.0008561422467205
  0.0005863525596904  0.8334497212833462  0.6668579475137913
  0.2501342792232935  0.1659786270341068  0.5820675062136944
  0.0014387156239732  0.7495427719117912  0.4140903960662157
  0.5828277658064859  0.9992096806643228  0.2511153973216037
  0.7486256460114564  0.9157588429348548  0.8342254608730042
  0.6660617920184269  0.1675248149196398  0.0006487307805350
  0.9981780172621633  0.5012315807643231  0.8341064990388356
  0.8335156059443343  0.3328872262360542  0.3334942765684540
  0.0013545513428119  0.7495110713802611  0.2503374332973481
  0.6646901621689263  0.4148713943520842  0.5852162359453491
  0.6666862390644264  0.3326139313619437  0.1677043553308052
  0.7490412224904806  0.1659040725080378  0.5824179635532847
  0.0825199976037324  0.6653341074810244  0.0838454653624482
  0.0816548691207883  0.5011380263280646  0.9168556093156088
  0.9993792154700830  0.6662886002183540  0.0005518828114613
  0.1662951851303139  0.5829273570789074  0.7508266295989735
  0.6663639348172929  0.3333543542020828  0.3325142351944657
  0.1663484355573643  0.9147540034773410  0.9154535568791982
  0.7494737108158644  0.1666959677662994  0.4167762493488273
  0.7494546405067229  0.5000361786679403  0.0851861246729209
  0.6649988391036348  0.3323063759164757  0.5005808894113196
  0.5817302645992348  0.3324504914907939  0.4169674297176987
  0.1654598228855475  0.5004710332085476  0.0010910222937727
  0.6650050100786109  0.3318374242763797  0.8334600418317127
  0.9997796170910282  0.6660391051129642  0.1666569567729032
  0.7500128793649018  0.2497975150531002  0.4997163027246933
  0.6664512646374442  0.3329319275946884  0.9998085363609854
  0.5009335187442433  0.1652962791613377  0.6653728260174280
  0.7495214025953892  0.4154651918497385  0.9998621532405725
  0.7500909134806606  0.2488337613815408  0.6661807245988828
  0.6664237275355231  0.0831816227096531  0.2513618542006814
  0.6661484592522244  0.2498152100342856  0.9163760599528007
  0.5820557453358315  0.9172263685236652  0.4997274322622164
  0.6665801694245608  0.0844915572368451  0.9166974333424041
  0.9993074477290534  0.5826345293397704  0.2491308677327840
  0.6665601172291528  0.4163542749869842  0.0837715908641101
  0.8323725882136840  0.1657432158109270  0.4999927201266923
  0.7500451611659538  0.2491153379988575  0.3338141651157352
  0.1672283455505579  0.7496901625459800  0.2509329460895529
  0.7498348930848751  0.0823516265022736  0.4986626330499279
  0.8317027944917467  0.1656257943501191  0.6653155633107611
  0.4985767894095405  0.9162906356996676  0.4162484008027000
  0.7496916384915824  0.4152476837153283  0.1676524348942231
  0.0836125943510257  0.4975569644073319  0.4154246251650543
  0.0825626540355992  0.2505722610637746  0.1675653043541585
  0.8317873037256757  0.5839480283309518  0.7499104591691684
  0.9161744492352959  0.5011992225390329  0.7504098780808857
  0.0819593222226985  0.1668502413153085  0.0860287529865426
  0.7485137911177238  0.5001192070066733  0.7492925674073539
  0.0813098884401265  0.0843937298454173  0.1685157728699216
  0.8315997655844813  0.5008326626317926  0.8332277786836525
  0.0824619042474767  0.9987297130464342  0.5825365406320625
  0.7487819959967159  0.9153871126740147  0.0012296520588327
  0.9998015831226603  0.7495054439944662  0.7502854233025636
  0.8319690643402968  0.8336642185388476  0.5001174731456032
  0.8319918465822331  0.7490906941283111  0.9174253088704774
  0.8317559488546937  0.6662937638220006  0.8334225615926191
  0.0820846876838650  0.0816503646720412  0.6646753688311117
  0.7488659674345796  0.7483659102836490  0.0016537483023360
  0.7471606484243154  0.8318572555325957  0.0834640360247743
  0.9135731629126678  0.9144944845770880  0.0024232788084188
  0.9989295585867765  0.2508765672461833  0.2503614622508570
  0.1657512679969596  0.2498542056556667  0.5829323456875369
  0.9145722230058908  0.1658032589206420  0.5823079407731714
  0.9968643460762763  0.2506979209464673  0.9183142197409710
  0.9979814560007133  0.2493397337786559  0.5827549051467918
  0.8338565533723047  0.4153500562398599  0.5843166674693637
  0.0003382098484154  0.5003003889942231  0.5004096239427110
  0.9137216380224610  0.2494742518394876  0.6661173910363540
  0.8317523091213446  0.2500699783888555  0.7506953846664328
  0.6661330808368406  0.3321575740741099  0.6671199995170398
  0.8317519878509217  0.3330510447003761  0.6672211805512217
  0.9999941759942750  0.3334292444357974  0.3332468200213101
  0.8321399709031962  0.2508734293550729  0.9173284110464455
  0.0821357162780010  0.1667296281985801  0.4172779273118669
  0.9148119104139097  0.4170366230683331  0.0000373833550459
  0.8321218730678559  0.4165629203825699  0.7507286916932754
  0.9996798307562699  0.2500043411983762  0.4170188145844415
  0.8324613752252337  0.5829983882296772  0.0845292878506913
  0.0824573721992239  0.4993342820134016  0.0842766896496914
  0.9139457019135170  0.0816019417917700  0.6650055881321040
  0.0826234151969356  0.3346585737086319  0.0849907106198083
  0.0833954022596396  0.3335765525885206  0.4174425961693456
  0.8303942275799763  0.9153890851072141  0.7499284394015450
  0.9128699491003228  0.0838693199786270  0.0033760432646303
  0.8306175802480439  0.0000137074713409  0.1678244609328648
  0.7488611464903354  0.1668660294103626  0.2500605119294902
  0.9158702790111595  0.9994475834576203  0.2501083415836696
  0.8307437567296906  0.0843452545670205  0.0854800596814552
  0.1659018452344869  0.4175146997786993  0.5836347216093004
  0.8337166448579846  0.0827303045166759  0.4158961493516898
  0.8328065036376033  0.9991826506558739  0.3343636622280192
  0.9167303024509875  0.0832964319076558  0.3334806882179128
  0.8336877663357305  0.9988215034921222  0.4990453316187114
  0.8314526930537458  0.1670327969818962  0.8343833358344491
  0.9136783022076239  0.9984780563358786  0.7483976727040298
  0.9167037561821207  0.0827784380893240  0.4990165411029429
  0.9168165578599418  0.8335829068406848  0.5850132929714966
  0.0837841039501645  0.4987871224552335  0.2495982391605394
  0.4164492348881285  0.2515086542094791  0.1681639473061550
  0.9149924786697943  0.4993049076125069  0.0839274963748718
  0.9988242949804448  0.4986452058033927  0.1668209923851660
  0.9115984715476440  0.0810836270764291  0.8325609795914132
  0.7498366081211142  0.0834028761525890  0.8342817441870142
  0.8322161843418024  0.2499714933236007  0.0842968252510927
  0.0837556556516775  0.3329550765331049  0.2507976651436292
  0.9993522775716986  0.4994839082491425  0.3318558423285468
  0.8319863248646373  0.1674800574787649  0.1680350351781841
  0.9170938799590410  0.4157610124488430  0.3339629356564786
  0.9983380709015134  0.0840035213725297  0.2508295473686007
  0.8322458763031944  0.3333418809958825  0.1670354709639000
  0.9165629899900360  0.1669733415003308  0.2510322054281338