Cr  N Ni 
 1.0000000000000000
    21.1201135712910144    0.0000000000000000    0.0000000000000000
     0.0000000000000000   21.1201135712910144    0.0000000000000000
     0.0000000000000000    0.0000000000000000   21.1201135712910144
 Cr  N   Ni 
 259   9 605
Direct
  0.9960090453337318  0.9986950521448665  0.0024471367198281
  0.9110840858662645  0.8323860319908267  0.7496944492602327
  0.0818959478120389  0.9983918153604325  0.4153779656096543
  0.9975070833156090  0.9994410524257712  0.6649561716228276
  0.9122784816688659  0.9995748261505907  0.7469500127814591
  0.9169520401329198  0.8330762953190350  0.4159286406316169
  0.2503782453138016  0.1660380570531852  0.0856513044116953
  0.9151720618894807  0.7514286490710407  0.1670659722419292
  0.6660649666129811  0.7501949637904307  0.5837897629005541
  0.0814033253359562  0.0726110156743519  0.8329516298551253
  0.8335060180150220  0.4159320206534464  0.2497231215108704
  0.9998590373816502  0.4168909165858725  0.5832899227507230
  0.0016070495352975  0.1660269292193392  0.3336130756638163
  0.2510789315306720  0.2492936378026338  0.0086514021285525
  0.9977336298624424  0.9185176009241202  0.9165629261298860
  0.9981334631939055  0.8323637784908414  0.5011077652506317
  0.9168680507728839  0.5824533454562754  0.1675557249737680
  0.7499832354287949  0.6641970731453394  0.0850913911849947
  0.1646648098816963  0.2494448921702455  0.2485062940517992
  0.1663361717278994  0.5023186956006799  0.0020559057192875
  0.8321980714274837  0.6652331557984678  0.8347174122777115
  0.8326312514555017  0.7498487238121601  0.5832186533175615
  0.7475889913812959  0.5871948853276745  0.5021536175002622
  0.9887264743708437  0.3346152949898324  0.8335843149883360
  0.1679731355377625  0.9147804425227456  0.0842578508494928
  0.8417209505445979  0.4991642822593247  0.5002373394214891
  0.0834932402381705  0.9179125212062910  0.3340468918551592
  0.0838149952780891  0.0804804608018380  0.0033907160472787
  0.9991121287364532  0.5000838278023170  0.1675927268922403
  0.8336726186661416  0.7498663834009708  0.0852198353266711
  0.9990008161496592  0.7481579703157866  0.5836029157269084
  0.8326314622791859  0.0834179922262639  0.2527260319631460
  0.5820520541585358  0.0856059658624239  0.6652654186195438
  0.9149769882147094  0.3344320868165571  0.7471599654493531
  0.8329236860901746  0.0827444447975339  0.5803364725003245
  0.8336660591456748  0.3332890654369177  0.3313841876030035
  0.9176465075017011  0.3327192315284846  0.4149475707820205
  0.8354617233559385  0.2514115886095472  0.5813898115415824
  0.0836769986178185  0.3331444638859953  0.9265729869416466
  0.4980121210342927  0.7503113652789957  0.4159817379081858
  0.8331910058566419  0.1664761508530286  0.3324838588795543
  0.9983328133482994  0.1656275459172788  0.6659236328844050
  0.0820399675080134  0.3350139072575889  0.0840733934691851
  0.9184274749556450  0.1642162587062769  0.9199493379141952
  0.0843110441259681  0.1656740011356156  0.4161943232459132
  0.0011705454046912  0.1670965745734779  0.4988986078785121
  0.8317169892233850  0.9164658277736396  0.9176006750772755
  0.8323630431900020  0.9990726242657918  0.3335422973587784
  0.7474422638499166  0.8321079194483973  0.9177417527348932
  0.5844489536834276  0.9164067148761514  0.8318962350954596
  0.0809670486810046  0.2492159030019400  0.6654334879494234
  0.7482596057371347  0.9165054035151505  0.4998817945018589
  0.9969394049590847  0.4194349845209775  0.7489712494867724
  0.5826565633896981  0.9167106889056648  0.4990530820403240
  0.9163355097347063  0.2501676021973009  0.1678703870197589
  0.7485357062520479  0.8315801019072874  0.4159430898807647
  0.0822020046934661  0.9997804798910253  0.9193374265205111
  0.9966452380678498  0.1643495217563480  0.0032029453523720
  0.9998346609433655  0.5005614437866971  0.4993957765821149
  0.7477893065320151  0.0022943798097612  0.0851795704062102
  0.8328519524140184  0.2497449015155193  0.7507375219948245
  0.9150472085677052  0.5843157120825514  0.6669865371035821
  0.1666261503821227  0.2491870336879555  0.4184438385978955
  0.0841265976111677  0.2497177043257323  0.8336468218037466
  0.1665653789013740  0.4177823454076190  0.5830583332181339
  0.7498223239959103  0.1677593648666051  0.9172253780115786
  0.9130766674243714  0.9989506135712907  0.9172489065535488
  0.7494120612426399  0.3338983527755451  0.0851307775381192
  0.6677041333303386  0.7496908489867420  0.9178245319441559
  0.6663388436294487  0.2503879224102262  0.5815043952026415
  0.7474265889974783  0.8349946562380842  0.5825741328581604
  0.9167055218123845  0.5830880236683205  0.3317378984619186
  0.7500291996366134  0.4091736280998399  0.4982085628323563
  0.8340431162921638  0.7507491181354421  0.2484497288134258
  0.2557967693682850  0.6690111661351121  0.2487195745663612
  0.7493816802860366  0.1666426581462934  0.0855872686399367
  0.8299348171844214  0.9175979130632553  0.0844855819618052
  0.7490725733161679  0.9984635315025567  0.9174505766226452
  0.0813290787429801  0.1662026193526041  0.7397746337608163
  0.7487925101000933  0.4981683873874259  0.4102417968347185
  0.9159628682146453  0.4177163376508956  0.8347446733331008
  0.9986859673972041  0.8326402586107836  0.6605362146446431
  0.9138668468351526  0.5853273762678172  0.8341805452322584
  0.6647375532260719  0.4155268321840078  0.2489175111731756
  0.9968786530048176  0.5030476374452357  0.0017851106641429
  0.2507771695754661  0.9987878160208308  0.9171244204010683
  0.9159824556309200  0.7517183439206528  0.3336215617574041
  0.9156741666914582  0.5827758441578562  0.0016559584527614
  0.0823873865910605  0.5828237190187543  0.4984450478666557
  0.6642184416991787  0.7502913829520431  0.4149837726503435
  0.6689687811170927  0.3318712647027873  0.6674465795811402
  0.6649489035643692  0.8334245992858761  0.1662238666312690
  0.6648179257162944  0.2495538853220209  0.2513618514969474
  0.6660677705288442  0.4990729055832685  0.5005277649435622
  0.6673389324046123  0.4164076700678506  0.9173977504659050
  0.1653984829397176  0.7520793802209407  0.0829960884787519
  0.7505926494077542  0.3326577455230822  0.7510433967148155
  0.4986957582890208  0.1661505124702575  0.5009672494244560
  0.9998712012767763  0.2502407571321952  0.2490058399614836
  0.0003532810550787  0.6674619076941912  0.4997212502399420
  0.0007610645572903  0.5840400828188850  0.4171786202943306
  0.1662894940312519  0.6660940690388603  0.5002042469801650
  0.7489165025898095  0.3359541472559608  0.9175533598245417
  0.7495884489118197  0.9169141811118194  0.6658346998349095
  0.6645587948947848  0.0853955439950005  0.5804358894427507
  0.8307946159916872  0.0854555677220646  0.7493357600521281
  0.6671960921235530  0.1671668061218037  0.4991344110530485
  0.7499552134789026  0.0003629236257826  0.2531319268093246
  0.9982830371976713  0.8341583989416133  0.9988245247630303
  0.6670913415992422  0.0003612636466850  0.9987122784605710
  0.9910144426130304  0.1658169263825193  0.8347717676715000
  0.5003273374458175  0.7490487773577349  0.9165724684257173
  0.6671414466684382  0.8325261175728442  0.9998475392544350
  0.1658171558518382  0.8338338940891001  0.1659402621142564
  0.6650753698741763  0.9182742745019410  0.7504426395350980
  0.6679008935126961  0.7486824822305597  0.7512517950826717
  0.0007570330876888  0.9983115145764924  0.3330988259050493
  0.5826612010332296  0.4996755315232539  0.5907584963222360
  0.9989908326220643  0.8336900295894932  0.8399330025039671
  0.0807515569269230  0.4247758140748872  0.8339765246592368
  0.6653518670329549  0.1679809934043089  0.3332161824770569
  0.6665031973787973  0.0839997320348800  0.0842345948318952
  0.7495347251356048  0.5827597679464512  0.0015440617668728
  0.9152268980629036  0.0832489178027078  0.1682952794985960
  0.7495917178688742  0.5839392206860980  0.3243044286547203
  0.0800285534443441  0.6684748080165822  0.2508933379190444
  0.5001971545300720  0.3326331738939768  0.1663380206324044
  0.7502443742986923  0.1672299798049618  0.7484957450076971
  0.3342696199542269  0.8326504787903987  0.9983842006332410
  0.9143368798879365  0.9170151009458722  0.1663345775196590
  0.2502092245816206  0.3335601367858371  0.7417889848209259
  0.5811786108123328  0.5892410019186878  0.4998789584614464
  0.4973703678123230  0.6705532521679959  0.3323379841982951
  0.5833376931447780  0.6658999504681837  0.0843914822720615
  0.5836903938420968  0.8327648843459915  0.0838494595102486
  0.5831158267005411  0.5831409944875531  0.0010452041227648
  0.7481422635950028  0.6757951688415541  0.4137629515907683
  0.4177019239642317  0.8321428633120205  0.9153066225082745
  0.8299296248549538  0.9151456712272907  0.5818872849481787
  0.5836311718994809  0.5827799181960673  0.8338936927174817
  0.0882102354593666  0.8317503771620666  0.7496947388940081
  0.1663901410724383  0.0811551824237325  0.2492953840589403
  0.5833356381999935  0.8324235533149055  0.5850736157003724
  0.2506825237078256  0.9993938920972182  0.4162061769446220
  0.4990013146685450  0.7496849680386150  0.7495168018166943
  0.5830908051136456  0.4158570823979622  0.6662369896147200
  0.4981124544620854  0.5010246712039744  0.3323301374495474
  0.3307673457835062  0.1666541194697697  0.4987996413209933
  0.4998407976264737  0.7509307319553329  0.5853649886881416
  0.2523179733077181  0.9996320866270008  0.7461110995663650
  0.8348264736050688  0.5830995723546467  0.2506484869387628
  0.5022427189081330  0.5009704475825898  0.8334719550661365
  0.5813692697642292  0.5834059359354875  0.1666203587155742
  0.0806624854782790  0.9995543253123340  0.0840265836073748
  0.3333172188626389  0.8349404193431418  0.5023115007814962
  0.5819568849008059  0.4082619400741866  0.4991254266476156
  0.2479170368719772  0.1588593952649931  0.9174699701405968
  0.5017942506495294  0.8328908332237323  0.6667418969984290
  0.3318803050980763  0.2482685710467210  0.4182819231017596
  0.1650025299413355  0.0825552863181832  0.5813904401594620
  0.4162875551590119  0.5844360830215627  0.5000487484621189
  0.3329925591195258  0.6665173847936553  0.5019011396843304
  0.5829561418801699  0.9170803816750417  0.1660655335604482
  0.4152136929057839  0.7511905216154994  0.1656540180377807
  0.5807124950083485  0.4988450623392922  0.4089166412511375
  0.5826325024662933  0.2514509234986387  0.8346581840428934
  0.1663437028327031  0.3358737272410663  0.0029910866066822
  0.5798195704532790  0.3330542074173385  0.4149876468124007
  0.2482202650426437  0.1667413820295874  0.4164810323673787
  0.5014931428737354  0.1649245401680356  0.6661886474099962
  0.4986810231386612  0.1659384309603057  0.3326516250003851
  0.6658573499370616  0.2487040695699673  0.4156568021880389
  0.5824575378499606  0.3342728681293316  0.0844055855429943
  0.1659451925447011  0.3347468185600619  0.8321113583156190
  0.5005448270526991  0.5018386937697209  0.0000476217849199
  0.5004295691679024  0.3320200382273097  0.8338193872155795
  0.4891285700353336  0.5005892056274874  0.5000764524599849
  0.0789697359116004  0.1618873670846514  0.9223477389607120
  0.5833995044295889  0.2513127528758921  0.0029239823731259
  0.1711381031306252  0.1631356523416894  0.8312866513921133
  0.3429731134366256  0.3334145426492287  0.8324479935109729
  0.2495237620387241  0.2494645635502202  0.6654320705024775
  0.5006107226352203  0.0835307087011696  0.5820525307507186
  0.7485886980724916  0.0004536384436021  0.4159126655389798
  0.5846844489726056  0.0834707220789241  0.0019681981115681
  0.1675080213251079  0.9175073574720969  0.9160095530251697
  0.3337472840440123  0.9157931483266618  0.5827235060205339
  0.2510671607025880  0.4181617085676826  0.1678364544144098
  0.4995149772811286  0.9994717276122402  0.1667780664928561
  0.5025354019048902  0.3324573026450636  0.0040498835745566
  0.5842284152672280  0.9992230620200838  0.0830401223511420
  0.5838472186178336  0.0844005949581613  0.8331106645367425
  0.7479297607570660  0.6650657924025037  0.7501653216502928
  0.9950327028389497  0.0772096168673135  0.9177102701182803
  0.4981611774846825  0.5003717369666554  0.1674856635767834
  0.2508315583672253  0.9169688702836192  0.3346881081339561
  0.4167151146861022  0.9159720579480913  0.8326263828008006
  0.3332447931471662  0.0001016714440959  0.6654722105151056
  0.4167526648199368  0.6677555684404323  0.9153996940871434
  0.3336295018253934  0.0807888200501095  0.7485185919768633
  0.4184224566065829  0.5008754354279660  0.9178357734870438
  0.3339866489445015  0.0829670831435595  0.5825906139749569
  0.4146723937035327  0.5844737392430012  0.6680076731025105
  0.3320999628517060  0.3328144016312791  0.4996534021421670
  0.4172487629547388  0.7513327258024746  0.3336357119300127
  0.3327201778053508  0.6667409274687568  0.8330795594831937
  0.1667441498766054  0.7485325600517773  0.5826034645632904
  0.3347873944846292  0.5845165629112093  0.0824290786846941
  0.4167524800134554  0.5006371356928359  0.2493950676298440
  0.2504602122195130  0.5020299998403791  0.9187730140001966
  0.2519921222480953  0.4994493943976105  0.2499542020004525
  0.3323042701788971  0.6670755221757555  0.3337595579004051
  0.0834305180731700  0.4145480101325433  0.3334141593199755
  0.0831906476973479  0.5826642888029853  0.3350826010536851
  0.2499120038216275  0.4986994405385988  0.4175492180606136
  0.2493977752798572  0.5019488207608241  0.7480828747259979
  0.4168724836077940  0.4164068397082986  0.6676015706889564
  0.0830957808443624  0.5847661634549277  0.6657581191541854
  0.2497468841393706  0.5834702579451333  0.6675803023939846
  0.4180677411844295  0.9167547380404294  0.1647253581333476
  0.1666532692825143  0.5828659223274495  0.0824116030677094
  0.9160374090350001  0.3324320874513289  0.5821450716287342
  0.4178368115904302  0.9980912354613939  0.9158602508099520
  0.4159894703337647  0.9171864749256756  0.3345128441966198
  0.1649458671873813  0.5786100885519686  0.2521554043380315
  0.4169025190154743  0.1664995065330872  0.0849768813018587
  0.4174683728067336  0.9990497526252384  0.4161934057179346
  0.3327302452387496  0.3324567845681301  0.1676499859764820
  0.4183862656545053  0.9992838509275501  0.0844736917192810
  0.2496247710333425  0.7501894020307727  0.9989306834577488
  0.4995414527719703  0.1668824428164547  0.8330208117081269
  0.3337252092690644  0.8344584725028116  0.3347226923277538
  0.3336565264979238  0.3340924341330077  0.0027226659162698
  0.0839961222755334  0.5860261399377451  0.8347777764726516
  0.4985571539150042  0.3351513956086632  0.4989848075459582
  0.2484769679451490  0.3359343422698572  0.9224192648929063
  0.4199554274186552  0.1663153696803713  0.9157901828907713
  0.2505949723902939  0.4152984496741660  0.3324145437381536
  0.1600112666180905  0.2489847710310103  0.9206489476732845
  0.4168997061600774  0.2483597012296269  0.6649465945638446
  0.4998270493253560  0.8306813679223660  0.9965604329023741
  0.3333065250430229  0.0814835535291123  0.2495800320015237
  0.3333313476252098  0.2498236856336163  0.2495445849386680
  0.3333992628076268  0.0007777236863633  0.0005266475595448
  0.1660452055000965  0.9164506266992929  0.5822371350288149
  0.2497843130520258  0.8325152369521790  0.7491950038494628
  0.1659885269001636  0.6657029471763515  0.8335652869768931
  0.9980433670340872  0.7504489320554133  0.0831624776337772
  0.3345023112453011  0.8338753572024208  0.1661816549911335
  0.3344007232961622  0.0004598342827119  0.1657828986167377
  0.1659378998281371  0.1663993570878355  0.4990426750796432
  0.0826888220822607  0.8330725557481206  0.4173746977432935
  0.4189669556471650  0.2473768291873391  0.8330672038626150
  0.5815716135084672  0.9998267194940307  0.2498542334046444
  0.2489214889214160  0.2430295906598475  0.8309734868823855
  0.4983912560945744  0.9984579570283625  0.3343992608808151
  0.2496760941072433  0.5005035342899956  0.5825880429266831
  0.3343128016399065  0.8334044347844362  0.8340279677018204
  0.0830417318936643  0.7536939393525088  0.3352378134758236
  0.0769225045684780  0.3379559914712325  0.8352334342897937
  0.9997496370126391  0.8314682679009158  0.7504387830016687
  0.2511995898528445  0.2460338471098451  0.9208387202579837
  0.0806976273933216  0.1607307866870898  0.8311649452928210
  0.7549121371716792  0.4970606263135329  0.5030497920607221
  0.5769177379881815  0.4991143518032943  0.4997225917629528
  0.2552467133903561  0.3351379665007097  0.8305605700975797
  0.1680636027329577  0.6675803492013057  0.2496797935339603
  0.7500691090385526  0.5879890098864131  0.4125481631974157
  0.4156210923905976  0.1662413379922551  0.2503899868065692
  0.3333173926491209  0.5831407685031773  0.5837800152974718
  0.3330684960667383  0.9994032075191048  0.3336824477781283
  0.4159070233587451  0.0833916287000791  0.4994046514337744
  0.3332198698714482  0.9995892962825410  0.5010654532916904
  0.4172309687209225  0.0000413865286004  0.5830725719956100
  0.3325185134179240  0.0828797830747272  0.4165477969330079
  0.2499213987495011  0.6663322566206066  0.5834765500115122
  0.1668470730833367  0.8330953456115886  0.6655623292871762
  0.1668866343955631  0.9163176783613554  0.7495706599215997
  0.0844451643517325  0.7494939955308169  0.8346783601079012
  0.2495901318062716  0.9158169171089532  0.6652722195287174
  0.2505826162988492  0.8332593642540294  0.9167404521230551
  0.2496799846969861  0.6664280289475935  0.7502793730192671
  0.2497961430880426  0.8330929579170604  0.5833265367988699
  0.4174548596538935  0.0827657360032695  0.0004375592149150
  0.2497886052399061  0.9171691507200999  0.5005898373745727
  0.4167609220715602  0.0832120026055423  0.1671593131141238
  0.3347586468306294  0.9170497907707135  0.2497646531985998
  0.8323823444819614  0.6685056522419376  0.4998413030954853
  0.2496303194390810  0.0828535664262307  0.6633261222252530
  0.7498150427236373  0.6676300947209632  0.5841555630088995
  0.2510668809232653  0.9164218917983263  0.8321182167987121
  0.9141169513970169  0.7490140930393874  0.6654569178049231
  0.1667814373888961  0.5833783781473544  0.5829041964165393
  0.9156661755690728  0.7502105601445719  0.4994489930586352
  0.2498625674343873  0.7503884481777559  0.8337316990235071
  0.1672780774789198  0.8337976717659420  0.8330531781722587
  0.1669178652646841  0.8351665661942395  0.3339101247409907
  0.2497375664793683  0.7502137201444237  0.6665283462571019
  0.1664673495524013  0.9167194412330044  0.4169544571874829
  0.2496612025327159  0.6666088223724015  0.9162812224067743
  0.2509719173805123  0.8340057877387201  0.4180918358630156
  0.1669612439511149  0.9161981808783364  0.2500811932335940
  0.1666235838367055  0.8337320737858953  0.5007073046825391
  0.9150513468245658  0.0004322844785068  0.5825097800182413
  0.1663372335985123  0.6670444746710337  0.0010687576825097
  0.9165302421196552  0.0833103904993889  0.4986492571760731
  0.9150676098946582  0.2497723278869593  0.0018911746161671
  0.9140722330314252  0.8323372819934477  0.5825645155694521
  0.9151551797087165  0.7509889834953837  0.0011308677814404
  0.0829323818168095  0.4995975256408854  0.2508293925678978
  0.5810192283452583  0.6677886944236935  0.2486855751100842
  0.9143255452741381  0.0833188237123699  0.6647169329643724
  0.7500203015014679  0.5830210302963045  0.1688368839880290
  0.8308928784640095  0.0835534935168051  0.0855267229881502
  0.8313555118819348  0.1668927321961384  0.0013931238935120
  0.0823434682015605  0.9990458601638273  0.7468639792058768
  0.8340716652740944  0.6688084187258632  0.3310379176289309
  0.8329474419621123  0.7509805103190685  0.4152821552735385
  0.9140154098293967  0.9988116026455995  0.0858203199106155
  0.0831470090918954  0.9163455877200272  0.0010532961835334
  0.9982401690377215  0.9158196597567345  0.0836319377170145
  0.8324050682752745  0.1665339371859688  0.8346351001601965
  0.8316647415268759  0.9996294114624426  0.4988719938322204
  0.2501393370648643  0.6678942343586094  0.0825744187554689
  0.3350988223682717  0.2480954475230967  0.7483430638414219
  0.2498769700633117  0.5835112471439968  0.8337166024012315
  0.0819889846497530  0.7513280036238154  0.1653592732732325
  0.4179930115708769  0.3334055057536053  0.0848768216419292
  0.3337505962499477  0.5841099857121733  0.9164423966877120
  0.3321915085909572  0.4161392186095061  0.2499242074840165
  0.3338815682877164  0.4171950746884833  0.0840780464233414
  0.2493075207976042  0.0819628655179855  0.4998636384267125
  0.4178700422668790  0.4174869399852857  0.0011204766052120
  0.4176986549033285  0.0832305608306410  0.6648842449642175
  0.3336133814871161  0.1652153916205374  0.6651653801283794
  0.4164827351637779  0.1664586517802085  0.5825049890106384
  0.4156604692127458  0.2489038756768142  0.4998732769255535
  0.1663011712014363  0.6677239589478411  0.1606969199723759
  0.1666775184291807  0.8338926173473264  0.0005393172136640
  0.4177474366209176  0.1658983532570366  0.7481879746690410
  0.3326772784612429  0.5007424633409331  0.6670895512940808
  0.8316245302627471  0.6667364554830293  0.6670908563653531
  0.3329438300545380  0.5005689267904430  0.3331286634043502
  0.4183302452872660  0.3322680585515166  0.7486678289400980
  0.4149382085972572  0.4151610138452845  0.4994412256937236
  0.2512966248344303  0.6674043943094812  0.4180440755142552
  0.3351511233516850  0.4178857096483596  0.7492924217741770
  0.4190840269352389  0.3336638393893130  0.9188233448077678
  0.1661890366636055  0.4997792861846866  0.4999551176429454
  0.4172888623340085  0.5003062538054381  0.7503387506751494
  0.3352476916532925  0.4173395715021352  0.9182865310925689
  0.1670626496075119  0.4982925940987373  0.3341134552154629
  0.4181782154467594  0.4177300932162517  0.8345909461998775
  0.2502324023938266  0.4234739950940388  0.8347075651026969
  0.3329247175771772  0.4163913498645807  0.4163010616893603
  0.1655334330855557  0.5011053608284464  0.6663329946145344
  0.4983760087760716  0.4168832006932223  0.2496090689329239
  0.2501883711620055  0.5834966897518029  0.4999762721693597
  0.4163729443674401  0.3324815485116162  0.5831280434109082
  0.3342446071433183  0.3332084096374347  0.6658277577594257
  0.3333490215381269  0.2499959070277908  0.5825668463725829
  0.1665839477711346  0.5012996609615702  0.1668797120655760
  0.9165429622300104  0.0831293460806250  0.3336206796427612
  0.0835188976389760  0.3329735569642875  0.4163605143619778
  0.8314199150705315  0.9170381713374316  0.7489350839179232
  0.9128533058584909  0.0820293687892151  0.0030928691596188
  0.8313592183659310  0.0008026013970980  0.1687340028043177
  0.7495680582702759  0.1672640924707611  0.2515090099489162
  0.9155288113200998  0.0000122158535283  0.2503931381017128
  0.9148319006422511  0.8338276964681696  0.0839093894764898
  0.9149512838981028  0.1664798983107602  0.0863180687251268
  0.5838847546734437  0.1674121111896357  0.7501468019262344
  0.0818520394861549  0.4176118121690011  0.6657110508899159
  0.4165062187844967  0.7505457033085787  0.6674814394190147
  0.8334242859415830  0.0833620043082969  0.4145964523160978
  0.3340597072965604  0.5013040974920312  0.1666076741835660
  0.9164351422027138  0.9998051385576873  0.4159036484256823
  0.2507292528333754  0.5832175819722342  0.1660325822777530
  0.2505756867348647  0.5847784074912027  0.0004387113932527
  0.3337181294663718  0.5015926908009372  0.0001804004770877
  0.3338486313476433  0.9156745309504287  0.0818172191512059
  0.4995683368926511  0.8336602495576946  0.1650163343548301
  0.3329704068448052  0.6673584732792989  0.1653339408221836
  0.3336416241161448  0.7505611934614937  0.4175273289560123
  0.4154600090530939  0.5853198340637144  0.3328873178668708
  0.1658536590338720  0.4194877470828381  0.9195380888104392
  0.2507123514635369  0.5819072549449705  0.3339989244859058
  0.4158536965702713  0.6670753490835590  0.5842309399422678
  0.2500203701851549  0.4188481006043160  0.6660072751079592
  0.3329046680903930  0.7502163721011587  0.5835216546411797
  0.1664117667228087  0.2489846796138078  0.7476177547374278
  0.3333136747488921  0.5828806267646814  0.7509146765583061
  0.3340701000698448  0.5013770649916184  0.8338480405505961
  0.4173192349963594  0.5837891674852128  0.8340489360690710
  0.2509614001866933  0.7519733162792479  0.1649116497088968
  0.3333782394188465  0.6669699348194046  0.9994537155402178
  0.4163490083554453  0.6674164102047462  0.0829922414186522
  0.3339932785498141  0.7523401189729406  0.2501298281484344
  0.4167070162123208  0.8331470940317368  0.0813982124603285
  0.2498865307661324  0.4162934293081799  0.4996966687829402
  0.1669215541398105  0.4160755960044696  0.4164829348090996
  0.4168040229993958  0.9167035307649818  0.9986504828022336
  0.3334826059393737  0.7506271978101209  0.0820512776311099
  0.0003492273830593  0.4166022369422768  0.4164004217580206
  0.4147343476826602  0.6683561469875309  0.2496356174396459
  0.2495239165616419  0.3335745644000153  0.5842568159073683
  0.2516727767757902  0.8347428384308214  0.2497711636934512
  0.4159051376271180  0.7505941756028602  0.5010153413176979
  0.3335354566523194  0.4166799278415550  0.5840689731429480
  0.3317731395994119  0.3314865920265451  0.3328236042061683
  0.3331649102661633  0.6657919534872803  0.6673157870413190
  0.3326417847670042  0.7500782463499203  0.7507633844546969
  0.3341159134554441  0.1644707069803129  0.8324636864402967
  0.4997840871728619  0.6674559166112468  0.6678800843923297
  0.1658323673879484  0.4199209416890898  0.7490230448588069
  0.3333688271840233  0.7495714754285397  0.9153887906351821
  0.4171303303949261  0.5839532408377135  0.9991871525654682
  0.7486182460874772  0.0017823052945392  0.7485663728812155
  0.2512284772071779  0.9983112509731106  0.0844132021912305
  0.0817745338746930  0.1644708744215602  0.0852968928742698
  0.1663302755545333  0.3333503682038088  0.1668917419687752
  0.4996081544349071  0.4161289684648601  0.7501182152687416
  0.5830383610184224  0.3327019804547369  0.7495636540649770
  0.4984173350939954  0.5001690205005714  0.6680465414450849
  0.5006921338586388  0.2498070683075729  0.7493401713151299
  0.1650053118569009  0.2495353583516412  0.0843256002027073
  0.5831459878353452  0.3337141922230938  0.9183829741804667
  0.5831361787820720  0.4159634441958664  0.8338885168015998
  0.5008055560289212  0.4169882838553429  0.9176864850735447
  0.2508177697024301  0.9158204715664019  0.9998833101359504
  0.5824498432113302  0.5008744030585192  0.0844977761723239
  0.5829867033437544  0.7501732765973798  0.1652802032964523
  0.3397401903480994  0.2492812202448735  0.9183645892003048
  0.1682255252915907  0.9989763647543610  0.8324959101124295
  0.4979782717171893  0.5848952755761341  0.2496466507942647
  0.1675846130652097  0.0808265330976879  0.7470394614200745
  0.0826207567799848  0.6667623742792774  0.9179761467637878
  0.7488796414027610  0.0836218592087799  0.1695193247375371
  0.9988253154692424  0.5843458707533541  0.7505353020446578
  0.7484100421025127  0.0842615625070955  0.3345232785433334
  0.9992830259393883  0.5021064565205255  0.6665568654945057
  0.9154853807290291  0.3347087563290527  0.9191562297804874
  0.9165343014826942  0.4165069455158663  0.1675899612435257
  0.9983741210833502  0.5842270290999018  0.9176489934434356
  0.6657996051487801  0.9163433206045949  0.4159260562885365
  0.0810489259496829  0.3337390710532793  0.7452606206031304
  0.9982461217375966  0.3334448012031037  0.6654189518901179
  0.6657556224917014  0.9168573453358807  0.5830229822825924
  0.6665585932647590  0.9163164751972118  0.9160624495498950
  0.6654081066809958  0.8330944108153719  0.3329557576429991
  0.0827324528075874  0.5008046395642876  0.5833407392032175
  0.6650164021882481  0.8331583602233953  0.4992482799227441
  0.7486661448183465  0.7512680108230050  0.5003119151854436
  0.6658749580304121  0.8332324908780703  0.6674422454963386
  0.5833604056691838  0.0012861943654998  0.7497884425985725
  0.4150018726812278  0.3316215594812043  0.4166744758690940
  0.4157871873349782  0.0830753395958603  0.3338038481565417
  0.4987710161822294  0.9155157269995734  0.2499231226511321
  0.6656434950984794  0.0000934968315118  0.1674856703221931
  0.4168895344085822  0.9992096365702301  0.2501745222502065
  0.4995056917824456  0.0840598748211750  0.4161865019561314
  0.2507298079374137  0.1647412851170837  0.7466558081980231
  0.5819315099707709  0.0837986266076172  0.3335880705996517
  0.4171049444121280  0.9166256960294280  0.5010802315420452
  0.1664079159157253  0.0801457584783523  0.9185867572977484
  0.5833980607544875  0.0004451484600945  0.5829537292870265
  0.5823230960181013  0.0843284482242241  0.4991361776288807
  0.5840878654481084  0.9168924886970085  0.6672128307630009
  0.4171339078509206  0.0821630106560808  0.8338440325998059
  0.4994606390117484  0.2495964319346454  0.5828207892722880
  0.6662601110940524  0.0849185404896421  0.7499204406142613
  0.5015001090191451  0.0001803518974485  0.8330839483652359
  0.1665497720508614  0.1657040945607288  0.6644031541236900
  0.5842200333389062  0.0006693930349474  0.9162332475078413
  0.9988524407849015  0.4181683748464356  0.0838691078121962
  0.0823304025623706  0.2500125753463999  0.5004573719721918
  0.9158352128254356  0.4167956183401668  0.6655658884078959
  0.6666457432505190  0.5003216352018982  0.0013860572551085
  0.9999383847868019  0.5837149340699068  0.5820464621608822
  0.6660548444686105  0.4998841538764793  0.1677267830445377
  0.8331783031749521  0.4999702960447224  0.1677867486025433
  0.8323303600347972  0.4174761452165550  0.9183287122157707
  0.7482355289593183  0.9175381004923496  0.1672230798157815
  0.6671639326150943  0.9177342472482515  0.0831148620935351
  0.6658466626798012  0.0830811171842204  0.2512692276478049
  0.6659231280235095  0.9997685845016152  0.3336367352299893
  0.7485236030078357  0.9162913862713800  0.3342588554455955