Cr  N Ni 
 1.0000000000000000
    21.1201135712910144    0.0000000000000000    0.0000000000000000
     0.0000000000000000   21.1201135712910144    0.0000000000000000
     0.0000000000000000    0.0000000000000000   21.1201135712910144
 Cr  N   Ni 
 259   9 605
Direct
  0.9979379918078610  0.0827637707864300  0.9198109595012296
  0.5816958769169952  0.2518529236121519  0.8335469161219385
  0.1674260380979095  0.2520697323512059  0.0863832771115228
  0.5815132262841859  0.3337746802271977  0.4163493856582786
  0.2478584026014610  0.1672159759670234  0.4178181679564851
  0.5007888032274663  0.2497612150419875  0.5836932610750487
  0.5001282804554640  0.1676642339503631  0.3322033957109733
  0.5818920760726642  0.2496350039794135  0.3333625504011021
  0.5814034577342242  0.3348222442785803  0.0843764365973259
  0.1618355159827498  0.3363403501304081  0.8320337752235054
  0.5007789886434694  0.5017791015244574  0.0010310944145103
  0.5001402152931758  0.3335115272427501  0.8328558885557152
  0.4941630077354544  0.5002320283882675  0.4998655602955079
  0.0896073650039506  0.1667726354307111  0.9186236069882342
  0.5834867711335355  0.4103076909349797  0.4980370035247975
  0.5813688951825084  0.1661286419190435  0.0850246519748889
  0.2520622404924750  0.4176316161076079  0.1682501473130122
  0.5012230853817119  0.3337369781372060  0.0035912639535551
  0.5818687004718479  0.0842594331318182  0.8323120751622605
  0.2529827652128182  0.2471628084221605  0.8340699313671197
  0.3413725208689881  0.3331737268625148  0.8335486586106895
  0.2496806383864539  0.2499608818097732  0.6650435013030250
  0.4999729660062128  0.0841499428616644  0.5817440753051533
  0.7501671706398528  0.9994791787773161  0.4157113004118606
  0.4995162528230889  0.9993524902531943  0.1667882109115584
  0.5830065364532424  0.0860849713668591  0.0007640744098997
  0.4993909996773252  0.0008840177409896  0.9988046394142331
  0.1680841509216456  0.9100593996432406  0.9158544724296237
  0.7498868234983797  0.6653276478712694  0.7522602801418978
  0.3338679471517951  0.8334070912772359  0.6664235621922244
  0.4162949307904020  0.6672800891223206  0.2496901971452875
  0.5831601565838261  0.9171201722179791  0.1667479009528400
  0.3345118910258201  0.6652330187686171  0.4992729730337572
  0.4977380156230393  0.6691684881132728  0.3318212789895114
  0.5836266118269523  0.7516947371338998  0.1655882561370314
  0.5825455839967428  0.8327231001800950  0.0841530201154913
  0.5812276305475850  0.5820047324190327  0.9997682951197019
  0.6680536942912042  0.5855714826016021  0.4134994763583820
  0.4168529451420358  0.8319071651806903  0.9155847575093939
  0.9157213706705334  0.8309400847634468  0.5826409312984731
  0.4992967921720547  0.5830638040571230  0.7496964916118797
  0.0849581018190299  0.8289250422103122  0.7496346273645288
  0.1669029793030939  0.0822072996066201  0.2522190050967564
  0.5835828274024828  0.8313794981719276  0.5827505665752437
  0.2508173105380842  0.9978158842259116  0.4173021567780065
  0.4988516779817497  0.7492294897369877  0.7490368286549259
  0.5839193102536452  0.4182050387458676  0.6659033022826542
  0.4987623089294572  0.4999973277615880  0.3310770873306738
  0.3300742266693603  0.1671978592217637  0.4976683874042606
  0.4163736262072383  0.6679681507572942  0.4161717529183798
  0.2530011484791069  0.9999850628540394  0.7460678851763896
  0.7485000258255733  0.5828164343892382  0.1666233743999257
  0.5012312496831044  0.5009642446663758  0.8327090421321166
  0.5821346580109189  0.5837963086186584  0.1671569754376017
  0.0819058013894438  0.9970735789055737  0.2509602052000376
  0.3327097608840678  0.8328799103299058  0.5013476025759858
  0.5836681990045290  0.5004245470486097  0.5917095746829701
  0.1691833152189903  0.0868733104262239  0.9192619188573175
  0.5015154774709827  0.8313758944217043  0.6673673795923623
  0.3313523555132802  0.2488746836673555  0.4178264406760404
  0.1656638725448993  0.0824670932013583  0.5801074889987302
  0.4167631891372316  0.5850277886284072  0.4991575521691435
  0.9991550473546429  0.9983448882287493  0.8324278334853485
  0.5841040317031948  0.5890414124704297  0.4973955803553775
  0.4157344532361182  0.4170393703840935  0.1677376501280602
  0.4161296065492670  0.9145615644654674  0.8325627347499592
  0.3330541445106450  0.8335705992149889  0.3334873157454297
  0.3334191488158136  0.3334989819301723  0.0013672519178189
  0.0820539543553716  0.5859561686529046  0.8350893844006603
  0.4977184069013977  0.3345015594085727  0.5002349328221279
  0.2502755396720028  0.3343194296605417  0.9218834192807011
  0.4166267770354520  0.1687956263988109  0.9162105630451681
  0.2502467498476765  0.4177557928929121  0.3325157960879889
  0.1706594842562463  0.2518688313833592  0.9192626025866687
  0.4166265310947859  0.2495302474562982  0.6632901704707997
  0.4152600109737905  0.7505859035380772  0.1664527909060054
  0.4167200765217752  0.0832070063760906  0.3355249039381393
  0.3309714289099957  0.2484627641062185  0.2501953653811834
  0.3330780027333397  0.0009424098940514  0.0007683458302339
  0.5009892435467636  0.0824513817378991  0.7504688470066796
  0.1661558269142275  0.9151019488896779  0.5817080959653853
  0.1669487755705277  0.6644151166587499  0.8339982372082818
  0.9982693521486756  0.7495582701945388  0.0847228244664854
  0.3335031815752923  0.8332221807136979  0.1660866676998504
  0.2498412045108084  0.9999523364137750  0.2503241184328863
  0.1666410307250084  0.1668524079025091  0.4988936970303424
  0.0824838801656868  0.8316769055963575  0.4162945698131075
  0.4157695354191780  0.2498482968639673  0.8339487035026582
  0.5813524348856091  0.9984829848988327  0.2492494533791903
  0.3352592081337227  0.2502493724987822  0.9194093698246886
  0.5838852545139949  0.0835377989882775  0.3336677280885257
  0.4164646110274353  0.3329990035963309  0.5818574688336996
  0.3348974058736927  0.8321592736709859  0.8335703605337060
  0.0828795200494050  0.6685014996620962  0.4161020460630369
  0.2516271749997011  0.8309599397356608  0.7481380492861426
  0.2505600338390309  0.7495626571368251  0.9997742844494558
  0.4162806620462722  0.0825500815767167  0.1671614594508238
  0.3318626061504724  0.4173124372461113  0.2505923513644375
  0.3325226891397054  0.0005498998623761  0.6657069520473025
  0.4175059597043064  0.6673656515606751  0.9166851707763786
  0.3340759465920364  0.0816648143234485  0.7469992803126297
  0.4178216352888243  0.5008125130040338  0.9174142120551708
  0.3327632805562981  0.0826710089119408  0.5818929915452766
  0.4151071345301571  0.5842253467858372  0.6673745301072350
  0.3317536995092775  0.3340690925948511  0.4993441248364017
  0.4158676182740568  0.7501490595022818  0.3339958610854193
  0.3323274637656224  0.6650819938568402  0.8335906357708848
  0.1677597296906778  0.7489976579378734  0.5829316409260341
  0.3341719284914233  0.5839035922881761  0.0829707877507561
  0.2501278841549213  0.4996581335843375  0.9178444453962125
  0.2490391702420427  0.5008778413679781  0.2502796780239810
  0.3341767481131275  0.6685688074643150  0.3329241694947493
  0.0829260051954713  0.4157026195380489  0.3335602744521522
  0.1663561772919971  0.5835069956931865  0.4155113806001068
  0.2491568403257993  0.5005386225241139  0.4159542330282223
  0.2508770252371891  0.4265210939224443  0.8349546391416770
  0.4169163123787486  0.4173712758809680  0.6660899991784148
  0.0827581737921453  0.5852357048982229  0.6664913234633076
  0.2502624775622547  0.5847702863653372  0.6663327058069207
  0.4164841120161236  0.9167613209186291  0.1656885877561968
  0.1668185621805175  0.5830686293212468  0.0834096653861670
  0.9166552430868868  0.3333955498413956  0.5819640065790224
  0.4156666615313900  0.9995271361679613  0.9173173869795137
  0.4155219195890360  0.9150176343855011  0.3352726267137449
  0.2492961792064414  0.5833894269419619  0.3328366551937021
  0.4164679818725250  0.1663378383104639  0.0849021879599012
  0.4173774534664482  0.9992059134042151  0.4192862319396751
  0.2492813743946813  0.9153063198927031  0.3348914794131109
  0.2497083965633697  0.3351130162073198  0.7408981062623934
  0.4980709296852019  0.4174598869363965  0.2500612406943034
  0.3328336263193325  0.8316265779810951  0.0010708812547017
  0.8327692668447672  0.0841552874177130  0.5818482068431829
  0.8332726270574637  0.3347399794022759  0.3326100657775219
  0.9151141718872559  0.3353146329173821  0.4145469445208835
  0.8327809118063714  0.2500637156681879  0.5806197737323427
  0.0836447217810757  0.4168660215731040  0.0023321365219300
  0.4997369064578490  0.8322106011876199  0.3340385598962262
  0.8317836831601833  0.1672861769446761  0.3321814972416745
  0.9994612537515182  0.1694143359601391  0.6653187274038469
  0.0005701945656418  0.2514372410056478  0.0858180417329259
  0.9093871041555227  0.1694073948569746  0.9177266106892753
  0.0826266854775368  0.1668985579991230  0.4174414879706663
  0.0008277923695699  0.1671043450086065  0.4976631975366259
  0.8304855137270899  0.9989892236657593  0.8331569247739021
  0.9982508338254908  0.2526120626535526  0.7491703139539095
  0.8323894598741924  0.9985613275039673  0.3325262054595646
  0.5815339107237922  0.9154698902381088  0.8331411309423727
  0.0817498735036174  0.2499398416457154  0.6649204790796008
  0.6662951063145269  0.9151373394011821  0.5824172705230157
  0.9998486673368270  0.4186534866828994  0.7469238368984742
  0.5014286002484187  0.9996082197444596  0.4997904442741529
  0.9157847376398068  0.3369463741553660  0.0871585597700783
  0.7491631348576790  0.8313573394256645  0.4136779149324143
  0.9127265634486110  0.9987544258272201  0.9169238736719487
  0.9995575417574849  0.1690621854085732  0.0103161845638305
  0.0828960093603584  0.4178605148148807  0.5000032249513185
  0.7492398289195648  0.9987981405427094  0.0830617784011267
  0.8309502626976552  0.2516691365343944  0.7485576995591227
  0.9148322560107455  0.5853428568594112  0.6666435656084372
  0.8301643724934713  0.8295510765152325  0.0037526055989546
  0.5003135147241048  0.1675850383530111  0.6644315716679655
  0.7499441118763046  0.1675317943947686  0.2514411485307612
  0.9982015555516734  0.7494388692325826  0.5828780405854739
  0.9153689255231192  0.9164275230043554  0.1668580736791486
  0.8309553580105340  0.8297867253715249  0.8328967786761627
  0.9992307259761273  0.9974011500200248  0.4993274206815195
  0.9150316736837114  0.9982477982824446  0.7486666558050302
  0.8302381390751140  0.9998733378449612  0.6555972039738474
  0.9161836964952816  0.8313927520628798  0.4157643823656578
  0.0833966257461075  0.1679887735737154  0.0858759177674801
  0.9166406745202798  0.7500171751655317  0.1671854445136689
  0.6674460584040552  0.7503607175496372  0.5831802112026365
  0.0893480937898427  0.9983474317894282  0.7464434952474364
  0.9164755179431585  0.4160600027052260  0.3329579019272163
  0.9994068030857467  0.4188862320474221  0.5815104586025699
  0.0007136042413990  0.1668390534694741  0.3334008140351332
  0.2492903550655346  0.2498790062350181  0.1676654362375747
  0.9989974166909009  0.9055325011025317  0.9167457903243214
  0.9992333061116542  0.7491639661645256  0.4157778318493284
  0.9166424109034029  0.3354540252236747  0.9170759684305276
  0.8304353073352411  0.5006306358215357  0.5003735890077663
  0.0863220306376304  0.9990588570474456  0.9194562221966045
  0.8342166032032114  0.7479778987252550  0.0845883799859806
  0.9174318956483934  0.5821200390712667  0.1669844871182621
  0.7493973826474677  0.6637713390419129  0.0835849511734134
  0.2508041033398195  0.1672280587916917  0.2513101157206849
  0.0825757585032102  0.5831423085941008  0.0005560741510331
  0.8319348685780725  0.6645471263477774  0.8333857703561406
  0.0833394529852730  0.9167357869499898  0.3338728551263437
  0.7496816198370575  0.6677441609781595  0.5843469836575478
  0.9155952754879361  0.4154517420673733  0.1672178631912745
  0.7500471121551293  0.4170688006996169  0.4998354293955667
  0.1655152512744746  0.3362737597607992  0.5000502138491141
  0.9970040511782392  0.2615061383520318  0.9194912034277436
  0.1679256781225386  0.9154614326301456  0.0857546408423414
  0.7472804991165237  0.1701154659975528  0.9166992542442985
  0.9997931676308076  0.6665895775222463  0.4990979456822680
  0.9160459875641633  0.5015916239138537  0.4154049292854504
  0.1655396020811128  0.6666924026787422  0.5005738962319898
  0.7468959610913101  0.3369620779871951  0.9159923287970323
  0.7395197271679372  0.9999558459013573  0.7495169753641477
  0.0804691359240108  0.4175735282626067  0.6650157398707377
  0.7478455125934991  0.0003504593767466  0.5816360892521388
  0.8299615267469189  0.0916356156221729  0.7475522670769557
  0.6674381933519438  0.1677234097606533  0.4991188984703406
  0.7505455855851849  0.9999180632138176  0.2512459219447283
  0.0006573306752848  0.8310367529903365  0.0025978485023467
  0.6653250801900696  0.0009600388914201  0.0002722606546702
  0.9973649260484767  0.1693105337759293  0.8274595756104512
  0.4987662086342490  0.7485001028154349  0.9177873733328656
  0.6649288380604549  0.8309922280518257  0.0010072377759242
  0.0831252769382650  0.8328188914921395  0.2490197407830874
  0.5813511123256159  0.0016707170245642  0.7488310979346890
  0.6668815405411997  0.7483192586613315  0.7510741118174078
  0.9999332504225503  0.9976788788747782  0.3325393164803297
  0.5839094591087228  0.6663223218252486  0.5831579474053247
  0.0005239493256608  0.8298549975407514  0.8325333297315003
  0.0829603935889400  0.4178121714320597  0.8330419169072424
  0.6662652318991612  0.1674099298774868  0.3322643164385786
  0.5822456266663335  0.0805968218029954  0.1665728168689546
  0.7492823794099960  0.5824577219060834  0.9999131428980973
  0.9175838496892939  0.1686889515172277  0.0866652676754451
  0.7482519224496382  0.5838337128692545  0.3336948644495007
  0.0835474660526375  0.6665304339474906  0.2492158906892717
  0.4999108276723546  0.2482726317493097  0.2505612197603247
  0.9993460765506801  0.2505439149940967  0.2518771260286797
  0.7481015538720219  0.3353309237964477  0.7484709918550041
  0.4997846128006518  0.1658037829888455  0.5014218921207608
  0.0854202116813041  0.1669486973762468  0.7415572406581739
  0.7481826451157571  0.3367073618659399  0.0850290647844935
  0.6647494915318799  0.7480598912036489  0.9175332883898362
  0.6658851730125427  0.2508374447202899  0.5813144289078032
  0.7473628618634157  0.8315993122993627  0.5827642607175488
  0.9159870283830562  0.5827939659271103  0.3341498091133914
  0.7496500295812000  0.3344477296736932  0.4157740915162385
  0.8338091850744278  0.7491939865849914  0.2474708311134664
  0.1659989305418596  0.5831263426474428  0.2511115196462022
  0.7485110424828488  0.1680872885256130  0.0861388151035883
  0.7490163010847480  0.8309845727755755  0.0829674284837551
  0.7383501127938213  0.0000450902033437  0.9174157385491361
  0.8314329598481724  0.1676050738908264  0.6646715564632575
  0.1672437179959836  0.7495991495800093  0.0830751802842328
  0.7496044040721324  0.5002907058623882  0.4143162474160095
  0.8326691808761909  0.4178600974679360  0.7491505421594371
  0.0000103353470593  0.7508308454319848  0.7506133499329155
  0.8333398219787149  0.4999549289891654  0.8335842077741747
  0.6662011180127360  0.4167057480519680  0.2495509359729005
  0.9992360869940958  0.5828772326679562  0.9179215255847378
  0.2612808212485890  0.0002541841599100  0.9178967143972574
  0.9992949792193775  0.7495211317215289  0.2496440074911390
  0.9176085462819625  0.5828058803181473  0.9982356187506554
  0.0838288339528299  0.5852453941193011  0.4991370223882165
  0.6665596496974533  0.7498020837003205  0.4146847326429141
  0.7506399569307725  0.4157650644392160  0.6682104943144911
  0.6667826820274274  0.8322574923767900  0.1657863362042575
  0.6661815006474977  0.2487827163007696  0.2511627459936812
  0.6735072821641499  0.5014753607292359  0.4989299623199855
  0.6656974225514800  0.4168423508294959  0.9174128069102344
  0.8305095782067428  0.0012369849323363  0.0096723834054591
  0.2518247277961475  0.3368670946336612  0.8310747340814281
  0.5834176099733421  0.4998784505258060  0.5007932598703482
  0.1745533931909065  0.9980858737709173  0.9186380931605517
  0.9994239721877231  0.9932484371911674  0.9234398170515532
  0.8262258929209864  0.0003354188402130  0.7437547044435929
  0.8246504395767007  0.9993296143583251  0.9220786608801608
  0.9981012236498326  0.1726064615510494  0.9196893298632738
  0.0865709746553000  0.1681149442074029  0.8292431315872439
  0.0028306346686164  0.9981333308736287  0.7441061511200127
  0.8334075208373775  0.5823999464359586  0.9174833995874145
  0.9153831966900916  0.4178879705337569  0.4986852170906375
  0.6656962334014163  0.5834586857879831  0.2492885185226602
  0.5822920655431347  0.5003054159985940  0.2498355155818038
  0.9992823651143091  0.5016019073629775  0.4993891660721027
  0.8333012924879217  0.5004525476264949  0.6663980685268318
  0.7494474315076048  0.4165195721040430  0.3329925841942066
  0.5832268156547640  0.5000119435998552  0.4114981156239508
  0.7499427726763560  0.7481827159861465  0.1658596672865334
  0.9167014107312655  0.6657652675118706  0.2489100268834769
  0.6670929426276863  0.5834535191813356  0.7501979257734656
  0.6667068047588564  0.7478936490258876  0.0827400247154655
  0.9995696363424512  0.4175635108709695  0.2505532716227462
  0.6657439696166195  0.6658468938433271  0.1668707101251807
  0.0841169985259931  0.5839983161034649  0.1664546084737866
  0.6652152535382682  0.5829647784924773  0.0839481785520849
  0.6663274662048565  0.6676518893905840  0.3313608371010267
  0.7493425047559908  0.4172574994165696  0.8328073339416380
  0.7496899708473297  0.5827148396982937  0.8341520368687384
  0.5839330782595576  0.7486253174672581  0.6671281573455073
  0.7497816889405184  0.6656215243280803  0.2485890068056768
  0.5844312858931399  0.9153618377248195  0.4994606893978501
  0.6678571960379672  0.5852788941867709  0.5837616097565091
  0.4995355037577097  0.5839689406928550  0.0843250469271456
  0.0828838292769128  0.5005530342855401  0.4166762644756469
  0.4993035974555669  0.7518296591091507  0.2484206470431707
  0.6679183419698390  0.6678383818358106  0.4987916514002452
  0.6680089809380938  0.5007350347055515  0.6673639472582434
  0.6659449342121930  0.4995427749858765  0.8335761507133111
  0.8330511691583573  0.6646193439233968  0.0009816286282964
  0.6657740928894876  0.5820960893875543  0.9177943450491265
  0.1668631908706552  0.8327824450766000  0.1671323733101134
  0.0001466193621008  0.5836577148758544  0.4158000044772348
  0.7504383610032370  0.5847831156046353  0.6672085733367539
  0.6651121427852190  0.6647361461014032  0.0002405718769278
  0.5828223633767521  0.3342600915713366  0.5827972462474845
  0.9169630580581409  0.4995457559472693  0.9166696313868137
  0.5821772260993536  0.6659099491863147  0.9167272696890755
  0.4161759400364585  0.8330844665154423  0.2498312779146765
  0.0844693130442552  0.9137136782773565  0.6645389279471348
  0.0820674626440357  0.9142580628188682  0.4991054940542299
  0.4994845676192939  0.9160159946609988  0.9170301344462891
  0.5825615508736168  0.8338623049389603  0.2482116585392665
  0.9997578480974987  0.9086357988071286  0.7497219321021601
  0.0832839169849965  0.8313213254153481  0.5824880817423393
  0.5825448911333110  0.7485558139336587  0.0006403556533201
  0.9984906244742993  0.9138132243364004  0.5812153455307828
  0.9987945579005331  0.8314383693631909  0.4991954209520444
  0.1665088975130102  0.7497254092806611  0.4167926920017029
  0.5831191348617708  0.9163125154230758  0.3331942705345509
  0.5014624346989194  0.8328085869859032  0.5003059859645054
  0.5001047761784874  0.9159016544486200  0.4167011438479951
  0.5828239348373873  0.9162514554690407  0.9999667511607893
  0.4987039705761422  0.4171270633520707  0.5842294702305084
  0.4997955144377428  0.0841319584316409  0.9163026680530163
  0.8318159057545059  0.7479740464315846  0.7511126118270611
  0.7488087249716091  0.4997043960906721  0.9168880726540859
  0.7486440795463662  0.7482639626332529  0.8346514274053800
  0.5819338936599417  0.8313771703086119  0.9168936003252459
  0.0841710167165992  0.3351031859847768  0.9185128401047544
  0.7485959499294649  0.7467532333001773  0.9999668722560379
  0.0002844663049514  0.4169100874157900  0.9176391222271655
  0.7497864036529424  0.8319282930913861  0.2490696386210532
  0.6655485003876609  0.7500363171905858  0.2486110017551012
  0.8324826620694216  0.5845807046036809  0.5832584100386788
  0.7499213580622929  0.7500234059389768  0.3318791658009002
  0.5819990630117813  0.7489920668035529  0.8334741416521022
  0.7490957352170249  0.7494281443726668  0.6676957423133737
  0.6668741788204283  0.6668994315080534  0.6672823923979146
  0.0830993032145079  0.5003998400973603  0.0837082846858081
  0.6657474118036517  0.6660436019596385  0.8336338192094060
  0.5819757026574812  0.8317486424123558  0.7503211986874202
  0.6666547549830527  0.9169209608793522  0.2498849814233911
  0.1671222168786848  0.0837142107408294  0.0868072067007598
  0.5841629516101655  0.7488665453494552  0.4996706918667923
  0.0833179522215104  0.7504992943557337  0.3323735429892444
  0.0826490995928129  0.6667301555891981  0.5830396489259640
  0.9996871705030699  0.8329315168517843  0.3325017496313099
  0.6660581168818021  0.2506902560093990  0.0845320369851855
  0.6659624876826010  0.1666045230428356  0.1672741383406073
  0.7484552079272447  0.3337610422121890  0.2505935421682618
  0.6660134948594120  0.2501835902227801  0.4162376078978960
  0.6665445153725886  0.0832975617448793  0.4156345469919326
  0.6663428259218594  0.0834399607766505  0.5806544478340591
  0.1678795227620355  0.7477913884791542  0.7497461534306827
  0.6649912882015845  0.2518656198835038  0.7499615094611488
  0.9993832728150164  0.6670728564846736  0.6663981650598294
  0.6654279285308448  0.9997621363895436  0.6652128938777794
  0.6650050526729743  0.1693574234951758  0.8335565970959967
  0.0829803074483310  0.6667030812400633  0.7497978435496393
  0.0833647176155519  0.7494220524786396  0.6657486701751587
  0.8297777634294855  0.0895115265440604  0.9179034526527956
  0.0828381317512805  0.7500768706963445  0.5006642134232849
  0.5826962368104893  0.6673669130195601  0.4145868194196107
  0.5002687655817573  0.3339318279872779  0.6659902881053313
  0.5827892530907629  0.2500519324035934  0.1677875398587629
  0.5826974636118294  0.1670183508108356  0.4165118918958196
  0.5827949299228713  0.2505301252095469  0.4990093585280382
  0.1655512380374538  0.0823485961337469  0.4167436231905672
  0.5827389505643337  0.1642135880799715  0.2489986354822137
  0.1659242931726346  0.2513605415179463  0.4169710463714276
  0.4995642848021923  0.6673732939789848  0.1666253511075089
  0.7465082896303704  0.0857167399604421  0.6641354479949181
  0.5822937156485024  0.7508636822716446  0.3324323971593880
  0.5836441317703797  0.1670073199988052  0.5815962050208138
  0.4998423007668643  0.7505166045960489  0.4174688411266411
  0.1667543078344135  0.1664622753693125  0.1690660598717116
  0.5839148374525143  0.8323388011279121  0.4159324930941219
  0.5010133944539468  0.9155568610176986  0.5829490450603377
  0.1681833696602902  0.9994076663686020  0.0076204568148379
  0.5001649448705023  0.7492508384889817  0.5831536644052621
  0.7461620419277986  0.9138859018107158  0.8338326295058279
  0.7474517932675236  0.1701318696431763  0.7487998378257937
  0.7502036325536492  0.3334634675519278  0.5829811765849586
  0.7488269603809442  0.1676797252420187  0.5815887979953592
  0.1655247517104984  0.5828188054071218  0.9175236725441248
  0.0827259207718274  0.5007824501935035  0.9177775537953939
  0.9998793352551514  0.5001440555029528  0.8333507052030317
  0.1662176101017353  0.5834397990588785  0.7502007928544860
  0.9999521672807649  0.6668063328382845  0.3322988947291717
  0.0848323634344564  0.8303225495375973  0.9176159316798226
  0.6650117145065164  0.3335720049020692  0.1673375199979232
  0.7489270621242712  0.5019337560016229  0.0842801297895056
  0.0831290476210134  0.6662749138061453  0.0834098731419049
  0.6672295985281222  0.4158682671952020  0.4147223572900672
  0.9998327107086117  0.6660830924556010  0.0014738850183195
  0.7502007724152485  0.5009033168893231  0.5836036679994216
  0.6656779384389649  0.3333371620616766  0.3327484467745486
  0.6676166146405046  0.4163501641480585  0.5840706759561328
  0.6670808094941366  0.3333632108141557  0.4996947808451540
  0.7496177915549553  0.1669699714127365  0.4152922249134990
  0.1661661127192618  0.7500042680637334  0.2502058192032303
  0.7491179264232362  0.2510468906793470  0.6647805434353219
  0.9999062293755691  0.6655793791597088  0.1662620946082173
  0.6653976721827080  0.2520499783801533  0.9181128077736183
  0.6661162392527122  0.1685975983850510  0.0016390279192537
  0.6649522102822711  0.0864700711462323  0.9172064346740310
  0.6657134284045118  0.3337351752790709  0.0017030485221437
  0.6652236093558088  0.4171564447107354  0.0839786720521621
  0.7483646490378133  0.4167857810344811  0.0003232072772109
  0.7495977035293876  0.2510610381291598  0.3340712267089982
  0.7488816852137660  0.2510017697927769  0.1672243911725381
  0.7497660075469230  0.0836421532171825  0.4984450727023684
  0.5823991462464883  0.0001266657503398  0.4161625421601483
  0.7500226272196819  0.2504978111390086  0.4983905661600118
  0.0000226160176702  0.5829153541686922  0.2501862301034011
  0.5833239692713847  0.2501480163774683  0.6651410595335550
  0.8326231347967469  0.1672490391285716  0.4993875358901485
  0.0851370874388130  0.9131862370294961  0.8322619369325200
  0.9174194028964626  0.1665649356414890  0.4157059357016209
  0.0837899300621626  0.0829106785646793  0.6631159754231580
  0.7477015550848528  0.8303741070469945  0.9178118611548776
  0.8313556992000533  0.9148337437193594  0.0841252573133316
  0.9146137612738781  0.9129179964414071  0.0021936723382288
  0.9984385783343535  0.0876831482068370  0.7469752275695952
  0.8321504984313027  0.8324638486686932  0.1665302423564170
  0.9994212051985243  0.9979516055972952  0.6583435880284324
  0.9163510509487125  0.8328520564948318  0.2490809786422280
  0.8324822749590370  0.9164884828487704  0.2495062066055632
  0.8334195938910891  0.8322187333024728  0.3319212956894123
  0.0823338469119068  0.0825761893498464  0.4987192131809592
  0.8324133509224891  0.9155675124522914  0.4159712679036803
  0.9158950790725473  0.9157709828938677  0.3332759447703605
  0.9162295653733461  0.6662172028260696  0.7512390783455175
  0.7492251444103539  0.6646787398822107  0.9171640276952363
  0.8311249542202140  0.8315732065059726  0.6654558669845854
  0.9997170996191573  0.0841890837514635  0.5805901385680250
  0.9153652199465648  0.8305636770698296  0.7501961786197566
  0.9156310405357314  0.4158192620696386  0.0009751175219097
  0.9156968286959468  0.4169571828797799  0.8325622503081652
  0.9997935765259738  0.2507874659960547  0.4155112701731792
  0.8331683784053688  0.5820675793113239  0.0836770789300094
  0.9991929326174898  0.5821971710676055  0.0826198986392192
  0.0826251801377803  0.1670855556726857  0.5811854669842514
  0.7480325798518370  0.4165363768486929  0.1674592971240166
  0.9164715866839593  0.5002513174519246  0.0843983208625618
  0.0834909723321995  0.4172459518689869  0.1672588358558812
  0.9138377598363936  0.0855025527250288  0.8322604676662112
  0.7470106055960357  0.0864131091166111  0.8330814685134492
  0.8319075169056589  0.2521702659382923  0.0852593704579643
  0.0830752443451429  0.3344297918004103  0.2509248161519241
  0.0003875937553727  0.5004186306693219  0.3330752778074479
  0.8317717267695174  0.1683953294506922  0.1676479530190795
  0.8328475470049702  0.4178614714773210  0.2500321191828709
  0.9996226585909614  0.0824287084118017  0.2513661886030482
  0.9159074540598949  0.2512377115626180  0.1680105134668918
  0.9163218284849138  0.1671065261548885  0.2517944639068184
  0.8319000298376598  0.7496138798973115  0.5829993666748327
  0.9157965350387274  0.9999130210295292  0.5806819328397765
  0.9165427591453238  0.0833567339346062  0.4984960132101151
  0.8308764873342507  0.9145597123656757  0.5810910471755157
  0.0835405799002812  0.4999092523727063  0.2499836014021182
  0.9151651601812127  0.0853099614995428  0.6637108874509562
  0.8313906885907044  0.0855391431581049  0.0860960522794630
  0.9991594597063862  0.9148693073866818  0.0849128946967751
  0.9133343090137303  0.2539311745266839  0.0031759904774313
  0.9160924790884684  0.7492027370474204  0.0009775155235520
  0.5820963534361222  0.6673550388166958  0.2494107919537668
  0.8333825158408937  0.5824785113532738  0.2497321869131510
  0.8311807742249332  0.1697542513335145  0.0031514259956133
  0.0850937962415203  0.0786175570365431  0.8323127515572214
  0.8332553178911788  0.6664658571354658  0.3314167091068735
  0.8331189576833796  0.7502791707389909  0.4149845798827637
  0.9150527768985923  0.9990440602189637  0.0859468027411253
  0.0845197731897416  0.9138665883381890  0.0023117209694116
  0.8323531725638170  0.6675572411582920  0.4994389381191264
  0.2493590780250945  0.2497998831046287  0.3342020173606530
  0.9159788390845116  0.2502091473375210  0.3336114900556089
  0.0838699507928078  0.3342113533223508  0.0859239997811341
  0.7490760069903369  0.2521796320804185  0.0018133433045331
  0.9992099061737166  0.4176117113911638  0.0852052421550706
  0.0829881190693260  0.3348195806558125  0.4165551537846070
  0.8313974767622095  0.9107152331198327  0.7503432898526627
  0.9136004197406773  0.0857037408415855  0.0038947151053711
  0.8314407536812758  0.9999669717192842  0.1670882122535770
  0.8327931296108504  0.0830222092992233  0.2506710548749496
  0.9163842317194661  0.9993920780055033  0.2506347209335112
  0.9157037139525346  0.0840966446639508  0.1680847142070235
  0.1654705318881087  0.4179385110261463  0.5831009644294776