Cr  N Ni 
 1.0000000000000000
    21.1201135712910144    0.0000000000000000    0.0000000000000000
     0.0000000000000000   21.1201135712910144    0.0000000000000000
     0.0000000000000000    0.0000000000000000   21.1201135712910144
 Cr  N   Ni 
 259   9 605
Direct
  0.9981621801223929  0.9998896803696556  0.9998093282775729
  0.5838091883276049  0.1627931595983308  0.4163851597537476
  0.5829095723407424  0.1657140043194769  0.2503839383192674
  0.5838104734347135  0.3330095457793595  0.0821063161268322
  0.1627510836091981  0.3349116128997852  0.6705098312520956
  0.5013769012130489  0.4174040421647526  0.9172991945557440
  0.5005997645009127  0.3346502766939452  0.6665299917364557
  0.5828764246577074  0.4170328083171340  0.5015392315716434
  0.1657049468222513  0.1661981869096268  0.0010975135128442
  0.5814836154566480  0.3411651950894748  0.4184599410814898
  0.5816874934410288  0.2522647973400236  0.8320330562322940
  0.1661142439083503  0.2568589472858342  0.2493911707050041
  0.4948849417661525  0.2491793838739811  0.4177041825825268
  0.1673623232164091  0.1651008431634144  0.3388259461362899
  0.4985812065816264  0.1639613041821054  0.5015965442654026
  0.5836745325039524  0.1681639855481588  0.0840111775520348
  0.1595356133446821  0.2505713172098155  0.7506321413277937
  0.2512532618765943  0.2495257014344701  0.8405388749545091
  0.2511533429136453  0.2497404814868756  0.6639335117138012
  0.4974162785969222  0.0848122430082663  0.5841446137175489
  0.5831339511069680  0.9996278025418294  0.4186846645399915
  0.5824981418355638  0.0850127139601676  0.9990718465030463
  0.3346595921020767  0.8341462241616139  0.8328966576371362
  0.3314973337186703  0.8344780760224646  0.6672201087338006
  0.3317826535579589  0.6660638756238308  0.5014623653679853
  0.1673579626804350  0.4163925473353490  0.2495629400646135
  0.4165888447344013  0.6663154016854271  0.4170875485330428
  0.5011744955506630  0.1677940114656072  0.9991782497998468
  0.5824548292160353  0.9156380246616721  0.1669934719928579
  0.4989290589453808  0.0845176568791275  0.9159257239506907
  0.3323757225053923  0.1651345514122826  0.6671787118276322
  0.3327613520877008  0.2503111381889456  0.9180670147233814
  0.4176138279629391  0.2516419374355745  0.8329460389229769
  0.5833253500551979  0.7480738090612299  0.6663815728250240
  0.2502836180484294  0.5014018697230596  0.2482047423800428
  0.4998071758823676  0.6654580919298538  0.6680412883855118
  0.1654308457319218  0.5017508025888510  0.3313409327074275
  0.5825217669627936  0.7508016629101748  0.3336147452218272
  0.2484097314308564  0.5012350685661163  0.4146921070865321
  0.5830122163869713  0.7501257080452192  0.9986588249689748
  0.3338268441072920  0.4174008685150574  0.7517970958852369
  0.5023296468146430  0.5848606156494521  0.2492795458939878
  0.2495740586529889  0.5831684874960918  0.6692951541352143
  0.0009798287629075  0.8332086722059213  0.6665620204650022
  0.2490215845731231  0.7488039945789995  0.1650350055348714
  0.1674837606423429  0.9168345551449186  0.7502978892963054
  0.4166582763904335  0.0011998636422200  0.9167968233804537
  0.2555914134126036  0.6692688369723434  0.4156280505312777
  0.5821428299650807  0.5822018682782307  0.4999184803899955
  0.4172740086633939  0.0841692732543143  0.5013513462463235
  0.1657914017191307  0.0835000094277143  0.5825029827837098
  0.4160369192187471  0.0834286644582094  0.1645032069758075
  0.2485869621051303  0.0829017544262534  0.5008068935727488
  0.4169995319075795  0.9997037734218572  0.0845877188509030
  0.1660395383837922  0.0819273928415070  0.7503289722838596
  0.1671152396679985  0.9153343611882025  0.5826976597755253
  0.5029592212811793  0.5020248802626149  0.8328434403959857
  0.1665622132438188  0.6663346893404080  0.8341111803403864
  0.2503833857687667  0.0825658753016536  0.1642321935252705
  0.2513717644341009  0.8323467927643096  0.2479844107321731
  0.4988477350273265  0.5013751828049973  0.6672509118511362
  0.1660650028075699  0.3347341881498947  0.4956441746699719
  0.4177149547984298  0.5848409294900839  0.3344361382782270
  0.4156355085214328  0.4172767985286339  0.3378422103735557
  0.3328935662229481  0.3339005839039397  0.4973554310607847
  0.4157547623709372  0.9162794954101617  0.5019450822829052
  0.4184411302412987  0.9162496639153154  0.1673427779600828
  0.1655337198959090  0.8334484402679720  0.0010819785137552
  0.4165741804901059  0.0832507562374623  0.8340941255869343
  0.0773989358539586  0.3343820054362486  0.5820317770320129
  0.3332028419034054  0.3351808920651722  0.0000889814616182
  0.1679795927188411  0.5841746961922146  0.9164584336521506
  0.4160205787925280  0.9172376064772775  0.3336542074639912
  0.2497677400785391  0.5833837543558875  0.8356492571097461
  0.4165918503833774  0.1669937155830933  0.9175707162486481
  0.5006997774571046  0.0835962468164442  0.0822911750501905
  0.3347476832098613  0.1662647403157483  0.8341617052606024
  0.3370696799451707  0.2521786330093954  0.7529235163620727
  0.4175509839905452  0.7509390379030672  0.3314804940801452
  0.3335356421742449  0.2493303991260507  0.2491511198987592
  0.3317413296791852  0.4988870822714135  0.6688210931171130
  0.3314714263967844  0.5816545234189775  0.5854120106291190
  0.2501630611408311  0.8331225227107614  0.7507855855347443
  0.4187850337345485  0.5831495044300494  0.1637247900496724
  0.2504911511671192  0.7507132691932999  0.6668598333099743
  0.3324086164112235  0.4995099669049026  0.0009489803343838
  0.1666610620151609  0.7487029390758922  0.9156603489530236
  0.2503737193222549  0.5837282570236070  0.1628803249167035
  0.1678434184293718  0.9166565471392768  0.2499018942070962
  0.1648453815928804  0.5792865365540598  0.4144402887401538
  0.2534179528788367  0.7554465201206628  0.3305378190478925
  0.3343632223039199  0.3329761712674378  0.8376906998542043
  0.4170020067336873  0.0828505111572059  0.3328525335547026
  0.1672294507973865  0.5846494323169721  0.7530782578508054
  0.4159271056409647  0.9990998593566685  0.2479210862549313
  0.4151647237881199  0.1665042718561092  0.2486822281519279
  0.2528703848919224  0.4217670078480308  0.6672437293899528
  0.3272367642055619  0.4169185649450317  0.2477897416698267
  0.4996299988241065  0.5837511474624698  0.0833796285402697
  0.2477534742179923  0.0818222950772858  0.6658331371094798
  0.4158702503411850  0.8332107876687209  0.5851481123888261
  0.5029212753734075  0.5019304648616045  0.1649879969040188
  0.2494197550263940  0.0822417144916434  0.8344611894284361
  0.4996849047759136  0.9157452750954471  0.2507781219654783
  0.4992292452030154  0.9165207937909265  0.0845363208226957
  0.5838950788823067  0.7515107378319552  0.8347260198911512
  0.9996116657569418  0.9182260597494829  0.9175243710401823
  0.5847037978517952  0.7478262516701144  0.5002292925684486
  0.5855329623301573  0.6672650476891901  0.2477887109850611
  0.5830153322154017  0.5826739005974623  0.0011160305186818
  0.3358816811856432  0.8328836690376764  0.3340537045244824
  0.5828607028653777  0.5828981898806832  0.8330112417290643
  0.4151652536598661  0.3326515544396149  0.4177768698201900
  0.5003050227089944  0.5846810385305471  0.7517029896707076
  0.2506304160325734  0.4160707455988183  0.3326203455778745
  0.1669646474862471  0.9983809831356888  0.3351413317565912
  0.4162211736187260  0.8305328305913641  0.2462316672871471
  0.2495768115289869  0.9985915355672541  0.4178793959775185
  0.3343505934310294  0.9170865560127472  0.2486811823752973
  0.5832699665682044  0.5007815563296188  0.5838461813832427
  0.4158125757176306  0.8325305446513309  0.7470867120825886
  0.5829695296468008  0.4993899476037650  0.4181676185861178
  0.4152730665363232  0.6654249727272940  0.9173736277192828
  0.4993635480987194  0.5839926085980693  0.4160855868060391
  0.3330641493619141  0.6679791374351477  0.8352192405076244
  0.5834165117238140  0.5829589518104505  0.1654174358967676
  0.4164643743504992  0.6653392706148846  0.7510427196299323
  0.4158958187824000  0.9153693369674460  0.6668693838651851
  0.2488856507494361  0.5006322846306414  0.5815261524865620
  0.1670401466769537  0.5820758355516509  0.5842843449722983
  0.1669176878169522  0.5838011266669546  0.0835671926399207
  0.0834433825454876  0.9179618428050196  0.9987634584211198
  0.9180344389984708  0.2505130658277472  0.6672313411877241
  0.5814220090826622  0.8323816001655029  0.9192621035837703
  0.8351354954614714  0.2486505091865976  0.7474341844080680
  0.5825458341570423  0.9160019014402724  0.6666511741918969
  0.9223962966168860  0.2476257628527435  0.4989871716489144
  0.9991439094208540  0.9978215935716831  0.3339598401593540
  0.8323777568878729  0.1598031224387512  0.5005214649665771
  0.9995149140420315  0.7517057113368736  0.9165910184012611
  0.4994959568732675  0.8317557960675535  0.3338882685444252
  0.6676688854626260  0.1653736434521662  0.3311303569089989
  0.0007404701161837  0.1655148691757706  0.6679629479627612
  0.7507436048133300  0.5020001075332010  0.9157689280996381
  0.9169253254643187  0.1667739902093211  0.9163118049611630
  0.6662003253463484  0.5840742907284132  0.2491574613592807
  0.6684728080472747  0.4169205994846638  0.2503028443928032
  0.8333997063542208  0.0836093945232340  0.7499075456056317
  0.6677729856542138  0.3356207394561319  0.6685273435629256
  0.6649214780114230  0.9130838875174364  0.9143717119796904
  0.8349130912682609  0.3353028890682564  0.6676927519808064
  0.0812333584892366  0.4181701363023150  0.4981177824011491
  0.7499627060896163  0.4174745279133658  0.6690035745841286
  0.9993980135448913  0.4177223487907161  0.7512055930625641
  0.9977163433810196  0.5832895593542629  0.7501962515488849
  0.9984556578468277  0.3348828419747154  0.1646686329995377
  0.7500420825574821  0.5002099515314723  0.0824365335691031
  0.9168134823469665  0.9992716729676914  0.9152165625714874
  0.2491929666267768  0.9153774635627482  0.9988997128841074
  0.9976552591237928  0.4170279780189691  0.4145390643678961
  0.9991518167185358  0.5832730396529930  0.0842357458339879
  0.7512771444466635  0.6667297750974540  0.4180650986721043
  0.7503038145368782  0.8356178008180994  0.2500831591790507
  0.7499467503320587  0.5868840172195535  0.4989231434827196
  0.8335663684866784  0.9143492946122660  0.2505024459433759
  0.9159922140537069  0.8315323761214050  0.0834792155679132
  0.9174040708219215  0.7510947337731193  0.8330507643404187
  0.0832927075386141  0.0817907327949027  0.6664136294511362
  0.9156168851075520  0.4177218237229158  0.3315535824281858
  0.9184560266821672  0.4182446084914992  0.4979375136068334
  0.9079858959012835  0.1656189518129629  0.2501563019114009
  0.1683399739953250  0.1654591970875359  0.1607446471769503
  0.9166756409871082  0.9161290661692982  0.8305276264187470
  0.8327375706410051  0.8334029940232500  0.8323693745013980
  0.0006597883714559  0.9978232708479161  0.5006660434434820
  0.8348679072828112  0.9169842519748567  0.7493531485580835
  0.8330183732463161  0.9162217195317353  0.5827867631626003
  0.8335797296490718  0.9159547796931605  0.4161965098621902
  0.9988251670172597  0.7506044262461197  0.4156315416149326
  0.9170365902633534  0.7490030818900667  0.1681410105241103
  0.9159680374675643  0.6669620276421543  0.2478357447480771
  0.9166401056331880  0.6685908875982506  0.0851409697289469
  0.0839230049225757  0.1657579816374110  0.0837666634129615
  0.9154944243137786  0.4998609434062144  0.9169817200016153
  0.7491800482091086  0.6689830648632825  0.9167456018885548
  0.9167857682198787  0.5840113940210132  0.6683336368875863
  0.8332711654557036  0.5003916614311661  0.6675344214547795
  0.8333059526481420  0.5005784992239620  0.9999405582689842
  0.6664196737168996  0.0834412100764787  0.7511963596907262
  0.7502395688792826  0.4188232763970287  0.5001553112037678
  0.6661998938444198  0.0846725340353536  0.4158796855530572
  0.0004140626883882  0.0817475459550127  0.9175950526270449
  0.0828805533123948  0.7493723379041156  0.8338912097808097
  0.0000783863516465  0.9155048079355371  0.0813732610838893
  0.9995719100753159  0.7504333822897540  0.7502454262411656
  0.8346184150179636  0.5004314302666795  0.3321673016383431
  0.8312827259528801  0.4175331935631675  0.9175910887461487
  0.7499704810096102  0.8334440966107561  0.4158484459082774
  0.9168178161058602  0.4188314923270147  0.6681920235669039
  0.9157129472665382  0.1664718813256475  0.0824142315459757
  0.1661225678082711  0.9155314361156937  0.0814173325653894
  0.7488404820914882  0.9155941393632470  0.1685007128124118
  0.1673086226522627  0.9161922154540154  0.4159286241887459
  0.8328861025164561  0.4167509496137228  0.2487488909706946
  0.0823663381222273  0.2490156833482207  0.6683352568336969
  0.9990172088284381  0.2481283972865173  0.9196352248048514
  0.8351508882665379  0.1648636625827180  0.6675043381313442
  0.8339637104018968  0.2502810638115103  0.5921497914281132
  0.7518484095494072  0.9121056144349157  0.0003934164012361
  0.0828573301243224  0.4174644687470352  0.0002215679771229
  0.7497798029992436  0.9174588883532007  0.3343409060661715
  0.8344504078735335  0.2515439814965238  0.2497721133170261
  0.6713693061279492  0.2481010651858614  0.4165592500444508
  0.9159684179380040  0.2496501062689263  0.9996952490923828
  0.7474493569081500  0.1678743145175371  0.0822073868885758
  0.9970844922181822  0.3345589684158738  0.3330536320189564
  0.7487162845902338  0.1679558513718807  0.9128145447794769
  0.8332072112285662  0.9995709698032414  0.8313525005247449
  0.7502660273473122  0.0852130115770429  0.8323010370489747
  0.8328957213398127  0.9960992490763457  0.3331786621708214
  0.0003592830835124  0.7488359555847365  0.5830473178382715
  0.6672256332391336  0.8319045430989139  0.8307319209740077
  0.0826729490644953  0.6676062697429269  0.5852388804632530
  0.6655210232321647  0.9148931598677928  0.5845767094561782
  0.6651031566778403  0.9993467670527822  0.8317706197270341
  0.4992363104293558  0.9165056683446712  0.4158181955787938
  0.7500868594637192  0.0820997725564288  0.6684095867210463
  0.6664139432836091  0.1645817097762935  0.6692851727059088
  0.7487240759648678  0.9972817549123886  0.7481500419685607
  0.0811295251026864  0.5825112495316310  0.3303714511040514
  0.7510984565456743  0.5022891552384391  0.4172002823933460
  0.6644747262581487  0.0006162008185494  0.1669388386607540
  0.7481802883006313  0.3326453815839900  0.0833590722659079
  0.6664728576901787  0.7504677245051562  0.9166656621278702
  0.6664119532084688  0.2502516511116608  0.0827994210048747
  0.7511087375254962  0.7486542002551931  0.5002071410177625
  0.6682095263821650  0.6671145028221905  0.4992452734412217
  0.9178993240953237  0.6677011935172612  0.4153463596723376
  0.6651936507936269  0.6677103807715876  0.3328178758125941
  0.0842935435263383  0.4995167261470413  0.2490876451047107
  0.0810008938014102  0.1643644354671113  0.2498701396885776
  0.7490603437660553  0.7488330707802058  0.9988580504731239
  0.6639395696704652  0.0838825168535941  0.9121370261987906
  0.6653215781992208  0.1645597267427985  0.5008376479572358
  0.6670396208858560  0.0838321746533989  0.2524705376856441
  0.7513272232187479  0.3340263034053633  0.2504127425747455
  0.0010328655888123  0.8342527127069181  0.0014031872809198
  0.6691749638989797  0.4178081924797946  0.9143080640448835
  0.6616659763404664  0.0001558830260531  0.9979511301652292
  0.7515326740116101  0.4169165494583052  0.8339721473619143
  0.5824798323874710  0.9134789058714212  0.8335596451834261
  0.9968858645541263  0.5832589671255634  0.9186112200867582
  0.0844622722537422  0.8343341916693058  0.2497918904352025
  0.0823473448884350  0.7505981536651384  0.1662212376566164
  0.4979053709978900  0.9146546363165857  0.7491576967337387
  0.9988234538491588  0.5847355383377474  0.5839401794758885
  0.5826674223947305  0.8349012701693760  0.4170552487331409
  0.6672240981419978  0.4170569307562797  0.7489666907965488
  0.0803541564483693  0.4177577622956817  0.8356347270371619
  0.1677255462130193  0.6674969918341358  0.4156552069087663
  0.1663520304094638  0.3332381551976441  0.5828613962122627
  0.4162164113796342  0.4156749915728558  0.2499843150930133
  0.2480860598535367  0.2514245897777174  0.7518044889578223
  0.8349783088680968  0.2483256497141127  0.5021702418525082
  0.5829605287751796  0.2525453965927681  0.4170214017436654
  0.1696326807186208  0.1677694012557181  0.2501191664386991
  0.7494853602139780  0.9992147610694254  0.0011614971076283
  0.9938396619630834  0.1658536899230572  0.2514164497535720
  0.7513245649719388  0.5832473921419771  0.6670096357523791
  0.6666576257260631  0.5014949362874359  0.8330634866457403
  0.6668033163727027  0.5847512329656870  0.9174250569166074
  0.9986081651843309  0.5844231351271443  0.4149574717091432
  0.7501424098362814  0.5846946828534783  0.8339473353381622
  0.6656259113633927  0.6665720838255533  0.0005056635752074
  0.7502172974747570  0.5005526424980314  0.7514959664292274
  0.6667531142450053  0.5836666186333922  0.0827477109524584
  0.6669357425068932  0.7502488865319625  0.0819090202464971
  0.9987870425704062  0.5006045215621092  0.3315941510696119
  0.6676518211936210  0.6672802342873688  0.1657665075073914
  0.0832550152970325  0.5833216369642771  0.1655412460734947
  0.7482471789836154  0.6665932291822958  0.2504437014119419
  0.7499569204928848  0.7504942458143496  0.1675182011814165
  0.9991971795508801  0.5838766318835841  0.2481451814390700
  0.1667380252355418  0.8330959583256488  0.1657716580178641
  0.6666889335587641  0.5842743251403508  0.7498058039555718
  0.7495812026015383  0.6671920626578052  0.0824001970524827
  0.6664449342576556  0.7506114784004642  0.4163277219019945
  0.5823817452707478  0.9998692038708767  0.5845439372323328
  0.8336062764306438  0.5838609919061606  0.9171783758731488
  0.5823076454105300  0.0826146753944712  0.5020785746803973
  0.0817312884796815  0.5019257255305243  0.5841596765930782
  0.4991981661659799  0.9987924024033814  0.6668426020475466
  0.7494263532760058  0.5828511136109470  0.1668788874768459
  0.4988683137769778  0.0829664209018069  0.7498134932985895
  0.6673149773859911  0.5004557213923919  0.3338726720824367
  0.9994458592182686  0.5016143703611906  0.4995484752603906
  0.7500038353666215  0.5839092536288264  0.3334356839731247
  0.6667307044021570  0.5013192915385244  0.5001658285522587
  0.6674409712592700  0.5835252944363746  0.5830394833255178
  0.7508522144137632  0.5003012098735949  0.5827795801779405
  0.0809937658232985  0.5004705707350169  0.4148672376074981
  0.6657153894153791  0.5834858726794175  0.4161461781644919
  0.6681290633489425  0.5005871504958017  0.6666286365650187
  0.7485826546085214  0.9985851085758332  0.2500984344002330
  0.7506702582504814  0.7502082730363010  0.6667251843638609
  0.6657186675986760  0.9999145448004492  0.3339678278498653
  0.2498984732673992  0.8327954819993874  0.0831318897529189
  0.7492790332842580  0.9993640537886758  0.4180765951187932
  0.4990137560242974  0.0837707560217749  0.2490231278611569
  0.6658781201752165  0.0830129498142374  0.5851676708195915
  0.5833561178017512  0.0003250968171735  0.2503494883921409
  0.6657213406117427  0.9985757221971135  0.5011604030178584
  0.5836744447970245  0.0845168272529829  0.1665055994248195
  0.0816250871443288  0.5014270468529177  0.7517021339185157
  0.4999817914073406  0.0001777105186431  0.3334553489811516
  0.4996511867735948  0.0819989761350712  0.4175381712018238
  0.1659565436696207  0.2501454248946585  0.9185112577421779
  0.5816035911857144  0.0821823316903384  0.3332493453676783
  0.4989130629159063  0.9995451573243542  0.5016029898522401
  0.1659349182474887  0.1651072181596897  0.8353743420027461
  0.0828772413701814  0.7499831535664765  0.9990444236907567
  0.6653972423674456  0.9158968952977363  0.0837246783581784
  0.7493638529750898  0.0003792419248829  0.0888009248798452
  0.6662575994214684  0.7490446166173402  0.7497738795791153
  0.6661158516470365  0.8333789974112086  0.1661989854976266
  0.9988054086901768  0.5006827812748562  0.0000536903357616
  0.7505452180789809  0.6668953948609173  0.5835383080028473
  0.7502748126125299  0.7497770367439353  0.8327955332763237
  0.6665848375206048  0.6670499586300764  0.6665674569871178
  0.0825013101029910  0.3337458814155311  0.9178098611038421
  0.7502829928310750  0.6672468690079264  0.7493473350750750
  0.9993996286767979  0.4171874883225030  0.9179557376642111
  0.6662110300211938  0.6670310643778903  0.8336467759545940
  0.6671166503605042  0.7506207621191002  0.2499786708349387
  0.7504723315092774  0.5839329199493863  0.9999666882400895
  0.7498419121824518  0.7504696329547964  0.3338810875203287
  0.6672989848803481  0.8336859890514571  0.0005566558496068
  0.6666120492360549  0.7491860122177841  0.5831824876678239
  0.7497785751637066  0.8335484665585692  0.0839874380783002
  0.0830296558867250  0.5003747444195294  0.0828359889238629
  0.6657107509994342  0.9160044293726323  0.2502050603314850
  0.5822157121678144  0.9989847437885556  0.7492166304187708
  0.4990680633295830  0.1675360993391837  0.8328780464388239
  0.7497137611701615  0.9986031979394299  0.9119354179539371
  0.7488080785453030  0.0815167723687604  0.5015929012429132
  0.0827642033893336  0.7515539195395420  0.3319021898647170
  0.0831511105855302  0.7504910030941015  0.6679346249679702
  0.9995364568453257  0.8325368089748166  0.3325955088485019
  0.9998294013110981  0.6673287540015973  0.6677335067525452
  0.6669405540717528  0.1671092633073861  0.1683467655170754
  0.6645021026598186  0.1679622412707207  0.8313124190889072
  0.7518752092961597  0.1661360818411788  0.2506114404812384
  0.9998856494144946  0.6671500616465111  0.4998284268489303
  0.7496134601716633  0.9988568117564921  0.5842799696694553
  0.0793504537328705  0.6673883671816201  0.4161951519810901
  0.6670658844829972  0.3341714255331419  0.8322719532616893
  0.7495807360122472  0.2502498366811003  0.9994057676594060
  0.6653240456824068  0.9990952981667783  0.6665999503084515
  0.6677165394718574  0.2502929691281039  0.2500495731455019
  0.0820390966058913  0.7506129269493822  0.5007523879182961
  0.0819652684733768  0.6662497853994372  0.7506294551357181
  0.4174136760658668  0.8322635582997282  0.4181069707799026
  0.7498459176164188  0.3337741641129919  0.9149625279391173
  0.6658044330801210  0.8325985787265635  0.6662756996297927
  0.6646754686083720  0.9152952600709768  0.7491691537792139
  0.7504148415167942  0.8338492584437096  0.7484917399752050
  0.7497765701673726  0.9160949902774902  0.6653776646587053
  0.1652928897627553  0.2449685613011338  0.5830086839451087
  0.9987797544155725  0.4184761163986063  0.5825984322776818
  0.5831519282408961  0.0831717631189774  0.6673894074077658
  0.6682589949703627  0.5003070841829723  0.9994283259643274
  0.4999341655480498  0.9988604395900200  0.8319583470107024
  0.0818475312300464  0.5839794308125242  0.5007478910153728
  0.1653407437774941  0.1654340007655476  0.6668922436738816
  0.6668706272369691  0.4993470311656731  0.1658266899339175
  0.5812619510365744  0.9990469487140776  0.9150138098622936
  0.7500932453022365  0.4993647161358770  0.2497634653912906
  0.4984171680814197  0.3346686323848515  0.5014497017634840
  0.5828136352597886  0.2509273306780984  0.6666690317096052
  0.7493974657690751  0.9156901698777686  0.8328199771700249
  0.0003776971558878  0.7498023579923808  0.2490350202220089
  0.6674616952875639  0.3348052431893780  0.5011644033986570
  0.9993637792491221  0.7499241480882841  0.0837199420715966
  0.7496942437417410  0.3347211875278148  0.5856620329602927
  0.7497269426417071  0.4163220469497501  0.1661332366844835
  0.0824637041115065  0.5841329905788893  0.8349157301748131
  0.6678141866183415  0.4179767110820752  0.4179890951561893
  0.9991297742498555  0.5011276375030183  0.8344889065301679
  0.7508735094702464  0.4179750760308720  0.3338211406846616
  0.9993974652670107  0.6678744409950962  0.3314618624681986
  0.6674033438085331  0.4181832311152940  0.5837543623933791
  0.6675470135283907  0.3333592728651166  0.1662501422057967
  0.8340143479122640  0.3375414306273768  0.5009670269114748
  0.0831159947368220  0.6665686234212920  0.0825468210984496
  0.0816724335670167  0.5016572935094989  0.9176555068781701
  0.9994269193400034  0.6666213553063876  0.0007685357357003
  0.0822673363389894  0.5840549096473537  0.6677265382803621
  0.7508489880489259  0.3353425433403300  0.4174969774039957
  0.6684145111114903  0.3348975613862165  0.3338194605241623
  0.7492682048564521  0.1653236505977574  0.5861059311019644
  0.6677365320885313  0.4155562038391894  0.0824423483094794
  0.7498058227407102  0.1676477045040005  0.7508277596495673
  0.7507383698770675  0.2497974294759725  0.3326820632843472
  0.0000597622318932  0.6663796691787851  0.1664183904526851
  0.6663630762605970  0.2499502953838924  0.5848284705016832
  0.6655798225485853  0.1681718032953787  0.9979410948542589
  0.7464474505452448  0.2485930910050886  0.5019502171803102
  0.6671969764084051  0.3332448772423555  0.9987383809954334
  0.6653951079992700  0.2508631277600288  0.7489777192754919
  0.7492175205695787  0.4163291040346438  0.9991978299441701
  0.7499535728399837  0.2496224093206474  0.6679526702756811
  0.7495639811846840  0.2498122662088776  0.1668538771897595
  0.6659954975155431  0.2503508188226029  0.9147914749607017
  0.7490236997543037  0.1636051721159063  0.4169553237101699
  0.7501195625467203  0.2500358270046782  0.8322772246872410
  0.0831365557751175  0.6671071290923951  0.2483358448174277
  0.4998290820402474  0.2510078832123598  0.9162737030527606
  0.0827965230646357  0.0802962027786132  0.3349456754464155
  0.3323291809058985  0.5016114106676858  0.3333237213092443
  0.4170342347143310  0.5821211760160713  0.9994722375123244
  0.3330409020641651  0.5014194116393366  0.4992559098818671
  0.4159198488523490  0.5007337145599239  0.5845909091063007
  0.2497048054730897  0.4176430697609371  0.8352252245771530
  0.2491525241595429  0.5006195978985604  0.0827504791349510
  0.4160108559646699  0.2490545516344784  0.3333473693292560
  0.4159367236260774  0.1652618763271122  0.4176455847684468
  0.3322195866616108  0.9997703175729769  0.6664229533407656
  0.4159577982149022  0.9999955731776827  0.7496106125895442
  0.3330187375764510  0.0004440559689711  0.8339507624863798
  0.1678817082725743  0.7543426557748081  0.4155958073113465
  0.3345543680383863  0.1664601966801861  0.9993453955182040
  0.4174783425143976  0.1668579509570406  0.0819918482954633
  0.3338196922317403  0.2490645846144847  0.4178075004400807
  0.4157557438285708  0.0829276505994770  0.6668996811951861
  0.3336019201390872  0.0825734456864735  0.9181939657656212
  0.1666604156123672  0.6674231539800787  0.3275657004349249
  0.9173646973703831  0.6675641459307974  0.9166806241448778
  0.0838021414332538  0.9986392147551227  0.7498792987870011
  0.8337303638227856  0.8316441559736435  0.0002838413089116
  0.8336780856518368  0.9146536189349763  0.0848502749548528
  0.9161491586366880  0.9157855780128373  0.9997131131454635
  0.0010885108324207  0.0823098871941825  0.7497010799034890
  0.8333429484091529  0.8318554824421506  0.1666115597037297
  0.0012399421408787  0.9990150998031363  0.6663324746121567
  0.9169749111537626  0.8330996859662178  0.2491895855002967
  0.9167406295659738  0.9155184679818820  0.1662601610973913
  0.8342583657463579  0.8324460681191390  0.3335464919841458
  0.0831434326219326  0.0812063298643798  0.4997138770840579
  0.9169888381683042  0.8335796933977043  0.4174179690607172
  0.9165747437654675  0.9156304702657109  0.3339646339337387
  0.9171358335300216  0.6676924699830344  0.7503999790543804
  0.8338832602265128  0.6676688882620253  0.8337232380774141
  0.8335202942672761  0.8335834257704019  0.6656103889701503
  0.0009954813005706  0.0822070823438443  0.5832025205502327
  0.9172119484507111  0.8327749098876439  0.7485082322546669
  0.8339023181391505  0.4179105343479450  0.5837963255291863
  0.0834567179126961  0.1657691407097511  0.9177981301485153
  0.9187694409616707  0.1659917566345119  0.7508403415315305
  0.0007457891009302  0.1658500356369931  0.8345838258838826
  0.8345078816913774  0.1672509382375285  0.8325356448573540
  0.8340723693383064  0.2496747870686541  0.9164517748471800
  0.0834363403973673  0.1652404395980815  0.7512188695093903
  0.9177495870508122  0.2492488243950458  0.8341940255754202
  0.8318937209558298  0.3332172153082135  0.9996981787183647
  0.8319356145497318  0.4168333004728874  0.0824083163829543
  0.9162883178769318  0.3336301265094662  0.0823482931533746
  0.9155825828143926  0.4168388896103956  0.0001629186722815
  0.8321202667424444  0.3328963200186013  0.1653835119426859
  0.0008229025406483  0.2501760671002596  0.7507006968353417
  0.9150398318323916  0.3342395674404965  0.2488008065559320
  0.0815165123250552  0.2508049261067333  0.4984683187555727
  0.9186361395357602  0.1644401206758134  0.5838841877778399
  0.0823603136674401  0.2498534496070060  0.8356980891747736
  0.9996859102882923  0.2494659541582442  0.5833181495829445
  0.7498297840619039  0.8330256667215318  0.5834688706749485
  0.8337083579574285  0.9148169214504716  0.9149510726717980
  0.9169193183231116  0.8339627847804838  0.9165518351313449
  0.0835799079717516  0.9979578514161156  0.4171486014874882
  0.9997027009548100  0.0802742782784235  0.4169757907701034
  0.9998003037422648  0.9166509604045673  0.4169670918352963
  0.0833938210103528  0.9975083672528102  0.2502896791858770
  0.9994236631603476  0.9980444507244988  0.1652038915923565
  0.0831172549920121  0.0824712596128978  0.0007123323847174
  0.0840317266117153  0.9991482802593971  0.0829070204927649
  0.9987641311138701  0.0824958408729977  0.0832999052049421
  0.9168428852177055  0.9157702323432942  0.5010074200570891
  0.9163659328708056  0.5004639046693086  0.2483487065226658