Cr  N Ni 
 1.0000000000000000
    21.1201135712910144    0.0000000000000000    0.0000000000000000
     0.0000000000000000   21.1201135712910144    0.0000000000000000
     0.0000000000000000    0.0000000000000000   21.1201135712910144
 Cr  N   Ni 
 259   9 605
Direct
  0.9980567929161027  0.0843282503003140  0.0849833130955502
  0.5836117029239176  0.4175422719667374  0.5025470955133307
  0.1654757146211859  0.1659695366846425  0.0007921020619144
  0.5809232150767661  0.3436185961885588  0.4190729771235045
  0.5829490275629013  0.2523662387251897  0.8330005734705255
  0.1673272534819812  0.2575876627230942  0.2505514184128693
  0.4929739927117567  0.2507548334390186  0.4192258375757537
  0.1680435995258966  0.1650823611426898  0.3393849419141998
  0.4982337731860847  0.1639280007565657  0.5030947535999004
  0.5771527486659115  0.1653862873575297  0.4190145419002643
  0.5817870366278538  0.1657982307197985  0.2494205995085414
  0.5836574982835084  0.3329897492792044  0.0812382637389348
  0.1623042531145048  0.3355340055819278  0.6705955408487819
  0.5020592795597176  0.5010251819834000  0.9989371487637271
  0.4998078454218566  0.3347941510564785  0.6674076313840561
  0.5847926791737741  0.1675529427675054  0.0823563871139456
  0.2512453961931702  0.2485142778684009  0.8421290634653622
  0.2486331092597311  0.2504338772562465  0.6640376662718805
  0.4977939531471918  0.0843121171844079  0.5843757461770360
  0.5833862684587747  0.9998342115819584  0.4187759083460161
  0.5858150852044665  0.0819379957617249  0.9972445276515313
  0.3345661717787395  0.8340744356046171  0.8327936216950171
  0.3317391684363682  0.8345690825898128  0.6673410464712068
  0.1671540977554311  0.4170943305458743  0.2494782223581210
  0.4175025767295344  0.7522208169958630  0.3315959677033788
  0.5026864799609834  0.1663582767830512  0.9996865349959316
  0.2474973382363442  0.4998401967309855  0.7516934548917357
  0.5844075983979553  0.0820057845678842  0.8340746678878579
  0.3334196338514306  0.5844801397625892  0.5840590205775582
  0.2496607433425292  0.1615028697714029  0.7507122848932508
  0.5835400490686025  0.6642282117497517  0.2479166997135716
  0.4991598287054416  0.6658424500292629  0.4993727845178042
  0.9977098525812560  0.9984514161463887  0.8267634373680801
  0.1671208757635378  0.9163142980204966  0.7496317941680697
  0.3350736339466475  0.5843871266568769  0.2480661162752656
  0.5841706343476653  0.7486872434906439  0.6681232902187659
  0.1655664689925749  0.5794142217852553  0.4154554354774756
  0.5001985726867214  0.6644623873553680  0.6690251135140165
  0.2476671818509265  0.3399569353894160  0.7513258857522341
  0.5821940166240177  0.7502690800866888  0.3333584891842307
  0.1676818265362084  0.5830453883812685  0.7519280804561188
  0.5834712694749583  0.7501282689803274  0.9988390011513369
  0.4193783505201210  0.9175371443959881  0.1664429185801229
  0.5829780461281645  0.5028688851990318  0.2481056877735278
  0.0819066808178419  0.2488388716347093  0.4982053749538836
  0.0001727222049966  0.8313380552755588  0.6651722650622588
  0.4162848263879220  0.9164003579948125  0.3327274769689043
  0.5022750799707167  0.0838350080237151  0.0810376574805035
  0.4984813538449221  0.5006457368752109  0.6688299958058666
  0.4158764320504669  0.9154115352675386  0.6670906795471712
  0.5814770769717832  0.5818832813702723  0.5003094818323890
  0.4165334124533299  0.9151746561745870  0.5024306831088429
  0.1661796994263882  0.0835039136552744  0.5822675033718642
  0.3351047005489491  0.0821319309708444  0.5840387360888492
  0.2483698052874703  0.0823575573010097  0.5005106816146160
  0.5009016026254026  0.4998706518435528  0.1658133085129940
  0.1659630795578833  0.0822854992474352  0.7514834516849823
  0.5013735415406610  0.9168970190789998  0.2496816644987968
  0.5015039997282013  0.5001388323712356  0.8340755583719538
  0.4997325023891329  0.9169495860186474  0.0840261818694863
  0.2490656831502516  0.0838676686727011  0.1634377419599279
  0.6668107183711687  0.6677463652129364  0.6667906928703111
  0.4192322758138984  0.5832424576893788  0.1629528079200851
  0.3320968591408540  0.4993537615628058  0.0004032589260955
  0.2555279926056226  0.3343553202561633  0.5850928828189138
  0.2571525583543636  0.6677713117393147  0.4160675054662464
  0.2491646050806851  0.5024627515559192  0.4143615042813140
  0.4142741606246653  0.1588232941230042  0.2489256057455416
  0.3270985447067219  0.2506660511544349  0.2487180325929670
  0.3330548130901579  0.4163853777460411  0.7518911889044648
  0.1668272438103072  0.8336469311594886  0.0013192707215696
  0.4163350326578191  0.0825135197724244  0.8332235206679535
  0.2504720875389176  0.5838866635930059  0.6682315831722065
  0.3329165183307989  0.3349354148841587  0.9999198090097511
  0.1678709948973157  0.5844098487341647  0.9161855127923231
  0.2490748930035069  0.7491561826869811  0.1653384626418061
  0.2503770933085382  0.5830416858178017  0.8349635478327174
  0.4168477923881864  0.1656928072125564  0.9160750058469567
  0.2496993176034227  0.0837677257520944  0.8333594954183808
  0.3394424750618848  0.2497440223444326  0.7523726590196432
  0.3314064353535084  0.3348973807135911  0.4998709804822391
  0.4162690627670724  0.5840777326209178  0.5010704508241109
  0.4171180853668466  0.9996364760305698  0.2476898145734888
  0.3330095228899495  0.6665895466593103  0.5011035318691739
  0.2502438124954291  0.8331951552536720  0.7503838478606313
  0.5848494615724374  0.9166709201083569  0.1663809018673489
  0.2505717003569942  0.7508597545316741  0.6668196334610494
  0.4167566014900699  0.5837681969208672  0.3334251805455640
  0.1671063334874394  0.7486914717139004  0.9157700896041316
  0.4146083635391444  0.4178213279720394  0.3317906936227429
  0.2492705696405516  0.9166659596774289  0.1654791104480125
  0.2491344377297265  0.5003483199477590  0.2476028355068075
  0.1666981590371762  0.7553755873395099  0.4150538807870830
  0.1648439760513652  0.5025840217189694  0.3322775243529031
  0.4173181703379152  0.0825935074418833  0.3332749190025668
  0.3352492424443663  0.1645765338526424  0.8343074161817647
  0.4161113477552503  0.8326353064199757  0.5848176954553758
  0.3312946985171368  0.4192979177376013  0.2479218688963520
  0.4149776660915784  0.6664547458093414  0.9172344348719927
  0.4160490244057255  0.0828452690992550  0.5016603031889979
  0.3332485418230127  0.6678314801454113  0.8341996856818928
  0.4169024237961406  0.0831485304275089  0.1634203636823290
  0.4174993928672823  0.6659883214817224  0.7510528300513749
  0.4174860705054343  0.9992940145994770  0.0840283867634226
  0.1662818533722422  0.9158225487696923  0.5833194064790387
  0.1664857881093308  0.6666867079012858  0.8341749965891330
  0.2498715693472593  0.8331817177317811  0.2475352202049361
  0.1666795156329713  0.3353811637832649  0.4949310790435990
  0.4171481648503098  0.2511472596758921  0.8344420618064686
  0.3340135249323053  0.2500479287893634  0.9182019311592876
  0.4997283685572394  0.5827901040331129  0.9166752399679433
  0.3330559108553807  0.1648692129337470  0.6690924502722611
  0.5006586507876370  0.5849924118134721  0.7519592523460013
  0.1670042296817760  0.5817926269187865  0.5845004892519088
  0.1666184405978949  0.9974016913103697  0.3336542280003274
  0.3346534616660112  0.8334787516373813  0.3323423009711932
  0.2494573843392751  0.9966327681541061  0.4177640819867925
  0.4158864153579578  0.3350214438988717  0.4184171435012587
  0.5826829419293683  0.5005698635997113  0.5845356548790080
  0.2503577580278203  0.4167944046567521  0.3329600147103355
  0.4992178769014056  0.5008799591826175  0.3330395630767058
  0.4156923592358287  0.8322971124774456  0.2474752883152207
  0.4988629659802140  0.5840927199836805  0.4170505854786134
  0.2505722383949457  0.9145250799113527  0.3313332879825839
  0.5840271164628987  0.5827138964014923  0.1648543165289001
  0.4160023035259542  0.8329139744045945  0.7476114721506073
  0.4996917118456842  0.5839147069645015  0.0815941635526131
  0.4169574198029977  0.9999031182250702  0.9173494706362996
  0.2495226928006301  0.5026198656462227  0.5852053535616469
  0.5831839316911857  0.5827292375709771  0.0000627852277192
  0.1665014847518494  0.5838405884646576  0.0824045833576601
  0.4991642469877853  0.9148845150036665  0.9161742535513536
  0.9987232167142698  0.0893302678820793  0.9172905133753390
  0.0835246464485049  0.8335256789891793  0.2489382499232291
  0.9990254341982491  0.1649144012946264  0.4993398207778822
  0.4984420712651108  0.9150421776495056  0.7495556386812832
  0.8343792857714460  0.2499166151712549  0.7489566384499122
  0.5812571651245315  0.8342678686013372  0.4168217350077784
  0.8321676610127021  0.3350041135843820  0.3322146117691041
  0.0805158495853193  0.4173300638872088  0.8355947915509304
  0.8342369670730680  0.1663274660987836  0.5007553164466040
  0.6659791192371917  0.0005128461550611  0.1656866313528174
  0.5002509906615524  0.8329748284087518  0.3323114361788407
  0.6675949687472145  0.2506205444003152  0.0826465033884637
  0.0005282907449165  0.1674650714481561  0.6669301363981693
  0.8323317055950686  0.6673401563526775  0.3388052803072503
  0.0770583588364459  0.1663604710850942  0.2511900120446148
  0.9986135343848044  0.4152094718076541  0.4163274676220922
  0.8328817337048022  0.5001239280658524  0.3341637769991205
  0.8323264716134408  0.0853963718777525  0.7488092951040244
  0.8323316611768021  0.4189950733157550  0.9187413741766148
  0.6672444598483577  0.9151660334968929  0.9167782601240608
  0.9163055280019984  0.4172783765857173  0.6678461190340966
  0.0805035631846809  0.4181891032390850  0.4983480614317262
  0.1671081740736539  0.9158479337388225  0.0831776586074000
  0.9971435772214934  0.4157608929471459  0.7493776221570169
  0.1666950474536311  0.9158991094941502  0.4161685213107579
  0.9995646089073849  0.3330802849213590  0.1645237419734765
  0.8329018928496119  0.4155023422509293  0.2487763548333259
  0.9985963507291070  0.9998559147517666  0.0053346871735829
  0.0812038881721348  0.2465729424101350  0.6667077784928964
  0.9997945801241247  0.2494138001124299  0.9180622300751914
  0.8339601998471303  0.1650563908625621  0.6682399018047441
  0.8339972207791596  0.3340767763638164  0.5006000134098408
  0.9172496574146349  0.1663158020352065  0.2503688338656171
  0.1680987899922274  0.1650485272630011  0.1610330356612045
  0.9139562999095989  0.9155829320902905  0.8311365839868198
  0.8321776353708207  0.8315782834961095  0.8326074707731924
  0.0003184451857262  0.9985404333201807  0.5001833741997954
  0.8349285536659652  0.9152591082136730  0.7490219871220869
  0.8328172478801933  0.9167758035887998  0.5822426598765068
  0.8339509887074326  0.9162235520984511  0.4157385132026968
  0.8325776262586150  0.9157780769704029  0.2503787680648147
  0.9157512949826169  0.8332508900454390  0.0820903022590724
  0.7498264857026661  0.7497542183553030  0.6667761316901284
  0.0817204439518248  0.0820311203085553  0.6661267005701299
  0.0017259836004044  0.5010083496482394  0.3318891869476359
  0.9157683035210370  0.4161656819389795  0.5002771407106541
  0.9989112229453148  0.7510369033165121  0.4160007026063413
  0.8324424220870281  0.5772322705421176  0.2498358069392134
  0.9166012540651062  0.6684737179976855  0.0858134298933966
  0.2549364323299970  0.1651975126129622  0.2489192008712052
  0.9167024367912556  0.5000242878603002  0.9176843648016840
  0.7491872933968897  0.6675927884310506  0.9159784693920275
  0.9170338278169953  0.5852548142514763  0.6684971714613509
  0.8345762884305193  0.5013304531812696  0.6675361809385316
  0.8337076805784648  0.4993413464130023  0.9994934271473485
  0.7514734104398670  0.4159717820293863  0.5009835617954752
  0.6669545091732300  0.1644723138276729  0.5055082782745212
  0.0887662934963946  0.9992654906288293  0.9173607460196916
  0.6674224995557865  0.0829444138539248  0.2516202395904927
  0.9170444474576331  0.7505083534588096  0.1656951467417126
  0.0006001206770454  0.8331664220151153  0.0021859686768131
  0.6663123241792284  0.9998172527834842  0.9992156473295014
  0.7492891819854007  0.9969824335678489  0.7483249853307454
  0.6658085400856676  0.5830393582970904  0.2491167043430995
  0.5031904882305788  0.2522231778882653  0.2490017453735431
  0.0827360334476326  0.6672413936887716  0.5843716784979607
  0.6662998704317693  0.3342219375486172  0.6685602437725432
  0.6655974410361321  0.9987461734060393  0.8321001693206798
  0.9180026125321592  0.3326431119759067  0.7505152581621175
  0.7503718957060876  0.0827012388357591  0.6671607316455059
  0.8348882651594752  0.4157451806864113  0.7493098187308511
  0.9990152103817361  0.5837962293310111  0.7507034721244508
  0.7503164443638595  0.4994239418476212  0.0821394428959701
  0.2493984162972875  0.9151719806846962  0.9994383774302448
  0.9993124525513863  0.5826339325100333  0.0838852508017145
  0.7488353964577986  0.6670574033110714  0.4182985444908183
  0.0826500884496572  0.4168964817215715  0.0002407933305720
  0.7492823032749244  0.8360925964216945  0.2507450557154942
  0.8340399830742961  0.2513413397582419  0.2505785420955315
  0.7508730242090299  0.5000604805816155  0.5841167735555992
  0.9993403693281487  0.2513571633888667  0.0834908538380881
  0.8332299250499713  0.0012781113009680  0.0007903865693601
  0.9990322586758662  0.3340679875283720  0.3324005094672875
  0.7496360947953461  0.9173467811240268  0.3341898074005837
  0.8328162048838242  0.9997725264743573  0.8314104158674706
  0.6700143825971947  0.2540781810838225  0.4188816999027434
  0.8338296379220772  0.9974628255609529  0.3328191696913048
  0.7492749298087494  0.1677171030150825  0.0815427169254558
  0.6657027339425436  0.8340229171646368  0.8340202606495061
  0.7510756518849964  0.2518204875844125  0.8339119638121064
  0.6658704449235346  0.9142751641119284  0.5848062701924055
  0.7514487230007267  0.0849729142359296  0.8332963878758637
  0.4992218496760070  0.9159858210397134  0.4161547668927121
  0.9172850584240607  0.6669432803678780  0.5832578276025625
  0.7496759845258005  0.8329511373575958  0.4162483241763782
  0.6678419031105239  0.1656034417762652  0.6685480251553808
  0.9155567742785606  0.1667787386023664  0.0835406794978893
  0.7497281739983142  0.8343785466871380  0.0837081437237974
  0.6679353644365363  0.0829167550527628  0.9137140812345260
  0.9994268826202175  0.9980370088950181  0.3325179794253554
  0.1666072847015217  0.6666418345225985  0.3266766374926087
  0.7515209620491570  0.5014976516792476  0.4177831522616371
  0.9995560277963417  0.7522915284006624  0.9180804490384969
  0.7487885057415177  0.3321133874772555  0.0836387972800659
  0.6650865763215194  0.7519649950396434  0.9172368934126384
  0.6666583880359934  0.1652477023291235  0.3248787487783615
  0.7503462375222721  0.7493740174378746  0.4997493273436006
  0.6673231176827871  0.6676318792529184  0.4993456636617995
  0.7513380595479149  0.5005408386768284  0.9160509534869274
  0.8318731019119869  0.6680364333648129  0.1619555418521228
  0.0848503691691804  0.4990293558108241  0.2481360703452658
  0.6664260369941275  0.9165192424451556  0.2484210534488589
  0.9173597982455367  0.7497222573891984  0.6651118321113638
  0.6668378727804538  0.4161888731850755  0.7484197453343774
  0.6675552844834488  0.0835173682103934  0.7517483660636662
  0.7527638594376891  0.3333477030356451  0.2514243156671940
  0.6672134036641764  0.0761382974502048  0.4172146015076851
  0.6682660576205702  0.4172331280368698  0.9158719621712652
  0.0840740244950567  0.7496251096694394  0.8347809619311510
  0.7517111075589200  0.4999914432039334  0.7491436114025224
  0.9992776222925278  0.9148963887871203  0.0825735690554591
  0.9969690238670895  0.5838820902516694  0.9178612574476669
  0.9971314278274076  0.9113222195700628  0.9162403024340827
  0.0827074925215096  0.7500593989640895  0.1660065195049004
  0.5831291026229793  0.8328126107567951  0.9161814594722288
  0.9985147421718688  0.5849792115178920  0.5841764155023158
  0.5835862483857088  0.9143872224957831  0.6662445502765629
  0.1681655327444097  0.6680096570252781  0.4149564491263436
  0.6689266294137960  0.1640498680652386  0.4153266883003550
  0.1656643429843331  0.3352009687162844  0.5825230734959058
  0.8317322158205906  0.6657176208374529  0.2506327514724347
  0.0000165472036973  0.0005914520795667  0.9168816999434941
  0.4151045885750340  0.2478555597573640  0.2474392688767352
  0.1655765378861448  0.1676088052044696  0.2503428134729601
  0.5809984225527892  0.2559713494199921  0.4184281033092563
  0.2486791425638459  0.2512704189324409  0.7536448161435204
  0.6657333618709195  0.5003499550579280  0.3340233505349502
  0.9989038525015190  0.5003848827589383  0.4998782815167052
  0.6669349574816356  0.5002352833811903  0.5007947440005113
  0.7497569712218896  0.5838431845634368  0.5000742318766155
  0.6653722785558707  0.5831386038190420  0.4174071629283996
  0.7492999355792402  0.5826278530329212  0.3346905615810085
  0.6668590019053575  0.5838842293061373  0.5831731713289295
  0.0813789153270804  0.4999428378570026  0.4161904692110934
  0.6667126300400726  0.6669753630707065  0.1652040953114869
  0.0831897071077029  0.5832444263340602  0.1652322707382258
  0.6658517223492014  0.6668886719538000  0.3343243186157108
  0.7492808394503875  0.7517965483124018  0.1655238496129142
  0.9988892872235817  0.5831364962364392  0.2475450202580215
  0.6677706272816851  0.5833639670522252  0.7493278514069660
  0.6669800915143252  0.7502753883903085  0.0819952461658710
  0.7490690512833198  0.5816363847904107  0.1656203715158950
  0.9164031604607550  0.4167135572713694  0.3328332463234513
  0.0806904950521778  0.5017900635874690  0.5838105197125388
  0.6667198601879919  0.5830733186541347  0.0826454449668187
  0.2505894133693960  0.2512202072650634  0.3347715488716878
  0.6655612692099804  0.7505966075016345  0.4165532939746837
  0.5843254694012983  0.2503892483724864  0.1659583269562868
  0.6683359419346870  0.4999490693253382  0.6666436348416424
  0.4993751065013443  0.1653478765597708  0.3332988237947508
  0.7493123935670555  0.6664382886787529  0.0826527837545044
  0.5822151939385575  0.2505268508310215  0.5069953867515575
  0.1663641600578146  0.8328858640840194  0.1654221371388698
  0.7503260217034957  0.5836502700463023  0.6666909658271617
  0.7505067680444313  0.5837099073188993  0.8334607670441528
  0.6682255449085096  0.4999129733115361  0.8330784221420248
  0.6666383937369398  0.6670142111194041  0.9994453785170999
  0.6677286679188658  0.5837178839682139  0.9172914994088399
  0.7511262756010395  0.4167092517094094  0.8323808238724969
  0.9992704043681676  0.5828968315873717  0.4155194246284464
  0.8333741603337763  0.5830318168384881  0.9171970993764120
  0.5009136501001545  0.4174585994313313  0.0817533702749127
  0.9994179470782480  0.4170901113165195  0.9178634782123876
  0.5845326000301473  0.2506945528817384  0.9990454373307350
  0.4984652662533817  0.3362550064344461  0.3339282712795040
  0.5850905911632406  0.4169430465976885  0.9988458098215770
  0.4971106907643962  0.4189608801251967  0.4178267999519555
  0.5016483374991906  0.3343576087421577  0.1648548928952336
  0.0817607386777808  0.1668344514099602  0.0835081843804611
  0.4998467975478548  0.4179004247572441  0.2493219501238316
  0.5829595269264359  0.4178029590906918  0.3323246088362220
  0.6668930639214532  0.4174669563910328  0.2498165463786306
  0.2507030764149241  0.2495764458772735  0.5007527522482028
  0.5020577320926679  0.2500691559092765  0.0819005462136902
  0.2498264873486749  0.1657416121789950  0.5838950477529279
  0.1663475201387407  0.1657571163309384  0.4996267219833546
  0.5010324546241580  0.1666273230441001  0.1645890635560178
  0.5831666750447592  0.3348490812913335  0.2494166532632820
  0.5840772631810965  0.4167379254110892  0.1661953443435261
  0.5018999420221288  0.3336056520173912  0.9994607272191848
  0.1660941266126272  0.0785719578747011  0.2504030843009850
  0.0821250639689719  0.3332124443124018  0.9182708347226166
  0.5826664830507805  0.7494471319843057  0.8333381477769954
  0.6659815893585558  0.7501728863025642  0.2503430679852206
  0.7497515435842630  0.6674230066654780  0.7499512756704029
  0.7485850722499590  0.7515448373555034  0.3352225330324954
  0.6672111341469349  0.6669634802863623  0.8348316729351651
  0.6657737742689814  0.7489489528530950  0.5831071271147872
  0.7505559370348580  0.5827589936059475  0.9998993814304230
  0.0831675025899196  0.5001859917922449  0.0824911542810741
  0.6666143309045628  0.8339337460144924  0.0001448033649307
  0.6667234221491408  0.7494601025340502  0.7507711168211892
  0.7493838009469319  0.7501998973540075  0.9995239614906525
  0.8321174449295589  0.7503135289801214  0.7497455312042536
  0.6662937510228631  0.8331578955700555  0.1659693752696647
  0.9990279447504097  0.5006942509544032  0.0000507137121863
  0.7498828598688202  0.6673213262018338  0.5831928274306926
  0.7491310243588259  0.7502598065134175  0.8334093668276661
  0.7496588568764865  0.9171855219132048  0.1666422483327583
  0.2504596688399097  0.1656119889748156  0.4184468500094399
  0.5008794221087127  0.0825387655470473  0.9163589309044456
  0.7516540564793490  0.1662233481113066  0.2500921853997061
  0.0002592912815889  0.6673967782599639  0.6674885050132789
  0.7500899124715003  0.9987400957880102  0.5840620443522306
  0.6662041228477062  0.1672989146251520  0.8329666500248345
  0.6678969191036389  0.3344513546678686  0.8324480041987735
  0.9999380644633632  0.6673243413205325  0.5004821263930025
  0.6660193146448558  0.9989143485291369  0.6665760379476949
  0.0792577300165496  0.6672489212103917  0.4168639101674201
  0.0825274656044034  0.6668453927648981  0.7508363288819491
  0.7501715638533386  0.2509501943369701  0.9998248143209743
  0.0824508135693170  0.7509092550479258  0.5001682752414769
  0.6668191339969447  0.2508820947302104  0.2491949119585344
  0.7507712600140845  0.9986930980254932  0.9158051609554311
  0.7513628608942258  0.0818652032705089  0.5021738001135415
  0.0825943112712360  0.7510439219492454  0.3320888828410505
  0.0831730877346633  0.7502611866533372  0.6670842611062673
  0.6673189976752628  0.1669718327689871  0.1676934459431103
  0.0000266241160869  0.8329393683259958  0.3326971565727245
  0.4999030254894644  0.1661042496280980  0.6673782061971911
  0.5834923051668082  0.1670887847566589  0.9152330780547789
  0.5829879936103919  0.9990246494585491  0.7488313909771772
  0.5844112901880743  0.0834947145789971  0.6674692629256063
  0.5000278183857794  0.9993686607067840  0.8331733792893613
  0.1649444289086756  0.1647593579093576  0.6663155206795679
  0.5824865539861414  0.9970631385880522  0.9160144172938171
  0.4974374618781597  0.3356743379875063  0.5018857303851066
  0.5827286946014173  0.2511355588475492  0.3288112750431089
  0.4172002532007826  0.8325508643000181  0.4173058396949920
  0.1668020125787861  0.2497938155872046  0.4172141208952976
  0.5830809064321363  0.2507416235871983  0.6668293095666581
  0.4989614328386971  0.2506275860186047  0.5852226482376391
  0.4997238139887332  0.1666143862035141  0.8342054716108641
  0.5832456500275934  0.1664820068685336  0.5852662586429724
  0.5003124264502329  0.2503672248308210  0.9165092521509126
  0.2500771007045700  0.2505775334970126  0.1641936525018240
  0.4998803366447758  0.2504026977895019  0.7505276680246816
  0.7506592101359701  0.9153640428293306  0.8335675769449976
  0.6674305448772506  0.3331515861755134  0.9992316900716585
  0.9997483037060515  0.6674234130937310  0.3323540115275896
  0.6681250325950768  0.4179927406524175  0.4179025665079244
  0.6669464524306932  0.3335131905996951  0.1659367850268001
  0.7492708841642114  0.4182476967297372  0.3345094894357790
  0.0833746901051788  0.6663974445356402  0.0820961341763219
  0.6671516345584209  0.4173365403832917  0.5845435826576222
  0.9994359914244448  0.6666882443651925  0.0006054781956703
  0.8345158348729378  0.2488992448802660  0.5835539290310753
  0.6672196426283454  0.3347666071242043  0.3328579496766522
  0.0813157089296115  0.5016114937545937  0.9176607868529081
  0.7515023446718900  0.3342638772151394  0.4168696315185540
  0.0822868321898061  0.5838113625494300  0.6673891202996280
  0.6676810233577026  0.3358951967707757  0.5018860072816187
  0.9996417858133941  0.7502588659382388  0.0832434226337006
  0.7509980368633850  0.3328969088738631  0.5844958093159925
  0.7494794594774716  0.4155538932292459  0.1660705565080818
  0.9990915080504796  0.5007589766906816  0.8341659850167845
  0.0828185237050382  0.5841871642301845  0.8347919505903665
  0.6665577786973931  0.1675883391439809  0.9980569827224504
  0.6673358360133439  0.2503675099373042  0.5847905698824224
  0.7493270319391491  0.4159967811620776  0.0003720530931608
  0.7514451534624784  0.2505241026024513  0.5016444024992536
  0.7499668958374375  0.2496386880738714  0.1668864960382385
  0.6665081718662947  0.2506371318091464  0.7501441133431304
  0.7565684441799728  0.1655877407361285  0.4175836127581314
  0.7505703506636640  0.2492509778487370  0.6671996233367764
  0.0821232231019344  0.6670512605408435  0.2481842997528104
  0.6662608632280481  0.2510073675974498  0.9149543092619767
  0.7511247201208504  0.1672985182804811  0.5841800885813722
  0.7495763128489999  0.1680702523347196  0.9155604785561755
  0.0001422921638469  0.7504863521311510  0.2488530021208042
  0.6670950371061739  0.4153905171376096  0.0825029135926720
  0.7494849418578268  0.1682759460154507  0.7514936250687374
  0.7503129246518276  0.2500092779927611  0.3331732081295354
  0.0003866754537676  0.6665984082727215  0.1652721161336464
  0.4990202928709388  0.4175081150971865  0.5845184536069171
  0.0812592518957935  0.2502100352085951  0.8356226512988233
  0.3328062223033372  0.5834056947473056  0.7509134024161183
  0.3340737026774370  0.5834384552812325  0.0819926947124160
  0.4171021870885882  0.4992849964439001  0.0815459018143342
  0.4154394551811853  0.3377265950736937  0.2484222445354209
  0.4166880672516711  0.4173522101924437  0.1651188704321334
  0.3341503362891348  0.9159414959549960  0.4171798813406996
  0.9161397071881657  0.7504589083989079  0.8336874958428113
  0.8327000560154524  0.6667484574679012  0.0004555130928765
  0.0820125374842840  0.2491392408303858  0.0006222559325615
  0.9160918214699356  0.5824517524082338  0.1650993980545962
  0.9988732361426846  0.1667003927428472  0.3333160806784898
  0.8333661824160702  0.5832216285196649  0.4173780396269279
  0.9170208428969521  0.4995187658334137  0.4161363932946889
  0.9169823090734386  0.5826618585395291  0.3331415624549610
  0.8334645710415759  0.4998215344437036  0.5010110129343417
  0.8332720373011494  0.5836740240739641  0.5830835688042557
  0.9167099169595185  0.5009838189521538  0.5842275442772944
  0.9171506283782186  0.5839431793187111  0.5000251984476879
  0.9202116168396502  0.6671687106679348  0.2473617313378651
  0.9993057962597708  0.3328442226821489  0.9999064635473640
  0.9158933095574978  0.3330970770158813  0.4164005431597677
  0.8336302516228838  0.2506465210299214  0.4166385607060649
  0.0830650696301209  0.1666436117134840  0.9175740527457086
  0.9170698153172773  0.1674284076118004  0.7503768224210526
  0.9997240029595866  0.1668457865707736  0.8340688554861742
  0.8335070914231276  0.1685473472206365  0.8329493946108968
  0.8326648963907696  0.2510264122582767  0.9164209595750915
  0.0827066908597779  0.1653215871826481  0.7507532268603030
  0.9165379427940459  0.2503141591394350  0.8340857995854555
  0.8325276393409651  0.3334446650335568  0.0000188069602101
  0.8322270347129180  0.4161760368105764  0.0828818569798543
  0.9169806104906632  0.3328219077292080  0.0832229859269799
  0.9163078465746957  0.4161248949260635  0.0006924309855438
  0.8327969527638559  0.3325298276513681  0.1665971794762076
  0.9998288337997226  0.2502070689848859  0.7507914131246596
  0.9159444093459842  0.3340496373396192  0.2499588111385066
  0.1641762008256241  0.2459430520774811  0.5836452277413423
  0.0821177734933658  0.3329351910689889  0.4162975233189364
  0.9160014828076015  0.5845420713123006  0.0007710702451158
  0.0831465149355345  0.4160357790071688  0.1655890775479540
  0.9153338868627386  0.0838625227044432  0.8320079383256370
  0.8323897998782613  0.1677067480973108  0.0000468809716145
  0.8320277279877338  0.2497820852637734  0.0837280632913679
  0.0823557355749800  0.3343072790903610  0.2497984458148253
  0.0000160896228377  0.4166018056233570  0.2502166268290346
  0.8336511936098803  0.1671918762185134  0.1668070551703170
  0.9166347166143577  0.4162366067217300  0.1662054055819358
  0.9992891979840558  0.0824356805727736  0.2502138710490284
  0.9159938968955101  0.2502044742503500  0.1669638164276718
  0.8344475301278799  0.1665403694765293  0.3316809964663447
  0.9159028871465894  0.2488160279375483  0.4993889718912616
  0.9158133916002562  0.1661014323522132  0.4172734882046797
  0.9163462334572847  0.2506039710820809  0.3330739193342518
  0.0828614751130765  0.3329725842250107  0.0825310526667310
  0.8322269790434138  0.0841245597726839  0.9169812035142756
  0.0001942241876042  0.4162577343420232  0.0828762844596278
  0.5012888098239372  0.0828666156877830  0.7507878673501965
  0.9991517570210307  0.2484193162058482  0.5818831664213243
  0.8341383696667904  0.4168565804129849  0.5843090691967151
  0.9169819680467175  0.3328292380921358  0.5833840110861696
  0.9174385976266878  0.2493328284712783  0.6663975040114117
  0.7510331773358587  0.3332158302411670  0.7497404860049944
  0.7510466674419384  0.4162276411765806  0.6663739669363428
  0.8340364624038635  0.3331268668716997  0.6670460170086121
  0.0821263573953504  0.2508141477439961  0.3336492194948231
  0.8340957751670439  0.3337608234039637  0.8335696993768955
  0.0821279259009714  0.1661536185486295  0.4168847131067901
  0.9165518818612771  0.3335023071168977  0.9172349941178762
  0.9163217624305141  0.4169438056281976  0.8334207459426283