Cr  N Ni 
 1.0000000000000000
    21.1201135712910144    0.0000000000000000    0.0000000000000000
     0.0000000000000000   21.1201135712910144    0.0000000000000000
     0.0000000000000000    0.0000000000000000   21.1201135712910144
 Cr  N   Ni 
 259   9 605
Direct
  0.9980834525450764  0.0846224577985041  0.0840546603555345
  0.5829285580191957  0.2509961634703792  0.8323435165257360
  0.1673243755618327  0.2539522292806867  0.2494800005664331
  0.5830925512799887  0.3352254022537828  0.4160772651674755
  0.1667817433659738  0.0806352551931536  0.4183750905983558
  0.4999762419511491  0.2570953274127749  0.5848087070543533
  0.5790877084712640  0.1691461052177115  0.4158905183098162
  0.5804922235011779  0.1686182641480378  0.2502228746598870
  0.5849012220024981  0.3344348002167187  0.0816531894926279
  0.1608941436019266  0.2510239366718554  0.7473638143079495
  0.5015447366370516  0.4989960911478832  0.9991299515001696
  0.5000248401698690  0.2503605782035891  0.7511069195632443
  0.4942273411471823  0.5012234498074749  0.4989397619599312
  0.0822926338491591  0.1688230060941283  0.9173518720274548
  0.5837127246139128  0.4079258459350859  0.4998202143514287
  0.5843292995900446  0.1682470007949353  0.0846533690536238
  0.2512536095397403  0.1612271265478707  0.7517002919810154
  0.2508083102921377  0.2510617025515596  0.8413121570853004
  0.2481241579423824  0.2498279385603977  0.6597514967765620
  0.4978335749647076  0.0790197382977614  0.5835687919408453
  0.6712925387037010  0.0791957813128508  0.4160168903617072
  0.5860952566037343  0.0827779663281441  0.9986282639729139
  0.3344284220910355  0.8342475622753104  0.8324690174341678
  0.3338842634305835  0.8349100593707875  0.6688071476350924
  0.4989436768329005  0.9147458872534024  0.2486048460187082
  0.1602685142785463  0.4158076423982793  0.2491764414741256
  0.4998111975411936  0.0002607280981719  0.0005883645050881
  0.4148917858243843  0.2524562607942550  0.1640277097719342
  0.6675912807380836  0.6687766309285242  0.6678655136972010
  0.5859785019201698  0.0818572966638700  0.8340761443348946
  0.4160048492663894  0.5866698009273247  0.3340497380291709
  0.5837051605479789  0.9140710970594946  0.1649956156339578
  0.3325986990979344  0.6668836855138202  0.5013030860946142
  0.4987525737008058  0.6676892268538633  0.3318371930522783
  0.5841254570131772  0.7486527923460894  0.1642861831060945
  0.5826625615617093  0.8327718258352970  0.0804607882284240
  0.6662356960804590  0.5842495303875241  0.9172814015514681
  0.5834106863366896  0.4996958246563274  0.4102253441945685
  0.4172659782448416  0.8331735029785799  0.9175994654071389
  0.9995688251051451  0.8320452671748363  0.6667098948755438
  0.4998507646749473  0.5841782599957168  0.7512721006936178
  0.1674253089313899  0.9165328641007771  0.7497599357815002
  0.1658121864180264  0.0764914882017054  0.2521576293957817
  0.5836254326550117  0.8327060264240502  0.5839279079240099
  0.2503555470245858  0.9979958743219235  0.4181335878601563
  0.4996174306099009  0.6661936863429815  0.6703458658687897
  0.5835845715581579  0.5001605926208674  0.5903952688939473
  0.4990718681979281  0.5014430382768753  0.3334956459720831
  0.2478959960360410  0.0813842346256051  0.4982907258667952
  0.4984785001924447  0.5858333762608063  0.4145913979949014
  0.2476760192774647  0.9986867015109672  0.7489146905527411
  0.5821695490015959  0.5843451071390287  0.1658342685130972
  0.5840115794287000  0.4180772746282573  0.8350283276178536
  0.5009021926479819  0.6663330618534525  0.1654551484977782
  0.0804933648301387  0.9987442311299841  0.2497319303725634
  0.3330569079782394  0.8340003315146363  0.5016007280295296
  0.4997718265067313  0.5003330499778431  0.6676484336360681
  0.2500020168727585  0.1678374259814162  0.9151771569826985
  0.5000373596561182  0.6657539122687057  0.4998312354333980
  0.3304986274269814  0.3337483791660662  0.5010810356756937
  0.1656779811454425  0.0814674483623496  0.5807062164985043
  0.4179730028485302  0.5842313262756160  0.4998583769558653
  0.9999526952939429  0.9997869547637663  0.8278700412335935
  0.5820144194957828  0.5894255306919925  0.5002125697841227
  0.4162166951662621  0.4167013972748325  0.1651362337612161
  0.4162061111880326  0.8325689880761510  0.7501390078205593
  0.3341776295303045  0.8324628658524506  0.3322706120671878
  0.4159830000119241  0.2504612195068064  0.9974523495424202
  0.1670216725850579  0.5846776705227691  0.9160547254380973
  0.4974844469735505  0.3340558810579786  0.4995990941091618
  0.2480372301992017  0.4187396945723180  0.8336602968589664
  0.4162912913776562  0.1667055642812548  0.9163483868016216
  0.2487212306687346  0.4168700372016094  0.3402080784715995
  0.3334560754390954  0.1618504619747997  0.8349424519722775
  0.3392035214695039  0.2507384417822384  0.7544708601895912
  0.4153588468325167  0.8296889414459505  0.2471540976654551
  0.4165649225204519  0.0836959605339769  0.3315847326485731
  0.3313601730196454  0.2510586263022327  0.2507116958633574
  0.3345516106277228  0.0836921797295013  0.0827921933319136
  0.5015344202515545  0.0809047175110074  0.7508530746823465
  0.1651950020658648  0.9145064930772226  0.5836333592372865
  0.1662713501308515  0.6672032329044494  0.8316000297333245
  0.1688060089490684  0.7486920792399444  0.9150144379542400
  0.2516269087024105  0.8341460624222992  0.2484983869806764
  0.2502626777230514  0.0003179118019035  0.2497997097949399
  0.1653764702477370  0.2501290094299509  0.5834570256207700
  0.0807980595007635  0.8324895676019003  0.4166678558559233
  0.4155846409599752  0.2497759377569293  0.8369654686260383
  0.4978259649677352  0.0833409617481193  0.2481855900723493
  0.3334793220244318  0.2544312597955547  0.9174384070671531
  0.5823855063518431  0.0820434826287731  0.3243008280478682
  0.3313097047310023  0.2512602734859682  0.5833595557408200
  0.2505631009636735  0.7489233285704757  0.8337428945582558
  0.0843393452452353  0.6673237791751856  0.4178962328563822
  0.2509553609173382  0.7497586929154449  0.6675984196279126
  0.1673540035464712  0.8334278568400403  0.0018803449749619
  0.4148975438401572  0.0850881044527846  0.1640983021905528
  0.3390596295829162  0.4167708944755548  0.2482428627013027
  0.4156524333282454  0.9151328874095750  0.6682194563282694
  0.4155631615872846  0.6653856173107959  0.9177391316192193
  0.4171206607936349  0.9141863448958576  0.5013812221456647
  0.3321548517906918  0.4987706625770165  0.8331319794728224
  0.3325543903192425  0.0809963240634033  0.5821221829927958
  0.4187112386057790  0.6661418960712028  0.7504042192643949
  0.2493579561073032  0.3354291687038095  0.5839032581600320
  0.4153062389986611  0.7505328509028609  0.3325707571023476
  0.2496606514039632  0.4994279719515436  0.7525685685985820
  0.2501683296257784  0.6672748843295097  0.5849043692652732
  0.4176032283474780  0.5838463336591516  0.1646779644537185
  0.3329151566735724  0.4999813059167251  0.9995816024514791
  0.2492241200569335  0.5085013601146022  0.2477630742612282
  0.3315842331381079  0.6676007344832920  0.3324654449203370
  0.0837268086504628  0.4165058585039542  0.3349391188489286
  0.1656118787382219  0.5850348807946212  0.4174805216870855
  0.2504380666464402  0.5010312689093749  0.4150120594136386
  0.2481040636390113  0.3402003267046821  0.7481843878549534
  0.4174443809357931  0.4175006216827504  0.6675168361562474
  0.0821541677590738  0.5835045459017197  0.6654856708290565
  0.2499068787924270  0.5835850261903527  0.6672720052640726
  0.4168687775089046  0.9150368787118687  0.1657628125967084
  0.1660010586742262  0.5843468309190535  0.0826684752586868
  0.9160152904770806  0.3335738110401019  0.5834594452503420
  0.4179928815714050  0.9998433695525825  0.9181553046376011
  0.4149313258883797  0.9134912060355216  0.3319448317508154
  0.2493724827493808  0.6678050713160634  0.4177044412758119
  0.4162911256435686  0.1663319272958207  0.0819477282263829
  0.4136650562728736  0.0816743049261426  0.5002794714370244
  0.2491515542787456  0.9139447595472460  0.3324788662765852
  0.2510269127993785  0.5021462948832563  0.5844900648727714
  0.4145764110783872  0.3325915199031791  0.2490331921836392
  0.3333097847457357  0.6659878447220261  0.0002360932399805
  0.8335805440037538  0.1650489845335462  0.6677646309932830
  0.8334363738660772  0.3360119354022149  0.3328316179547753
  0.8349596342561363  0.3353061788685300  0.5009399404287855
  0.7512776154213738  0.1672024902920544  0.5831894224287981
  0.0834759791587264  0.4167386563262596  0.9991414378180421
  0.5005047458078186  0.8310296411248113  0.3317193224572848
  0.8329991686299156  0.1664789486689374  0.3316108248642475
  0.9989743987018346  0.1665865594385161  0.6663818799850185
  0.9988465257915661  0.2500619371757450  0.0829890749868772
  0.9167535389044390  0.1687591489409275  0.9159473038772338
  0.0012806258756242  0.3350964436036064  0.3336081401873470
  0.9992523336945305  0.1654457453194960  0.5009203905838930
  0.8313269780610433  0.0005187050579541  0.8311642895881068
  0.8325577493459699  0.2494203067057925  0.7491870883421660
  0.8338157943120799  0.9971452967767993  0.3321305985324459
  0.6637304864349716  0.8324169164871532  0.8349794378724880
  0.0821613929508969  0.3338671789257148  0.5832926440653722
  0.6670378260191022  0.9138618124708050  0.5834702489940047
  0.9998500969105050  0.4182831823694687  0.7498922893255235
  0.4982171730898194  0.9125002440365997  0.4143243058702298
  0.0002996870023137  0.3333676602237975  0.1643143920815332
  0.7508825181223875  0.8324568521695269  0.4167084137820288
  0.9988783650571146  0.0017684507418320  0.0062127659594310
  0.9147692636245016  0.1675702148816444  0.0841288358177530
  0.0813938369518301  0.4187979865511940  0.5015382157263403
  0.7502143494468727  0.9154208421620806  0.1655731931506866
  0.8322771717086014  0.0827577180313377  0.7506284330424222
  0.9158677971928558  0.7507830585663480  0.6671367967723145
  0.8311981132012958  0.8318874083479890  0.0027248920868380
  0.4996742876279535  0.1647207002823413  0.6739692658455884
  0.6672891572106522  0.1681007186693669  0.3253222310483153
  0.1674168869425288  0.7492044020692823  0.7516460567936953
  0.9985128291924447  0.9156397577436199  0.0843100930948914
  0.8313661733169670  0.8317200759658935  0.8333916084581819
  0.9989622538999757  0.9982180960384156  0.5007649533903761
  0.8322732624880865  0.9160315707148021  0.7498294810082594
  0.8333187544722487  0.9153804976900246  0.5835721886813054
  0.9172440203457283  0.8314176022407158  0.4179536153532011
  0.9149855399915283  0.9157757001875801  0.1648237155129006
  0.9162560091249971  0.8329703206615245  0.0828807592468842
  0.7485004914597259  0.7493140321796002  0.6675378878279112
  0.0828470668998976  0.9983871734239389  0.7491711601151079
  0.9995386560743236  0.5007800590161454  0.3333838755451951
  0.9143287061446475  0.5010947066608599  0.4160407149566582
  0.0001019890049517  0.1663761900016902  0.3345555240365406
  0.2490936648670921  0.2506303882817830  0.1647326169926754
  0.9984065692268212  0.9075909885931213  0.9164968036268623
  0.0006334871333306  0.7503031405502835  0.4162162544582814
  0.9177724711032227  0.6714100080500179  0.0827616835817344
  0.9172128533545415  0.5837847348680542  0.1730484565595022
  0.7477694367969349  0.6646060583147704  0.0810521607483539
  0.2539583754797197  0.1672110736826760  0.2496039993922850
  0.9164591948734291  0.4985468153205538  0.9170003233645617
  0.8330542026031528  0.6663523841138244  0.8347402116750057
  0.9161590306837855  0.5843272570082205  0.6686594104367218
  0.8344265801433555  0.5004577432986229  0.6678271250111606
  0.9163637207416914  0.4157206370590196  0.9981377521253189
  0.0826864995145168  0.9163416295601599  0.3333840842643916
  0.7505916187570064  0.4178097749979885  0.5007378168002387
  0.9166168478184141  0.4175934793868584  0.1653180967014989
  0.0876428110280863  0.9986488762377841  0.9177804710008266
  0.1639642292556318  0.3373595040082408  0.6656712086254312
  0.0003565002998341  0.2490136508162982  0.9174859716731589
  0.1675548439106514  0.9144186780236250  0.0823536972041356
  0.7492034740668102  0.0842124997679592  0.8336740482242950
  0.9989502454386460  0.6665192771267999  0.5010401441517308
  0.8349877418997737  0.5019583270571387  0.3318937003892888
  0.0817867056986327  0.6666925958386242  0.5840037607431910
  0.8330671111925034  0.4174564970683611  0.9180005522827710
  0.6676241475976878  0.9991329675612067  0.8345926953451289
  0.0809792491703063  0.5018976245378548  0.5838166980390428
  0.6698384765426750  0.1675470390111902  0.6655629865137848
  0.7483792432933415  0.9975154367725535  0.7499096093641915
  0.6705655553212609  0.1664374482412175  0.5075473830682906
  0.6687553859450170  0.0814620225686012  0.2499252524072577
  0.9992201046216297  0.7522172941116870  0.9162220077807013
  0.6655016719175991  0.0029995393442338  0.0009294341959942
  0.9090859083004414  0.9999660242159063  0.9166516756551476
  0.4992224598179018  0.8335846653040123  0.9993638946702438
  0.5844538599759262  0.8332104844288920  0.9162440114028039
  0.0840922891348773  0.8334037347863824  0.2484784227040725
  0.4996751562119598  0.9974582710486826  0.6676338532803849
  0.5000344417093069  0.9170839439029865  0.7507590148057233
  0.9998079859913049  0.9966775796399598  0.3325946737014744
  0.5819753346981850  0.8326181406370379  0.4166129959989138
  0.9999696141199925  0.8341685319288247  0.8331310394163711
  0.0817608159530561  0.4174543069717255  0.8328478935999281
  0.7602691664198920  0.1663576472907764  0.4165956712358562
  0.5842267754131477  0.0841031456832573  0.1693445499718622
  0.7484559496751204  0.5840187680918686  0.9977561109784017
  0.7498338689920049  0.2504858757188223  0.0005117328048095
  0.7493485115152190  0.6660667105631500  0.2499560823184531
  0.9162126241856595  0.6668615418029659  0.2485187514283427
  0.4961356909365170  0.2524590786829500  0.2492171966029974
  0.0759849231492213  0.1660694249887618  0.2514679203158199
  0.6686196386911542  0.3350975226873809  0.6699331700653643
  0.4971914319309593  0.1681400389872177  0.4968407540411772
  0.0000101640895669  0.2497123118710164  0.7494416597729884
  0.7481827853206791  0.3335815513028930  0.0831359688360800
  0.6649413291166487  0.7497528453772686  0.9162531793435023
  0.7513673493316413  0.9987220759623043  0.4163021257493576
  0.7495447872546325  0.7493089227538108  0.4993899628262140
  0.6679786589142503  0.6665170301704364  0.5003001830274006
  0.6687068964252796  0.2590464855088411  0.4161726913076307
  0.8316643737715196  0.7505381920951265  0.2485698343288767
  0.1657170706259782  0.5833871046171508  0.2498902645692083
  0.7498392931969533  0.1683417915434121  0.0838347685300616
  0.7501454941593804  0.8332920859810943  0.0816451629022297
  0.7498228681499594  0.1677550707681164  0.9160300030106122
  0.7514158409400113  0.2501488982820581  0.8338646629758216
  0.1679038072682584  0.6679508712716626  0.3341270740969986
  0.7511139322313251  0.4170385637397112  0.3318548835040798
  0.8328648237941378  0.4171300545778883  0.7506578495841347
  0.9976879587216764  0.5843210462429036  0.7490770391450456
  0.7504018200497579  0.5010056206913164  0.7518120356805879
  0.7489854360018802  0.4160838956973930  0.1666710746358888
  0.9989992402207333  0.5844689169619871  0.9161145019420807
  0.2492400076220238  0.9984144794664853  0.9188756375059303
  0.0847425957770115  0.7507890880512057  0.1673158493790598
  0.9173546722474089  0.4951777866522088  0.0810609033117371
  0.0814431230216822  0.5851825500173610  0.5008450425331842
  0.8337323904645092  0.5830258905168548  0.4160548871808933
  0.7528357777535586  0.4187117959183246  0.6672126961409527
  0.7497306127560565  0.8319309572137321  0.2490859164026948
  0.6662014591464565  0.2510719494208756  0.2503772017054710
  0.6739180157516945  0.5000792034765741  0.4994880315899933
  0.6660866684481237  0.4175343979878008  0.9157760444303931
  0.8332973365601194  0.0009537636932654  0.0007324623812885
  0.5839758432296653  0.4985180501208959  0.5002927160907067
  0.2497150629960860  0.2504857327707403  0.7508403921126094
  0.5817609776379277  0.0794078398053325  0.4138588723291423
  0.5006198799412005  0.1680702260799187  0.5850120013140047
  0.9177021361373955  0.5840153150792032  0.0840031282677515
  0.6706851703999860  0.1702006798780529  0.4167072119286047
  0.1647012875966880  0.1657107278091264  0.2510684167349970
  0.2491038558623274  0.4199544445249199  0.2499398198503354
  0.9988757971870852  0.9986322697185621  0.9168209338256755
  0.7504769132892155  0.4170915945843887  0.8335134452398663
  0.6659267142174273  0.5829200306272256  0.0829716268945812
  0.8328743997960044  0.5834065390846951  0.9171004997454590
  0.9981904169027501  0.4181812388239541  0.5830010003147211
  0.7487580296464510  0.5842545730098425  0.1663047482855777
  0.5819429406649829  0.5009984100280346  0.2498533683744528
  0.9987138048997251  0.5020091188999295  0.5002155410722817
  0.7506007745315185  0.5014691806831036  0.5850207050611647
  0.9171850793989570  0.4173537950261544  0.3329772001309317
  0.6661487826296966  0.6664936328771703  0.1656136188867361
  0.0844247347985717  0.5848245348633064  0.1665790191210509
  0.6679612141531595  0.6672190785616048  0.3319025308774933
  0.7490060178378000  0.7490608239084118  0.1656149322070471
  0.0008473597386765  0.5840003382134535  0.2495861316034058
  0.6670067720950962  0.5843018842526365  0.7500322159073651
  0.6654996309242961  0.6663267000653743  0.9997081685700066
  0.6662329121408447  0.7494331283776033  0.0820097675849097
  0.7497173755073661  0.5841201665897375  0.8346247693150579
  0.5831451036720019  0.5829234595404491  0.9989208426023661
  0.2492512169216995  0.0822985266371730  0.9993053600410293
  0.7497760783871812  0.5844663007430094  0.4997119909153734
  0.9160147731923459  0.7496862718688296  0.3332707265228718
  0.6672508268693412  0.5842128158064270  0.4151920364973163
  0.2494973268459671  0.4180774580473846  0.1615792058942179
  0.7506254215939064  0.5832803572829451  0.3327922339380132
  0.4167954491214587  0.8329478885180449  0.5844320149517951
  0.6677884022203863  0.5848283156279943  0.5853769213332110
  0.0817349515597149  0.5014204082962700  0.4174307109092379
  0.1669557723859128  0.8340464914104750  0.1661809916766192
  0.6668891021511826  0.7497307136032199  0.4163840342114852
  0.7503746976096451  0.5836437399501354  0.6684763296937389
  0.6681409350581681  0.4998297932681905  0.6685783487273220
  0.6666302884577855  0.5005282774707458  0.8343167336188797
  0.8317626473859573  0.7483960571546004  0.0836035070995277
  0.9987531325260397  0.5842707148448453  0.4161784302537738
  0.1665126956249678  0.9992642114817332  0.6656164364355929
  0.0010997585652910  0.4997596496444867  0.9989391297096579
  0.2490543893883093  0.9983698518137004  0.5822156635418645
  0.1660323005217161  0.1656821497078341  0.3403539558369285
  0.5831394690569586  0.5847957547740914  0.3323731829819748
  0.2498579656017781  0.9170114878740083  0.1663259269560430
  0.6670969682876073  0.4996968790671272  0.3320998656654786
  0.5839031801195709  0.5005589403462835  0.7499432091104830
  0.4994169485599018  0.5849012425047898  0.5852076764833991
  0.5834466955833931  0.5845800691516060  0.6679501174805926
  0.1647238442202839  0.9971090612143019  0.5006443351625334
  0.0820112179030939  0.0823632650519978  0.1663158872601232
  0.5832469261133009  0.5835735137268401  0.8334180257060476
  0.5839067545236281  0.5005109712689640  0.9162906397501794
  0.1664818929977498  0.9996641492311327  0.1664436214732500
  0.4995513237452864  0.6660232030445816  0.9985070777847166
  0.4994079007258948  0.7489545045410648  0.0818906001803835
  0.2498203607258168  0.0806270537020648  0.3350880047720485
  0.4989327062083028  0.2521467694885847  0.4169281759933912
  0.1660551226877538  0.0816733050716892  0.7502167611023168
  0.8322488486277274  0.7499372233710256  0.7509980100113463
  0.7502701906622506  0.6669920782913589  0.5841473398592097
  0.7488113116571675  0.7501117448271907  0.8338352349974276
  0.5815732902730933  0.7494441900205538  0.8337881030937621
  0.0823116063457743  0.3339488417573846  0.9162687624630719
  0.7499030996222747  0.6671503862754292  0.7513401830358798
  0.0001394782104011  0.4169351998794838  0.9169132500289121
  0.6660722355436540  0.6665608516685279  0.8345610973457571
  0.6675764364967514  0.7494675338483395  0.2490913834591745
  0.7494373103219004  0.4999980892059244  0.9158779186990206
  0.7500735549323845  0.7499660117253643  0.3331929136338078
  0.6659601274244840  0.8322396991757786  0.9999347737044232
  0.6662613363623640  0.7493809167405870  0.5834176593488700
  0.7491048982580124  0.7490822593473609  0.9999887988342707
  0.0839258169399450  0.4999002936638476  0.0821568926375978
  0.6669952819809009  0.8316299661232033  0.1648234907276864
  0.6663636331818087  0.7498397223504590  0.7511918726870740
  0.6685137751338397  0.9136976392407836  0.2477529163824104
  0.3329133479821838  0.9151904277822484  0.5835579491317738
  0.1653862573921702  0.4172973775278630  0.0810873646280845
  0.0836515868410183  0.7511027081149568  0.3326975385056182
  0.0828847538092330  0.7505079148248542  0.6671873127350963
  0.9994438825216391  0.8326881758731590  0.3319787423925856
  0.9987053903197253  0.6674809366229310  0.6663920117457660
  0.6673338634874634  0.1683329818268225  0.1681941863226131
  0.6665837654555682  0.1673611542054590  0.8334256177312408
  0.7514398091804958  0.1674946592516831  0.2497985421537216
  0.9989034852013100  0.7498899150108640  0.5834275555805367
  0.7507425981209578  0.9972943867610583  0.5842976052734919
  0.1666956384144719  0.6677331619807934  0.5015219118949921
  0.6668821631364152  0.3340605425799193  0.8335104882284546
  0.6676202535705256  0.2508303859599681  0.0837654291143866
  0.6671945462210505  0.9975586558182964  0.6663939866661216
  0.7513082438255104  0.3350160464225619  0.2491054097180533
  0.0815182065956652  0.6672037976718939  0.7496249310950236
  0.7525980927686516  0.0805644872814644  0.5013347362468177
  0.7510132485427826  0.9992415340246432  0.9171091998835492
  0.0835994275973470  0.7497839346739411  0.5008260054067279
  0.2489009793413784  0.3344893565261294  0.0812976698670138
  0.4991803655966534  0.5841750157443980  0.2496528910385624
  0.5004575081864442  0.3333920918958204  0.8341815766639916
  0.2495138266787773  0.2498911141360022  0.9980192859931533
  0.5836032499503262  0.3340442092038921  0.9156175624991457
  0.5009767144755674  0.5005384610836718  0.8336963472659984
  0.5008139417559319  0.4173978176280304  0.9167449971842651
  0.2507199543665069  0.9161962586928811  0.9999833701593250
  0.2501669563584245  0.3306917932391600  0.2496651250464068
  0.5825309798964516  0.5002722661378814  0.0827226864238476
  0.1655511575287845  0.3329156419808469  0.1650867027968568
  0.5827742936323671  0.6656877085720105  0.0828768122867301
  0.2491506442275591  0.4193443309311914  0.9997177432241318
  0.1659221941107980  0.0830647882643708  0.9170114348198297
  0.3324269625501916  0.9175839920758062  0.7518463737398353
  0.1660031755198390  0.9998143272029162  0.8331805452232709
  0.4167660393961063  0.7498367167774843  0.8344031671062766
  0.3341090364814472  0.9166907174384077  0.9170303302377599
  0.7492247103195019  0.9153087749291704  0.8353886866160344
  0.7495336887807375  0.1668751576545735  0.7499111214720475
  0.7522860311409854  0.3346015243479885  0.5848304372667699
  0.7483588489994447  0.4997827197783739  0.0828549428311087
  0.0819489247746397  0.5846808613739065  0.8334565538492660
  0.6688515334548462  0.4157128379266676  0.4151517106107091
  0.9995261874128818  0.5007022615240004  0.8338409902221851
  0.7512282261882128  0.5002767399324652  0.4150379862870107
  0.0007297026393452  0.6679357730998031  0.3333925822253404
  0.6685149656655814  0.4166936347114942  0.5856388025800217
  0.6657677922415377  0.3337996698234332  0.1665663329103717
  0.8343889505851861  0.2502711154580118  0.5844400331560629
  0.0851709987501828  0.6680978485601718  0.0826312803338486
  0.0824144051949526  0.5013893790571411  0.9160168499846442
  0.0008745543076519  0.6682124729204868  0.9988130921562189
  0.1661409086610960  0.5835734638814204  0.7494004490717769
  0.6672209460056122  0.3342298636882891  0.3309418626226921
  0.9999931325645165  0.7502635512293898  0.0836685316418809
  0.6695832578242132  0.3349680226535737  0.5013215634806861
  0.7526245099287739  0.3351020603755832  0.4161158263600450
  0.9999569902513581  0.7503412881848744  0.2497099609958607
  0.7528541500777184  0.2521623106971301  0.3319851564350968
  0.0010300275350615  0.6683364730943772  0.1670787193987313
  0.6685435509808240  0.2529375139676359  0.5843636381584639
  0.6668900247211544  0.1675516999693182  0.9997826972042083
  0.7533597797570351  0.2520420592239830  0.5008858565185799
  0.6669545201302638  0.3333006080201865  0.9991539782691692
  0.6678599152300261  0.2504036355410966  0.7511008642170730
  0.7490333512184174  0.4165846685613713  0.9993908038448086
  0.7511177707340260  0.2508379677810175  0.6672573791173945
  0.7501221441163326  0.2509815433940371  0.1668891866953014
  0.6663858040230304  0.2504254614173602  0.9158033695161893
  0.5821716266132108  0.9923089813224646  0.4150853678642236
  0.6678536325638401  0.0835426911920502  0.9157044901044482
  0.0840529522565218  0.6676716907713885  0.2504134529924607
  0.6662358189538653  0.4163603406693828  0.0831897196646441
  0.8337505909924695  0.1660505837383337  0.5015930385198744
  0.4992424542298833  0.7503561159655727  0.9170887869689645
  0.4165065140898367  0.9988846103293868  0.7507966093422120
  0.9986738199085458  0.3345171627134162  0.5012997000481474
  0.9172436610685527  0.2499649696569444  0.6668270754693407
  0.7506671939197341  0.3339435474158192  0.7515622004410712
  0.6673415463884050  0.4173266294736180  0.7510334184859793
  0.8339729968151792  0.3342578839350199  0.6678927177209403
  0.0807195018020947  0.2503167776195849  0.3352563344400322
  0.8340130067291835  0.3333722656969054  0.8338084707145414
  0.0806483335555682  0.1657888016158718  0.4181983366988667
  0.9169347112224500  0.3333517983514823  0.9159698484589318
  0.9166679185669935  0.4165832514281371  0.8335910419677567
  0.9979428692549712  0.2503128569582415  0.4176885197783221
  0.8283411020832908  0.5832252584519232  0.0836408717790752
  0.0055251987702654  0.5839175944729057  0.0829267801657250
  0.0821461397879613  0.1655883557921861  0.5824295385803744
  0.8325610190463817  0.4993999574795636  0.1661121586774466
  0.9160554027282454  0.5841219564501503  0.9952261718342975
  0.0830180125364616  0.4164951993704815  0.1656128426192160
  0.9158057062408882  0.0841088834220517  0.8324340844920238
  0.8324629644008428  0.7494339738195152  0.5843109634368674
  0.9153208802933880  0.6672278409513313  0.5844646730411150
  0.9162862493658647  0.7501969206516886  0.4998149212249475
  0.8328249057706909  0.6674256170751693  0.6679490654223126
  0.9160394991781494  0.7495460406779640  0.1661119717957918
  0.5851542783832288  0.1664327355439663  0.7504439970905493
  0.5000627259723782  0.8338996665460168  0.6675275780855510
  0.3343420660961777  0.5018095953344851  0.1648091078122919
  0.2491856387478306  0.5847043560074606  0.1641318888363751
  0.1651686051584427  0.5017758221839402  0.1652027450010704
  0.2495112276720256  0.5836718221877590  0.9993144653762940
  0.3336674582608489  0.5019828403081872  0.3324629475676074
  0.4164001146230880  0.5824046136640779  0.9990702883634391
  0.3330767642912924  0.5017551448363152  0.5008288650707450
  0.4175185340759958  0.5001792663577930  0.5846427336845094
  0.1648367618547734  0.5016586657307898  0.8331519794631537
  0.2491624788287258  0.5015683948684926  0.0816268121807702
  0.4150307143199680  0.2509270736461040  0.3334829749118768
  0.4146540754657961  0.1667450840316528  0.4173948111301826
  0.7499916474115661  0.6668219664498403  0.4167935427779048
  0.3335998214233376  0.9997609544005447  0.1661049372337027
  0.2495966612409588  0.7502682107223200  0.5016078161616853
  0.1649679198853783  0.3335261893141957  0.3353222388229113
  0.3328169880825707  0.5846005945025772  0.4173581107986322
  0.4152156002503284  0.5004505234411621  0.4156752081338588
  0.1651540065142907  0.5014894773930422  0.9989950595122307
  0.4142744184121227  0.6692024239812177  0.4169900070982704
  0.3343186896965778  0.5832236697196664  0.7504705723187473
  0.3337036247000729  0.5831353151414749  0.0811350037276359
  0.4174634243593776  0.5005877332627534  0.0819503192548123
  0.4156379090265581  0.4169485030669784  0.3327265004832191
  0.4997760475455064  0.5009181953226406  0.1660354256351876
  0.3342290535711842  0.9149738087268419  0.4166639567804431
  0.9160155019565811  0.7510227188579895  0.8338674525343430
  0.8321419762898703  0.6671351632007465  0.9997424099591407
  0.0821585195539291  0.2495251258873341  0.0001625981521054
  0.8319277999196584  0.6670591349548650  0.1668600490819850
  0.8351249878921109  0.2520181262164087  0.2503618000980967
  0.5835784553679250  0.4165298756161444  0.6684239614048798
  0.3319079676900997  0.9996204476260804  0.8353381038477472
  0.2503676536325574  0.7510154103326877  0.3329487607785007
  0.3323976695476756  0.1661299606667465  0.9984828418419829
  0.5008004186424042  0.0841373482774991  0.0834947183963367
  0.3320480857193793  0.2507645395239169  0.4181006850249350
  0.4156374591342972  0.0806896158697514  0.6681533595633673
  0.3328108448995556  0.0820998921179812  0.9183425824241261
  0.0828779773706770  0.5842790990318437  0.3337556751486751
  0.3331210753605759  0.2497966271342295  0.0808500135987018
  0.3327632679875791  0.3345895563193308  0.0003822212223362
  0.3323880953697765  0.1677110253456154  0.1657635001284178
  0.3343312493635283  0.5848952330406886  0.2486614580053630