Cr  N Ni 
 1.0000000000000000
    21.1201135712910144    0.0000000000000000    0.0000000000000000
     0.0000000000000000   21.1201135712910144    0.0000000000000000
     0.0000000000000000    0.0000000000000000   21.1201135712910144
 Cr  N   Ni 
 259   9 605
Direct
  0.9981267904516556  0.0834643615209296  0.0839819628376902
  0.9171131976064896  0.4165401548829989  0.3326799255931882
  0.9176001770472012  0.4166870531162736  0.4983599317499832
  0.9169161812218691  0.1663589939928244  0.2497942976091369
  0.1681070331589376  0.1648402331049806  0.1615797962438535
  0.9137257539762812  0.9146485678995026  0.8305731061144245
  0.8325949746798755  0.8317314831227360  0.8326984494534369
  0.0002204253406802  0.9983033521962000  0.5007263464220408
  0.8346870458061211  0.9161191883139521  0.7490416606903355
  0.8334331177246631  0.9165385763876285  0.5827261352396838
  0.8344974483589489  0.9156882830713595  0.4159879591579587
  0.8333644482378932  0.9156711799182707  0.2497610518619699
  0.9160061987565081  0.8321086752761802  0.0829965977099873
  0.8318871375203093  0.7504892495490093  0.7500626595539064
  0.0826035476064383  0.0824244053297344  0.6662900653012321
  0.9991826143015511  0.7504966691648907  0.4157863450629492
  0.8335940164943367  0.4999869025004194  0.6673309265157973
  0.8336614937245407  0.5003242853612628  0.0001700416700653
  0.7515892215015818  0.4169392453563253  0.5007713398077412
  0.0878971806865062  0.9989098154069878  0.9172889936118759
  0.9167856181021363  0.7499832265723624  0.1677775248537060
  0.9160953795175014  0.6664843638205332  0.2491968388125985
  0.9169120101608963  0.6682550781946297  0.0853678999237158
  0.1667058390207844  0.0773265245767212  0.2503917562378129
  0.7506895755438495  0.4997803237043287  0.0825688992675233
  0.9159790594096662  0.4994990580841001  0.9172285660787644
  0.2490736763738727  0.9153385054750141  0.9988935246122154
  0.7487161772682484  0.6693691743223498  0.9173026616384745
  0.9989888629637048  0.5835497611713700  0.0843616828831553
  0.9170407900748090  0.5848862141913748  0.6690335495926844
  0.0843098369569824  0.8337831428148387  0.2498673639438198
  0.4989624512729823  0.9154042907465286  0.9161408172503392
  0.6664663647254586  0.9994542814138776  0.9989165497213183
  0.8342700668422233  0.1667364305137241  0.5004006321538209
  0.7502418999511870  0.5861911770793775  0.4993458041673930
  0.5009686292238286  0.8340649086321869  0.3321901218561492
  0.8334947520056223  0.0007410612737996  0.0007829076236933
  0.0011517713456362  0.1673859741687044  0.6671399538884188
  0.7509580754913584  0.9176482237153971  0.3341755343710587
  0.9167656266435573  0.1694201179158433  0.9175324092897247
  0.6700418024886455  0.2537853511798578  0.4178916263058080
  0.9990744584462640  0.1650806314864304  0.4998990619308871
  0.7485213951607086  0.1675680416247670  0.0818434089805786
  0.8342060668988155  0.2491639240879932  0.7496486008366311
  0.7488914795034610  0.1674941232647622  0.9139084639503560
  0.8338860315337790  0.2490392131305394  0.4169624569511128
  0.7513873681907646  0.0848462516889279  0.8336453870954516
  0.0005948639955633  0.7486421882054900  0.5829057406161537
  0.9997232046870539  0.4167563396409944  0.7510499105164941
  0.0823431271061142  0.6673666937439096  0.5841561261875655
  0.9989817222304305  0.3343261991207734  0.1651749509901115
  0.6655274896268942  0.9990133883527558  0.8321296886627481
  0.9121046773352531  0.9984242554688155  0.9153604210764126
  0.7509325883845305  0.0832022046868520  0.6680936204543012
  0.9986263211246759  0.4172667560788805  0.4146691863341621
  0.7497824884641631  0.9977239588105651  0.7489019421438254
  0.8335584672689141  0.0851575190563505  0.7497874625072952
  0.6669263344192831  0.1643414723886913  0.5055032172115100
  0.6677955071151411  0.9153578595977997  0.9167154294035031
  0.6681810762106051  0.0821505095037086  0.2512627594125807
  0.0792925873383979  0.4185533267168246  0.4971894089134036
  0.0011646030848344  0.8329050965610597  0.0024934762149810
  0.7513622570473915  0.6669020154075991  0.4182937833776173
  0.7511883890816050  0.8364267882759245  0.2500859721302582
  0.9978050361203427  0.5830563121031239  0.7502432365608939
  0.4994662872719877  0.9161253294660339  0.4155967098133315
  0.9977057658661045  0.3348341875401412  0.3322455662008038
  0.6684539110194682  0.6691684706666893  0.3327086242536403
  0.0847383880511693  0.4994383641451072  0.2493461636371808
  0.8339723174783693  0.9996128436668350  0.8318839272723955
  0.7496792608421624  0.7494861402008388  0.9992758542270191
  0.6671534820228274  0.0825573010360063  0.9129206463693402
  0.8342985594868040  0.9973533330961220  0.3328273082066961
  0.0831462439234775  0.5850817147304855  0.3325080963500468
  0.7522797539144579  0.5017979750953847  0.4167206642210319
  0.6657181326751358  0.8342615436904676  0.8344244508412232
  0.7494379280288219  0.3322868811100003  0.0832425405138172
  0.6647169945917816  0.7503496314078552  0.9171765478672154
  0.1664738797815922  0.9164533036597589  0.4153914110812790
  0.6681833234874800  0.6676020725348681  0.4987036282382949
  0.8344405770186526  0.4164879590803112  0.2483655368121070
  0.0801624592366431  0.2478322238541588  0.6666480542006837
  0.0831398810728467  0.7494132944570171  0.1669426387445554
  0.9998278120947096  0.2495915999193463  0.9186781468219792
  0.9984658958296710  0.5848863346645929  0.5836746410144642
  0.8342307457812101  0.1660898572930454  0.6690317968334099
  0.6671292699682151  0.4163334114467034  0.7482673405390491
  0.8339069662128026  0.3340323116210620  0.5007625804643717
  0.7533036189392583  0.3337145654294368  0.2501318774379709
  0.0827995954970909  0.4175636450238273  0.0005406042980304
  0.6682003987563936  0.4172540001699508  0.9156679043474466
  0.8357286004946948  0.2499735543107001  0.2496797033144535
  0.7505062139274482  0.5000604096275068  0.7503744327880398
  0.9158043622046181  0.2500552169503752  0.9996832589585299
  0.9966846578566272  0.5833987547634436  0.9182387848844329
  0.7515779187956961  0.7491536347234735  0.5005823838781659
  0.1664736403657124  0.9146075037985849  0.0817244538867517
  0.6672864423936786  0.1650088363859042  0.6690720008346186
  0.6673479722383296  0.3353764221692361  0.6689810091616901
  0.7510114258589118  0.8332424909571090  0.4164553130929057
  0.8343950682515842  0.3346994774433116  0.6675177865316689
  0.9168064126555123  0.1659922960520613  0.0829888782695264
  0.7516199145405997  0.4176415340591747  0.6681061079688855
  0.6676638045485307  0.9161251408104867  0.2479700954188555
  0.0001192178007832  0.7508368778179828  0.7500472548003940
  0.6671753171456462  0.0832654240851218  0.7517322174376095
  0.6670921085129944  0.0754901505517506  0.4170268019632299
  0.0840452289901362  0.7488976485151887  0.8338225510370256
  0.0000990607663847  0.9145102420847993  0.0815273745780103
  0.0860787978808023  0.9162784458011966  0.0013775307001958
  0.5831206414241380  0.8361759512651652  0.4171823199622568
  0.5837668762373740  0.8329967594980981  0.9167080717392556
  0.0796833342746786  0.4175261276373450  0.8359143766463116
  0.5835231407007587  0.9153819124179348  0.6672231701091178
  0.6664919521769594  0.0000466891941484  0.1654341192278203
  0.9988255353512754  0.9978002147222068  0.3330356162312345
  0.6671271359668427  0.2503243266702478  0.0831527067484018
  0.9998524480306488  0.7517762671100128  0.9172613375540821
  0.8342291175268706  0.6673815975686164  0.3324097950776131
  0.6675953228956237  0.1652936928694619  0.3245010643385542
  0.0748673416796972  0.1662509285554070  0.2509330342771865
  0.7516000037564533  0.5008840732235724  0.9161763552431185
  0.8353540030151335  0.5002446581028184  0.3319542634104336
  0.6722320693374427  0.5839513777338290  0.2504471012839704
  0.8321215573462323  0.4184875363897798  0.9181742648016329
  0.5840549025153844  0.3359292374365260  0.2486603843594589
  0.9158557619638253  0.4178875572631466  0.6679525097351636
  0.6663881900699103  0.9148379790552458  0.5851452291328771
  0.1662838518677685  0.5839087289483785  0.0825821596264383
  0.4981101278548810  0.9147673597444054  0.7493757958248385
  0.2487836239901006  0.5008508648944379  0.5841483265424697
  0.3324376242733306  0.1645274031010054  0.6686202120277961
  0.4950476433599614  0.5835044647619418  0.2482830017347514
  0.1665100546394570  0.5817723042113617  0.5841150909121628
  0.0008120205646299  0.8315733055291645  0.6657625642320149
  0.3330271983989837  0.8329504806187440  0.3335572991480888
  0.1672681643836587  0.9166708366274339  0.7501876628097096
  0.4142570953914865  0.3343432956732462  0.4187328847103878
  0.5844801670776379  0.7494292422144112  0.6675848506590867
  0.2493781968363473  0.4162009843707193  0.3326496792899720
  0.5002994705812990  0.6647878467031593  0.6687052020745313
  0.4145419910318656  0.8326042262121873  0.2477652674846561
  0.5836079979514192  0.7513575206294061  0.3330711965019200
  0.2501220932036485  0.9142061566537012  0.3322089563251422
  0.5837280691634303  0.7508145651821450  0.9996570637685950
  0.4158829330422571  0.8330268288733574  0.7476435073722117
  0.4156433321344953  0.6658879595698978  0.9175002178244799
  0.5019452784986813  0.5012170581940945  0.8329321224253921
  0.3334797947030200  0.6676070983778273  0.8343493356867344
  0.2484432747672158  0.0834818359158290  0.1635404412201775
  0.4175207355284581  0.6660168039727250  0.7510139843917677
  0.4982119423763073  0.4999943011755393  0.6686715219593624
  0.2503548479072299  0.4175098408926196  0.6683958267472102
  0.5815534376005055  0.5813414137557179  0.4991563518913448
  0.4170086863653664  0.7531391948162909  0.3313488562005892
  0.1655773344996594  0.0838469017674909  0.5827617833589017
  0.2482380399457887  0.4975044466018331  0.7516661637413399
  0.2484721388437534  0.0825551124992203  0.5008736861135209
  0.3291088143857140  0.5818991616869101  0.5858485050009422
  0.1658803144809502  0.0831132659710940  0.7510217623449249
  0.4183047604771531  0.5829619029186710  0.1637205613849176
  0.3319287774761520  0.4993942750703637  0.0004363343611316
  0.3348219951262483  0.5844944769002333  0.2483543965097109
  0.1658022689481919  0.5850599744504399  0.4155481037617148
  0.1620600253892853  0.3363477904798108  0.6696077573156352
  0.5009897783406576  0.4170468767608408  0.9172495026254958
  0.4997409988198168  0.3346334133828642  0.6669907081537177
  0.5832945593325349  0.4165185839261954  0.5021105287107600
  0.1648473309676368  0.1661246765089065  0.0006312528642683
  0.5812125683157167  0.3434577950407758  0.4186358079945412
  0.5827466943955332  0.2521759982589786  0.8324784842193461
  0.1657936335316652  0.2557566805515332  0.2498909944403401
  0.4930877200690489  0.2504167617614579  0.4187989309072582
  0.1675402159729153  0.1652471869691126  0.3395273801503333
  0.4982233268111527  0.1635413675418033  0.5029954159791878
  0.5769145539389026  0.1649833636763567  0.4192912812057156
  0.5835634632877087  0.1649885992062994  0.2501359032148983
  0.5838564663094253  0.3326669146584382  0.0814580565369088
  0.5842506146735554  0.1665459903696123  0.0823831475637733
  0.3344413330812350  0.8340168265104857  0.8328541974289713
  0.3310298071024669  0.8341105809467885  0.6668371100177310
  0.1664109757971790  0.4171711852437519  0.2494537386066222
  0.5013169882463695  0.1673249584329750  0.9992496409296305
  0.4996931207577151  0.0839292399401712  0.9170607552904415
  0.2491335302147552  0.1628059620885831  0.7503880484773365
  0.2510020020614399  0.2490541862669088  0.8419321418005881
  0.2497076557001822  0.2508490437371035  0.6643805158849219
  0.4976487760381405  0.0841084850817685  0.5843465984983908
  0.2487116893041106  0.8340133987978369  0.2487876218880273
  0.5835994645283725  0.9995862708170759  0.4185774503783820
  0.1657068582296811  0.3352779339688023  0.4948488512988671
  0.5849026111133822  0.0820631016870054  0.9978574380226717
  0.4172382726267297  0.2507293878666349  0.8340149009251075
  0.3333069327681070  0.2491960142094172  0.9181086799345312
  0.1664437609729202  0.6660775520936297  0.8340993223780945
  0.5813707563971225  0.5806270935730203  0.1585743917284845
  0.4986211631652042  0.5838325906486228  0.0828868415950937
  0.4157606997850731  0.0826074890392020  0.1634832058846344
  0.4157759666445680  0.8340485355266897  0.5861226135087639
  0.4168729562325042  0.9989199359464975  0.0844964877938524
  0.2499212659399729  0.0840835647236796  0.8330077223950831
  0.1665759575326342  0.9159850907590934  0.5829616860603034
  0.3323588897182720  0.3346556306536679  0.4985951413065833
  0.4152980298998257  0.5799720124901805  0.5005594736283185
  0.4147615961417344  0.6681732898000752  0.4115328255153558
  0.5852511448436960  0.9165029460737854  0.1662515925951476
  0.4157097755329340  0.5839913118262499  0.3342649275836037
  0.4137749242581886  0.4168838955475907  0.3318713424045305
  0.2474883333112334  0.3424363825063165  0.7508165811967703
  0.2483287845394152  0.5004824234315316  0.2479738467080891
  0.1683171966492271  0.5822537378856656  0.7519670830109162
  0.1649512316087376  0.5027246722590203  0.3330474232391230
  0.4186191147239761  0.9173092227324140  0.1669028693999058
  0.2465957455801139  0.5013789095936564  0.4139842385808230
  0.1651970878804125  0.2464170943306100  0.5829164429457343
  0.3328868904267983  0.4159153845299149  0.7518051536366755
  0.4152067850033641  0.9163191419876345  0.3316661918581331
  0.2500073732562584  0.5828148834791842  0.6688824615503367
  0.5018958097095428  0.0840916939423043  0.0812734328711781
  0.2486436149982916  0.7487795503436321  0.1651826749871237
  0.4157829440794281  0.9155582157433233  0.6668797327476679
  0.4163923701195841  0.0002359949563469  0.9175207320856706
  0.4158977935494585  0.9151248789466285  0.5026804595941854
  0.2485637586635692  0.6677602635998882  0.4156936321402264
  0.2484329869436146  0.0826397641792107  0.6666321041843360
  0.4168525359017883  0.0833371594337776  0.5014997566104169
  0.4987041726626276  0.4985016059074062  0.1644212613020905
  0.3301344315809192  0.4179872994399281  0.2485598843047475
  0.5014650253854709  0.9166869928720556  0.2493382844745898
  0.2501837361800190  0.5824924219078033  0.8347177749618393
  0.4169264988180037  0.1660892381906393  0.9177215477068691
  0.2496273574299495  0.9979827757060834  0.4174676469886165
  0.3352805816669345  0.1651496548230079  0.8342669204109386
  0.3395914956322914  0.2505201993429819  0.7528400795868675
  0.5832559923164568  0.5000088364369926  0.5837111034940946
  0.4153844930812227  0.1594499674064863  0.2486354404097704
  0.3277521396994455  0.2513868484845672  0.2484983812487848
  0.5832691442873786  0.4983461859152768  0.4182140687587337
  0.1656422865754213  0.8327530683847165  0.0013429676275389
  0.4177703466709003  0.0820857194583125  0.8345409004720518
  0.4996430201007900  0.5827527470502119  0.4156852066915658
  0.3326658297587183  0.3351001156962038  0.0001579789579286
  0.1677371185793822  0.5842883825680592  0.9162539319427543
  0.4995585004112849  0.9165353643012845  0.0846947700213403
  0.6670402361616928  0.6674585236759145  0.6672240607505078
  0.1665862350176663  0.9175767897665319  0.2498739178069136
  0.9982524940522369  0.9985197606832947  0.8272547665734423
  0.1675214209678085  0.7482822240415092  0.4155097240254622
  0.5049699277498665  0.6672428511488607  0.5000425617546458
  0.4171353463435272  0.0824398754508247  0.3331758241115251
  0.5861185301195058  0.6735997056248676  0.2500306512926419
  0.4160732763254044  0.0001128661934533  0.2475260648744640
  0.5828565808448662  0.5829935968276220  0.0009672406131397
  0.2501751833349451  0.8328807475597341  0.7504890409872063
  0.5832586924207386  0.5820293322017521  0.8337043389910305
  0.2499703342619676  0.7504859790506564  0.6666313307677995
  0.5007121938672828  0.5839796975075461  0.7522640279495882
  0.1665754364217150  0.7486712240399878  0.9155407682476844
  0.1654004461057506  0.9988944135927857  0.3345506013566409
  0.1646567999780594  0.1669100196355283  0.2507929929154499
  0.1644772861328151  0.3347377205431182  0.5820313180275376
  0.5840955036488764  0.5837288613417220  0.2478437036496687
  0.2490725454844243  0.2530772540345559  0.7533022462632806
  0.6681768441697007  0.1635345144656286  0.4150964433484147
  0.5810051813040675  0.2556879997763611  0.4178927867677851
  0.4164312122760521  0.6681277868608335  0.5005399468754379
  0.0005663755928076  0.0012195457513544  0.9151960307193386
  0.4144546263243831  0.2478011878451731  0.2473260232096304
  0.2497323916950324  0.9161020564520461  0.8336878592239598
  0.1659563960669578  0.6665635399889830  0.5003803377073108
  0.2498803528696815  0.8324121915221273  0.9166645564876442
  0.1671044627000881  0.8325672891129673  0.8336977706232903
  0.2507842405351026  0.7494436551332259  0.8337745994171889
  0.2508215612631890  0.6670597036797642  0.9177330546102509
  0.2485202236114158  0.9160889440829473  0.1661954614918923
  0.1658733795841910  0.8326080488706744  0.3331454294708311
  0.2481479051014369  0.9157750516663766  0.4994316836640996
  0.1665277192289912  0.8329195668214460  0.6670342553730485
  0.0841095699509832  0.8330207066905899  0.7501266894358389
  0.1673016821744386  0.7493413995418865  0.7511893988287121
  0.2487565166894458  0.9163083322124366  0.6670716249735348
  0.1673182343845536  0.9151593557802515  0.9168822713168602
  0.2504917987175497  0.6668140996003563  0.7508437473643946
  0.3326181442094192  0.0822581209511659  0.5833456418546965
  0.2486967943899017  0.8331459294416640  0.5837875177094598
  0.1658693459085545  0.7493539198701440  0.5842898579060199
  0.4158452370373487  0.9992296207940724  0.5837976528171068
  0.8335149747332168  0.9163535292808259  0.0829436542115355
  0.0830750220267743  0.9159508975419384  0.3336347020575116
  0.9151914413701977  0.9157945988523927  0.0000857848181681
  0.2486202519703139  0.8333376588007221  0.4167363416342985
  0.0003034408432978  0.0835695489462275  0.7497800299946318
  0.3330433071637299  0.9170383427443574  0.2478650408001553
  0.8334446519238111  0.8328432912434803  0.1661141852719862
  0.1659563112822710  0.8323935190106316  0.4996452703399719
  0.3329406724332765  0.0824944722049324  0.0821070086679944
  0.3328635829225632  0.9989545421815536  0.3334217388619702
  0.4174963319369044  0.0818856929678013  0.0003629733374759
  0.4160364830460239  0.9989932876295777  0.4175825151171805
  0.3320905879123524  0.0818029821305020  0.2493117126423965
  0.3327994920899591  0.9994788470758280  0.5006322403553700
  0.2476265735627077  0.6653869629204119  0.5846752496737073
  0.3330057212107417  0.0818871387169035  0.4176023429483918
  0.9165795381671575  0.5006868818863560  0.5837136710569754
  0.1658978156182589  0.6663190371835099  0.1661040881656645
  0.9174719431637607  0.5849642636412735  0.5002371287243932
  0.9984487290569029  0.1668217315491543  0.1659623299967534
  0.0815938091403657  0.2505946372379337  0.1664429458257934
  0.9163499141138929  0.5844409315338982  0.8337317982890516
  0.8329806301918169  0.5841817495871645  0.7502365505532678
  0.0833263567068552  0.9992120575354816  0.5832857697317045
  0.9164417118095020  0.5002153889983905  0.7511308693599963
  0.7510755473505124  0.9169474199736499  0.0000311252646345
  0.9983721686409269  0.2508441613275922  0.2489309307496645
  0.9168903932348211  0.8325826646686795  0.5835602755079001
  0.8337856794989016  0.8330912407767040  0.5005163657414493
  0.8328315808495321  0.7499740335935715  0.9173490158023629
  0.9174386342400317  0.6676674447844221  0.9164915262483475
  0.0837108464806881  0.9987802195993777  0.7490929507882073
  0.8333397358314399  0.8319831629191848  0.0005500182413194
  0.8334596389630956  0.5008403471728614  0.8341053333915335
  0.8339011973765160  0.5834648502623154  0.5835276183985008
  0.8341730845476807  0.5001681204344264  0.5000054554387461
  0.4150229382980590  0.1668235356792795  0.5854527345655558
  0.2496862404288602  0.7503702295064615  0.9994566552596928
  0.4177328591516757  0.1652962520522361  0.7503544526921803
  0.4163086042220093  0.2506659174619363  0.6673290027769920
  0.2491247883704757  0.6662982364789800  0.0822161056559677
  0.1665111812163834  0.7494329717733319  0.0833844731574644
  0.1659389900339927  0.6664395818722131  0.9991834620661285
  0.2490495416848540  0.5000489946282842  0.9178984934400576
  0.1638340337096859  0.5007254293216350  0.8355972840742329
  0.3325194158516384  0.4173527764080310  0.0817507921427851
  0.4160838859736468  0.3345956619390850  0.0813557430727210
  0.4169385307769428  0.4166942116534986  0.9995083502125622
  0.3311770495088725  0.3341271725803516  0.1648274270249407
  0.3325069041618220  0.2497911481113747  0.5842058236870205
  0.3333565814969752  0.1647727134572589  0.5011021677196340
  0.4158032542352015  0.2496918212956594  0.5024545991345996
  0.3334748489449986  0.0816527531552294  0.7505565221983197
  0.3329193168797805  0.4995078972400030  0.6686709305856999
  0.0008409920829351  0.9993354481200902  0.6667009258576135
  0.8333054475162793  0.6682134964118517  0.8335191651177278
  0.2481881256635231  0.5836250698216410  0.5003301903096123
  0.3325663945058633  0.4183797461461459  0.5831468979892866
  0.4151384394045136  0.3336954816010949  0.5842103081989994
  0.4143656018092820  0.4174986132660377  0.5006320880700320
  0.3338396859505027  0.3342122788956885  0.6670836240520229
  0.4162018743982956  0.4170392753561706  0.6676276222953297
  0.4176206043800729  0.3353522567882611  0.7511860892517137
  0.1645683691854880  0.5018475517504632  0.4984226632504291
  0.2496073643378036  0.5844422998697522  0.3314630808065049
  0.3334430820686693  0.4173339286860849  0.9184858315491655
  0.4168680580668984  0.3335737803859581  0.9176354341564212
  0.4177525606814290  0.4174737028819103  0.8351407300848555
  0.4166127940038361  0.5001598486628283  0.7517025878614286
  0.3319916645723941  0.4179457854922069  0.4159692791618626
  0.1663481059578437  0.5837322185975097  0.2485707125251508
  0.4145611482929535  0.4997010642038102  0.2489138219510827
  0.1637939246563658  0.4997579728760916  0.6681280187006428
  0.4156665807876082  0.5823554504838052  0.6681506020364620
  0.9168077312787942  0.9157574954374170  0.3334910751141585
  0.9167768447234034  0.5841350165336119  0.3319705121212985
  0.4154116481794834  0.3369179866569185  0.2485414944497024
  0.4154861155002216  0.4165219330413824  0.1652403921816535
  0.3336317583568539  0.9162228627097637  0.4173714636014534
  0.9168948896202489  0.7504331487235036  0.8330375732653404
  0.8332844107395526  0.6667483134249151  0.9999907758023744
  0.0822545491327503  0.2493531843478881  0.0008389235706352
  0.9169260124337365  0.8335208140121355  0.2491669091147529
  0.9157827850473964  0.5838868741309414  0.1660252425605773
  0.9168097430491435  0.9159696092658611  0.1654916334348018
  0.9982178327977180  0.1665490522598885  0.3333364134974833
  0.8348696841748627  0.8331464807336921  0.3333295109726194
  0.8345144629007494  0.5839255689746113  0.4163503592427550
  0.0821254940512005  0.0823368348278412  0.4996346540498257
  0.9168360674559933  0.5008774263652779  0.4162969522889469
  0.9175714098742483  0.8335001355519261  0.4173890593849421
  0.9172654564007208  0.6682614711063101  0.7507785949811152
  0.3330070108739354  0.4998149093984681  0.8345271380780870
  0.4162994914430985  0.7500787946380556  0.6674571707872894
  0.3325750806154386  0.7504004613948434  0.0830335246791890
  0.4164505805689265  0.6671997146683084  0.0817443656933880
  0.4165739929239600  0.7504011612118293  0.9988642922656699
  0.3335471331692892  0.6667693992312377  0.1651486140130756
  0.3317870743274888  0.7499019708642950  0.2480411427769380
  0.4164918977677800  0.6677515231843804  0.2491113200180645
  0.4156886973330348  0.7506339309221656  0.1653626438995375
  0.3319226754754618  0.6683279859755856  0.3317255373597613
  0.3319536384993338  0.7511505813154454  0.4163068503795739
  0.2491690059563443  0.3348047370457634  0.9185166774191447
  0.1643366855411103  0.4174418762553160  0.9180257760897694
  0.1638948277902895  0.3352713430039937  0.8349756104485661
  0.4159194679772213  0.6655881974160794  0.5885311282403688
  0.4175885371274404  0.4996974718952402  0.9175022652248439
  0.3322831211345700  0.7502537078599075  0.5849204952641045
  0.3340898046616943  0.6667557040084737  0.9997753163534228
  0.4161133755357533  0.5828690811349792  0.8346870613830301
  0.3332244711323755  0.5830620547335840  0.9173191978114739
  0.3337034215279788  0.7500931854566543  0.7507673906478941
  0.1627937540771196  0.4185315741198176  0.7525949500118000
  0.3338360435251557  0.7504332308690256  0.9165511674612576
  0.1644506232896534  0.4180997272504821  0.4154720763084520
  0.2484389139319607  0.4184124364449355  0.4981587073263838
  0.3328789042764738  0.8342822294444650  0.0001980455005533
  0.3328101949666167  0.9162551750796929  0.0835024601022642
  0.4167174272231629  0.8341005757839524  0.0838920591946146
  0.4169948553869297  0.9165728855021387  0.0005265060891033
  0.3317163425756645  0.8333367984969166  0.1659038710314397
  0.2536116675390567  0.3349726360845445  0.5837971949137990
  0.1643000497945091  0.4224094364441752  0.5822234072699262
  0.2498757645778107  0.3334490707016741  0.4169444219448544
  0.3325098658335603  0.6667322124424963  0.6680678759088191
  0.4162365024522641  0.7555975534475498  0.5008736417100298
  0.3341521511649043  0.3338480402742138  0.8363787183987543
  0.3321209290027983  0.3339530516378488  0.3334547185135365
  0.8334487955776360  0.8326919042744996  0.6662847139743929
  0.9998192107543790  0.9149238886529945  0.7491093850434801
  0.6679522950410633  0.8337052130902174  0.5003387666076292
  0.7502733281406236  0.8329640872494141  0.5838236949964128
  0.6665390663564112  0.8326881712830663  0.6670605248664773
  0.6659914957529698  0.9160656581201797  0.7498428543596138
  0.7500115373472548  0.8336291606550305  0.7496275728672119
  0.7502039534219116  0.9158766817964969  0.6659085252853075
  0.0759195948781697  0.3339573328848341  0.5820760939529377
  0.9976680242464713  0.4176021364108193  0.5825204061174343
  0.6683836610852366  0.4998100553703397  0.9994848647849600
  0.0825946054796895  0.5847608467699809  0.4999274570799511
  0.6681492201477371  0.4989361139108999  0.1643815666083360
  0.7517292580823658  0.4991899589030687  0.2498249851249085
  0.7498373696243897  0.3346290600501479  0.9154167832257726
  0.7496242180204523  0.0002529121098156  0.0825352049206618
  0.6670607834430827  0.9172002410908640  0.0830039974617729
  0.7506637227909302  0.9992317689374177  0.2488378173703086
  0.6672839522279855  0.9991714613994801  0.3321794257689045
  0.7516481892371681  0.9993847388286613  0.4183584442351334
  0.5011140011926046  0.1659574431663344  0.1648653229056699
  0.5029515176633649  0.2507501373203610  0.2490949411596995
  0.2497008231031307  0.2508853795908509  0.3343522174793590
  0.5844271876014834  0.2503235744348705  0.1664101407680095
  0.4996421154113295  0.1647624259641463  0.3331997761586853
  0.5825981015968098  0.2504671877425383  0.5066708908560521
  0.2503021149042107  0.1656134941315943  0.4181915502757087
  0.5837243792247945  0.2513485127518856  0.3280535420854506
  0.1659994166147531  0.2499331532391238  0.4172580994368722
  0.4990133805330189  0.2504058981834175  0.5849603929814521
  0.5832867252362687  0.1663926469160854  0.5852421642903349
  0.2491919529862851  0.2508169149486266  0.1644364987755342
  0.4992798141642174  0.1659590012265507  0.6668248869339740
  0.4995738468083840  0.2507335538156436  0.7500517850589159
  0.5826259153161458  0.0828209743132157  0.8335929311420153
  0.4987914481696807  0.4172519500412554  0.5842927005889426
  0.5837248779129677  0.3344185357715337  0.5851685918578358
  0.5830311209229090  0.6664992409334101  0.9177521013871468
  0.0842718179369148  0.9159096623315549  0.6661050657499717
  0.5003017898589854  0.4180061290456604  0.7499444663859541
  0.5848913353483165  0.7503980228224796  0.1657377743927030
  0.4996748121436776  0.6692982230246644  0.3325204529754536
  0.5013551650451969  0.7513816266878122  0.4165912817143179
  0.5843096256506053  0.6678658636729020  0.4154971104829354
  0.1675024836873542  0.9992064504165499  0.0003156184827198
  0.5844359727972563  0.7504228561673401  0.4997316782305008
  0.5016617795620149  0.7495539532007639  0.5851223737743413
  0.5841710263094032  0.6652364409700234  0.5844111813836698
  0.0837841179603188  0.9157038913961648  0.8324925590615494
  0.0837164215824621  0.8331658549743317  0.9163990964236585
  0.4994804741675217  0.7492203741845234  0.7501372045809105
  0.5837703774676585  0.6665477219710996  0.7506023527332846
  0.9999356295045128  0.8323526007596230  0.8325869864694344
  0.4993320429283599  0.6662415118268263  0.8347722508927725
  0.5001817933553845  0.7502031598283131  0.9170973517365664
  0.2492548186077047  0.9989228982786165  0.0826866782088776
  0.2496036814347014  0.1672861505569848  0.0811176778443108
  0.1655718711974154  0.2497228830523074  0.0821957850748401
  0.4164218433505009  0.4987753578796635  0.0817402577368782
  0.5837900658584948  0.8337933781036996  0.0821626530815694
  0.5824984197470158  0.9167817945131999  0.9992515934364148
  0.5012991217426314  0.8327814368436161  0.1659750791367016
  0.0831271177203251  0.9152466705238376  0.5001837148925237
  0.5845982771092075  0.8326327944521819  0.2488701608378868
  0.0832915375802139  0.8324208267151604  0.5833027484341626
  0.0003370460113674  0.9161168549639379  0.5836014426309494
  0.0003151165075086  0.8317429474349302  0.5006187600922178
  0.0828396631952281  0.8324262391160026  0.4164832615515520
  0.5847733192122861  0.9173791131597905  0.3323403641522827
  0.5006504975790272  0.8346035153678394  0.5011392625186166
  0.5000242683585003  0.9162698268655153  0.5847146527242879