 B Cr Ni 
 1.0000000000000000
    21.1200000000000010    0.0000000000000000    0.0000000000000000
     0.0000000000000000   21.1200000000000010    0.0000000000000000
     0.0000000000000000    0.0000000000000000   21.1200000000000010
 B   Cr  Ni 
  35 259 605
Direct
  0.6849064973925845  0.6459673285457515  0.2433705235661068
  0.4862840375562060  0.5012677431478855  0.2127405809488024
  0.4878698725365663  0.5028121090921921  0.1279860496665658
  0.0746397577959863  0.6667284483210983  0.0010138610546089
  0.9810533809857640  0.5046621269378200  0.0897215548626337
  0.7234100286536225  0.4071992558999962  0.2192062228954074
  0.7343626016837028  0.9109904546147901  0.1081050086698839
  0.9910617994672538  0.2520965535304659  0.3259837365218619
  0.0122538593491487  0.5587307682097368  0.1464020145450572
  0.9157077784880729  0.4182862954184822  0.2454772783921592
  0.6866422965578459  0.7419662900249864  0.1460948824866231
  0.9292901445341917  0.9060730217368297  0.1065267368765185
  0.6340340449799358  0.5574556301830682  0.1456918978685245
  0.7115136861125070  0.3757929349997451  0.1432307601573897
  0.9256186157365029  0.1043106713593352  0.2471063124157622
  0.8363663540564066  0.5888471484147233  0.3145056595601734
  0.6649486765947511  0.8396384784024553  0.2543335567378300
  0.6813404151940484  0.5086500200126024  0.1003152927488190
  0.3329380609011359  0.4158276832271058  0.1694970291909018
  0.8295813120118828  0.8166431187618284  0.1021269345870220
  0.7772442808033673  0.8565950358399861  0.1536733387407863
  0.8476696878306926  0.3403849736292757  0.2527819601273625
  0.7259675982402656  0.6793540215832116  0.1814263039471208
  0.9252585362213409  0.4317652437817843  0.0985977403280941
  0.8310953509535864  0.9947935870449731  0.2405526396914009
  0.0677330148555079  0.8206810709870006  0.1736146601682937
  0.9087323827569630  0.0862092197977560  0.0940531105978951
  0.2511400071554665  0.8346885268716578  0.3266534340848643
  0.0024443265513762  0.7723924919354505  0.1426276448294063
  0.6601752151731360  0.3320102582263447  0.0937279698437176
  0.7421038815791985  0.2514610967555806  0.2398986226861939
  0.8205512923707471  0.5430874259291075  0.1301212682758691
  0.9838414567382949  0.6772403454398638  0.2391313219439243
  0.8414248930551570  0.3247964021222104  0.1019675153474092
  0.9342167495739272  0.7343935316174983  0.2697607680127257
  0.6638424710307517  0.9201649463548449  0.7487367228219605
  0.8646535037494845  0.1450229947723957  0.1716186924592880
  0.5751304449284455  0.1665903028906845  0.2519085115539314
  0.7462050169315170  0.0072021625003039  0.0833928881940192
  0.3312468883635982  0.9996242398748785  0.1649383199152785
  0.9149608451908506  0.5824301661707730  0.5017753361655354
  0.3319579148202806  0.9180567170314428  0.0829354922931791
  0.3311386744422716  0.8349279652287698  0.6679097961258681
  0.7442110836400837  0.1660292807225080  0.4252566224215202
  0.4992775197213097  0.1674026785956680  0.1672582410479410
  0.5771317004401573  0.8361783157809043  0.9098276214868992
  0.5797608735764885  0.7530572831419511  0.6662248245211614
  0.5801650463050649  0.9177000900377813  0.5030967259415493
  0.6622779432290835  0.0007146373846788  0.8324043942294070
  0.4124389762252329  0.5858986416016231  0.5030569361359357
  0.4105645941367682  0.4155648253952714  0.5068477640022515
  0.4082760155753818  0.5866654547824713  0.3430924035013084
  0.4927918640634565  0.6685747926008233  0.9917984178222599
  0.3326931296844841  0.6662271984863722  0.1675110068796515
  0.2482707329764468  0.5844369083117110  0.6675612846630846
  0.5802565248195627  0.5016514881020366  0.0742547050113513
  0.0859030519406506  0.6655811524917256  0.2525737941692850
  0.2496771744024962  0.5811474909925686  0.1692621329728440
  0.7424603887430326  0.2450840859775617  0.3484065347684744
  0.4956578422572709  0.9191191535968776  0.7495842099111981
  0.8259831397819276  0.6530575624402137  0.1591474379815916
  0.7780294343529338  0.6611415639182020  0.2636063309172439
  0.0857083909516351  0.8350334849956875  0.9098689459951025
  0.7459087848324638  0.1655730560768380  0.9095087813422166
  0.9154714788779967  0.8336557512260097  0.9109893385863146
  0.5781329387772639  0.6706262760127183  0.5861678762957558
  0.7487410849090307  0.0001025481334199  0.9148069182063058
  0.9165186935271007  0.0851957710995596  0.5036764851757455
  0.7480880209654386  0.8377369066158200  0.5870255628839244
  0.7603287183690264  0.8361188784531836  0.2543410627166367
  0.8318473994445871  0.0811625048764186  0.9126990350724304
  0.8301063145208410  0.6693561369282554  0.6654743277409327
  0.1717926223483627  0.7474375607647901  0.0770938877065441
  0.4114829071641374  0.6674999333645987  0.9125437608073999
  0.1673072088265299  0.8338083439877166  0.6669753233668380
  0.4120115878173750  0.4145253279338984  0.9941145858309304
  0.0005134320684026  0.4181768385438639  0.7463700679907207
  0.4144329179729513  0.3331921650678665  0.7473911371765162
  0.4152966692059225  0.8343894204936665  0.2493446677934063
  0.3345080296209388  0.6683705184631354  0.3362371631718978
  0.3324943121684256  0.8353218914225060  0.8339329439757416
  0.3324971643232308  0.6680124047663395  0.8313087585025881
  0.4145551221837159  0.9186186177632570  0.3326729083005507
  0.3337115164850556  0.6661433154083550  0.9985876472676158
  0.4976351105397814  0.0000779687653376  0.5014075977011907
  0.5804918100535620  0.6643859792376630  0.2564860043545693
  0.3296650387199619  0.5840592335051747  0.4227982977781828
  0.8298572742779734  0.6667386872306781  0.5010828470082616
  0.8309163015343202  0.6709461707048244  0.9762898441736233
  0.4895305579981171  0.4991382446000926  0.3467699346154337
  0.4134098791645100  0.0011133225879083  0.9169627479843460
  0.0061759039817275  0.3323432393251093  0.1648358238018157
  0.9151728971408168  0.9077258111246018  0.9998523533495288
  0.1740929846265771  0.5749475799606650  0.0817717796328851
  0.3305449899418487  0.1678539999485483  0.1655304341850054
  0.6631575987919562  0.0009426967847718  0.6684533894060239
  0.8311226955838599  0.9211915489741452  0.4228541541302022
  0.4985016861165842  0.7536589305242705  0.4192706679831821
  0.9158771734439601  0.7514641453301411  0.9859851484014157
  0.1682960160825925  0.3304042329191731  0.1662697761616220
  0.6615146886359987  0.3319640239740069  0.6687368379727278
  0.6622079230852963  0.2484907989729113  0.7487540723694576
  0.7463291007695056  0.0844393392840310  0.5040430008396513
  0.2492442437150837  0.0837661286803491  0.8339368028761678
  0.4963803041035357  0.0832831424612661  0.2506039935479105
  0.6567394096859707  0.5010080314764213  0.3486512311891205
  0.4286966816521264  0.4231691515241766  0.1676442735874302
  0.3320392588754777  0.2489833866228147  0.0817894114143783
  0.0831161449436400  0.1659395070488589  0.7490871565030746
  0.4138606646799450  0.1654431780163563  0.7500024706448156
  0.4089407859151733  0.3327979265241616  0.4242500390795341
  0.4119379016849755  0.1647971782911822  0.5838875069072911
  0.2484606470394471  0.2504172711391465  0.8328995414177846
  0.4981817242611319  0.0013322674188480  0.1659308527244641
  0.1700996437945780  0.7501136524925209  0.9111954625542276
  0.4966483427042183  0.0822860550998436  0.4187995136121656
  0.3331396454948365  0.0001822738526480  0.3333710194800307
  0.6634468646711128  0.0862895148562565  0.0819140594308174
  0.4130404357507456  0.7529960432298062  0.6669723857023031
  0.2484274776430916  0.2492978400950296  0.3351111570063516
  0.4125658860821306  0.2495719297701914  0.5041388309359471
  0.4151974322775931  0.7499371554390996  0.1666052966230789
  0.4146116701031570  0.9193335961255482  0.5006790623568421
  0.5803367821850972  0.1659956121515759  0.7500104749613845
  0.4113712065346828  0.8347992720644274  0.9133518826517311
  0.5773932379912659  0.0804508569382169  0.5036524007352908
  0.4973877427690430  0.6724241599155187  0.3413130980341165
  0.2476944368887399  0.3316347595119854  0.9144989851132010
  0.5752701319769242  0.2486314491492623  0.9944707780095633
  0.1675750326091729  0.5003408572892043  0.3380956995644813
  0.2478751569119675  0.5862524734262993  0.5047422489205736
  0.9854377551593486  0.4729980401599272  0.1823808011636996
  0.8306369006645669  0.3335675411593536  0.5055210914158687
  0.6618907973177266  0.3306830700500983  0.5066283729872846
  0.9087034326593512  0.2525546242696808  0.1627346324577632
  0.0009554767833030  0.5788896319155210  0.2482936572216109
  0.9155756618958357  0.9993085157304104  0.9158883001632417
  0.8318216681575311  0.1683811512414713  0.8330067316268734
  0.8325073242156671  0.2505032075747171  0.9112147781413955
  0.7433175608586751  0.2500998731722589  0.5067503958337575
  0.7401565969295112  0.1694541265551040  0.0741736030957307
  0.8311699043263422  0.0028402939819969  0.6675555562175921
  0.8316643598677205  0.1664644174566068  0.6677565974418922
  0.8296045926983679  0.0947299734851079  0.2595621255525084
  0.9921158690302148  0.1626902054009611  0.1670957342130698
  0.8319130211866808  0.9131695203285475  0.0852324394486157
  0.9146554432358787  0.3388618164687072  0.4293252036761180
  0.6629149040842572  0.0819816461964407  0.9112715896606194
  0.7476511479237810  0.0834248724085337  0.6703038708905830
  0.8311600931550139  0.8284593623857186  0.9979117213633621
  0.8298672173312487  0.4953750036858619  0.8296778873599265
  0.8319423591421330  0.4151272578302185  0.9090582334917728
  0.9265641850522559  0.5879884584970975  0.3542621024425783
  0.9169122519785450  0.7536617704369327  0.5054693851641234
  0.8242755278173087  0.4973257358655886  0.3453360573951983
  0.0038479490854080  0.0022612966445393  0.3456587091372985
  0.5754240652746428  0.8360662177299910  0.0789068843345375
  0.7475916950601628  0.8393034717705508  0.4234960377866735
  0.5790109407620704  0.8359632490016941  0.5862147504747341
  0.8335402789297589  0.3322707096682109  0.9894516815896012
  0.6624157869068329  0.1672212498046220  0.8316969696154071
  0.8267494189514178  0.6690961780744147  0.8223946430931829
  0.8303039399955088  0.8361202268930513  0.6653333889507341
  0.4130767301974895  0.9190917065615714  0.6682311389205607
  0.0844505778679392  0.8370551719756774  0.4234771621985123
  0.1695582372081831  0.3334245342253126  0.9968067014104133
  0.1675135897664274  0.0010804576967332  0.5047989510297076
  0.0833217953513152  0.1651300280853791  0.0823271106604704
  0.0842986236087245  0.5039111684025805  0.0841160596608700
  0.9198810989841057  0.6692119808935507  0.4314688850738429
  0.1669146685102800  0.9180051687358527  0.7501634086533217
  0.3295930000790696  0.2503037725468418  0.5862107124764028
  0.9995375276167486  0.5004676463707403  0.6666416645407407
  0.0117210962708660  0.9787678824913735  0.1635646996515034
  0.1676030076565854  0.3313132114183909  0.8307553577095712
  0.1670643998584286  0.2498065018249921  0.5868445416420796
  0.7487090266115712  0.6680838378695848  0.5865999090396926
  0.8298665083261781  0.4999002254974456  0.6665264256979639
  0.6638127757076678  0.6678554231686321  0.3388977342794210
  0.7345397829958152  0.6752232171860182  0.0819174573180090
  0.5821573379120930  0.9184914391658729  0.3333330172983860
  0.6589988247051455  0.7535523275136532  0.9076100913641278
  0.6609194387862899  0.2488110645130426  0.9108720831531764
  0.9156602227237991  0.3325749584727208  0.7480173774579291
  0.6593539942533451  0.5856169932026115  0.9060807504216368
  0.5786406407877003  0.1647033204264325  0.5866641405264471
  0.8267067870516950  0.5804807567572927  0.4186545563611668
  0.4953966934587108  0.5017198320285891  0.6668138239382471
  0.5789708592481155  0.2539748415402430  0.1667798340766752
  0.4943200218729256  0.2472008656325657  0.4258882501434325
  0.6741987356364028  0.7439861103399886  0.2452444770688793
  0.5825725229358815  0.7572610802371218  0.1642710644036578
  0.6312837606898115  0.6571838237328148  0.1580107493192353
  0.5786648738558402  0.5841220475738038  0.8288781877990024
  0.6621037894010396  0.4150930538660136  0.7463081426890098
  0.9096143998933558  0.5181959992620589  0.2700761202526133
  0.4122245183797252  0.4998319626186959  0.9108528200371355
  0.1675690818191911  0.0820627313754209  0.5852055379329788
  0.8948371108767188  0.6415074100952829  0.2547607855986482
  0.1669250087560478  0.7525407527870192  0.5877814440336265
  0.0835126481921711  0.6662370064459573  0.7490411890964273
  0.3314282882659330  0.1674802582052982  0.5036494976434993
  0.2493345796935401  0.7508962145712129  0.9973656312237256
  0.7393755788216090  0.8184658905063189  0.0706075794735288
  0.7788824329985908  0.7601690031918681  0.1732732821963641
  0.0904652862243369  0.9190304896851687  0.1679690816860313
  0.7471893144047803  0.6690075825554596  0.7486408833589824
  0.5789836325778316  0.7538067922074386  0.8303590323139634
  0.1695739323899909  0.5805149913236255  0.9104862805851840
  0.1671076043516022  0.4996443535252876  0.8301099681938454
  0.2512517147305591  0.8355140658139808  0.5849082588517142
  0.3325209941473238  0.7536960596777316  0.5867127714738960
  0.4968398217347589  0.9174061099140451  0.0824969715258083
  0.1625925298340878  0.7488389621937193  0.2517544429952291
  0.5778307969084995  0.5006221203161841  0.5870023638805921
  0.7468195102228048  0.4989258046318334  0.5865011929799707
  0.7444111909039461  0.6688452465145109  0.4222318116027509
  0.8146331046704415  0.5511392290513860  0.2287284484774521
  0.7281072858896283  0.5802408017529944  0.1680079010947361
  0.6394307192734250  0.5657333694095116  0.2510137419040437
  0.5682111709612396  0.6638344306990880  0.0680380671714059
  0.7479987872531004  0.9147087650494419  0.0021537478809301
  0.0003907828294789  0.3327576509917320  0.5035652762684586
  0.2517285089902580  0.0839578133915379  0.1656079117138692
  0.0869499888330374  0.1667128749478637  0.4218559676161716
  0.0871695131145513  0.4999096114145221  0.4222483726974073
  0.0021588291910154  0.6667404746517334  0.8255207379325934
  0.3322261048180555  0.0012033785466154  0.6694490385242776
  0.6742442453336071  0.8398883620514196  0.1599687738597211
  0.6618488286465707  0.4169330503329087  0.9108845485819635
  0.0805679599667847  0.0822191380498346  0.1662248866136625
  0.2485880278006348  0.2479104281513216  0.1666596434273088
  0.9253654915907207  0.8130296977638599  0.0782268209638561
  0.2494273397081815  0.0823430331899406  0.9974846686112175
  0.9950682519292821  0.6733199725000401  0.3356314886380928
  0.0823079593402595  0.7523362914621785  0.6676955392235963
  0.1661484629417297  0.1658513179630630  0.8318304376876456
  0.0837115597441132  0.0012127556203609  0.9147618075525761
  0.9149363361506124  0.5817632183099719  0.1575134781441950
  0.2485157850726005  0.4147563520160385  0.9963258339024921
  0.9987548776482699  0.9196801220661506  0.7485966402359678
  0.0832017413811117  0.6673457597943090  0.4210504012434905
  0.2497340613998903  0.0814894409491528  0.6680409167493857
  0.9987441641832073  0.9207825184813418  0.5873366898140325
  0.0076559384053559  0.8367982380590200  0.3481559772522839
  0.0028611540080218  0.2501463461303107  0.9131102011848564
  0.1673765928541074  0.5846078649517040  0.5859721326268145
  0.5797505028150117  0.4162601823049091  0.8286239826918510
  0.6619119439587469  0.5010901139607561  0.6661730403673816
  0.4934339357138394  0.3319753151004477  0.6690580484622199
  0.6614764157780089  0.5839038860181893  0.4239919011816661
  0.4871655934890577  0.3279977947895549  0.3449365321074811
  0.4982285026531698  0.3336729790797919  0.1692164203447594
  0.4931869354524109  0.3341135714238332  0.9925247790612919
  0.4144986555957433  0.1662797438243273  0.9169177496300445
  0.4944415822485230  0.0842626297386700  0.7497749084819465
  0.5773799204000856  0.0830813265011367  0.9978258141196268
  0.4138652388366841  0.3329889885201406  0.9144439941865805
  0.2490354675430332  0.0018604134515262  0.9159405854966901
  0.4136105213969283  0.5006404604698715  0.7474001057217896
  0.4225110933450256  0.5772634603865759  0.1691069746535418
  0.1664846342219780  0.9165294812840309  0.0806597808263737
  0.8362719910637760  0.6755833829236135  0.3572091496938768
  0.1685789559269443  0.0024162715657116  0.3374434404069941
  0.2478734605083030  0.2488473177232112  0.6672185277825142
  0.1688478146656144  0.9164705493315424  0.5869009920320479
  0.3343904701617250  0.9997478515865057  0.5014443819551699
  0.2496995723507665  0.8342054223198350  0.4244713004809463
  0.0005916023692433  0.4978726138824497  0.8270894124282406
  0.0017828663934499  0.4149616454748827  0.9135809947643524
  0.0002209019110764  0.2497979659533137  0.5865487990953318
  0.9108662210333975  0.5874140505449199  0.9800992751446446
  0.0842429384232616  0.4171771294362419  0.5036257263901907
  0.4115615899097923  0.2476893144755465  0.3372995358380044
  0.3307344631572436  0.1679600490982145  0.3357895615743077
  0.9155680788158976  0.7524176454951226  0.6667818309661590
  0.0887600558831535  0.1630444808075980  0.2482299928514341
  0.8323903141748661  0.0013043697194454  0.8353367450652983
  0.7454011985665631  0.0030738755931160  0.4220708025512045
  0.7370982397804442  0.5831309839605964  0.3309279976051943
  0.0010305188947894  0.2499515002045639  0.7477194454180157
  0.0021292264215779  0.9200486814708773  0.4244147127489799
  0.3328746657709605  0.4992566066485547  0.8298336444913637
  0.1705651105715123  0.5007463272583431  0.1699784456449437
  0.9995763186242396  0.0014775676915333  0.6684298372031199
  0.0834623250529403  0.0837308016935156  0.9958097082730952
  0.9159176503631233  0.1664166945340897  0.4273088712767995
  0.1695985358203224  0.3310450358369634  0.3368325326936880
  0.0879972456290654  0.3315332581059512  0.0804726173753707
  0.9992122437826173  0.0838975146448331  0.5866304499816399
  0.2471767743575734  0.4170432743651799  0.5041861615923882
  0.6687825978457083  0.0008989945516002  0.1620759283268182
  0.3314718797698453  0.4968802934933432  0.9941956232234608
  0.9158891620994263  0.4170508858138584  0.5050847516242086
  0.5812792519564045  0.7530554637578452  0.5038565224135656
  0.0831059844834893  0.8356252716460134  0.7484976344243542
  0.9996419126072282  0.3336464579002124  0.6667426317982231
  0.9987200955850349  0.5838272675816116  0.5856397919622258
  0.7456802903346040  0.7530341963156868  0.5059076023991210
  0.6606754584750214  0.5009556252523183  0.5073179837523834
  0.6632721599641123  0.6695091581098193  0.5054167218226076
  0.8310719077578637  0.5841708510929480  0.5851867697234474
  0.0833534155704733  0.4999780246426263  0.5857076363326853
  0.0859849589958504  0.5842530181796461  0.5051590325101651
  0.6579476431495214  0.6699756796256213  0.9859709447696303
  0.5766099597482550  0.8342375956138375  0.2495972404319807
  0.5012711382965882  0.6697995758169388  0.1655370998469650
  0.6479857304262221  0.7489195035035745  0.0659313598405454
  0.6633682943676944  0.6693673340213869  0.6661548923879738
  0.8317875050078269  0.3329894891132861  0.8306597752747179
  0.4960126290550096  0.5852173672353600  0.7478999149332304
  0.4133675356096582  0.8354551727997360  0.7496888519175059
  0.4964859322939934  0.8351533696440071  0.1656638743438090
  0.0036151511399991  0.2501554707268070  0.0829394166601617
  0.6624785233689192  0.7535867452858039  0.7471911857275807
  0.1667361711409169  0.0001214210018699  0.6674248238192394
  0.3389300160871168  0.8334825113710772  0.3353282134452649
  0.4134684520718154  0.9180247841418941  0.9993391585784955
  0.3314656921778060  0.8346068540308520  0.9989231206875279
  0.6578092258407217  0.0873894654306557  0.2508584742715340
  0.3327784859162899  0.7488422007169470  0.0818524976575566
  0.4138255087058244  0.0819556143349109  0.5012361888821727
  0.3319487891723641  0.9185173779728861  0.9163253067375833
  0.2496245132758069  0.6677480441198562  0.7492244858136486
  0.3332036357953461  0.8332916725828098  0.1646600806075013
  0.4131077198886280  0.0831431237520008  0.6677275158910411
  0.4143147898788824  0.9175829548742216  0.1668051120379838
  0.4958540861431560  0.8354037066269511  0.6676639325864054
  0.2510905005758565  0.0019601369211076  0.4200506290554664
  0.7438385418938200  0.7462164004573854  0.9868865484191129
  0.6617498631013466  0.1705005357840075  0.1677187310981246
  0.5820876952225049  0.9180426829079325  0.1666299931815634
  0.5786983348165837  0.8360185329454324  0.7488457796445132
  0.0850220890243891  0.4975933396225899  0.2530822252600037
  0.0832980417057455  0.5839470145670039  0.6679475600751309
  0.0871932717472315  0.5769096563531655  0.9908564897354537
  0.6525155676157497  0.2503417917011628  0.2638267114142611
  0.0008762180771595  0.7529156450803983  0.9058234870541481
  0.9176317436876505  0.6669732606722407  0.0718596581751583
  0.7611099298379472  0.5125222907928847  0.0584034359684158
  0.6636370249041965  0.9192083407348980  0.5861867266905432
  0.6687428589615465  0.9285974708133972  0.2522482221504727
  0.6625111001201133  0.0020352110739012  0.9968885208927841
  0.8922259162414674  0.5136161366415979  0.0635360849745213
  0.7458352568992465  0.3326529427117133  0.9110755524300995
  0.6662261105706816  0.8348379018674331  0.3427631250596886
  0.0851318031181314  0.7516659105173579  0.8287355559588215
  0.6634399636561825  0.8363192955676044  0.5038770600750234
  0.7441454218977415  0.6698280097513437  0.9014655875374599
  0.6579068673263815  0.8347332143086127  0.9914850183278828
  0.7693083569545693  0.9405485088236315  0.1881909464799620
  0.6636018056164296  0.7532911803362878  0.5861185932827238
  0.0819014695983591  0.5845144010901222  0.3364389032960997
  0.8320631337457589  0.8345695910613411  0.3491518851344484
  0.7498079451167198  0.7524963951214736  0.3397795114604645
  0.8307055671392922  0.5831860128937304  0.7467792508997050
  0.7449922571502747  0.7556277987111341  0.8272014772309316
  0.5800876332300123  0.0021779399072936  0.2498848800131230
  0.7440386703800079  0.0835747174012807  0.9927892551606105
  0.9989986988696407  0.7514727281296543  0.7484004086444042
  0.7430970498917745  0.0173592065730088  0.2595143084731404
  0.6612452441686545  0.4993257132946471  0.8271775165571705
  0.6587556024286977  0.2472319521715437  0.4261469180743383
  0.7474901801924926  0.7530135307775794  0.6663323610102694
  0.0953539945449485  0.5815452833639089  0.1738052417414165
  0.8981512136740124  0.3690367213772285  0.1695763183123454
  0.5781194243975221  0.1659410954476129  0.0820616160494526
  0.5786985466171436  0.9193693467943612  0.8315473685381423
  0.5774092559125796  0.0835436099715423  0.3358896479992736
  0.7474332516609403  0.2489842198761989  0.6684410900111762
  0.8290933719389866  0.1691883304319127  0.3452983607760791
  0.7474740131356236  0.0830919568444951  0.8289117564515205
  0.6611373375769943  0.3327559787598212  0.9934837268126737
  0.7410345781238005  0.1633183691319912  0.2602217909712990
  0.7459436414262021  0.3327902841632042  0.5875056096255946
  0.0027802537485795  0.6678395396976360  0.5064488462232486
  0.7471601455676039  0.2516179561053653  0.8296221531236783
  0.7836129430483053  0.2132468126824677  0.1648726862519056
  0.9155232181296097  0.3332954132933289  0.5857029663095694
  0.8308520743711496  0.0849245257681505  0.5861691018410803
  0.5776516731033902  0.2487514468938442  0.6681634435369709
  0.5742451915982340  0.3309966719545857  0.4271506628443247
  0.9991175427275433  0.7516161076457873  0.5865565722032178
  0.7446690700826838  0.0878305752088906  0.3452209390751403
  0.6621027343191950  0.2484590280956084  0.5883352352783632
  0.7463487535426740  0.1660262982296535  0.5870652557249093
  0.7473051967370523  0.0026530992742642  0.5863973483806423
  0.4136715735519586  0.0004793278171964  0.2494269749665257
  0.8656689005805939  0.8392388020402279  0.1832765549630004
  0.8302172032557404  0.1673811383153875  0.9865977601350635
  0.6502864992914869  0.4101820667766675  0.2749336184139732
  0.6943544570848161  0.2811706857685936  0.1665229743019360
  0.7496175886198142  0.4169471502700267  0.9892870312322375
  0.6685876908420788  0.4215352297453760  0.0712969840798964
  0.7450479971613101  0.2479445913836503  0.9896924849637946
  0.7476409128450727  0.9210823013728034  0.3389105414271987
  0.0040260420378740  0.3381846697614404  0.3501769026060833
  0.6619279168948838  0.0039847397293029  0.3386289353755049
  0.8298139432141234  0.0053177802902612  0.3416773677588937
  0.3323540511222142  0.9182416094836828  0.5847362675559279
  0.6598553709106193  0.6693818676427633  0.8266087491098404
  0.4966631838535443  0.0838220732662549  0.0838572419617738
  0.5781872951438531  0.4160224439817289  0.6675224502407114
  0.6604760818198225  0.1642818979576444  0.9918105104778937
  0.3319717171027708  0.0829813136151094  0.4184285209852596
  0.0179395305146604  0.7640784040172481  0.2407782480104836
  0.7447063528365614  0.5921570143101864  0.9818901429911954
  0.0852225736265977  0.6661620235006062  0.9083344927811748
  0.4136603993149715  0.6703801267765898  0.4221800722087576
  0.8306825691291320  0.4163562341259259  0.7474321740760763
  0.1656935904471632  0.3326979017176371  0.6674728279891804
  0.7458836706576936  0.8362846376530022  0.9138641221895835
  0.9113347026808351  0.6689798279380275  0.8981761635857820
  0.0914212453669859  0.7349860813775594  0.1569776575771549
  0.7478889965065486  0.9188378983743560  0.8323179936201445
  0.9142986062583441  0.6676340477367789  0.7477268029633505
  0.5789992616075134  0.3332368551986749  0.9123695155816061
  0.5786043098904218  0.5004236770268782  0.7468718973135989
  0.7468736670497630  0.4160573088772533  0.6672435506166677
  0.0010633791501574  0.5005157304360139  0.5051559081405211
  0.6619726849294889  0.3324392446726487  0.8298578920699266
  0.8312681854530225  0.9995534865879648  0.9995376352228861
  0.6507179082046411  0.4724814923756033  0.1799502389520542
  0.9989827729400677  0.6670952298729143  0.6675283375463718
  0.8310363083617758  0.7538797973615635  0.7467916758501775
  0.9146916292809335  0.4985682806076310  0.7474176125366282
  0.1663849560481602  0.0838047151275665  0.9154028073542424
  0.6635348273317523  0.5024947015362381  0.9903047370379180
  0.9168732138278869  0.7568598081714920  0.3571411645777125
  0.0005727298645401  0.1672347332754034  0.8317857362385119
  0.9140401864785074  0.5835703444886122  0.6668890807378898
  0.1664883849395841  0.5009921074713800  0.6666763924152780
  0.9889727645325967  0.6658851723785060  0.9754635511903748
  0.9995846834102291  0.1660609280774951  0.6673308621431031
  0.8285308984192059  0.7546117684433412  0.9053460002470900
  0.8417513611128665  0.9110863691115462  0.2722804029454078
  0.0022564085905624  0.8297740172348353  0.9917740258044321
  0.9146591595059793  0.6676238663561743  0.5841493901733616
  0.9821265075591334  0.8593907622932927  0.1729823895282506
  0.0033055285501079  0.4997532163441416  0.3394435682155577
  0.9282985952544783  0.8332395220129952  0.2723737902580545
  0.0046134398249048  0.3326945086243157  0.9899825533951235
  0.1690606434822866  0.0839159737278517  0.4207608429698019
  0.3315395991594274  0.4159730687535313  0.7494075917312851
  0.5792441912990690  0.0014130969228606  0.7497818856412193
  0.4959865373271189  0.0823293167674970  0.5858544138539680
  0.4957759566502962  0.0013536596537411  0.8330573494604019
  0.6629492377012968  0.0829903740769153  0.7506796929583014
  0.5789489310698283  0.0011114135189307  0.9146485874057202
  0.1675372578919904  0.0024378713446376  0.1654225752328953
  0.0861966258609112  0.0025308219885665  0.4237385315944384
  0.7462711083160196  0.4992825226164386  0.7473306465107348
  0.0024738528185404  0.1674122132163218  0.9955155605925421
  0.0845931766874787  0.2497956287270626  0.9974515946318591
  0.9161570254882642  0.0045826893121201  0.4226248983408147
  0.8315013347737047  0.7520487000579138  0.5843813473175434
  0.9200064376300388  0.0083594660000036  0.2703799148356563
  0.9182347384873917  0.4983539851593855  0.9066839550078474
  0.9149660224525555  0.9197849061931271  0.6676495523092550
  0.8314035344314196  0.9196215771836096  0.7487556439039507
  0.0842033533949087  0.4981469101994401  0.9110217301654148
  0.7469960999982721  0.5839620904119531  0.6667584627718298
  0.9158304952739204  0.0841720406606585  0.9961171766959513
  0.0841203012137924  0.0839661406466798  0.5046901805813977
  0.9208640301088178  0.9948745056375294  0.0764917756265885
  0.9165485755361900  0.0837266903965432  0.8316148800966966
  0.4975831838369723  0.9176368061733403  0.4173788115620415
  0.4934913838202994  0.9181401694992967  0.9141681250845608
  0.3315509914617264  0.3324363058923874  0.9972401151661746
  0.3304017732392779  0.4140260154161553  0.9114525510546791
  0.3328383606041431  0.4133129278058706  0.0789150095361718
  0.3315630074220001  0.4152928035596923  0.2585694087118451
  0.4121631447025936  0.3309682867366573  0.2523254760299546
  0.2493492781607527  0.1662362489459970  0.4196475714939348
  0.2485198456246574  0.3320184447908034  0.4209381360812807
  0.4165725068657987  0.3333946760422746  0.0835204079597173
  0.3289091090941372  0.5010199029375794  0.5052448263765050
  0.2481366841132736  0.2487136695003599  0.5041685175385289
  0.3302503475257259  0.5849911056677428  0.5850768137785645
  0.4120120519560010  0.3326032723772933  0.5863985373952464
  0.3296356966735852  0.4168061019710677  0.5863087602184838
  0.8320777133164785  0.4145700374542564  0.0750326619491796
  0.6602280607044668  0.0832412751737710  0.4234386441244833
  0.6528656329752263  0.9187335299174462  0.0738030515056694
  0.6630283340296141  0.0830424290162339  0.5862148405254404
  0.0845671416777337  0.5814433872197390  0.8295715319254722
  0.6615054199555134  0.5846734085216202  0.7462529519299853