 B Cr Ni 
 1.0000000000000000
    21.1200000000000010    0.0000000000000000    0.0000000000000000
     0.0000000000000000   21.1200000000000010    0.0000000000000000
     0.0000000000000000    0.0000000000000000   21.1200000000000010
 B   Cr  Ni 
  35 259 605
Direct
  0.7554371255688118  0.7302366137691212  0.9041742101446779
  0.9019044874370636  0.8470767523641181  0.8447177052872820
  0.0923543434457902  0.8502924720468704  0.8826759833618828
  0.8124862225590339  0.5793926815824968  0.8593330706647946
  0.8062090734747951  0.6944050286593667  0.7244627614871136
  0.9709258120234850  0.6389635439982243  0.7941097702839207
  0.0958537529529979  0.5158797347000322  0.0035817117340145
  0.2432534302513411  0.5968909052979738  0.9187712015215647
  0.7459846411954205  0.4201069496747702  0.7811771625967062
  0.9474303020218253  0.5806000060021066  0.7354116874471776
  0.8204300908742929  0.5778920076620728  0.9749180686023203
  0.0459331820090262  0.6546628729495423  0.8229613280077945
  0.6806984456223483  0.4838308776345810  0.9263297901391312
  0.1651804367459523  0.5890778818035474  0.8361550390247816
  0.0019998438132889  0.7113263026816221  0.8576635648159943
  0.6749309946403734  0.6802028668285666  0.9334489964029025
  0.9932297714049910  0.9902146400202025  0.9304353081184961
  0.0853628562804926  0.6667205699619529  0.6893871081804045
  0.8255250256045435  0.2563698683834796  0.9899058126302739
  0.1037401382702839  0.6422876394427849  0.0049906919959379
  0.8410544304063552  0.3176217662537392  0.9333464455386900
  0.2482491662818281  0.7354451611059275  0.9186477028583508
  0.8479805913928008  0.7451447658254896  0.6678101422240669
  0.9435598916358270  0.9255300529949688  0.9027328611638826
  0.9085142726251531  0.6801367046330652  0.8385908217922842
  0.9092159163247137  0.7394014198894803  0.6063405491074586
  0.0799239434609640  0.5802988318337988  0.0564482629999598
  0.9976275984744944  0.8177087570521183  0.7517456749263436
  0.7556679704589047  0.8204827341485300  0.9989481390962570
  0.9067417741704099  0.6774888337805239  0.9963891214556793
  0.9070000004983201  0.3402677419994647  0.9819792082972182
  0.0112935532724378  0.4362744587657901  0.8430674586454410
  0.1628960267847880  0.7390837556185967  0.8302151850996772
  0.9182785276438971  0.4849499452688932  0.9796830724882994
  0.2886300297940653  0.6657762657756928  0.9268542368011583
  0.4977437680903774  0.7503794975874455  0.2528541166702634
  0.3339822552980798  0.8314558453788230  0.4987527537785959
  0.4989748706301756  0.0020585375910523  0.4981433682880725
  0.5808932617725521  0.0839184921183145  0.3345875572249419
  0.9156412300187327  0.0033893537656631  0.2527299533621839
  0.7487074510928020  0.1676810313349091  0.5804651133949025
  0.4178972169282958  0.1681759136624248  0.2533742797065404
  0.6647796106789406  0.9178760183590883  0.0857807500844729
  0.2529657335266442  0.9213978660861785  0.6625441623544804
  0.2706662375197825  0.7524812474270214  0.0113926457187702
  0.2492441776182812  0.1687140754567832  0.4174234685932772
  0.4192475281067555  0.9209375905259473  0.1703832175669964
  0.4166989161895367  0.9199085506403876  0.6639840132987143
  0.5776666772332043  0.3308197775208341  0.0871034193111835
  0.5815920209686835  0.9997349001020353  0.9161854143700873
  0.4992507374313161  0.2490840082188496  0.4185373680307163
  0.6616525798376670  0.9172892817700141  0.5771571776989937
  0.6583650901501221  0.5834927127170477  0.5756851182827707
  0.7436860789202422  0.7521743932179007  0.6646989805238230
  0.6585015000781075  0.9215750732705115  0.7443941356529137
  0.3331132989586009  0.0008185151676428  0.3340726287322036
  0.3402873314546117  0.5777279039017187  0.9168802770807228
  0.1679678863681860  0.8313349062982907  0.4971187052015938
  0.1945273124743719  0.6755773364842536  0.9882282353435438
  0.8339010402752877  0.2483467741734728  0.5802765231664004
  0.2503897750816578  0.9155063930215704  0.3351081999724638
  0.4972453469679856  0.3290150544349893  0.0036942232679243
  0.4972862566041432  0.9193276431602850  0.2522938883085099
  0.7471393907901041  0.4970660939265668  0.4147326037203935
  0.5790050939875282  0.4136838398013551  0.8321333833054145
  0.3371107924422630  0.7505492245475741  0.7450918424907051
  0.5811129692293285  0.9177306737804105  0.3349438850161228
  0.4968110460695186  0.4987808791640138  0.6618327419436592
  0.5005215603746502  0.3299514486178931  0.4971257181966893
  0.6643936458087669  0.8358491488814812  0.3348543634168825
  0.4165175772250345  0.7502658633982350  0.6654274547895285
  0.6636395437398009  0.8354243492745782  0.4975532962688881
  0.5001232629914274  0.3289217708788203  0.6645796040941158
  0.7488357833477959  0.2499580159619704  0.3343840603090233
  0.4144867707365171  0.8364872234501608  0.9175924938118803
  0.2618789528278484  0.8354651419066027  0.0963706387006091
  0.2535178943271163  0.8339831929490694  0.2549644153480615
  0.2551310964173163  0.7491761198446734  0.1704534665143594
  0.7377903767247710  0.6669477529819241  0.0997231063871844
  0.6626766075978889  0.1660723879162352  0.8312388595125345
  0.6639084793399281  0.4885234565271917  0.8297087386387932
  0.2534645829512764  0.0043641452404734  0.0869123187710273
  0.3326472155503053  0.0020586924606975  0.4959451924580349
  0.7495370291357337  0.0831928044368173  0.3356454051693583
  0.3330514670444409  0.0838232291343487  0.9170163945014160
  0.7463757382456594  0.7528328907751359  0.1721576891954337
  0.8327188688765534  0.9226996778372887  0.0908181022169209
  0.6622478475134170  0.6716826599403801  0.8340828485035213
  0.6633380380886627  0.8362006210452942  0.1696842596091511
  0.6640739219681135  0.9170726920758547  0.4150447569756676
  0.6651250421966813  0.3303315945516683  0.6622848197375881
  0.2526655043861725  0.0016590199463057  0.2548720567117159
  0.9984777663784818  0.3336522133162086  0.3339420226457813
  0.0022098005399078  0.9217453550370720  0.5763380531477975
  0.8301981447467883  0.0050547274817674  0.6567488116428750
  0.2523639756927928  0.9193960660037872  0.8334349257286418
  0.1717193646785384  0.0031313230111068  0.6633356747336047
  0.0866195406100128  0.1650677009349572  0.7476611919128633
  0.4975634032801665  0.8331932794017392  0.4983625463017629
  0.4204155513233510  0.4153889591996369  0.8325019785933635
  0.3336224018194960  0.3304123595296879  0.6658795849423089
  0.4155889794296629  0.4982637467409901  0.4181569602472333
  0.2587338920234659  0.8359539909601212  0.9176974851429013
  0.4987488521976621  0.9199730641606412  0.0858188231316356
  0.6595563195176954  0.6666995052505080  0.1726354121878340
  0.7465863855138473  0.0820486388896028  0.1681515663825657
  0.1670997288758718  0.7608444765721315  0.7359435890519807
  0.1771602979529419  0.6652865447042803  0.6625965239087233
  0.2555823099054395  0.4984208568752940  0.5788616860759275
  0.0001872099364444  0.9185729866630257  0.4147134726280639
  0.7489258554098408  0.0832484334204273  0.4983145757041538
  0.1722980255645286  0.6639447470480369  0.1693967122547201
  0.0836559902767510  0.6666514925715459  0.5817070943445636
  0.8320278436867482  0.2485484694332115  0.2527012899181418
  0.6640768347149058  0.4138027845649673  0.5807583266979504
  0.2506818620019784  0.5816285372323563  0.3350810351103619
  0.6634821722645938  0.7526465316717709  0.5781612878638835
  0.7475873396554139  0.0032474247507208  0.5770803186272853
  0.5770763540599041  0.8400878484387654  0.9155349293829110
  0.4970336535714255  0.0843703484751642  0.7466736225896634
  0.4202975788985799  0.7499659575056129  0.1727192345746714
  0.8325735970501330  0.4136943948968558  0.5805384060731298
  0.6648418915768990  0.0013818518963405  0.1685397275520692
  0.6665987199256637  0.2484566616503972  0.4159851294518389
  0.4996370024018036  0.0852521376802351  0.0843894725191061
  0.6618761303541770  0.0865296559431843  0.7457411336916036
  0.5807499481500904  0.1670215607976911  0.5805718728657526
  0.9148645103798317  0.1665556452060243  0.2523519336052618
  0.5789734513465828  0.1628782024888639  0.0850733501212081
  0.8304041302967203  0.0814345280320380  0.7418832270409866
  0.3333061055739607  0.0017220926992976  0.6654273821907778
  0.3328156110943718  0.4149624409004530  0.4171801664249650
  0.9138868836169425  0.2468193871623387  0.1730093194579890
  0.7457267474885177  0.2485587772745744  0.1689526442091118
  0.7459646016954955  0.0839725542114979  0.0012628529827437
  0.5823143982053194  0.1650170689562628  0.2536530978427791
  0.7426578456584341  0.7594868511768189  0.8119274223209754
  0.7404506025615974  0.3295735445739643  0.0942185704293180
  0.5799735571822525  0.5823273544728330  0.3347120818471080
  0.4979448070806344  0.2479974736234877  0.2528847995075063
  0.4969988322293812  0.6657918387407398  0.1720795022875641
  0.4983455283736895  0.6668364898807274  0.0038113802033356
  0.4990504133695550  0.4974308490818366  0.8321825327579622
  0.4966604559394500  0.0021778347397420  0.6647349317640655
  0.4150404836993912  0.6675546170669162  0.4157491608419016
  0.5813671604348021  0.5841387171612497  0.4974356692648930
  0.4970894436596517  0.4112429572340878  0.0874742428645662
  0.4973470073017955  0.9194088683299880  0.7484760296366082
  0.3331932102615567  0.8335498305552557  0.3322557868271641
  0.4969799682964424  0.4990452149835027  0.4983835657335833
  0.5029274123984915  0.6662406388646989  0.8310204118158965
  0.7447125385128124  0.4119498405964572  0.6613457714080400
  0.5814226830317655  0.2482000683631551  0.6627864414010580
  0.4170399365255559  0.4975294035827633  0.5809782586488175
  0.3338193285118798  0.4990581965867720  0.4978713472424917
  0.2515972303732436  0.5826984263970838  0.4985953279095048
  0.4982678116478391  0.5806695258332495  0.2572682960164093
  0.6559563075000324  0.5805703494172448  0.9209266347505397
  0.4138757907833293  0.7508843149072556  0.0042887534084309
  0.4984912811527765  0.4990926311610377  0.3353647003912714
  0.4200081543481947  0.4961287353276045  0.9175988338410062
  0.6652336009387657  0.4145904626844889  0.4155480264499312
  0.6599590043227442  0.2462733235459355  0.9168771950661159
  0.5818983759023630  0.2471874747673340  0.8315370083677237
  0.3320475085844520  0.3322604947859300  0.4978854658879441
  0.0868091665873996  0.6687186637831077  0.1007795197818734
  0.0903510060548479  0.6790349760705332  0.9095334082278071
  0.0900351786190770  0.8348342354149476  0.0924796380585122
  0.8350176849635238  0.9205112746404657  0.9166425178924530
  0.9279815557928484  0.3176932448237520  0.8904671312136733
  0.7478923183501149  0.6676291129584643  0.4141053528825835
  0.0849495917800053  0.8331437447923764  0.2527582453152061
  0.9140899347930589  0.7527635277953261  0.1685576803387069
  0.0864906776628693  0.4107580040449680  0.0046951159287151
  0.8190839054552571  0.5891217934333774  0.7388583807225342
  0.0833753033848519  0.2504785861773829  0.4985890168251139
  0.0041158627398243  0.2463169820390348  0.7474711023855581
  0.1681421803412637  0.2491075466779135  0.2531675955850343
  0.8333228327638482  0.8357058063467216  0.3345204665010160
  0.0219294795912231  0.7170720809700858  0.7458193138301188
  0.0007585037617158  0.4984512726417843  0.3337804931864555
  0.3378323113635850  0.8397385240995204  0.0032161824106921
  0.0908771074500417  0.8431099901609769  0.7419164104406794
  0.9263682943373694  0.9301165429782978  0.0045076781233032
  0.0829702875269871  0.4984094836911750  0.4153454853720546
  0.0853402391183071  0.4154022521571883  0.6641952005395441
  0.0722175705176518  0.7694906764121231  0.8235253425885940
  0.8331632965869441  0.9169156039274621  0.4139823508776567
  0.3356854831209923  0.7502600897506201  0.5819421899552849
  0.5779013880431848  0.9209809703891070  0.8318466054473196
  0.7418081147121558  0.4959311852872942  0.0953897186327286
  0.5738361444436221  0.6660673349467323  0.0913570169599724
  0.3352554295467711  0.3285887614362851  0.0012728862852234
  0.6619480386038435  0.9179951732620460  0.9154276608077638
  0.4156761096261687  0.4129721309927266  0.1711169622311316
  0.0294784768690823  0.7791943281105317  0.9257024754691087
  0.4159945850592611  0.2471681970788616  0.8327972702770936
  0.9148851481404834  0.5039893436194243  0.0978327917169385
  0.8553714698705651  0.4148165206072240  0.9267789706540774
  0.0845065353071712  0.2487385093467015  0.6647025214012195
  0.9144320272587312  0.4153562037768249  0.4982404729932506
  0.0859048818474870  0.5834412639738175  0.1679069598555130
  0.3320249927450291  0.5801309564678359  0.2559912697880598
  0.9970904750448571  0.5067661393022121  0.6704920783004641
  0.8304580892016891  0.1536160615214346  0.8219504890499866
  0.9193034479254579  0.0819313332197853  0.8265557150693162
  0.9174966197834686  0.9219515321052141  0.1742395038631219
  0.9990721516675330  0.1678975152119234  0.3344607893845041
  0.3407589254365861  0.7475193264557202  0.0929958719780687
  0.2544352308211246  0.4143787077039955  0.8314365026514053
  0.9166442662073870  0.2509148149693721  0.4987403917062986
  0.2521870173609592  0.2479091589125280  0.8327905121779666
  0.3333647622087588  0.4966060883334594  0.3363722367348636
  0.0038770948069097  0.3274295763656010  0.0052613942982104
  0.3334055982228642  0.0861084045981960  0.0857772663424266
  0.0003510820977391  0.4182914099508601  0.5851515949725203
  0.0856102674061759  0.0836502370366500  0.4970299228389758
  0.5804889408516820  0.1653998744120659  0.9168516986428380
  0.9165047998188713  0.7506265333037734  0.4989939517285328
  0.9789300653020554  0.4088784160165210  0.9358406560960392
  0.1719130869160752  0.0030635255218723  0.1724312853841905
  0.4181269366277355  0.0021730552749713  0.2527898195378215
  0.5731587637645353  0.4950325300162179  0.0891347755867207
  0.5780231597650015  0.6670941973005189  0.5786513054647018
  0.3445435313142242  0.7514661491431283  0.9141856762299571
  0.9146702114735525  0.5769859840550151  0.4932286557505642
  0.9785221159159383  0.5116032703600248  0.9023745238871346
  0.9148913559096090  0.8471306574517279  0.0975204130275626
  0.0010870769721713  0.9999954824610272  0.8308561933783386
  0.6650814221701474  0.6670977942976792  0.3339118136500077
  0.9913646752310259  0.6668933543635347  0.6510550006737981
  0.9202384765627583  0.2381004315181576  0.8228779684011014
  0.0003088636572016  0.0008193275671382  0.3341860326636981
  0.1584240549226720  0.7686507557809343  0.9216718081498194
  0.0794617774954174  0.4734653140038630  0.9157468031177214
  0.8313145575520543  0.6669618930003470  0.3360519395291395
  0.9997103178379236  0.6660343298666326  0.3348029734038496
  0.0876823040550518  0.7531428682131818  0.1747886230383248
  0.9020600759688361  0.6730861931552311  0.7367606511127703
  0.9124057457613273  0.4245574323851562  0.8300697059385060
  0.0832095975411658  0.4937534497055516  0.5809860864133259
  0.8081055622582048  0.6734031137078959  0.8213611857994411
  0.0021126520785220  0.7521128721377666  0.5787002214803516
  0.0832038306771604  0.6651876588794321  0.4163576365640492
  0.1650233801614754  0.4166559230254542  0.4167994936514305
  0.2552561619174658  0.4953907975360689  0.0898165414728728
  0.3370382408100743  0.5789560437726636  0.0891852248401104
  0.6651594883020010  0.7522500219711111  0.2505648720009745
  0.3327225577262653  0.3333724406694011  0.3357544862534205
  0.4144325286071581  0.1666543053604276  0.5806464956640578
  0.3312629434298622  0.1689696546090821  0.4977933065138999
  0.3329787358070709  0.2511941984792559  0.4184472841565733
  0.5785934348221363  0.3289114440521118  0.2548931884004869
  0.5809469565582691  0.6668278290884339  0.7474914711163141
  0.4991275400331137  0.4943788833029276  0.0040939657315506
  0.2510220293922298  0.9998057069646676  0.4146692354145234
  0.1676869491077013  0.0013511607270240  0.4958942620452187
  0.1678578029877473  0.7493818756670998  0.4154753560987797
  0.5780484029778458  0.8389105173294958  0.7466386909173185
  0.0886663705747942  0.4120181168710388  0.1740743210839041
  0.0868278862328199  0.1648457208556138  0.9167288796164509
  0.3329586034550929  0.0854614544202152  0.7487921319351181
  0.9156321040137596  0.3309644527479184  0.7527474603695095
  0.9131796883129258  0.5823081268876211  0.1741440260151401
  0.1701272085517919  0.3307504432693028  0.0014589590914830
  0.0893560771772079  0.4922278363955298  0.7404078154863187
  0.2559463650668780  0.4935597191668484  0.7461717138056654
  0.2517582312519193  0.1678928418891276  0.5803050999564047
  0.1701657971580244  0.0007134277973435  0.3330795971303419
  0.8361049088639425  0.2299620203980499  0.8957436757861680
  0.2574907255977727  0.4965599841830111  0.9169788030451020
  0.0856286014822049  0.0846766430061011  0.6628315579375361
  0.0077045280490279  0.2427285145804975  0.9153102103255210
  0.1662350626014319  0.4151391176189896  0.2502176000856297
  0.1658914520434629  0.2501508412382933  0.4164383232257726
  0.2498721079410215  0.1698422941386263  0.2547677924973157
  0.5857063164497938  0.5802911809885751  0.8341858525613640
  0.1720267538361020  0.0041389134964889  0.0053702161610336
  0.2531301126357665  0.1660622795052493  0.0851052205599820
  0.0025220002945717  0.0033199238566039  0.6594828215635744
  0.0842565085238924  0.3343920059811614  0.9183582973306006
  0.6525927615178723  0.3961908011594563  0.9187184568365883
  0.1673013552332795  0.1691993587562935  0.3353408199807953
  0.7490958093226756  0.2473955388692659  0.6613987385738485
  0.0028831657582099  0.0822020549859813  0.7440264423217405
  0.9189230022607647  0.3189381986480731  0.0915682809285034
  0.0016937086522730  0.0894265325845930  0.0915858551091174
  0.0013069723439853  0.2475732940620008  0.0850062202080404
  0.7460035898086279  0.4973316227882730  0.2562524428123338
  0.2530342975084622  0.3300949154128571  0.0859591419019702
  0.9148926638699586  0.4153461857440650  0.1679356511576504
  0.9997216480578671  0.0008768802244114  0.4968656796870293
  0.0857434267940404  0.2474978974952259  0.1707593314102723
  0.0092529828336110  0.3347980171248442  0.8295134567013153
  0.6657663689856391  0.1662256875747451  0.4979963586039168
  0.7473040850626584  0.3196884862198065  0.9231994403786152
  0.4979349495513737  0.7504103268446303  0.4162916838926142
  0.6642335094641295  0.0847794587527503  0.5793453194577426
  0.0025562343369571  0.9241917985633457  0.0954686083081049
  0.7495588414656551  0.2488070035441721  0.4984793439511091
  0.5803536000868306  0.7511811081232513  0.4974077160299961
  0.5801614011162523  0.8340507262056979  0.4162831932245176
  0.8332035679766180  0.2492960222098813  0.4157472797656668
  0.6649621840792397  0.3305396519828560  0.3345961741628554
  0.7469532632087269  0.3296372305904033  0.7476835457904482
  0.5785915525192855  0.7520683220174804  0.6609890821092721
  0.8310458170063003  0.2479548570466404  0.7493784820682960
  0.7493879679239961  0.1666512471202170  0.4160638353608077
  0.4966268338804838  0.7508261723446454  0.5804014371447253
  0.8304031220747154  0.8357757571426849  0.1723576162507517
  0.6642555498011140  0.1644590238412039  0.1698759203868241
  0.3349450591196597  0.0035467828047772  0.1708704393786281
  0.4144622509905835  0.0839485344429404  0.6638940253238267
  0.6617851393156829  0.0033770494242609  0.6610624948734216
  0.7475649126093010  0.3295161895237015  0.2524595514900100
  0.2523616648160810  0.0845614431383930  0.8336037089974180
  0.4175335305025700  0.9208099567781729  0.0026317468839625
  0.3338757198988286  0.3306742130451338  0.1699357228128625
  0.6644427755701646  0.2472597142571852  0.2525439384237207
  0.4165691350424287  0.3310500140925955  0.2534243298019631
  0.7483220063816534  0.1656248910534338  0.2525332739760737
  0.4193247492249664  0.4974393216322398  0.7472772449813140
  0.1745470379649840  0.9192703065972307  0.0918068032230160
  0.4156078774566912  0.6675840052592463  0.5822167082044184
  0.1675261233499711  0.8323974525569697  0.3339532736811608
  0.2577427324231543  0.5755695001296477  0.8255535620395461
  0.3324811080712537  0.0839755692659202  0.5803208939489034
  0.3342574138866646  0.6655443241338896  0.8336399474219344
  0.5806345743014213  0.4936199530169670  0.9191093791837723
  0.9165226157116474  0.8346711881506773  0.5816888550131432
  0.8287783376749838  0.4945434660320090  0.0148889971078595
  0.8384878259130969  0.7745633404380389  0.7547550553809875
  0.9381217493570934  0.7693943280731053  0.6868036768844147
  0.8286563745185269  0.7490911615860844  0.9680624231005206
  0.9344157260323495  0.7262225484464134  0.9204740031344365
  0.5807133314110532  0.6674468689476206  0.4145716953503071
  0.8422390744913310  0.8488092977073615  0.0086726474733254
  0.8322047210917416  0.8358177843979563  0.4969427219284780
  0.7460345912123535  0.1657012668490765  0.7451294024635716
  0.8324057978355298  0.9190124552060608  0.2525091624052259
  0.9161837022942987  0.0862037206111867  0.1707010012873578
  0.9054053786863335  0.9390633365883845  0.8223641722629248
  0.8302731306524075  0.1656662164952127  0.1685325258499933
  0.7431195137397326  0.1664557701812989  0.9166911822247400
  0.9175488208754005  0.0838453041811288  0.0038357609942725
  0.6658281486096378  0.0831862640987298  0.2528032129910552
  0.7477594722141019  0.0007356598780248  0.0845549068868477
  0.9155220995885321  0.0041057141211962  0.0899030940124687
  0.4972980977209690  0.7515877407579358  0.9176483319340750
  0.4190245212045046  0.5817244988072326  0.8320096777250739
  0.6576649746195968  0.6679211923091420  0.6568337014593992
  0.6647907260754661  0.0012594763419539  0.3344654194338173
  0.8306583361663765  0.0841898836780680  0.0853636572599592
  0.5804260136885692  0.9189591475096551  0.1687408039315509
  0.4991574726215784  0.8347817084759277  0.3340673469457373
  0.4971371775410646  0.6670685782107161  0.4977221728456151
  0.8300263495448081  0.8398499784046742  0.6609992111281580
  0.6618049249702885  0.4133452427179948  0.2548522268051984
  0.9077441795781568  0.5822243417940844  0.6537989947280298
  0.7465054248927769  0.1635320964488026  0.0869590781772919
  0.4169766043693310  0.5799798400366618  0.1726476589089843
  0.6621011707663067  0.3287286566186662  0.0071285102656806
  0.8457365735476479  0.7709061299290305  0.8679325150918505
  0.5818643924459950  0.7515728915723079  0.3336383120210605
  0.8259694005247861  0.6583534995351846  0.6429768575005441
  0.5790744287492767  0.7519639018387148  0.1708813897421241
  0.4992264572436050  0.7513624125854569  0.7473140991071980
  0.4166309416212132  0.0842033206802376  0.0011408649362808
  0.4164990705968756  0.2474467510932991  0.0016742433996304
  0.5806110292801032  0.9183334606153615  0.0006312941745601
  0.7474229912486607  0.0023810703176693  0.9182879519027041
  0.9172393534124367  0.9178562034117498  0.3329472188380177
  0.2553390300629746  0.9234760784680456  0.0027289132908054
  0.8321947386000548  0.0010561913771221  0.4971099605169957
  0.9161689174476189  0.8344079854350666  0.2514992999404477
  0.9165550198565582  0.8344790978736700  0.4161065320652592
  0.7479882269592277  0.8366973016895292  0.2532455079671559
  0.8312768673868572  0.0017480943087964  0.0025118981605907
  0.6636046514115532  0.1667655824936070  0.6627344390650022
  0.6600906886694514  0.2461025548892805  0.0890615719404041
  0.4988257421811072  0.8357981093770448  0.1694799236879452
  0.5783305346239345  0.7537969108026088  0.8310632972136509
  0.7295330452300631  0.5803084707570704  0.8226910781273558
  0.4197773193856479  0.6638252375602915  0.9167952498556371
  0.6612939863958096  0.1638421982238116  0.0020655151769637
  0.7464364606374200  0.0851567291890118  0.6605962247196835
  0.6593261955921628  0.0052173550540955  0.8307051845864842
  0.4155166516815301  0.3297616316065534  0.0856782319263882
  0.7415976599510345  0.0845429253261638  0.8310592082793271
  0.4964867758791200  0.8352079643139850  0.8322546988154955
  0.4974328440919169  0.8354614073272661  0.6636476865754690
  0.8259097848949143  0.9319253693773122  0.7355899059299447
  0.9171493780358534  0.9228911216098071  0.6571967865437980
  0.9124993699364854  0.8592907792550645  0.7480755376643092
  0.5811201877592531  0.8354355981075459  0.2515800550831072
  0.6661947078617670  0.1658849143377077  0.3347249695571074
  0.6640166942397667  0.0008465795983152  0.4973379642787635
  0.7487029185486953  0.0006462788194727  0.4159832774908128
  0.7471090245575633  0.9194034061787280  0.1697581302151499
  0.2522885487373193  0.0861183209727863  0.1712026344184044
  0.6620129040571907  0.0837150112832101  0.9171022437170077
  0.4152750823792187  0.1651832225707088  0.9157548000505608
  0.7492118208751102  0.8368568740190041  0.0890774182612591
  0.3352351601249653  0.4131382497121501  0.0867304018318119
  0.3339498731372586  0.0025959972712627  0.8327455432132401
  0.9159963352207396  0.2492176284154948  0.6665441812997648
  0.8325533424062245  0.0836771539322737  0.4159816537532625
  0.7488573475585217  0.8344958666455273  0.4152419668854859
  0.8990648421338046  0.5820069258247741  0.8196709743636200
  0.0016874792640385  0.4990138302800669  0.1708345281962962
  0.7480501274711037  0.9180955784617277  0.4970011688541655
  0.9201334065900958  0.5805762769217852  0.0016522084555927
  0.6606387144029479  0.8364881536463629  0.6601005597299111
  0.6642039315316178  0.9180821078662540  0.2523847841698898
  0.7485648592976785  0.9178212082681119  0.3347053382795032
  0.9157197061499841  0.4151811902562524  0.6632678369380329
  0.8278096879932485  0.5775844818250779  0.0959705913463387
  0.9167782484106373  0.0839401188964478  0.3347010766933623
  0.7479969414612002  0.6671631390434709  0.2531101546756961
  0.8713981012777020  0.5248200895410440  0.9109934726466472
  0.8266317359646722  0.3362655071638173  0.8344095711270673
  0.6622996042712275  0.8408827140207996  0.8260277972046393
  0.7415077373115248  0.8447808904063038  0.7387363379223281
  0.5789204137359816  0.8353379837534873  0.5794596925320564
  0.7458866059838200  0.8366364477477951  0.5795988987529895
  0.9193325279356979  0.2455984991932886  0.9941115828925474
  0.0014373588586858  0.1667310769675277  0.6620495648550234
  0.0006156237538923  0.4130724701448552  0.7451982416513672
  0.9163508859403947  0.3323101206671840  0.5819968339179835
  0.8291748869411468  0.2476990172257960  0.0867017331020151
  0.9160029496552589  0.2497865509460689  0.3339468952049098
  0.8304730517546101  0.4105125460787425  0.7422215486123667
  0.8268447514631252  0.0883697297368370  0.9158703172826932
  0.7430495192987252  0.9226253920492461  0.6578549141210450
  0.9161150882383379  0.3320417520113867  0.2508608862590271
  0.0827312235164224  0.4155108147471532  0.4984717031141174
  0.8311145679411094  0.0845433884813884  0.2528024415118661
  0.8329474581440860  0.1662749645233798  0.6639535486283853
  0.9161698270767014  0.3324757589313144  0.4163876987307670
  0.9174537376592602  0.1675244288745274  0.4162766979370130
  0.8324209387131997  0.0864200856468772  0.5783838535012712
  0.9170423787263288  0.0842308114474856  0.4969668468609544
  0.4147886901741127  0.0032466110341438  0.7491211951955913
  0.1706506753702957  0.8392286139618594  0.6584693748472354
  0.4980804482757318  0.6662352919561833  0.3344788953608365
  0.4160478504776538  0.3324378709569429  0.4175390963066973
  0.4191829420528065  0.6638042333263460  0.0887995827010618
  0.3349640852323115  0.4139765379724962  0.5810480851581540
  0.4167150623190654  0.4136175473120763  0.4997231656273691
  0.7444778299612596  0.5806454346121673  0.1744832304071782
  0.8319989994265176  0.7508590020190785  0.2527311550248114
  0.7424265772130447  0.4136696358351939  0.1751796928125730
  0.6625398639563405  0.5826162911666771  0.2542258642649572
  0.6529812363717632  0.6553282841249770  0.0177930799287355
  0.6571808335102742  0.5780223689138133  0.0968421789778749
  0.7375505016361648  0.5770664081313998  0.0187366329890174
  0.9146169116085950  0.6680273788622877  0.2529946001579361
  0.7504748848681135  0.4175958404163141  0.8730809930852590
  0.0060937429737923  0.7518207995269881  0.0956867982257070
  0.7400366057061375  0.5827641448844416  0.6554989349762498
  0.7384628879817586  0.2446431334171366  0.0078948008859168
  0.9132689207122546  0.6564461400118250  0.5685072470200008
  0.6632394847154219  0.4978541412039850  0.3350464336704398
  0.5776437024808367  0.5820070352461516  0.6601934761577376
  0.9902614384711268  0.5141434722731810  0.7941508081206292
  0.9166846056236764  0.4984753670447381  0.2516481226449375
  0.5826325084195629  0.2489335302951103  0.4987417508538475
  0.6532434506411564  0.5777820330522905  0.7415106410760446
  0.7392544269165211  0.4217609543001192  0.9958946343349814
  0.2524869381860737  0.4134842292107129  0.1705105144952705
  0.2484306453404728  0.3332057419800979  0.4169793704649279
  0.2488122122682016  0.4153074351280232  0.3352202441513529
  0.2545253894718226  0.9196461672850849  0.1730264191022179
  0.2560576166333299  0.6637698063684836  0.0880264678881632
  0.1697861418124705  0.7489740351426596  0.2530128347901167
  0.2525187274200346  0.5806396851255629  0.1699696178076958
  0.1719865849647851  0.8339276268571809  0.1718265435366557
  0.2503594929801065  0.6662213917444508  0.4167470242468658
  0.2516894679250529  0.7499302237473788  0.3345817816952001
  0.1726426244587256  0.5813536608829004  0.5787432369561440
  0.1694606197357758  0.7500435301836880  0.5803532864594065
  0.0092584317333662  0.8447607627000217  0.6585826145719296
  0.8325193371497567  0.0008978933791018  0.3344229166689985
  0.7480581836584242  0.0009734793110503  0.2524456692408831
  0.8313732542287592  0.0039529173505930  0.1704302896320008
  0.5789347655991977  0.9201329235091975  0.6624744024968999
  0.6639317359893817  0.0826214977287392  0.0855576949730938