 B Cr Ni 
 1.0000000000000000
    21.1200000000000010    0.0000000000000000    0.0000000000000000
     0.0000000000000000   21.1200000000000010    0.0000000000000000
     0.0000000000000000    0.0000000000000000   21.1200000000000010
 B   Cr  Ni 
  35 259 605
Direct
  0.9251456053272652  0.4280521395399786  0.5579927344549305
  0.5393686492447917  0.4798884213780900  0.5758460319737242
  0.5451811092858692  0.3349030862924659  0.4236919760471619
  0.0823129249558994  0.4969451149149269  0.3361465489294025
  0.6671997939851063  0.3275213734178108  0.6162652630671934
  0.5013287802741925  0.5985143099208728  0.5082805400277468
  0.8252048151104049  0.4878198270486840  0.2576436911099896
  0.6652963460854185  0.2611626484413400  0.8362728311900306
  0.5721208138062087  0.4000882940583643  0.7416761247718376
  0.7556057477357215  0.4041700111322968  0.7369622393574924
  0.7388632610581892  0.2437321036214080  0.4203105107402518
  0.8197195756903729  0.6662338909980160  0.4240887630514107
  0.5896099383174856  0.3327599403767750  0.4949652064723565
  0.7781251449762472  0.5199919250706491  0.3155104771844376
  0.5756998958115592  0.2686247347726270  0.7470682205853897
  0.5443159519607259  0.4831029481004824  0.4261680729701880
  0.8275197194107070  0.5581331979106192  0.5137705335052448
  0.8869215311090290  0.3439427483757523  0.8331475647379866
  0.9318380748256396  0.4508930837470131  0.4095760702702503
  0.9743991807526811  0.4877367270256139  0.5871834379947433
  0.7451105420290925  0.2611219958952935  0.9193072537538903
  0.5825714447217254  0.5311683393235777  0.6167473351398239
  0.5853912062858230  0.5248392745776326  0.3744346050162112
  0.6746379834471550  0.1808980199295236  0.4191891705548427
  0.7229666369408253  0.5558441522149390  0.4201554245577679
  0.5839894193638614  0.3254447482845845  0.3522871242413333
  0.6646683949125372  0.4086073378395609  0.8394654151957823
  0.7574976324142871  0.2576612221503736  0.7408049310761494
  0.9256325430162712  0.5363164540718079  0.4165842839217054
  0.6780043036800509  0.5581149840446722  0.4932652766915137
  0.7435289823142273  0.4288333108551805  0.5642084892187593
  0.7531894556781368  0.3290967191778520  0.9710909666281644
  0.6838769822988010  0.4216566703999743  0.3530286883487229
  0.5714508391058118  0.6389880860710595  0.4857126378764269
  0.9349726564698680  0.5217183713097390  0.6488826585742291
  0.5793346521520125  0.5426305417566388  0.5064984457535899
  0.5808643584443353  0.4263854349819562  0.3399391931681023
  0.9199525285734047  0.6752827136030420  0.7576219625887090
  0.6607721731370780  0.8341334788299503  0.6696068727014958
  0.6604383293010033  0.7552778544299152  0.5857410247467078
  0.5790059974837861  0.0789936252181104  0.1629565175902005
  0.4135675248781541  0.0805126856468689  0.9993835805199159
  0.6518171901184110  0.4866034860573202  0.5616314569544898
  0.7493972524585438  0.5851819931541686  0.0021793425200534
  0.4931337242397544  0.5027871433207962  0.9988660811360552
  0.4143247331669276  0.8362605211445860  0.5858851163144758
  0.5764193740412898  0.6763814509575892  0.2409780764935474
  0.5786593847355296  0.9172345746511666  0.3311067785093252
  0.7481638707537898  0.8347678834853018  0.2441351905209909
  0.6674195616584820  0.5938518267187618  0.5894288046033725
  0.8345322329172752  0.6675352413751804  0.1643997866678114
  0.6623765261236149  0.7603394423272664  0.4125450242408309
  0.6643324697526620  0.8370899136476670  0.9985280274258155
  0.7481115739943308  0.6776870669260424  0.7591878280034052
  0.5792696470118581  0.8331255488590303  0.5855117114289287
  0.6655212237411584  0.9156790420829604  0.4139650298852911
  0.7501484447631825  0.0814925468937641  0.8342865213999980
  0.6591071688839589  0.1583052054987883  0.0061561368256444
  0.7540918154469782  0.5070728947948028  0.7487447626597249
  0.9967460099870390  0.5857416851201543  0.5872693278934431
  0.9174864658474944  0.8326137321949615  0.4133804697307328
  0.9987202655280599  0.7499039024804552  0.2507582987018927
  0.9147262643766259  0.7520645587565532  0.3302655225766548
  0.7479483234420042  0.9985686316921104  0.0831442954410532
  0.9222102336452924  0.5050513580199310  0.9214920417603945
  0.7617325318141884  0.3193774659600835  0.5734044856939015
  0.8355611843909349  0.6695308842458729  0.0001944688690065
  0.8392572162395627  0.4284136653106599  0.9194615906196351
  0.9176853617234992  0.6714955720924546  0.4167842775887444
  0.8246141499378350  0.5735748300935206  0.4032135491364492
  0.9197088850810778  0.5965777259123640  0.3314553644949627
  0.8667474196471194  0.4910040040907437  0.3442917015561087
  0.7475040633031131  0.8367043189349483  0.7538446054933258
  0.7501499113110515  0.5971200818681278  0.1587553437579934
  0.6632404998514760  0.9171608358639322  0.9177176659920594
  0.5793737004560376  0.7538071882340359  0.8380815969995093
  0.5790003268675168  0.0004979223232978  0.7540115435292953
  0.6678679206394408  0.3365819911475884  0.3017065309506833
  0.6617226232038939  0.4255214443060404  0.2478847844210364
  0.6632111504617578  0.4168433887040963  0.0848874782890294
  0.8393991213309183  0.1549008395727036  0.8355585735280222
  0.8455597537228043  0.1496968722225215  0.4975091393969454
  0.9219735750353006  0.6716832239541938  0.9205306076469433
  0.6649520384769075  0.0754586887763170  0.5852797929429325
  0.7580816044138265  0.3219434913752954  0.2356044548024338
  0.0027024958340576  0.9953952328698710  0.4977349120299613
  0.7528100565426583  0.2392463287230058  0.3173595961250401
  0.8404051257609212  0.3257679071422924  0.1554161242229287
  0.8340846296724115  0.1584456808116134  0.0039769761548049
  0.7484356039200427  0.9977245273726491  0.7518774899871763
  0.0835932045654453  0.5875618714792021  0.6661304373492967
  0.0013491368745939  0.7517738967024358  0.4149587339347792
  0.3295044369683486  0.4165972074273097  0.9165966337188681
  0.0231549889239772  0.4985290605062250  0.6719678348921575
  0.1689048691695237  0.7517199780175756  0.4172947950319247
  0.1694957595574091  0.3276023915123034  0.4973895289880207
  0.1661632150299575  0.3320475251296214  0.8342018883748068
  0.7478608054481025  0.9986267204175476  0.2469275150647050
  0.2496651932476597  0.2485788499709674  0.9980064331635328
  0.6648967689870490  0.5077574671544800  0.0079392897900828
  0.6632124745605998  0.9164786342670604  0.5852058905008296
  0.8351328592157874  0.9946608029145906  0.4968004320961904
  0.8331922700890053  0.0812752853410130  0.9184970195177125
  0.3298315664573326  0.5835004722679794  0.0839343721994424
  0.2478452268254552  0.7513372507280279  0.4990180671565340
  0.9183450829446810  0.8364986527199924  0.7509674854470458
  0.0835036095037302  0.2475897138585924  0.9975127439209922
  0.0854501338465194  0.9145852646555088  0.1666333507512126
  0.2466247049433523  0.5844971991635126  0.1680755351327151
  0.8395817738993645  0.5002951252656200  0.1609338247877695
  0.8336295229231996  0.9179272639248004  0.9181525877473510
  0.1656644148705083  0.6683353872338610  0.1651525597108063
  0.9196108438939843  0.8348082192412770  0.5841986961378601
  0.0810851122651208  0.4966082225683602  0.5757843409286935
  0.0846715704770858  0.9963437030196662  0.2485030895846058
  0.9862004761630605  0.5005867472074889  0.3384333721730162
  0.0018807422552951  0.9976830570377038  0.8350013570745078
  0.0872358330880269  0.0796326343468188  0.9991954866686202
  0.2473038705118061  0.5845035323300651  0.3304149748763985
  0.9194250217227902  0.9994755841800109  0.0837928145962823
  0.2498572280993063  0.2481813218325307  0.1637642870062335
  0.4125851576312301  0.9149757646447119  0.8339283005728125
  0.0856355547624785  0.2464676580571889  0.1662015792967526
  0.1672938932527598  0.4138196365265321  0.2475966933212419
  0.0783116494691311  0.5827367183006428  0.5056644204886144
  0.0844938551107902  0.9145181246992260  0.9995237016073800
  0.0062203811913866  0.3292022956768765  0.1621924337344447
  0.0851364317561288  0.1613478767325616  0.5830168909248473
  0.0872314950730047  0.5875845625930071  0.8351208771031577
  0.0858059118073161  0.4174223894174355  0.9990012861844697
  0.7463577205397829  0.8359329907610757  0.4144292507297254
  0.7493585213509627  0.3330221324723980  0.0843661768303877
  0.0016356354982538  0.3265573110474744  0.6653112352553946
  0.3295084355372951  0.2442309541124073  0.5851920604384288
  0.2472559896617778  0.0809918347681465  0.6672850106320621
  0.1620979605281350  0.4998502769736521  0.6638192200716578
  0.0027761778486406  0.7553417099033597  0.5847531209039224
  0.1665986276084848  0.1639086303208275  0.8334728762116485
  0.1681507697205656  0.3287013126533641  0.6670016181769777
  0.2487968621588724  0.5005132124089636  0.9173370446014364
  0.0856983381395109  0.8348749404514796  0.7514693357746689
  0.8338181910100881  0.8371219615645096  0.9999391055125870
  0.0858343040180551  0.1611140734686452  0.4144420200240643
  0.0018790525718871  0.6685692188221596  0.0013415918599619
  0.2461024446242815  0.4997969998690068  0.7495231078792742
  0.9975119405756326  0.3308965137329666  0.8358023052518211
  0.2476979236513505  0.9163710149072354  0.6669338288901551
  0.7496570835323880  0.7548004668586855  0.8369242385060217
  0.2495750274629321  0.4129084516221582  0.4996690910615426
  0.2512404339556388  0.9974309992858703  0.4172928497458151
  0.0006900437181307  0.7511752010576600  0.0833295805154663
  0.8367667885509098  0.2433647977025085  0.0803826600303169
  0.9156242447883731  0.6672032312548812  0.2461736184677923
  0.0001048749669992  0.2477178237965691  0.9153210756443774
  0.0856250517394324  0.9160909068165799  0.3306733614957774
  0.1675449107433085  0.0804471636347413  0.0811276724352742
  0.1693685928916746  0.4123347280429426  0.4185341172354309
  0.0844596674915139  0.9167178105854161  0.4978151516638751
  0.9191365853551181  0.0006481926861908  0.9180108656316019
  0.7492139195292674  0.8343421842623534  0.0834560327755675
  0.7489372069292026  0.6713497834072132  0.0772488388312091
  0.2528350244569451  0.1663413209629054  0.2465607524805918
  0.0863181234175789  0.1615709525773065  0.2462496964856906
  0.3298385261432252  0.4997349479009189  0.1658952132767954
  0.7486331510232804  0.0758168720418881  0.1640393194496623
  0.5782244381750691  0.1620212652629875  0.4141085952745112
  0.5768704448031594  0.6717948251958381  0.0816389250531375
  0.6583499860880995  0.3346255696341641  0.0070902500938543
  0.5014996286793054  0.3320810295977132  0.6789658873938883
  0.6419074422561828  0.3675690376241003  0.4212045626987486
  0.4889632803343039  0.3254889041981795  0.5035385494468919
  0.1663635054487547  0.5823346753020149  0.2496864810309864
  0.5775710619777873  0.7544205716051621  0.1615978230755725
  0.4144281270129554  0.4180596324333438  0.9992011676773076
  0.3280674888070411  0.5826300499243574  0.9172935519007033
  0.1672793461236171  0.8326240592957828  0.1659348754149751
  0.4136535173125284  0.0815735561621785  0.6665449070485405
  0.4985355282411976  0.9163037431225576  0.5841788158624109
  0.3309165128295459  0.9169925230730536  0.4154990085940569
  0.2511284374221565  0.9972362599251831  0.2476364244204378
  0.5778758531932662  0.1629094622210534  0.0835242244444724
  0.2487201888363434  0.8336488687188014  0.9165498019836023
  0.4150895412187344  0.9143910451308910  0.6664339531145230
  0.1672363363192446  0.6691779519019685  0.6663151723061285
  0.0033656752112755  0.9969674438939456  0.6675046701384084
  0.2476180154331663  0.8337787032193156  0.4159701094778059
  0.1666149747437737  0.6683967993833153  0.0012022515210282
  0.0009893293711024  0.7519790157688876  0.9185098329773528
  0.2481957927246630  0.7496017033771200  0.6670768002147280
  0.2483680360036178  0.8319184413414495  0.2480777532278870
  0.0854695897478766  0.1631455843451659  0.7519161044859788
  0.0843044427372819  0.8334768456914996  0.9185767185147229
  0.7489932381975187  0.9960767895362791  0.5849378767894141
  0.6653836705549634  0.1527932824422489  0.6620940370687280
  0.9216356684529384  0.0753328323958511  0.4961463869871307
  0.4937484273689408  0.5019936177882394  0.1663361215660499
  0.9267954608312211  0.5086932649888697  0.7490145042834463
  0.4116419861941871  0.6683419507207051  0.2487872880140573
  0.4945829755360400  0.5026072998100761  0.3334471800517364
  0.8403966606956542  0.5217759971266644  0.6816614878387561
  0.8555371298246851  0.4293081998796578  0.7539036572504547
  0.6576989723152115  0.5030330281576553  0.1571002928876782
  0.7476278661140733  0.7521674941295609  0.1625420257436887
  0.5796388175543935  0.2359710649997999  0.4990895304298655
  0.4119838467294576  0.0819234305885735  0.1644029013255660
  0.1658353325039676  0.9159133101914658  0.5837430012493221
  0.5790067417112934  0.0800950773644998  0.0012720744099791
  0.4113502854228527  0.0804250358880271  0.8342307988816010
  0.7477503149673894  0.6737462636501027  0.2431325839912301
  0.5777938837826698  0.5849670329585854  0.8335011478474819
  0.6640015089177146  0.5220125719194314  0.6736262843436395
  0.5797851166037918  0.6744361832915707  0.7587584855893241
  0.5787944385074751  0.9164821574849190  0.5000393533067924
  0.6651110357910764  0.0789184688328551  0.4140728596535261
  0.3284092935523382  0.7509294552281857  0.7491003880581826
  0.3321187421850931  0.2472446265085445  0.2483217893328185
  0.4952106018900455  0.8347541904360163  0.9985016833950141
  0.2498998245441649  0.9984222267650439  0.0806912801435358
  0.4106543060131108  0.6671991873534280  0.9166009710055558
  0.2501928272975635  0.5830240510964739  0.4989015368138192
  0.4962394169717458  0.2480034168939583  0.9184965487875396
  0.3300538931308074  0.9172116651454483  0.0813998329554517
  0.7515859837112899  0.5883756125255823  0.8395233083733414
  0.5741150768181031  0.5097236279999732  0.7482705716872323
  0.4938383327364827  0.5851785645160752  0.7502086808498029
  0.6700290609236998  0.5135176579526791  0.3242970363500426
  0.6494931771072626  0.4766029625667760  0.4342300240480725
  0.5063834250366244  0.5836289721694891  0.4116194710554528
  0.4143936495529635  0.0800409035983207  0.3320408275036029
  0.7493858831694273  0.5022565770140591  0.0883021393615255
  0.3312928081600807  0.7495670428792715  0.0824920299864685
  0.5739131155578290  0.3347828674504981  0.2493145600605685
  0.9194450216097050  0.4204533642641942  0.6593160332678348
  0.8330737368806478  0.3118970465372110  0.4886071063859548
  0.9247403249758375  0.4980737358379091  0.2452529646034138
  0.7483162733812511  0.2433138964040011  0.1610045261383213
  0.0074734671364718  0.2395410965203403  0.2446425217604424
  0.9279091692427609  0.2429728209661859  0.6626663627829650
  0.9154178672155207  0.2444984392793543  0.8354148875672002
  0.7478850725507512  0.9145556461330162  0.6687508481921364
  0.0069023016041079  0.2381477660517366  0.4120661622444443
  0.9184477900476691  0.3341932320394536  0.9206442724700683
  0.0034419679991874  0.2435649612832597  0.5805012807403173
  0.9195571922131182  0.0769701270764317  0.3289586498502844
  0.7644929672952527  0.4155603515039506  0.2971906773233459
  0.9237574547071927  0.0737642813996769  0.6659379143186847
  0.9161999496040890  0.8368040052261093  0.9203517833929293
  0.8336204180327476  0.5850916259555679  0.2555222809443051
  0.9176499530128430  0.9142403578921217  0.6684840370711628
  0.0854328880889029  0.8347369565862944  0.5835533115336127
  0.8322254612672866  0.7613438318329799  0.4148296703683780
  0.8327335824903154  0.8348379907823904  0.1648978375962516
  0.3288874996430452  0.4137944051798624  0.5851108054482488
  0.1665669726178706  0.7503282741809119  0.0820252714825785
  0.0045428293388987  0.6693319812344578  0.3320965578129096
  0.2457231215532972  0.6660355855188699  0.2492703578181645
  0.4130674423525364  0.8343447891256843  0.9149524343174985
  0.5761618376024709  0.7515411529055679  0.9999981481665722
  0.3298676588731652  0.9176920789993962  0.2486449651378644
  0.4939839805514867  0.8349660806824493  0.1644821188668003
  0.9183921686720925  0.0754918548841535  0.1634691648514240
  0.4100193003322893  0.8377063978000190  0.4156507301688436
  0.8420866056096936  0.2359003191774237  0.9308223890508381
  0.9205093343072526  0.0769873451732635  0.8342824209273841
  0.2516101133227603  0.1629558544266937  0.4159073381501462
  0.4976144079217178  0.9970423571703931  0.4995867426271172
  0.4943930655587589  0.9999015640212521  0.9984672419737756
  0.4960771880016476  0.9996097975386250  0.3317961755106623
  0.1664152683612895  0.6681029290881713  0.8344420513222078
  0.3306476588942132  0.1641458805909905  0.1622132830585915
  0.4103982676690620  0.6682502148423765  0.0818357090228646
  0.5785622853193091  0.3329775852840912  0.0841143669519590
  0.4951377366037119  0.1614772746497530  0.4989445358854279
  0.3274247219090338  0.5852879539595670  0.7498664429366660
  0.2490517945602143  0.5003771493598266  0.0842051356185200
  0.2480154599028950  0.6662693691892254  0.7478626866131854
  0.4091611346809090  0.4163560711673108  0.8373250281462808
  0.4917975232074844  0.1589792528822422  0.6680750806139045
  0.3280261409890126  0.5844543100196156  0.5816940289631185
  0.4122536909635893  0.6701629298321233  0.4126683803216569
  0.2483786085095580  0.3317994528294478  0.0811132780966827
  0.4762152179265450  0.4993852183494990  0.4992739286800163
  0.5812324877317518  0.0816420393933484  0.8333968409425075
  0.2486782649955543  0.9994986315308697  0.9155772882237901
  0.3303577439117616  0.2484779253178385  0.9175756561938184
  0.4927251072239790  0.1594663564108972  0.3292219834025066
  0.3299774618138088  0.2462769395758345  0.7512572827664421
  0.4941872121393388  0.7517028567704893  0.7528978803122097
  0.4136436464159472  0.3330806126980722  0.0811853944032577
  0.4066591964201939  0.4132581764413198  0.6686039717371782
  0.3322518051399949  0.4140998979931484  0.2478941919725031
  0.3303331322563782  0.4140415744865010  0.4157253938704766
  0.4127259011534248  0.3325298893648809  0.2486337502005419
  0.3304291436287418  0.2423543469325615  0.4158451215301254
  0.4118460395416099  0.7517349871517744  0.6675821235256659
  0.2478385257192115  0.3310990046380879  0.7511848937679504
  0.3316683992503720  0.0802398912839102  0.5844455231295456
  0.1654806488049044  0.6678428239812563  0.3341997961917363
  0.0847752280185309  0.6677335624091156  0.2482713949973061
  0.2488420582434171  0.6670140540056099  0.0834772801803879
  0.3301730674253626  0.6671604230579008  0.1668522904386417
  0.2501015931373918  0.4982192592756535  0.4167664444676412
  0.1677210597040843  0.9164353435347707  0.4150145186053221
  0.2491086405579726  0.9161145131870588  0.3319072995678621
  0.2482520180553821  0.4983882163372056  0.2487651442791884
  0.4136983058279998  0.9978557828691115  0.5845421169208933
  0.3311638950258192  0.1619673387880547  0.5003243294365517
  0.3303683494625336  0.0802616709173483  0.7500179490686031
  0.2491946523020279  0.7495339880811795  0.1654679227146050
  0.4121497240837711  0.8343956565780218  0.0815018866120348
  0.3310581186260944  0.0810926299113428  0.2481116216555278
  0.2482295502358449  0.7505960943928784  0.3325510920735918
  0.2489489343060098  0.9155536099742083  0.9987051298971343
  0.3309841091246337  0.0813260843050707  0.9161594263489762
  0.2491625653647427  0.8326697411877889  0.0826401202765245
  0.4133091364064622  0.9989530824401754  0.7503158969345918
  0.1669026417979445  0.4986054102892314  0.1662580815152512
  0.1660683594820896  0.6664014165208538  0.5003184843627451
  0.4134516614367266  0.9990931718831367  0.2473280722868844
  0.2465701142106141  0.4148512106235285  0.6669158494812729
  0.4953900625460874  0.9990178260584994  0.1643061499756795
  0.1652393156192579  0.4142366484532797  0.7506554559817972
  0.1668034996672194  0.9155499519721859  0.9163930650420316
  0.1678948060279387  0.5001396117115419  0.8355140797233253
  0.3300623345182927  0.7509686113814813  0.9160294969553858
  0.1662196679577510  0.4160047732587668  0.9167547596201430
  0.4919340260890341  0.6707492041175541  0.6682915157650010
  0.1683509101647303  0.9157936839024070  0.2489083464396281
  0.2492370641830026  0.9156484826410412  0.1649800977281150
  0.2480844905297487  0.4158342193377922  0.8334757632630531
  0.3294164173089201  0.6686025083401793  0.3320196365766553
  0.3319646311810551  0.0803332739303312  0.4160678768152159
  0.3311462077224774  0.9988985764975821  0.3321481754061307
  0.1666000231723940  0.5838549316598860  0.0837478931929978
  0.1673120388833408  0.9978467084679500  0.4989046659342986
  0.2482324213786895  0.8337114829430552  0.5837035139456314
  0.4142483705091677  0.9982869041709442  0.4162514665542446
  0.1668891110670692  0.9159465370003894  0.7505589410871065
  0.3305836264768587  0.9981322182386160  0.8327910057919817
  0.2489171364224542  0.9987115441960583  0.7493345523422026
  0.0838310914352741  0.3317790835840871  0.9161914127364484
  0.0827300286922638  0.3298619396569572  0.7513640789906866
  0.4948672807926187  0.0800253212259707  0.9168375199071700
  0.8336944224851099  0.0773753799047825  0.0830790750058865
  0.3305431031881890  0.0809794691439687  0.0806787330427702
  0.4127759951161629  0.9161304366961426  0.9983687633108409
  0.6611465424324579  0.3798731756999437  0.5395611442604300
  0.5748187497070585  0.6674951884132092  0.5804914387785542
  0.4148402996256723  0.1629208468648405  0.4159402203122607
  0.4112820505759006  0.4157876621150680  0.3309301312317736
  0.1718134379257399  0.4966094817250255  0.3337390286959272
  0.1663484259696600  0.1627666422152652  0.6680063375496788
  0.3288582688545702  0.3271927352266007  0.5008715371264466
  0.3309328407313788  0.1628014247173067  0.6677627774862849
  0.1687630984044031  0.2457072513219067  0.2469667736683815
  0.4888833231754495  0.4965307451010638  0.6698684287300061
  0.3301605245688815  0.8336167007611293  0.8329373632905459
  0.0021983629496876  0.8347784181060068  0.6687380239861066
  0.4127222693219277  0.9985957707241108  0.9154203702765762
  0.5763424965980362  0.1585072313911634  0.9201032849843157
  0.2481585782914224  0.2459143625490370  0.6682987609375162
  0.3311935292584768  0.2490279348807694  0.0806081943703696
  0.1665048018875663  0.4127543792207001  0.5819495990972390
  0.4137780428258954  0.2493918129747608  0.9990306828166964
  0.4134263204829530  0.1639410977750879  0.0812040672816348
  0.2484187327610830  0.3289727160024050  0.5841986207415099
  0.2487087303059637  0.5839083498286896  0.0009590126244735
  0.1672556372745297  0.8336680349173968  0.3317700649841791
  0.1673046691384472  0.8332322535784675  0.6672386720089669
  0.3295766117699658  0.6673976025510679  0.9995141748983275
  0.4107404924527950  0.7531754638684012  0.3303278244266759
  0.3307649629031900  0.6671759178788049  0.6649484659317566
  0.4137777764413529  0.5865206214094951  0.3323266422982324
  0.2501650111008116  0.4131060390951017  0.3323985853131246
  0.4110800159964717  0.7519678788459830  0.1652972010843116
  0.1698043745999592  0.2421212516680880  0.4150015670644080
  0.3315630046626420  0.3331231435109170  0.9990143404267803
  0.3302025465734710  0.5841018757138476  0.2495292833642550
  0.0896278202917693  0.3236077726955603  0.4134728343395489
  0.4127440625371172  0.5009168551671739  0.0833459150047611
  0.1665029570972610  0.0805267263906920  0.7510111107340564
  0.4122753410051689  0.5004024990068212  0.2492981212039618
  0.2505495955666040  0.2460353663930575  0.3317249499619516
  0.2511800083754495  0.3287307165508049  0.4149668567371989
  0.4928379267742188  0.5867533939853292  0.2461675229738230
  0.3293016486246656  0.7521793106251158  0.4151535389189506
  0.4930364036088943  0.7539070072486829  0.2464157713103360
  0.1688893866386766  0.4983496499081605  0.4996283971960411
  0.0891194764542750  0.3242806594838029  0.5820020201573279
  0.5781437748442552  0.1583921030758695  0.2434381611038231
  0.5765905515156923  0.2477901061204538  0.0040904152101377
  0.6657693554177077  0.2395055157031964  0.5881315810971092
  0.1669331825136688  0.9977232665084204  0.6669916075835582
  0.4911871510143781  0.2473294735809655  0.2442099956389167
  0.6608381787788885  0.2482177003643294  0.0860407200714908
  0.2496067526493519  0.0802577566349205  0.4989958237491625
  0.3305029438639814  0.5000622976525768  0.0005148283261724
  0.3310214630403313  0.3299167909601846  0.3317135772695504
  0.4137866745754634  0.4164220807481364  0.1654381733111636
  0.0854556893211648  0.5844373295180701  0.1662170881985519
  0.4928319550846321  0.3320172799655430  0.3336893721142718
  0.1653418053369703  0.5832125065070607  0.5817868815717252
  0.3313317172506482  0.3322306017996092  0.1642813066418590
  0.2462679436021052  0.5831900623793236  0.6652331504059907
  0.2470799434427493  0.5842820192192795  0.8335130722525920
  0.4908593299862157  0.7593596746720088  0.4107413987733032
  0.3295849384788981  0.5858090409945264  0.4143915457477206
  0.1664565946593884  0.7513676265169923  0.9176192059682721
  0.2484968595734727  0.7501187287534303  0.8336887448073342
  0.1663264591496584  0.7512672973889285  0.5824625943374598
  0.2477710671866868  0.6668653717919955  0.9171486617463859
  0.4100055498228709  0.5843912080003297  0.6677184070324426
  0.4114697349797014  0.9165176850893432  0.1640283583066937
  0.4142088932247311  0.6664082356590288  0.5824342518364263
  0.3287957027510814  0.5012555488113092  0.8335490375311783
  0.4105418614725842  0.5019889360732064  0.9168057459287339
  0.1677857307543715  0.2432905844609146  0.5839964996671532
  0.4092910795961005  0.5864723086112199  0.8338842414041765
  0.4098929580132928  0.5888180010430484  0.4973248591538468
  0.3314095026141826  0.1651912619694716  0.9988368320526878
  0.4120215829160205  0.1632869183297136  0.2469282423342951
  0.2502957800932807  0.3309516068295376  0.2478556660715888
  0.1664323897413972  0.5839252141043147  0.7496847333811673
  0.2477189618763805  0.6670557834925503  0.5825377411341084
  0.0844399409346856  0.9147691414665071  0.8347138351989940
  0.4088041607762407  0.5024605939311515  0.4122499355685321
  0.3304048141529357  0.7509512127597395  0.5833521077977318
  0.2490672867035686  0.7501788185070688  0.9996931993652706
  0.3287201257256582  0.4995457461363432  0.3311791418293373
  0.4081495334819261  0.5025176306430756  0.7508344887068705
  0.2493604587496877  0.2449630271275227  0.5000815027628817
  0.3274136180259546  0.5002099740494936  0.6676338525210954
  0.4075544818240268  0.4993137911975279  0.5862065382455270
  0.1696701962849792  0.1615759839454238  0.3306024872698055
  0.4106983442733021  0.6685853505797619  0.7503736928015754
  0.4115730198798050  0.7504526135016427  0.8336574338853330
  0.2472531428554813  0.6665928269589680  0.4167658501733087
  0.3324452010118159  0.1627998738962402  0.3320121368192017
  0.1684125485070261  0.1607833308487084  0.4989319263777224
  0.4110726213228020  0.5844945516941842  0.0001523642804058
  0.4116497663463047  0.5846192303286425  0.1659176979718967
  0.0843394404226396  0.2456774366062744  0.6674166169020593
  0.3311746602923399  0.9979794877996643  0.6672438378180583
  0.5806640419369770  0.9983262323223902  0.5844756917996180
  0.1675990520386119  0.9970530215651087  0.9987996190692131
  0.1681352421309304  0.9973034583182455  0.1653363278447393
  0.3307799373131348  0.9987107292853932  0.9980612582417994
  0.5747320960987223  0.3253409933486414  0.5878196304515108
  0.2480074362658796  0.4986028395858387  0.5830626049809813
  0.7589335714414639  0.4701354831466491  0.3932761078451081
  0.7532421382570436  0.4997405646574695  0.4982951163350123
  0.6632774453110462  0.9987789724168120  0.9990305603147637
  0.6579160462006036  0.4335232760767140  0.9279829306996817
  0.7350376938648628  0.3272995459348760  0.6836322403351988
  0.1663893628169147  0.7504432085739523  0.2491538951351765
  0.8323097402079893  0.6810210500005560  0.6756825706586952
  0.4136557000819072  0.3329116857376419  0.9171425661716751
  0.3303228493803849  0.8342184986526436  0.6667065867533147
  0.3296657250151124  0.8341166559803227  0.3321511095283402
  0.1686577305772407  0.1635986207809121  0.1642898820280118
  0.3291237430903650  0.8357850523842488  0.5003021881745853
  0.2491289560762143  0.9984271610564966  0.5844037635606808
  0.3310490555774657  0.9163381211213149  0.5844375405140939
  0.4141718918247162  0.9163706812367036  0.5005543084778312
  0.2489151950488424  0.8332179632672302  0.7493930385741385
  0.3310407894097868  0.9162825744591636  0.7498122056023281
  0.4129058037680728  0.9176833997936199  0.3315150764559166
  0.3288021973732918  0.6676451402444593  0.8331324651392162
  0.3305738625432534  0.8335671018798727  0.9984390973474402
  0.6632718452920664  0.9169104464196488  0.7528657128071484
  0.2490451091597848  0.1653669373321305  0.0804790197280153
  0.4127987184361232  0.8342043894606691  0.7504467153490373
  0.5781506345103682  0.9982357330014532  0.0814606797207058
  0.4118904528756702  0.8364043150071736  0.2473805224633523
  0.4951795177766590  0.0800501128386845  0.2467767998496133
  0.3307332405072764  0.9163257497531601  0.9160060983535403
  0.5785809353014272  0.9981416172992237  0.2476606621198673
  0.4971322459478372  0.0797938419013814  0.4154951731585880
  0.5807748597734178  0.9984511633254907  0.4148529960898689
  0.5789105161984642  0.0796010234361819  0.3306333816003960
  0.1674792437286711  0.9980573941053650  0.8342486731994957
  0.4952892849126349  0.0806937416075552  0.0824275899887614
  0.4940291914274511  0.3329629225968681  0.1648234269431343
  0.4959490873337433  0.4181387001750715  0.2499439446880364
  0.4944674956558269  0.1635318291225039  0.1641968440102996
  0.5769254415511298  0.4176364573796198  0.1663505740603574
  0.3317290720707711  0.9982243032026256  0.5007630524482246