 B Cr Ni 
 1.0000000000000000
    21.1200000000000010    0.0000000000000000    0.0000000000000000
     0.0000000000000000   21.1200000000000010    0.0000000000000000
     0.0000000000000000    0.0000000000000000   21.1200000000000010
 B   Cr  Ni 
  35 259 605
Direct
  0.9981520464210973  0.1775162286847884  0.7856831340363306
  0.1723593661981639  0.9912394384257610  0.9037774698799033
  0.6676583713253050  0.1684641833653952  0.0833770748256747
  0.4255055266825058  0.2590586087461741  0.6215731076339494
  0.1772667036097509  0.2519421845779355  0.6687688267357411
  0.5119078238453731  0.1057556016565008  0.6414199896011792
  0.6020691568461159  0.0991043817702655  0.7383381948742921
  0.2567262818101042  0.0258019832292416  0.6735857098388943
  0.4242522523042591  0.2613436947301614  0.7103177848777149
  0.5704616585985766  0.1486312188172957  0.6780307138366919
  0.9922550150897246  0.1746606575786311  0.8742197434178458
  0.0727264464583025  0.3419304025523880  0.7046579275711966
  0.2435178306620210  0.1357327799041929  0.8119187956434303
  0.2462202543529450  0.5920414738043899  0.7470679531325271
  0.3298512788122226  0.5875204798547060  0.6668806069991952
  0.1655134010448103  0.2413418372600973  0.8226777529270227
  0.2249719339859647  0.9838230530336831  0.7422150634659045
  0.5970995653056383  0.0612810379412975  0.5589712050352610
  0.2371170699625416  0.4072357375093298  0.7519556900928561
  0.6537227511659824  0.0051192167836562  0.5921107615860745
  0.2390659359502340  0.8431217180515787  0.6675165267111425
  0.2578937997520077  0.2186264321154776  0.9399100310155513
  0.3403276969429477  0.8675654981029898  0.7460091579343584
  0.0990387626962672  0.0788482152527179  0.7559271056109188
  0.3154258655618561  0.4017428476093329  0.6621665127287170
  0.0700781362108210  0.3401565709024625  0.7890666079857441
  0.0803562486802631  0.8325687455878427  0.1697298430285574
  0.4192730205069893  0.0018034893620346  0.8219486296027476
  0.4741425779714079  0.0022056353629387  0.7571113286815047
  0.2397994939089842  0.8575350567591266  0.8346779533172040
  0.2075313885173339  0.9052851820807479  0.6300993754115460
  0.3131339931729810  0.0892736949109713  0.8365291331173403
  0.1532128706522564  0.0103497681670407  0.7600189682021601
  0.2114898398406612  0.0811708013508383  0.6341493630379303
  0.3296973259272546  0.1635967497554176  0.5905156367987542
  0.9913084794459698  0.8307922859652127  0.0014414413580576
  0.8275377204371420  0.8307567566503802  0.4990388014220259
  0.0696012760792695  0.8283092614368940  0.5724568110005759
  0.9144369475161471  0.9167289423788265  0.8351089464185535
  0.7478641107304745  0.9998221220250867  0.2516898053311502
  0.7608618652745337  0.1711437776548946  0.0860495717793851
  0.5832834300952600  0.5848114906724088  0.6671133744832901
  0.5800535785772584  0.4168190818715319  0.6672126439604671
  0.8298142019758771  0.7485140360855643  0.7504292459856017
  0.9121172772311328  0.7466778214034425  0.1663124089420138
  0.8264229782227462  0.8308875863662352  0.3311303144307651
  0.9134184933611617  0.5835521697235793  0.1670606384288781
  0.8352998969351054  0.1705374135816185  0.8355958160019890
  0.5863661889962108  0.1709835331084493  0.9199237769681036
  0.8285239898132607  0.7496500168125827  0.5821252957214486
  0.7481731710203154  0.8308666867040907  0.2497038861363211
  0.7497704420958139  0.9997301501073573  0.0832074547294247
  0.7477809414186392  0.8323029409461719  0.0824514923110999
  0.7505525893220943  0.9159254847438664  0.8358054229694289
  0.6684573409720779  0.8338239712983303  0.0021409565199876
  0.6657545786942400  0.6663252804611640  0.8335610596588641
  0.6676579838628864  0.6667397833520173  0.3327689119527107
  0.4978787711016224  0.6676915911114203  0.3323339588324121
  0.4129834872108094  0.4213799372240667  0.1710339102785236
  0.6698669445135407  0.3388554948870620  0.8340278303017485
  0.3289893435904698  0.0811084726531063  0.4102158643559505
  0.5848331830392460  0.8324834953613121  0.7499562371988474
  0.0781302234951174  0.4997573260159990  0.7477123647130426
  0.1582608152443491  0.6690996801525915  0.6636427280982486
  0.2434215116470501  0.9942227596808892  0.5774898179515680
  0.2458157655612329  0.5863203415680588  0.8429770858949431
  0.3555903955799611  0.3176378178344349  0.6642460510113048
  0.4162248340865363  0.0948786923035166  0.6370243889589766
  0.3311285862138632  0.2514871214340971  0.4140422170097710
  0.3301048140110155  0.1707859074957029  0.0050841574703635
  0.4251689153947740  0.9149491680552928  0.0099204600427077
  0.4242862146751006  0.0837315922083515  0.0072066152760510
  0.4011599257224637  0.0703271517554375  0.7368168512232658
  0.4263396987850636  0.1702243394571818  0.5630007059223063
  0.2494910128580403  0.9997757446781323  0.0844753951421587
  0.1615019036100730  0.3344662771708440  0.9997731795201810
  0.3289717272959066  0.9124340037316688  0.4087775198571306
  0.1605021329404072  0.9127589435881712  0.4109989057209887
  0.2521112238177849  0.0910633666877648  0.0206625796355376
  0.4156919925583387  0.0833981429318163  0.1726500400918299
  0.2457262363587902  0.7515507161495806  0.8436929225542058
  0.8288034834087129  0.0005266286504711  0.3309921264977143
  0.8306050550043220  0.3359709539706136  0.3335488945864941
  0.8296081423818215  0.1691515683251492  0.3311729435658761
  0.9119986372333735  0.1700010903195009  0.7389777294758093
  0.9123179051556723  0.5015912750431254  0.0848164249839153
  0.0814364615173094  0.5025068419690158  0.0875245238846149
  0.9103843783482345  0.6653885446042039  0.4151887537989972
  0.0710620196809028  0.8301509352798148  0.9214384345967981
  0.9919201487119630  0.9972629923798481  0.0092512003595278
  0.9121767205538599  0.9151336845344703  0.6636425353133963
  0.8308619572306408  0.8327156438157901  0.6653268591208675
  0.9906579248418775  0.9150321739453924  0.4114592184243069
  0.9100281736042728  0.6663902080429946  0.7486929912327809
  0.4119253228576422  0.8230398919316304  0.5759013271872007
  0.1636161892477395  0.6673587586848236  0.1670179349253521
  0.9945571059901890  0.6657887386800430  0.9999321130602664
  0.5845047126091595  0.4182544673211265  0.4982310427603914
  0.6675664496954535  0.8324217824286024  0.1661236388289525
  0.9130922325664308  0.5831303949567332  0.3341932634876472
  0.6671585169424107  0.6652806307860160  0.1669091689560308
  0.6658819601008055  0.6663591330092947  0.9986862521184597
  0.7476709811918824  0.4184847108564765  0.0012468759919424
  0.4971522607015377  0.8279768977466703  0.4930454349205086
  0.3291978720291080  0.7454245928118877  0.5765528024895287
  0.2477366537581755  0.2500659417087911  0.4942165904435685
  0.2828461538290151  0.9293238091571326  0.6805261014439392
  0.9936668667305925  0.7476369132570447  0.5789955995138455
  0.4184431140486259  0.2531792267051671  0.4884761388729242
  0.9933311947772763  0.6656791689119547  0.3315105685004671
  0.9952774783702804  0.0802565665740006  0.9270367314212760
  0.4142376000502954  0.5020938341473450  0.2510735763317348
  0.9920833597529723  0.9148382200107229  0.0864272299968527
  0.0787503599319731  0.2500556449776992  0.4960930895906276
  0.0738635452674600  0.3342612230510745  0.9250972050641303
  0.0740335731762512  0.3344289557814709  0.5693921883587182
  0.2489996030058040  0.1692522251029440  0.0933219603739268
  0.2458688407877885  0.5018635751521446  0.2492962311685788
  0.1513191761242501  0.3365587012286719  0.8543104051045904
  0.9971614616964578  0.3359314875662795  0.3332518518855421
  0.9949747735417034  0.0849796592228421  0.2492849237950033
  0.3329053759872759  0.1676504568922579  0.1691446596713410
  0.0790561303729950  0.0839689262375794  0.1699077673012573
  0.1664923268054823  0.8964307807953024  0.7248120235926802
  0.9931443799521682  0.0841187104863752  0.4117196629847448
  0.1597059297771641  0.0819735285262893  0.4104023153050160
  0.2480536847591547  0.2508209349929191  0.3334518759948369
  0.9111495499888904  0.1695198330183909  0.0885210002413369
  0.0714805172978656  0.9981364917408594  0.5753833152427965
  0.1512247165891993  0.0824610727234218  0.9334924583341685
  0.0779955367279527  0.2531463466343415  0.1688136760693995
  0.8314059351926721  0.5830986325624181  0.7492084089957421
  0.0735686907892474  0.8342689530071707  0.7476159019102108
  0.1608280259478740  0.2467817072130895  0.9236150557149904
  0.3316249596437676  0.2614093935189915  0.7617658295817897
  0.9868695246118317  0.3357807043659156  0.8419611131927861
  0.2467267540278550  0.4176623897801939  0.0016986732161338
  0.1644192142241993  0.3372219492622271  0.1690439689995098
  0.9148540553704075  0.4184553664392689  0.8320304749496465
  0.0755793405230305  0.6681139562971469  0.7496324482429021
  0.0815001933093120  0.5008775901365745  0.2498826450440693
  0.0778444180069350  0.5037457792196054  0.5772093716438113
  0.4156024439694467  0.4210001196725036  0.0044356256863303
  0.1408317022159294  0.4097176636685015  0.7494885954333943
  0.9878948650100629  0.3366605099305774  0.6539857234993471
  0.1630173606748672  0.4188780222531063  0.4139366814808399
  0.1634973671182723  0.7447136511532136  0.0867812331336231
  0.1602128758415322  0.9977889385673396  0.0076433700437596
  0.1616513496747408  0.5866485113448379  0.4127147787935207
  0.4204458746612230  0.2546979735824564  0.0082246031420314
  0.7477845029389915  0.4193258552273169  0.1686078192938308
  0.3296227345026155  0.1659460709745933  0.4870601580001043
  0.2390070182615645  0.3192226799864925  0.7970463162808982
  0.4868981506489198  0.1949418448654855  0.6677420858151905
  0.5839877831492954  0.2527130839777572  0.6668419792903302
  0.4977588856541815  0.0820794568871335  0.4059808156938935
  0.4905914229106440  0.3284696418797079  0.6652234603209810
  0.6642022697082072  0.3351142984103015  0.5013330021368319
  0.4990588010128637  0.1679357718014783  0.3324805233731553
  0.8304442001227300  0.7490502955006606  0.9174287666828892
  0.6649763091282260  0.6648902469398565  0.5009772219851040
  0.9928456817353497  0.9150991533729191  0.2481443067799748
  0.3326898115798747  0.4201291036244732  0.4151974393751049
  0.8308204058666495  0.5821028428765683  0.9171306842932628
  0.4151497981766066  0.5852332828786900  0.4970196239594456
  0.9134677092863291  0.0849227300143718  0.3306083732135699
  0.5833987474432571  0.5007375718503055  0.0852689703466192
  0.5025890682660844  0.9161222462693451  0.0872069947297238
  0.9938281038188780  0.5026281998342482  0.4964889697734678
  0.1519406092817377  0.5057721944689337  0.6644450018479205
  0.8292821823713459  0.4176442059295097  0.4137946114523784
  0.7502399288671543  0.0851386694793975  0.4955628555665435
  0.6651993919606728  0.3370693831731932  0.3315678765150162
  0.4984817988446701  0.5019338642846195  0.3327569356197548
  0.4157516432107489  0.5036281528770378  0.4149167099589093
  0.6702281986157453  0.1693677688611037  0.8350017303467669
  0.9890249706360739  0.9970566919630648  0.6594039128841824
  0.6676651764979415  0.1661141577246918  0.6716614004642388
  0.6676317403153701  0.3375101585531609  0.0041240731798523
  0.9967819086027117  0.3357840910160809  0.1677848874407983
  0.9154130912109645  0.4180305409604315  0.1682217343034671
  0.3335700747315633  0.4141368699683543  0.7573457807320686
  0.9111460436572267  0.5019938746144684  0.9181904529397653
  0.0644877295724520  0.2430801659954492  0.8374234472445945
  0.0078907946319905  0.2693834019746443  0.7419548107981568
  0.0774331849587173  0.5037185806032437  0.9196396171208580
  0.0040485172770957  0.4076934347560119  0.7482858609179015
  0.2478244609476098  0.3306526686955079  0.9231799974675480
  0.1621680744352579  0.6671452457006900  0.3329289306662808
  0.1622169522192365  0.6652018373509838  0.4929267992614716
  0.8350059325787758  0.0845114178527229  0.9181861018537560
  0.1635105427904979  0.9912873501473058  0.6590368085130278
  0.1633123687721540  0.5012881986831470  0.1683759798027381
  0.4996569820230403  0.2543828222678678  0.0884802827994409
  0.1648325990969800  0.3353549760368707  0.3328969091173195
  0.7459831709516811  0.5844029857350052  0.1674144553860815
  0.3287160173381840  0.1664166460560797  0.3334365684287527
  0.8299454747805778  0.5830280342367029  0.4150141708001567
  0.8334629887377961  0.9980889931163849  0.6664460449654271
  0.5823469075739675  0.5842256521347967  0.1668455641436540
  0.5838047073259063  0.5859461733254703  0.4992184480162358
  0.5006301315622045  0.7472208875891574  0.0850809148537519
  0.4991073674300269  0.6672868178500480  0.0025434902136432
  0.5809679597561200  0.2521238212086026  0.1680193457256011
  0.5810309473089316  0.4200015334047972  0.1685286608083617
  0.4156226807822629  0.6695507874965737  0.5815172375312773
  0.5043858761617969  0.0960869339583700  0.7421002099250161
  0.4980457466625097  0.3368226735370996  0.3311783769305633
  0.5005056285931426  0.5842068897333290  0.0862416220154376
  0.4986183687371400  0.5022647645842651  0.8343111409741637
  0.5858175369869355  0.6661205750003761  0.9173069066942731
  0.4162078159910941  0.4991113404266543  0.7518538285063628
  0.4832135014805592  0.0000019705208496  0.6601484914259954
  0.7456533550025670  0.7482517317490276  0.3335971266357500
  0.5900325545168553  0.0008924973518984  0.9242930400421369
  0.6668462377980645  0.9990512554940484  0.3319378703542883
  0.5744654302769026  0.1710665972895964  0.0912130827265371
  0.6642078277123024  0.8339232092795268  0.6692933914399330
  0.6664767424121939  0.5001560975919790  0.8324881796102500
  0.4155274680389565  0.2524864914363343  0.1699810622456572
  0.5020894255177929  0.3407708235900734  0.8425704437464314
  0.7500119339220701  0.4166635497535964  0.8331977518082058
  0.0770047359732526  0.6669005305115152  0.9182555427653564
  0.7492396535803957  0.3370825040991188  0.7503533736800696
  0.8310948399974273  0.2546741422762250  0.0871675197313800
  0.5839538748067257  0.0818145405049270  0.1719660493648675
  0.9128804398114856  0.9163006364338704  0.0037539790737529
  0.8338254156461845  0.2532390514949996  0.9174935569244134
  0.2459070279584035  0.8304617368759090  0.5710501731909418
  0.9967448447142089  0.1706611432156848  0.6662152059224217
  0.5840122710010107  0.9155262998918412  0.1680717988911317
  0.5840482598791624  0.5016783421139059  0.9192641571843155
  0.6647459325107095  0.5012542453778360  0.3332773655453394
  0.7482078658633635  0.5013617292277059  0.5830574718297510
  0.9151542644723620  0.4181440156702057  0.6645284048500705
  0.9131538952961248  0.2523475689141991  0.1693716057194510
  0.9953187212231170  0.3349234978104204  0.4974630674145959
  0.8290260285858145  0.2542345353949893  0.4137777957078940
  0.9959061350461476  0.3375474885834844  0.0058708207295486
  0.6681897245530003  0.4992816103789789  0.0014985081266588
  0.8366018684898929  0.3323588921612815  0.8347822228193718
  0.9263694388778295  0.2394785904276402  0.8302906214779333
  0.9129138269500786  0.0858486540631676  0.4948662166961222
  0.8297850404686374  0.2526992448405136  0.5806938456018729
  0.6631716273321920  0.2481156322063582  0.5847771675066891
  0.5871673944908563  0.2533988787196548  0.4951295571046251
  0.9928715568485572  0.1656305264018239  0.4945635589501750
  0.8298054318104453  0.0836131755960638  0.2515306914493329
  0.9101230277299019  0.9146193315730337  0.4951257354539677
  0.5832342081800973  0.0005798794377545  0.2515165312232676
  0.8280454919750149  0.5821161870372437  0.5827269193672650
  0.5858710835292645  0.8319564223473004  0.9200378388538559
  0.7469683588214248  0.5005935382952352  0.0846323329697219
  0.5811734281451311  0.9988497432326480  0.7528016394883196
  0.5789958698312402  0.1632929153249853  0.5795346859905086
  0.5001896962492292  0.7468831672317406  0.4118552588712772
  0.7469541421839082  0.7499953618268419  0.5002685921368931
  0.9258267546370361  0.1001143185261898  0.8315783961524136
  0.9924324970854858  0.6652353812593518  0.1673645965870477
  0.4189250030471938  0.7478735751488612  0.0046849894848750
  0.7469017151266204  0.6647058456523052  0.2491238438205524
  0.9132272012874949  0.4209563767086420  0.0034933957379806
  0.9146938493241914  0.1699913193773912  0.2520359826743049
  0.9109377914616111  0.9151903210682992  0.1676702172219307
  0.6661497861164645  0.1687613605604959  0.3303649836924351
  0.4988629565713709  0.9107339727674677  0.4094461746612584
  0.5813869359358554  0.8325585236347175  0.5819503193788287
  0.6673292434194877  0.8320286292059309  0.3301660201050474
  0.3317471560205449  0.7472497194428046  0.0854483325446398
  0.3317606365899625  0.4193467959555314  0.2493753161716032
  0.4994630302923069  0.6656322231935685  0.1663772252367410
  0.4155843549776762  0.4241128057378329  0.4919024446841845
  0.2474252791809461  0.8322135875606087  0.2489764762430056
  0.2478202408840066  0.0818646832831904  0.1659439341488767
  0.1461381488275552  0.8240723547144436  0.6506776628974047
  0.4205876828665754  0.7490469823583283  0.8363328363088144
  0.2441111071644968  0.5863497629041974  0.4951639114676457
  0.4145010472641398  0.8313578264691630  0.2477286682125038
  0.5005930638775946  0.7463242595630486  0.2495229521807270
  0.3304785167703325  0.6671233290130320  0.3313280079987171
  0.2478034886682175  0.8233977449256847  0.9280452893003643
  0.3314114739517166  0.6670166651332994  0.1661970551921506
  0.1593373994917567  0.4237595887864384  0.5719239193118971
  0.2533344476849394  0.3235702455289247  0.6983941830145213
  0.2469014329989143  0.5029138117612518  0.0845053631041796
  0.3347298197106360  0.6661766609058176  0.0022115131421017
  0.4995621091266159  0.7502905979522797  0.5803030404313891
  0.2468112689817457  0.5871464426159280  0.0008311772179888
  0.1635546399138450  0.4181151768844799  0.2499341522153784
  0.6674684282974814  0.0005025623368341  0.0010429558069954
  0.4162211071020094  0.4169037597912055  0.6673380505857756
  0.3325304262720264  0.4217442770679710  0.9245708925957536
  0.4208341674287533  0.5822663935810648  0.8356852081331324
  0.2480164092374145  0.6680795747649905  0.9198003636507227
  0.4129963138537505  0.9955379111525997  0.4083877947708273
  0.2471580884285999  0.4189591208349707  0.3325448656377470
  0.2480021116862027  0.6651729226695087  0.0852843191892568
  0.1627647362502599  0.7484032401957104  0.2487907036823068
  0.3335606479549198  0.5846885704814828  0.9181839419039308
  0.7465184873111641  0.9156024270946923  0.4988028980922171
  0.1695314635520379  0.8313473615542254  0.1652488090734266
  0.3293982282597021  0.9969146326094684  0.3294963785842691
  0.3349082778650468  0.9153335843794882  0.0852452375835223
  0.3299186415806467  0.0834583565231287  0.2491968443996434
  0.3309222765005897  0.7484928174264547  0.2482048919372815
  0.4198675550172651  0.0003503144812128  0.0888686437074426
  0.4136944896154762  0.9102389408666824  0.4895835791692304
  0.4983780672309174  0.9970504780486467  0.3300854615976407
  0.4179460820603568  0.4218116938956678  0.8401026749081134
  0.0769979739988226  0.7470910572917835  0.0014260998748712
  0.0776702388086663  0.4201391717607709  0.4935343044286682
  0.9968736726917308  0.5015820587656072  0.1675851231678501
  0.4164089993139577  0.3377519919276152  0.4132374794134653
  0.3316645861958707  0.4207373859242109  0.0854458124292042
  0.1632553997336900  0.9148318122686598  0.0853193644851507
  0.4144161503353652  0.4197944143544868  0.3325718664484180
  0.2474226101989533  0.3357470207341790  0.4145377909501894
  0.4192328706546870  0.3397930123461939  0.5706582981484055
  0.3323247696543139  0.3365842481287026  0.1683164248241488
  0.3313958337395407  0.3371928577794377  0.4932764044012806
  0.1646719792908931  0.3359786836371589  0.4959758570177267
  0.7582526450089634  0.9961519854976956  0.7557122660905314
  0.4984970245771165  0.2525753523858158  0.2504394456416817
  0.9119922370587527  0.2531038833453832  0.6623753090223899
  0.5045326458504121  0.1725366624549375  0.8440837151714707
  0.8320541649453989  0.2526840772375541  0.7500840154261749
  0.1625623502504341  0.4191182469499716  0.0848464736204264
  0.9955445790526168  0.2527031965918992  0.0874153787731237
  0.1620337912771360  0.6665017201115407  0.0008876421707923
  0.5817787534328425  0.5011931909391346  0.5832175414190562
  0.7467854375618952  0.6653733318674859  0.4169240333477486
  0.8275709957416683  0.7485835153801456  0.4157476724293975
  0.9949760445713607  0.5840633976981893  0.4141547965212146
  0.7474764382036240  0.0000390773162648  0.4155499901348823
  0.0755464379544745  0.1654399953125231  0.5744854641907666
  0.8317335401754167  0.1684521718426695  0.0017690897217451
  0.5850391423627874  0.8314090726925292  0.0852153359514456
  0.9115277174134763  0.2527729595601627  0.0064223290427181
  0.8301977163563048  0.0839569147880412  0.0862701936881043
  0.2467514736436306  0.5021781532516045  0.4142268557158009
  0.6671534779708602  0.0792703252021972  0.0868612374537394
  0.5819606650737426  0.6669163066730392  0.5828649070500137
  0.4159097206128219  0.3380035253918331  0.0879461132381056
  0.0681154060404426  0.9878836067363564  0.7399533611190561
  0.3335167646822876  0.3381846728370531  0.0073000926692129
  0.3017126314498284  0.0352799861612165  0.7547401010704740
  0.3327877344356231  0.6684702687177680  0.8373732855091799
  0.4995693059829480  0.5026543471003646  0.4995436016334867
  0.8295195268472432  0.9158851346326302  0.5810437014429382
  0.9939938338621358  0.4209972619464455  0.9219168319883176
  0.9127519583741058  0.5835976349625485  0.8330404386443659
  0.9928219052479210  0.2533126671846092  0.9281399713346555
  0.0890067338380062  0.1726755462790305  0.7396188016951014
  0.9920747772214912  0.6659280881491171  0.6655168255819098
  0.0800021847987025  0.2521041331499177  0.6517383589906731
  0.1553004369445782  0.1490256173119795  0.8360659085105753
  0.9112507710037685  0.6651456734882334  0.9171422500708714
  0.8297667755543672  0.6663809101967741  0.6657797146872472
  0.2517062875170692  0.3356751764087926  0.5804838259228189
  0.8299202292296624  0.9156063407234021  0.0850006181045172
  0.9934001481004635  0.7476115304384369  0.2503223315024746
  0.9116948310373877  0.8324449224772053  0.9179426526465293
  0.0478532359698125  0.1147443106177632  0.8330573378282479
  0.6673420139669826  0.9988082113386790  0.8367483878116038
  0.9116225973062168  0.5015379297960589  0.5808139607386242
  0.9085593253507910  0.8315336815811493  0.4133588101681901
  0.1533112619453160  0.8289670380717526  0.8347031248989815
  0.0777221814980669  0.0000999201886045  0.2495580971306459
  0.0789933446024928  0.4207812773175331  0.0033514598848916
  0.2464577869100995  0.4196990080891805  0.4954787437056257
  0.2645561040201948  0.2268398041672786  0.6448342519677074
  0.2455043815959685  0.7478540718347659  0.4935015766210233
  0.4144033234135694  0.2519856823306378  0.3328915138529145
  0.5008115999088680  0.3382374367467334  0.0063777917296525
  0.3287876661484733  0.4962122788122966  0.6654701852027514
  0.3320343036540498  0.5016061199215237  0.8370012104282526
  0.4169983916437994  0.5032631186754332  0.9207127220917110
  0.2476798626249789  0.4197076101092407  0.1676494889525408
  0.3317621390774625  0.8321007343814433  0.1663397831783648
  0.4159819669255748  0.6648126738885792  0.0865958965124331
  0.4214192722543358  0.8278591210794606  0.9225220045322219
  0.4989893614497290  0.8298989568612923  0.3294212308618355
  0.4150377676166184  0.6665765945483447  0.2492643185165248
  0.2474015326840222  0.5040909272986627  0.9218252186147845
  0.4155981342740450  0.7483967649107808  0.1672155235982368
  0.3131742274973501  0.1503329746595575  0.7559317276037812
  0.2469536177740769  0.6672813403545866  0.4118429242302224
  0.9118845546504932  0.2513405505161245  0.4962517739137653
  0.0802542068907781  0.4183284387859210  0.3336094159085650
  0.9923778545797415  0.2488500171951172  0.5778203158735818
  0.8324980766826209  0.4180495619000901  0.7492021209943104
  0.9121417962537173  0.3330253041537974  0.7485543983647100
  0.8309866377962712  0.3358730621122691  0.6647223355145141
  0.8304847603663366  0.5009031117668513  0.1678585510973373
  0.9123607545803150  0.3362316397221123  0.9230264128096639
  0.7521420333863852  0.9135864327829120  0.6685377364394800
  0.0796455534284075  0.3346576357815735  0.4154009151203932
  0.8316591602352009  0.4185369728980243  0.9174332975022044
  0.8294866471665143  0.5007993662590101  0.0019042948901064
  0.8291597768958694  0.0005015046820391  0.1686352637563289
  0.8302597104314233  0.6645502542743662  0.1664125170896290
  0.0799064717131298  0.5850102865157181  0.1678669480214586
  0.0789680223830274  0.5841328681087526  0.3314470975610709
  0.0802926173819418  0.2532691819985685  0.3325772943036170
  0.8296416913109871  0.5830856658618371  0.0842313257090398
  0.4191580125180587  0.5843650836486557  0.6674741576609035
  0.3300987154977310  0.5038389892912112  0.4972282097830557
  0.3305576196389690  0.5861724660270399  0.5769889315778804
  0.2468851142885446  0.6810613860244740  0.7519831259444621
  0.4138413392527980  0.7461246713175077  0.4934651515471955
  0.4152742969213744  0.5021993262425321  0.5806055325050856
  0.4997110700754780  0.5848006557982450  0.4152750177510197
  0.3308237948951387  0.5015472515440474  0.3324238258261776
  0.1617714795172950  0.1619955680826651  0.6489569595368413
  0.3350538692430033  0.2530100934764012  0.0884049506879595
  0.3458560170536878  0.0851750410308790  0.9325664804144975
  0.1629073120330064  0.8325670278129934  0.3307164681055854
  0.0755214458857394  0.7475058053319833  0.4933118919256300
  0.6667212570597323  0.9172859161860195  0.0848268731989806
  0.2446010666032671  0.6665791868691028  0.5784242709472905
  0.2456590403217515  0.8314395256986903  0.4117087326201423
  0.3308327183326406  0.3362943249312527  0.3331807538398630
  0.1563198986406990  0.7519939332534606  0.7480809339229515
  0.1611756095797338  0.6689781307524905  0.8351631791193638
  0.0779438954614606  0.7474603422142579  0.3321071494030853
  0.3304763804536199  0.5845581771797342  0.4137519191475856
  0.1624055347340823  0.1679216081981232  0.1694097119152754
  0.5819989381653089  0.5844278049874243  0.3328511182711650
  0.5004221493476797  0.4203068218113623  0.4140723398274759
  0.2148172955016090  0.2069963227400190  0.7456118803352464
  0.2471205587193977  0.1329089706973243  0.9116589909597206
  0.4215854634732557  0.2590611613806919  0.8455191384522995
  0.2473384055509671  0.3391994332992997  0.0881102259754720
  0.4991885001125789  0.5009904409107860  0.6659866394659629
  0.4197152816249427  0.3403390532296445  0.9259936781730006
  0.2464100306496649  0.5843620252761033  0.3315289899429510
  0.1637016319158119  0.2529087523251493  0.2495756911549742
  0.4149400554914102  0.5843956193650799  0.1687266122742595
  0.4152246912913269  0.5025193736801075  0.0859558715893924
  0.3302835617965607  0.5845876961976461  0.2496888173260426
  0.3297373563101427  0.5028331621213731  0.1672368435052175
  0.4998405284948031  0.6669476972190238  0.6663751464481225
  0.1590298409187152  0.5011106118158311  0.8353241075918542
  0.2455749445985192  0.9142468566531784  0.3294370312556804
  0.6666847632969027  0.9158278560279102  0.2493521251950382
  0.0727680216491843  0.9928550509003020  0.9321021633541910
  0.6668561714965453  0.7501384763375645  0.9176072202033337
  0.9937196563092848  0.1669747692127319  0.0088231609171320
  0.6648986047494069  0.7486814165710688  0.2480193655665626
  0.4980730834225570  0.4194558514323599  0.2507732067804583
  0.2861214822637919  0.9270104904675356  0.7909645460938646
  0.5831086136199682  0.7487304397687581  0.4979596953150282
  0.4906311607287717  0.9035547606959964  0.5763797023600188
  0.4188649143259016  0.9947366209165511  0.5644455951694728
  0.5016557135270356  0.4216872040305229  0.9215500134085587
  0.2443388715820244  0.9956717901811519  0.4085745298985559
  0.9959035332363988  0.2520381958551636  0.4147711367788561
  0.5812692827367227  0.5015104028965626  0.2502352792884960
  0.4990488422209526  0.4204759031610537  0.0867216598139678
  0.1609216519312777  0.9981891308091576  0.3300151731690139
  0.4991815031053512  0.5848705878886578  0.2503794259520377
  0.6640242216682084  0.4196993575894298  0.2501934331294500
  0.5853919383376862  0.3384833236402366  0.9222045833889518
  0.5821360571088530  0.4192440562471669  0.3324442776102847
  0.8291269866194922  0.8315633573791226  0.1667813621637178
  0.5828220187926019  0.8295407496352325  0.4124733693587673
  0.4142099410550782  0.7487562428007569  0.3300491300975654
  0.5803868212540726  0.9099619838713311  0.4917005608343559
  0.6657688611364035  0.9150550487960433  0.4146232182362540
  0.5842966554210667  0.5839974203554513  0.0012564874824749
  0.1629008785719103  0.5846375632586225  0.2500459512485499
  0.2453277366207425  0.0822293481640584  0.3308010584342010
  0.5841084068304950  0.3371514537813967  0.7507568648820947
  0.5015063171050933  0.5845349489763833  0.9195623735796203
  0.5843049653757735  0.6667587785676811  0.0829833627796987
  0.0704853040341413  0.9125747086254351  0.8350732929622904
  0.6651358397831516  0.5835344140804606  0.0831836151144814
  0.5840587909948062  0.7479701629054477  0.1665509263048650
  0.0748254862495818  0.7482078994742200  0.8338303424301354
  0.4144590501007104  0.5848210403541154  0.3315779583707689
  0.5003872555032149  0.5025470269344664  0.0035200207765681
  0.9907836422609809  0.9144679228872750  0.5760533906973708
  0.3308928159601155  0.9124041594018375  0.5737611748764322
  0.4249476789794033  0.1723277033536176  0.9310345312885137
  0.5026298655531730  0.3389685378229907  0.4940813223569109
  0.4163290185429325  0.0806366045882830  0.4846532008695513
  0.4235892590539687  0.1785098758358019  0.7659060080180780