B  Cr Ni
 1.0000000000000000
    21.1936115546611106    0.0000000000000000    0.0000000000000000
     0.0000000000000000   21.1936115546611106    0.0000000000000000
     0.0000000000000000    0.0000000000000000   21.1936115546611106
 B   Cr  Ni 
  35 259 605
Direct
  0.9997708267086871  0.9280378090226388  0.3355041578605759
  0.9204809255358127  0.9080255036090773  0.0963624171501382
  0.3415960789698996  0.2710232781506736 -0.0149853050746164
  0.7802675668333021  0.5546694695069665  0.2660833667402058
  0.6802677519790705  0.7370766447040591 -0.0061984888403281
  0.4081788252090043  0.4057369889059579  0.0747348425188385
  0.4075688460377924  0.4941810131667692  0.1609769698735377
  0.5535942337626334  0.5641503889364421  0.0981222035262677
  0.3070422848095369  0.3239157941597514  0.9347801716762745
  0.7546012688626905  0.8369591760084774  0.3156457920498034
  0.9997706058747309  0.7340680910772531  0.3143175553401982
  0.7401651759823727  0.5076600157307731  0.3216779539687092
  0.8325634323751598  0.5107843758774345  0.0913140891185156
  0.5142266898324591  0.5986734079382220  0.1638457779179855
  0.2615019967439675  0.4263350872240150  0.0662082405476603
  0.2314594283788402  0.4819030843549875  0.0157813022492651
  0.7511577545734444  0.2533900329571165  0.2487638261495279
  0.7749303337160621  0.6548908232554138  0.1334188243435843
  0.8411212694156082 -0.0198343548366856  0.2556418807094201
  0.6899323024010801  0.5554355715245173  0.1478693078865357
  0.9069830388683545  0.6679526192026094  0.0157816038563446
  0.7342787859539065  0.5951880449123172  0.0922867700768120
  0.7455957266845163  0.7418208835444575 -0.0758046104359298
  0.6485592195624406  0.6461650524906692  0.2589400415057247
  0.9874471314587869  0.5928997131918305  0.1634414905756529
  0.1676455428352336  0.2543602617146156  0.8362044858458255
  0.6795942478162108  0.7564940472294422  0.1744677428053349
  0.8202433296945076  0.8103171408185877  0.0770505933559712
  0.6815062413563311  0.5587188268495630  0.3527646036525093
  0.8390573545506335  0.5059128843925540  0.2372719709033067
  0.5925232128687130  0.6760444311795841  0.3136794535522927
  0.0646047514856438  0.8295921279734251  0.1752638898893359
  0.0137254309998796  0.7705855504781975  0.1429584535834385
  0.1754190040698484  0.5744002582421677  0.1592516069657036
  0.5864063760847965  0.5789414950909580  0.9246771578127679
  0.1598179232885799  0.4111203226975744  0.2537062769363196
  0.0833761836539554  0.2453376303007094  0.3351702838216005
  0.2465198036173535  0.3312270364888419  0.7496253521549939
  0.6614029859883257  0.8351083968408154  0.8268147361103738
  0.5794299208586243  0.9171015480377671  0.5007325191097860
  0.0815105136656849  0.6664568873265597  0.9101765087904208
  0.6601320034135518  0.8336139702815599  0.3368862850488389
  0.7474072165232293  0.9224311600140176  0.1690191197166468
  0.2484085303690514  0.1592383317789732  0.7443166154275420
  0.0853305108507813  0.6684785983729593  0.2589163318714766
  0.0799641207303911  0.1623803667754859  0.7446185433361335
  0.3310067007441151  0.0012314348477649  0.5015670581193102
  0.9196037392525379  0.4107439579408571  0.3411922142729679
  0.2463593191815087  0.2556812907123757 -0.0041264953493729
  0.4953222603164739  0.4122785156203633  0.4174470354551845
  0.6619197404707963  0.4099616389971292  0.4223201233544114
  0.6784767540633660  0.6560025296814319  0.1624982574190239
  0.5780447362914679  0.7481979455509536  0.6659704487251946
  0.7557363829277390  0.6631350290220133  0.2437469504137361
  0.8208103691813131  0.6676691033396397 -0.0299371702017299
  0.9133401122590618  0.4122351534259875  0.8296781318850611
  0.4962866089173769  0.7502557807074089  0.5827065926600352
  0.3268210382276800  0.5822746058443616  0.9137470757139401
  0.4119560330684430  0.9192379798453195 -0.0039878378968815
  0.3276359779157217  0.7564213607563728  0.2544502382124973
  0.4281743123662979  0.2396638601158453 -0.0012521380630317
  0.3281417382481309  0.8341945526555049  0.8297447364680181
  0.4116678344016029  0.9172730493639835  0.4997212256999558
  0.1543218883629733  0.4126291115086502  0.9089671379864721
  0.5794917047841294  0.9155945837457260  0.6659042661485913
  0.5747688895759151  0.5797449546157208  0.5066872159142120
  0.4148711254192736  0.5805027516714230  0.4992124789191401
  0.7490259274698515  0.4071434499933231  0.3419097262587294
  0.3292174211410951  0.8331081514873302  0.5026065445286177
  0.3294246414478686  0.0010109514976163  0.3337105697034194
  0.9131788246465922  0.6644749098514856  0.9085753615801700
  0.7835121881484937  0.5643809250371585  0.1708866804676781
  0.6563707838275308  0.2466879910585051  0.2500413712059348
  0.6594584320960805  0.3245243356152028  0.1620647181301565
  0.5756301166231044  0.6663420204509143  0.4162458424948550
  0.2484039326345688  0.3317520851888703  0.4165095747523718
 -0.0029356802872618  0.0809047997824432  0.9116363668743498
  0.4958179216328114  0.0805028368215899  0.7462709650464685
  0.4947557408601718  0.8349024301938671  0.8300415909994074
  0.5764453953464264  0.5807133644972523  0.6644132863788500
  0.3376735544494691  0.5828677171696391  0.0838006126879280
  0.7478242546471041  0.5821064934454763  0.5042732707761107
  0.5688377405631976  0.6671796343688238  0.0979104573481926
  0.8327032734403971  0.6033777113955595  0.0659204620463703
  0.8282887579855605  0.0062915284264404  0.1595166248300155
  0.8272635593044840  0.5767426727713123  0.9094776110882904
  0.7482508314573811  0.4145346724023269  0.6614636477800843
  0.8326685879179743  0.4987470659749079  0.6645205003306700
  0.9211525867314013  0.5813916201528349  0.3479275965837950
  0.8309019503821942  0.5816933257067043  0.7456648494623292
  0.8294756491274624  0.0827484605054657  0.0789722596297001
  0.8299702856813436  0.0813822230381378  0.9132192464997002
  0.8305728068107245  0.9175583517674559  0.7457130752519031
  0.0720023165997759  0.3322869867650374  0.7418012388923920
  0.6634566632994195  0.1641847981204136  0.6650596937602881
  0.7444513395386226  0.1662038104150492  0.4194135371268304
  0.7452954893816742  0.1665558006646076  0.5856939704704297
  0.5778359342020085  0.2482180711898718  0.4994230438088079
  0.7461918821369131  0.1580177463047586  0.2491059804924396
  0.0807627039035354  0.1634807860786180  0.0829239184536815
  0.9142346625935763  0.1651097231005183  0.5827506601037040
  0.8335953575446667  0.7513858332951128  0.2515125458279735
  0.1643812218972310  0.0827218741470109  0.5818086053035435
  0.1640435014411898  0.1672619930145997  0.3344668239623830
  0.0801680119258683  0.6709379112373717  0.0774678252094537
  0.1624576008214426  0.4157010794898996  0.0756398487076169
  0.2486346147787004  0.2473044839397921  0.1650904857175448
  0.2473362343728453 -0.0005913825428604  0.9137123478581461
  0.0748269945598392  0.1588675214795277  0.9147492450298520
  0.0805496274259223  0.4966230591399897  0.2553382521396751
  0.0805047295995945  0.4943395994702676  0.0811111269075057
  0.0811405144384480  0.4982281434708185  0.5813795331979984
  0.1630550676406705  0.9171345285685374  0.7480683374547038
 -0.0010878047259385  0.6665179024555377  0.8288462091234996
  0.0826628475305979  0.9179897595307032 -0.0066053665768716
  0.0865104457586901  0.0873205171836702  0.3359868325867618
  0.8306393488271911  0.3299004762615732  0.5000118103195150
  0.2409972115015531  0.3934001984995274 -0.0234518523881936
  0.3293206847735606  0.1667523462743545  0.3333366691090416
 -0.0013597776944309  0.6661014293661808  0.6669222883273325
  0.8958569995177075  0.9307130885334828  0.1873034822065473
  0.0845580027830957  0.9249737041919475  0.1655629618162336
  0.0001013225922901  0.4956078891721801  0.5030194242612652
  0.4144138643663957  0.2458926249125152  0.8285842977610016
 -0.0002722736650943  0.4937176455956880  0.1666033579616878
 -0.0038855730078022  0.1613722572461788 -0.0046545605137067
 -0.0023448917952820  0.0005955268515507  0.8293347690727858
 -0.0014685257414379  0.4937202074511036 -0.0098644550080534
  0.0803412278074968  0.2470728837568037  0.1656591543616303
  0.9167739899306685  0.9217116535304848 -0.0049005917307040
  0.3296790454591275 -0.0017284473910517  0.1641290652683431
  0.1661541442973929  0.2491343125145438  0.5837909702890133
  0.2476919631420368  0.5807168710632974  0.8306502174023589
  0.4968979642918363  0.1590578699197057  0.1661530685784385
  0.8302184778141981  0.7497128322700136  0.5853904228157339
  0.3310734501611112  0.4126314513550325  0.4154743950262427
  0.9126125936458162  0.9180002630770696  0.5024360938349164
  0.0780162164229665  0.8285012988714215  0.0773485705051018
  0.0837893511539300  0.4950332561862948  0.4225940411235982
  0.0000251241436060  0.6662653172258877  0.5031442109764560
  0.0019693488533735  0.7504494806704252  0.4208201988860333
  0.1669753978384927  0.4134424237190235  0.5841734644552187
  0.0780725304525737  0.3286141013500409  0.9099910435935555
  0.4130851329637599  0.0810257691314203  0.6657042809312467
  0.9140773143616344  0.6645676118965921  0.7491734771269449
 -0.0007906124894688  0.8327817483366934  0.3401595960890419
  0.0059448042585930  0.5666691728783353  0.0705810759078819
  0.1656766936399899  0.4133033378938496  0.4173840078057344
  0.9141756229085853  0.7481533449088584  0.6678654525907093
  0.2490012900865346  0.5816502565770402  0.4997516414228192
  0.7438500753563226  0.0003881600134223  0.2506777018065421
  0.6615117661310792  0.2427770043491199  0.0776819072340686
  0.6638216076922095  0.1609097161756829 -0.0046081648852404
  0.5800772067650027  0.3286376097725711  0.7447500766752723
  0.8298667546244446  0.0824949754933005  0.7456151770500152
  0.7450307958952829 -0.0017243277403058  0.5837388143257000
  0.8307596714684599  0.0841516173567326  0.2511553990676992
  0.6611052948587203  0.2476773364168129  0.4195692055390061
  0.4950911409393242  0.9186853678263323  0.4162031261282689
  0.4939983711036968  0.8386563458855308  0.3363679174732467
  0.4095158915246880  0.9192743225151835  0.1667052454333799
 -0.0004790401338188  0.8354381453678170  0.8291135665577184
  0.0808406517077893  0.3282203397120129  0.0813972413928944
 -0.0022389068593111  0.3276624008563060 -0.0059209296013044
  0.2510404266422194  0.5806970050091614 -0.0013046950010797
  0.0805081952873904  0.7491347003939629 -0.0057196341767459
  0.5752240356807217  0.7485871406934371 -0.0029942202490653
  0.8313764374836080  0.7488853533546922  0.7465659619196631
  0.5789614523808723  0.0829949589112515  0.6678194413179690
  0.7476937516177131  0.4965464114182843  0.5850583207626002
  0.4926092001533018  0.5808931737897174  0.5832309937737782
  0.5805295465544604  0.1599859134748710  0.9111033024336993
  0.5667167142606603  0.6728558947378875  0.9097016748260685
  0.5748338277000181  0.7556961110996819  0.1630543153722405
  0.5748290323035409  0.6639488372282151  0.7461723894796964
  0.6638089670274728  0.4914087503283354  0.8242806308099824
  0.4884290626654819  0.5833194185760899  0.9104861671359336
  0.5876950902656105  0.5789641193273705  0.3234504045525334
  0.5012643395112254  0.5804613023026668  0.4173335883060952
  0.5000094696541046  0.4960455623657119  0.3365297271251629
  0.5814785046536760  0.3260117123324348  0.9102759792991160
  0.4970510898409782  0.3249249102104792 -0.0080441879085217
  0.5780668988955383  0.4138332076098015  0.6658311536117282
  0.5771459414176862  0.4963533352304775  0.5842066568991722
  0.7431359441963910  0.4974455307753444  0.4194442372240924
  0.5785315543992627  0.3258039371177461  0.4194720444309721
  0.6853878768188888  0.5597469227417231  0.2508190171345394
  0.5759458796982984  0.3234604032668630  0.2499757031112395
  0.5031957687355737  0.3200854119218658  0.1672987345643292
  0.4092896173480031  0.5918699478409172  0.1739739914135807
  0.3301097212002505  0.7492164762514718  0.5818328395330099
  0.3292900207695731  0.3560738049994284  0.0273755686013707
  0.5818976875933271  0.4975453210847568  0.4172697934734325
  0.4108587619451941  0.4980671877855627  0.7496962315823958
  0.0814246962432875  0.8343850739106435  0.7463900116330410
  0.4963600445864109  0.0790872926119977  0.9111986589412857
  0.4112488630546826  0.9150214235146472  0.6660550990678746
  0.5745977976680020  0.9218377544225386  0.1686862654129306
  0.9133928575172834  0.2450777361764860  0.8287081011374706
  0.2489424439916122  0.6655531772159249  0.4190620576916991
  0.9129810702487332  0.0025512049944545  0.0804784316944542
  0.8311750989569473  0.9192578646901317  0.4214677376454507
  0.9137484468039800  0.9165162919444180  0.6655863912160411
  0.5774866359767551  0.9179131988668005 -0.0050635867658169
  0.5791409752937272  0.0826725624106510  0.4994703320476951
  0.6629503490638970  0.9149006302166507  0.7480556679786962
  0.4958552690911560  0.0805255276227450  0.0826599598101225
  0.3287420046702664  0.1652967797708477  0.1637547667817065
  0.7466396276675257  0.7478905110747710  0.6637430459893272
  0.7461635127609513  0.8325761578519186  0.5852916015834333
  0.3289498167511597  0.4970132461883137  0.8315542620646050
  0.0802858348581206  0.5822753565738945  0.6658425064937668
  0.9164213001138646  0.5831266127329259  0.6657771495703736
  0.8993034013155968  0.5545091918475599  0.1589977215410938
  0.5796207602130752 -0.0015025787569758  0.2505228757969931
  0.3304764185573121  0.2486135127300202  0.5839189274470479
  0.3270476231087951  0.7526852571765352  0.9109195620578295
  0.3282942423110679  0.7499690055532916  0.7474989475266554
  0.3287171407402115  0.8343893760508946  0.3355813809417375
  0.4120854641188192  0.4986130237746013  0.9125883148852700
  0.4969639659447100 -0.0001211423299290  0.3346097395269980
  0.0811172704737682  0.0832713523985155  0.6658729360112429
 -0.0051555891741737  0.4149093955080194  0.7451961989316791
  0.7460629756803632  0.6652526983726502  0.5842449200642991
  0.8316571799727102  0.7497547307042350  0.4262351906479786
  0.7444142258242888  0.8322725092334503  0.4192251171053635
  0.7464540542336400  0.2455799567188975  0.8301237808548297
  0.7452384348979642  0.9165243680194719 -0.0052522974067252
  0.5814854093936688  0.1631527220535380  0.7450240179490234
  0.1641908411887947  0.9180080166130060  0.5829914315457136
  0.8288124737719045  0.0863988934005407  0.4216439169707046
  0.2468860956315644  0.7516229293183946 -0.0040488814759175
 -0.0008457207239367  0.3293552166713538  0.5019745727601869
  0.9200467046594855  0.3265313116949253  0.2515652479406457
  0.9281890433361124  0.4041985038890405  0.1677251573985960
 -0.0000947191644928  0.3261700413889014  0.1668724793221579
  0.8307184823468078  0.4101868042369217  0.9111624208118534
 -0.0014724766374893  0.3304903322135205  0.6661631309978323
  0.9109020095255098  0.1629704316292133  0.7452333144607781
  0.8279401350598580  0.4040437734659167  0.0667925613349839
  0.7468504731931004  0.2467252469120011  0.6633738558996821
  0.9151412819113611  0.4970871939173402  0.5833857984958680
  0.9143197478432484  0.1644619682675475  0.4221970560497302
  0.9128977983631420  0.0848787426463806  0.5019237140344283
  0.9158451625014082  0.1625080233251085  0.2515677377744028
  0.8299292748132788  0.1629847874643189 -0.0042241351622145
  0.8330497017720377  0.2446175726040988  0.0796162992292348
  0.2492980652293668  0.8347036697685635  0.4206190674033369
  0.0819528133066038  0.8355251707097687  0.4204550801143482
  0.1631018375059889  0.0000493295845370  0.1653361496438965
  0.1676487874068713  0.7516892891860888  0.2562629563532587
  0.1640230125615802  0.0046946703841527  0.3354533907128505
  0.3227999783639342  0.7578158405289180  0.0790093605345373
  0.0815626823774832  0.0011148710513915  0.9123947629091619
  0.2461294425101466  0.9209171382175405 -0.0047922844334284
  0.2473218133866153  0.7511280630907204  0.8298955508306367
  0.1644256608331263  0.7491901607788369  0.7486483866935973
  0.2476708452074138  0.7512011701445296  0.5024837348009776
  0.0815995125881349  0.8332580731528513  0.5843579757838520
  0.1645390682391219  0.6652058538842514  0.3361794683315219
  0.9041311474057955  0.9211511972340297  0.3303595464642530
  0.7368453480148917  0.4935107173355504  0.0783609627638586
  0.6608298531304851  0.4926912793844617 -0.0100621282642134
  0.8302984939787670  0.1611582481928766  0.1654638961432802
  0.6622844982771273  0.0797659601546373  0.0799863563107157
  0.8286492954853278  0.1634668420079579  0.6656987482124501
  0.7449202337141044  0.9171352796972524  0.8276390511413271
  0.0830975357161635  0.0835136575649943  0.5031278343946834
  0.3288275239311996  0.8335597642393626  0.6651945003649651
  0.2473053145713050  0.0831230760185811 -0.0031709971480394
  0.4109810056688661  0.0823423585969724  0.4994511253580109
  0.2470506119676845  0.5809357729539575  0.6664063256255063
  0.3271481437938830  0.4880615595874251  0.0052253984768761
  0.3327596192226700  0.5896646417194313  0.2614180888147445
  0.3316342728725684  0.1676601132262387 -0.0031729126682193
  0.2466243785228782  0.4994306790741285  0.7510210815138689
  0.4122760680145507  0.4973619217039518  0.5824551930409719
  0.3299219079574682  0.4141349509521359  0.5843221526043573
  0.4056667882206167  0.5815540084210914 -0.0106794954758421
  0.4951704343674815  0.5810261016282455  0.7468551159381103
  0.4131358521045901  0.3288780669770936  0.7492226798653912
  0.4121366885623171  0.3300371937526723  0.4160441100738171
  0.3318590912791686  0.4127024742407835  0.2467160865625244
  0.4746295389701388  0.6864340942671741  0.1609302553158354
  0.4102903400880143  0.3223255385857571  0.9204909970657327
  0.4146133108622194  0.3264611037488938  0.2497873694113979
  0.2388949814012065  0.3294238676963204  0.0847887429976606
  0.5792038883136369  0.2489559136351896  0.6638168637217742
  0.2468944124606043  0.3317445107100376  0.5824691547961349
  0.4104894325636049  0.6686728725823693  0.7460253027898561
  0.4960296910062483  0.6666300392999530  0.3353714447885630
  0.3310783511838532  0.1653170275752422  0.5009560741098389
  0.3317530018120826  0.2475419576184739  0.0821983748978515
  0.4128666291864442 -0.0001150096477214  0.9131636012873184
  0.2506147454677845  0.6661723805911109  0.0811624106656048
  0.1649521038132434  0.6673580819064384 -0.0051139752711425
  0.1697469108048413  0.6653809371227293  0.1656169526374938
  0.0758943388243458  0.4977038689119144  0.9074726049654286
  0.1641781471708752  0.8380891552262797  0.1642523691577121
  0.1520075209196713  0.3403368578635292  0.8176444547190436
  0.1629832190842386  0.4195569221855340  0.7446513773980957
  0.3301782433889844  0.9187523257141325  0.4179291284731508
  0.3296111693842669  0.0831144658130197  0.4161864788648775
  0.4131844991759139  0.8339102604795595  0.5829581858008691
  0.4117852098518319  0.0823263304550321  0.3332049669132326
  0.2487118639028829  0.0834685576080333  0.5008044104470819
  0.3311274300730074  0.0825400837602501  0.5831407930266288
  0.4138408711302570 -0.0008107551232656  0.5829381224360364
  0.4140995727282429  0.2421972300682833  0.1674756722225060
  0.1669529354490648  0.7499830944643034  0.0773059067056534
  0.3299670020630460  0.0825252442958646  0.9137179453055352
  0.3308737352882336 -0.0017671795314304  0.6648676213324611
  0.2481171558246968  0.0826795692870149  0.1653814923861614
  0.3296991943191631 -0.0002068988385324  0.8305694067567675
  0.2445317243301018  0.8381227515659040  0.0803374419359744
  0.1643473884891480  0.3317937393267472  0.6673838206232625
  0.1666107217289550  0.9192363409455444  0.4204663557616036
  0.2486374452041467  0.4142683247982299  0.4995843948383559
  0.2405028405844658  0.4131839454410438  0.1688338738428760
  0.2477422001658381  0.9195183608704315  0.3355993127968093
  0.4148151104572039  0.0797634437245494  0.8291222670824014
  0.1657754611980253  0.7496187648889540  0.4205426516022149
  0.2468412588818976  0.0812088095969846  0.6637726934996697
  0.2473123282477934  0.2485781948351789  0.6663209338793595
  0.4116825134243782  0.0000755040050098  0.2506519230112950
  0.2468140165046187  0.8345913151304614  0.5840151155796540
  0.3292044419839174  0.0822423545815724  0.2499166260955568
  0.1642146168633237  0.8335132059732873  0.6653097369182464
  0.2459043467422068  0.9167164762642624  0.6654796277783180
 -0.0020605178773391  0.9167378120474843  0.7465426434444518
  0.1652250019787495  0.2473860858185051  0.2495183476272392
  0.4114937561816899  0.1623095927150414  0.2496940419478466
  0.3303537243373336  0.2468629324317208  0.2481876347243278
  0.2485420800711948  0.2481888129321568  0.3328600967575870
  0.3303932107786509  0.2478520459022575  0.4162337451806742
  0.4958121345491568  0.1642845760908747  0.5007857271259802
  0.4163323262770322  0.1613741691366141  0.9122841569370926
  0.4136093895652460  0.1644160665827924  0.5827764370084721
  0.1606937624361466  0.3295527124135564  0.1668896095699980
  0.4145160260661807  0.1633246433767089  0.7455150515250989
  0.4956389218626160  0.6659284842979323  0.5011295243545060
 -0.0023162793646726  0.8333795006021805  0.6651365351012033
  0.1635717928524376 -0.0000798396470137  0.6645986740301421
  0.4941842095968317  0.4142815296787469  0.5838804025499429
  0.1660187613659199  0.3314808794123071  0.5003964596787942
  0.2469460482333920  0.7496993031887829  0.6652851456926756
  0.4135883258719884 -0.0024904768331099  0.7465247801618778
  0.4119177293002352  0.5812718095465994  0.6661737493272418
  0.6633080642128584  0.1628188488184152  0.8287644973853053
  0.5783831145739041  0.2453767850976415  0.3353294542405488
  0.4945955199603400  0.2462717190118058  0.4179739650380374
  0.1657735000954296  0.0844352266872708  0.4190048160707404
  0.2468501612963795 -0.0011725166710606  0.7468099789645480
  0.1638286677780382  0.0815719931696710  0.7469752932975275
  0.6619383584992711 -0.0017515469518723  0.6649952177340199
  0.8298246013152925  0.0001598856271041  0.8283277122337491
  0.0803252776110405 -0.0009854731508708  0.7466234640840227
  0.4990923136618574  0.2434227117609836  0.9088918166022296
  0.2483026896095887  0.1656382312506644  0.4171236569757357
  0.2478046280053920 -0.0004245302760729  0.5829208490866985
  0.4957051530755358 -0.0006990887118155 -0.0029924940869543
  0.1645447440964214  0.0005183086304527  0.5020132673610203
  0.5788997849055326  0.2419155450028299 -0.0053884384641042
  0.3324847182751149  0.2475383572505888  0.7458658540008586
  0.1555432176332993  0.4887349011300829  0.1704679499794435
  0.4111974604871105  0.0809542403314196  0.1667132730421715
  0.0774232247939405  0.4113930555230936 -0.0056663100637556
  0.0827432207226177  0.2497198047270530  0.5021101265965086
  0.6635862588314122  0.1625609968294398  0.1639327007404834
  0.5736559508552305  0.7599944369808238  0.3402680880083169
  0.3288302957361652  0.2368302537233992  0.9025824270418106
 -0.0009590627172349  0.2439509592927192  0.2517855151556928
  0.4010509562184583  0.6810758480221589  0.0782473635906487
  0.4129280363990289  0.7538979149598714  0.3362008940512922
  0.3268834596189004  0.6677672191852041 -0.0048372890080467
  0.4112624123576566  0.2480630414230005  0.5000250538229385
  0.4052667081087016  0.7640147829400386  0.1673211215277158
  0.3304788408981814  0.6648902350399016  0.5007657357091518
  0.3329809070416044  0.6770384267862054  0.1691555644136724
  0.1629922255565680  0.2464307227132499  0.7448898910963909
  0.2476997131105529  0.1645888520526765  0.2498074741936135
  0.4094301675329864  0.6684754072357507  0.9123213102170340
  0.3305044419391316  0.6696814602836723  0.3383916374532251
  0.2455158332291006  0.7528783819153270  0.1674540288700807
  0.1649568748885572  0.1660048522253244  0.1648282493558398
  0.3310236930616997  0.7509729105708749  0.4196898537021050
  0.4064114762080851  0.7562223819595794 -0.0056890882546038
  0.4132779549969486  0.0822094955583852 -0.0028454801325126
  0.1670936398425633  0.9234127567658389  0.2521343900043053
  0.3283542034631979  0.3293872832120078  0.8317170359771555
  0.2482672106936389  0.0017672875744126  0.4178122920279099
  0.4974410670482330  0.2467532366218836  0.7466507257114658
  0.2479565281771912  0.0025379955640834  0.2504610216458049
  0.5781767067857339  0.3309881562202281  0.5832367185180533
  0.4959429562004686  0.3272101293129324  0.8293204508919610
  0.4973668419232384  0.1625182951004303  0.8276809472574395
  0.5801391822575525  0.4070877883863999 -0.0098885476403706
  0.4995425289614709  0.4942133613188536 -0.0105089982630984
  0.4214732591866189  0.4137071533587229 -0.0138015397439469
  0.2454202613147149  0.8356061322362537  0.9138145061477331
  0.5808065918542202  0.2397655373968061  0.1642190910271671
  0.3297149430779743  0.0008861770833726 -0.0031146727986660
  0.4973813239865113  0.4087215109279628  0.2529037909788279
  0.4119048534112196  0.0000429282566914  0.0810229395605191
  0.4125198379639535  0.7505073347814123  0.5010447808231844
  0.3295105083232406  0.6653026405710089  0.6645854308897445
  0.3301040757062573  0.4966166609335821  0.3321919593668103
  0.1568139551892841  0.5845504890743980  0.0715039574247744
  0.2447616534520182  0.4951574179329419  0.9161192507557053
  0.1648599436610113  0.6647995422824462  0.6655744338415378
  0.4136581112153266  0.1614632868687526  0.0832553577663814
  0.1641208230962045  0.7508945303852815  0.9128466839653540
  0.5002076610450957  0.1576091615388188 -0.0044845835567562
  0.3297036101979369  0.4980332567481562  0.6673028691294237
  0.3307710658679061  0.5816819803044289  0.4173488350073131
  0.3321761345623241  0.3307205740160649  0.1627721647753807
  0.1671536223719947  0.6651961584760625  0.5017488607380949
  0.4137279111119136  0.4965949157609263  0.4159493944198906
  0.2478373820225347  0.6647075298952528  0.5828375633791044
  0.2478785955568333  0.3304282336497601  0.2481662915943297
  0.2460823413071337  0.6670066527130235  0.9133109980714673
  0.2435300531602771  0.5142119245747718  0.1018271135018831
  0.1636372545567117  0.8343536543269445  0.8300727716289662
  0.1643408146799850  0.7494251160168894  0.5836710113774807
  0.2477302467491146  0.7512498860307117  0.3388936791305912
  0.4149252648358929  0.4968423838073247  0.2536271504837912
  0.1648430627580985  0.0832868379498386  0.2494968066045995
  0.2463161078158013  0.5820728088019529  0.3355835278443768
  0.1650893767758746  0.1647363038559744  0.6647001731416851
  0.3302250871444946  0.4971517501523854  0.4995860335112623
  0.2473781597019429  0.0837472037249972  0.3336271228471819
  0.4148332193561298  0.6662452804371678  0.4180187603357780
  0.2487859907569596  0.2488153734793224  0.5002923497728510
  0.4112174632155654  0.4139456825617812  0.6671206397250353
  0.3231275493741066  0.5124097992214736  0.1864407104722432
  0.4945163881467973  0.8376324563525968  0.1651989361667923
  0.1655295438843733  0.1667313215086364  0.5020825894593433
  0.0828922563236363  0.1662298965599117  0.4200034584614021
  0.1658015368612958  0.2481590374367927  0.4175296487742484
  0.4930187718979770  0.5797290940586689  0.2548029605011478
  0.4150236840542244  0.5820571620537368  0.3372663099673703
  0.2483797909110125  0.1660173473383925  0.5831487761219692
  0.3300764738736454  0.5827289452190473  0.7476654073544582
  0.4939687873140722  0.9185878476906421  0.0812479862074077
  0.5552366324617274  0.5874200194113667  0.0071951880555528
  0.1644617183288764  0.0008762686161033 -0.0032530709422096
  0.3293046895378551  0.0829110218161280  0.0807090884871664
  0.4949253590287860  0.7546644448270816  0.2519266374025623
  0.6467469081316357  0.5794854086258294  0.0684433370587250
 -0.0026257787331999  0.4986742333429469  0.6641242691553394
  0.7471281614445457  0.3267565348935568  0.9108289483798291
  0.7438448969848906  0.7489061197396173  0.8281257891494822
  0.7465948269749492  0.5811684658365585  0.6648639517673413
  0.6607823495319777  0.7493541323527634  0.7466901658128210
  0.1657972772120315  0.5808209962395674  0.4199593137785891
  0.6610304743396640  0.6647705487247997  0.6652329703206934
  0.6615389188784043  0.8336290958405721 -0.0032593772669161
 -0.0064255829271662  0.4974685643329775  0.8284835291632956
  0.8333392461527694  0.6662523974258641  0.5059161364748032
  0.7366900882997264  0.6550774407954068  0.9015652585073700
  0.6636070350748536  0.9155470224961426  0.2519222496678158
  0.6501096797781476  0.7390171237981917  0.2591310777864603
  0.0795817687321396  0.4996510508336455  0.7463313574392300
  0.7331608708012307  0.8145319124092752  0.2306053800118773
  0.1648414805752225  0.4995682284404662  0.6644862614509350
  0.0822387482325942  0.6655344783887772  0.5843611011652654
  0.6520851232939981  0.8447412101529300  0.1615872447797137
  0.7475585024037950  0.4938071476432199  0.7442092947147800
  0.6618427997078343 -0.0001953421439340  0.5019532126191201
  0.7439004698663640  0.0815142422559727  0.1634572377334705
  0.6625002298018045  0.2432923639487045  0.9109933159769115
  0.8310636928881785  0.4123034511221787  0.7458117370125437
  0.0115904285861213  0.6793722607727117  0.1754930452967247
  0.8285909414550362  0.4968636456272428 -0.0039053378308013
  0.6620947500119024  0.3236676438404105 -0.0079753705333550
  0.7467653317303983  0.1630706091272142  0.0798482016666137
 -0.0003349198315289  0.5822519483705976  0.5836765661628608
  0.4133859321118086  0.4123326807042257  0.3326331069183217
  0.4089105276730037  0.8385468958060655  0.0799107608947391
  0.3243376268689554  0.8392375993773042  0.1657867836025514
  0.3281791224745154  0.9192496334063996  0.2516376324568422
  0.5790751876919122  0.0822028731309618  0.3339589680070896
  0.9173237394030972  0.5810273266042670  0.5045495956350020
  0.9163720867887599  0.4955551934705718  0.4215266939408138
  0.8301289512355792  0.4967079056489197  0.5024363564674601
  0.0005526030425246  0.4117389282718079  0.4212125513055939
  0.0018664524154876  0.4965715668528687  0.3408772684615000