B  Cr Ni
 1.0000000000000000
    21.1844141523534653    0.0000000000000000    0.0000000000000000
     0.0000000000000000   21.1844141523534653    0.0000000000000000
     0.0000000000000000    0.0000000000000000   21.1844141523534653
 B   Cr  Ni 
  35 259 605
Direct
  0.9245775242597480  0.0906280335951346  0.9276453931492358
  0.6607845776670833  0.8369293417027237  0.6001155907083322
  0.6592631754960575  0.9550333711162954  0.8975486962056382
  0.6725109192129586  0.6968965854885008  0.7449555321544387
  0.8300863275006550  0.9324687125551372  0.1380053967501330
  0.5144062453575527  0.9076066678276332  0.0088785565551556
 -0.1012662635820981 -0.0312253382593329  0.6825428998420610
  0.7457970090824217 -0.0067352213964953  0.0056908018699626
  0.9891323508388384  0.9132035165135252  0.3429915285234943
  0.8340418254765499  0.8316940276506004  0.4160599686821550
  1.0182112668731280  0.8589274866936447  0.3962940107010016
  0.9709208614147128  0.7410439410492752  0.5093766420514827
 -0.0787541702890198 -0.0182873950757821  0.4939741048230825
  0.8168096307964576 -0.0136176983141666  0.9149132968835098
  0.9886471923968476  0.8397168770220103  0.5950862977835820
  0.7375986745867529  0.8284743172583182  0.8271984170465825
  0.7718690925955844  0.8772975597103377  0.7663232583882188
  0.8564577731610732  0.9372338345320638  0.8628134175927414
  0.6418358698716732  0.9515910421400112  0.7366181340040185
  1.0162695532417327  0.9038379085503754  0.6387422728761498
  0.5931476342984120  0.8260294221921450  0.8313667006031982
  0.7476575901269490  0.0602027489337934  0.7495343137194750
  1.0223410530652588  0.0275151715520585  0.7468404336770090
  0.0863538856584971  0.9184432065633140  0.0866141616590860
  0.9086184974421064  0.6821311938557068  0.5014863858331123
  0.8805956245237951  0.8966688569547363  0.0853862053887343
  0.0724681468601612  0.1557840891109522  0.6661357686608576
  0.7586491959060575  0.8443119613947645  0.0034872731374697
  0.8379574991919723  0.8358941887619045  0.7357638380337262
  0.5765612548304475  0.9308073033316244  0.0589473640472749
  0.7414128554844555 -0.0934233055009742  0.5913287665612186
  0.0684179640866283 -0.0072500552894574  0.5008554537422868
  0.9952108450066063  0.0789242939444671  0.8109573394714245
  0.9125292344237123  0.9878252942478648  0.8263361433096991
 -0.0667631701678137  0.0905393603801931  0.5735122790878703
  0.5766393892492261  0.7472637212393946  0.1643645391445207
  0.5779939817784112  0.5779924221397560  0.1655700681575650
  0.6595697235079088  0.5773407500954778  0.2469074193891439
 -0.0008880655199641  0.3330817802716231  0.0003477843095133
  0.8299224183591594  0.1698506406885708  0.0018915362489200
  0.9110109698782023 -0.0030880709479221  0.0929185932915417
  0.6583983754388680  0.7484170695615017  0.2445502216672947
  0.5776357462468629  0.9194732129370573  0.3292791121104082
  0.5750159511379920  0.1723078731684407  0.9144489755646478
  0.4113517487115614  0.7431928161981665  0.0017641255538802
  0.6664888548358201  0.5829506300895920  0.7488934263495914
  0.5803277594480870  0.4189218087481726  0.8334892459279131
  0.9055020176340858 -0.0009990504330331  0.3996478930648880
  0.9130567910298423  0.4155853528790331  0.6641518910713184
  0.4951354748811209  0.5798302839615694  0.5818901056899040
  0.6591957244558450  0.5774705494545838  0.4121611780768397
  0.4946156639041722  0.5789630599121045  0.4145574264728908
  0.8326141843626499  0.5778052959835106  0.0850253821692005
  0.9214242174282316  0.6585054879506905  0.9200776560603554
  0.7478162711400788  0.4985121674455629  0.9169193556195248
  0.7366054551995591  0.7387978506534219  0.4945757968225384
  0.5754444529601346  0.0850366691879852  0.4994144581559524
  0.9245679552184334  0.7423947951832115  0.8399469623007159
  0.0837050380657283  0.4954249428267622  0.7498479226756813
  0.6647088939796948  0.7390450251689384  0.9187343334624944
  0.9299314061114368  0.7433163408613725  0.6719544643830322
  0.8218978738174574 -0.0040175000620488  0.4905950950726614
  0.0820781886691757  0.4974659530400393  0.4143117820370372
  0.5753920979282208  0.7485675101671083  0.3280367686678203
  0.8306633447968016  0.5770733724791708  0.2497978450684858
  0.6627593308653821  0.3372471639633383  0.6653852100630783
  0.8337041957691722  0.7403446973765708  0.0911199693703219
  0.8339515083551715  0.8322832170828388  0.1598238303750099
  0.4927705389379903  0.0044742364589175  0.1710157705815904
  0.7484843324268127  0.7899032886748801  0.7317332677546512
  0.6622411322138833  0.0866337389451925  0.4131715664675928
  0.7463872575984122  0.4145974512252020  0.3326012832062503
  0.3330176667859622  0.9148760332683271  0.9176341865503540
  0.6606703952729420  0.2528983573603824  0.9166823259898718
  0.5772841107238365  0.0889078232251161  0.6615652434321592
  0.6600948032875273  0.1686612594807863  0.4961489153787215
  0.7468968328896547  0.4190571139255512  0.6650550580166877
  0.3331853253246896  0.5796873817861997  0.4155065842764218
  0.8283113784454554  0.1726537987816801  0.1684459805955443
  0.7446035911603617  0.2536934918528954  0.3336245805172713
  0.6594847835108629  0.0887659386423202  0.2494263707851619
  0.6608418141974295  0.1722542575731131  0.0015649419940476
  0.7432083231699361  0.1732434552450850  0.7464151666632243
  0.9145554678465144  0.0914868891443213  0.1680479377682664
  0.6599165386919548  0.9180369853432193  0.2467267217718315
  0.5993990015412809  0.9118926475086189 -0.0334469174112170
  0.6593269786426190  0.0936814334405067  0.0850940374071584
  0.6473273405322009  0.0050464146988664  0.0024590372149661
  0.6590188056235918  0.7831771858472126  0.6847829820876642
  0.1653002929626511  0.3309583621911188  0.1680108168589810
  0.2504602336411012  0.1689658073724881  0.9172293505133058
  0.4116335194359790  0.1684764277017194  0.5825540460759541
  0.1670743270356249  0.3325346676830285  0.0018847980717218
  0.1766069734630616  0.0824225324367380  0.7539332359660010
  0.1701253349091550  0.1687503296056030  0.4968964076073967
  0.9143774560508271  0.7466037664351445  0.3323667745157805
 -0.0087630373202728  0.9166370077812687  0.0911374663658979
  0.0945802199975672  0.8263166030789669  0.7583723003983122
  0.1668244977650335  0.5777706710104343  0.0859815253469041
  0.0022145685410962  0.0035878984059724  0.0009972487336582
  0.7514805637635067  0.6624864799939837  0.9212743300096885
  0.6622578971027404  0.3341955642977750 -0.0014208787266228
  0.5772229557267038  0.7478011268285526  0.4959054901085876
  0.0009415618336608  0.6574766529170677  0.1685849431182889
  0.0842683317299326  0.4949909661711975  0.9185514074147184
  0.1648014028176621  0.0837090041745793  0.2495751730240596
  0.2510604772876748  0.9159567424795426  0.4982972448862387
  0.0809915268838759  0.4965199743773694  0.5820655124733694
  0.1699212729610711  0.0872596772775093  0.4184780272561524
 -0.0048694084920723  0.1623388159383726  0.5032877382482185
  0.1669719681904280  0.3336579940798924  0.8334365167841409
  0.2503620650635587  0.4141700531114254  0.1670963036588260
  0.3319813552768049  0.5788985506247794  0.0836196951267422
  0.2551105135390918  0.9107327232048594  0.6679880717032974
 -0.0032152663975482  0.2575421183286585  0.5728270067830069
  0.1663613420888214  0.0018054600007814 -0.0005503826943865
  0.1650891303468912  0.2512953804488840  0.2491457584323948
  0.2500111496730398  0.4963234084461207  0.2496510846643966
 -0.0031221588379594  0.2508572622596829  0.4183448614267521
  0.0842714752524473  0.0869566000901143  0.1692832408913882
  0.8295759455196333  0.3331460298774869  0.1680041662676865
  0.2505582220142617  0.1671944918063705  0.4162062436584986
  0.2503300088761121  0.2525906219125949  0.8332281326937987
  0.0000472680813476  0.0879847735571860  0.2505765621636173
  0.0931010589681441  0.0817508232819652  0.8240724823458929
  0.2570752776251261  0.9114653429614402  0.8377757196688819
  0.0845092092369074  0.0853626786656706  0.0004232149129166
  0.1691631517804540  0.0011410255955830  0.3318845863729616
 -0.0038621768391230  0.9452568278668263  0.4385492456750800
 -0.0110882677350014 -0.0017363542649503  0.6504375184068107
  0.5813609400933692  0.4174037601789111  0.6661075353438580
 -0.0019038536419593  0.3324772889069821  0.1689563639215834
 -0.0127468601614913  0.9268571678660853  0.5503479171252149
  0.1650965606915839  0.4115335339861060  0.0869724043094465
  0.8363250034450997  0.5787477261495637  0.7504525271451326
  0.0844064905156946  0.4124552658375141  0.8332042472464427
  0.2497733815019481  0.4157685092665462  0.3309356779188834
  0.0818296773901784  0.4159496632574806  0.3324293267893974
  0.0854999138036907  0.2560967298649522  0.8328350385820033
  0.0816326439775955  0.3332061813098063  0.7501466742768865
  0.1662637789983669  0.3336812149877382  0.6663724332093214
  0.2488561882712335  0.4155681813585639  0.4996721730296987
  0.4948967598773747  0.0891525492234339  0.9143166183514078
  0.7454014209265472  0.3372037413928340  0.4153314605885108
  0.0831179318351025  0.4139409493323852  0.0036849715821091
  0.9158245324761580  0.4157938003971834  0.3319997353893043
  0.8486125404425087  0.8135427955170694  0.0186228032586296
  0.0848371038848266  0.6639670661185381  0.4155673196674012
  0.1709672856370242  0.7426561939734740  0.4161576751512770
  0.1657632188872691  0.7472513333178240  0.5823893188653917
  0.1690435428863116  0.5773839956977961  0.7505657879716860
  0.0034620352314743  0.5753260553650769  0.5828334378078553
  0.0818997610410333  0.7460967944930222  0.4992516967840048
  0.0023435554730656  0.6593246869674019  0.0020537632067990
  0.1703057112070148  0.8316337938390098  0.1662041036334597
  0.8178254289110524  0.0211212747424898  0.8207604890341031
  0.1680814675778910  0.0025196037759853  0.1694209324646301
  0.1649809266494276  0.2509972142832076  0.0828291518721876
  0.6593419676520627  0.7437327937912728  0.0849985324809534
  0.7439529484333238  0.7421251063570788  0.1684567448810466
  0.6611546824298183  0.8315702284054745  0.4967847763897055
  0.9237479670138846  0.8468870883592194  0.3813053136480359
  0.1661597326745111  0.2500396198345414  0.4164650950785878
  0.4971804295919414  0.5789592428833806  0.2472672984326811
  0.5687122622502704  0.8296344229281509  0.5783639339063140
  0.9154773316854081  0.1701410791296558  0.2513838851871795
  0.5770329994939142  0.1699203534820813  0.0843185998692740
  0.4120020668546939  0.1674615755309056  0.0842415895035498
  0.4969130594705329  0.4181882864406188  0.9157364225465421
  0.4969205597622570  0.5771139043910646  0.7488317428882808
  0.3297540448365140  0.0847053449578720  0.7477505005505516
  0.3299593443882232  0.6639893005153290  0.1687210110373826
  0.4150278823239357  0.4983662819158506  0.4157682127591983
  0.4129835609457759  0.0001379963374158  0.4143607956119935
  0.4119046111678091  0.1686270450842399  0.4171002815718461
  0.3320861714381919  0.0850549492237180  0.2502194302510444
  0.3307014141870390  0.0860137307312464  0.9156542861880214
  0.0904708983607933 -0.0033035176475790  0.9204513661844036
  0.0876904790432107  0.8363687144638171  0.5847255512321831
  0.0011906419085201  0.8339916076331545  0.4911713535981175
  0.0978015190114688  0.8285884107194440  0.2447230200062528
  0.4138897035221742  0.0006443226901611  0.5831851901260643
  0.2506151363012983  0.7448405829345160  0.0019288806062251
  0.1698588075513013  0.7431680760029243  0.9223973311295811
  0.1712383936586710  0.7442085604690858  0.7523668886418371
  0.1690645210232994  0.6606380896264692  0.6652800824366731
  0.3340602038284811  0.7484204295261876  0.4144233440823207
  0.1720448457467223  0.7436417075121247  0.2494745981160088
  0.1701218103439707  0.6616978119527781  0.1677889855690624
  0.8901328403028009 -0.0019135756222984  0.5865403825617992
  0.6645033586276727  0.3334071764337581  0.1676854437383171
  0.7451189926030626  0.9171925098132933  0.4907275776115100
  0.8339445810892565  0.5863785213593613  0.5798694975893269
  0.9165641726234173  0.4957910165941146  0.9183667851912762
  0.8587396723710751  0.9289008244096838  0.7630498952719409
  0.5791841700067372  0.1675686506679235  0.4166077162783017
  0.0000057738635145  0.1645027027084264 -0.0020960935363042
  0.5762354733240801  0.4142789814675328  0.3320582187849167
  0.5779676166854658  0.3356174295234705  0.0835243396814709
  0.7580840920662884  0.9250762776361480  0.8520772410009491
  0.2527126709813212  0.0832441026264380  0.8359523782125725
  0.1673193565705794  0.6625092139253890  0.4992425899017081
  0.5795501361609895  0.4135650525827741  0.1634054482800192
  0.6614342145523742  0.8168580964752772 -0.0029344252939576
  0.4153631254011190  0.8325441458475975  0.5803557365866291
  0.0036385493955813  0.5752483646128868  0.7514631281416104
  0.5783098737989417  0.0031005177446232  0.4138312712816505
  0.4949562654109131  0.1688902941065608  0.3349061755385175
  0.7380617239871728  0.7458561229760230  0.3204046460477878
  0.6545009573736869  0.1013643791374196  0.9177447354246325
  0.0829524667149640  0.4965956603754483  0.2507984256378294
  0.0841618493908476  0.8229502930996667  0.0891101819427084
  0.4985917798617567  0.4984550265868886  0.8331948705046357
  0.3331016636211585  0.8292462379682757  0.8354249933800229
  0.2500680933297462  0.6621050196244739  0.9195006226209836
  0.2533545334950995  0.8291504091420018  0.5823378512128865
  0.5784845256210921  0.9238798724177905  0.8327233219947831
  0.3306609059579075  0.6632005976951949  0.6651910032739191
  0.2485791981037785  0.6649353854136827  0.5813300779084952
  0.4141500004486245  0.7481396853889009  0.3314439039181933
  0.2503037101095290  0.7487575999597837  0.1661853940058025
  0.6637917182175151  0.6626548395475569  0.0012249612756408
  0.4982996692419572  0.9184775445027473  0.9112662275912359
  0.6653757482547691  0.4985306075404223 -0.0001223563699543
  0.5766437238758779  0.1739260127805240  0.7469668060170941
  0.5743604933796255  0.6588821268184162  0.5791390823810756
  0.6610315247773477  0.2546130991879359  0.2503852696028966
  0.4150568815204852  0.4984902847205649  0.5821714588403565
  0.3344209830898999  0.8305777099374897  0.6660207797736114
  0.9168258928681259 -0.0046412310847488  0.9218414621526818
  0.4884658252914969  0.7364228020607078  0.9223191781391675
  0.5014552192012532  0.0030411764841294 -0.0000133475769872
  0.9265049512200549  0.7380590994762614  0.0040690026828367
  0.9156512018181702  0.4154502625210604  0.0020482691495471
  0.9142879564488711  0.4166365429467783  0.8352673443437557
  0.8257181213860503  0.3393154225699275  0.6650529246750486
  0.9141649488084864  0.4180846392386773  0.4978053267930566
  0.7453648135963050  0.4190442700950533  0.4975743164435995
  0.8284667661852304  0.5775020680107001  0.4089843193774483
 -0.0005261136702546  0.4974914936438313  0.1694976097426033
  0.9127251525813475  0.2548690394488250  0.8330135168928154
  0.7441791515425092  0.3345645230442870  0.9179378382527650
  0.8263090530726236  0.0891081409097021  0.5819706508310947
  0.8309347076082545  0.1114666640093952  0.7494278676346804
  0.7453549268058500  0.2530579875171008  0.1663330102253940
  0.7368812412137264  0.9191783634087639  0.3232044010692318
  0.6609868305742026  0.4986029748945994  0.4967189023628972
  0.8389319182833695  0.8339923511906809  0.8367214772599183
 -0.0088107754121405  0.9262470555212045  0.7394571706541641
  0.8060215675689710  0.9075939309953575  0.6721852726187275
  0.0035636612390100  0.7525597178821479  0.4082471655299921
  0.1675381442254196  0.5773240628969962  0.9189862555442710
  0.1680611736813099  0.4966779956157399  0.4973452276120556
  0.2474256051092685  0.4961094329307122  0.5793871002644726
  0.4937843579855701  0.6595356349440883  0.0011358331883306
  0.9151450328032522  0.3327445010775248  0.2512217321111195
  0.4109065531559155  0.5758499836106939  0.8330233802835267
  0.2486732862475723  0.6622878015962439  0.7501993404654990
  0.3319428650167898  0.7434019028372753  0.7493626782155675
  0.4957729717497673  0.8324129090061171  0.4962091554582169
  0.9209515694687209  0.9157172272226628  0.1768309730951328
  0.8310941628074285  0.4148827513391438  0.0842815674284079
  0.8265471822073666  0.0905527910616278  0.9196700341174484
  0.8256467072228330  0.1717083792907090  0.4943527150980832
  0.4957537051412272  0.7461790621736720  0.0855966702082968
  0.6603291354106950  0.0069039809455265  0.4938711883767989
  0.4970842261377821  0.9174830373520776  0.7479159233338782
  0.2527491812584341  0.6620335418682096  0.2500429276854021
  0.2494220555114311  0.4971645927642842  0.7495477563574755
  0.2511376113656624  0.0830939914437905  0.6660877878389175
  0.3322578374579707  0.9164256758345571  0.0839296825197810
  0.3305526748282689  0.4143800832184881  0.2485956931829623
  0.2486869492662200  0.4135586178338325  0.0030116595570236
  0.4142176244913302  0.4984511472306892  0.7497857813251295
  0.4140297921592954  0.3351392860825000  0.4142828866245548
  0.4951350485291799  0.3334518380927988  0.3336540980622240
  0.3337145380344412  0.9146118975607060  0.7492345944935200
  0.3316213296861217  0.3331574346142266  0.0000177433540710
  0.3316742931596661  0.1681633456831760  0.6660400535051292
  0.1652420990115052  0.3342601205206249  0.4977663508485641
  0.5794220365545533  0.4174003251219109  0.4993783546664145
  0.4135314317861892  0.4143434274154628  0.3320585583601348
  0.4962514134910688  0.2530076022051527  0.5816736926546251
  0.3326889138145770  0.3343391406857267  0.6657101096968990
  0.4954955196950724  0.7489235333717897  0.2480587224076664
  0.3314235013436740  0.1664561515885322  0.4998563112563599
  0.4138560882677677  0.2530057186281636  0.8318593965401982
  0.3308860447036990  0.0837259439065651  0.4178428136604291
  0.3323296411012044  0.2509657034889188  0.2497688553109214
  0.9134399771466751  0.0894460153900700  0.3322171036739422
  0.4953418747857178  0.2537959372672747  0.9154555954308929
  0.3328108938695435  0.0857592278936008  0.0830031625287760
  0.4967701440239752  0.3343835439486189  0.1655950697903257
  0.4919727998793773  0.7431325326564365  0.7492153705018151
  0.4116307313289223  0.0017950246890134  0.2505590718152642
  0.1688671661873350  0.8285324623186175  0.0037746454055386
  0.1646352587528645  0.4147040051749084  0.5826010482486895
  0.5773599236336036  0.5794448416152428  0.3297105457298541
  0.0841505534494881  0.0018194576015187  0.2525867856521239
  0.3300667674733386  0.4962438916646678  0.0012182036729950
  0.3314946966163987  0.0029919271240086  0.1665070581117639
  0.2488213851705132  0.4161057111337886  0.6647501461673514
  0.0823154158041229  0.3336076143650927  0.4151209929086827
  0.4125965912725716  0.0858960361131201  0.1678171493930822
  0.4124269554641415  0.0850033123284772  0.3337091363624059
  0.3305862900770127  0.3325838548509281  0.3328015446577085
  0.4951681362385226  0.0018164120695442  0.3315298195629969
  0.3310618593483717  0.0013220111506939  0.3336683673981027
  0.2487362936325721  0.4958496020976901  0.0851375156982216
  0.2504715719594849  0.6618904768004926  0.0844582226053121
  0.3336062663256284  0.7475698204855364  0.5818512271609610
  0.2499686923099564  0.5788703125015705  0.1668827055557457
  0.1660684145365608  0.4151815302021166  0.4149391050725919
  0.3335941930773241  0.6635573897749295  0.3325230866891378
  0.4137016878120108  0.6618486051116843  0.5815049680793730
  0.2497685265804552  0.5802898373965129  0.4988082924358711
  0.1668198757793177  0.5788356237085898  0.5816998951844971
  0.1662863947089190  0.4966034342258604  0.6651234245754255
  0.4134148659615956  0.7472920070982145  0.4966546599388142
  0.3302262192816942  0.4967196320372220  0.8333151998204094
  0.3336004248097635  0.0009117044201788  0.0001770991941221
  0.2498194722403762  0.5787275084989225  0.6641200968674197
  0.5775813209370627  0.4975564697277138  0.4133894358818905
  0.2495313307297600  0.5783272693479843  0.8342531892633507
  0.2512490061741466  0.8311410927139538  0.4159001500526819
  0.0871601569174297  0.7424591256448878  0.1687012509113362
  0.1745017196952780  0.9162858595333307  0.0844888311022009
  0.3318260119363070  0.8316778115596569  0.1668089751243014
  0.2497046112167905  0.4970885349114728  0.4154513268516671
  0.4143979975324410  0.0835246270342403  0.4991924104064870
  0.1716301661334970  0.9164703481578479  0.4149845875191737
  0.1725379737100864  0.8273424731968032  0.5006629614534661
  0.2507894875084298  0.9172489901220101  0.3332768082426667
  0.1671639628803502  0.4151901019622202  0.7481454952066399
  0.1726875057230162  0.9123442291446520  0.5840858337449398
  0.3335092650217673  0.8323778274863423  0.4988801583230614
  0.1694782408426797  0.2527590005239857  0.7492347565610376
  0.2488120614374244  0.3319502124032122  0.2501016840779972
  0.1782134170525293  0.9083290486501202  0.7561174445771094
  0.2491754611067963  0.3343949843486801  0.5824551853459755
  0.1717626044099603  0.9122454024930540  0.9199787984896195
  0.0140767577616370  0.8234070226374717  0.6839995044092664
  0.2525050927574511  0.8278480694024077  0.9216119556819080
  0.7453311972150241  0.4962141831172072  0.4121524498470013
  0.1741421877041708 -0.0036638844179364  0.8386339446991720
  0.4963049441623180  0.4980272725330943  0.4989838911917663
  0.5763322537431734  0.5792494386095230  0.4958960459290529
  0.2531969020598013  0.8254792248560968  0.7518435986607311
  0.4131289727774446  0.2507102323886364  0.3336875434070178
  0.3323310219817622  0.1691397244455680  0.8316662405413496
  0.2483824025471562  0.3327228588382047  0.4153767982134962
  0.4132557921035710  0.2512625976270441  0.4997161642402687
  0.3315106821538057  0.2516495376791353  0.5823796465846133
  0.1664737345622306  0.4140221029825785  0.9186579286036536
  0.6596561464548643  0.5791701376400459  0.5792973844753063
  0.3321407869774753  0.3347915898525692  0.4983379708243680
  0.1673056188433769 -0.0004781504989069  0.5003117027372357
  0.4137138224773931  0.2522770169750940  0.6652364811902133
  0.4137242709940920  0.0005288107411646  0.7493303141778110
  0.4128169905881671  0.0845979732510697  0.6655173129882451
  0.2501618640799519  0.2521164184228375  0.5001382150380993
  0.4127594184927699  0.0033487338154432  0.0834770311968207
  0.4133928647352514  0.3331521816457045  0.0834080825721207
  0.2501597255849715  0.0844907777851309  0.0000588322018378
  0.2505843429584509  0.8321038598432220  0.2499007376221635
  0.2515697955095156  0.9172937449260108  0.1678399696844544
  0.2524683988947258  0.8311405744219102  0.0829298564813433
  0.1677198774738754  0.5793269259805855  0.2501740326319448
  0.3332984844310323  0.9158027359021448  0.5818562020539427
  0.4138345846181882  0.7475847029231204  0.1666454776155796
  0.4144874397975308  0.6640586621485807  0.2487432827176970
  0.2503146977317136  0.2501669802200888  0.0010198821994370
  0.1662716470005691  0.2513562997193950  0.9175126338445830
  0.4147764346730459  0.6634990710964163  0.4136744507971375
  0.3314828955242626  0.3336802179808648  0.8328609918679922
  0.2483091927672175  0.4145567026681257  0.8329715518376221
  0.4142532132130855  0.4177064111754084  0.8325299218193389
  0.2484476591068059  0.2491701837760432  0.1673116154053399
  0.2484450601859738  0.1674716006295622  0.2500737886017289
  0.0822525007892633  0.2498973175703404  0.3347942606462868
  0.4130503721211186  0.4969075155518728  0.9171108976827401
  0.3309307969685640  0.6615510101567981  0.8333340647841169
  0.1662053826918100  0.1683274883276715  0.1676751252899166
  0.2495463969113247  0.0020529968077958  0.4165505728711071
  0.2483304864823440  0.5782763250489700  0.0024740604817771
  0.3321720936457405  0.7486969371669687  0.2502806450353097
  0.3349232296204884  0.8317595329364528  0.0006145629842709
  0.1689709874036261  0.7446990991835596  0.0855147111349937
  0.4134280724747146  0.2502763876787626  0.1666745466295525
  0.1688488418478839  0.9177914326763233  0.2517520674868385
  0.2491758622198038  0.0851419933669186  0.1674211345574331
  0.2503555319715801  0.0017048133388911  0.2496279541956525
  0.4941845345587169  0.1701367190570031 -0.0007383693944512
  0.4945130950244837  0.1696274935711769  0.1674235087661886
  0.5770984842163293  0.2524019718026182  0.0004880267981447
  0.4140572574760902  0.3351209044399903  0.7492349112752651
  0.3322744510941185  0.2497281940157126  0.0832442309843728
  0.1661841615104409  0.4142797245035435  0.2500705153879075
  0.2491129224089846  0.1672962657478610  0.0833992096204153
  0.0888871505619721  0.6585568296003613  0.7523368846395690
  0.3305139046710457  0.1674182871851391  0.1675085434093657
  0.4135346633329258  0.5798306732628393  0.1666321119701315
  0.2485537203402222  0.2493441515156760  0.3322017363153748
  0.2476577055354628  0.4959866316941683  0.9187121629513405
  0.0847447413657865  0.5766972815964814  0.0025955754225120
  0.2518382686311993  0.7464063100283470  0.3329654046158597
  0.2504879891934448  0.5796712846082345  0.3330688857312571
  0.1691419018769841  0.6596413491667629  0.8357832608701026
  0.3328714719006829  0.6632985756964722  0.4980272401884381
  0.3307381862349119  0.5791583550666044  0.5816469737305791
  0.0831029128900230  0.3335173952893010  0.9182558909790687
  0.4134764937550273  0.6617945396141249  0.0851687248148810
  0.1661750188293455  0.1673546031092969  0.3340023759882121
  0.4124215083558782  0.0857679195894626  0.8324064973507006
  0.4133043286967508  0.1692676111465579  0.9153347501748046
  0.1663143297828874  0.4961378457446343  0.1680117478585737
  0.0888579184506476  0.7437502707146041  0.3308303464534693
  0.1669700295115410  0.5796400212454463  0.4155149186808371
  0.1667968718068379  0.4950447667447660  0.0030352483438163
  0.2519015629094725  0.6632933617233094  0.4157414074536178
  0.0911638616433231  0.7431733493434451  0.6705884401508516
  0.3308354192367446  0.4153602501100099  0.7487752682804895
  0.2524479613166644  0.7465211043906126  0.4985464058876475
  0.0910014298599222  0.7407017359400181  0.8373850760863395
  0.1694283086859427  0.6618583273360705  0.3332242731441782
  0.4962489882707756  0.4961461710355747  0.1662284039862584
  0.3323417374029944  0.5792002629414300  0.2494898849837805
  0.3319835340840362  0.4977451435488382  0.4987558285945310
  0.3327415298166282  0.4978473053891016  0.3327725033779623
  0.4143531442136346  0.5803951111139909  0.3317665285657869
  0.1660148747810330  0.3321401623359546  0.3324459951721934
  0.4140397150469942  0.4166489228684487  0.6654679350682688
  0.3313381309328533  0.4973283443147468  0.6652744508686816
  0.4966702041786136  0.4165025673295615  0.5823535543928641
  0.1684677059374506  0.2542725949900951  0.5809613159466247
  0.4139920194048404  0.3347292029015822  0.9155200028233497
  0.2491810089342296  0.0825148442927342  0.5024307624751467
  0.4133362878589132  0.4971746791067384  0.0831839730264790
  0.3292881407686459  0.5777775581434074  0.9181733197507560
  0.3313077183482135  0.6607643719228120  0.0019526510640726
  0.3322389378450188  0.4977519947997728  0.1664008952741196
  0.4136841459942502  0.5807874641749472  0.4985767752937346
  0.2498050898761751  0.3303344131718223  0.0850781878192510
  0.4930945046953403  0.0884323321586756  0.0845126117423075
  0.4132437829026809  0.4142660289291096  0.1662280925760744
  0.4963704107067299  0.4164726192629952  0.4164938494164263
  0.5780335840428050  0.3341591945469164  0.2487517676234255
  0.4960421451255417  0.3347499824154652  0.4988359864510255
  0.0879693627640547  0.9131473730886006 -0.0009693032722768
  0.9157351010919159  0.3330134063892249  0.0858063517555029
  0.0843513555913623  0.5795495126345834  0.3326013452174413
  0.6622093206252861  0.0866072288893418  0.5784560086787537
  0.6643630543774591  0.4186917253298549  0.7488558669943481
  0.6607441574494529  0.2535324340279807  0.0834575542530077
  0.9199791480330481  0.8861035024427129  0.6490097368578037
  0.2488916096583100  0.1679498856446100  0.5831788715199845
  0.4892798948487450  0.9201618169876931  0.0943706000549693
  0.3321552201688377  0.7462410189134513  0.0844835791759144
  0.3310932054484733  0.9166482509230401  0.2510086848238626
  0.4138786046813395  0.8324709638331099  0.2492620778473917
  0.4094024728052224  0.9185646519282983  0.1693419873205779
  0.3327257880333819  0.8319662326793004  0.3332095899850311
  0.2504324724305552 -0.0022105194274388  0.5830620056038208
  0.3328056240084553  0.9166872983516700  0.4164863453234927
  0.5793125350860787  0.0116590736280383  0.9091410862113976
  0.2493354054956280  0.0848113358781627  0.3323899977892790
  0.3328445427110244 -0.0002069990068649  0.4997692383086700
  0.3331003203868687  0.7448801883997624  0.9185763613657206
  0.3317834466828828  0.0833148978198863  0.5830153165505439
  0.1672328674041633  0.0854012789215815  0.9152105936461561
  0.4123950648707707  0.6607686323473353  0.7496476123481843
  0.4147063848844759  0.7444313383721781  0.8333617425624611
  0.2524150616525218  0.0000085827801404  0.9193453144929724
  0.4145028300186463  0.9169963683647669  0.4990588443285013
  0.1715727612802751  0.8279531465880411  0.6679102253123160
  0.1654762859534323  0.0821995549077459  0.5865408617745920
  0.5771567059395258  0.0911309961986011  0.8287786525104703
  0.4964402260023902  0.9181672458938219  0.2477938293402412
  0.4943833274746942  0.0864281189793095  0.2513963343293535
  0.5779627783060529  0.0027084087540451  0.2483631438710032
  0.5766716484756116  0.0909410439545430  0.1708943547993548
  0.5790107728857726  0.4986837207319995  0.5824173215168855
  0.4958065175500537  0.3344511737083203 -0.0008349378692949
  0.4958394737011124  0.4160214789411885  0.0815633373868084
  0.7470385581457983  0.4145457204643019  0.1660622513589926
  0.5804713345001847  0.4166889305210341 -0.0012117514850388
  0.4939755703560473  0.1709883494026171  0.8307294220338909