B  Cr Ni
 1.0000000000000000
    39.0487268126086491    0.0000000000000000    0.0000000000000000
     0.0000000000000000   39.0487268126086491    0.0000000000000000
     0.0000000000000000    0.0000000000000000   39.0487268126086491
 B   Cr  Ni 
 213 1596 3725
Direct
  0.6532086536154003  0.6767498138034586  0.0366988199211964
  0.8327790977605233  0.3467475544146037  0.5040409619332405
  0.5879719137987864  0.6197289357646427  0.9849775088053090
  0.5299610727177388  0.0540354441865823  0.2743460791343738
  0.9227593665508788  0.9669156059447460 -0.0146445131781807
  0.8154181803751787  0.4670290776209298  0.1951067175516713
  0.5808099082695307  0.1724664931053922 -0.0270952806318078
  0.9524957825933514  0.4380946392053417  0.3195513871600204
  0.5624554949996383  0.7329559782707131  0.0595369465963725
  1.0314863909179057  0.1744002699839387  0.8376489290918702
  0.1456573553690588  0.1397740553316172  0.7155762189494307
  0.9891958815726996  0.5756546035199162  0.3711228583630397
  0.2179213569868614  0.1614985281929601  0.4177744025287190
  0.4097250680475135  0.3308620568553396  0.4301802634573354
  0.1740907458731405  0.3691343158411016  0.0704547121922882
  0.2635830072488023  0.6329706244450238  0.0100386499637247
  0.8949784916491169  0.6617429669473240  0.1441444439151884
  0.7115297477907682  0.0531395239029418  0.4163290483881808
  0.5133143783490229  0.4510248421125046  0.5500271954817364
  0.6519719748275188  0.8246122152998014  0.0867116058502658
  0.2292973959958501  0.7508178131584291  0.6225346863722797
  0.3596849154762070  0.8105194666105524  0.1616850932234392
  0.5728461972337235  0.3230726631544542  0.5468272580000856
  0.5736243090237158  0.6823608175743323  0.4798685576836256
  0.5600702658746721 -0.0046759060307303  0.4881266368730438
  0.5576818214241267  0.3086263626817080  0.0053003462767946
  0.3570027561566549  0.3342575850693816  0.5149659022174211
  0.6019372233586934  0.5649736927483273  0.9267025397766236
  0.4862690387149363  0.3113789710356609  0.5525870812686771
  0.9843988287993150  0.3652607200586331  0.3867990099728310
  0.6396539172883224  0.9892864401163411  0.4641854650299298
  0.4900757428086456  0.2675916182737665  0.5398783502865089
  0.9777842609403232  0.5897026661436607  0.5581373267726494
  0.5708402021375929  0.3487476619562660  0.0155515886760606
  0.6658048845846700  0.4792696711915430  0.4662776086880551
  0.9340202827084472  0.4403838596650669  0.4722842457883384
  0.2690406475126286  0.1527520089452522  0.9813192335843171
  1.1268896813368623  0.8456503528487460  0.5155249596590264
  0.1148617333523108  0.5427720341863616  0.4438142571816920
  0.6403317895471125  1.0264903822403171  0.3760641846695745
  0.4584210840648010  0.9717207619792403  0.4999782571784621
  0.9598511868346818  0.2838458710822891  0.4925533258535258
  0.3316885780605288  0.4255423369692602  0.5431030114905741
  0.7786017877608842  0.7921808890562437  0.5199108007787188
  0.7363339473064815  0.5894522155345197  0.5490002427938494
  0.2349270471749275  0.4097534933691031  0.0845627708675491
  0.2358416147879881  0.5017409281452345  0.4340533800672684
 -0.0328443442954205  0.0379132962070849  0.4560558350138096
  0.1069088158409366  0.9079841330341992  0.1526186638445292
  0.4735267098072240  0.1043763538661980  0.4163359134943920
  0.1029214315418918  0.1614812698821414  0.6193044951647786
  0.3194910117061079  0.0411772753666792  0.1387242618571160
  0.2911517096287362  0.6367400930230886  0.1976381194761338
  1.0078751904708352  0.7746676152861173  0.9650408519291239
 -0.0052351444602978  0.5051573384061055  0.4981388897736864
  0.0972531785438558  0.7874789863314832  0.4666251191917951
  0.2972966200187580  0.5448785730433009  0.0422823871392841
  0.9866413249606150  0.4026613427307357  0.4141480798594867
  0.2099223058522187  0.8840040076087018  0.0235057380504244
  0.8655247391409401  0.0906279897106694  0.9578501385214139
  0.3223123016352154  0.0112626523468758  0.5121366826154948
  0.1421044467240691  0.0303931273742255  0.4494763671845068
  0.2264666076788530  0.6495261482956010  0.9154101674783007
  0.1720363847447202  0.7089547415443883  0.5636283007457057
  0.7495367644177712  0.4883807800901254  0.5151615363348390
  0.3762622797088739  1.0158113739545809  0.4380345448995849
  0.0565019235062766  0.8979296045353596  0.0234641268680536
  0.6676639441160178  0.3022154320557738  0.9786787931968196
 -0.0188271969143674  0.5524168176456882  0.8181125215908498
  0.7978988165627547  0.9802554191025844  0.4664366998477720
  1.0283723430588061  0.1807790463276285  0.4276512030893446
  0.3718954766015777  0.6790415676088538  0.2215807621219373
  0.8661121994397202  0.4052280134598251  0.5281564485143468
  0.0961330786498616  0.6367818266521998  0.3904834161021034
  0.8208915120086119  0.8561977715539575  0.9676238698866578
  0.8707368522031320  0.4385190682048668 -0.0024056451652450
  0.6714102245238593  0.8913642039020956  0.1312564670098349
  0.0176382984967025  0.1282653057032111  0.5693081311919800
  0.8416402150920291  0.4987311474214511  0.5457025709797280
  0.6352537717465703  0.9734218273087540  0.3191510104512126
  0.7792799665909720  0.8823392418971430  0.4150528510492286
  0.2832030429511355  0.4808592513422675  0.1286215462599208
  0.5882272756121073  0.5015581090142665  0.4372381688081830
  0.7690207547171952  0.9026991959480571  0.0503212245420732
  0.5869376603511850  0.3685180284887812  0.4689513685436178
  0.6895291169664572  0.3194837111617387  0.0472444866397618
  0.8990970764155320  0.9168334645753576  0.4634190691695715
  0.1298944475882820  0.6552033848600778  0.0253320106640089
  0.8475287321691951  0.3230170560237913  0.4064285209359135
  0.5709151009987622  0.9696954162653211  0.3897043163566949
  0.3674268012805971  0.2410721614677829  0.4401333175943403
  0.9044623492528078  0.6441595126618038 -0.0221715666276239
  0.6304828416523897  0.2142768971146635 -0.0035055040560731
  0.7231319598293271  0.0138194232420278  0.4332310079030694
  0.0035129317521658  0.1506035940030676  0.5326250687447270
  0.8718540197551513  0.2795057236650216  0.9385678770565652
  0.2967969735469042  0.0787360261579468  0.1476409679248633
  0.5331835845677513  0.3011079767882067  0.9337707303343666
  0.1145745937959095  0.1536643583154002  0.5147295864133168
  0.5175540321797002  0.7442388813153203  0.4970371819206933
  1.0544024428801826  0.5755114449265215  0.4818340286910810
  0.7120352031584233  0.8827212754477201  0.5647024967914680
  0.2968477286488451  0.6968960445645709  0.4360112808838196
  0.8950829894217560  0.1137692533016538  0.0488090729874894
  0.6455894198279775  0.2784343286799567  0.5753195935079520
  0.3098010801882731  0.9323719506946585  0.4613581712037185
  0.9955037726851848  0.5583593615090330  0.0103560345905233
  0.0811908909107499  0.1721038818065394  0.4904644856804585
  0.6279121839152599  0.9209429081421179  0.6618764516814062
  0.0260787202755456  0.3814177311953293  0.3980622161928372
  0.9079698279796253  0.8164727499653391  0.3269913082050017
  0.9849641097529769  0.8382612795833640  0.4764470165253624
 -0.0028697794419694  0.1994055820370180  0.8492472016965436
  0.5842381436442841  0.9020858225350179  0.4782295483188186
  0.1472152231264800  0.9600247067312931  0.4710929729918224
  0.6275427445415835  0.4947255811169179  0.9459370424578706
  0.0152503637449934  0.3015405960314010  0.4245883417866261
  0.4574542016927992  0.9458637316185515  0.0663191602276930
  1.0103959125928950  0.6368495958671870  0.4179546144263976
  0.3736735551388928  0.6299220038779806  0.1626331526934763
  0.9960315285109439  0.6320794405408338  0.4887233176181601
  0.1127947807442165  0.1185696490430003  0.3292964472017211
  0.1167266509705764  0.1942667704646961  0.5892010703284773
  0.8057294040023291  0.9026228725774957  0.3841374766465501
  0.5884402715708081  0.3168040507777670  0.6529683498454227
  0.7950323536821221  0.9980946960513105  0.0458177498727911
  0.3323505851297185  0.6311544005531533  1.0400289866685104
  0.7003396183739419  0.3118285240594014  0.4805013220140861
  0.5205327651853412  0.2014671425620903  0.4888924294909259
  0.9047196119805822  0.4171424318866546  0.4006525533358735
  0.1673610885626179  0.6178197428965675  0.4454087312824224
  0.4979264555180057  0.6500709833549356  0.4729402077677783
  0.8480241990934709  0.8574883639188278  0.0418242231935019
  0.9742220502240108  0.3991159423539951  0.3139992910644305
  0.5749654298169662  0.0434573115189858  0.4232597776033635
  0.9906706167846001  0.1856713464096468  0.6245252538024982
  0.7730537975009605  0.5894781579685127 -0.0198276635493674
  0.0359828320259783  0.6729153170794941  0.5698301463782762
  0.0298264305798959  0.6760260992156916  0.0476376376012925
  0.6309086088301920  0.1735409046447074  0.4957700268523584
  0.8784203156905822  0.8910407026907157  0.0485228791414172
  0.8490501255904208  0.0004321932975777  0.5640792947175720
  0.3029331029663844  0.1582742076218027  0.0703618624499641
  1.0360289478318239  0.0909219638329863  0.4652179452613578
  0.5917197776418948  0.9447747172375714  0.6708139986159372
  0.5783853273805538  0.7059399275597452  0.0907390848179124
  0.3419356268179828  0.1564691937303476 -0.0093634444722914
  0.9017933649446647  0.5941820548518801  0.4923066314506234
  0.1996625752669776  0.6405792733463797  0.4229880642828300
  0.5145512309685226  0.3716310217064416  0.5030719236585164
  0.5349233063676905  0.0713844659280739  0.5515060255089559
  0.4752067727051714  0.7672004808295086  0.0263525118968707
  0.6355965964392214  0.0477654448880437  0.5242334938884555
  0.3506202713583561  0.4417422830958697  0.2539922031792701
  1.0756111334626282  0.1795999618302377  0.5884019110814287
 -0.0556372491891249  0.2656891692578395  0.4043571295898767
  0.8739602310669763  0.7001208914158457  0.1516058085674669
  0.6232104527878851  0.8378653304662143  0.5219237676174622
  0.3207693083944609  0.1167164081431147  0.0636421875351661
  0.2720643828793703  0.0662813188184798  0.4435789430627868
  0.6081201717765502  0.8954124590555004  0.5721400269021997
  0.7054394820656829  0.4865554571711637  0.9739137778794732
  0.7228674161835031  0.8047916645678296  0.1146760481125470
  0.2583714696718838  0.6991023862669294  0.0622355326928892
  0.7999013652191705  0.9173985241469491  0.0200290408598886
  0.8286734727743688  0.0220753617675568  0.7757897965901661
  0.8694920319670433 -0.0248637627771997  0.6646710321571936
  0.0164898210159456  0.6303639650732599  0.6492213614243432
  0.7432303959736426  0.0725524930714921  0.4948292941207054
  0.6237997811962542  0.8091466873573483  0.0117521838480581
  0.5316676707420107  0.9833826168524209  0.6881416752359687
  0.2022358013590524  0.1010268123708188 -0.0023589881274028
  0.8380944281103251  0.1230135148088298  0.3017751418696747
  0.2331988536761658  0.7284647440923964  0.5072725287562280
  0.2597322674232471  0.6527237226502638  0.5343645951052459
  0.1883840136006806  0.6541203147498450  0.5171353297035864
  0.9921137522192440  0.0602370867954078  0.5372326329403011
  0.4643386414153294  0.7089950891516832  0.5546684602450178
  1.0076039953247711  0.4277805758654405  0.4987795249938743
  0.7607827029192236  0.3909713855536969  0.5194719513554233
 -0.0008550818908293  0.4793289376932015  0.6950946288505772
  0.8789571108053217  0.7935099205508959  0.3508848187669885
  0.3212953296261796 -0.0234963285792054  0.7816928676155122
  1.1018668982669091 -0.0180944354396581  0.1913220358234995
  0.5241582936457699  0.9449058445941211  0.5337729738990425
  0.9207169101909427  0.6959546263193012  0.5071010869414539
  0.8762533495465193  0.9270708383775614  0.5950804392603027
  1.0069933492113914  0.5417345423878478  0.9042222253403686
  0.9816795317028861  0.7753577486530087  0.0459981613856617
  0.4916860347845981  0.6902012526374164  0.0427207198709917
  0.1073813428943373  0.8283489599685443  0.0754994119090934
  0.7292750591812875  0.8911957783078072  0.4776565391769579
  0.7052535603942991  0.3987286728798829  0.5122809786487104
  0.3352735982683591  0.7249639240608255  0.0279272861493905
  0.6370888008776894  0.1767796204229165  0.0646543995551526
  0.3508585168966429  0.7084460370147848  0.5669271458166850
  0.2278919041565863  0.5626919863853459  0.0905735656919615
  0.3119752608159571  0.7023742404620335  0.8135334561838650
  0.9062297352800406  0.5805286005831882  0.3979940547260327
  0.9283481521721327  0.5503687238582086  0.8739007686360512
  0.3700735555908324  0.5220560949597786  0.0692998189695367
  0.1993103652813085  0.2883121963681122  0.4611798541682679
  0.0354093310886194  0.5990909734604454  0.7721892525008116
  0.6300230428324226  0.2503226444690501  0.6078287916368629
  0.0683151360891939  1.0207093779971859  0.5855026098413600
  0.1098707127943698  0.1638995199933959  0.7255271040668778
  0.9382485660199915  0.0446493529297384  0.6128639633163260
  0.2958996600344358  0.7568689200886249  0.8680612112143374
  0.9542278462593919  0.2804972242783647  0.9658394507370420
  0.3228930685471046  0.4204873170179993  0.2815734474750919
  0.5483161924815659  0.7644307181971776  0.5240876337992262
  0.1079773649146209  0.9868149641210444  0.3206534616687962
  0.5820598165076430  0.5802052742882983  0.0339267075737273
  0.3131370030535678  0.6861084695723105  0.2184926732925762
  0.8137117839510238  0.0637562793009605  0.4146324575805489
  0.5669979212589239  0.3889831057230059  0.5177901557124913
  0.5893300928089998  0.2706955081562358  0.5770331240777367
  0.5648795315982643  0.3186775844556509  0.6045979607108795
  0.4960806408092752  0.1667975857121670  0.5711914581702386
  0.4745143434579315  0.3757873385992940  0.5856023447799743
  0.9196349423594858  0.5858556363213369  0.7583146982053804
  0.5013224935721329  0.4750565993504597  0.2506002547855279
  0.5026255124402891  0.0487140473384508  0.5134352464492199
  0.0312091374581442  0.4578388920988413  0.0381771288618268
  0.3010849769861484  0.6610280724281852  0.3468392366827348
  0.4492011595020242  0.5383596668287318  0.3257494046372701
  0.7285458701723543  0.0828100004067099  0.9397611735354376
  0.2138302994572607  0.8491371613750283  0.2630671291967851
  0.5470026108623546  0.3553763252858981  0.6673410726583651
  0.6068745326077659  0.3512213663576894  0.6900927445901502
  0.3224661780687142  0.8916280367230058  0.3469106653516661
  0.6582697265464981  0.5355729928693633  0.7964104560978128
  0.6327615535164747  0.4437047974732665  0.7424526337206798
  0.6830404955767216  0.4508855571345047  0.7018811592121402
  0.5906002074169269 -0.0096364076608685  0.9117930703666780
  0.9700467498705903  0.0653221992891120  0.3456832170642709
  0.5984573113201155  0.1089560847924291  0.8342495276265678
  0.4158354192881488  0.9660007304619898  0.5346048866581563
  0.4285872031159070  0.8712029813736473  0.4430403204938291
  0.8570667014321850  0.7570135021097714  0.9547257264131664
  0.8009418395538493  0.7637466749200121  0.9323348785011122
  0.5225469451568341  0.7650899789648046  0.4453328872565012
  0.5703474773538223  0.7413169755493305  0.4754275291008840
  0.6448439206367447  0.4605635695601980  0.9060701382099414
  0.7045379330042528  0.4227679386590214  0.8236907043037528
  0.5937684874852166  0.4238967023257028  0.8434130485231869
  0.6759168562937138  0.3588956247941555  0.8806048682341667
  0.5370892216160886  0.1475871441299493  0.9159291059183583
  0.4877524320328143  0.1113138767819558  0.8524596185905114
  0.3569945109423428  0.2008178763697350  0.9557258389706884
  0.1405896346256015  0.5689309340167529  0.1008115183259731
  0.6899238435523726  0.2851796236278913  0.7237845285303135
  0.7379159558227448  0.3217989141153061  0.7926555242546187
  0.7928505174225770  0.2150077045029237  0.4952252228618246
  0.8573133759440261  0.5922596795481131  0.7419958584293350
  0.9501103661876821  0.7244887967343187  0.5486599903911109
  0.7844900059470562  0.2379866187443140  0.9272242967486617
  0.6060044213839212  0.5716671665022663  0.3725926357643836
  0.3700154880346929  0.8497142573532805  0.2070038700796986
  0.5651550253549574  0.2098419431813088  0.8589783535673891
  0.7412450749746581  0.2309306739591347  0.3005064812346949
  0.7907695840649822  0.1546089664669137  0.2819097910212610
  0.6536056463597084  0.2363081748872502  0.7194136909097704
  0.5424421425933795  0.2364452553491505  0.7386537309479089
  0.3335156451790893  0.4111647342070466  0.9757781648430974
  0.5541050060031993  0.1925793440560845  0.6950511930292685
  0.5936920106100486  0.2107101828289776  0.5946410738715084
  0.5677754302429909  0.1497836835987788  0.6513213232752171
  0.3147022741921425  0.5156799654379044  0.0903465937960830
  0.5166125708435212  0.1112889589740331  0.5878178454494271
  0.5016981557507350  0.1153139617286618  0.5237049325954914
  0.4514004710161006  0.0729511410597345  0.5089259552127521
  0.4246326328914298  0.2177609728439658  0.0285847890266705
  0.5827189622190923  0.2501262760348828  0.0749269034994932
  0.7998817246482445  0.2344222476783568  0.9852844645509530
  0.9012187193461880  0.8833627553333356  0.6200909347806757
  0.5938816884899863 -0.0197723876397325  0.7126071881536100
  0.8901894904029349  0.7733378326247310  0.6317649245550946
  0.9166819770805401  0.8387587739806509  0.5741608673482728
  0.0335202567094031  0.9528915601143720  0.1307409234313333
  0.4679395955867901  0.1062825722438256  0.6258461752207785
  0.5999566335149409  0.5153625325708908  0.6671681738040822
  0.4132118032261655  0.0751589138314211  0.1198046145300248
  0.6514534354625569  0.2660480644595541  0.8240014908525596
  0.3890109633922351  0.0686203240992713  0.8252899856616445
  0.9270507145850191  0.9719607075607076  0.6477408713951930
  0.4692848850131832  0.0048354052490461  0.8657345724026650
  0.8720850455640384  0.9786084807340860  0.6096324775638430
  0.9919829090390141  0.8261699716507431  0.7957689308973322
  0.8304078953163457  0.9629784954493439  0.7563061514693834
  0.0370048560105448  0.9068866271835989  0.0804738445267520
  0.4830838767060757  0.0629153307777672  0.5724049188519855
  0.1523739136179800  0.7958665792195209  0.0851854582184597
  0.8493832274177087  0.3839074251528443  0.9957028343657385
  0.1478495947986154  0.7535758915643745  0.0372793768547751
  0.4183501317454050  0.7537558445483098  0.2438494670919318
  0.2383502137941766  0.6185378649796929  0.0671630264594926
  0.5048297411784970  0.1874045353781847  0.7339906316673692
  0.2722714675872442  0.5698936214548516 -0.0160253244475976
  0.4738554568122847  0.8139038191212841  0.3613583990853056
  0.4174230266761009  0.7503237213349758  0.4688171496823590
  0.6964130302936785  0.3230122824971863  0.2574723426483591
  0.8440560429744151  0.8853530941584472  0.5934720376199830
  0.8338556048446054  0.9425242990466339  0.5632608169448917
  0.8105038864350833  0.9404250148568689  0.4987726491511962
  0.5989054635348274  0.4633297546168985  0.3484201312659482
  0.6476254630827586  0.3852637145066181  0.3318495898077398
  0.4381414086383614  0.1058336458787886  0.8915639923748665
  0.3595630196543619  0.0060308113887926  0.8845117167397688
  0.1861682473764144  0.0472294856573460 -0.0109799098848222
  0.4780037497253624  0.1236425585759732  0.7910472813695143
  0.8919792243740619  0.1819567581707970  0.4215602929364470
  0.0402205586983007  0.6815502955073099  0.7223243894499398
  0.5534701864991356  0.2551102614561377  0.9043566205549998
  0.6818807698778510  0.6285988180069744  0.8506052186819988
  0.5283641117639993  0.1937606527200002  0.9580692009341715
  0.2745619988758605  0.7191117860840951  0.0171101965654332
  0.5132123995357012  0.6591967566847041  0.4189462402593936
  0.5454074241822656  0.4194134227049107  0.8804073033083707
  0.2232465445882102  0.9846826206229696  0.4051874588885083
  0.6053022245063232  0.4098871809821805  0.9032147377479024
  0.3688804522361072  0.8141132368951750  0.3255307245021932
  0.7723197001672257  0.6552538773041621  0.7126005053212967
  0.3762471635237294  0.8997563644954545  0.4206961796674588
  0.6263375036706238  0.2966121835154591  0.6970021897211027
  0.5636440385011223  0.3437364160378874  0.9595360916212319
  0.8156065707602960  0.1069590463721093  0.4586836319680591
  0.6118961011195684  0.3236653950934713  0.9818655442673415
  0.2743709290280342  0.8903513641233706  0.4431537287855038
  0.3305683742478972  0.0915189564300672  0.4690695783527566
  0.9369461211536020  0.0294457225623688  0.2474211488815489
  0.4289738102840320  0.0886447495780455  0.7227571202070904
  0.4264973131971528  0.1188402582365843  0.8293967193103148
  0.8877823891323011  0.1068953976305934  0.2687520730801904
  0.7546854935924471  0.4580297364069997  0.8918116191092044
  0.1668535641508676  0.5609209449599155  0.4543840590669241
  0.4833386754959088 -0.0187514055274241  0.3792850809039226
  0.0731628583007254  0.4611667481206667  0.3905498421232623
  0.1839589377886628  0.5208924383840409  0.4168403981933368
  0.5257680168539517  0.1659869750440032  0.2472905821513583
  0.1329499598059545  0.4921314306618115  0.4603491372399968
  0.2254378955218599  0.3520409846381068  0.3128183753042916
  0.0355461714808523  0.5542343526206104  0.1243708836588548
  0.2696126338845762  0.2751952733760653  0.2978347161860877
  0.2592079121904947  0.0465368197580697  0.0717882792361082
  0.2122949504613018  0.2297846762452902  0.3506309242463138
  0.0116327866802182  0.3726250986796816  0.0047580428706292
  0.3096124979123636  0.1354518123361591  0.2921848844464081
 -0.0044996035739274  0.2984508095499501  0.0294203757939860
  0.1410467941192580  0.5222999600673763  0.0576187547232094
  0.0541751425522905  0.1964110248835419  0.0759140987118723
  0.3838881036148888  0.0015364008768622  0.2848775756248411
  0.3693889844716894  0.2155749918479501  0.1205687999743870
  0.5471091370464514  0.4465421128880692  0.2775317744678831
  0.2050429127643807  0.1235439540318138  0.0933282827863037
  0.6342634822027108  0.4149285046663346  0.6382174294888314
  0.4384846957339974  0.1312932436087138  0.5053992448152457
  0.4011992863312324  0.5361091127207774  0.1973498502666934
  0.4100156014476930  0.6431304615382660  0.2120564140949746
  0.5506080241826788  0.4123975688331363  0.1751259494536388
  0.1564068445773000  0.2170294498163691  0.0497592390685569
  0.8386649257950958  0.9309785398159574  0.6368022802964501
  0.7392067771220279  0.2012444032351112  0.1951152569423256
  0.4458008622048192  0.1635697939769066  0.6091962592311159
  0.4174300319429095  0.2507392353261486  0.4693002046104350
  0.7097916579295698  0.6937652412418591  0.7976404725412047
  0.5517850610224448  0.6343324577422041  0.4598455175540745
  0.7548676000126578  0.7290072830120324  0.8656431964268433
  0.6250543687595826  0.6083945145660982  0.7181774489091086
  0.7543502762626886  0.4348096516534475  0.4114588351052062
  0.5732043719587905  0.5430292032273294  0.5422622321877386
  0.8148541184011522  0.9841038977801205  0.6417203158225001
  0.5567140079041667  0.6014968435624299  0.5237610281911728
  0.8082530502731543  0.4683343771038638  0.4193330298327391
  0.7251653394708684  0.6649199453597262  0.9199020895462058
  0.7856301089026446  0.3606839799111927  0.4771089419243942
  0.9188560658777151  0.2847503921403323  0.4523534658810789
  0.7809230002654561  0.3344242543594153  0.5273759228390676
  0.7825040952634503  0.6421461440721441  0.7742977013567722
  0.6356518259552767  0.5925303659352054  0.7810394468308002
  0.0219627293984971  0.3986763257502497  0.0543470147640828
  0.7746035435567188  0.9754569188149631  0.0990576582752811
  0.4668321656923693  0.1364854521098096  0.7293627535841035
  1.0219808819992073  0.0764173657247468  0.4123728622122632
  0.5262031652141655  0.1608299848983521  0.8553075441116242
  0.8544808913731389  0.8725176122159616  0.6589419926606342
  0.4458355675063652  0.3064555276263453  0.4689274664338440
  0.6272596832073233  0.1716352144470598  0.7758242280346073
  0.4666763876815150  0.7216091295730036  0.2674530912354940
  0.5557332031575928  0.5546663862340511  0.3006063498325994
  0.4554510381105011  0.1478718539348325  0.6676858017616463
  0.3821863012359278  0.0514992897604949  0.6589084078707390
  0.3949817466256662  0.1243270679893618  0.5451968492883982
  0.3326818050565332  0.9829208298988101  0.4461286183905184
  0.6625097299858231  0.4047606269744097  0.9257142896624874
  0.5878679737711177  0.3035711434324391  0.9107913992464021
  0.6283183673701529  0.3220864159477793  0.8103967678244296
  0.6929390272133152  0.2785874101709335  0.2153357520720621
  0.4588839847114712  0.3012047512876225  0.7009979033745044
  0.4017599662654184  0.5111084875226422  0.9780057493867788
  0.5926559518013949  0.2734497939217768  0.8048864319448977
  0.2127182259973131  0.8660719871464344  0.2028497627585374
  0.5725756787721153  0.4518279176900417  0.7215461147613219
  0.8317199469454006  0.0326485352404972  0.2124226219065903
  0.6613435028254601  0.6555662383843091  0.7287873962407944
  0.5912616184859630  0.6784676303541891  0.6453097267362908
  0.5508305395930002  0.5718633480352222  0.4720704264272670
  0.5970339055742834  0.6502009733380790  0.5212069850946748
  0.6271511031324251  0.5797919581566966  0.6095797111476945
  0.5973340878626459  0.3854645664259598  0.2027442840037523
  0.8476950164820320  0.2758490973855182  0.3770926427720117
  0.3081853341324338  0.0243001712870032  0.0359631455471460
  0.6815873965798864  0.4803976884731043  0.8092751336429848
  0.4937280257641440  0.8665338496393312  0.0293472747954474
  0.3591184401289773  0.7599232984844091  0.0632335261523545
  0.5747250545646688  0.8900707082814210  0.6623839305662549
  0.7578242388156862  0.5438459879369700  0.4344355156937286
  0.2142791042393229  0.2086401847559937  0.6867361303790577
  0.1888420371124340  0.0144465070276206  0.8782473189555190
  0.8942783823927218  0.3398520717814900  0.4348663760857976
  0.9046882859523014  0.3228323039309733  0.3273242411308044
  0.4623843385869684  0.4222623022478090  0.6332047297499093
  0.6781064717512461  0.7639805762576859  0.7214017076176161
  0.6153571629529736  0.7718972220867401  0.6975669547058252
  0.6691194967035068  0.5230585473873895  0.8611727564000697
  0.3613834948396366  0.2591565893684543  0.6736236854965485
  0.4429712897703182  0.5369931283220347  0.0475612090173512
  0.3027835942344828  0.7706604219394225  0.0312008097795050
  0.7251129925073114  0.5939535884052368  1.0624879251308270
  0.5975326616476537  0.3643321763145520  0.6294746272002403
  0.4717377983519878  0.1656719704329263  0.3423812349866263
  0.6100279118364782  0.5003411761953369  0.7275097411661977
  0.5374455099473355  0.5510669335121039  0.7510520038357869
  0.3407327739206561  0.6748575783237425  0.0030102085804162
  0.5077430074914956  0.7433357862077508  0.6096998858699241
  0.4575844346054664  0.7675651303189880  0.0824512107576184
  0.4148115050801183  0.8114504494009996  0.5129309470292528
 -0.0380858772425683  0.3166730589834748  0.4099278134219816
  0.2072850981076290  0.1204542756742123  0.8656582167106784
  0.2668154169018357  0.1133356227686093  0.8867731760615952
  0.2544325451394566  0.1571268694953873  0.9277802491115452
  0.7459375764046826  0.7421687141570781  0.8054081599790993
  0.1800209585679747  0.0270937018574343  0.8167368519431593
  0.3964460838061705  0.3719321750881044  0.8910466606389501
  0.8086714419003880  0.4812442393141245  0.3588158020599156
  0.7607094258660276  0.5105410090884481  0.3317216828525695
  0.5592570613574078  0.4929453321342556  0.0355052989198057
  0.6273924323357208  0.8925227084847067  0.5192418519262234
  0.6005251417845106  0.9540263300570976  0.4827100921920850
  1.0013809198273693  0.3160227585096658  0.4795662009053253
  0.9438204651653173  0.3369658339297067  0.4708956508787054
  0.8147027076704636  0.4526581182015880  0.4744409858930805
  0.6167558824474556  0.9261044004817082  0.7188217907424803
  0.9686214913559963  0.3970644803340894  0.4708071766534185
  0.8104530008741531  0.6251259706626494  0.5053310565219377
  0.7386973544095539  0.9063450231360852  0.7738309990317818
  0.6653073280672283  0.9581880491944841  0.7933834499049377
  0.6756527285435662  0.9451115446078817  0.8558828862782760
  0.8570956728764627  0.4026345647636545  0.3419525007050359
  0.5453314344066853  0.7928490957274946  0.6157362501089613
  0.1182320670256573  0.1622528732449495  0.6710636694168874
  0.3873272358451345  0.1402673432613500  0.4802595912814541
  0.2133324677210019  0.2321674075510499  0.1198440577219556
  0.1928823806038660  0.9414561082523150  0.1405898823229799
  0.2663654679274738  0.1832162924772352  0.5429482995027046
  0.2467680704111853  0.0066573363654007  0.6383764507603826
  0.7302806682048153  0.1262443904174738  0.0434757549616053
  0.3475381588594251  0.1193651881012822  0.5813172353273997
  0.3458079035963039  0.1510402760197488  0.6862489226350914
  0.3945527583033565  0.1890682321107801  0.7506004570584960
  0.3223001693314301  0.2400331241844954  0.7736872981426316
  0.6856627562323385  0.2356197521860023  0.0019828820263006
  0.4314652674581670  0.2708028858807072  0.8608114019019448
  0.6094068354253207  0.4583500450212384  0.1208486208320984
  0.5139873978250687  0.3567851917318213  0.9353409672422648
  0.5063735257692872  0.4539390769371594  0.0856280628976717
  0.1335648804524184  0.1009454689083497  0.5155664122332273
  0.4254565032583921  0.8037183743320622  0.5684742344136851
  0.6719221487690015  0.6926642326408228  0.4597963217744548
  0.8489125542646231  0.6449503875565009  0.9720144877306354
  0.6536303280958083  0.9516333006499740  0.5039712936132713
  0.3561110828897894  0.5727650907891233  0.1753207776093027
  0.3517552283237993  0.6237934351498433  0.2111254939973497
  0.4297233030370413  0.9242262158142914  0.4915082472570287
  0.3770040642194240  0.0785050811509751  0.4339006379911343
  0.2462875812208264  0.9289143056641898  0.0462137111047269
  0.1879962372766297  0.8302041030903895  0.0371037407163726