B  Cr Ni
 1.0000000000000000
    39.0487268126086491    0.0000000000000000    0.0000000000000000
     0.0000000000000000   39.0487268126086491    0.0000000000000000
     0.0000000000000000    0.0000000000000000   39.0487268126086491
 B   Cr  Ni 
 213 1596 3725
Direct
  0.4110669147882793  0.8486389429276464  0.4920004250367848
  0.5514221856102850  0.8143190138911244  0.0823564581852783
  0.1663061007249830  0.6283060016403437  0.5078365883242426
  0.6331256049812803  0.1754530081726746  0.4936025118052533
  0.6017681039737776  0.5636256009524415  0.9272605336082144
  0.0832081929774221  0.2004724528280460  0.4099619406023456
  0.6273607183175784  0.2477770925242685  0.6076868510534702
 -0.0311017813789803  0.5577964792967768  0.7543321882336104
  0.5969609680600836  0.7363912611111727  0.3385118398356307
  0.6283627655985307  0.9209490889560382  0.6600783955473458
  0.9169556091550345  0.9064400733578464 -0.0592248679482863
  0.0007960255191977  0.1997498226578892  0.8510176032854114
  0.3820881369205780  0.4566339783065807  0.1195829050923473
  0.3195892428862366  0.4161195441825104  0.2788772187165965
  1.0679764719268663  0.1797259381224400  0.5830053971730478
  0.9462156416851839  0.2639876726984496  0.4125398159796844
  0.8715430100855174  0.6990221372572311  0.1517473121147414
  1.0553674264744730  0.9840779738563431  0.0389489548719794
  0.6591350918013587  0.4900220604529119  0.5296205669271217
  0.5144817039590381  0.6281627257570809  0.1655443786689835
  0.5133524025003706  0.3750622344980215  0.5010211588002127
  0.5358657127768444  0.0734759134136513  0.5495211178449891
  0.4782729035087081  0.7620786541252783  0.0250022688036002
  0.6400771498253908 -0.0069713550018156  0.4602701895380817
  0.5759023664905720  1.0521132141487641  0.4159889901521588
  0.3147862222256835  0.7035083200215584  0.0249442728082347
  0.6480835470429399  0.3583157528712301  0.9596613433883932
  0.6246286123462212  0.4900310340636983  0.9383735287222624
  1.0147480599494689  0.1120612360210044  0.4583994102388115
  0.4227210465231388  0.8396843882033899  0.0484306216865896
  0.8704545149263473  0.8718958753440811  0.1326122522271928
  0.3757291321536143  0.6308647624101754  0.1679415532627820
  0.4423700743948586  0.8457616240307920  0.1946940304232963
  0.1155788770558334  0.1164414259130536  0.3273419788210590
  0.9918930399166789  0.1835302655807633  0.6308476857308482
  0.6355718755873968  0.9765115365951447  0.3203367149387223
  0.0608743657908483  0.6231767295895381  0.5200387252385676
  0.8686259400625724  0.2067283595675154  0.2645982297165193
  0.1716753522553185  0.5946054027235000  0.1177229193381999
  0.5297357966730123  0.0524388720641978  0.2703129088622931
  0.8102978966294857  0.8514757833062028 -0.0370390956348233
  0.8822790335591073  0.2910868593524754  0.4623923097214800
  0.1138156214336139  0.0252740549202664  0.3681723944189747
  0.5010123186993283  0.6545192811781988  0.4721321227279936
  0.3467529980663285  0.4412295289819024  0.2540670126769500
  0.2962965339766957  0.7315587462702703  0.1195916984308184
  0.3016654714383928  0.7465477369294345  0.9291433168319108
  0.0047215584896204  0.8114550539514800  0.4798480922410582
  0.4506506938027722  0.5132657765894783  0.1775197242436935
  0.8472495776506489  0.4475465542510388  0.3699827436885728
  0.7335246578023000  0.8917034310537211  0.4716251029031728
  0.3261929834624687  0.6895949155284795  0.8671703604626474
  0.9274710961231240  0.5501511718158827  0.8756173228921181
  0.3036355591149614  0.0012873672926119  0.6733857634303727
  0.1057334394992186  0.0213399100519752  0.2396713790425227
  0.3374769586959686  0.6283059977874476  1.0419656310396050
  0.5206380082115202  0.1971064165216868  0.4781786010232575
  0.6353509471793910  0.3684969790729584  0.5413794480964688
  0.2901070127138415  0.6835406396938803  0.4441214781593216
  0.7256585842829063  0.4088761418861048  0.5118877469598505
  0.3179688975478852  0.1113333943385554  0.0586606573215014
  0.5887811046512011  0.1171310294904805  0.9780667158620078
  0.9665163902789421  0.4267110295507103  0.3114291013435626
  0.6289793956184292  0.5967891085570675  0.3478115208469599
  0.8504026414622352  0.8564047344001243  0.0351522593351148
  0.9030695641385905  0.5196185551628851  0.4905975081112221
  0.3238222097056337  0.1882110130186989  0.5172309753681220
  0.8784234068901399  0.8914375807404081  0.0446635734561100
  0.7758663491306986  0.5572156107748245  0.5190672326628810
  0.0201176682406802  0.6493238832311777  0.4304556509066373
  0.0288473869337595  0.6125628061559474  0.7879107651727519
  0.2903558792111102  0.5890646787712899  0.0892841663942752
  0.9556482510275358  0.2806321154791970  0.9694947826082234
  0.6286767182953773  1.0418105956124744  0.5216192844915696
  0.9347454460270562  0.0457605887993853  0.5928204332359488
  0.2062867707513875  0.8778306575480754  0.0251589815850654
  1.0177572059935174  0.3021276999180478  0.4246509142244611
  0.2465984910332447  0.2881512851301000  0.4326224983355637
  0.5198451009518025  0.7144006189852671  0.5176651850654238
  0.5203898627841275  0.9529318292077875  0.5283183411254261
  0.8685423057232605  0.9797844714956604  0.6607996679241636
 -0.0212335413297607  0.5972714159533266  0.5698282374596318
  0.7971492358939247  0.9248746231883493  0.4955374380232593
  0.2473462654604968  0.0831291123379221  0.5758260371657091
  0.5928403503480000  0.9455209883646880  0.6727161380931138
  0.8486140198685348 -0.0033781165783567  0.8991245285929054
  0.8370443932265451  0.1217747563251607  0.3028923562037537
  0.2274862865575057  0.6459595859155676  0.4567263037753768
  0.4721175478977644  0.7081286729818684  0.5551957795902107
  0.0958860802437681  0.2930740392502341  0.4399373081121270
  1.0106609333969068  0.7753933867306726  0.9658767520750792
  0.5318409414417676  0.7533693747145266  0.4993976133046468
  1.0071333955458550  0.4334199203158279  0.4963031095982672
  0.5924378576832021  0.6548906316444828  0.1988303954275614
  0.0020509857846198  0.4808959719558206  0.6911307059482099
  0.9536565013402658  0.8257031704684159  0.3493126215695380
  0.8863392197922167  0.9301786098546725  0.5991554750384923
  0.9188918699689390  0.6888908467679499  0.4982241741350756
  0.6952493345204067  0.8230477635133046  0.0747127112071088
  0.2318251543481178  0.6518474148323419  0.1283151051432152
  0.8004867450672866  0.9090954799207731  0.0130230964581220
  0.7001890764151880  0.4861558811079346 -0.0236608471580566
  0.5328096690023761  0.9843734921073044  0.6934697874827364
  1.0059387359373666  0.5470766721381236  0.8300452848675011
  0.8296028686655795  0.0199730064232375  0.7739217994268955
  0.0531532484836267  0.1551285910459578  0.5465101991878338
  0.6597511151864555  0.5632442657799562 -0.0057680456170934
  0.3682506978926577  1.0064391544161646  0.6262232466567430
  0.4908384079489447  0.6840798930713263  0.0371823622194154
  0.1969324834715289  0.1529600681166257  0.5397259708034823
  0.0343617995004693  0.1737525668302683  0.8390746938204876
  0.0777559083962860  0.7204344334631818  0.4774236681687905
  0.1257558235096052  0.1503283320857962  0.7235802065007571
  0.6359589086964610  1.0304096984742019  0.3735376710636155
  0.9990636218096178  0.6793909548063051  0.4589742557309548
  0.2189195933363036  0.0651705402863625  0.5420712952693304
  0.1672060227083756  0.5286316267255853  0.0830400496761554
  0.4337892507544444  0.7956978320229895  0.1164271569901662
  0.6741565107275305  0.8895321140064087  0.1285102106714753
  0.2407048215874551  0.4064648874805487  0.0915037550870528
  0.8067967690112223  0.0605834736797968  0.5842251039066558
  0.9943292888944290  0.0742306347301580  0.5369888331331799
  0.7781367543850268  0.6478537366502223  0.5655057501642089
  0.4735689324551447  0.1055957571880038  0.4158688970757219
  0.0899603974329959  0.6293875089639688  0.3898102264283336
  0.5967133476205712  0.6811466946826435  0.2887047732234358
  0.3677287218438313  0.6814974079419499  0.2250271390094626
  0.2633251044287247  0.5046547250428220  0.0983314378671511
  0.1814750536669931  0.7103651569118038  0.5559838182402119
  0.3149232598362591  0.5454262582235383  0.1746104247638774
  0.3426242261479233  1.0281596686656691  0.4172628308824223
  0.0950081231987159  0.6915912931893614  0.4444083997997136
  0.2595544481363031  0.6260974722304929  0.9069665720921295
  0.3181512560333995  0.0948068927532044  0.5421806931159623
  0.6161178421706007  0.9444628581832361  0.5187355852141665
  0.2215984932314641  0.6475797279495544  0.9204767023693859
  0.9759016837168050  0.8065935230778620  0.5168684328405034
  0.8177628613820276  0.4018328881474527  0.4860653725177029
  0.5615563265309012  0.8496403896171102  0.5682415051474113
  0.9278665609218403 -0.0289001820698808  0.9908738607988959
  1.0075050472538549  0.5351529535771976  0.8978007235850445
  0.8879405628075230  0.8204905189873675  0.4943638374548218
  1.0183290592582246  0.2902771066448818 -0.0230100588143795
  0.8389949627357933  0.4930389216060512  0.5429857439192429
  0.4823389985949189  0.3120589174213633  0.5499945728160259
  0.3635527736963215  0.7731726372280319  0.0835288109988295
  1.0254022183338747  0.6220554679751431  0.7112248878289265
  0.5332971380887727  0.3944749942961100  0.5626548694792873
  0.7070856183394491  0.8153952412084015  0.0317804864638049
  0.1729899898208088  0.7591470498220593  0.6099949988883121
  0.3541319465864554  0.8162266633879034  0.1630203644812543
  0.5684412147089252  0.3179580629722578  0.5510479223727909
  0.6152499021677355  0.7533814986941292  0.5467111094209900
  0.3799003992302459  0.2250770609582529  0.4512297159926341
  0.1465673561512654  0.3442465562565676  0.0137452358931965
  0.2685641946713428  0.6329767602277687  0.0097767896213258
  0.8930073221591823  0.6606098682254098  0.1466338422739319
  0.7118384805939797  0.0558764847373405  0.4136364002251238
  0.9530928993379978  0.9386064726787392  0.3712591274556807
  0.4099387053713849  0.1052038520725613  0.6687892790063591
  0.0532819928951860  0.8999960690050423  0.0285358385823476
  0.3015944553250701  0.7635108900163690  0.4287231013555927
  0.1314725704628659  0.6398024201901544  0.0362921331947560
  0.8577361001423608  0.3115858298540098  0.4251301472945187
  0.5256097324898791  0.9405410668968425  0.4148390762182519
  0.3596117338654469  0.2667817279467041  0.4596595933784179
  0.8961105808145716  0.6387806992112726  0.9784007085858502
  0.6830013396437808  0.9341443283314035  0.0357954458946078
  0.7231677991075722  0.0147109011066547  0.4284604282916720
 -0.0009496017586348  0.1559595953951303  0.5379230533740692
  0.8729914783819828  0.2798548862037937  0.9397692260930091
  0.2189026361255231  0.0807439775735107  0.0502158098600830
  0.5335513062313659  0.2980877035776851 -0.0698524182483236
  0.1465700286653782  0.0263852490151087  0.4613193039040229
  0.3943299378411189  0.7187217040943443  0.5213381785777647
  1.0517322865062746  0.5591962526992337  0.4582918456963742
  0.6416642641356891  0.2781850808072438  0.5788100142462125
  0.8074264662733129  0.9041470425474127  0.4162857758343163
  0.2746516284273444  0.4733720430806982  0.1307538606143085
  0.0176870585165865  0.6933167408511559  0.8630721839287250
  0.7711430763036002  0.8890725462085413  0.0441631657553521
  0.5914014767758285  0.3694237989001147  0.4727545290793138
  0.3451028879319073  0.6748118698893386  0.9490125510735647
  0.5546249801463926  0.9653010170622843  0.3885504265684210
  0.7986301225452594  0.0497753225771642  0.4532659445432842
  0.1447801532718435  0.8655884894212756  0.6295088100914342
  0.6881891217440560  0.3149984289669798  0.0427961369524181
  1.0077451236481429  0.9021518602330435  0.0370164577465540
  0.9758843195369923  0.4729737993871678  0.4073996257985583
  0.8937598101943175  0.1105106238356661  0.0477394725374658
  0.2373105588929832  0.4956555583150754  0.4364564673586402
  0.1055832930530509  0.9077750139946680  0.1545487139653985
  0.8052087042287164  0.4787317444455594  0.1979164843186762
  0.1077613180873698  0.1808935358221307  0.6066850762099527
  0.8552787986609153  0.0829308260188649  0.9645627181352455
  0.5591956335695444  0.3065815193972778 -0.0006107695768733
  1.1011949395793406  1.0175244196472124  0.4724513677847091
  0.6191833152923422  0.8007100183761814  0.0083159777452093
  0.1127149628589599 -0.0180633609647052  0.3283238718039651
  0.2975284583607459  0.0683843424055130  0.1474368343649653
  0.3817796209405931  1.0108929368274069  0.4379702141343413
  0.2895736062747368  0.6440002948853314  0.1980398146943255
  0.9418881246745631  0.1623382813407906  0.4479840933290823
  0.8266933044057603  0.4413106277258441  0.1904112411989147
  0.7544172434226778  0.4859109153233832  0.5721845530178890
  0.1779534171557715  0.3648104009839022  0.3937419791081225
  0.5569216800133049  0.5630810816046448  1.0248648994652723
  1.0162920332412329  0.6586183348674698  0.5809457154173805
  0.3746440527170084  0.3701675146758163  0.1446521736499592
  0.3343156222162657  0.4239135847886404  0.5456409009135063
  0.8451925280517842  0.8729499502597448  0.9521912184069667
  0.3807718014506709  0.3818690226961609  0.4814355675425699
  0.3375568929474369  0.2057364888863070  0.0731962577115807
  0.3302914971419434  0.6602267610864822  0.7737892005475874
  0.4522936840768610  0.4095163449585770  0.1389597306224936
  0.0673535399242980  0.6257856934678849  0.7434432940160913
  0.9647955911162931  0.7655800495522976  0.8803557982505978
  0.2472189537179722  0.5753038925132841  0.7005286339471141
  0.2076355194521380  0.8005451838641637  0.2195721592067709
  0.0969777394772365  0.7121733074644728  0.5304514480437308
  0.8806126400224734  0.6824300557973808  0.8052952067056789
  0.9279723247832555  0.5521439660671055  0.0885102041798442
  0.1548172090018013  0.8389752700467464  0.1326499388856528
  0.8425400417108067  0.7379447317302321  0.5652330878149149
  0.7927017774808097  0.7313091249025306  0.5987450005340430
  0.1198961472074261  0.2896223694038809  0.5906782805169845
  0.4980832522631852  0.5557317183323215  0.3962949700621949
  0.4345318799665395  0.8748280457695601  1.0074283648913753
  0.2033677388534968  0.6921491277813684  0.6705248418865390
  0.8309260659237548  0.7433002306109507  0.4450962755790058
  0.2499263028128829  0.5477102896326961  0.5959297488814729
  0.9897474444297925  0.4799811770051656  0.5253400114828199
  0.8830718835502248  0.6293523311582612  0.1011046942775505
  0.1258815837513033  1.0222501608646133  0.5900504690939398
  0.8748590125997723 -0.0369724533225326  0.9742309772414579
  0.2550577175511129  0.7245736113841583  0.2057388613233577
  0.5403056670295018  0.9711953373894164  0.3361839389192451
  0.9081204790754235  0.3549085397321915  0.2101436234777493
  0.0891370585063910  0.1316984669901962  0.8219029194416029
  0.1061521534085671  0.9194690518688962  0.5503996320594672
  0.8580153068389190  0.3657856342803079  0.2418112393075634
  0.8525306185759925  0.3221225459184147  0.1971737252804763
  0.3776528257036494  0.6968049583684053  0.8441579011488191
  0.0985111637112509  0.0907944778490462  0.7795986659882987
  0.9527944735608065  0.2773018902445259  0.1923275044235052
  0.5936008849340366  1.0193133371433107  0.0207269509294124
  0.5546280611093219  0.9595433339284887  0.8128267995933015
  0.7267811859143759  0.7123159253541391  0.3101118393060235
  0.4146296861046231  0.9302804712087985 -0.0097293456630159
  0.9348432642946836  0.6928703865392017  0.4432946695106720
  0.7298093293661676  0.7407700499195600  0.1882268386594633
  0.2797308934746475  0.7604611174797754  0.5849288653257958
  0.2210164699234999  0.8127243367179982  0.8291067242748521
  0.7754458090116240  0.9880870201151348  0.2644088854742923
  0.8015812408364726  0.9282675438293109  0.2695416051056803
  0.5541189109882007  0.9311797799736361  0.7098666674903850
  0.8216075885513489  0.6031637869585351  0.3195445984154712
  0.9213376027186219  0.9328001170072833  0.4608541911064042
  0.2757992848315599  0.8366056996484679  0.9549220251769098
  0.5039671660270838  0.8024462415015281  0.8187372145190642
  0.8425589750553539  0.8364070953348762  0.3100056031319579
  0.9580050746868841  0.4197666942632863  0.0265937344583205
  0.7892574495659153  0.8211838965845556  0.2393853581747649
  0.3619888170241330  0.7722865075631371  0.9936777165101616
  0.2665110074361491  0.8055566218960900  0.6279034819854223
  0.2027443075463860  0.8878965572964389  0.9727678750066898
  0.0455190041581026  0.5072990019435764  0.5902687047981413
  0.4009231131068243  0.7423105299201687  0.6235193365119083
  0.3633036556182813  0.6973542490631139  0.6125316418695238
  0.0757318817614994  0.5851673474089827  0.6987165468136256
  0.0250643679904803  0.5758912095538270  0.7414571247475862
  0.7595544299429292  0.4796119060685521  0.2295101486427053
  0.0889473285058005  0.5698113431479609  0.7558930315882424
  0.4891936133031048  0.8467004462978256  0.8629098349940783
  0.6025296678955167  1.0026060237590217  0.4113393902321766
  0.8344205094453765  0.7449479476913797  0.2260674213608254
  0.8317809498225712  0.7129912291310361  0.3439728975288477
  0.3807673252788741  0.8702356924075426  0.0515295301447856
  0.3170553925360515  0.5533691943099389  0.7830000025708838
  0.2877542165386749  0.9261422862286260  0.7791985851032378
  0.1817086469306264  0.4611637014411064  0.7506046596761173
  0.3439906760684226  0.6491667728815642  0.8317862143050341
  0.9684630040693035  0.5736536935136882  0.4579443894154607
  0.4964556901473707  0.7143637377950934 -0.0072244848089604
  0.4933373143711982  0.8162088945925036  0.7591767132028864
  0.3350064825840912  0.9618439681246859  0.8469941187593207
  0.5762410340184450  0.6554046189301287  0.0409292821230167
  0.3436147595067908  0.9488507376787239  0.9083118993266650
  0.3535323510306297  0.9288405001987039  0.0256437953406109
  0.8037402129629317  0.9506556941421369  0.4459338598787942
  0.4094804289012240  1.0440028690645398  0.9519475611150707
  0.7903259095296780  0.8343503815728618  0.1784682449751165
  0.7325431070082055  0.7887673446009751  0.4575388046797870
  0.2973926517412928  0.9130513658955141  0.8413090602388367
  0.1150509897993984  0.2274823529420171  0.8701494371020652
  0.1214474951808619  0.4973207530876521  0.8338374470287641
  0.8921497271409582  0.8798588856226159  0.4923511196996449
  0.0227370513595591  0.4866405217472858  0.9165837501473380
  0.2078522528756903  0.1506650901759008  0.9724688601559165
  0.9475531317130630  0.8258243365061693  0.4076897256664403
  0.1066263216567851  0.1086261168625798  0.9459638956934063
  0.0982371045705660  0.1216084435940841  0.8856752087200531
  0.9063582647910703  0.8488057910720478  0.3809680388143590
  0.8989009828492585  0.8903973912228843  0.4280420401753390
  0.9551455806470134  0.8922626319386486  0.4049755888199708
  0.0585700448824593  0.0706899366265910  0.8800944130331443
  0.1245743744738837  0.4401907263949590  0.6275069191015626
  0.4436309889338113  0.8099091936745558  0.7969576532649413
  0.4092649405535057  0.9264524228907920  0.0487315263639505
  0.8774706256359381  0.8171228312617254  0.6760669853259682
  0.1631012531961582  0.2007833312032143  0.7273193748762762
  0.7774888866134438  0.6831089468119822  0.3361167138429755
  0.9442274077812893  0.8243431509297142  0.8672221095866885
  0.7287914455330162  0.8126067605819586  0.9525406110784570
  0.6621198097447388  0.0302069083161516  0.0448847150684347
  0.0864115924413158  0.7084114906341382  0.6215205678401371
  0.9731998954044111  0.8977968615800513  0.9504833238712087
  0.0596738926090391  0.7620312442333356  0.6041710029179376
  0.7244246420080521  0.5871393754010250  0.5268446686947469
  0.3941404723011454  0.6524638709022477  0.7961910391970177
  0.7101754805109184  0.6506244541426377  0.4955232625848190
  0.1384139391520383  0.9388940160293072  0.4373100743763472
  0.6368381498870171  0.2775876227377941  0.0814114072303549
  0.4489973414031054  0.8857651729738714  0.0638485927767500
  0.4403523663322184  0.3948488465481978  0.1995074816139656
  0.5315696695378948  0.7614131065305096  0.0012055002130150
  0.9773966571843372  0.7240284831106620  0.8403194785824443
  0.5746205438052692  0.7860701352724657  0.2900252381127905
  0.1610063777119086  0.6838250753539777  0.9457843789235110
  0.4735348023709215  0.8440065782235179  0.6370311567170558
  0.4338514076484678  0.9883403339868694  0.2475867144598740
  0.2028005729894104  0.2833351783007826  0.8377612295199525
  0.1181101580328115  0.1970583146861083  0.7640674385160452
  0.4860249458662073  0.8785497547640368  0.9693963610813211
  0.8409858821241551  0.8073924271836865  0.2039308813934601
  0.4789527881408724  0.9130570631984386  0.2260250942940948
  0.1535715247430726  0.2466339223845574  0.7716662881508640
  0.7799704938309502  0.7260062201707882  0.1541220643870101
  0.5800103203118070  0.8495156101344299  0.2748766444194934
  0.8653840093294394  0.6081586447430739  0.4589814019613738
  0.2255871683253281  0.2272844170148251  0.8539219476267670
  0.1934027673755840  0.5573099703036936  0.5751495629651613
  0.1447702826881471  0.8485573803945999  0.6866304125525274
  0.7076609627940831  0.9122822957942075  0.5209542508482368
  0.0510058869447558  0.1674357318057010  0.1962907259757075
  0.8450433997187561  0.8650104829450701  0.4198763864182652
  0.9264304998468399  0.5664127434650355  0.0271800810899108
  0.1480904532622357  0.5270699640699327  0.5081596377008100
  0.1597807318891661  0.5801428490283861  0.9431036774277327
  0.3188067460057118  0.8548487008148250  0.8575576634696322
  0.5396634483118675  0.9491412443744907  0.5839151364180222
  0.8682477322364102  0.4252159713396207  0.2228731703336125
  0.1825824148035792  0.8985133765553505  0.6931563491165915
  0.0828760115961910  0.6704543367008013  0.4945824606166529
  0.2209053392598561  0.6809793541051926  0.9684520991266112
  0.2498835155370476  0.7404994230386601  0.9049478163878517
  0.8820717353761257  0.6424033675010032  0.0339529697337301
  0.5391511243983311  0.8524557916708455  0.8243393274721981
  0.3052246763550300  0.5984609986291467  0.8275239480413317
  0.7183782953266258  0.0043967349937034  0.0693610421791478
  0.0667265843648590  0.1598090977893344  0.6986102658651547
  0.1111063523151638  0.5733608005632275  0.9787999026459672
  0.2627891380847416  0.2762689220087695  0.8582653847364367
  0.2742927077034997  0.2631558534279141  0.9200594217969057
  0.8612058040582783  0.4158455866507213  0.2815606026172363
  0.9151070027793342  0.3993539780095262  0.2535593441620425
  0.8874801232619954  0.7579588577022260  0.2929081039874349
  0.9088491966295047  0.3850561353918737  0.3155467937012165
  0.9561006426113554  0.3067441981463883  0.3001892391326118
  0.9537528334493253  0.2608637566819939  0.2522918635674580
  0.8930832377502992  0.8208475640585726  0.2775626431890975
  0.6418510050888874  0.9773819639718246  0.6647148699254379
  0.1139232208202197  0.9108658294958979  0.6076389906604293
  0.0617076674074015  0.5038984623065368  0.8139442697903805
  0.7693119199582452  0.5881950984805342  0.2514014184280388
  0.1095055239193198  0.0777736711351782  0.8410541005672711
  0.0697648123868492  0.0273368860191143  0.8344703528661379
  0.0318044451051990  0.0372295153707193  0.5327065976769944
  0.0360442412868245  0.8157325646205528  0.5887896584390772
  0.0741985295968653  0.8702877812118647  0.5932254576659816
  0.8680170269639939  0.9741679176408240  0.4566361192859247
 -0.0016906907754056  0.0488535459593825  0.7504391910728776
  0.0340000713276847  0.9964912706352561  0.7353690871429662
  0.9454848696092168  0.1679371374353161  0.1607106138529830
  0.8275039371793322  0.7309495223680696  0.0538745053148926
  0.1720040893701381  0.4716083008543725  0.0818867419000049
  0.4757416000474994  0.2299486566988699  0.0985208859763632
  0.8694619604469949  0.5172298539043935  0.5926610563550169
  0.8831616215015934  0.2168469043610013  0.7422097980900170
  0.5280106697171512  0.2172971610303239  0.0568669809809632
  0.8853068454964859  0.1865216394910545  0.6365297088561196
  0.5731718043261068  0.1249678678176893  0.1027785137807312
  0.8168382428650215  0.0765474006275834  0.6872257940262992
  0.9166388815327619  0.1151703950376432  0.7140511485138284
  0.9265127993735482  0.1004003961976156  0.7737291686716100
  0.0063681638050628  0.1976683069586303  0.7919243677316422
  0.9268003450698625  0.3869270925986417  0.6791238315851025
  0.9593828159017697  0.4242987422553861  0.5209014560590025
  0.5971633886391235  0.8760310981690090  0.9486591402469736
  0.1634775350949444  0.9196466169598864  0.5685514794602290
  0.1905048602944425  0.5119903398112288  0.0270618735629195
  0.8091437968480452 -0.0021720796402572  0.5736632544362927
  0.1679386591215057  0.3979665568336869  0.0341766251055964
  0.2878065344624635  0.3980379821713845  0.0143062965874884
  0.0321721356181078  0.2278030331070141  0.6247582574796984
  0.6848717091116107  0.1555659940171934  0.4684877506270679
  0.7380644113483630  0.1989353967143269  0.4212487466086702
  0.8530859572783696  0.0957349964928478  0.5810193554728352
  0.7787500004564573  0.0037221370817510  0.5223516174535323
  0.2105885144232835  0.4496179029005263  0.0408320983699863
  0.1342552302274135  0.9519955952370006  0.1698588007427866
  0.5349013292705633  0.9167619593333177  0.3623010078416857
  0.6781228703446870  0.4385819269761612  0.5237897985427385
  0.9276721455375015  0.1338081804640693  0.8796349968021997
  0.9942522599972581  0.1116815168489750  0.9619209553573395
  0.7637586492620730  0.2042832211954020  0.5916400686172354
  0.3620512931648058  0.1913095687881573  0.0191527231993536
  0.9026914837317002  0.0410842753360630  0.8307222806242675
  0.4135594125280402  0.1575042317539097  0.0377847654794092
  0.3983900881033570  0.0873125016278540 -0.0044439814199724
  0.5091945219505607  0.0873388691788754  0.9778369145642516
  0.0021272212779652  0.8125531565426228  0.0844939015831188
  0.8210138268467174 -0.0262374149560464  0.6939204634860755
  0.2324587779348714  0.7570569673080899  0.6199096506817345
  0.9523696892380747  0.1968104783548942  0.8229894533690325
  0.9397851072725714  0.0905117970217198  0.8344005375470036
  0.3746617869594612  0.2790889342376385  0.1060522004824138
  0.4713013508052524  0.1701448077434522  0.1135209909968930
  0.5731935358986835  0.0731545876719119  0.0610349501679591
  0.9260034785359265  0.4181951318267694  0.7866120373619216
  0.4913461581205242  0.3491589119435534  0.4549070568603280
  0.7830327708163130  0.4916248333271506  0.7291011799241873
  0.7327676284403292  0.4551261506751909  0.6628916898867186
  0.8422177728805521  0.3029658656346006  0.6056792504646479
  0.6168027425263397  0.5111773453586373  0.5072288309040880
  0.7825321724599804  0.4629801418186925  0.6184521944950968
  0.7878940842299395  0.1070195074925647  0.5589523337508666
  0.5835274709554654  0.3742696216456978  0.5653908570609157
  0.9453282510692862  0.6610201758551350  0.8918688411917171
  0.4476831827508416  0.6324206643524185  0.4109901164294396
  0.4975402657000522  0.6064920803093583  0.4429174596739074
  0.1516930007166686  0.9085561715594027  0.1188051599496604
  0.5001386584705713  0.5481619808623885  0.4567302238538141
  0.8457566958904349  0.6046784120938952  0.6853175026167956
  0.8085850376529786  0.5540566568322701  0.6778243263363882
  0.5983207837001870  0.4465603866685209  0.4061840460404069
  0.5838283327176140  0.2614622714607039  0.2364510281916384
  0.8457769046667803  0.2650557525019341  0.5002532070785560
  0.8876486139865293  0.3212927661753227  0.5075570724431712
  0.9307666679286387  0.3595288852482855  0.5715312331131176
  0.5204719417957764  0.0984937194619113  0.0949268798487569
  0.7327535294754839  0.0962691335353297  0.5430397622988755
  0.0082426571897825  0.3501329742688197  0.8173770998134490
  0.9627747839775156  0.4657971359635518  0.7921754783500384
  0.9357520031502923  0.3717322871719815  0.7380103087029273
  0.9592257277923313  0.3150485035200954  0.7525668364045746
  0.8993758571015017  0.3247172613476820  0.7324072288032366
  0.5494249029008770  0.0172953321475752  0.0588670472454354
  0.9848490913082848  0.6999605802691707  0.9053522332651511
  0.9797993999967353  0.1676460132640512  0.9432184790336260
  0.9113244891116908  0.2788973161359182  0.6873841491518289
  0.9823457905336689  0.6480325899402369  0.3058240168502171
  0.1913963646392240  0.6282116536603546  0.9620468825919406
  0.7432055944602437  0.2256846021433476  0.5283853298565802
  0.9728375794448253  0.4196897775588182  0.7486727380090085
  0.0445312990460868  0.7226820898589682  0.1296644796146587
  0.9028901706795819  0.2930149257178996  0.6286476412090658
  0.1444069738841057  0.6751164794252950  0.1255744257183651
  0.8124151689333544  0.2397167209916618  0.6604770405276065
  0.9573882935393824  0.3463845875305920  0.8588562875698514
  0.7946474044302826  0.0730924746119169 -0.0385630638034178
  0.7409041872191509  0.0369751427794119  0.8949611379304313
  0.6807132377443504  0.0128230153892026  0.7666687795513006
  0.9345181526298151  0.2119339746305066  0.9795677767122959
  0.8742161194162573  0.1769069450593908  0.9671638805895191
  0.6171402468266861  0.0511158785755053  0.0863562448361802
  0.8175604806045104  0.1379428960469012  0.8989278818380397
  0.0124755599901138  0.9389345323687420  0.2840701768301400
  0.7798923506814485  0.0550390155873320  0.7902109086047955
  0.1060482518043460  0.8427752519970173  0.2290029651233875
  0.6685001456868422  0.0244170192910713  0.7042906419341761
  0.7208354676151107  0.0316820472008980  0.6607461914949456
  0.6648987880778190 -0.0606579962965055  0.6187711158016754
  0.2047764991810472  0.7621224187927865  0.5642423009579605
  0.6752165165766723  0.6965263839859055  0.2382448901769114
  0.9559137776568352  0.2294041831757493  0.9330117509285500
  0.2621692495400553  0.6700207896522233  0.5279109998610143