B  Cr Ni
 1.0000000000000000
    39.0487268126086491    0.0000000000000000    0.0000000000000000
     0.0000000000000000   39.0487268126086491    0.0000000000000000
     0.0000000000000000    0.0000000000000000   39.0487268126086491
 B   Cr  Ni 
 213 1596 3725
Direct
  0.4126507157910618  0.8473662777995539  0.4901994092352526
  0.5819682806057542  0.0142092539463875  0.2928867376767759
  0.8161523508172258  0.4062548191303149  0.4855274073446151
  0.5624840021295712  0.8608610439077624  0.5073191085939304
  0.9266835337858866 -0.0399253768714197  0.9864727569245225
  0.4161759240909694  0.3289201531440987  0.4300693134005016
  0.3365954541485923  0.4363138078952058  0.5437977621016910
  1.0418936891532025  0.6722204547343411  0.5654995739604396
  0.2322301807865162  0.4980200990886817  0.4352262213896362
  0.1061894325631710  0.9090388293098161  0.1526613828031118
  0.0989580362086243  0.1598919541381059  0.6208934992871235
  0.5599176706197614  0.3030292086138570  0.0026138458374026
  0.0293612348972540  0.6222398501060410  0.7105483935857925
  0.2317737869712079  0.7478511953183625  0.6246359285406532
  0.3583317491869693  0.8195624401391602  0.1623392210416595
  0.5693520151696857  0.3201153580217200  0.5519077597937089
  0.5722350583045154  0.6834883633728829  0.4808631637243668
  0.4093494884796071  0.3177700243972228  0.4766311906845960
  0.1680245685106978  0.3725711791221930  0.0767591176249392
  0.2610191226866302  0.6221496089325838  0.0141044883017168
  0.8946700614277264  0.6607526948805659  0.1469060469970758
  0.7101729325743200  0.0530382004551116  0.4145378986801035
  0.4636247606994686  0.4047063156892055  0.5364451369648829
  0.6546230098096730  0.8255504780631217  0.0853847048373408
  0.6165014800488905  0.9478812553647057  0.5180996871273070
  0.7510189578068937  0.6356252606268505  0.4983558642450935
  0.6569216499199205  0.4897966516142584  0.5307239348953242
 -0.0339907834706833  0.0396763445046535  0.4566776202050170
  0.2813967848211783  0.5458655443081151  0.0342047816011506
  0.4723961564712634  0.1054641759096849  0.4148647201612164
  0.9567167944953455  0.9360424527314052  0.3699690838518818
  0.5956876042136507  0.5689434938995215  0.9390256624115012
  0.3062743779056222  0.0973228641910713  0.5367828981155256
  0.2653925223243423  0.5075484372133009  0.1001404331745513
  0.2442607942469345  0.6314637050426215  0.9058847395257411
  0.4858011930030048  0.2707318392986870  0.5362731837416692
  0.7056624215772750  0.4459377431035428  0.4910699543064115
  0.0778340251339568  0.8114988435665612  0.5636032651442547
  0.0507694692820055  0.8974442682383329  0.0266344587214165
  0.5026150201334275  0.7236838941612820  0.0461814859505636
 -0.0176400695912204  0.5506057363399257  0.8191191678785282
  1.1304944945813742  0.8509575322176258  0.5091544921610393
  0.8847143111622547  0.8206011742033685  0.4942126139005535
  0.6381859778762768  1.0275291664275790  0.3737311826983761
  0.8392738393716583  0.0070136218816710  0.8371400145127974
  0.3150794061160910  0.0016330652122013  0.4428580633400987
  0.8413390373696924  0.4931885703673277  0.5443279428083571
  0.6161948665567337  0.7750412874803230  0.4733737268085508
  0.4826791376812325  0.3144453761819065  0.5513022468294145
  0.2359823547573044  0.4130562867243042  0.0866334747081075
  0.3642263762756671  0.7745993879055253  0.0896509641790621
  0.2896050959545797  0.1790781361185967  0.9834041167332265
  0.1821187263112843  0.3622070431027096  0.3969682581122769
  0.3022777597918964  0.7637225757363523  0.4247925684947203
  0.8908680197492358  0.1059047872396474  0.0414379071490653
  0.5770857735812579  0.7026402164037714  0.0764202555964363
  0.9974259375083245  0.1991514783533460  0.8500826302559576
 -0.0210728794009945  0.4037889670693083  0.4142469306909612
  0.1460903891963339  0.1389391815190366  0.7180990662310078
  0.8505633168833392  0.0754418559776647  0.0356294128612407
  0.9918223424859177  0.5788855158059248  0.3723872776608045
  0.1183068423799335 -0.0148070793082001  0.4340644306509934
  0.1679140259135845  0.5328053562338015  0.0795475877626208
  0.2387124642229704  0.7017186913279507  0.5839692084719905
  0.6738681838796164  0.8917743828734187  0.1249687366282896
  0.3599341221646443  1.0162909721942714  0.4317650825083095
  0.8044465625304041  0.0585314598201727  0.5836187203681126
  0.0899548840710122  0.6341501088175077  0.3895324008487825
  0.7247044332024816  0.7325997892271298  0.4588907121643450
  0.2940986852574035  0.6451034726262369  0.1956888228593885
  1.0280476913511112  0.1750201200416104  0.4262072963418125
  0.9537709677703228  0.4367408267866465  0.3228509952413360
  0.1940514687366555  0.3544032933587722  0.0437798466583733
  0.9362960640677163  0.1615148005201622  0.4495004927747276
  0.8215834542069376  0.8577182263293377  0.9672687732559877
  0.8146013122035642  0.4672539463910980  0.1957487125881540
  0.3180020461316506  0.0439590488620164  0.1370887232267608
  0.3688001974573431  0.6815585100527531  0.2211775142076669
  0.1562320486212367  0.7426570001617387  0.4916311601258357
  1.0031129925696471  0.9004123845288183  0.0340590398161168
  0.1430335019923067  0.0244094453348313  0.4547436794078856
  0.4108477754807559  0.7337818793077318  0.5198051111393085
  1.0516857741299714  0.5707378374033433  0.4827100193929307
  0.6412166716417348  0.2784598388536490  0.5794126062676244
  0.7911070184872193  0.8933716641014865  0.3863583741226013
  0.2743044195097731  0.4759331898542404  0.1340262643651863
  0.6668342181042340  0.2957302065478252  0.9770623396401458
  0.7726115674380807  0.8981128563930012  0.0473304091126138
  0.5936031063904067  0.3725319110135339  0.4726129723741356
  0.6896991168577441  0.3227615272337518  0.0445456530200707
 -0.0297470497881300  0.8135116758192498  0.5182616189931188
  0.1255116712427351  0.6563145884038469  0.0187888906994147
  0.8556033104361522  0.3132724578507133  0.4231059628992884
  0.5260818057751551  0.9423429972073079  0.4140435788204395
  0.3671537042237062  0.2467522756197871  0.4434094812906164
  0.9046850556701946  0.6410100109331650  0.9795642342039144
  0.6876713843332334  0.9353554863450350  0.0342770987580589
  0.7197894178033922  0.0115373554571906  0.4310901083872365
 -0.0006600800033145  0.1492429991463777  0.5347817282519527
  0.8721375118124489  0.2784042033087136  0.9392605804399785
  0.2942515964901480  0.0799604995280852  0.1479865107377916
  0.0550103246379461  0.3840184180878044  0.4588753738896831
  0.5551975505421736  0.9660045567964318  0.3880436547188464
  0.8008553391760691  0.0487398374323331  0.4540381686126899
  0.5336610597892452  0.2981475300214212 -0.0676172805321911
  0.3718076577023546  0.9316833531704665  0.4839855121842720
  0.6190265732090648  0.8040125194465663  0.0088890108635680
  0.0623592956484959  0.1602889937684758  0.5543058439920124
  0.9058878709734425  0.1102183390559732  0.5547447628463650
  0.8809642804173785  0.2907557976063510  0.4566406841416874
  0.7320190214985216  0.8911655717627045  0.4727123968832200
  0.4967357221125430  0.6511335833898210  0.4707018962883807
  0.3152420317760398  0.7023597754319721  0.0253475021885456
  0.2966557572811442  0.7336744187153568  0.1174432049394073
  0.4255372389646162  0.7150959921091921  0.6010183677378358
 -0.0087599973861601  0.8216841275206230  0.4784660225314160
  0.3238822862091830  0.6888418208594919  0.8720392516512528
  0.8569311597236472  0.4659015208048908  0.3817408528900368
  0.9288437598609592  0.5502028022721218  0.8764560811518113
  0.6276379656784999  0.4958285783912327  0.9472658250581559
  0.1425312898785182  0.2338595999409478  0.4242560330918563
  0.4282616556697452  0.8383636179733340  0.0504162842121465
  0.6269104674164246  0.2476625116824750  0.6080472659253813
  0.3697377862018862  0.6278502988417132  0.1613881117239606
  1.0483919035169584  0.5934630934290875  0.8354477508460625
  0.1154212063783116  0.1190811033993968  0.3280465422748583
  0.9775953810401838  0.7623161451977475  0.0578846082015053
  0.6941940640141805  0.9735558155818339  0.4274056091349446
  0.6280100322656218  0.9211207949162992  0.6615366075011000
  0.7976774775926802  0.9966671258844966  0.0494944240445792
  0.9076796846405193  0.8146616453242398  0.3290642363435565
  0.5309816505353429  0.0538701858985631  0.2694219440988483
  0.0167803754982016  0.3007576487269120  0.4256188728028695
  0.7278753101502319  0.5464364431011488  0.0296710982873569
  0.5754450274034694  1.0520242040884160  0.4137786408610769
  0.9774091876874913  0.3968641413695679  0.3196904017405771
  0.9625155952931760  0.9574499346763654  0.6292640464257820
  0.2118568833875241  0.0866510538801022  0.0550546918860466
  0.2666455967524378  0.3536039759371539  0.4285300768948029
  0.6321619742407686  0.1753577544321905  0.4939264313993456
  0.1138027607333990  0.1942148119665161  0.5936841364917019
  0.3022536782313436  0.5373240784752181  0.1818652074202396
  0.3363249631527146  0.6294959521451573  1.0382666238221305
  0.5200224490759838  0.2032180166757652  0.4878535928738166
  0.1950777423227035  0.6418549385715010  0.4238504995772188
  0.3194607092916572  0.1078038224704112  0.0528895047483844
  0.3360702561426600  0.1690317998601568 -0.0051050509314368
  1.0701324752268262  0.1835758012059362  0.5931188416911167
  0.9448537206328711  0.2633005296168033  0.4106377668416613
  0.8728545977766561  0.6988176625955447  0.1521760825863177
  0.6370150300286215  0.8449301059041605  0.5219565436849417
  0.8972680494140685  0.5881954591198909  0.4895892629623744
  0.1624875396742364  0.6181770599929785  0.4462387177287975
  0.5146878977423669  0.3754800206082196  0.5026603268228296
  0.5336341230995971  0.0712232350701250  0.5481666419955489
  0.4768072812972566  0.7492178586806409  0.0197833774743360
  0.6243387315895925  0.0407021037822292  0.5200887552640397
  0.3499173795503324  0.4426137227708103  0.2547356942518467
  0.0316609955422328  0.1732486766238165  0.8406694901118478
  1.0124215678893347  0.6389532972249486  0.4232716464599701
  0.9941225712580301  0.6270721893755504  0.4873834219629086
  1.1011965471912490 -0.0178161202974951  0.1927260543800623
 -0.0050693687205466  0.4696826986642805  0.7062137503377096
  0.8764980688517821  0.7923544167752256  0.3517041128826346
  0.8826841200988563  0.9283724740425436  0.5966590784036485
  0.9202300104719031  0.6892605052728744  0.5043210383693131
  0.6768399881479215  0.8629534660708704  0.0890245435972586
  0.2349307011249497  0.6493251137291772  0.1284858515920404
  0.8031289759724756  0.9134342133160329  0.0175597393582226
  0.8289242923901530  0.0212525754704674  0.7731370335042053
  0.8656682340796832  0.9777732854971802  0.6615345075954475
  1.0076760524592983  0.5012994146592747  0.6787974939424816
  0.8173038072394493  0.9826176201424910  0.5310546099926752
  0.8761113896559668  0.4336429591188816  0.9840563028782149
  0.5924021437969337  0.9458468558363028  0.6708616321364418
  0.8546833532289460  0.0071555860448133  0.9831545720739970
  0.8382620955700262  0.1212163252981000  0.3014127438545242
  0.2324935577773973  0.7300429236155977  0.5113058854758571
  0.2585745020161772  0.6544172312032963  0.5318357792687622
  0.1977374189115270  0.2798779550064416  0.3621887555495506
  0.1189606280718030  0.8455787519186841  0.9943785865602345
  0.5031481395311932  0.7535204163468633  0.5574117494245279
  0.1178808691196147  0.7188396631831391  0.0643044594091428
  0.0083425166127342  0.5382969809480410  0.9045848675197736
  0.3828580317326845 -0.0274506639701054  0.8098721499606035
  0.7347589306218376  0.7508261641404362  0.1281285448179512
  1.0043798184836310  0.4254490687069091  0.4984998157789206
  0.7037044585018118  0.4879846628501142  0.9759269076889685
  0.3083502640665787  0.7427836275059306  0.9281070890212109
  0.5156840230176473  0.9576374747327180  0.5240848750629398
  1.0124434631284061  0.1061568167813226  0.4564819321763895
  0.5313790488232580  0.9843225580372658  0.6903343340566601
  0.7234716908688352  0.4117062495585946  0.5139352310483146
  0.4779389836997224  0.7566188943883343  0.1641688534265336
  0.6422541845779989  0.1733900161218398  0.0635972730913034
  0.9891072928286443  0.1823696584754430  0.6272117111430033
  0.3752557733352272  0.5229402055142985  0.0637421040110122
 -0.0022494153261421  0.6087133202293711  0.5606705087204471
  0.9060727324721445  0.5836149160768052  0.3965176573323397
  0.1740687962887003  0.5963752721215176  0.1218632384675378
  0.1097993842764775  0.1627100121143608  0.7276678061130439
  0.1617503352714206  0.8183540626445149  0.5937289500591809
  0.3228262788756805  0.4196177700307780  0.2820381685684380
  0.1094708530062160  0.9861032595167012  0.3229805985537960
  0.8518126825549207  0.8565334611157850  0.0413592497502210
  0.6316005534305755  0.9030911714059177  0.5776429480684595
  0.9332482852623906  0.0437933949493545  0.5900989993491633
  0.3324015068775233  0.2087362397016613  1.0712535148590885
  0.9560109025239203  0.2829613216069313  0.9663153290101842
  0.6068618480768141  0.8652680870273975  0.4970946669464114
  0.5087156346453670  0.7130284223824563  0.5193839106214084
  0.8820228697202640  0.8889462169286508  0.0490732182314908
  0.2653978190324768  0.0654344690143244  0.4451141523664852
  0.5604103010258226  0.3133924636013858  0.6124603064895643
  0.7732060959993466  0.6545072674320727  0.7135267542505548
  0.4783218431342406  0.3784942416222754  0.5830940484406635
  0.6290157245798421  0.2934748200852204  0.6998882161453935
  0.5011970141418026  0.5239334291842276  0.2928001446756138
  0.8107851157422394  0.1072709129625717  0.4562652959573254
  0.6837247645058377  0.4499660128305247  0.7001944884976363
  0.5801756476353861  0.2532817406387107  0.6376031362027028
  0.6336457534884534  0.4422655200627448  0.7411966753912707
  0.8472776379478943  0.0699230957671319  0.4760415234674140
  0.5844575238312453  0.2696681619162060  0.5795990589884611
  0.5335044690579104  0.2206640920273113  0.5746700966178039
  0.8587331781708675  0.5908275413014866  0.7428642544228466
  0.5043529001015771  0.0493508972269128  0.5089033727991024
  0.2181764722193612  0.8948238557097173  0.3090067526066737
  0.5472635942880130  0.3574002334049152  0.6652424527695177
  0.6079462659825536  0.3475144859567372  0.6858869512247020
  0.2677607199745717  0.8638046522823105  0.3350962672387485
  0.5691069705162608  0.3939425117605855  0.5155751330062555
  0.3107802669943750  0.6921933207154458  0.2233434835045898
  0.6828407432723590  0.4767143559327471  0.8081591303879101
  0.0215246511533840  0.4517445663976626  0.0402024166830867
  0.7286577349474630  0.3338814274766760  0.7293873968111103
  0.2988073475245798  0.6646740548115246  0.3502132388043642
  0.4179172284703333  0.9638858501830779  0.5362681153984457
  0.4754369650358405  0.8413476133068085  0.4670712908897819
  0.8579645232616414  0.7563988275036422  0.9543254116530067
  0.8019791732778735  0.7639107067971275  0.9327767785434887
  0.5235803858337921  0.7680301282694999  0.4467704219101982
  0.5646961357496725  0.6969635783603896  0.4277291513140564
  0.6456438263360933  0.4607663452807881  0.9058561815732125
  0.7043351665478546  0.4220455894184417  0.8230443211109806
  0.5938672135473620  0.4227850841319071  0.8421953708422885
  0.6753002170372655  0.3592405060633100  0.8790445073166797
  0.5362146924138188  0.1484392241101097  0.9152147047760718
  0.4643956286360851  0.1672549252583320  0.8330970700767969
  0.7946082308950009  0.2163508996629621  0.4934636902056341
  0.8197997187659585  0.5409896663095418  0.7372234537942789
  0.9538155158753172  0.7191599289855448  0.5504053821863411
  0.7831267812498940  0.2395395069997686  0.9241737422293268
  0.5472629706181448  0.4805860362958504  0.3811112972505836
  0.6471968044546393  0.1146940890596511  0.7919135676813304
  0.6424365708065620 -0.0024108643412034  0.8710789323679123
  0.7280150112749043  0.0847696231075529  0.9372241115745324
  0.4485141789005646  0.5395387092495604  0.3257700212181004
  0.3687283667293644  0.7898238738730913  0.2122995138317474
  0.5631223460916277  0.2100922872297377  0.8567267957120299
  0.8474529248346093  0.8849288363562025  0.5933296369429119
  0.6531401199486945  0.4957236386116724  0.3559363003348679
  0.6531377027871836  0.2354790079540565  0.7181979981388440
  0.5413766094358977  0.2359067462136218  0.7362562802203446
  0.3342036405022388  0.4093970766555408  0.9733357747588678
  0.5538110574032024  0.1918201685084971  0.6915358780290255
  0.5420727257454885  0.2050087325477771  0.6324555035814127
  0.5665268050719873  0.1472293117202697  0.6486279767234947
  0.3175186839049930  0.5270139890357906  0.0678703916091753
  0.5152769491485653  0.1104587374718505  0.5851804199836439
  0.5019317775864690  0.1159066882301698  0.5211887946776639
  0.4519872876555019  0.0731466678185836  0.5072919927346003
  0.4581807597983388  0.2475162329250312 -0.0191029299107928
  0.5846717426050725  0.2496942854781664  0.0742483040222126
  0.7980299344208799  0.2372292911908860  0.9825617846573274
  0.9031278030664683  0.8850280687946174  0.6222600308202406
  0.5439315596425390 -0.0271112265731551  0.7481521385276222
  0.8903293677438733  0.7717112885309103  0.6349395180834723
  0.9147521777389692  0.8373628827098604  0.5823670822472740
  0.0343864993321068  0.9530080444473822  0.1334268530231101
  0.4660243818628523  0.1038692804432064  0.6238670063564236
  0.6902160298249395  0.2844078952891419  0.7227482840798894
  0.0800126270776329  0.5344382176357612  0.0934268520937195
  0.6507413729027117  0.2657935514724213  0.8228556220172887
  0.8380419926809859  0.9399011185698913  0.5647485643076996
  0.6471939288486149  0.3863079512625949  0.3329157269659500
  0.7412267205254472  0.2313433269156729  0.2997860845442045
  0.4370106927294117  0.1044396991469871  0.8918406152545783
  0.4704112898286355  0.0040537305823583  0.8654999320408676
  0.6939916814929578  0.3091048901872865  0.3177637579984669
  0.3898200828080115  0.0683249003271823  0.8258987249449838
  0.3604311338087902  0.0037896130239960  0.8859327177751595
  0.7911427402049307  0.1552715224050164  0.2803224492745255
  0.9085757656737168  0.9592267892607502  0.6353881857032428
  0.8644491636958566  0.9819468166036329  0.6019655858698076
  0.9833260308171224  0.8385736794639144  0.7344761463129176
  0.8304872538674712  0.9623587571542472  0.7542337799582601
  0.0394362664366255  0.9068929536207716  0.0818676722662122
  0.4821845619017012  0.0624068266603736  0.5698343738557059
  0.1542750624537375  0.7935072902063209  0.0854094770211756
  0.9091504053633497  0.4050003671521379  1.0164088915742928
  0.1470530426342637  0.7555352254756519  0.0356980698813611
  0.4176505716857827  0.7559060685606450  0.2444271425440329
  0.2330399073092699  0.5667225696614334  0.0262915488641354
  0.5035463323449392  0.1870914463428377  0.7320342926064167
  0.2731791913468070  0.5702533261130894 -0.0136863412708668
  0.4178062207488614  0.7863972704595890  0.3509511250730101
  0.3653701965033166  0.7756368276562425  0.4465320077723219
  0.8350901169066259  0.8924829932028023  0.5233722408141899
  0.4628120961244007  0.2703415862292091  0.5864590804291203
  0.2712567590926370  1.0168976819523998  0.4098455001965925
  0.8906779415372673  0.1796232786304833  0.4205362726743934
  0.7474605963328700  0.7411275743401208  0.8058226805221665
  0.4002998264756867  0.5370434824213874  0.1996501534962776
  0.8486084310913589  0.2781445541834217  0.3803430351129120
  0.4077852611127949  0.6461052528246212  0.2145251603466438
  0.1860571491427097  0.0403625460365635 -0.0136727927995545
  0.7543144918715663  0.4575863181240128  0.8910720723481640
  0.5451691365683253  0.3994453685902172  0.2368220586027250
  0.8890868590133656  0.1066053591457422  0.2692988530675668
  0.0414575075988945  0.6812433096697402  0.7210209515359618
  0.5137182376126692  0.2053914307542072  0.8953839975706280
  0.6824966619527448  0.6285922498955459  0.8490475197070307
  0.5249149521958969  0.1942989487478329  0.9548112071801703
  0.2594468619011080  0.7107971194190190  0.0264624179288124
  0.5104976971210009  0.6635663065993775  0.4184274008461451
  0.5462352923785684  0.4175072407906471  0.8795694027673659
  0.2251321688285738  0.9857805280490919  0.4024071723025798
  0.3687783662272531  0.8174336561378158  0.3248814159275723
  0.3760088669329331  0.9100047375604834  0.4241177980406884
  0.5645420043205048  0.3405018086044452  0.9611105973739937
  0.6101869202661520  0.3164519368993243  0.9791379191787816
  0.2741006300724796  0.9089747125479947  0.3827604372531804
  0.6363126404430950  0.4130125719860597  0.6358518332207801
  0.5478986972174507  0.4471174071959996  0.2772863001113686
  0.1282043623695204  0.4823494826373836  0.4610177762305815
  0.1171856199843533  0.5351107894216860  0.4400033869681594
  0.3550704787918568  0.2031999321992345  0.9569927260449407
  0.0320253733792016  0.5510483302583709  0.1266575863156638
  0.9735358949250063  0.1065843134537581  0.3898829061678473
  0.2528611167323785  0.0522917237358462  0.0687703157628560
  0.6003251209313941  0.5142227218237951  0.6667708249262601
  0.0120037917227764  0.3760923139609328  0.0054097780020555
  0.3517361043900609  0.0877361275882453  0.1491619197875614
 -0.0049709248716948  0.2966998854862162  0.0321808725404045
  0.0696849219573796  0.4580124818026306  0.3929293323766750
  0.0432826435913693  0.2117810089284455  0.0168250015727420
  0.4697892187647977  0.1372211722318417  0.2359928539595683
  0.3724079671061335  0.2197788745792317  0.1211504486309201
  0.2219507763259106  0.3321866464769327  0.3719210053874056
  0.2050937172854276  0.1290480084931803  0.0937289730937529
  0.2660083405206574  0.2612614898889825  0.3592660995987303
  0.4386919505250358  0.1328469366217806  0.5027643463422052
  0.2155068014613061  0.2295437297885325  0.3492050622409220
  0.4962056383025032 -0.0206839805846573  0.3775061427451348
  0.3108659398584940  0.1375296005657506  0.2925758646781110
  0.1653034112027355  0.5639205033537282  0.4555077697444638
  0.0719268557163354  0.4853672020157595  0.0429002010120036
  0.3831383319272587  0.0028898940725413  0.2828208568563048
  0.5656003904026349  0.6141768332680611  0.6953369373285236
  0.1544988367630435  0.2206531139294474  0.0510232025000798
  0.5881433183604546  0.3033609081886541  0.9113075351313299
  0.7392764363622286  0.2011531413436333  0.1934775269660064
  0.4439520725278527  0.1626865544762343  0.6071535230927088
  0.3742802322280307  0.1867837864728202  0.5258205156583076
  0.7600622090646821  0.6978148562202986  0.7611377855457655
  0.5500575339950251  0.6374641015029889  0.4604117189215185
  0.7692571425733683  0.6843476513814097  0.8228367190141469
  0.6262074945715911  0.6070517649287286  0.7180162339098752
  0.7508865296980115  0.4223245775236343  0.4669348497968346
  0.5736568707425634  0.5411246670502952  0.5410302826595043
  0.8138555994515321  0.9845719539348459  0.6385541575568231
  0.5571460832279136  0.6009887212862065  0.5241472625725024
  0.8114734385095175  0.4694406058917211  0.4165379125595582
  0.7258419347644970  0.6657348495710930  0.9196509684982265
  0.7937012954663070  0.3567103272709807  0.4640351810495739
  0.9027737449393564  0.2625047022430585  0.5210016427775963
  0.8366133331336608  0.3213195514899861  0.4752830670449424
  0.7835820450493273  0.6414731628647051  0.7739223738836682
  0.6360175734033578  0.5919144345632679  0.7810224542325142
  0.5245821423591258  0.1611027185854162  0.8545130185219493
  0.4776240456814311  0.1230661675335980  0.7901032632640115
  0.4272163545018903  0.1178025796233133  0.8297368775696633
  0.4284131551685335  0.0880645095724099  0.7225412076189850
  0.9377172314602054  0.0297478358039860  0.2487848999586799
  0.6619646999780112  0.4047126494867764  0.9244561327671287
  0.6272719357197183  0.3213356791268740  0.8090646255691410
  0.6920286544906032  0.2780497359851821  0.2135730881322370
  0.4704360569669748  0.2568743849129228  0.6542629418213417
  0.4040195040336754  0.5096026622629120  0.9750507063754975
  0.5905575156958363  0.2736747323555035  0.8017159178545692
  0.2117550527781679  0.8670318848230971  0.2006689708468324
  0.5733851497009135  0.4501125327300515  0.7208836214374944
  0.8336929046029327  0.0498485319847058  0.1511641268626903
  0.6626610173934575  0.6558674846685135  0.7282636909886149
  0.6516480745098326  0.6686309135160338  0.6700990104210525
  0.5509560016420337  0.5744737901999041  0.4714363549443005
  0.5954334433295758  0.6505745654669656  0.5254228108562956
  0.6284170494920016  0.5777233975954672  0.6088388198697987
  0.8557875261050315  0.8726139279343406  0.6595056377099856
  0.8426945738533769  0.9303317173960671  0.6369252379754380
  0.4605125461013486  0.3063281110820837  0.4611220509214029
  0.5650685571021565  0.1786228022786486  0.7516999337402197
  0.4655956950823045  0.7236669817235202  0.2716053581546520
  0.5611951862965991  0.6168237079881338  0.2817978076648815
  0.4538331315751734  0.1467236125925682  0.6653591682167139
  0.3825159177638282  0.0517075403724263  0.6583205517146375
  0.4090619048653969  0.1117733972971106  0.6061189810879527
  0.3442657553108463  1.0276033320253408  0.4868565059983369
  0.5980861313299917  0.3854704648906471  0.2020568814399917
  0.0788009467340892  0.4740676544425169  0.1069306815185626
  0.4656893544241977  0.1359427770010740  0.7277135885951151
  0.6208571812915711  0.4860572456353163  0.7854835411893473
  0.4965847653703366  0.8655235457489049  0.0269097470836299
  0.3531443224832132  0.7422649825409092  0.0483846875091477
  0.5769635028450464  0.8908336078983005  0.6647561663517111
  0.7577039993494006  0.5451764575803523  0.4330548473144598
  0.2139861621890441  0.2077266184206407  0.6894074776053705
  0.1901437451272600  0.0122651518997054  0.8792234884056347
  0.8985543556431770  0.3416546851143915  0.4483230683277363
  0.8494436995753800  0.3379013982583595  0.3702186255590911
  0.4633871745269215  0.4211457755166227  0.6335410278325525
  0.6398603629793146  0.7127549822403021  0.7135084766414298
  0.5792033937511765  0.7202119027227856  0.6923584694280066
  0.6697416094584558  0.5219846625953465  0.8612599417784381
  0.3499226544137955  0.2721174566381749  0.6129421287359527
  0.4501389893314144  0.5371205918821532  0.0467307487047422
  0.3009396820082145  0.7599344545872739  0.0297962188683197
  0.7088119784514375  0.5976052682339568  1.0252940445636514
  0.5728855397572885  0.4208202159247549  0.6171403895361329
  0.4719667319698825  0.1678743572128797  0.3409119842754860
  0.6113580233706970  0.4991584404376911  0.7272481345032186
  0.5381400204257609  0.5501882540463724  0.7507773870558336
  0.3492375393705736  0.6695121934836891 -0.0022486523164366
  0.5096126650797773  0.7418677832881735  0.6125420769594996
  0.4716833129132368  0.7644019399240572  0.0698593941898451
  0.8070507903038057  0.4333741688778770  0.3133027558621866
  0.4223319779324989  0.7942351973416005  0.5165627804615163
  0.2083290355906643  0.1189848127571742  0.8685372126204915
  0.2681018262784893  0.1113818773882521  0.8898455591453459
  0.2556948849100820  0.1538551223107449  0.9290296257477486
  0.2667052695020024  0.3108820993293164  0.4662122194750266
  0.1819322511514963  0.0259523833090432  0.8181796224429029
  0.3964027966948596  0.3704987160418994  0.8904250454068990
  0.8085684648316818  0.4829881616023333  0.3579828045540724
  0.7600552646796532  0.5125448218753597  0.3301452443097914
  0.5564800577074070  0.5067868275906472  0.0300586642356003
  0.5891534595899802  0.8129791288657325  0.5144064370431073
  0.6035144722980550  0.9779492549655523  0.4713483905188715
  0.9987792057176823  0.3092366762918456  0.4785150482363135
  0.9557144097627274  0.3444546308342527  0.4728379991280783
  0.8568063512199579  0.4405985538204126  0.4574697632193869
  0.6160729640051245  0.9214798039377778  0.7176057575136160
  0.9623649817889760  0.4007658434895174  0.4673081292995055
  0.8072525681685758  0.6247546326836926  0.5040708417084694
  0.6778345077773409  0.9137972769819714  0.7494865351555418
  0.6655779418175085  0.9572273740124982  0.7927178872701751
  0.7262325426862369  0.9511917038607061  0.8164125282385920
 -0.0340829124002953  0.3138158297752446  0.4167398069863851
  0.5487804797315576  0.7922710999100666  0.6165078067584933
  0.1174975084400045  0.1593188218240041  0.6727898235598978
  0.0189544076161885  0.3914920300298990  0.0578774613846881
  0.3040928850294998  0.0229678296782187  0.0365624996570746
  0.1923658379197576  0.9430063089491419  0.1392713300173145
  0.2623009982519547  0.1852242702632124  0.5374485381338108
  0.2477237501656240  0.0067301980909789  0.6369125449473692
  0.7315500691226335  0.1285317067224329  0.0409755434668180
  0.3447362927073302  0.1190148416704205  0.5809210036728827
  0.3233099391942867  0.2082553514097583  0.6691509618533762
  0.3945435533903365  0.1887795294195511  0.7505765915109324
  0.3824594538625443  0.2326707790996791  0.7941910380807742
  0.6858217675825420  0.2388701964981514  0.0007705143128596
  0.4308801287034890  0.2700388207797291  0.8595115032992706
  0.6063046002744416  0.4135771377067148  0.0734160671811552
  0.5152132352802181  0.3542445257771236  0.9345639435494442
  0.5078599828041597  0.4558799846303069  0.0850767412906566
  0.1267094590711535  0.0378067643116654  0.5222233356925051
  0.4788147992632763  0.8028508645718768  0.5351427993580308
  0.6726505023261122  0.7000135676598340  0.4595500215369809
  0.8485107932361429  0.6449899973535641  0.9722002189861494
  0.6607936205719430  0.9493902499877690  0.5607480921625506
  0.3468659682850685  0.5701986715143711  0.1682838962258298
  0.3500432136415772  0.6232880001567324  0.2112264745696464
  0.1426790593049738  0.1579948947202536  0.9486469176798580
  0.9957656297539307  0.6731971640579804  0.0232728508957583
  0.2434707319064916  0.9254218357007126  0.0442035172924979
  0.4963799456036498  0.3808442440632354  0.8111952768582681