B  Cr Ni
 1.0000000000000000
    39.0487268126086491    0.0000000000000000    0.0000000000000000
     0.0000000000000000   39.0487268126086491    0.0000000000000000
     0.0000000000000000    0.0000000000000000   39.0487268126086491
 B   Cr  Ni 
 213 1596 3725
Direct
  0.4119135070332742  0.8499181488699982  0.4897137269912883
  0.9604425533807543  0.9564608516619665  0.6284020331244822
  0.5082242066402447  1.0134151637311135  0.4602707180511759
  0.6319439773400024  0.1766057800674712  0.4933940615378827
  0.6019819358235797  0.5634073625631305  0.9271635004316474
  0.1353795059088458  0.9598859503812196  0.3575566188390412
  0.3504283956545488  0.4419113619007664  0.2520660101076028
  0.3025099386127900  0.7466541389231676  0.9287211231486747
  0.9064119514490432  0.1114435308851956  0.5563430177015758
  0.7342696211683128  0.8912743396947509  0.4718240411456201
  0.3148205861441071  0.7027588917860152  0.0247701263207703
  0.4043995873364813  0.6927465307472704  0.5848935200784682
  0.3493528869666959  0.5492470172791892  0.1269869236013888
  0.8965538534312114  0.5847899907229051  0.4585204567622548
  0.5128942617542911  0.6156331465994399  0.1639559571496748
  0.5122797127467719  0.3743958815900751  0.5004853209597312
  0.5333422846767767  0.0739999166296283  0.5470820466045095
  0.4797994708110491  0.7622562223205015  0.0254681465254572
  0.6411946228749424 -0.0063969197507223  0.4598487552355484
  0.3231392640967169  0.4192367048092764  0.2798308038520988
  1.0671904633515357  0.1814983281490405  0.5855662245566954
  0.9454046793057406  0.2651359818650333  0.4124960098821063
  0.8730894630232359  0.6993886728694850  0.1523572401944578
  1.0572917054274118  0.9836514205541810  0.0381975442086903
  0.5757184681258753  1.0567225470773642  0.4118905410154418
  0.9905102705835717  0.1823252700623530  0.6315823010037214
 -0.0180728925975477  0.6002355970886830  0.5670338853115230
  0.8511382830762763  0.4494845668816603  0.3719322449170562
  0.2778140889997998  0.6853550597368728  0.4385082731008590
  0.6270341679034191  0.4897420728685822  0.9402152011668727
  0.3170320447164960  0.1054988501510745  0.0578010327284911
  0.4227881699783564  0.8413713634080424  0.0473197600500822
  0.9784045243343269  0.3968554549318644  0.3193923476882845
  0.3725233242150499  0.6299819159246288  0.1653433974110731
  0.8506843135913068  0.8555937856213220  0.0426893752191805
  0.1163340977275104  0.1182205794846236  0.3264228363960072
  0.3145498408939615  0.1774175863689868  0.5199566809342718
  0.6352590891670151  0.9778623311022181  0.3190363287060779
  0.7762847641563103  0.5590953006563539  0.5174041550929612
  0.8697059099516994  0.2080025150182718  0.2654003418784598
  0.8795266539553888  0.8890354923092246  0.0510000767465885
  0.5313826488056166  0.0544890806885530  0.2705562674288820
  0.2822635385703755  0.2909761209634583  0.4480544309885053
  0.8818392448647216  0.2898872682910297  0.4645073983998333
  0.5059616676268591  0.7091652800381818  0.5213216428875357
  0.4998128822380872  0.6511174005707921  0.4695333949800535
  1.0152157350547695  0.1111985376507146  0.4548345268768573
  0.2968899890844915  0.7311562799466989  0.1186789004361392
  0.5360425245124283  0.9993111798142217  0.6665389407130604
  1.0040183010799142  0.8262653345020334  0.4721597944005119
  0.4380004669697751  0.8433286405690248  0.1922185216496866
  0.1711324121195943  0.6069544096347613  0.0943062181595008
  0.8133120171535476  0.8541350615017851 -0.0298602088419228
  1.0062931360807237  0.5429210710768742  0.8308895372222859
  0.3030917926298248  0.0002329495418761  0.6709232797996927
  0.6280669187001474  0.9194082235643620  0.6613774044984424
  0.9154429065108872  0.9086538409520196 -0.0595126856662637
  0.7242882107148919  0.4119652842208766  0.5149396655944772
  0.0338836436282527  0.1733437881012003  0.8392053603749386
  0.6369430236319720  0.2372076623228145  0.0407191089766719
  0.6592856717230773  0.5632403415461072 -0.0043954133737504
  0.5326474664095558  0.5790741997173162  0.3714367716997905
  1.0184700631428514  0.2932041240621583  0.4267789742329449
  0.9027750641375067  0.5175046557090923  0.4932238202986199
  0.0190231020703728  0.6465787922754284  0.4288809863342682
  0.6168835553310076  0.4394796283753682  0.5217133359398309
  0.2077422959296434  0.8786732114092440  0.0248071767438730
  0.2269366684285633  0.5618307445557364  0.1483394982393917
  0.6266283804217258  1.0433867489260598  0.5200971278139020
  0.0806968768044334  0.2047581089429156  0.4082160742235196
  0.9332230872759791  0.0444763118154544  0.5934913256132740
  0.5986272498677713  0.7370838101957481  0.3401297516231923
  0.9559796696191492  0.2814565302707721  0.9695502118864432
 -0.0312575496282341  0.5555418665656131  0.7550671760163988
  0.4424258934830783  0.7564656899720378  0.5440923015910019
  0.6264472784385715  0.2469313329970524  0.6082891341169010
  0.9282948117252611  0.5494745731571844  0.8790247851352591
  0.3381885949923631  0.6267622114051783  1.0415306160694604
  0.5211609538945388  0.2010531677246054  0.4845922325926513
  0.1069269650601659  0.0232724878852509  0.2386645980228189
  0.8496674372191130 -0.0054430708914762  0.8973022902439712
  0.8371625314190358  0.1229138710104404  0.3031080402486179
  0.2132951029549210  0.6650547481799793  0.4941090051831630
  0.2832064749276528  0.6296942086288924  0.4992914517127884
  0.1911179067199550  0.2833428220746938  0.3607982640847883
  1.0106141101877153  0.7746598622500310  0.9648121230695480
  0.4864797611957614  0.7395449522610309  0.5519500420769216
  1.0069683530212730  0.4288998410028449  0.4989409217569747
  0.5947933093084128  0.6553647904443821  0.1944404531440394
 -0.0048792399100650  0.4691061421590215  0.7071204262239507
  0.9586974948069674  0.8168179692619688  0.3451082440998304
  0.8808736445418031  0.9289415865844971  0.5954253097808198
  0.9157343264169219  0.6806246342692073  0.4970233501930886
  0.6717291670438633  0.8282053325639558  0.0822196389096891
  0.2315386351391753  0.6517954121629372  0.1249735931238203
  0.8021728921918497  0.9077069835148212  0.0160620408704996
  0.8289923600732922  0.0198884409816528  0.7745640135010685
  0.8646330413788170  0.9776901061502651  0.6600537259575581
  1.0077179423432803  0.5007436776765986  0.6792354308954183
  0.8141223559003131  0.9814756099077241  0.5287230263287681
  0.3486186316503163  0.9465217902549873  0.5299490021774172
  0.5202435487197672  0.9417211763449870  0.5313257608572162
  0.7013391191043958  0.4866687381771847 -0.0215897873357045
  0.5248511361224721  0.9753276110015818  0.6997741868631326
  0.5921757488291720  0.9443445968397142  0.6743508480544108
  0.0523250408648555  0.1581286200124804  0.5474808938405777
  0.3249371452173723  0.6892438114234667  0.8670729787340224
  0.3670932290016135  1.0054649131277820  0.6243075548032883
  0.1059391313026385  0.9093330037939714  0.1541055698210826
  0.0961881792892753  0.6934975678174482  0.4461323063025658
  0.1060279849936145  0.1782921236788281  0.6100603386062596
  0.5681714036102590  0.7393270629569093  0.0439313646771783
  0.5593975289013663  0.3073541818661757 -0.0000189749064876
  0.1411396377528144  0.7172974192427839  0.4445936782478819
  0.6277024228144326  0.8118301125241747  0.0117862476532657
  0.6350783982636893  0.0325112140081801  0.3712394808467450
  0.3170646952666690  0.0436811000780003  0.1389319805778938
  0.2123003709767724  0.0552192437681594  0.5343208390709137
  0.2899916486848707  0.6439784581042383  0.1974299792790097
  0.6220942517813509  0.8659319905197322  0.4944662722914466
  0.8273000366880099  0.4429677669262378  0.1918289082112629
  0.2252886011571998  0.4111194991450399  0.0824924339056357
  0.9423694939301337  0.1602399266639517  0.4499112970525350
 -0.0319730223734292  0.0448392816279652  0.4576941521797940
  0.9562965048615438  0.4372541824395387  0.3236012227653115
  0.4710516073600012  0.1060845798313989  0.4146696293791427
  0.4954639242958744  0.6859117702841355  0.0351756099192612
  0.5973750041409128  0.6843036311852925  0.2918598565209044
  0.0000774848775327  0.1988009378347665  0.8511102870185360
  0.2650058851291313  0.5071681050319461  0.0995168868004986
  0.1252007371636359  0.1489985280854606  0.7243889452880343
  0.3074040419867416  0.5370166647937610  0.1850682995431136
  0.6718070588368921  0.8941603484623738  0.1288163204213268
  0.1679104924190757  0.5325027692048506  0.0786961984702800
  0.6155760959726602  0.9394211073212283  0.5209880116860582
  0.2579819396619233  0.6260054267035224  0.9084371432161770
  0.9402983108659831  0.8561252155325021  0.3532548048721960
  0.8168292226617233  0.4053601773597539  0.4872430772186355
  0.5673586368760773  0.8489589207450400  0.5674819734726698
  0.9295414514769382 -0.0236477995682668  0.9910911323025404
  0.0898157082860669  0.6338681711190748  0.3899696324763633
  0.3677660506966944  0.6815888746728450  0.2232774731490359
  0.1783009400136140  0.7080896965758332  0.5605684071668463
  0.3411480934162215  1.0289510384701266  0.4169311667394537
  0.9594772712001822  0.9408476081554616  0.3712782182993951
  0.3095228724625088  0.0891839321872134  0.5377136706016571
  1.0280590754745567  0.6201615436497847  0.7118723079247414
  0.5723016969790961  0.6864090194655706  0.4813523179919275
  0.4121477619977568  0.3138330529266810  0.4822137967421520
  0.1054005433456636  0.3434349708659899  0.0648899078277016
  0.2673398422436498  0.6243828242733122  0.0151082332977720
  0.8943536345979806  0.6610452232104448  0.1472507346458518
  0.7115443354578128  0.0561312544299309  0.4138395111505931
  0.5346732175579900  0.3939763353626584  0.5644950235255225
  0.7060321542360111  0.8236468976435352  0.0478398372221434
  0.2069862970190099  0.8097385906388087  0.6072026800123927
  0.3507204390454823  0.8155703172820611  0.1652435544304275
  0.5668034395460879  0.3174676647974465  0.5532964267425403
  1.0085666909928637  0.6826040179940635  0.4598794309019323
  0.8038569610891911  0.0608633841002789  0.5852674832857379
  0.7266627447383417  0.7289176868820789  0.4584768696736043
  0.7976841221830023  0.0472338625784095  0.4534134818911368
  0.6845805774885427  0.9367050657426257  0.0337908384664808
  0.7214458450691921  0.0143028628772643  0.4280749326015178
  0.0022422630097224  0.1515438760824537  0.5390133513518826
  0.8711155146860938  0.2761655668106707  0.9395618420218916
  0.2938514384289921  0.0808163189532961  0.1462705813743168
  0.5343337920145141  0.2978811593727454 -0.0695636226893796
  0.1393895857127916  0.0229028774321658  0.4621826443400406
  0.4109447625566161  0.7353563216417511  0.5177415193958124
  1.0560954357151744  0.5573434226747721  0.4514296318826191
  0.6406645471053757  0.2775177226545038  0.5799004413716283
  0.7897911823850047  0.8954058357066453  0.3879961919934948
  0.2739826321040381  0.4765952043902339  0.1335813967108776
  0.6667519371583136  0.2975840618322371 -0.0228912394797558
  0.7710270094764750  0.8913889187854357  0.0456342152544959
  0.5916340950876043  0.3686159359047647  0.4749836380349232
  0.6919065604931209  0.3247283840549840  0.0443803863914891
  0.1055877575930980  0.9503498206102088  0.4939834687619585
  0.1282181484149988  0.6512168057557387  0.0290131035348616
  0.8583359414141462  0.3120473759051917  0.4260670712399508
  0.5259898364911547 -0.0573229289319569  0.4158747275139499
  1.0084635185694175  0.9029875871377431  0.0368962549367834
  0.3447078989532413  0.6748290664796017  0.9486697325439880
  0.5548492099952225  0.9677963644884376  0.3899829674868510
  0.8970115236617543  0.6405279740524702  0.9778956981254890
  0.3577792621552138  0.2625533583088444  0.4619696401504403
  0.8951081017433351  0.1139667637216970  0.0479557061804090
  0.2347468213341537  0.4966646284568134  0.4363350425585912
  0.3019142544254820  0.7647991552070781  0.4274301815990137
  0.4799544535113618  0.3116883456090071  0.5498260798809352
  0.3671174175367031  0.7709532031077621  0.0852801467058235
  0.8256222822943226  0.0761508715100715  0.0423068964370756
  0.2199501922535409  0.6475867183411818  0.9214511221265738
  0.1132209690458769  1.0203125744208918  0.3675641885020902
  0.7517994887506558  0.4792470007572026  0.5713250939039748
  0.1129510510133887 -0.0137765092779368  0.3258331954293136
  0.3250911206383534  0.2283241881253562  1.0063976859874846
  0.3805237086415581  1.0158499618896277  0.4342928680433059
  0.1796480098527459  0.3654911517014791  0.3964508370963807
  0.8062638386551217  0.4805978698772356  0.1994589225973470
  0.3790678107861702  0.3859041952029588  0.4881452045648456
  1.0466720879716309  0.6670793283824334  0.5672955355039812
  0.3215768548787976  0.4238882796042960  0.5385167053675448
  0.4084873131069376  0.1048802086533592  0.6675551983887501
  1.0077492337853868  0.5379138628998499  0.9057175332700808
  0.8451583622286063  0.8734027451656173  0.9503043615104008
  0.8397113187010237  0.4923202897895058  0.5446049165608963
  0.3745250045649856  0.3685418544649322  0.1457145358249117
  1.0183081679353199  0.2905345251946748 -0.0227589488556686
  0.5553111009408218  0.5606456837707052  1.0242279496355451
  0.8794953549422442  0.8205768595457217  0.4937241159014580
  0.0536662607876018  0.9003820169102086  0.0278703272693940
  1.0142572985698608  0.6251094897201112  0.8087145590763419
  0.8369078202075710  0.8712276236833246  0.4160607738285171
  0.2460159694535503  0.5744841434368427  0.7023986968019397
  0.1441921301276918  0.5203999463186488  0.5084900499717654
  0.0844810268011335  0.7109493647806263  0.5438901031887799
  0.3186973698412604  0.8547300741243722  0.8572466422770855
  0.9225040245850791  0.4902408968607016  0.1101527104826772
  0.8687908247690653  0.4270137534793987  0.2242896245035524
  0.1235775803615608  1.0216764755577521  0.5915385726737989
  0.1156812694638022  0.6502030787194475  0.4799787558810860
  0.2502956295814831  0.7404985908626048  0.9044963269883532
  0.5395904788243214  0.8518357502832798  0.8235195490223548
  0.3042237766305833  0.5989905924169693  0.8285744048744960
  0.8420833327196060  0.8071346139752269  0.2053517702088787
  0.4359337875643430  0.8755503410374297  1.0057378747084578
  0.2021523327026581  0.6912433042070008  0.6693083018007810
  0.8344271452767140  0.7457665024948186  0.4467737753049483
  0.2494012440474027  0.5450249201189635  0.5986230548016011
  0.3289513365063258  0.6604539796529061  0.7732961653319319
  0.9919761432879559  0.4743196485309539  0.5301998858462662
  0.8845132102597572  0.6292049720108442  0.1020472835766684
  0.4867072965000647  0.8784249485324911  0.9677771436962204
  0.4876682083122401  0.0181766151939178  0.2556964958969147
  0.7314315391012048  0.8139039841980458  0.9538861846823306
  0.9093202092706641  0.3554296618681532  0.2109290748250895
  0.0890729582713461  0.1316796987615325  0.8218158429218886
  0.0986391768035379  0.9255172544512531  0.5444217497109975
  0.8596629448173172  0.3669888992308231  0.2424108240317921
  0.8529766270267573  0.3228445249336204  0.1980795361912248
  0.3766312565929624  0.6966150233370001  0.8445863277295846
  0.0985434665573332  0.0903306584271641  0.7792387535888712
  0.9537714410367317  0.2778612427806582  0.1917803113617921
  0.5953223106208231  1.0217005489806565  0.0201106799866889
  0.5549670406735223  0.9578224306726093  0.8124914217726060
  0.7276644444133613  0.7140893507672571  0.3074337888843672
  0.4150215580960886  0.9302778091564985 -0.0108259409358366
  0.4750090071622369  0.8424424995621261  0.6375864599164520
  0.1615905633118506  0.6845243163118677  0.9416608311454358
  0.5757061907212191  0.7881536745426546  0.2897341743900940
  0.5356152261794388  0.7613070573279217  0.0013713440445040
  0.4510816294988024  0.8851303678675031  0.0636316823076103
  0.1352330999017546  0.9357070396784655  0.4439451572807176
  0.3930710901063283  0.6521627565598376  0.7961460278332585
  0.0579584940340105  0.7580328702655066  0.6049792537685323
  0.0817155070220203  0.7065670676943858  0.6208545797970192
  0.5038660365492722  0.8021519091034407  0.8187612710892432
  0.2762960430620122  0.8364473854384789  0.9546966859515608
  0.7338252914372962  0.7898798261944940  0.4576477982553995
  0.1198137024654884  0.4978830653697956  0.8360901057351503
  0.7908375790649100  0.8221363485330913  0.2386734625002187
  0.3620678623470308  0.7731024959085427  0.9950062174668527
  0.2657157554259155  0.8023331105325832  0.6263426609316715
  0.2035190330129773  0.8882784410267307  0.9724680580042553
  0.0448838874697329  0.5052628337920272  0.5896458667024501
  0.3996523215276417  0.7386415477795831  0.6258914644525227
  0.3597093101659014  0.6949343641526370  0.6126577996047128
  0.0773590267085890  0.5853255900953559  0.6991237069339636
  0.0250882462280924  0.5757239943682705  0.7459076963226080
  0.7606290565341735  0.4813617307006969  0.2309677109388086
  0.0865708842539547  0.5689530629668988  0.7572316444928723
  0.4891876806313290  0.8457013698079363  0.8621972917749339
  0.6031041135701765  1.0033120611599189  0.4106838898094013
  0.8353214532098524  0.7457913476493215  0.2258627818001314
  0.8365180877638632  0.7595295938135377  0.3883834029840605
  0.3836574839701613  0.8756044723739017  0.0470192993957014
  0.3158834111390535  0.5530198551131210  0.7838345487213328
  0.2873423092464173  0.9256872688957815  0.7784521441648136
  0.1806017948691351  0.4605824915391612  0.7515977344756837
  0.2028087809366021  0.2831413476778665  0.8391936398468716
  0.1176479567328488  0.1968248070099967  0.7646867240906587
  0.4966580471556276  0.7163398249110500 -0.0083158710841740
  0.2970333574515515  0.9127468010733707  0.8404868366229594
  0.9012498053245974  0.8770452503469252  0.4937675902249264
  0.7915831955611244  0.8360640367224087  0.1768940663290101
  0.0106841845725826  0.4980421662067772  0.8595928515053760
  0.2070738410682043  0.1511120108010750  0.9719676507628093
  0.9453606637707863  0.8277281158452381  0.4002288471674929
  0.1213705484900243  0.0967863735266651  0.0110770480345019
  0.0986714850802531  0.1206727646962933  0.8844258798270672
  0.8939244665932063  0.8535267299265339  0.3844216284642196
  0.9038363498410993  0.8917965491110574  0.4287017564652034
  0.9550725802241457  0.8905303375696249  0.3980697197248366
  0.0589379044546486  0.0706413210841145  0.8790603095290742
  0.1235572959426363  0.4386467961993774  0.6284431531343970
  0.4431835157540935  0.8092321273642318  0.7967415084421523
  0.5748343201383721  0.6473678563158530  0.0432697641739721
  0.8447321885180268  0.8368252287172023  0.3103343850847303
  0.4929625407728794  0.8153509615181587  0.7590803001036269
  0.4123570647060786  0.9274222183141856  0.0481561961020903
  0.9581631508578468  0.4199972498188618  0.0285780084825820
  0.3348925279486399  0.9615211466128667  0.8460887351315436
  0.3437559193817949  0.9493550247067932  0.9064960183013364
  0.3543153468042684  0.9304450501414054  0.0234167449767820
  0.8036792833877494  0.9358007194750724  0.4306981965204830
  0.4093721546538622  1.0435689466238331  0.9510638184074274
  0.1156613455450121  0.2272967858349632  0.8709934987757194
  0.2205355732322856  0.8124098850346958  0.8285717196755469
  0.4410447529788187  0.6586530309685908  0.7591001910570305
  0.7775154807554523  0.6844300713668581  0.3346810622435599
  0.7313546111569916  0.7427581481436998  0.1862928535763078
  0.1944162821060265  0.7373630714803053  0.4606348527032715
  0.9347695298785189  0.6937238742266797  0.4442455720020744
  0.3995386770235791  0.6700379968570207  0.9655378525228461
  0.2552752975174136  0.7248290138002351  0.2044734704384109
  0.8692377404238111  0.5280167844232029  0.3090894378251537
  0.3428167253781269  0.6491048640491893  0.8317970206719466
  0.4033265324465120  0.9751019931603676  0.0839338682382200
  0.9657887539702614  0.5773488421532605  0.4635067136047146
  0.0794460719816582  0.0148919731466627  0.8947353037346377
  0.7818547910377358  0.7267954399056906  0.1534188877886543
  0.8447095604713566  0.8847696955676889  0.3595168961411469
  0.8546061247366349  0.6178168391409068  0.4687386798993878
  0.5024193614271184  0.9041920116677697  0.5758675500142661
  0.1930463299987208  0.5535663232260801  0.5766605831624405
  0.5950487275444378  1.0055297526941966  0.3437397883845728
  0.9915291401022065  0.7052290169454060  0.0583502884134362
  0.1465266467791244  0.7128673478712690  0.8148212303474217
  0.4818006730548137  0.9772346497904428  0.7306205237907046
  0.3281467465907572  0.3015279210250493  0.9798379379985577
 -0.0113018479681199  0.8086388569680251  0.6249541172842999
  0.6297754062004088  0.7898513618552678  0.1918623173440841
  0.2139659610174120  0.7581708866756309  0.5622789719875767
  0.5802791607293957  0.8504267487585638  0.2743763232520195
  0.4787507426693995  0.9124129486227447  0.2250841009969424
  0.1619232886514907  0.1992110622068848  0.7275708830871789
  0.2259206519374050  0.2271302024959439  0.8543880835295057
  0.8290186259618934  0.7302193875552009  0.0538041080510587
  0.1426173895849588  0.8469458019058379  0.6837370293857097
  0.9460058295884841  0.1691275219959517  0.1605976392249197
  0.0515831787790309  0.1686931736271956  0.1957386022695450
  0.0341718241101465  0.9958340044145693  0.7358104988827959
  0.9250536735310506  0.5666871485915393  0.0281023246571338
 -0.0010808314138486  0.0484185460352429  0.7494833514076510
  0.1574326521975946  0.5802646328604785  0.9419846828333189
  0.8649295150575793  0.9723067731697016  0.4527549005227138
  0.5380414711756468  0.9487593234224593  0.5838364842993243
  0.4744422831308739  0.8340484442757690  0.3003401601968440
  0.1941569946801919  0.8544376381349398  0.6495931096172586
  0.5349458747546295  0.9175599780138052  0.3620531838246420
  0.2191729388711209  0.6823036881353473  0.9670586119884043
  0.7705810142584624  0.6210976220220262  0.3551117969861640
  0.8828310858883668  0.6427025191712017  0.0335775385578423
  0.9839794740424265  0.6502554930400819  0.3058471201967973
  0.1533615976398947  0.2462305313108791  0.7722595647298831
  0.6764565158568203  0.6975049896179917  0.2365803810372936
  0.1894417582773582  0.6277758525580601  0.9625128989672560
  0.3231004150124812  0.7576480488073853  0.5452589579362508
  0.0647811343639702  0.1597209181641254  0.6998710132520822
  0.7381486710037005  0.1988094987299017  0.4215172867754295
  0.2631212045762862  0.2761081213746733  0.8587723105327948
  0.2757413114225475  0.2624838424295799  0.9166536511327494
  0.8628645744472480  0.4177673090326293  0.2824988608892832
  0.9161909358001697  0.4009138269645036  0.2546233099245023
  0.8894343558861761  0.7599606129537484  0.2937057156316087
  0.9168658281483612  0.3900494240676497  0.3165719928666259
  0.9568554557204400  0.3058162039398840  0.3005400236436526
  0.9543918959856137  0.2611084956091660  0.2533319097123042
  0.8954179692667916  0.8222326774324709  0.2772171389449405
  0.6414927565742640  0.9759238098247587  0.6655410222675610
  0.1097641816990704  0.9162515425271618  0.6057511022908465
  0.0573012122926185  0.5063172883507541  0.8184719431368291
  0.7710726029189847  0.5896076173474087  0.2523309110930633
  0.1098430040475560  0.0775356749518787  0.8404941395254318
  0.0701569998491655  0.0272293212336383  0.8341892846206790
  0.0201080983725091  0.0527504695203550  0.5360686582192800
  0.0335555734795320  0.8131370878943477  0.5862857688205357
  0.0778308271518911  0.8691202388503104  0.5864336715325341
  0.8104038562347731  0.2104226615632840  0.5544473106838641
  0.2049380991693601  0.7047401001065791  0.1304980750415694
  0.9925102430705982  0.7392643251647407  0.1649721746090402
  0.9294770650821825  0.4939314166372645  0.4017418501584713
  0.8607074192085086  0.0240069908183149  0.9433479545513406
  0.6850804999939532  0.1564904394863902  0.4681289090648805
  0.8518533715421762  0.0949684768887134  0.5806433921433255
  0.7533184626423046  0.9459490124308909  0.4772215179756058
  0.1741670413438690  0.4769997288913493  0.0805727841320558
  0.1061603556415905  0.5722509304896350  0.9794371220382012
  0.4756167455622692  0.2309642082513104  0.0985171416583165
  0.8717583651363813  0.5164337732318190  0.5950300081271930
  0.8824271199374925  0.2163111219598029  0.7430342966928337
  0.5285047554283294  0.2211159771085968  0.0604740347205901
  0.8840030491684836  0.1866361120231986  0.6381099264735147
  0.5731372732003673  0.1256605599051395  0.1028894880430517
  0.8160301652836766  0.0757251540073991  0.6874044054243128
  0.9154434740074531  0.1144551602729238  0.7140056147311522
  0.9259670376820641  0.1007637580906778  0.7739955049335887
  0.0494549478902973  0.2299770251869077  0.8490506227466396
  0.9246827181090111  0.3849006104779647  0.6813088335284241
  0.9578918537567220  0.4225565826068676  0.5262175315352663
  0.5982218595764154  0.8764227974758851  0.9471812332926267
  0.1553067917910199  0.9111541116430305  0.5698943669918946
  0.1546187701484801  0.4641593956245914  0.0203489967310247
  0.8044732179418460 -0.0017863035586247  0.5784567239491224
  0.1756959521018096  0.4063501921655873  0.0426133179490145
  0.2901295096429998  0.3936687018395084  0.0154105500357777
  0.0308387864533303  0.2271297275112226  0.6252656244180677
  0.2120102218357176  0.4502073985688977  0.0403965948933714
  0.7761532587194491  0.9877697304225367  0.2619476072213195
  0.1590497350715080  0.8897738894693582  0.1722727853513693
  0.6394977043221723  0.4938706764692691  0.5170387741609599
  0.9276460963504531  0.1336575599814884  0.8800536418239766
  0.9951558795085848  0.1120902815873798  0.9617342004825915
  0.7625487408489074  0.2037824734604015  0.5919522720650771
  0.3644428883098273  0.1906191336667633  0.0164115418069632
  0.9031317815651440  0.0419036136952659  0.8303311634354442
  0.4134020143420923  0.1575111630325661  0.0387006314043139
  0.3982190790090125  0.0866960083620103 -0.0051615321361174
  0.5103330264374457  0.0864450510686575  0.9762091801565000
  0.0009862528578531  0.8147864306019905  0.0854839186795545
  0.8197715757716165 -0.0269215242037258  0.6946190790780460
  0.2281942927039841  0.7573799029879887  0.6184172200166917
  0.9509546167951994  0.1967181273474660  0.8239423082200339
  0.9396550587672042  0.0908258163049828  0.8347440466031785
  0.3746851661312546  0.2781538399101672  0.1057219419305382
  0.4704243012760950  0.1709746820916775  0.1135280722840775
  0.5732509070451882  0.0757479803266674  0.0589311223418641
  0.9245150980267837  0.4172111763111684  0.7888440331903835
  0.4905081445113775  0.3546803932017932  0.4520457753081272
  0.7919817853536267  0.4758062789394328  0.7915393993047075
  0.7322755351677748  0.4547688810470742  0.6641657794941667
  0.9095979322072403  0.2782400792894272  0.6881890434290715
  0.8405027010522632  0.3027038123777850  0.6065923569476647
  0.7819375561453550  0.4637766209441409  0.6196037392423955
  0.5850459750936357  0.3743685465244612  0.5650023231088052
  0.9846065756416056  0.7080496694186784  0.8976641459194212
  0.9474888228890043  0.6597497772674766  0.8915685117452736
  0.4517764868579057  0.6343442731833314  0.4096848736061134
  0.5012129525405764  0.6048621238926510  0.4407048605972369
  0.8019335075254725  0.9289566591757441  0.2682773115997535
  0.4993290693471209  0.5484742545590040  0.4605513835953018
  0.8465365045108982  0.6042103747838025  0.6865825818715066
  0.8092014844602219  0.5536221114305367  0.6798759404833243
  0.6012294821707262  0.4488662222785852  0.4110755066896697
  0.5848182215876259  0.2624692204258430  0.2363415997397702
  0.8447966692178276  0.2643139697408959  0.5008806593345637
  0.8855469834335691  0.3203005491911559  0.5101943846564904
  0.9293520749353884  0.3584662550100204  0.5730780407308469
  0.5195220963707035  0.0989956189611795  0.0939192438067478
  0.7307124586189154  0.0950514220209415  0.5420924881857512
  0.0081841999206783  0.3502992461409724  0.8192296292716098
  0.9612790992952047  0.4646192545058046  0.7956503564460281
  0.9347275794732954  0.3716453483272306  0.7394578570915504
  0.9585279126861085  0.3139195616973529  0.7540536704420789
  0.8745870251502378  0.3805329377464236  0.7192174539930818
  0.5520043190929216  0.0178349208987510  0.0579431892953267
  0.7859342776914338  0.1067782249115727  0.5588669407526879
  0.6732653078614241  0.4377226115660384  0.5302165287164912
  0.9801558435169450  0.1676831597982890  0.9433942397132608
  0.1352667590928585  0.9531894731816182  0.1700062807402416
  0.7196978209430673  0.0060187579991653  0.0687792908172501
  0.7428915271290577  0.2247046203237346  0.5290001977633126
  0.9719730242688490  0.4185199924019269  0.7512858134380767
  0.0448032605188342  0.7233832380566230  0.1287724622765646
  0.9019641280973669  0.2919417780733193  0.6297832001892130
  0.1443828368241540  0.6765660778117286  0.1241082903885178
  0.8110226690019693  0.2392245708677928  0.6608486753569761
  0.9572988687693591  0.3456824961273252  0.8596765366073450
  0.7880198194366799  0.0747372757811220 -0.0417603413880452
  0.7407966548407008  0.0369538752556815  0.8957962962125878
  0.6799625983190595  0.0119151666370799  0.7665655125911193
  0.9340371632407060  0.2124004211493289  0.9793757089452538
  0.8767970518540178  0.1741968122796257  0.9676717106567533
  0.6168432825808284  0.0528345683271659  0.0842016087534686
  0.8180965431196013  0.1374447655615131  0.8998872363931355
  0.0133624839150172  0.9407683503037596  0.2828256453278741
  0.7796359683507351  0.0541459057089010  0.7911049186909640
  0.1063015420809891  0.8446237590091520  0.2284772059532825
  0.6671117740795406  0.0232858315080194  0.7036629293057630
  0.7186787539344177  0.0310547295020814  0.6610788029155645
  0.6637197533878234 -0.0625113083138585  0.6187167083888639
  0.9429874624974414  0.8249020857168767  0.8672801072883540
  0.8763893813618858  0.8177761493802618  0.6752521109671832
  0.9561589576152927  0.2294640671643597  0.9335489059234542
  0.8442990467346689  0.1981124062962238  0.8428131202039317