B  Cr Ni
 1.0000000000000000
    39.0487268126086491    0.0000000000000000    0.0000000000000000
     0.0000000000000000   39.0487268126086491    0.0000000000000000
     0.0000000000000000    0.0000000000000000   39.0487268126086491
 B   Cr  Ni 
 213 1596 3725
Direct
  0.5640568206792972  0.8278236966280754  0.5530492029827183
  0.0089514879751400  0.0981761764562402  0.4760999487956641
  0.1632186657660347  0.6299999238458823  0.5059314606619600
  0.2052253795112260  0.3628514003104298  0.8567482494698022
  0.9328580416656049  0.0222962813798367  0.3149790197673832
  0.5725451175119778  0.0563543966366395  0.5074160592819436
  0.7294388563764939  0.5851511201128627  0.3883553649665105
  0.8540084672961058  0.8784313854015577  0.0318979325559919
  0.3597321353477436  0.3320731008807572  0.5083473896057827
  0.4774623268966605  0.6008339011921480  0.9891147876734233
  0.0936095096165386  0.6924661379317903  0.4479689879819858
  0.3324377847464661  0.7754249574643205  0.2265836353552736
  0.6029564146526200  0.3999141495969851  0.4128944901238327
  0.9355512984528456  0.9485256595761024  0.1092776902666089
  0.7355102192356976  0.3468956932617367  0.6009820363838555
  0.5222547641787725  0.6254987012077059  0.1790784790282766
  0.5128009940079779  0.3644148570517042  0.5002323300422274
  0.3012252700243189  0.6677316622628970  0.6759618009951809
  0.3195717073217653  0.6959906821664120  1.0243182188468949
  0.2567076156652918  0.6901296789510204  0.3699079984588685
  0.3348568957112645  0.4317147958668562  0.2745904990149522
  0.1927828077041686  0.2446888515440103  0.4431248054011789
  0.2442133549036618  0.9845549941194778  0.4544252864521120
  0.8681712100364849  0.6957436352782883  0.1506502152052232
  0.4410678980072660  0.9475885755993202  0.5135129000835508
  0.2304291376983942  0.6681816902833051  0.3972395983371951
  0.3181164435004394  0.1078654981118871  0.0610363264304770
  0.0336042901661233  0.0907793984202390  0.2648127384340025
  0.7583317173688839  0.1729722274249942  0.1257514875487115
  0.2910432091913556  0.0932924519342442  0.1468041170319298
  0.5271996848267281  0.5146621527053783  0.3882175148127923
  0.8334927340136484  0.4005366645701851  0.3236554178720407
  0.0201732884598518  0.5746746369992421  0.6782716978919928
  0.5054059853980515  0.0556073614531769  0.2842103668118259
  0.3494307997408988  0.7159240601578365  0.1839244279028652
  0.6784799232735126  0.8426481093521131  0.5295045901901458
  0.6596349225764426  0.5596270248212544  0.9954696798832169
  0.4929234888178828  0.6569375538887470  0.4744121435872610
  1.0145703876613490  0.2976341191454736  0.4245793849128425
  0.3239232969525793  0.7490086338382094  0.0910061949405349
  0.3218209366383504  0.1639768855492967  0.9417529126582341
  0.0696088500481133  0.7898359313138262  0.3914537369131690
  0.2439726199474276  0.8979881087207857 -0.0012713585842186
  0.8397200048856626  0.4525586976104293  0.3933415377468602
  0.6004603363650481  0.9048213816381918  0.5186019409605261
  0.6257036529557853  0.4907481092278237  0.9340349981729555
  0.8978263008390156  0.1131220520578817  0.0775622723383500
  0.3450773628757213  0.3003165711637670  0.1849356513118809
  0.3346319428093155  0.6170284717092258  1.0386957654541755
  0.4490835739306582  0.5530869708738482  0.1572562657106861
  0.6273615353983043  0.4365469556832107  0.0516879382866636
  0.9870952327793822  0.4441910692504046  0.3073348904050198
  0.3184101321431983  0.6776071212556862  0.8626478275753803
  0.7038916644713121  0.4891950247513263 -0.0268496621943554
  0.6001297887983916  0.9751665599652557  0.7096940685496281
  0.1589414684872948  0.3470208393086306  0.1367638923992463
  0.3216837175807541  0.7494124575473607  0.9216492754882872
  0.9070400944080544  0.4982251941330700  0.4066808862307150
  0.5313193809159839  0.4894977849586586  0.1641515975696821
  0.7264764094364173  0.2562463104469707  0.3938306865062162
  0.7205027953712513  0.8849165855481913  0.4736248582709569
  0.7244778686677787  0.4180001880283108  0.5067253738803507
  0.3996782217107922  0.8006454796733462  0.1864719541588859
  0.6913435272025896  0.0324705624456290  0.9329843347402155
 -0.0013243534321546  0.6268252656661393  0.7282027625121550
  0.5258714153822115  0.7068505604648250  0.3180674697440156
  0.7157940404498673  0.5925158436663200  0.6685652573293906
  0.1076790460366032  0.1791754476984868  0.4376213691568926
  0.9304756447287689  0.5509193963802311  0.8770682757461261
  0.9473293460764077  0.2613615844105506  0.4151704156370221
  0.9265323868045291  0.9396940350407408  0.6216854411333994
  0.1143134424199909  0.0165359902655107  0.3666681016200044
  0.3879431649027041  0.9617706495909706  0.2148342496963514
  0.8004001552221569  0.9234197705271879  0.5443328967376679
  0.9768556054698420  0.7003123242199778  0.7959985569062783
  0.1658257430453984  0.5756893089907220  0.1384005407415523
  0.9933900862013285  0.1915656219684477  0.6308066439693918
  0.6293341036844038  0.2524240012420745  0.6088916298613561
  0.0062121938440087  0.4836301680802568  0.6886388888666179
  1.0094536372749618  0.5461372476208158  0.8309262591635406
  0.9281058700936673  0.8226237737245078  0.3442321296570269
  1.0832381585761548  0.7187091660796460  0.5690714093728413
  0.9225781199822883  0.6741840630453060  0.4991769133464963
  0.7015717644441635  0.8254774347677366  0.0710147258110378
  0.6656647581393352  0.5769452157002123  0.7660746002771628
  0.3023832154603354  0.0116035131518903  0.6736586795877796
  0.7282058955751628  0.0306662932904768  0.7261119334771726
  0.8473825268044818  0.8389169091614005  0.7545901152533210
  0.3773142528478834  0.9004773404032851  0.2699982071331019
  0.7276469507552423  0.9387047844872506  0.4662272707640810
  0.2297383369352063  0.1871807610926413  0.6007001488279471
  0.5994489537717718  0.9476497471689057  0.6696911086173931
  0.6370913588533248  0.6225534145739995  0.2144282840749039
  0.8300564470050468  0.1257877252533836  0.3066520662659047
  0.6253372076648240  0.9849880302397791  0.1398659343126968
  0.9386326569191314  0.9707492309182412  0.6529752854700234
  0.6884242219610527  0.5610434891651686  0.3823557952981550
  0.9820940837527844 -0.0095516889488436  0.9528182925712235
  0.1021560297802461  0.5558841900558421  0.2988988275372319
  0.9003526887414650  0.5206657386219045  0.4950473190190846
  0.6337247269550393  0.6655609350133604  0.2669288668704378
  0.3921838778435421  0.9807362799565328  0.7492451952187623
  0.8859336881748765 -0.0232983485521837  0.1643194687944805
  0.4855193776476683  0.9761433089249115  0.4289785893295411
  0.0253798392237523  0.6148648171984958  0.6942657194672868
  1.0401258623308163  0.1424212483762421  0.5523320291432466
  0.4246263429616625  0.7415104291885688  0.1208641332422968
  0.4914736356938992  0.6288114738781564  0.2620849166921989
  0.9630930693517307  0.3717821096170282  0.0650392266455735
  0.2882569003160609  0.5253278622023637  0.1783595396954928
  0.8418532175765205  0.4970753418551599  0.5413921792859576
  0.4594048495152706  0.5335629201950498  0.1964505259620029
  0.5718458005591107  0.3246546557876984  0.5569464757874378
  0.2039769139468626  0.2956689571407514  0.0571450894407821
  0.7746196257097039  0.8972316629345698  0.0434168670696851
  0.9822546029668332  0.0679063015668308  0.5472829077778212
  0.2262664934652537  0.6492279129172943  0.9159350020487596
  0.3109824265414853  1.0671819135802383  0.5071125514426288
  0.6460070752106836  0.9008952969740680  0.4304844468338855
  0.5732826268778788  0.5889110520881516  0.2796645311900235
  0.0822066446027025  0.3912456722009465 -0.0130422595801397
  0.2281516503340066  0.6567722087343599  0.1824143439556367
  0.1773521978744698  0.3630967427508971  0.3985318261139540
  0.8529836121121895 -0.0049664170671685  0.3305738681598381
  0.4757925667811152  0.2904947236783769  0.4534032959339516
  0.1188049373198612  0.5493917885577354  0.2228740992427139
  0.3371472898470655  0.4390461601354219  0.5444782693585659
  0.2026016490055437  0.1647787881940134  0.5732520657967987
 -0.0349820066605305  0.6263098819408548  0.6411577897989185
  1.0023405806367338  0.7769742719378697  0.3767030978438239
  0.2302839984346130  0.4962823314707532  0.4335895191326162
  0.6184245435369158  0.3438086697819134  0.1965944666509304
  0.5630977777021596  0.3146848919902244  0.0062876630036153
  0.0979422636474667  0.2077708901565327  0.5347065259885629
  0.5543081309385874  0.9477378483407997  0.4407190113711348
  0.1158913482570072  0.1753872411745704  0.6695022948509587
  0.6457868814560437  0.9517949013179975  0.2154712463511093
  0.8200538855304753  0.4102544657427052  0.4855368125028740
  0.6344561378452052  0.0422816482246425  0.5184225847793068
  0.4779624167446351  0.8874905805452460  0.4456012527081177
  0.3019724780916548  0.6570667344186609  0.2304983163519563
  0.8122027674713321  0.4527240213219245  0.1945571190009789
  0.2118759303666532  0.8555265750404645  0.6609401673548633
  0.8434246817493172  0.4752013876131125  0.3137010174671486
  0.3582415282624822  0.7160148137477974  0.0935187893623922
  0.0137419926841019  0.1936279493967658  0.8472712297494185
  0.3157224797005048  0.6360960613902680  0.2666299099734044
  0.8144096610541462  0.3922097556515656  0.0041124922115015
  0.4550003176095989  0.7503875903181638  0.5988355145852545
  0.3775135994462316  0.2185318401400020  0.4523087074799443
  1.0062181375689785  0.4285967458251834  0.0170130227503097
  0.1738900053114913  0.6501219807345178  0.0483436175004313
  0.8910771557169910  0.6588079245954069  0.1445155027092712
  0.9005020774741734  0.4644438318296102  0.2078020350706830
  0.5765174897770833  0.5794035332882980  0.8055757721470284
  0.7133026447447638  0.8186941510740313  0.0290343315602496
  0.1725661516307744  0.7605788361058455  0.6095701474844977
  0.3767100790893766  0.8901331652196421  0.1443949615832925
  0.0988692850971095  0.9079012993266797  0.1534016211638202
  0.4432504690021187  0.8502893348952748  0.1408387781684746
  0.2909871355710241  0.0493167780054393  0.1488631059260336
  0.3556863514838251  0.6761622822067209  0.9428003449143939
  0.8897464140499237  0.8950324972720572  0.3632336651541717
  0.2736750296568581  0.4692465829187923  0.1276960534570603
  0.0187983237015751  0.6962200213038424  0.8610422771799203
  0.8013910542637543  0.8200163075289865  0.0256547695211781
  0.5813216662829402  0.3645008709437962  0.3933803448551124
  0.6859510015609943  0.3112378983737572  0.0404881490928578
  0.1267769026742860  0.8628632203066966  0.6288228423644245
  0.1945142251177579  0.6332237021889107  0.0114975492926432
  0.7918960429412440  0.2170767840706532  0.4377940752753875
  0.4781717686200366  0.9204160570871331  0.3696755589187573
  0.2269162181337913  0.3306810808119798  0.4818172466959698
  0.8466967033546132  0.6538780055757119  0.9477478283194744
  0.6831796432443469  0.9353741523709328  0.0299667607956849
  0.2967736429927678  0.1014278221969119  0.8183953364029399
  0.0005291615013998  0.1566596496061358  0.5367713492373158
  0.8747608288719269  0.2834387827893534  0.9460835267337410
  0.2113140868942871  0.0831523985397779  0.0633893868451954
  0.5375584684519147  0.2983353561731481 -0.0681163558647822
  0.8173131310987575  0.2376200014712797  0.2426918877129452
  0.3031927344874387  0.6403925358379138  0.5671861344414211
  0.3110097077594077  0.7656740657488467  0.4210765007066831
  0.8143447080514328  0.0789370408992958  0.1059323895934821
  0.0534671854192477  0.9204603788464467  0.9497494727691620
  0.6426912080397916  0.2845411147854242  0.5813620177536784
  0.0623414821957809  0.6724765500475164  0.4736448067787042
  0.7476844069321761  0.0113130382659838  0.4407450813909696
  0.8641643493812451  0.7987599874513116  0.5233948980080639
  0.2052672099830146  0.9166840228283502  0.0112699986240418
  0.6328220633399720  0.8676822882193270  0.1351042996612319
  0.1793536246049177  0.7056107855962537  0.5613055490144833
  0.7106931791461972  0.4338821112575205  0.6145049963732997
  0.1824587225231159  0.1444371202301238  0.5395456438629173
  0.2042105659167742  0.8873918326578236  0.9745783531444426
  0.6304366641457618  0.8705869445974476  0.6930185735027382
  0.9144496670056969  0.1529692382773949  0.9585234195292015
  0.5631022722113294  0.3283767155743139  0.3660426375577759
  0.0626649418622233 -0.0647011500055547  0.4013952241491183
  0.3400934849162520  0.7289257459942126  0.5530147886411141
  0.9699861595156724  0.0868472320723437  0.3490100882454893
  0.4180351521250256  0.1055949927798603  0.6670143907312978
  1.0098334940516855  0.5376681035059120  0.8984193740946270
  0.0524655495634870  0.9069329082717154  0.0230323841001888
  0.2760150192406848  0.8420787038996688  0.5891816464131026
  0.7392600188995740  0.9676229262137763  0.1268418453686845
  0.8134467254203206  0.8172190428573430  0.8439110902947577
  0.0998117639367691  0.6457864331794011  0.3866245118658650
  0.3694503616434852  0.3694897596486963  0.1482695820609140
  0.5671623279935899  0.6624891493975840  0.7819925199879876
  0.5370634000766547  0.4162002845385840  0.1303349818930703
  0.2882244242785119  0.1150593970992354  0.7571411721473228
  0.8872426395430824  0.0221781502484512  0.4605141943300417
  0.1151134551846391  1.0010853303986700  0.5862940884597373
  0.8819037321501846  0.8210519167026142  0.6754521721754084
  0.8821325777367326  0.6262895139199194  0.1000086210992706
  0.7204882972481665  0.0052461033156446  0.0840038485646310
  0.9701369482345625  0.4937443348876683  0.4617221213878441
  0.9920002509488660  0.8524223634154472  0.9037834820586617
  0.3324184734097350  0.6626100813907376  0.7741720017037852
  0.6633490613316086  0.0358880225903531  0.0472294368323401
  0.0608100448139337  0.6297123638523929  0.7379513222170707
  0.9694754370902456  0.9132629266051775  0.8856931890484629
  0.7260832324134404  0.5909443181254190  0.5323920574451440
  0.7059441989307457  0.6525631356671171  0.5182134825682349
  0.5804107345220028  0.2465209581783899  0.0749536057295129
  0.4363272627879048  0.3928126114019189  0.2022131428039973
  0.4391944232832676  0.8754851327567708  1.0096166123197907
  0.1914734559103315  0.7348765976132422  0.7189608585666835
  0.8309125589453736  0.7247447970615353  0.4538484373450875
  0.2975288886984383  0.5835694990065025  0.6621077001519896
  0.9296723256571067  0.5493146604728878  0.0875043803466239
  0.0930337559442233  0.7037283740519088  0.5120337189154627
  0.2494751941260965  0.5783921117554881  0.7003153850590622
  0.9230765082266490  0.7326463683727271  0.8122355444686836
  0.8969189039007470 -0.0457000225159739  0.9599272132823953
  0.9013223846794416  0.7903932875169294  0.7985021385737041
  0.9067725888022752  0.3508743039658243  0.2109997143921323
  0.0884513871718648  0.1356894279891095  0.8236038600073815
  0.1078520462427222  0.8949349569357661  0.5467982539676651
  0.8577081328407077  0.3673589645227003  0.2432584217721822
  0.8508373957346941  0.3214783730047645  0.2003421639451246
  0.3744685124735370  0.6988641400302722  0.8487386049719825
  0.1007454183331363  0.0929776726415441  0.7779724830644951
  0.9512829276334954  0.2736000805927068  0.1944185040546259
  0.6109790578454662  1.0034672173408723  0.0281848844295092
  0.5696942300807286  0.9499242773552464  0.8719595830032021
  0.7226998028333534  0.7087581183730310  0.3066886244056865
  0.4232463584283775  0.9342933888285385 -0.0084517374204628
  0.4929988127818466  0.5587140682464043  0.3973689783451458
  0.1151586543497827  0.3021448552702069  0.5305502805075819
  0.7899301658747955  0.7482509607966004  0.5397465295577052
  0.8459400290381981  0.7497729447369097  0.5609135181118110
  0.1481135223516152  0.8429201093622019  0.1265965183107837
  0.8856842476580193  0.6836795683880766  0.8028041881271278
  0.1998464511986739  0.8018865352809309  0.2166228578991829
  0.9672605716379264  0.7704147731648435  0.8840917951776819
  0.4446173294456731  0.4131688033287498  0.1307293387391281
  0.5065764123481972  0.8043451353378616  0.8197976210162172
  0.2824295910084003  0.8359523892245523  0.9554558881761070
  0.9759745652890656  0.4707408470598219  0.0758662379756976
  0.3909327264943087  0.9301353193034630  0.0374245183203456
  0.7843748201667067  0.8147446341435852  0.2402805805765495
  0.3562421200319418  0.7777809786633405  0.9940950471099506
  0.3785565539858344  0.7999761340993486  0.6083333284244304
  0.2356175534776845  0.8383284479887917  0.9918479369461258
  0.0441242618504977  0.5100116245111752  0.5889989698769400
  0.4008206695317635  0.7438800531506883  0.6237672255127902
  0.3676077659118711  0.6986658771459103  0.6003170051371804
  0.0756418957010596  0.5850304242354114  0.6932459364593274
  0.0275038994870985  0.5777329365165901  0.7343045185326396
  0.7591701569704314  0.4765987792958750  0.2243463407609965
  0.0881096874049293  0.5730107168518208  0.7529946531947932
  0.4931857699331345  0.8487156947615657  0.8642500101803064
  0.5893624144742013  0.9803165706416527  0.4124956917851467
  0.8294939079972320  0.7387770957485468  0.2253669979963465
  0.7742613251635585  0.7215263627474928  0.3779325172768869
  0.3922023561395991  0.8703890195815034  0.0519838462650774
  0.3198347503256490  0.5560482827391118  0.7849134940678495
  0.2906956345929436  0.9281230164500693  0.7792187708209144
  0.2226573887534069  0.5136643229446851  0.7568011537922419
  0.5373355161660677  0.9702768241119816  0.3363054274114007
  0.9077058269182052  0.9289961899523091  0.4430165070428716
  0.4925670496487681  0.7177648653704481 -0.0056580465375982
  0.3375243314598388  0.9640423897815117  0.8474229185123261
  0.7973522628247202  0.9307488797523168  0.4375607547764875
  0.4444719225755300  0.9050682742687272  0.0597534536320906
  0.4132886084724801  1.0495556984255132  0.9508090717794943
  0.7855767448402202  0.8283717115629819  0.1792424554772349
  0.7287200474962480  0.7815967179973817  0.4603546600339977
  0.2988455574098878  0.9153897651821142  0.8417211677904388
  0.1759768296730676  0.2233932759807988  0.8938162431343479
  0.1012280502192192  0.5575404573287410  0.8170032056951609
  0.9011495788647372  0.8786534922747397  0.4834129046281872
  0.0261362099334947  0.4889937026284801  0.9158224767420400
  0.2026778705256427  0.1526926273500559  0.9728308021911649
  0.9309188737802415  0.8190886839986512  0.4046099634312493
  0.1048719765515817  0.1097912026877089  0.9452410670160970
  0.0973363116181557  0.1248135453429159  0.8843365015327235
  0.8850593005973059  0.8425745349440291  0.3816495024670915
  0.9127487267337324  0.8787416079123708  0.4188631021028645
  0.9752723152273666  0.8606146051985261  0.4082432683793048
  0.0600013459200515  0.0753828862641931  0.8779263707220120
  0.1236225998520887  0.4390622114888981  0.6219703940477488
  0.4467649052331066  0.8115816556040681  0.7975868552754057
  0.6216123278320214  0.6543918170983098 -0.0033866563956564
  0.8365818165793119  0.8280641940694872  0.3132906509321706
  0.4962397614067984  0.8178600295299556  0.7601583622209357
  0.3459821054072108  0.9522014274933417  0.9100680081304136
 -0.0072397113142497  0.8162791959832258  0.6269839457742693
  0.0381245769438233  0.7966851627859406  0.5360360576887022
  0.7169847622865163  0.6463767945933759  0.3220049278364209
  0.8622978970184554  0.0195404681249862  0.9482391484099765
  0.7061997819271172  0.9192446165394222  0.5203386837803059
  0.9210679328579914  0.4818901712469000  0.3581753186553817
  0.7854916122945186  0.8093496946840181  0.4734491852200556
  0.9849934270068541  0.7358919115001122  0.1651056099952856
  0.1433418243222665  0.5314437825623037  0.5023496731338771
  0.1922825923200358  0.6941523758392210  0.1960747858390288
  0.3212662140096762  0.8588673916693413  0.8566036465467481
  0.8153352070219702  0.2116090871506223  0.5558089429301807
  0.8609561300089965  0.4290206635951618  0.2240947205445634
  0.0912530329018821  0.7370240986102565  0.1998338303997793
  0.0487413695180810  0.7527594041134468  0.4815152833081840
  0.1513123437838440  0.8892574532703289  0.1704090687868568
  0.2574675120071644  0.7434006464672667  0.9087774446507210
  0.1453507954895282  0.9104133306480090  0.1191549598804233
  0.5427822820094333  0.8538807287492466  0.8254022794976180
  0.2712699750850298  0.5497839787333250  0.8224231299403090
  0.8347459709581402  0.8025578979442813  0.2050419090298909
  0.4970516125207501  0.8679819712398305  0.0301248605083294
  0.6743107562235267  0.8255488706161058  0.9268357984313368
  0.0873044013274950  0.7072697614058177  0.6237313474094172
  0.1924491387563425  0.5570174617439472  0.5738155690426995
  0.8597534950798443  0.6047851630713729  0.4521548654302058
  0.2201126656479409  0.6774059340598523  0.9694797084248681
  0.1871865098286204  0.8989463622065889  0.6880656390772497
  0.8175177079611067  0.6008075280567909  0.3182922463813411
  0.8296362372545145  0.6610701281638617  0.0007298198871001
  0.5611457801044074  0.9324966555804816  0.7069784803810100
  0.1542019543291200  0.2495395866521212  0.7720793167077046
  0.7955351183722315  0.9187095781338229  0.2698224998495511
  0.4831085755812354  0.9152208398150997  0.2209706334385585
  0.7555993465523334  0.9924910804811933  0.2883325256713367
  0.5779962102999583  0.8469931052041688  0.2712483910697845
  0.2460961401727206  0.7570662195883846  0.8480499531857179
  0.2256821784504799  0.2288001005153185  0.8556957577176455
  0.2781048551453970  0.7563309619944708  0.5854175270745580
  0.1504735308938475  0.8507634872901404  0.6837539068283435
  0.7244119687093498  0.7380170498112240  0.1843452910447239
  0.9466969221458489  0.2129748343271876  0.2070927052862640
  0.9310926565514900  0.6915908764704962  0.4404736985797234
  0.9301602898682531  0.5629290908443932  0.0277622444640620
  0.2442488799126264  0.7317541668467262  0.2043138799958043
  0.1603405118559057  0.5818434072242219  0.9431857409984198
  0.3470321019263972  0.6490207409758035  0.8294316269722478
  0.5401490003996879  0.9552744198406016  0.5773477762042618
  0.9659403001754457  0.5592549328117636  0.4488815331516883
  0.7749844877738121  0.7220583040180135  0.1509670784546577
  0.4444315473407954  0.6614487602136300  0.7579409802283475
  0.0667872483066092  0.1646297774033815  0.6994501135228527
  0.9359498298394451  0.2252711126634218  0.7026739201973947
  0.2636784127379293  0.2785329298384469  0.8604779168278327
  0.2629778320981334  0.3101739371721737  0.9651726397341808
  0.8642230775890285  0.4234333676850524  0.2844679034739629
  0.9094085495696237  0.3926332083356632  0.2610472953127712
  0.8837288755380213  0.7538696947098703  0.2936098379646445
  0.9070184733057909  0.3311287000925141  0.2738041025801473
  0.9569217006082785  0.3085153390334176  0.3054913968446743
  0.9502088010053243  0.2593696861886651  0.2572041486752586
  0.8892912680859579  0.8141948343588463  0.2773857937394250
  0.5507323106732329  0.9743302830775549  0.7465092693503811
  0.1010333940684639  0.8134419583009626  0.6158310629175494
  0.0649501890514413  0.5070015742641063  0.8138192684193565
  0.7152513761810254  0.6005986328983914  0.2797289566173671
  0.1100882398535638  0.0790679248123742  0.8395373629266258
  0.0732294319221021  0.0293940865188835  0.8328569725782091
  0.0131048264090045  0.0200264997511200  0.5469972124682582
  0.0439169827087235  0.8244850554229535  0.5917861696491673
  0.0308140476875330  0.8622212283135320  0.6363277689164952
  0.5707413306680039  0.7867527187825853  0.2868115451325859
  0.5276003821707373  0.7652645658884987  0.0037804033231351
  0.4540141448405713  0.8478153915238642  0.0757898788160358
  0.1213452697746725  0.9371721136889226  0.4849752717481455
  0.3968121890029577  0.6562718375575789  0.7954725553181493
  0.2978646309244352  0.3957782316926989  0.0194375341059968
  0.6888625639341838  0.1470042251760496  0.4802446623232154
  0.7388242998327339  0.2032477083875379  0.4255499464248705
  0.8489696661422648  0.1408261602459135  0.6283418980385092
  0.7787330174819475  0.0681287860214193  0.5069562509610215
  0.1865768835521230  0.4881477910196905  0.0806310659824240
  0.1123914585198048  0.5812377859456986  0.9831917550298634
  0.4729903933767001  0.2311459532479868  0.0982426823731206
  0.9487985830944826  0.4729928842197836  0.5677038302998950
  0.8850353629034626  0.2191780333382471  0.7415871379571982
  0.5258377280474101  0.2210682894912037  0.0591865205341800
  0.8871872632606083  0.1885242927504805  0.6365480240468766
  0.5185085754008215  0.1595649602726242  0.0742801847964279
  0.8231879436079597  0.0794145933427902  0.6875679194651648
  0.8582575329632601  0.1263413389525676  0.6908963139445187
  0.9284380707125138  0.1024865234304797  0.7729996469087489
  0.0067369946876694  0.2006885789116142  0.7870589251103820
  0.8799015027629159  0.3841909426629253  0.7180364002650660
  0.9651865072795881  0.4288594931705621  0.5233932298210980
  0.6010730370370804  0.8791209155872463  0.9476156206927296
  0.1834125353769843  0.9411304378236306  0.5685169341035715
  0.1918718772767644  0.5161635014889168  0.0221384274516370
  0.7883573138233371  0.0579380990061250  0.5688868403476556
  0.1596929934676634  0.4023016616385924  0.0410005168357399
  0.2051757472137338  0.4504556187501873  0.0415415172555498
  0.3291631759982029  0.3034867395849980  0.9848586330141723
  0.4792303386739240  0.8447912701966672  0.6380739220403184
  0.9740510590563598  0.1700347641088027  0.9439823211071268
  0.9286990261758449  0.1348959420445354  0.8771236815897151
  0.9943587267242771  0.1145441282757004  0.9610552226444945
  0.7650826656101791  0.2054392471565875  0.5927487144139758
  0.3576578590681401  0.2498331169590397  0.0014183044252626
  0.9034049156705053  0.0423269187801150  0.8256671800455956
  0.4118180507134960  0.1593053162936338  0.0373806460195904
  0.4115198489392465  0.1125249924158890 -0.0079299685284193
  0.4591386846444615  0.0851198917174886  0.0148476757580381
 -0.0077406766358555  0.8127666671465390  0.0879135954196477
  0.8252232173363563 -0.0246306998361053  0.6901922204023695
  0.2304640588717425  0.7576779545336260  0.6192581404063877
  0.9580067056821912  0.1974086613588385  0.8230692648695711
  0.9401176961011140  0.0918930420682136  0.8320792492070483
  0.3725429236810873  0.2799150016103215  0.1062050250111991
  0.4681108456140747  0.1725559813871381  0.1105314100870791
  0.5621323294498737  0.0810606982786698  0.0528653614915695
  0.9272580079791141  0.4192541503166669  0.7843318597824208
  0.4841685370140671  0.3444365017929621  0.4581009308801236
  0.7854650701861133  0.4929794937874705  0.7277488931658120
  0.7534555280943808  0.4048307696543322  0.6141541438685071
  0.6737782376551287  0.4371593736269615  0.5770409415864771
  0.6766084751772419  0.4473335626859958  0.5154498065037838
  0.7328590898052812  0.4310198479686839  0.5609409340543408
  0.7290963445653431  0.1522436459141096  0.5884328843249650
  0.6314884597036033  0.3971976147268460  0.5064293450293895
  0.9509268332909578  0.6625235480923388  0.8908945410133378
  0.4454690513782377  0.6346350820301601  0.4065959625163229
  0.4923158393102262  0.6085710153827566  0.4416909428180519
  0.4930038070164418  0.9808895595527033  0.7260909715696349
  0.4932793733530023  0.5511617051225338  0.4609804793726806
  0.8512493083160366  0.6069248270200124  0.6834585039552408
  0.8122263339506463  0.5564794805646350  0.6759424107998441
  0.6011405153887980  0.4547954640834987  0.4096414140523963
  0.5768382037438144  0.2139061900599243  0.1938937594816136
  0.8487417363203360  0.2687318843640643  0.5026836292648503
  0.8746699664636526  0.3707181907035366  0.5493079571046127
  0.9314344779189138  0.3610960215563728  0.5696892804934921
  0.5134293394510613  0.0978118612222877  0.0878071166998872
  0.7161406316552898  0.1362803376326489  0.5339088919812659
  0.9993249954448959  0.3973082246833189  0.8628018111377515
  0.9880019133411065  0.4093509176726554  0.8044041234437498
  0.9390039900610535  0.3734569706645058  0.7374483677851427
  0.9624012115105778  0.3176581406576953  0.7528902273831797
  0.9020855672479008  0.3258486949522267  0.7320210099184701
  0.5627281712041978  0.0223779306653929  0.0630503776513565
  0.9869529843475804  0.7064998811380020  0.9030426586536601
  0.9144650039189925  0.2812571511039431  0.6874814402760820
  0.8430188439116063  0.3049866626691669  0.6058666727649653
  0.2155363983408798  0.2428095666256333  0.7952602603383093
  0.1660800609545775  0.2062717296092668  0.7287016032302726
  0.7541782919912241  0.2280386088811640  0.5346990005199043
  0.9754543372719580  0.4229484457293751  0.7454174706524123
  0.0404235638605803  0.7206681098570081  0.1284030631789475
  0.9406561579107968  0.3457883380356682  0.6305065035445823
  0.1417617411678854  0.6750592975240171  0.1242562515553776
  0.8539467194079963  0.2900692555851290  0.6659830221897357
  0.9241880796834294  0.2979242114687441  0.8537373443263090
  0.7811971952538170  0.0905919229229049  0.8971925121551688
  0.7419132451105219  0.0392437314352656  0.8970641819838984
  0.6879338751862186  0.0149803496851331  0.7654540330441841
  0.9280159662690698  0.2024884789844348  0.9801672810931550
  0.8684868482962638  0.1772795902596318  0.9656201556990393
  0.6137102971802242  0.0490635213342505  0.0818240782422371
  0.8189670853353413  0.1391322094999812  0.8998306740884193
  0.0077860764034514  0.9399878824600332  0.2878387959345994
  0.7836871629810981  0.0577114011206492  0.7937335004767823
  0.0985323093087247  0.8415387426382938  0.2256309357351813
  0.6739241551967757  0.0286030357801272  0.7028613403178251
  0.7271901754920502  0.0359662817177739  0.6658254104484067
  0.6722595429377893 -0.0540608293653275  0.6200234561433049
  0.8328115003995223  0.7319499971399099  0.0581354334229384
  0.1169272576540402  0.1999680149180884  0.7672724665725612
  0.9568386291358725  0.2266845214775937  0.9314802222269785
  0.2658688822134776  0.6739936181586723  0.5313422478725742