B  Cr Ni
 1.0000000000000000
    39.0487268126086491    0.0000000000000000    0.0000000000000000
     0.0000000000000000   39.0487268126086491    0.0000000000000000
     0.0000000000000000    0.0000000000000000   39.0487268126086491
 B   Cr  Ni 
 213 1596 3725
Direct
  0.4123953971721738  0.8460960337623679  0.4905285327271656
  0.9971906517345874  0.0729396910639962  0.5367859300874267
  0.8176848979696003  0.4081695978388756  0.4868244136693763
  0.5699572316442568  0.8515309206081463  0.5678825650449948
  0.9346864877205996 -0.0178605985824878  0.9915238840438562
  0.1670187050036410  0.5355769678744547  0.0785518727796147
  0.6710213362193217  0.8917596874784698  0.1279918238410842
  0.8039745394386972  0.0603986687755589  0.5848818648436165
  0.7240858078228358  0.7286631995274636  0.4570635609782270
  0.0867032157760624  0.6341988485646159  0.3906915899704442
  0.3694734504452109  0.6805301492399053  0.2217914869303642
  0.1765919837783446  0.7041339248750371  0.5596579751794206
  1.0271239674368653  0.6190375892978071  0.7099410368463995
  0.8949513089128786  0.6604068251731992  0.1466723521999427
  0.7119018954378605  0.0544148748054477  0.4123649021295691
  0.5354474794959136  0.3938871478747152  0.5654789607691820
  0.7122339101576514  0.8444466080268076  0.0359446107169015
  0.2072361734514667  0.8100396143446194  0.6075474642021929
  0.3597456349692811  0.8095547612330538  0.1621672551474688
  0.5669486574686399  0.3175525069752045  0.5535623361311144
  0.5731004513428253  0.6854204845434319  0.4807901923765029
  0.4125899060169484  0.3143390526088268  0.4832528725787822
  0.1059702825292675  0.3440149111542386  0.0644125342222105
  0.2649523747991973  0.6244955822521222  0.0150561027184157
  0.6151356173872575  0.9446830621870630  0.5213155187953290
  0.5768387936410445  0.7042192249730058  0.0900244709551270
 -0.0008457034130248  0.1992072670268584  0.8514093237841355
  0.0821165419571785  0.6931354005883629  0.4520884394632470
  0.3200619944887603  0.4242805160448563  0.5377002455800979
  0.5636017993481148  0.7322035467531156  0.0587157164591920
  1.0436696105697112  0.6734808679972311  0.5618349709788644
  0.1476321471183015  0.7195690588018294  0.4461599338786594
  0.2365122042425815  0.4961112690466759  0.4359255542605367
  0.6351540601483195  0.0314999014596764  0.3712240930849718
  0.1065503301231846  0.9089932317476910  0.1542194063564196
  0.2133024876746412  0.0531913747136213  0.5340910193361892
  0.0954982911529272  0.1587667837279976  0.6186343097263168
  0.6162796700889910  0.8725352154166977  0.4900506172341848
  0.5589534090846916  0.3049097041158924  0.0021563270397973
  0.2348449945523977  0.4099382174198474  0.0857998783596124
  0.6235947074935593  0.8074350040373917  0.0111353054183729
 -0.0303205142075452  0.0416273174575186  0.4572364149988918
  0.3190657520959488  0.0444834001733529  0.1362612109590137
  0.4720894352100678  0.1061775445700064  0.4150811387660713
  0.2916689421301766  0.6443493149166193  0.1968795956560108
  0.5845761069137703  0.5849605126862742  0.9615388353569773
  0.8147413511750404  0.4641722165387487  0.1968319921820320
  0.2678482999460808  0.5068959247487697  0.0996656111578078
  0.9357259968741706  0.1616496813761818  0.4516892079151344
  0.3063367411687761  0.5371080921607055  0.1849828359094891
  0.9555807422334253  0.4376575816429781  0.3236261304495449
  0.1300286312625466  0.1460860350722445  0.7264278524389869
  0.9892713630601314  0.5796858862475203  0.3738136677548050
  0.7991804543671613  0.0463012314202659  0.4535015267541744
  0.3017796439872326  0.7651164870608846  0.4270886002175296
  1.0077787308368829  0.5381925523667745  0.9054154934480754
  0.8856035555501581  0.8224462258767329  0.4911539829706868
  0.1146651728604196  1.0259827099955072  0.3671205182529999
  1.0182506436132115  0.2906130678412914 -0.0223864947092182
  0.1147716193456445 -0.0134623984243107  0.3278423249695455
  0.8399667242478337  0.4939055183959237  0.5438379927806892
  0.3836117591036447  1.0130806730240323  0.4367387181126789
  0.4804301105685702  0.3141232141643273  0.5516644282026855
 -0.0181076886053667  0.4070453608408384  0.4157849421442778
  0.3661014068975826  0.7748822699757988  0.0855136770514772
  0.8301397605812494  0.0765877794524527  0.0433560712037753
  0.2180442108367743  0.6496313769236237  0.9228685428938846
  0.2968133578934232  0.1959450781584987  0.9917292350247647
  0.7514083434099501  0.4798865843156985  0.5716822949488825
  0.3086511424582959  0.0931594819804031  0.5381066924203844
  0.8437202358562392  0.8759769580095444  0.9489585859178179
  0.0540290213401263  0.8996385834716351  0.0281499532183344
  0.2174616506062750  0.4928799711414817  0.0260680233642416
  0.4089692374141718  0.1043373481907212  0.6677137319998190
  0.0272513094813093  0.1774152790255345  0.4302732737053001
  0.2549646447614997  0.6280502058287427  0.9066368201075951
  0.9607795528525832  0.9384919574965802  0.3704688373208525
  0.1804410473725921  0.3642774188486928  0.3962939486417758
  0.3785314845238701  0.3865590921866895  0.4892287848375955
  0.8964008692245813  0.1140091228859437  0.0465824586079699
  0.7718528623978562  0.8974084223094305  0.0466830728313027
  0.5933710871537111  0.3694585767982494  0.4757635088862855
  0.6889702538217044  0.3198067833572474  0.0449842051902151
 -0.0287306705002597  0.8155539282480934  0.5162927234101446
  0.1229808197834732  0.6564861475102742  0.0227847443288429
  0.8546786342202927  0.3130909726822917  0.4248163160825552
  0.5253260192821050 -0.0592828110413594  0.4136621470213651
  0.3593258521716017  0.2626697121010417  0.4624032183345114
  0.9034123797351031  0.6420397762529438  0.9781318316371703
  0.6849887493235873  0.9353775430174792  0.0351487831726415
  0.7219446465224147  0.0131000488273923  0.4276096875329784
  0.0046066297873844  0.1524664145479503  0.5363397502841974
  0.8700781707046893  0.2760822077894479  0.9400210989542825
  0.2946982967708421  0.0790457547349921  0.1479320814975860
  0.5328524580292937  0.2984458579986591 -0.0678720500087044
  0.1448788044957240  0.0254728994796555  0.4617464821496462
  0.4072633323032562  0.7319905412938614  0.5191260576020572
  1.0628737117704756  0.5692869813738054  0.4665218223721209
  0.6405638134084393  0.2779622617083575  0.5797149754883205
  0.7895196470673135  0.8937919373380543  0.3869136611837531
  0.2771639374567500  0.4756110325857535  0.1345168428409761
  1.0090577371341085  0.9023681196081483  0.0367597163003139
  0.9355768511274873  0.3350843839682559  0.3789127106629190
  0.5543747680342780  0.9658518782792328  0.3869643833474955
  0.6668677898535975  0.3013637464923553 -0.0239069278946138
  0.3667610703498996  0.0056406688260179  0.6243371068786976
  0.3439057161543387  1.0272823340281154  0.4185083150326055
  0.0526030412530381  0.1558525370363703  0.5475144191967868
  0.1090276398701903  0.1940884786425870  0.5935450408209209
  0.6273786146146108  0.4957619298658813  0.9466836235989333
  0.2268865329361758  0.5588327125069791  0.1529282387559179
  0.4260287898503641  0.8411188799271311  0.0474037452499680
  0.3376189965595749  0.6329224532093300  1.0376267650756499
  0.3735571654349087  0.6321193004038644  0.1634869062225828
  0.5233387849577111  0.1997899788802357  0.4852351833458613
  0.1156767813299060  0.1176910048988938  0.3294365262065037
  0.2805442778638981  0.6857122393937128  0.4382716375665958
  0.6354218876858616  0.9759171351597700  0.3189910470279758
  0.3222879936393467  0.1069431056366261  0.0436353844875363
  0.8006937398473528  0.9874214637252310  0.0226355356586113
  0.9782314742384758  0.3983551565666820  0.3174368929837946
  0.5317708705200339  0.0537213799661927  0.2697792843586320
  0.8489952244962623  0.8547261397196638  0.0438015982769933
  0.8803906824412110  0.2909368218956194  0.4600779074694691
  0.3157558330095583  0.1789258313195930  0.5201845444352146
  0.4998887309597980  0.6507583667299828  0.4684315427735168
  0.7741166680278482  0.5586799549395666  0.5179644845754371
  0.2953832158070190  0.7311197872349966  0.1190504339289240
  0.8800811728733693  0.8870462664547561  0.0508137734615476
  0.9997366944120382  0.8204001380734574  0.4781968265776815
  0.2839698420692395  0.2914180358007792  0.4480020841629228
  0.8518836435713431  0.4510877377535586  0.3724468016162371
  0.5346120582176093  0.9999387310481936  0.6655217911111093
  1.0125412250837826  0.1098259826629514  0.4589661080566024
  0.5752168170035131  1.0550465705532359  0.4130389398469738
  0.9054775376098044  0.1105428057169026  0.5555757772673388
  0.9626761022047968  0.9579339284840531  0.6286844206954694
  0.2181286489661541  0.0819068319524153  0.0505872157661099
  0.6330909180952299  0.1742890291868145  0.4933726705233952
  0.6053310405673914  0.5683483404181668  0.9257321155606760
 -0.0018659303552846  0.6083814168927711  0.5561619379465526
  0.1741100659967513  0.6032773812362895  0.1160068612834321
  0.8125821321802310  0.8559635365316028 -0.0299451733190285
  0.1360508776992738  0.9563998461458789  0.3558992633048486
  0.3512466041482122  0.4424353839514019  0.2568982240355295
  0.3054099002183481  0.7433012750660346  0.9278965248811175
  0.3621012208735653  0.5553811699355647  0.1067879462968675
  0.5348877359303115  0.0715595659659468  0.5477278400143240
  0.4774833219002880  0.7658354752182547  0.0262171084487788
  0.6398549944470815 -0.0053141680497479  0.4594422449256364
  0.3233073969087012  0.4175571410354859  0.2806941953003180
  1.0667564388718698  0.1796394626191255  0.5884078603781615
  0.9445137041748134  0.2617740938790241  0.4136206547806194
  0.8731468839571843  0.6985315551316982  0.1516616251994946
  0.6396126524379027  0.8501492213877104  0.5195925265890519
  0.9004312109276537  0.5891588663269830  0.4913314448764185
  0.1874918704191983  0.6589414514254914  0.5187283833872364
  0.5121985089527009  0.3733950056128520  0.5006131440228142
  0.5080329395295865  0.7091672380760955  0.5197551607232878
  0.3515663398695819  0.7838142208700476  0.1261513776603309
  0.9881761915924743  0.1825277005814030  0.6303827908354822
  0.3029663665718486  0.9990705044572178  0.6712857690333482
  0.8284877573675791  0.0206540257556982  0.7744715737615870
  0.8651289121714779  0.9768368973228921  0.6600953273909292
  1.0086988140238482  0.5015507692382255  0.6778469179749682
  0.8155311463054927  0.9818738361118247  0.5289404128792308
  0.3593293055717940  1.0209348956893216  0.5338291560283537
  0.5912487557062805  0.9459339278861894  0.6740888543563116
  0.8498450816250717 -0.0043592618412334  0.8968683570647793
  0.8381369228425269  0.1197320392494158  0.3012602123690897
  0.2189965311924958  0.6687502232476714  0.4872186057753467
  0.2845085254280044  0.6319816487462778  0.5004935969607542
  0.1927738841204481  0.2826941879996101  0.3609305226821367
  1.0094405759816563  0.7734616127591398  0.9661723654442963
  0.5075117058128733  0.7631649743033856  0.5616895500201210
  1.0072769474183245  0.4260076450450122  0.4979358598355054
  0.7375517409191762  0.7367511577695685  0.1212336268293000
 -0.0047179370790393  0.4700994404219030  0.7059880927230450
  0.9537510770795089  0.8207560734855763  0.3492936496418922
  0.8815639040049703  0.9280475593884854  0.5944459691120930
  0.9200452782624604  0.6922023936706726  0.5044574087010778
  0.6537706435752271  0.8224330850937911  0.0868059616784743
  0.7004791080187380  0.4890258021854878  0.9767121436511389
  0.5243048057062040 -0.0239222792139534  0.6992713370235811
  1.0058664168775853  0.5439774702187518  0.8302723582693511
  0.8030273848307139  0.9114122158137815  0.0166419599579407
  0.2331771826458073  0.6509871860148289  0.1262531135098252
  0.5178263137001969  0.9534178008501943  0.5259516208187511
  0.2055728012643202  0.8778158054742505  0.0250756508138378
  0.1073851998238191  0.0231127858982546  0.2394447936191907
  0.6261876854183656  0.2474345209869862  0.6081426418015883
 -0.0322999193651909  0.5586800708325060  0.7516534718232879
  0.3721993338801324  0.5267625401491599  0.0685411461066651
  0.9829449537641092  0.7728578616651389  0.0481766177946290
  0.9088530334171472  0.5873866896265010  0.3988850666783511
  0.6273848074687078  0.9215261647975692  0.6611938226205000
  0.6161678204767222  0.4399906436719326  0.5216502855027728
  0.9165499435472244  0.9086726507899410 -0.0592203189664442
  0.7244274346684370  0.4132247205853446  0.5147845816529742
  0.0327920511687573  0.1736292898034811  0.8390488802780263
  0.6796756090572211  0.2142930477371489  0.0719377017158569
  0.7296149606191586  0.5462903076576237  0.0305634560668725
  0.0101781070239258  0.6397081901016083  0.4252950654587848
  0.0170399332893667  0.3003849173545661  0.4248989756215875
  0.7331722672107014  0.8904565146350718  0.4723706767466250
  0.4254314185263648  0.7159226220307130  0.5994453807821368
  0.4743904701820773  0.7005245651193659  0.5500452203819622
  0.0846333025326780  0.2025375270719341  0.4089544671154708
  0.9553484027412152  0.2814419098464411  0.9700382311444274
  0.9283305154998841  0.5499482927603706  0.8777922548780721
  0.9342160799895268  0.0437907443811870  0.5916956222388139
  0.3245930463031687  0.6899106761556903  0.8712556734718153
  0.3125747199139588  0.7045184631020635  0.0245092632764197
  0.5642126952980260  0.3911728429312901  0.5169369027270615
  0.5829867449015950  0.2685922076617821  0.5789194271734415
  0.5594235552944072  0.3114457400629900  0.6119324432466187
  0.5339672223282020  0.2195680909838096  0.5743663620642634
  0.4757978145161502  0.3758505794276707  0.5852981184662083
  0.8581945958030760  0.5914221476277771  0.7443835993752392
  0.5028919913564575  0.5233765976470587  0.2920668947843853
  0.5053102299093380  0.0492768979396139  0.5088206532656743
  0.6839168655992501  0.4497909425538968  0.6994809900437554
  0.0203631776860347  0.4495347919529605  0.0390849756439087
  0.2996677195600205  0.6633828712618917  0.3531262392586413
  0.4505633193039042  0.5393919754180854  0.3246615722803522
  0.7277614083219969  0.0838271560235683  0.9363405594915508
  0.6409035525116014 -0.0028877948345385  0.8713242995551865
  0.2179193705240703  0.8945416704818773  0.3099997825975426
  0.5472010139978669  0.3558565073351022  0.6671613066544964
  0.6081756647072405  0.3461854050753596  0.6852956469986264
  0.2672572713334458  0.8632654666158965  0.3364179818793734
  0.3102540924792486  0.6911995059036328  0.2260392890045058
  0.6824007789028406  0.4767443377480801  0.8075553368244832
  0.6340225634224903  0.4412132299992537  0.7399560426042018
  0.6468255384403723  0.1145476400830306  0.7923522510269204
  0.5989217898296786  0.5119271213083687  0.6658719967518480
  0.5494528944127366  0.4795781367025188  0.3825049646355145
  0.4174396001661049  0.9640083896395643  0.5342589275246230
  0.4790839706377505  0.8416285074474043  0.4682819233241926
  0.8572994734870116  0.7599840980259748  0.9527157418465566
  0.8019560935610998  0.7654513937299371  0.9319965093384028
  0.5238212624179737  0.7678739567644114  0.4466201341276635
  0.5656477929001219  0.6945980957748314  0.4265905242732569
  0.7046010745009668  0.4525808514352498  0.9278478505294957
  0.7042706732577925  0.4218865759047205  0.8228216489687389
  0.5840906371600978  0.4373131175480260  0.7773532841263021
  0.6746699763547580  0.3592845080327878  0.8784428593189383
  0.5356193173596966  0.1483900435424375  0.9149198568310081
  0.4643000383990598  0.1684266069756409  0.8338408325226875
  0.9736885220913712  0.1077914026711326  0.3908213700289181
  0.3532009381706557  0.2004297967027215  0.9604042195019931
  0.0810619230767309  0.5342840241998279  0.0933962588912949
  0.6896179305129678  0.2846495737030619  0.7222642073650476
  0.7288406493218752  0.3343926138235742  0.7285820884402320
  0.7900212944190419  0.1675943715002480  0.4484145541809362
  0.8194153357963639  0.5418604459552564  0.7377074799500675
  0.9561768716355550  0.7215518490844598  0.5512369349494004
  0.7822825700309544  0.2385470806147448  0.9237215687548148
  0.5625541932958619  0.2100146011811066  0.8565338956894648
  0.3672727987607888  0.7899801453970914  0.2177475023530466
  0.5036078782253083  0.1866990595025376  0.7327036244254969
  0.3645711175098987  0.7764547827487770  0.4461573614608075
  0.6527547009684510  0.2353904192370112  0.7183535738161307
  0.5412044238844346  0.2354172477834590  0.7364714988260844
  0.3155060103882053  0.4623016904788966  0.0251110605702850
  0.5532721814936524  0.1918574643116921  0.6920440237446244
  0.5418575990735420  0.2046395244177411  0.6326483651382109
  0.5666524160431520  0.1475686858707548  0.6490615795722783
  0.3141382109440159  0.5317697305614525  0.0669143800616179
  0.5159965773729005  0.1115664228499874  0.5841549189874677
  0.5030067456427755  0.1161392556110779  0.5214376673913035
  0.4525573771594997  0.0748949394365316  0.5074910549394039
  0.4575038868308565  0.2468701311146615 -0.0190165696212020
  0.5851808674415626  0.2486042508087707  0.0737611832115232
  0.7956489657853963  0.2352471812980630  0.9831945480370752
  0.9029031320463281  0.8863009162638555  0.6220449991807294
  0.5428510607277360 -0.0283555989732253  0.7510196512307413
  0.8656323977316377  0.8299293104248314  0.6125648967187256
  0.9133940933071517  0.8383347796357752  0.5818135535815814
  0.0337081921024744  0.9525656711848419  0.1343343827123680
  0.4662323019238562  0.1030339211953618  0.6249871459548583
  0.3606088284079393  0.1088984971407912  0.0894623986402031
  0.0748185630529193  0.4546882888825648  0.3937883099128975
  0.6504392772009804  0.2657696236413247  0.8225483288346237
  0.2730867244378198  0.5709737303722840 -0.0108943050574054
  0.7418902531080861  0.2316066945595165  0.2995303898892280
  0.2494704665730702  0.5496634998615660  0.0362091975950301
  0.8473269795159082  0.8834116985358442  0.5907721183060631
  0.8357904745084457  0.9399772767094486  0.5628957840504928
  0.8359253220230313  0.8922623751021376  0.5221718279760376
  0.6520350516630250  0.4489423483877611  0.3135264205722036
  0.6488030634065837  0.3870814964168228  0.3330987740947351
  0.4366937253490836  0.1043583887834230  0.8923192689126688
  0.4697336234148374  0.0044487407692280  0.8656326138876267
  0.6949873604290526  0.3093900440134139  0.3178724506772335
  0.3882533705479857  0.0683168395413912  0.8261170183270219
  0.3596074371708025  0.0042321331496812  0.8851426065797064
  0.7891659723486273  0.1546712879853761  0.2797133598834880
  0.9081790008882323  0.9584519649144554  0.6328264502355605
  0.8642871861130850  0.9818997681394065  0.6007334985177760
  0.9824404770447402  0.8396320014595520  0.7340965378967932
  0.8892153511743293  0.9506811999823511  0.7739322662319772
  0.0392904325257018  0.9068680239504697  0.0837067942711092
  0.4830851611748160  0.0625025415030516  0.5693809794432886
  0.1515087570685582  0.7937173773450049  0.0831104876987226
  0.8878160943997143  0.4289130062733957  0.9997670114978415
  0.1461920302164728  0.7518653204878394  0.0388379831444100
  0.4177246865193745  0.7549545291811371  0.2455230691470676
  0.3621486124585890  0.7553841140796741  0.3414010890603156
  0.5475200415121730  0.3994589545804268  0.2352009901770083
  0.5240014116536827  0.1605457265936208  0.8534379064945274
  0.8910662127661079  0.1797320098370259  0.4216514854906552
  0.6829299968456023  0.6287476609848506  0.8488700791797005
  0.5250025872368310  0.1940300271613996  0.9546849849087123
  0.2571780538085968  0.7117362764702079  0.0269258159633526
  0.5114069022536134  0.6639689275363885  0.4169175347920818
  0.5459055257287558  0.4176276743523247  0.8791931179263048
  0.2285895866550606  0.9891936531438381  0.4016363473497502
  0.6050194986245244  0.4087318060981364  0.9016496789362026
  0.3684153969472366  0.8165541703013189  0.3254815976032003
  0.7728647334856973  0.6552731491296436  0.7121531172058738
  0.3760786012382652  0.9035147316655227  0.4192360679868885
  0.6287271780865589  0.2933212815042011  0.6998226022957917
  0.5640813478321078  0.3408462618648818  0.9601341945433581
  0.8108911298340262  0.1064419511062270  0.4561585189270925
  0.6100506462354515  0.3177963794569185  0.9791168112688672
  0.5797128698681657  0.2528856636275993  0.6377383614807000
  0.2723645892804936  0.9086709846066030  0.3838322030482321
  0.2836531376434924  1.0159563754938199  0.4085231493395219
  0.9368608455436480  0.0290412449904786  0.2489459127843607
  0.4282718325994260  0.0879502990459826  0.7224189030563550
  0.4383709086695158  0.0744311196781078  0.7854591325587057
  0.4763824214697967  0.1236334059056574  0.7902898464631611
  0.5127990522101116  0.2055103493937861  0.8955711506457807
  0.8889243410124166  0.1068683044785514  0.2698897089262904
  0.2048578720700422  0.1252744047195741  0.0914546341518889
  0.3720298715573646  0.2178991177076420  0.1213579965525326
  0.4698460533305662  0.1366128331922263  0.2359747494129057
  0.4403344405605088  0.1346071315156154  0.5038630804277328
  0.2213637170628950  0.3346143067672250  0.3715286164018635
  0.4956696119420288 -0.0213039458968667  0.3777270707719858
  0.2692293248740330  0.2616952565537302  0.3588846132187803
  0.1653371357649203  0.5490444529783277  0.4560754018986418
  0.2147515900435356  0.2322595753210555  0.3498089535238142
  0.1073346099721515  0.5385379329883665  0.4381150305827897
  0.3120223708700022  0.1373750737971825  0.2928799760468960
  0.1315752554597918  0.4882724749153324  0.4604507059351529
  0.0704804703660107  0.4858226853837895  0.0431811911638901
  0.0323274551025433  0.5507576917618758  0.1267005373502563
  0.3831922727423572  0.0016039056250034  0.2825639411843740
  0.2560032832580865  0.0483078883333229  0.0697376221800397
  0.5548354228639159  0.4599036840798359  0.2167369943154858
  0.0133583736753768  0.3804486050004202  0.0040381952786637
  0.6344558477666288  0.4126830310444090  0.6326042527902001
 -0.0029094100945677  0.2958216851612222  0.0332502217306335
  0.4020765782385499  0.5364643693436001  0.1996506893960397
  0.0449548239256394  0.2113533230257228  0.0171125379461269
  0.4092638268437722  0.6462511323574374  0.2117629603166184
  0.7527247411028117  0.4574007118998377  0.8922442322562216
  0.0410856813003631  0.6823672917022261  0.7201697200445086
  0.1562908437057379  0.2178682112688148  0.0509738088515747
  0.4103486394310035  0.1108940978682001  0.6081181563456074
  0.7395259890341848  0.2017381252087227  0.1928154313305918
  0.4443869599801977  0.1629689272918881  0.6073090106296768
  0.3744364283983007  0.1850830653186817  0.5260674591721514
  0.6994091410789600  0.7053082350241523  0.7345925043246604
  0.5535018832483608  0.6379885814723298  0.4600787798927213
  0.7691623973730418  0.6846329527562592  0.8206890830088353
  0.6260676812359675  0.6041325120035345  0.7177330566540306
  0.7503899563983050  0.4220257991589181  0.4664684408675340
  0.5729539403415798  0.5392749724683663  0.5409975718450382
  0.8129205508859825  0.9848343416913555  0.6387363389684633
  0.5575475686977340  0.6002307729913665  0.5235438113074209
  0.8195763557318559  0.4705468698130423  0.4165550727267380
  0.7264704304072940  0.6656959648363510  0.9185307471235337
  0.7924290347246792  0.3597919283989532  0.4677852456850217
  0.9014836657634104  0.2637137289697344  0.5214063841935503
  0.8349838932238693  0.3203735854839020  0.4776183063729352
  0.7833233439258203  0.6420747336847634  0.7725530812483102
  0.6364137142560100  0.5923943391436572  0.7786016841831952
  0.9971731554789229  0.6747690047779352  0.0238354542529285
  0.0196119048140654  0.3921967674352796  0.0577029026562501
  0.7778847823257995  0.0179413230674521  0.1418696013685828
  0.4664278313473241  0.1358000852251208  0.7287763055671020
  1.0181030176310168  0.0721261974314276  0.4169032421105572
  0.3855233654257252  0.0521035714443716  0.6605398293996841
  0.3517052683355281  1.0354127377376638  0.4780473708563260
  0.6614079316037689  0.4036052924892467  0.9238824321384237
  0.5873811715793599  0.3035556004350815  0.9106382346855557
  0.6270893289609023  0.3212922532789024  0.8087248323345454
  0.6927760668698891  0.2785104472322795  0.2138979342672890
  0.4699198181394940  0.2559681189516494  0.6544299017873971
  0.4038023027245744  0.5099838019547082  0.9763375985615811
  0.5904591624263872  0.2740116128466191  0.8016295237074228
  0.2624038802505941  0.8340607561457570  0.2294149363657533
  0.5717344868446731  0.4489666051888257  0.7190939024096175
  0.8337019177995399  0.0490596950238914  0.1525868274496548
  0.6616780147275790  0.6547107379692849  0.7274088641181908
  0.6518689362332482  0.6695832298166071  0.6694346556672183
  0.5528448951051996  0.5766430104009939  0.4699666443955558
  0.5977242156921292  0.6517738569377213  0.5218495481134526
  0.6271237626303543  0.5783496919910620  0.6102930826757539
  0.8555399738647020  0.8732830429665446  0.6583823758846503
  0.8421833881207572  0.9297641360472195  0.6347078665083924
  0.4612748910114270  0.3053424430019828  0.4612526344032852
  0.5147754191769688  0.1722954138071775  0.7936465038090662
  0.4668184021086820  0.7236865977286783  0.2684182482682454
  0.5108394250167089  0.6314510797493965  0.3141061543524109
  0.4533658235753455  0.1450744563408937  0.6660469785265952
  0.6019161922794068  0.4310112975701127  0.2444964749948142
  0.1860280014719068  0.0423715116094624 -0.0136818899164958
  0.1459103686186984  0.1591844494707640  0.9488649718470824
  0.3472843200471051  0.6726719454664162 -0.0044397999364827
  0.4967331835512713  0.8652923349783852  0.0274856954745109
  0.3500219797553788  0.7437587747995198  0.0447640352097933
  0.5770833763078334  0.8911919889714779  0.6637420211916424
  0.7605361601494068  0.5485354953364523  0.4352263867199895
  0.2120482689861190  0.2084438249564698  0.6894004240688328
  0.1894318712588324  0.0134842138076836  0.8781747413105569
  0.8982959467256431  0.3412748742467936  0.4484607833160553
  0.8499280706938281  0.3403667544416731  0.3724779153054492
  0.4622224185651779  0.4196606007409951  0.6320720428409289
  0.6398452232159912  0.7127934287703029  0.7119513381562438
  0.5791929585860729  0.7201490919806777  0.6916378749345803
  0.6678908218177695  0.5219998826929160  0.8606167758155762
  0.3490750143100917  0.2708154061628141  0.6139683912746816
  0.4495631910574596  0.5362023877844988  0.0471490950700553
  0.2979332918583985  0.7618727952186469  0.0305493560331634
  0.7111553815985050  0.5977518822628457  1.0280249900374565
  0.5609764701364268  0.4624983597782533  0.6591016483614571
  0.4725308990569603  0.1668470347309855  0.3409255639866446
  0.6103752012755415  0.4971254896004208  0.7274128649986161
  0.5377004558727992  0.5512300777300928  0.7501353976805492
  0.5465416943710241  0.7912672410730643  0.6163169772332387
  0.1130939043923180  0.1611430173048685  0.6718056749272572
  0.4591405738055697  0.7648522466837624  0.0825540799151400
  0.4211534162581645  0.7919366219172060  0.5165185386762511
 -0.0351234657742122  0.3132222232763924  0.4198805306622225
  0.2083195766605627  0.1200680662238457  0.8673315953069325
  0.2678062625688120  0.1114059440670795  0.8886149689029756
  0.2554039429717869  0.1534022648571610  0.9295503933072768
  0.8483025535553311  0.2785343190568700  0.3804287635882981
  0.1810012789337274  0.0270269454765431  0.8170914787496363
  0.3964024470377378  0.3709609181590531  0.8897051107378042
  0.8099160040394295  0.4839741166044302  0.3581677581375053
  0.7620415790816983  0.5129433952073664  0.3310362570888097
  0.5552539253539771  0.5024926729660678  0.0292329986485864
  0.5829836481788565  0.8380582160313201  0.5160435398832958
  0.5914004214474659  0.9769371350215258  0.4720799397157396
  1.0018889923207162  0.3119660236575834  0.4778509736178382
  0.9562739718032086  0.3447240969552903  0.4727334838094688
  0.8572332663425694  0.4412266654403909  0.4589259034439190
  0.6160707099997184  0.9209489850878858  0.7179227482384316
  0.9671566386299321  0.3997502658218045  0.4684982123624354
  0.8099869493419788  0.6362783640553759  0.5049685831726445
  0.6769244384406264  0.9140735221837574  0.7477377820158909
  0.6641216776140798  0.9573435883448168  0.7914108082084840
  0.7237768465070241  0.9513330562426233  0.8139607048096471
  0.8088370858284727  0.4336472601089932  0.3148343114537183
  0.5092504057047320  0.7413349679513467  0.6121543492015113
  0.6203475659215201  0.4859291418907121  0.7869759137396304
  0.3748559427007047  0.0729097608693979  0.4314971522977462
  0.4171219124209139 -0.0180414349437269  0.4718222370890728
  0.1919187779997377  0.9429633090611566  0.1413585519127166
  0.2616381479349104  0.1791042851620815  0.5442847515357785
  0.2489652031903191  0.0078008818964998  0.6371016433187714
  0.7316238309932084  0.1276902522178401  0.0385575357409131
  0.3482274127370563  0.1170067968538392  0.5844807352286143
  0.3226098509574385  0.2074958126103213  0.6704994620707744
  0.3936973825963682  0.1896668881028640  0.7513667088411068
  0.3821611346394945  0.2326324756907961  0.7947462433548036
  0.6843984547633621  0.2453083880902465 -0.0050734873072564
  0.4308041588203706  0.2706679381538519  0.8592213542437859
  0.6119625474329095  0.4740834505662346  0.0549461608954385
  0.5144866919402427  0.3546312118800812  0.9347810007678941
  0.5088532198389202  0.4547029556774222  0.0846087372851617
  0.1319151594394693  0.0372867258078908  0.5185120321145618
  0.4770152906181709  0.8021275194656865  0.5345017242685168
  0.6729169370650429  0.6977991877756115  0.4592200195792703
  0.8102681480208465  0.6016363513814565  0.9519675409994812
  0.6212339297813672  0.0020685313566445  0.5361969635184832
  0.3484280463856642  0.5690718086274122  0.1651959426139979
  0.3522770013034002  0.6240405824291232  0.2128181691941355
  0.0798872088972824  0.5199299268202163  0.4883420415797329
  0.2635502396481059  0.2735444745133899  0.0749222302885668
  0.2445966042554754  0.9266009789239416  0.0463901819450980
  0.2037009685863848  0.8255264908501208  0.0954756579444649