B  Cr Ni
 1.0000000000000000
    39.0487268126086491    0.0000000000000000    0.0000000000000000
     0.0000000000000000   39.0487268126086491    0.0000000000000000
     0.0000000000000000    0.0000000000000000   39.0487268126086491
 B   Cr  Ni 
 213 1596 3725
Direct
  0.6533631473586345  0.6771479514495296  0.0368089540275735
  0.7730923441775496  0.5894430133894784 -0.0195285092807981
  0.0364484911672933  0.6731016227432447  0.5695979642181737
  0.0299881788865064  0.6759294250929427  0.0477343844672079
  0.6325420063234898  0.1750349221846345  0.4974087475228285
  0.3352558050417570  0.7250352467258538  0.0277453259648352
  0.3509510052776658  0.7090073541768368  0.5667122050155410
  0.3119685441093120  0.7024230220833487  0.8132279733461796
  0.9288476668454730  0.5507420620962198  0.8744148159587861
  0.1984347791606063  0.2892166475275088  0.4611547926224709
  0.6276396211885510  0.2507134503318100  0.6078520209857036
  0.0353651158526874  0.5980114619839354  0.7727631884413860
  0.3424638477213495  0.1566351900203434 -0.0078926198381492
  0.6339964789947858  0.0470827795382134  0.5259504812082143
  0.3508873099211874  0.4418327709995411  0.2539489308834004
  1.0753525764495195  0.1796770231064143  0.5885485435038755
 -0.0552515726093753  0.2655477103013447  0.4043307418903953
  0.8741046661267313  0.7000309895962707  0.1517381251139053
  0.6308757965248591  0.8421466074698795  0.5197725047440015
  0.9019021923213715  0.5943341300583812  0.4923576572407460
  0.1998170207926263  0.6403932105787262  0.4230301993222734
  0.5157996485843713  0.3700389166700241  0.5022860810378703
  0.5355031398781139  0.0695568348356875  0.5509729505276690
  0.4751425667076717  0.7673359158371479  0.0261354723726655
  0.5744702308543888  0.0525034981807301  0.4190662005474913
  0.3232044860107822  0.4202687885371668  0.2812557000929710
  0.2954318047873822  0.7568775694940416  0.8678230201904414
  0.6275727881398452  0.4948369626668265  0.9457639066149688
  0.6156779183421378  0.8969782114105707  0.5757426977680995
  0.4572438298030737  0.9461858775792035  0.0660324687718207
  0.8781926844167689  0.8907417171231068  0.0489098215160086
  0.3738225560971654  0.6301556772987547  0.1625545040956807
  0.8481579357494775  0.0005907943961220  0.5634436094955270
  0.1134776216958737  0.1185135415175468  0.3293362904518430
  0.3033336385368769  0.1575646880540468  0.0690333355208273
  0.8068680141116394  0.9036475412479920  0.3834055786212528
  1.0360970839253136  0.0906767796727198  0.4650695674474667
  0.7947524957700496  0.9980907702415432  0.0491287423919742
  0.5916503818291790  0.9447526465827731  0.6708552557231113
  0.6985435145194699  0.3124889820491251  0.4825591359019555
  0.5782507132825899  0.7061831622445713  0.0908459906212148
  0.9051950671123304  0.4171992267323068  0.4005898225994213
  0.9903905321225985  0.1857007324644194  0.6244305802956137
  0.4981988381838839  0.6501089579329646  0.4731547039757806
  0.0678218248440036  1.0200980301536764  0.5859616764377936
  0.0260845004894746  0.3813746588055595  0.3979394473742079
  0.5821379189899631  0.5804499517475538  0.0338568756699595
  0.9848488372271186  0.8377617736052149  0.4763645724352484
  0.1097626130554036  0.1639003927096942  0.7254491369047027
  0.4867685580341486  0.9446701307974830  0.4925598941599991
  0.1080738924962697  0.9865905215439268  0.3208561073082610
  0.1070981399069694  0.8285099842839280  0.0755548629188900
  0.7282982263362544  0.8921077456247679  0.4776519619746172
  0.3212431318405868 -0.0232668191610496  0.7860483751040259
  1.1020027209990386 -0.0182939581166446  0.1916619151785089
  1.0106026301275981  0.6367206826011135  0.4179346173458893
  0.9959937568952127  0.6318424584727028  0.4886231518429971
  0.7041818144714720  0.3986980899066947  0.5124432439752297
  0.1165151822435546  0.1943312977899575  0.5892322420608501
  0.6373937579100140  0.1767936798956392  0.0646664928267563
  0.5783301218725264  0.3183403367763865  0.6481183520063643
  0.2280281366649678  0.5626793249044909  0.0905670850593829
  0.3323965942425167  0.6311972672181073  1.0399775213412623
  0.9064137234375604  0.5806284023817133  0.3980862672013418
  0.5193533344209170  0.1970662998231192  0.4782387677195919
  0.3701292748752454  0.5222321907770917  0.0691228951633309
  0.1675052837049485  0.6177060802457351  0.4454686958014717
  0.9742566064945536  0.3990263260219722  0.3139518301482922
  0.3205760766947622  0.1152804279589317  0.0611558221648470
  0.9079644018010080  0.8164851830793134  0.3271634740989296
  0.5526671336529594  0.7657183136326313  0.5234923796566726
  0.0153148110588044  0.3015951377927237  0.4245641879047158
  0.9544340437680117  0.2807692074659573  0.9657925475643886
  0.1473409367614995  0.9599475803168869  0.4714296984228755
  0.9378087381762310  0.0445900072191955  0.6129933738741660
 -0.0026989939770711  0.1993872230546234  0.8493086660004935
  0.6280951145058792  0.9208220861595263  0.6631883141992393
  0.8478301361285075  0.8571698552179565  0.0422542316608870
  0.7828433794156170  0.3357748744170263  0.4340843369104891
  0.5200973391520719  0.9437984151856345  0.5267359908200160
  0.9918957357383705  0.0601433970747326  0.5373725896523687
  0.4665139531093519  0.7113501115917383  0.5553474447182942
  1.0077098240960474  0.4277895264952428  0.4987475028290841
  0.7590351926799357  0.3934431246602313  0.5199895047771304
 -0.0008671562066489  0.4792224720679412  0.6950021205692617
  0.8788564035430093  0.7936284337614233  0.3510499974708164
  0.8750002572178166  0.9271023015256785  0.5945633172202774
  0.9182470406299643  0.6957624650698588  0.5095005871317346
  0.7221587090254966  0.8049359547141161  0.1151485589788610
  0.2584800659633369  0.6992158146669699  0.0623037202114161
  0.7999467630623972  0.9175474247795971  0.0205786785128925
  0.8284248829831459  0.0220164657076027  0.7758675671788108
  0.8692274371825379 -0.0248649800226147  0.6644276991461374
  0.0164445152249240  0.6305573917226265  0.6493848788432502
  0.7425877981093489  0.0700460876416632  0.4955188117970963
  0.6234854609102587  0.8094018115296281  0.0119437769568555
  0.5304790434039606  0.9856183127892578  0.6808550915474149
  0.2001701734330065  0.1025470243647188 -0.0014433822540075
  0.8381314643364904  0.1230930894794115  0.3018575843825179
  0.2330455997142111  0.7285405058420752  0.5071122945892774
  0.2599175883431739  0.6530703802464057  0.5342979322257660
  0.7054485225258034  0.4865615793938487  0.9738525396692945
  0.4916926404768749  0.6903624541766479  0.0426524757706637
  1.0070619868774338  0.5432644454537264  0.9056678686325011
  0.1884318534635732  0.6542699620839043  0.5171498502223876
  0.0807202297403195  0.1720485427731966  0.4903552098019344
  0.9817741269090905  0.7752965918152087  0.0459516637002689
  0.3099425741318543  0.9331769226872932  0.4605581716573162
  0.2912820983293140  0.6368236840660423  0.1975550094353166
  0.9341409578872109  0.4403852075675677  0.4723116923889066
  0.8155619319343617  0.4671115736152771  0.1950811007025342
  1.1267775505202871  0.8457568215961220  0.5155610868663798
  0.5811736676152653  0.1724473637253887 -0.0267869680755040
  0.6369742551719169  1.0313996435282204  0.3733511730854457
  0.9525170956233410  0.4380065105290901  0.3194941730316561
  0.9599092209526856  0.2840195897506443  0.4926603256926275
  0.5623443663778702  0.7332704020663309  0.0596864289784048
  0.7789075280895295  0.7906979496993554  0.5205565001177176
  1.0316185795302419  0.1741917775707469  0.8378342976816365
  0.2351100719174867  0.4095914335366092  0.0846572904625109
  0.1455706371225213  0.1398511286820817  0.7155176324968685
 -0.0329942480854126  0.0378605629005800  0.4562005609013196
  0.9892983261136777  0.5755172082436900  0.3711023426928680
  0.4721247895094903  0.1065027344536043  0.4161139773640793
  0.9954894091097801  0.5582732960550010  0.0107196023938537
  0.6019321326641628  0.5651219181058742  0.9265512284304158
  0.6709984564824885  0.8917757408719804  0.1316773784402711
  0.9844157338745084  0.3652454411853922  0.3867392576070920
  0.7974988203335066  0.9797580360423240  0.4666814382651437
  0.4578066275413636  0.3987755202030207  0.5353956720516279
  0.8708617366173920  0.4383694738200726 -0.0023914295756884
  0.5711215865968934  0.3489014433778171  0.0153171361094387
  0.0970286054831695  0.7876807571639604  0.4667500849323590
  0.3721083870219274  0.6792558009936073  0.2215912343591696
  0.6027413485833604 -0.0085994694063436  0.4987325053904235
  0.0171726001695300  0.1283807927083014  0.5692497312154319
  0.8323503520700901  0.3465693149509314  0.5036290692919014
  0.5881110061901358  0.6200911557202121  0.9853097135087595
  0.5802054152344490  1.0183885208546863  0.2981005278972048
  0.9226869431655904  0.9667816426526659 -0.0146923784181434
  0.3217452459987362  0.0146073029097315  0.5096566980374189
  0.2264756119325640  0.6493661083777589  0.9153327586959303
  0.7497954224259551  0.4886264231016989  0.5149638939043776
  0.0568552037845476  0.8989158766501584  0.0225225678293246
 -0.0204440886270743  0.5514626406069262  0.8169978301297449
  0.6679784151445174  0.3022144567697986  0.9785259178299577
  0.2219257766807237  0.1594033055359621  0.4168720863065424
  0.7106254262881506  0.0529678450739598  0.4183351992186394
  0.5138965039407770  0.4509858988205561  0.5494312025177677
  0.6516184460237873  0.8249712432607410  0.0869753552578460
  0.2289743549355653  0.7510993570421639  0.6225433001374180
  0.3596779035806506  0.8104103162127915  0.1615579553724573
  0.5754046019716000  0.3243872356015737  0.5428095982493559
  0.5736842699155401  0.6822500304484553  0.4799794550653651
  0.4092120727855482  0.3307582923083741  0.4298105388421735
  0.1741985845869208  0.3688394511039922  0.0705682281339231
  0.2635752109065497  0.6330905592351057  0.0100575243886704
  0.8950989562128949  0.6616781491005569  0.1442212116531441
  0.0962178638041860  0.6366343716270025  0.3905310793884464
  0.2973983113654854  0.5450081818470821  0.0421849975378662
  0.2099783936676786  0.8840458140481298  0.0231842786237791
  0.2968196880233090  0.6968257698365575  0.4359520487534592
  0.5333486455857567  0.3010824205645465  0.9337576527351313
  0.1139167457972444  0.1535731288849173  0.5146726839617134
  0.5195468948766132  0.7457562385119388  0.4972200822744059
  1.0545643358724750  0.5754895797862402  0.4818248244718766
  0.6433481397283792  0.2789378768460355  0.5761808028066566
  0.7789492321219378  0.8833951565440170  0.4121169278844096
  0.2832975164929273  0.4808429791237712  0.1285378573985718
  0.5879122280154441  0.5012602129762852  0.4370724492786546
  0.7688338729239017  0.9029191503026245  0.0507710783644099
  0.5869184343152700  0.3682307056648315  0.4683790654544877
  0.6899448576925696  0.3195622993925169  0.0470834046842394
  0.8988242396286162  0.9171412471756555  0.4633585222658374
  0.1299652540014125  0.6550830984217670  0.0254003770097453
  0.8490194979652690  0.3222334140948155  0.4058948789927478
  0.5707536241204680  0.9709669457795455  0.3928929494202881
  0.3681789088989135  0.2413199505736765  0.4402964400314747
  0.9045930619363910  0.6438578472145481 -0.0219829346706568
  0.6309259634777306  0.2142053121961759 -0.0035547624188795
  0.7230859495606496  0.0135906252602799  0.4344663280259568
  0.0031927049197764  0.1506030159051405  0.5323857848211205
 -0.0050588519969471  0.5051325352054147  0.4981153020399431
  0.6358078263982901  0.9753183962153106  0.3212182971929027
  0.7235369805263577  0.8893203008006919  0.5641076460986204
  0.2965822360075999  0.0787036351114479  0.1474821012100714
  0.8719678197238729  0.2794128944709094  0.9386207710725238
  1.0077428323390896  0.7746217323873522  0.9649959785753998
  0.3191311380430325  0.0409604100304462  0.1384037719360561
  0.8951507130109131  0.1135359227977854  0.0488093607203955
  0.1150335225357852  0.5428618417093116  0.4440465947618544
  0.4556392093987033  0.9771572177306018  0.4978211540274338
  0.8655796920644299  0.0905178371610568  0.9578593157401916
  0.3313433349531105  0.4257956136949792  0.5431967569927373
  0.1413998868271753  0.0301959625030243  0.4497328587344658
  0.7366621485903350  0.5897650424466425  0.5488893367494818
  0.1719334649951913  0.7088868849514041  0.5636297430349402
  0.2360361560825978  0.5015905242884783  0.4341014877926466
  0.3796463004707549  1.0153477089272578  0.4369966356258488
  0.1069952831160138  0.9077465938672421  0.1528558562163123
  0.9867032310333114  0.4026184717058087  0.4140821442734625
  0.1027420246920186  0.1615373794411011  0.6193098777642986
  0.3577452291894705  0.3338074692658195  0.5151308474213844
  0.5579517427378532  0.3087610998194540  0.0051154497262847
  0.8418363289310281  0.4987424334549615  0.5457768368217576
  0.6242839350215844  0.9876478075409204  0.4611987374916656
  1.0286074088280066  0.1806560684702333  0.4275381838894407
  0.2678735081418290  0.1515941919405299  0.9806936604897997
  0.8661682811055049  0.4053426975174327  0.5286624957472015
  0.6662124957615082  0.4785517811232022  0.4658021561410328
  0.8207098248012146  0.8559730738162457  0.9680337517619753
  0.9779097474484455  0.5894516305222701  0.5583721641677132
  0.4840929161516331  0.3166271714594812  0.5564897635902765
  0.9262297005763853  0.4912229136186904  0.1069178313095608
  0.9938770524903955  0.7137691443871854  0.0596991220397681
  0.1267790618800290  1.0212583951211567  0.5924370074308999
  0.1691007490778288  0.6574715094868009  0.8297514446767716
  0.8792757606252308  0.5682051305557511  0.1215214069717939
  0.4879478571697823  0.9808977801983387  0.7252863937161618
 -0.0066729227349358  0.4978563837198335  0.6397683038843689
  0.3291965421491725  0.3004161314848532  0.9801159467139471
  0.3293635513468476  0.6612573271903393  0.7734366592021790
 -0.0120176964196069  0.8082415455307200  0.6259389052538609
  0.4406719098983309  0.6589797679020701  0.7593011117947147
  0.7976539270276264  0.0291822168402199  0.9212285615150358
  0.9642136304088830  0.5067025929096731  0.4086810668570939
  0.9935833463355299  0.7404826734797065  0.1654135073163269
  0.4319921478841078  0.8755615888727510  1.0080877618073012
  0.1367077870983922  0.7273594060696168  0.7514606461047163
  0.8337039838636616  0.7379547404504890  0.4493616212615525
  0.2494695310138252  0.5458573251481926  0.5977083924676486
  0.0714965542853489  0.7191644397867478  0.5590073500990492
  0.2446661725560668  0.5765561409964296  0.7013422733072771
  1.0100443326758930  0.6276879797076894  0.8118149469992907
  0.2036905887986194  0.7060743262923241  0.1315480640499599
  0.6735710860813359  0.7419602380114619  0.5016839653811612
  0.8097159117835642  0.2093570412079285  0.5536912268491530
  0.9044403566445705  0.2928393887761456  0.2223007901737757
  0.0885485762330257  0.1328582684164353  0.8195877317499297
  0.0853103346096915  0.9355032238693928  0.5374211274449238
  0.8603013051921944  0.3716575415940241  0.2408771992412667
  0.7981046562478876  0.2778679016404177  0.2496045385409922
  0.3644004539892750  0.7080184261073509  0.7860592214254597
  0.1366161120638912  0.1426734668565079  0.7738361015766606
  0.9551397269103373  0.2771367008707341  0.1888218878766493
  0.5902570382373119  1.0223268125434726  0.0215452778478677
  0.5536374030611636  0.9598781067236883  0.8113863614477919
  0.7273556819656916  0.7116772032574775  0.3078333409842240
  0.4126597378339539  0.9316080960607230 -0.0125060474996154
  0.9744455713346000  0.8976200651749013  0.9506918489170648
  0.6476989071142544  0.0126210433721825  0.0391548659782139
 -0.0001803362715691  0.8124030235884749  0.8558583394867768
  0.7149523889273025  0.0056966700852973  0.0696850378439778
  0.8166008056690972  0.8242417683198915  0.6518424014710842
  0.1383455512701232  0.9502057702221217  0.1687508655226256
  0.1533629359060949  0.9081255095511140  0.1174351005173419
  0.1611805224413279  0.8886667453329942  0.1729655953583757
  0.1005350758257625  0.7387795116404071  0.2023962974224724
  0.2747146338400110  0.8395091325160627  0.9521263868729788
  0.5014449618409653  0.8037645247375809  0.8184476200432850
  0.1709781974038504  0.4458409252487518  0.5859683952227641
  0.8496632788911941  0.8335051255920328  0.3173119492670465
  0.7926420819005676  0.8210056110985162  0.2429133529112829
  0.3587930564704618  0.7718428341266023  0.9983411906535383
  0.2658946610470292  0.8003580799667800  0.6270213199329527
  0.1634319643107681  0.8374852061304841  0.9718733646861554
  0.1394371969431168  0.5484952566423562  0.6113063566067793
  0.3352318367214828  0.7808839860448393  0.7085930406580813
  0.4129278245819353  0.7030953074586408  0.5787778639563964
  0.0770735573922856  0.5820078230204540  0.6946947775600363
  0.9873404650215110  0.5256110154845314  0.7298429963687975
  0.7645896173836512  0.4785074935522763  0.2282263382551682
  0.1234519923632225  0.6197376161580975  0.7607822982389848
  0.4866863324634186  0.8475000533051327  0.8617665759407186
  0.6059224873893377  1.0077709039212279  0.4114003465909978
  0.8364255488565669  0.7459254514887973  0.2263002098772182
  0.8865763854834030  0.7395091176330544  0.3558904185561015
  0.3849863190046497  0.8656605291604508  0.0493184937358467
  0.3159049230057866  0.5546075800120244  0.7827347975575131
  0.2888379405884539  0.9274987866533893  0.7780322598340504
  0.1814328965347778  0.4613446318244892  0.7510349107388945
  0.6552202175933094  0.6388708622014351  0.5549683506179263
  0.6390208612862465  0.2791622034092691  0.0859366903513227
  0.4932863271680554  0.7178037374068139 -0.0064755799686161
  0.4399871146766267  0.8099816456305459  0.7954194294154364
  0.4910279763741875  0.8169442449550435  0.7582901473437611
  0.0578331542507236  0.0707380976950830  0.8777637582304721
  0.4069260952028079  0.9275543123227658  0.0445749276253757
  0.9700709705858394  0.4230924837918871  0.0287016531733174
  0.3004449474406066  0.0131210993419073  0.8632369666394605
  0.3426760604512669  0.9511600948302656  0.9049662042141107
  0.3522955719062298  0.9308759511813471  0.0227054430389658
  0.7994715109897145  0.9320115526440288  0.4325401395419750
  0.4076624461781845  1.0453107857210695  0.9500144583963762
  0.7919549994544292  0.8357189017184591  0.1789261473214375
  0.7282537854278747  0.7613899121847543  0.5184947401299096
  0.2569392494439743  0.8633508840965778  0.8339217922609183
  0.1140545956644407  0.2281497308263783  0.8692195089929238
  0.1097037277803141  0.5426134591543003  0.8771288621868445
  0.8886095080020094  0.8697872356240511  0.4969333745474548
  0.0607973664956662  0.5072776365501313  0.8135862193934664
  0.2095859690933616  0.1516972983187113  0.9713598125967259
  0.9400171217465861  0.8650738193881325  0.4574043363958085
  0.1420977839394083  0.0377908888687836  0.0263100768973658
  0.0983448023303745  0.1205356960431492  0.8812621079171544
  0.8957193268554027  0.8418625752149006  0.3780086403307720
  0.8958846275570282  0.8846073941822622  0.4211999743285740
  0.9556821349460899  0.8801964952771555  0.3968670872429890
  0.5725990413011119  0.6371150362337694  0.0364809935108488
  0.1885424764674943  0.6295544883908381  0.9559040197137736
  0.8572878257712607  0.6204192329584427  0.4695494485456151
  0.7776495338671069  0.6805877464643193  0.3353480528535726
  0.6302738834088294  0.7888769934474119  0.1925691723027120
  0.9508135451814815  0.9270238867000554  0.4412646401910287
  0.2019802189483483  0.7289982990732687  0.4575725892396741
  0.8238733281569699  0.6026863994958551  0.3179998532365780
  0.4083814385800698  0.6601240134371499  0.0276036121713380
  0.5064515179724217  0.9230823189515176  0.7448246067390955
  0.8680707473306108  0.5283865695925380  0.3068238078089929
  0.8035597691201549  0.9283777095380015  0.2715834320050430
  0.4617325494807334  1.0001826581146438  0.0947057086872345
  0.7769883665383150  0.9868252255195969  0.2642935855001056
  0.0660635477087348  0.0592611835514332  0.9381964286445008
  0.2194895493898454  0.8157064592999423  0.8277754196630582
  0.8524990513510261  0.8796566847323085  0.3589694473850429
  0.3862708122565333  0.7559511324227335  0.5662753374384452
  0.5050380526648667  0.9061018503087102  0.5751009701010722
  0.7326206681396704  0.7426013594405751  0.1876089374973019
  0.9362014941263829  0.6932848385465005  0.4435938983998455
  0.2585261063613707  0.7247068564513869  0.2002259144487936
  0.3405025109331362  0.6529257957943772  0.8297339274529028
  0.9557395264497880  0.5866913565219999  0.4819245666003386
  0.7823689876146518  0.7265628341802938  0.1544419919347308
  0.5383471319443525  0.9684952326186689  0.3457585276532876
  0.8484010709781798  0.8969067518285535  0.0002100741914011
  0.4271946483672547  0.9397692150449706  0.2049878654325639
  0.1531202694680732  0.2468757654387948  0.7697417220873944
  0.4426772263541638  0.3974292533998620  0.1996750343502572
  0.5816510253037733  0.8473793899468768  0.2744939868505800
  0.9745061597776763  0.7264117416992470  0.8377073563141778
  0.2242420706653308  0.2283838996990361  0.8520638729253632
  0.8935023147604707  0.7914522838875834  0.7982020136345419
  0.1641907204560399  0.7899561325993238  0.6992773474253143
  0.4468205899439899  0.4103610098369884  0.1394822210162953
  0.9956941406505798  0.1221602674588347  0.2436056379546472
  0.9088151834252854  0.7627731569891468  0.9198326054557483
  0.8754805799498261  0.5357709628736191  0.0210676590734585
  0.2106382920180115  0.8025249542333499  0.2173199548372351
  0.1553680970689880  0.5810207521881645  0.9403818344671335
  0.8785193687361893  0.6831124097194051  0.8091846211209338
  0.5382121367925464  0.9509708018693798  0.5799475531174713
  0.2043956569629096  0.8276562049187735  0.0926359323097019
  0.1919721645797261  0.8503919837076389  0.6458700533208296
  0.9400080132878339  0.7813356208288635  0.5352571343773822
  0.2467088397700826  0.7753479525981107  0.0073729585645919
  0.7753605725680566  0.6271632957880572  0.6041806715468536
  0.8866364206332519  0.6473752736800432  0.0337314724793185
  0.1080609700663464  0.3295449700679431  0.6367627265834394
  0.4986396249625715  0.5569752949114684  0.3962776380720069
  0.2158790656163373  0.7462172281980345  0.5613240320562797
  0.9811604543122916  0.2276850241875570  0.6633364260030558
  0.7927697990165901 -0.0013268265966929  0.5210465940683819
  0.2851590761910663  0.2208949231786261  0.8726821073061169
  0.2749326760420425  0.2642443971879497  0.9167925888387188
  0.8609885457560130  0.4188222385671050  0.2831411581542187
  0.9133485446034545  0.4013891893752720  0.2492184878832668
  0.8926938640610017  0.7654587780644403  0.3018917161047592
  0.9169326223684044  0.3903497479757514  0.3097365473347578
  0.9583798882485308  0.3491421177151098  0.3413698557384318
  0.9541829642097122  0.2604945425532149  0.2476101225677788
  0.9497243053691585  0.7901251818657365  0.3016750777653762
  0.6400305858367890  0.9766584350823664  0.6690075028538448
  0.1199253604657993  0.9025831308042703  0.6671353990432983
  0.1088236999937365  0.5123287729386995  0.7738740076042444
  0.7723765673117063  0.5877814478433807  0.2507751422286580
  0.1082067884448242  0.0787916798235149  0.8383856868105836
  0.0779745329288582  0.0138111861058646  0.8947920871062933
  0.0399062457667669  0.0365470194803964  0.5430985595847040
  0.0446577556235178  0.7644059235720219  0.5350748176026925
  1.0127493621195010  0.8717630857489965  0.5786174878164814
  0.2660203595193146  0.8509549876740442  0.8935974961224218
  0.1425526472885333  0.5245736946823897  0.5059010664698061
  0.8309028643619288  0.8654334167675621  0.4160361989313471
  0.7006332488728021  0.9139173693689099  0.5237668423226656
  0.1915813268875960  0.5549202295734966  0.5750184977822942
  0.1502508452401247  0.4665172630583788  0.0184148682517133
  0.1835531516072910  0.4233682149181966  0.0976390228344981
  0.2917914507392886  0.3903577952706721  0.0168393398016716
  0.0931239906264918  0.2154765330367061  0.6382519809382508
  0.6815742969126088  0.1571083125014635  0.4725023234434725
  0.7413544855680912  0.2006808154396289  0.4241693791278647
  0.8550067724617335  0.0917527080343892  0.5804117048704686
  0.7536051256810863  0.9443753268002931  0.4826434302262220
  0.1918722261550883  0.4925530105542530  0.0803252382424958
  0.1337684622973369  0.5835491044582364  0.0402661367698476
  0.4776882189512571  0.2276828355363458  0.0991175783494642
  0.8709783346595230  0.5173844662398859  0.5942580202214003
  0.8835786134836965  0.2164265587071034  0.7422584297817432
  0.5284800485711347  0.1994302736544135  0.1217717957264702
  0.8827615981586635  0.1853273287788972  0.6357796462109819
  0.5743040442987879  0.1249620836996648  0.1039126357779270
  0.8173434739868274  0.0757377336781847  0.6866230487395367
  0.9391654719377082  0.0571531005111110  0.7265614946570849
  0.9054643129012688  0.1597477133579788  0.7582554578789305
  0.0475539914549364  0.2303804587922818  0.8468475164643529
  0.9245945941665740  0.3876105803550304  0.6788573871675299
  0.9549913950554972  0.4232683516442484  0.5218119435645225
  0.5662117625599076  0.8131227475125601  0.0064017967604186
  0.1600860188860030  0.9182184913873011  0.5687619048338074
  0.2078001736819484  0.4515348422390011  0.0429968650086067
  0.7329198399386093  0.7752508309104866  0.2921671150159472
  0.1198685393622696  0.6445485207924148  0.4702548989012620
  0.6540161076446118  0.4900072539702267  0.5192292756208690
  0.0061443187153538  0.1990897204580890  0.7902591923179040
  0.9916127118164267  0.1079271386536629  0.9614877468945069
  0.7635486349385971  0.2029631348008403  0.5931542493387909
  0.3645546385662253  0.1059351845258309  0.0924168433420901
  0.9019683581966308  0.0410610799071671  0.8270982981975881
  0.4153796915923716  0.1547158203629394  0.0422445813796427
  0.3983266839998991  0.0860142898715214 -0.0047434033263788
  0.5089250722699943  0.0859973559889529  0.9765973681616746
  0.0027173888205066  0.8159651204446975  0.0835418990778830
  0.8205347990524221 -0.0258825924263552  0.6976452392141096
  0.1545975442835952  0.8050234198916929  0.6313921925016146
  0.0252698354886724  0.1757842864874362  0.8960283264868117
  0.9167836537699173  0.1462360159454834  0.8192831343608151
  0.3751642086835819  0.2757906771774036  0.1056129632894943
  0.4711916650000015  0.1691023702394492  0.1143111947785252
  0.5751754625543375  0.0744247306586099  0.0595082092677982
  0.9237429234134983  0.4179420377543893  0.7871380798076723
  0.4915088383718322  0.3479619662007349  0.4576883761183696
  0.7926639273278600  0.4782744593841049  0.7913769986165258
  0.7309041158278665  0.4560787546789222  0.6653825835183262
  0.9095087423363200  0.2801583198600511  0.6865843123565379
  0.8400256002318989  0.3026453533160565  0.6051125277627153
  0.7813666947281731  0.4638320627605491  0.6268585590357514
  0.7981758015225328  0.1065121629351819  0.5549692421945486
  0.5821540991688221  0.3757567336010597  0.5706749858321558
  0.9475776694979533  0.6611908204322513  0.8922938603388414
  0.4584884682938749  0.6463059998306887  0.3479786816619577
  0.4978576577298605  0.6030219749363527  0.4424612093668149
  0.9852884414527096  0.6493937040040045  0.3067527119594046
  0.4972962667059953  0.5452303819829335  0.4597930724276982
  0.8472999303710174  0.6057525301132216  0.6848020252256064
  0.8086368760618414  0.5557825911871844  0.6783256540752406
  0.5981023903031740  0.4486103567192423  0.4067239930695256
  0.5812737915636675  0.2150061465873177  0.1945591470499699
  0.8389229560661124  0.2602020227058167  0.4949024837088409
  0.9341713327314425  0.3166053528718325  0.5264496300882459
  0.9267977654683039  0.3583115408601369  0.5713970636490153
  0.5221370177326584  0.1585388128948090  0.0790425827308039
  0.7400837013999375  0.0951961507481764  0.5470189103956428
  0.0068524146861803  0.3513766386991349  0.8194362252695112
  0.0111365042946603  0.4686144878845364  0.7503310271728985
  0.9464864408448304  0.3281823327162149  0.6919129263836498
  0.9757780347526362  0.3925262844785012  0.6415700407322134
  0.8534690754438659  0.4404597480639606  0.7056325675602897
  0.5484089511781212  0.0175720025876014  0.0608564516386698
  0.9831754661722810  0.7113678722576217  0.8970882193405154
  0.6698394323584940  0.4343016467776262  0.5415691199652150
  0.9789880530534666  0.1660935234907761  0.9436571676558514
  0.5375600430680967  0.8535880486173392  0.8235104511301273
  0.8429871754588807  0.8073102696044197  0.2079694490852537
  0.7424240391713788  0.2471958161540122  0.4678676915144084
  0.9730301560330773  0.4205640030736880  0.7492168996037131
  0.0416906588685666  0.6629608031657211  0.1532906473048988
  0.8999221397994410  0.2931105945714603  0.6271705645127528
  0.1410011714205214  0.6274006535438910  0.0832207120356544
  0.8116727219392883  0.2386124331491718  0.6617278869844727
  0.9568090078873641  0.3469989625260261  0.8565518955299725
  0.7870360757320796  0.0747455547431549 -0.0372617198290467
  0.7400163318334236  0.0376598525023282  0.8966018077119062
  0.6813288323199704  0.0126349269122834  0.7694670012100991
  0.9303556013733669  0.2130495991060892  0.9772871475107131
  0.8737436366688014  0.1749784318120411  0.9681626113318992
  0.6237462543797297  0.0565132236505383  0.0805434750787203
  0.8165775479134202  0.1370707706896024  0.9013020054819074
  0.0686313775497753 -0.0314317984431040  0.2893481929966455
  0.8171654062645920  0.1056143770272398  0.7946929833374718
  0.1080197000906268  0.8446181593404387  0.2294961996809938
  0.6698162854358926  0.0254198257498107  0.7059709922136664
  0.7201948857069504  0.0329724239281298  0.6642496264055647
  0.6666558700313205 -0.0605779401778500  0.6254363719198881
  0.4835243937114275  0.8803833004681293  0.9699794251510767
  0.3050375153616049  0.6011433491130938  0.8259429024998489
  0.9558005081783175  0.2288795539242676  0.9329203700092742
  0.3180985999262191  0.6591091167952899  0.5401181863223775