B  Cr Ni
 1.0000000000000000
    39.0487268126086491    0.0000000000000000    0.0000000000000000
     0.0000000000000000   39.0487268126086491    0.0000000000000000
     0.0000000000000000    0.0000000000000000   39.0487268126086491
 B   Cr  Ni 
 213 1596 3725
Direct
  0.6497952004738897  0.6784141631172914  0.0404576135855053
  0.0649192552899370  0.0170387572357403  0.5821809265609518
  0.6574698820834407  0.1850763759841376  0.5231870454163640
  0.2613390482896420  0.3486768047526497  0.4269018987524854
  0.6280354496464161  0.1741468341625052  0.4908630383140110
  0.2979809425292341  0.5452381482614743  0.1754094480261059
  0.3335910895204586  0.6322804183047890  1.0405783207170607
  0.5200845307605942  0.2049891027992874  0.4902828131551781
  0.1665160514540371  0.6195255163864797  0.4446943312662107
  0.3214206728668192  0.1156306437764435  0.0627137092274434
  0.9758482618121211  0.3988008380092817  0.3143494694995380
  0.8491414782377966  0.8596660447800881  0.0396108487873902
  0.3421076578235573  0.1570025326985383 -0.0093718896545377
  0.8981720128558598  0.5926932952158211  0.4932727148437436
  0.2002361149418732  0.6417375621265893  0.4232566459570793
  0.5148705395568963  0.3733619492047716  0.5028171868102552
  0.5363692553628725  0.0702555212024512  0.5477796628879303
  0.4754714980237875  0.7643973881213743  0.0263337390664625
  0.6330828486060689  0.0462815919390161  0.5239592276678378
  0.3497942430647733  0.4432091870636767  0.2507458838482579
  1.0752859732402533  0.1792340050840575  0.5880523778774249
  0.9439492106792231  0.2658027167501382  0.4074570019544600
  0.8737724631046345  0.6995964842740359  0.1522670232926614
  0.6294211583833520  0.8436388663406964  0.5226567795148251
  0.5771176524747476  0.0530966368273284  0.4136003395955091
  0.0144222752295595  0.3006586314464971  0.4246337491212240
  1.0084794637847074  0.6365878210386512  0.4240091851190244
  0.8047820550624462  0.9023457803850709  0.3830601415647523
  0.3364933970445699  0.7246482877866758  0.0260978160138131
  0.7955491677960531  0.9978431625392765  0.0428447990436807
  0.3394764634058926  0.7193300702887070  0.5609142563375048
  0.7177547367067868  0.3036683559301620  0.4765189382595987
  0.3132963404183489  0.7015280420830703  0.8127472334385569
  0.9038571247691534  0.4205733980264074  0.4013852139817257
  0.9280929928079076  0.5503954058432527  0.8764801146062541
  0.4967121844566737  0.6505673337691616  0.4742267004015177
  0.1998955980094619  0.2862619411399795  0.4587679806321284
  0.2969098121036856  0.7302456272446393  0.1160694024881261
  0.6301821524450031  0.2486417903577187  0.6101154737868725
  0.9904271159657212  0.8244789771945595  0.4829503196834283
  1.0482188415705909  0.5951850507632683  0.8343421494388226
  0.5953813029718800  0.9211014919979477  0.4655791104222703
  0.9805000606360486  0.7687437748672853  0.0555443990359152
  0.6278420819889351  0.4956165311105513  0.9477272387392603
  0.6253916192594314  0.9227156360066620  0.6638819487221999
  0.4253764296712645  0.8412445468938833  0.0488030496122638
  0.9083465542238855  0.8157107717120964  0.3299234439482613
  0.3706999011141197  0.6291213460312842  0.1607596738723925
 -0.0020675903090865  0.1990531633456149  0.8498805467001055
  0.1130868416103514  0.1181227426434429  0.3301876597072083
  0.7314382393892367  0.5494108114341099  0.0287109871619340
  1.0027078813087822  0.6358384395580592  0.4966165764673598
  0.1161829255986110  0.1944592537623168  0.5907771521941867
  0.1170905287882962  0.7231597958197082  0.0621054246413595
  1.0077885004271376  0.5399779559713273  0.9044694856524107
  0.5958338131228986 -0.0196215879101275  0.7149413791981376
  0.5755279201930759  0.7046192063072420  0.0912414851067084
  0.6371630252846193  0.1771737019603447  0.0640588161565935
  0.9899514952128625  0.1868827944230721  0.6242705356617583
  0.2308729120758401  0.5707669624134016  0.0886256406567563
  0.0858202898780018  1.0452438988834392  0.5553080969366924
  0.9074676402817942  0.5827962539178805  0.4000579175660479
  0.0444898622802521  0.7370837414890374  0.0893425865763062
  0.1107253273972676  0.1630321895294903  0.7259426464154801
  0.1640543243684253  0.8169537050803470  0.5947170191578288
  0.7376003081361044  0.3978085542845466  0.5137995049949968
  0.1083608053215153  0.9875807293379227  0.3217956884796989
  0.2958873497444941  0.7565805285438069  0.8671160422917366
  0.3233852049457995  0.4214871992701402  0.2796071683984226
  0.8772791051433947  0.8943053430278010  0.0455111787403932
  0.5581405112185540  0.7685907591843674  0.5239088239392841
  1.0186760893944584  0.1096101096166579  0.4617783966560988
  0.9542076862283884  0.2799938536983921  0.9665369711956336
  0.3039055750674348  0.1577598240811775  0.0696659854561438
  0.9393011149355746  0.0464885865570161  0.5982639501176100
  0.8514230896485837  0.0027355175913157  0.5638582088821039
  0.6304407022553089  0.9092677148808745  0.5835050973063151
  0.1025816651121273  0.8298783566793251  0.0737842714185932
  0.7260024855241365  0.8900190552475841  0.4780437958468387
  0.3217690241870263 -0.0238937870213818  0.7819327554631188
  0.8778971093076320  0.9279533338177457  0.5950255123622623
  0.9200180015063867  0.6981629195496605  0.5074437101339657
  0.7322903274610932  0.8339894568581715  0.1083906159063776
  0.2561681285357035  0.6992992568614030  0.0584351051863052
  0.7990273297833485  0.9160282072066941  0.0181677016225368
  0.8285363230564551  0.0211053846350721  0.7735075393830458
  0.8695445084236666 -0.0254750707091693  0.6648736749605232
  0.0150513993097381  0.5714215962542328  0.6903114064853501
  0.7428112392696953  0.0788873380867123  0.4965721918919449
  0.6194036128158205  0.8045810018901607  0.0110567797447320
  0.5899110932809105  0.9505054293703273  0.6750766754219141
  0.2021692744292522  0.1006947688976746 -0.0017729084407868
  0.8378761242542406  0.1218628896119117  0.3024633772767905
  0.2328162080796213  0.7282428864692412  0.5097520466872232
  0.2666364984996502  0.6546027053077939  0.5294397457021535
  0.1877790847423876  0.6545349578242114  0.5181637561058474
  0.9926033149486650  0.0724583093370212  0.5342330316007664
  0.4772025049758837  0.7232354782975904  0.5571348500842899
  1.0093149183222552  0.4289755251765146  0.5004582729063923
  0.7380409065830668  0.7368382541556654  0.1217465453347287
  0.0002696851405975  0.4799647154180652  0.6966205950323691
  1.1018629320481224 -0.0181912669492714  0.1923943943541475
  0.5149073006929543  0.9557597778062189  0.5235769374671662
  0.7011820457993821  0.4882272014562490  0.9747108868384582
  0.8781909481561976  0.7934113046124011  0.3532580068392401
  0.0868643997810995  0.1730337832004817  0.4884156031401702
  0.2738993796916291  0.0662619666756114  0.4430849086948399
  0.3107560521298091  0.9333434649403676  0.4610700117980805
  0.9861945862910870  0.9494820805686733  0.4284235021164607
  0.7748363822726844  0.7943683069009229  0.5216860496462501
  0.3236936805912162  1.0119485774944899  0.5120269052998039
  0.2336761830003580  0.4093474970425105  0.0829109734132053
  0.2275177580004765  0.6486675406669575  0.9130106310225693
 -0.0372423566754501  0.0369057010857891  0.4597747460129912
  0.7499495338395917  0.4835354858373909  0.5130411811487045
  0.4744886236226134  0.1038180337136729  0.4145273470996845
  0.0598231556160264  0.9052804252103441  0.0213202080669268
  0.5991712703567893  0.5660984063804214  0.9313180512677487
 -0.0188807841617225  0.5507299683374525  0.8184396344502205
  1.0211008540427089  0.3782789428323066  0.3959402313405068
  0.6680309702146825  0.3011980868234888  0.9787874954129746
  0.4916785655817144  0.2690588674018197  0.5383121339951408
  0.8378884427993067  0.0111900989860073  0.8411315258029127
  0.0777082572949995  0.8201364683478780  0.5640669305560815
  0.8411732599163669  0.4984608754541743  0.5466448915819115
  0.9350161757057889  0.4408308651386131  0.4736419435844005
  0.4857979146794966  0.3123102565660381  0.5527113140042117
  1.1326350265695815  0.8481853527502236  0.5097321539337127
  0.6452958672411943  0.9873253416649099  0.4778892811761159
  0.6412252555979994  1.0251408961696278  0.3779953889066228
  0.9729703213332399  0.5862617899023933  0.5557767062967235
  0.0498726200998768  0.3341825808631042  0.4707506159879622
  0.1830910918409571  0.3626370018744686  0.3949375740073393
  0.2695417072999747  0.1520295201684771  0.9811388896303304
  0.5854203360795510  0.9330388704181498  0.5056458861407305
  0.3192792064068166  0.0409832411363886  0.1386094444834373
  0.8380251028220016  0.2428756867413242  0.4576024274796781
  0.5581848802123057  0.5590935888966322  0.0279131915297912
  0.5304766825633370  0.0556654397789126  0.2707984026351453
  0.9228892154553836  0.9655989091595865 -0.0137814468856353
  0.7351317678890348  0.5889691411259539  0.5503582065993219
  0.2318389633473882  0.4976280678840784  0.4329514304513036
  0.1068033557747604  0.9076198948125945  0.1534583314683211
  0.1019853681860514  0.1605991100921787  0.6196848834440366
  0.5589228573370512  0.3085751258628107  0.0042452392941292
  0.6383955696019420  0.3853726280186769  0.5436041076296221
  0.0223057385645327  0.6139742485868553  0.7035717702557638
  0.5731217045696999  0.6841831300250181  0.4807021857743090
  0.4107481204003572  0.3144339795778262  0.4795441774031890
  0.1729785890817028  0.3680868369465569  0.0709698742370231
  0.2653302200718982  0.6324149516505654  0.0073968967702337
  0.8950672982368646  0.6611057454130667  0.1456518030246391
  0.7092352406555581  0.0531879782619624  0.4186404865741830
  0.4602825062384870  0.4029690228944627  0.5368764553564759
  0.6530527486972770  0.8237461358115069  0.0860819189766432
  0.2279536150268137  0.7509330845432567  0.6241826797755804
  0.3587319355684146  0.8095500362400959  0.1617565885277170
  0.5726034399830610  0.3237507119924306  0.5535369133306002
  0.6650984153194018  0.4978272794210396  0.5239767133573001
  0.2848767114420703  0.4073203806824258  0.4713062529655954
  0.3362526373541313  0.4320681419237439  0.5449049377328409
  0.5515990812424356  0.9648161560361062  0.3851883943775105
  0.2788976410999178  0.4762346643234937  0.1232906111859982
  0.4899155583092220  0.5001540744012856  0.5346206605169804
  0.7695862196197161  0.9010179777239957  0.0491609082265339
  0.5952610078694917  0.3746661248738095  0.4726204655843503
  0.6885531772027296  0.3202268544430667  0.0466113698248519
  0.8917688833723504  0.9251369090349922  0.4650838482655588
  0.1310167758748899  0.6530073025722557  0.0246419581380404
  0.8468665908245711  0.3273803465938471  0.4106320322287722
  0.5243196021313252  0.9396984066000494  0.4134530998137512
  0.3704047784910074  0.2466082946565739  0.4418556230038319
  0.9050132644326775  0.6422942745609522 -0.0215136593599020
  0.6302757132336221  0.2132025194162363 -0.0040078869634191
  0.7203830159560907  0.0128720364688943  0.4362835562606905
  0.0073751471945747  0.1548044951602897  0.5321318029735882
  0.8720878311882135  0.2783789498240232  0.9388749570808763
  0.2967865424177055  0.0786519517385312  0.1474126419003185
  0.5337700746147052  0.3010797983918327  0.9332947895881689
  0.1157729576241594  0.1511759991590138  0.5137720430928377
  0.4062507548115109  0.7281307154061046  0.5174319713026664
  1.0551194455151227  0.5762746559895745  0.4816119704856079
  0.8954825497675669  0.1134482628541649  0.0489264867650812
 -0.0518890490811687  0.8356200844843691  0.0143946980951836
 -0.0035458727917017  0.5047754215678959  0.4992280843668925
  0.7767975254495780  0.8821906052414268  0.4121435154831274
  0.6445721183217856  0.2790805537871144  0.5812159380359108
  0.2955984354576568  0.6934230579668463  0.4371807870780628
  0.2977850857277746  0.5507581807805718  0.0371328674349364
  0.6737762841081234  0.9732143722376696  0.5171866179580143
  0.1461929148888313  0.1388667077691162  0.7156070513516536
  0.9869813069974251  0.5746141337842545  0.3726175422710858
  0.1229028887026579  0.0306787589228050  0.4696725393301843
  0.9948628882290446  0.5577175116773150  0.0100631168877220
  0.1683676628467004  0.7119952477867664  0.5605730373105495
  0.6714834481464613  0.8911595683722107  0.1300298861162510
  0.3782950438070246  1.0159368955969981  0.4380074216803362
  0.8915869485550526  0.0462357187865146  0.5175017211625165
 -0.0138761477679038  0.3999772067017320  0.4170485256329213
  0.8653323465081864  0.4384797246576307  0.0024228671230133
  0.8648505913662223  0.0895856788773942  0.9587427738792050
  0.0926836934193405  0.6382090105956101  0.3942652169450894
  0.0985195243622032  0.7158063911255635  0.4795629243293876
  0.3712257176753170  0.6791804802635200  0.2215888983494677
  0.2903034911242104  0.6386961456734467  0.1989010043807276
  0.5806158989988187  0.1720507862718136 -0.0280578123366556
  1.0293258159835832  0.1814512915657007  0.4290979456565194
  1.0320537557383815  0.1737986334505363  0.8382159860462003
  0.8682398145556556  0.4038847183191144  0.5259669232348554
  0.5604894172065172  0.7326176953171355  0.0606618944827245
  0.8210981790867052  0.8558594644450231  0.9671269259330351
  0.9530758469962842  0.4368110126975268  0.3208145263086654
  0.8149386084324264  0.4662971323926240  0.1957513032987621
  0.9253152487523720  0.4917189200010659  0.1074972298843947
  0.7983551537452900  0.0287832037281381  0.9208685484957997
  0.1258613139868832  1.0198998230584331  0.5903016954531433
  0.9609961244511548  0.5082656539691489  0.4084037581661946
  0.8791723456461308  0.5676343807341069  0.1226810318723078
  0.9914269460227321  0.7393489990042332  0.1687970622848466
  0.0053074445374548  0.4542166968544733  0.5953733611942160
  0.1999243215047199  0.7067511008397753  0.1314569171628014
  0.3302016672791907  0.6609427095105549  0.7726909971831663
  0.8120767439299025  0.2102368961149389  0.5549958891602579
  0.0980628815267925  0.7388515651912070  0.2033548719133057
  0.1610893078889691  0.8881603379043486  0.1724448036558796
  0.1530297923166197  0.9079246543081637  0.1177704935735635
  0.1381213946779398  0.9503498980619844  0.1690974128502122
  0.4332727995055451  0.8758742065882872  1.0073905780308221
  0.1497194364551337  0.6832395896150537  0.7046357626509907
  0.8306634480836941  0.7374608027846584  0.4500743133341383
  0.2496920893057948  0.5450560559006863  0.5972684672112049
  0.0663258731400107  0.7181928671288418  0.5541590019604428
  0.2451476743344552  0.5755730103786876  0.7001185233246631
  1.0101613322195746  0.6242300924033046  0.8080525628244485
  0.8158965649054059  0.8252271767377940  0.6520286731495580
  0.4458442603455810  0.4107027569869791  0.1387640968163872
  0.7153914227645350  0.0058505426396342  0.0696351571099137
  0.9036942567984305  0.2925323679779220  0.2235286588120678
  0.0887658089510696  0.1324001795120449  0.8197590813629785
  0.0852175733616786  0.9350746047232952  0.5359841687631332
  0.8599728894734827  0.3712702646134126  0.2421663688570361
  0.7977856559199212  0.2777500216724409  0.2497901475356381
  0.3649650752796110  0.7075451128716307  0.7852763234713402
  0.1370572140638391  0.1418325319068469  0.7741696447439186
  0.9545730990061280  0.2772449162034283  0.1901042267284943
  0.5903158978811385  1.0221224361614503  0.0205899780997911
  0.5544971344061769  0.9589841820207240  0.8118641310262951
  0.7266006651003326  0.7116794695708715  0.3068323424455617
  0.4141464284700149  0.9310928521310586 -0.0113343764689898
  0.8939250094428768  0.7909118064292751  0.7980913997087069
  0.9755687168673407  0.7254852795978554  0.8383143757566636
  0.4421689210566447  0.3976039473951634  0.1997358814716923
  0.6380088689432172  0.2790993990195391  0.0852824950894841
  0.6540108853457099  0.6394237398920137  0.5563404972767373
  0.7000649921281911  0.6183489108596743  0.5229960678506143
  0.9738402197566408  0.8974159076670959  0.9498497221497156
  0.6481338362442643  0.0132465474393778  0.0382665256853534
  0.0009012584911249  0.8110963698778940  0.8564703465143946
  0.2759091912855425  0.8380504358513379  0.9537162138716290
  0.5023899026024807  0.8026903664396881  0.8189801596846582
  0.8947884885642298  0.8427208838331990  0.3800259408040051
  0.0582267452292096  0.0704249420182322  0.8770811945873392
  0.7906673099096390  0.8207082234294217  0.2432457762269755
  0.3608608003352258  0.7717050921934538  0.9988226041032048
  0.2657067120650614  0.8004624984855052  0.6277475296256426
  0.2042207330921333  0.8857955940237338  0.9840617628086714
  0.1405766958185712  0.5473808737430199  0.6109221124570674
  0.3944395055594594  0.7724761394261246  0.7294346800026681
  0.3665863865944903  0.6939702289224875  0.6021933633322497
  0.0711808623289796  0.5811570996304823  0.6927236089494658
  0.9875441424026780  0.5289001762565929  0.7299025537804721
  0.7640993449732794  0.4780456488588017  0.2288245986688448
  0.1244894347710029  0.6197082967793156  0.7578835812783662
  0.4876785429551408  0.8465916540696972  0.8624223997837291
  0.6001728557807438  1.0021370928555269  0.4083268605677639
  0.8353431475884769  0.7456632743064153  0.2267591077623619
  0.8857461251292076  0.7393314800348142  0.3578089903300016
  0.3813216542335515  0.8695339340587578  0.0504098394487060
  0.3160309298078517  0.5547406721997910  0.7822785506853059
  0.2887449320863102  0.9273153113113798  0.7787642072893229
  0.1821328439344366  0.4605088631226555  0.7509454299635787
  0.9109014531029723  0.7622807635105148  0.9201630096274143
  0.2099487100605862  0.8031116015851151  0.2179640364296224
  0.4943896123954697  0.7156810573490501 -0.0042775363586134
  0.8932158707327139  0.8861993377233820  0.4264362896913835
  0.1721711110286983  0.4450140562856565  0.5860319164208317
  0.0987463214141708  0.1199578774760145  0.8815960418355229
  0.4402375362136642  0.8087727005008311  0.7962032387294697
  0.5701256457531789  0.6457856964339533  0.0368608576908715
  0.8514779594734216  0.8312614423450027  0.3168256987537658
  0.4914868205342493  0.8156771215690554  0.7588429110626962
  0.4091467036943846  0.9279938787957228  0.0470437451292374
  0.9675262126754095  0.4216662718275142  0.0281605049229821
  0.3005435107742088  0.0120983148556881  0.8635292552214807
  0.3430859135833857  0.9502045862455184  0.9060022496678596
  0.3537795751100885  0.9308938222626317  0.0229788596678009
  0.7952480772018738  0.9309933649735641  0.4305605330560339
  0.4088516429419558  1.0442946780402853  0.9502776220956803
  0.7912147376543144  0.8343627680242346  0.1810381961611644
  0.7305475981964985  0.7852750413938103  0.4565536187248715
  0.2567041822116927  0.8624352622222048  0.8335197909458459
  0.1145941369235143  0.2275695152197158  0.8695518560618068
  0.1098182255937585  0.5416422150805403  0.8768590949696119
  0.8854032727298813  0.8748163337337156  0.4935743531673061
  0.0109519987185526  0.5034682645598826  0.8536591004966527
  0.2102281354709769  0.1509195517574457  0.9717760734224212
  0.9486848191100220  0.8599512526382947  0.4611629018953455
  0.1420560779001581  0.0376644728888992  0.0268216598709034
  0.9560373774580802  0.8778239327953032  0.3984437912688141
  0.4033937804898838  0.9730979936877111  0.0874034654143085
  0.8601417965637963  0.4340650129702296  0.2212227043659167
  0.7762624856128632  0.6809686284182819  0.3349688691288516
  0.8514947078476193  0.8794176645695494  0.3598074146113554
  0.3877118420597888  0.7521426185848238  0.5655457561348551
  0.5007165531202793  0.9038071795666635  0.5780857008810043
  0.7310125153967674  0.7422706857858559  0.1800292426346049
  0.6041945891339066  1.0018180706786886  0.3388559828604677
  0.9345271105664091  0.6941837024204959  0.4477506344828950
  0.9965250424345222  0.7100275470535915  0.0615731751042377
  0.2576840090906776  0.7246888337289712  0.2023881606481110
  0.1702616486904109  0.6569625586289454  0.8277937005064410
  0.3416217612940137  0.6523361079811729  0.8289918346489348
  0.4862401679892522  0.9789179056895420  0.7274537597928111
  0.9525450911845400  0.5850244728998046  0.4844055593645081
  0.3291619788452538  0.3003188291689461  0.9795556420801896
  0.7821845012670957  0.7256878224852341  0.1540169286481880
 -0.0153088948461502  0.8083781362954170  0.6271362250615993
  0.8524639907220952  0.6187315541932382  0.4698518097798231
  0.1908800687244821  0.5544681151593998  0.5744632667372345
  0.6994702889034881  0.9184960923744153  0.5213812232653593
  0.8292156298399640  0.8657493786340079  0.4176234678146353
  0.1440408744325200  0.5239869008073653  0.5043855308855029
  0.3187015340062150  0.8537765762804823  0.8569211746070144
  0.2198860594038478  0.8142221820452034  0.8271055520757248
  0.7759687782903476  0.9866368124132476  0.2649381477080105
  0.1910822308920262  0.8487798727180708  0.6437230893580125
  0.5362191307225330  0.9508674242051729  0.5803618357651369
  0.8788593038856297  0.6826567889877942  0.8082454186879531
  0.2589344383402419  0.7313582275482533  0.9586827048611911
  0.1553347753859617  0.8399333225262755  0.1312233888188863
  0.8876226069553230  0.6449982781087445  0.0331605226304528
  0.8844972856179090  0.8103588051640460  0.5086534573333882
  0.1536902983026515  0.2461053314091251  0.7699061681892992
  0.7734442163465320  0.6271737696741128  0.6046663831347250
  0.4272048377436449  0.9392196142176115  0.2039829227350707
  0.1089611177606757  0.3291744636464995  0.6363002523362279
  0.5806223864679394  0.8482143337983966  0.2744287708157757
  0.4998590426926923  0.5557764860730482  0.3988246903542918
  0.2247200035077636  0.2276769894592191  0.8520822177699536
  0.8489212967088198  0.8978207260922620 -0.0020763980166703
  0.1414167996512044  0.8452075463765071  0.6811530267257497
  0.5398899620219227  0.9707654844788381  0.3338155439356920
  0.9977375061117610  0.1384476210837609  0.1831222333082702
  0.9410619798344984  0.9201386791908567  0.4424169701049764
  0.8727438353895616  0.5361161748993227  0.0216553305724149
  0.8221375189657094  0.6029583598705089  0.3184857484164470
  0.1567208841664191  0.5797345529642298  0.9410143301872226
  0.5066512324685765  0.9222804740257345  0.7456724946014425
  0.8027073607303002  0.9279150019153646  0.2719542298596698
  0.0664861420809509  0.0586294787396607  0.9400068870768898
  0.0035973885023913  0.1696450895032830  0.6792401780747992
  0.9560214585265659  0.4240964932168882  0.5241728568158773
  0.2853447285671882  0.2204516294013331  0.8722285619099501
  0.2749563836460381  0.2639135867710937  0.9163251057033215
  0.8611336736539161  0.4185962337379999  0.2836893167886388
  0.9139001417888393  0.4010050887008226  0.2500806822796691
  0.8904355590064315  0.7665208964695854  0.3025921993670705
  0.9173872256946618  0.3901866985881077  0.3106622012509645
  0.9583720671930818  0.3496500194884541  0.3439765208955923
  0.9535516709720366  0.2606836382236515  0.2493103963911650
  0.8962159430491069  0.8231468134001231  0.2766919764362286
  0.6394678429306083  0.9766658412724736  0.6689654180871868
  0.1210110005045318  0.9005766808665956  0.6654515422828690
  0.0586179942217336  0.5060162961036061  0.8149192028420629
  0.7714322971674701  0.5874180232045391  0.2512993302846060
  0.1090300458061842  0.0781351270448873  0.8389016331482025
  0.0692844294475693  0.0276820892220255  0.8326836784047681
  0.0327109504706092  0.0333187908146077  0.5345386141435885
  0.0449113578922657  0.7699166506664630  0.5365799731214111
  1.0110306400580580  0.8711644582319050  0.5747066723250870
  0.8408747904586236  0.8073352316610469  0.2072209874931686
  0.3052231522260280  0.6011546298035310  0.8248984996101844
  0.5381469006160009  0.8526836196874708  0.8238309407088887
  0.2495721482008248  0.7443849993973033  0.9013403790672218
  0.1186869610306597  0.6425034233673782  0.4685294150457904
  0.9253512157211775  0.3883005660724757  0.6800670973812946
  0.5466534815088492  0.8703740857718909 -0.0106513915966272
  0.1607179003942974  0.9192236873459114  0.5673503563174402
  0.1500066344839466  0.4665316785692257  0.0182721944380310
  0.7910318105277625  0.0062865979340667  0.5257246694917923
  0.1815726960947948  0.4225881212636319  0.0974952977840908
  0.2922017899799402  0.3910538035956357  0.0157078371111207
  0.0940373735440194  0.2152208069141189  0.6392192492697772
  0.6835558736354215  0.1666955676467974  0.4737587430082796
  0.7386148003595487  0.2002480320444254  0.4236505798521299
  0.8526191894576450  0.0930639387800527  0.5838282559751704
  0.7536724682687331  0.9412560414118574  0.4817321149516457
  0.1869381343102016  0.4907857393333770  0.0805673508531712
  0.1359600810803567  0.5827440277223338  0.0399069257135887
  0.4776423463700102  0.2288087672517348  0.0986033533965111
  0.8711264380664075  0.5187455914494804  0.5946747902967128
  0.8845629814171513  0.2162027874032252  0.7426853199054705
  0.5279824860491167  0.2001697257609497  0.1204638343555029
  0.8831830875182340  0.1855673397889329  0.6357672871153786
  0.5744139634844461  0.1250823299459652  0.1028533001624898
  0.8176905495030017  0.0749596426564082  0.6875484632101030
  0.9167178061451493  0.1151643792521633  0.7124750170363913
  0.9053223502973617  0.1603106902993942  0.7597222873342647
  0.0487544584425884  0.2300378566865612  0.8480822068750588
  0.2032539280331715  0.4482707376664653  0.0432302020389187
  0.8678783608118137  0.5285744933576138  0.3081792197518601
  0.7288548124186014  0.8161615564187155  0.9575356735090220
  0.8417482819729086  0.3035250556247260  0.6073145359535842
  0.9807663028794910  0.1425681155974168  0.8403895046778780
  0.9924356351032680  0.1072311770757311  0.9622392624589580
  0.7639659273530514  0.2034376419209408  0.5945966522833270
  0.3664766557272985  0.1231743501731503  0.0293123626671525
  0.9014582829498652  0.0411740063126073  0.8292952613967625
  0.4161698477770551  0.1567471993100053  0.0438126612811620
  0.3982870941819027  0.0850606767094591 -0.0058494267728785
  0.5090805633037977  0.0854512063107056  0.9760783691625206
 -0.0019135344631153  0.8159913882899985  0.0897671919948880
  0.8213371844464188 -0.0253764856419221  0.6983803296429639
  0.1848663121349012  0.8647241251085880  0.5843693208110721
  0.0259561105675519  0.1752861122852439  0.8968513181027324
  0.9177744128853139  0.1459553098267367  0.8202054546176543
  0.3748869037102111  0.2762101579335093  0.1047127914586257
  0.4707163355932760  0.1693787754325179  0.1138329058823088
  0.5756530503956744  0.0729535097737644  0.0591802843944792
  0.9238944728834324  0.4170762630396621  0.7881283872665884
  0.4916009178362391  0.3574878992643289  0.4542348750263310
  0.7921661885105551  0.4774159082284799  0.7922031101292246
  0.7319069845866054  0.4557212820067487  0.6657084484654813
  0.9799579930874712  0.1653485027421841  0.9444209730936330
  0.9102090772099120  0.2796134045081170  0.6876937585519090
  0.7824168342209323  0.4637749706191250  0.6271030382810203
  0.9843445784124299  0.7107943505740725  0.8986760813363819
  0.7925049059139898  0.1084442223713109  0.5599786596180103
  0.9486607816660004  0.6609514315845519  0.8914718791311151
  0.4577554766236809  0.6466938254531410  0.3500175799190344
  0.4988392315142127  0.6029364206516625  0.4421463386119885
  0.4109806380735836  0.6606771018334636  0.0285536521455413
  0.4967327290558313  0.5426024608857343  0.4606542248414164
  0.8450228053180455  0.6064357168246045  0.6860747682969847
  0.8076804715247617  0.5559513789207265  0.6791755955579706
  0.5991325621765164  0.4478238393882408  0.4065944015873448
  0.5813758062250801  0.2159319862897733  0.1932173625871653
  0.8471814004637702  0.2760688254062398  0.5019525773234904
  0.8797861764551412  0.3258327932058169  0.4994507373382475
  0.9297623641595180  0.3584283437484240  0.5729611288752826
  0.5222810268662471  0.1587860779516513  0.0780234969370073
  0.7370267948144726  0.1009682179667856  0.5477871294801776
  0.0076382016685026  0.3499248907213510  0.8199125111782010
  0.9609619938617209  0.4638639228025721  0.7915244646186170
  0.9472760467841348  0.3274805679859901  0.6932084845498454
  0.9767783256651713  0.3934980862918785  0.6421635344114688
  0.8538906932922148  0.4406393574083642  0.7070270599316536
  0.5471032519242601  0.0161331530955696  0.0594207973357474
  0.5863675076716933  0.3770378271149227  0.5697664799726558
  0.6098364243681745  0.4918449301693019  0.5107783403945322
  0.6684102237245354  0.4398799741074592  0.5384159791734083
  0.0573517319207356  0.7553346877301811  0.6028901728004219
  0.1224467852289678  0.9152292802667373  0.4374193529649640
  0.7406964791552688  0.2484236874858974  0.4676023920649108
  0.9729403409928135  0.4202435210923336  0.7504492140372502
  0.0414397490392275  0.6619361261874411  0.1526660797826491
  0.9007976131135736  0.2929926941925979  0.6281138946152075
  0.1486405297544964  0.6769442814547615  0.1243049636320441
  0.8122458306940485  0.2391228377486978  0.6626744836966465
  0.9572488572657948  0.3465033715016240  0.8572487993864499
  0.7880787480027112  0.0740585736899438 -0.0377785742951584
  0.7410029976942987  0.0375400150888157  0.8959387019224848
  0.6801307591289806  0.0118945617661657  0.7685777740581176
  0.9302734505825938  0.2143208593164047  0.9776746146555768
  0.8740621588541663  0.1752416656974088  0.9687955672983591
  0.6257534050873280  0.0574522389002354  0.0794690366129671
  0.8176014257519154  0.1366302854865621  0.9017199710479458
  0.0683215164474226 -0.0309916874873645  0.2901181467988493
  0.8162612368635287  0.1076547104448249  0.7945089392588526
  0.1074727044170478  0.8447540069521765  0.2292398037314607
  0.6697808893139620  0.0252126612906617  0.7046581864036848
  0.7200187939685755  0.0321733170405467  0.6637424001081084
  0.6661097326934645 -0.0615184663011148  0.6249419846313765
  0.4467263843780723  0.8873765136223697  0.0672284145519496
  0.3944120586927550  0.6536441532011525  0.7958315581353633
  0.9567579017537222  0.2282348193278047  0.9334185854576000
  0.8347768083343968  0.2123603303454101  0.7822019008470809