B  Cr Ni
 1.0000000000000000
    39.0487268126086491    0.0000000000000000    0.0000000000000000
     0.0000000000000000   39.0487268126086491    0.0000000000000000
     0.0000000000000000    0.0000000000000000   39.0487268126086491
 B   Cr  Ni 
 213 1596 3725
Direct
  0.4106527973296035  0.8468429469635108  0.4902733861809120
  0.9621848040740667  0.9571620826914393  0.6285742641981537
  0.2115964625976125  0.0866744984636215  0.0553396135414700
  0.2641542264279627  0.3525501147562686  0.4292610347251730
  0.6318657048847121  0.1757382322801129  0.4938958046803786
  0.5726998392092424  0.8862898678705112  0.4941995823645996
  0.3334606298875225  0.2078298513262949  1.0717167062642634
  1.0133249472301775  0.1076705979609663  0.4577358474229809
  0.5313535470651725  0.9842064356150785  0.6898235088019254
  0.4780634470355903  0.7563531718618126  0.1637663876506508
  0.9891052401602162  0.1818503083745961  0.6305878171951501
 -0.0005535903398474  0.6089502241738552  0.5597950558670264
  0.3357170002682296  0.1691897688831409 -0.0040289384564851
  0.1875096831953059  0.6512294986763904  0.5151305816291976
  0.5124595228708836  0.3732190666418232  0.5013760971004625
  0.5347807031216246  0.0708948750752848  0.5482499821965136
  0.4765342227823083  0.7487494344936384  0.0192817788201979
  0.6255605051106145  0.0427342690683470  0.5196041587228365
  0.3502330771017062  0.4423367711693649  0.2555620773472919
  1.0689990519990691  0.1827209340113100  0.5922505112852583
  0.9439608882500545  0.2600239424509578  0.4127382538366173
  0.8726950042404102  0.6996002774612702  0.1514092302942882
  0.6382058504053654  0.8504540220788759  0.5184576440776337
  0.8990094041312660  0.5836335668465732  0.4857609997361600
  0.5750400762067051  1.0541055295639734  0.4133041256698396
  0.8512664763933726  0.8574336899018377  0.0409964616600432
  0.2665252561709890  0.0657526376721154  0.4453401829806229
  0.3727803178291810  0.6285692037179110  0.1628793981169476
  0.0314451191621294  0.1731033191410676  0.8409408009660106
  0.1159885891188096  0.1191768319915784  0.3283058457425876
  0.7271962618830526  0.5460292937064914  0.0297519036660362
  0.6361455860043526  0.9756750991684243  0.3196362732463940
  0.0138203060492273  0.2998738978435917  0.4256644297402072
  0.7982783336346437  0.9980267292607607  0.0492665303938237
  1.0208358708573766  0.6401581478633145  0.4363462517643724
  0.5323588268827011  0.0546428799664531  0.2698118464497123
  0.1897994079615370  0.8729888247446940  0.0382566330708182
  0.8791275084742213  0.2910028652062965  0.4595316891396388
  0.1124392144587654  0.1941183237285703  0.5927739769629065
  0.4995265529114371  0.6506841112023473  0.4701122452983347
  0.3037799728878795  0.5368528151235368  0.1832037159869880
  0.2970829705909625  0.7328382205508973  0.1172157977724759
  0.3373469836758646  0.6285571109336673  1.0384026427660413
 -0.0063092385875655  0.8184345088193421  0.4808927531008648
  0.5203025965822374  0.2031834485974273  0.4884563198392882
  0.8508204258043023  0.4507374369719522  0.3722122173281773
  0.1768662512977956  0.6407964766212273  0.4208541542656926
  0.6273928359613882  0.4956371367372351  0.9469454265518078
  0.3197095073580532  0.1075381632368466  0.0529832180858977
  0.4283431858552936  0.8376171734004745  0.0500682142006683
  0.9779605782115455  0.3986523578885653  0.3194080149996282
  0.6281501979635913  0.9118635757911961  0.5859549816258809
  0.8817902006025050  0.8896712718007326  0.0484584677292674
  0.5172146339371062  0.9552108840843594  0.5238280446345115
  0.7036329336565642  0.4879417085757828  0.9758205175560259
  0.7331236638257808  0.8893112988995494  0.4732794857394231
  0.3147367699678018  0.7020033546551666  0.0246340613603361
  0.6420451139401951  0.1739568585727370  0.0639971895348402
  0.4234717281854477  0.7088605899193142  0.5985118188208466
  0.3736743772026628  0.5211368330441775  0.0634430106228850
  0.3247657368764610  0.6893486879238013  0.8710054362323703
  0.9085092617507042  0.5922260536496555  0.4018264040507429
  0.9287469606267347  0.5506070630541964  0.8760515944380162
  0.1103043555238361  0.1621863188120711  0.7284076746501172
  0.1357852248340888  0.2387143340765598  0.4169006256631783
  0.7226744914456353  0.4118080967878517  0.5152383481355796
  0.6268402554529582  0.2475296415790521  0.6088648361596032
  0.9771486547325624  0.7622272458725391  0.0578043892904998
  1.0480902025676173  0.5936171536350973  0.8355344764726139
  0.1106069381800598  0.9858216831029245  0.3246648761232859
  0.4618354043012578  0.6887751790572212  0.5519745705784744
  0.9065774431009234  0.1097784038159290  0.5550587622759429
  0.9559419505098075  0.2827697381756265  0.9668719764629046
  0.3083330725208879  0.7426581375496826  0.9270748662326196
  0.9334422764639478  0.0434788749196045  0.5899500400026767
  0.3229090689292450  0.4195110953527493  0.2827275899048036
  0.8872224360310409  0.6630015781738141  0.4742466941851781
  0.6286196547543165  0.9206192263984830  0.6642510030871089
  0.9081671558460161  0.8166004806550612  0.3276111310266698
  0.1191756230862578  0.7199505683769790  0.0638338154156545
  0.8385729979856156  0.1211228346512684  0.3009876781610871
  0.2210111398033926  0.6595986448374630  0.4851918514259548
  0.2914255642929427  0.6300200464776488  0.5031744962818510
  0.2059937562602434  0.2796285175920842  0.3674921126363350
  0.1174781773189316  0.8427724573488402  0.9938077343657438
  0.4996680312659049  0.7578852622709644  0.5587734994171137
  1.0079690453967523  0.4251592806289823  0.4976264275816727
  0.7342893070827743  0.7461734963017130  0.1248368785847704
 -0.0048262913221557  0.4698384196780039  0.7061765863030379
  0.8770957721003027  0.7939124212243670  0.3498134425343327
  0.8815146918501449  0.9272429414783063  0.5954583742402474
  0.9149236336440937  0.6851609984974666  0.5030952016343094
  0.6771843560418955  0.8636795094921115  0.0890631116156751
  0.2342776093441312  0.6494744035859705  0.1261491221037697
  0.8032184554730178  0.9145264955378014  0.0172270736765596
  0.8287796174153778  0.0212436325914959  0.7747234743782516
  0.8653689533046077  0.9771971953429239  0.6604526323651843
  1.0078253395349208  0.5012998187649752  0.6784721004552872
  0.8161060186826118  0.9810866118023596  0.5303948189090533
  0.8760345811521331  0.4338863662122215  0.9840673427713690
  0.5926208255707164  0.9455922016950827  0.6737997067561730
  1.0084510237241155  0.5382684373926403  0.9047699265530402
  0.3033473007532103 -0.0013313967868680  0.6704451409712602
  1.1015798471408067 -0.0176643749203523  0.1927717452864230
  0.8547837953289213  0.0076671384420548  0.9827559809131282
  0.0571626979930826  0.1598687379413944  0.5522729602944436
  0.1746459682936669  0.5980004890784091  0.1196540894394590
  0.3654669579290295  0.0055543886650400  0.6207308247486665
  0.3632579939416591  0.7745980930062843  0.0891737842202527
  0.6358373462801171  1.0303632217866581  0.3724027566090387
  0.2184848978910497  0.6496083008641732  0.9226758277010784
  0.2138486287245500  0.0529045083800940  0.5354354773590305
  0.7502495035960917  0.4798348917944579  0.5703973826672515
  0.6147498376295430  0.8737798946511690  0.4885413665480567
  0.2900441580058442  0.1792477229202832  0.9846946581004501
  0.2344355244023167  0.4096952391710449  0.0858094604636260
  0.1820957370038438  0.3647659224286193  0.3979330448261689
 -0.0329311509352799  0.0402150473338127  0.4570971390885981
  0.3820138922211161  0.3892707975661968  0.4893878171030418
  0.4723543915380294  0.1057935523985706  0.4153945343576868
  0.3334071159933958  0.4300086784538146  0.5444823688732539
  0.5951855559081762  0.5685737229017577  0.9388482035451173
  1.0443987027491122  0.6739413851609782  0.5630780529276860
  0.2665298953449429  0.5071329766638766  0.0998828693111718
  0.2347768351006957  0.4997827870636767  0.4359179557256749
  0.4848803456747289  0.2707821445733495  0.5360835233148453
  0.1055099723884532  0.9095801438953658  0.1532169915904255
  0.0790808896447406  0.8155929563290348  0.5645387086080902
  0.0984904888419781  0.1597430272932178  0.6200030092198739
  0.5024973023992767  0.7230634337120704  0.0454801620093281
  0.5593910390596600  0.3030478445049513  0.0032131027346612
  0.1486735658607109  0.7194391526466750  0.4451586191838072
  0.2953740990185091  0.6455778248271825  0.1946723048522547
  0.3187983369263304  0.0445607592364250  0.1374804128534255
  0.6151108001464676  0.9513596503040986  0.5222444595117116
  0.6739016679037807  0.8921761203815045  0.1252598497863992
 -0.0295366815849305  0.5719917434533009  0.5513272708265725
  0.8171413981844247  0.4048613305883022  0.4867763110402237
  0.5689879843069869  0.8507496759946030  0.5677379708292702
  0.9259862516803655 -0.0395323136876770  0.9867212306512348
  0.9555571531982283  0.4400186730319415  0.3225917030179733
  0.5767282824324153  0.7022666355268300  0.0763308271728541
  0.9972325296241977  0.1989738673349952  0.8506688367989252
  0.1462002871847574  0.1386148470715283  0.7177222312497341
  0.9818458979026373  0.5795164124210295  0.3711688000427875
  0.1682357185220955  0.5338463947216443  0.0810686242316109
  0.0295866424140787  0.6221799569623085  0.7104104586965950
  0.4097100956799039  0.3166495229095737  0.4801479451906120
  0.1044716055799512  0.3443149042014652  0.0646039984032844
  0.2647046412813667  0.6243597264352662  0.0142997738708096
  0.8944725164373032  0.6614701390843138  0.1463435153441947
  0.7102926346901665  0.0540682863258986  0.4151252109933789
  0.5379569158365457  0.3952807357667532  0.5677512179032673
  0.6561427879493803  0.8255354544373407  0.0851678279118127
  0.2300411442616790  0.7483501254532703  0.6240334936526249
  0.3586299785397764  0.8192798941986591  0.1607538622596325
  0.5690825634450516  0.3189385396257088  0.5529084370498423
  0.5739858398736257  0.6851558220289963  0.4807380380003066
  0.6193489709337845  0.8036282554856715  0.0087463655035111
  0.8147257261847790  0.4681218277423190  0.1957963475442353
  0.9367934791736501  0.1599845485690699  0.4512981243485821
  1.0024153455219698  0.9008006243969565  0.0335593018099563
  0.7208750949326420  0.0121307494814267  0.4290231597725616
  0.0045596292448557  0.1502510186686732  0.5362733509216980
  0.8714136684780645  0.2778134410859832  0.9395439166023155
  0.2947211172432224  0.0802974586902592  0.1481920166724127
  0.5332603515167854  0.2979893830273991 -0.0667928564976866
  0.1455486668591743  0.0262609985586823  0.4593429222153746
  0.4033277072819316  0.7335883731288583  0.5185034612569324
  1.0550246523429918  0.5691575327925137  0.4716002560958822
  0.6408705221414911  0.2785804900353698  0.5807497391079679
  0.7900673755544053  0.8933868931347216  0.3868156347691495
  0.2744545445411052  0.4757290092383735  0.1343994072542671
  0.6665338999565297  0.2958564592732792 -0.0224450906386949
  0.7726546976442099  0.8992953305886116  0.0472382929600225
  0.5926012550112820  0.3728223092624948  0.4738108889233453
  0.6893867175309814  0.3229924674903173  0.0448536585550708
 -0.0303194573298643  0.8146503550823934  0.5189784757728285
  0.1227933014799495  0.6564393216154244  0.0200411572020614
  0.8525761548330483  0.3117185538244645  0.4248631117049327
  0.5262004730719378  0.9407463148558212  0.4138752008742926
  0.3589767943561635  0.2615125488913344  0.4579756226159759
  0.7986689921202016  0.0467198355591937  0.4536429443621634
  0.3042953037478118  0.7620636489838578  0.4253229852488147
  0.8904100302932754  0.1069471922737353  0.0416384550723272
  0.6865437664089834  0.9365461770609202  0.0337918958186350
  0.9040266463015320  0.6411651780346109  0.9791792795086621
  0.5543237240760971  0.9659857806319275  0.3868285769154020
  0.4818489506952747  0.3140773064514817  0.5514954191913231
  0.9260190437797577  0.3343903889861681  0.3831204070389754
  0.9567194449097696  0.9372143945671658  0.3695916704842729
  0.3084016528466627  0.0938976797093995  0.5370662058992867
  0.1175684516644056 -0.0167098938842490  0.4318394875814886
  0.2548868810201546  0.6267783035192540  0.9059588807396109
  0.1767445648809293  0.7006871591283431  0.5591351019106010
  0.7068783352444059  0.4474017247666505  0.4928316827104949
  0.3843917152797424  1.0119623907879605  0.4362875380116515
  0.0505948606980991  0.8977835559837094  0.0257718206448610
 -0.0151241259356145  0.4046276468159107  0.4115156162306590
 -0.0178582245375669  0.5509126213935542  0.8188324673697169
  0.8509046294530930  0.0763270870253971  0.0355635170963282
  0.8842793668763439  0.8216551331279636  0.4928794053009647
  0.8393723193533908  0.4888851652537354  0.5440250223351546
  0.1986263255347830  0.2822037738400690  0.4645504986260952
  0.8041803604902507  0.0592237675484833  0.5838929823959456
  0.0910152216252917  0.6384636547937246  0.3985710735435773
  1.0281705357452424  0.1755005004922605  0.4271227440067818
  0.3460578658068069  1.0262845287302857  0.4171262674980707
  0.2162042884320212  0.4912650546849059  0.0246536556116183
  0.1548358251361215  0.7418853006930328  0.4839866579995125
  0.8208479239721642  0.8578902974553384  0.9669694249118476
  0.3698263063534303  0.6817234844346938  0.2214835867540799
  0.7248314647735467  0.7312245887445509  0.4587566776475256
  0.2454630799844975  0.5743930814599081  0.7005906899441579
  0.8030189357887183  0.9276237171527323  0.2691392293609891
  0.0790440035481029  0.7203364173495391  0.5508114341561446
  0.7766984056604842  0.9865999568676381  0.2624508169055959
  0.9231956339392006  0.4915759925686867  0.1086757193233729
  0.2205653280437194  0.8116559376251660  0.8287633770601772
  0.1225697747416028  1.0197687912848681  0.5897005437878790
  0.3192099476959617  0.7579265088379329  0.5473376272846949
  0.8846856832032483  0.6291863327139819  0.1011670134211391
  0.7316166881940759  0.7425566869877379  0.1840670602276072
  0.9330575821388618  0.6918509468885123  0.4485120783374141
  0.2565845983033239  0.7262367743834632  0.2017181676536551
  0.3423139196967960  0.6490225901766025  0.8312171007227309
  0.9549615953590953  0.5796661504677547  0.4791085777613942
  0.4352088723760023  0.8732562785277871  1.0086202445571326
  0.2029880326202298  0.6909989871855104  0.6669598013427290
  0.8290343386106575  0.7415501708281285  0.4486276002654525
  0.2491018218258048  0.5445183457818076  0.5973462076351085
  1.0098451545459439  0.6221090157079961  0.8099688821977106
  0.3290952794169937  0.6603700769258806  0.7725818212536049
  0.9947723389657154  0.4690825214351116  0.5319037145631860
  0.7805134407603301  0.7264337019787991  0.1530588873352027
  0.3036908690809989  0.5988853822780994  0.8266823266168343
  0.8536956296471916  0.6178679756491242  0.4663690473863022
  0.9082515268165102  0.3554163242554947  0.2116413235278146
  0.0884794459136280  0.1309303376324536  0.8221735519338196
  0.0883271009260676  0.9360939830017601  0.5316653976094595
  0.8589491767343949  0.3692880603841155  0.2430700551288178
  0.8524385181829806  0.3239483535984951  0.1995644117039029
  0.3763777874674032  0.6957294900425975  0.8458623262750349
  0.0982100725713309  0.0895196861934915  0.7790114663165344
  0.9539412361008588  0.2788408650242337  0.1917523635826147
  0.5950936858854512  1.0228737001953454  0.0200397861291948
  0.5546798527602805  0.9593383220086695  0.8115757564388641
  0.7260704107340473  0.7135248575632362  0.3063239015230247
  0.4151320890685973  0.9291585254181025 -0.0104723237523530
  0.5391962410865168  0.8529444678641522  0.8236382238280707
  0.2524345795620407  0.7399367376602836  0.9057873588781062
  0.1110058675932319  0.6427340737610828  0.4744860520493530
  0.8604319572327307  0.4336411283801888  0.2214599716249508
  0.3193574376440698  0.8533084720039940  0.8576784073475260
  0.1407531779878550  0.5216847796651100  0.5069163921991749
  0.8351004565824752  0.8677777544634554  0.4157672086250574
  0.7173706740848290  0.9036708671899008  0.5276047562700982
  0.1910031040625291  0.5537223718599270  0.5745440639771288
  0.2770992649987468  0.8349726048314958  0.9543666388836803
  0.5033938823386891  0.8029973876955792  0.8189552410859711
  0.8019416044255712  0.9333936825085678  0.4310326214815936
  0.7309117952919780  0.7883905235751570  0.4585895989483064
  0.7912235517709493  0.8212686386228227  0.2402182878763580
  0.3642500577641068  0.7716284196758810  0.9972471381708906
  0.2655529304550027  0.8006642191492294  0.6291146588661463
  0.2045701272209027  0.8819111980062329  0.9829845752692586
  0.1020644771153653  0.4975400132782786  0.6090031244938434
  0.3979442978054036  0.7443389264242065  0.6277927337124106
  0.3683970322668494  0.6956926396785741  0.6043941070019511
  0.0775308903967046  0.5860929234552487  0.6953947787991039
  0.0292453108729815  0.5759542811009819  0.7395507242784689
  0.7639207739877133  0.4793293522470024  0.2279480784895153
  0.0860836945038208  0.5680978467472200  0.7553949123094695
  0.4889947083148832  0.8465319431333943  0.8625793574240593
  0.6007546293550755  1.0035948258532099  0.4071023214880494
  0.8347723678411662  0.7460524090194988  0.2252381327777359
  0.8333009229815878  0.7567916103359330  0.3895962995592316
  0.3835138747677909  0.8647186661673176  0.0514015687840597
  0.3154541021066867  0.5531054793497301  0.7824720130446015
  0.2877164722590436  0.9251267413028232  0.7788614895187858
  0.1801480566106112  0.4604387599055050  0.7501988947293025
  0.8420044536072929  0.8076832659780424  0.2053109129540312
  0.4871017983839925  0.8786088369435541  0.9704810985298157
  0.4488756769796188  0.7033195655877109  0.0360408902392778
  0.4088544015742470  1.0431402058902246  0.9511816961687440
  0.2972692568045209  0.9117090717059664  0.8411475177715422
  0.3559310348226901  0.9238773211021255  0.0268070264825569
  0.1138055565744419  0.2265216225257853  0.8713924396275968
  0.1199933572693146  0.4977629324532772  0.8350629044164770
  0.8899089771654431  0.8793918394819205  0.4900351747377843
  0.0109437953203559  0.5016590248366922  0.8555683418811799
  0.1967361711677641  0.1504370690593725  0.9714706989272113
  0.9441760622972832  0.8207071754951319  0.4130666498084775
  0.1339294585368463  0.0348131142605187  0.0261145163475614
  0.0980817543682939  0.1193502775583938  0.8848052779374366
  0.8945276831864554  0.8451171217212902  0.3772122858900302
  0.8973832540067969  0.8878565745563228  0.4220283003793944
  0.9529486979896656  0.8859311861504134  0.3997084416791029
  0.0581090687937392  0.0692403146806498  0.8789974039447567
  0.1239824401257785  0.4378000993295147  0.6288427657923975
  0.4431785233626794  0.8099007002250954  0.7962975367397439
  0.5737840148324793  0.6442006281432295  0.0381441716453077
  0.8499604455684384  0.8326497605477442  0.3130985821540476
  0.4920836874666676  0.8163710629979439  0.7589175813426218
  0.4123334901100559  0.9260173562106522  0.0480073435436571
  0.9645296224804810  0.4213963172080660  0.0300682108602801
  0.3350501615235096  0.9604307852686012  0.8468820255317348
  0.3445053796524012  0.9479180080300890  0.9073767660566208
  0.7916914393190816  0.8356088722299190  0.1781010411879599
  0.8791713361253914  0.6819437464435962  0.8090867173579028
  0.2038662905373129  0.7275430213100752  0.4563179050949064
  0.7755415537807142  0.6834699789302201  0.3331845242109818
  0.8799681762725514  0.7721922218188012  0.5156701351716408
  0.8279208427850009  0.7315998725616698  0.0539279502860928
  0.7768255376821148  0.6239311400064028  0.6026964272031478
  0.9464861490237211  0.1706579802295095  0.1598471036450415
  0.1198544394324801  0.2893848759514218  0.5913503467142851
  0.0354031429496443  0.9954219562944914  0.7353382817626576
  0.5007016097857744  0.5578246411595935  0.3968084576719128
  0.9733940134572402  0.0038798863422135  0.7130099443927543
  0.8530612717245830  0.8972158957970466 -0.0009029533894002
  0.8676978979966122  0.9701688758680285  0.4523737417255440
  0.5401439066879571  0.9714601814890242  0.3349712793140757
  0.4755310240686568  0.8333449352944620  0.3014559877691496
  0.9233345123566384  0.9284670514432881  0.4581328712796453
  0.5351773494919966  0.9162394094930207  0.3614203423817075
  0.8227358309997777  0.6047306847949715  0.3182691628760633
  0.7683548012267630  0.6204392496659537  0.3522776482397210
  0.9843562433335541  0.6520171443026354  0.3067804321008515
  0.6767074463826793  0.7447204967108568  0.2795308421751245
  0.1871051553196027  0.6263686847284767  0.9610222498184322
  0.2095881041633544  0.7525319855773911  0.5640031077992987
  0.6298972371978617  0.7892323693074093  0.1899128887468526
  0.1583206728917364  0.1942550959615802  0.7276031783851880
  0.1151432047533372  0.1995802128282026  0.7681679892678458
  0.8855619705671738  0.6425890733258496  0.0320431888340183
  0.2639796969718947  0.7277675301175919  0.9613266571573750
  0.7306188615639155  0.8158282793266181  0.9550926350329654
  0.1525459353389883  0.2453208604453631  0.7716430820620021
  0.0822148930732812  0.7052605442189990  0.6206021174981466
  0.4774226921974173  0.9101148206849132  0.2250272955618174
  0.0600843391694974  0.7575493429308893  0.6033850009261917
  0.5806410378882291  0.8494371734798939  0.2734026845494611
  0.3930849766686849  0.6520980162518953  0.7961581296982705
  0.2238739136203139  0.2264508911746158  0.8537396233457447
  0.1332020738983544  0.9313608053099076  0.4400408093552407
  0.1422155144741834  0.8461637686162390  0.6827017218224285
  0.4505390560060082  0.8850035931824740  0.0660859549086351
  0.9984883770069796  0.1384035379970585  0.1850941984037996
  0.5314753382202868  0.7616986632542621  0.0060967959321929
  0.9279075561717596  0.5694825711299294  0.0248313554920253
  0.5757415191582541  0.7867341070930505  0.2892641599582578
  0.1551119922208026  0.5802147092687858  0.9389496157649253
  0.1637339377100004  0.6840348860655282  0.9356784696973655
  0.5336422201129869  0.9518612773610519  0.5797505984276820
  0.4742011414313520  0.8434395375215783  0.6366038381348796
  0.1941426127280956  0.8522681142682288  0.6471067252759790
  0.4891399083437952  0.0178219748110449  0.2562209408536105
  0.2014395663461065  0.2829470264060423  0.8386638280250853
  0.1547138827750983  0.8397995848870854  0.1315572214839767
  0.0599598319247113  0.1602461312461460  0.7018810727965819
  0.8158971477344432  0.0757067837432907  0.6868917712202571
  0.2839557428705607  0.2193187168436537  0.8742363448649078
  0.2740385267893549  0.2615163206702287  0.9179758605553978
  0.8630341856695501  0.4186069515655219  0.2813760151627820
  0.9137068567059783  0.4030340946151152  0.2532609180919469
  0.8894093657331406  0.7676641084287383  0.2978400180482847
  0.9158541452323772  0.3926743771399883  0.3157022563695289
  0.9564861081455897  0.3063666099447284  0.3013295380616904
  0.9534172498336472  0.2615037470414541  0.2532089066951060
  0.8969852416177151  0.8235382541339729  0.2738829999995164
  0.6423504008534895  0.9762582269423381  0.6664650305466406
  0.1210629023561866  0.9010847787145962  0.6655894175158732
  0.0591363838274043  0.5046840770169032  0.8165306377291774
  0.7711284583313007  0.5887123067071948  0.2504939830553354
  0.1091360704602634  0.0765049866416658  0.8406984639332389
  0.0696551930291323  0.0263279188337052  0.8344714779466360
  0.0185931928309745  0.0546626710051025  0.5362201355021340
  0.0485022562662278  0.7668402113920652  0.5372761205612944
  0.0736476187401711  0.8647804727346537  0.5943687311140927
  0.8473099469982781  0.8810771640531522  0.3589192182650129
  0.0783281167838809  0.0129465918015753  0.8958571150164065
  0.4057550311336494  0.9766161032685844  0.0840301098000592
  0.8689633509987079  0.5284998701793650  0.3077350196988235
  0.4010923075942850  0.6695470604723329  0.9655386864148099
  0.5746830807603569  0.1252285250608229  0.1026567370970442
  0.9150187631203910  0.1141656285114835  0.7138630225980386
  0.9259138096542139  0.1011526734877448  0.7743316339597658
  0.0480900717857277  0.2297123077301169  0.8496512419474090
  0.9249303488832620  0.3843128707340571  0.6799903769352652
  0.9583967038934668  0.4211506604170696  0.5248031833271629
  0.5477537379809198  0.8708832870712320 -0.0123226542086490
  0.1606221699133018  0.9147078856689393  0.5670468721014236
  0.1593500321258807  0.4673218621774358  0.0206136999752518
  0.7679155378197140  0.0008256999749212  0.5189203034656106
  0.1781769662643015  0.4022375399456145  0.0405357648465238
  0.2899549628051100  0.3974982155346384  0.0105090208975075
  0.0923676320208464  0.2119782463483749  0.6430993066895569
  0.6835811052734342  0.1546344947021425  0.4683837825781257
  0.7374690337675928  0.1975239958607694  0.4221025346225169
  0.8521860330879301  0.0933818276110383  0.5796467433244208
  0.7529201474583694  0.9430472962468995  0.4777593740504229
  0.1794810228079982  0.4780580410868956  0.0744375565475207
  0.1349070844769255  0.5744684852856090  0.0420910019498142
  0.4780051101520050  0.2327255042658895  0.1006716500003634
  0.8715990244771762  0.5150472783865977  0.5937595968615713
  0.8830558031630037  0.2159380942265564  0.7430087666923724
  0.5325104053473314  0.2219083175881784  0.0607497518200463
  0.8834514238003900  0.1855939961510212  0.6375470681380000
  0.2181056790965417  0.4412852909118234  0.0432210332789753
  0.2094221909752438  0.8029835441431215  0.2167240096137324
  0.5958461990992521  1.0041433746522863  0.3425475397776963
  0.8408843285863651  0.3014165996761547  0.6057192126842047
  0.9266143718207174  0.1331575689785010  0.8806351660611068
  0.9919838944646782  0.1069699853478992  0.9638747062764479
  0.7616558046606614  0.2037801186168837  0.5918493553367172
  0.3658565645589320  0.1301477997615892  0.0295897005812556
  0.9031105346675879  0.0421691030094834  0.8298547138418837
  0.4210732581623234  0.1604737172813628  0.0427163670982226
  0.3972064854158949  0.0855023337797131 -0.0039791954373027
  0.5096288661077267  0.0872510267471244  0.9767510902189567
 -0.0021489444536735  0.8146091321603660  0.0871897564163984
  0.8198327663081426 -0.0263231475356560  0.6938716282242633
  0.2114400137273802  0.7981811943362039  0.6045772396839901
  0.9796929064857610  0.1421542495464089  0.8410282379418698
  0.9389649141847742  0.0908665540631180  0.8354643505264737
  0.3762855664632824  0.2779150508902468  0.1064643060294650
  0.4726497962657469  0.1708471578054132  0.1154900222028225
  0.5751417924140463  0.0746541599591964  0.0581281534019324
  0.9237608891570572  0.4162308314842669  0.7881390643472072
  0.4895040869830571  0.3568303861636967  0.4532499067580734
  0.7924398060637066  0.4769189994842901  0.7901965305347217
  0.7320839624204619  0.4555357622765323  0.6640159119011551
  0.9788364729324157  0.1669167662997283  0.9447609941725592
  0.9098524943077494  0.2777226917791275  0.6877228818446512
  0.7821415071227519  0.4640902284125061  0.6179673132254625
  0.5869083262633314  0.3756683068330992  0.5651615931660425
  0.9844072217014198  0.7082065118292051  0.8992725445005303
  0.9475868964654008  0.6599129923926725  0.8921623495094172
  0.4522098689559051  0.6341946382940417  0.4088028023246120
  0.5023906761095402  0.6048408212605051  0.4395145755024786
  0.9627126316640781  0.7681995063116184  0.8805442359132161
  0.4972947434513031  0.5496579861306321  0.4598649192850544
  0.8483859226398582  0.6045321542904776  0.6837957773434482
  0.8098201214863019  0.5541960566661388  0.6785808206095874
  0.6003913116265642  0.4489874758950451  0.4087362457139469
  0.5857704420360007  0.2620439515208733  0.2372734425481462
  0.8458723467568362  0.2649264110705255  0.5001604511584105
  0.8870542538931242  0.3209729607504003  0.5051289379783021
  0.9295147860265828  0.3572485448434344  0.5714670546226677
  0.5222898098447272  0.0988275806779713  0.0952828650678954
  0.7308628278191321  0.0937908201501462  0.5425446783171208
  0.0075627466539554  0.3501235310458922  0.8186570210982870
  0.9605332251780203  0.4637899032972223  0.7940399707614603
  0.9467456891241756  0.3248785824933189  0.6935219578046807
 -0.0013267898170709  0.3329329236873899  0.6532054491071337
  0.8741401928633901  0.3791094604577561  0.7185545170849137
  0.5521369655476540  0.0178697550954848  0.0580666652175513
  0.7861323237472875  0.1056328382008247  0.5581659530309108
  0.6462019657367389  0.4972920579249684  0.5167826680170258
  0.6709586109125945  0.4356652017953914  0.5321497019725444
  0.1460368691395300  0.7118979205038749  0.8119369548400626
  0.3232679203267023  0.3005050941630801  0.9825311119814742
  0.7374824613280616  0.2443788536821601  0.4651515355595647
  0.9716630320743733  0.4184683621230418  0.7508581827527148
  0.0443369425803170  0.7231241958532396  0.1306026742920715
  0.9018048757551757  0.2909816122289714  0.6284517144355988
  0.1471492487944264  0.6745055780295889  0.1256836242867456
  0.8109510400459485  0.2388696643563464  0.6606517642316276
  0.9567326001189757  0.3460237251267901  0.8591826029333459
  0.7852347549656171  0.0782236194585427 -0.0420027252762395
  0.7391558491114050  0.0393515088718464  0.8949010405897214
  0.6808940164606800  0.0121160920215068  0.7676429056045350
  0.9309814630923164  0.2125636139563601  0.9794487324863738
  0.8746938697356827  0.1749265478806630  0.9677989858723227
  0.6212711836390431  0.0578356553474038  0.0815099332773280
  0.8167588466545759  0.1388720027748462  0.8990885557362134
  0.0143352760987370  0.9414416722788764  0.2816738374140607
  0.7800460067242109  0.0547810631156410  0.7913639153251402
  0.1076321052477208  0.8452314413273034  0.2273961815540470
  0.6679105766277831  0.0232000202513728  0.7042203434394352
  0.7192279413694633  0.0311765218435719  0.6610889170572157
  0.6657406934739659 -0.0642097803165897  0.6216616206226576
 -0.0132145189930646  0.8063384219838612  0.6292901274738737
  0.4859886998665366  0.9791814373417117  0.7267160207028844
  0.9558019687238063  0.2302426903159807  0.9347290502111780
  0.8440278003825091  0.1987192125803903  0.8426485582972881