B  Cr Ni
 1.0000000000000000
    39.0487268126086491    0.0000000000000000    0.0000000000000000
     0.0000000000000000   39.0487268126086491    0.0000000000000000
     0.0000000000000000    0.0000000000000000   39.0487268126086491
 B   Cr  Ni 
 213 1596 3725
Direct
  0.6529621872805044  0.6771445705535729  0.0380325464162748
  0.7732457570664348  0.5899488766701015 -0.0196800869126454
  0.3084234326996398  0.4150580741812990  0.0628346448257105
  0.2602312841623733  0.3490526138396729  0.4277649639794894
  0.6323646907546847  0.1727113732963177  0.4950164080667779
  0.2740774844488503  0.0672177820050436  0.4444896609851121
  0.6119805753934430  0.8950414944731122  0.5747912636354524
  0.8774661139041618  0.8925987668996171  0.0474813792034614
  0.8498681355267662  0.0036538056025652  0.5625626608164159
  0.3037490457188023  0.1578462235451661  0.0699694721596198
  1.0192339382596600  0.1083766887385143  0.4614243152671855
  0.5900035895844584 -0.0492606410110148  0.6753491408264995
  0.3423294451251764  0.1563597904842262 -0.0095198133768096
  0.5347157683041072  0.0729474935701124  0.5489386469392474
  0.4767153054926020  0.7671600290362101  0.0266441159310798
  0.6347226160768922  0.0468818652642259  0.5224408288725089
  0.3499674976354096  0.4429259869837780  0.2529059872508399
  1.0766440126132490  0.1779491912517244  0.5879570344671501
  0.9441012472710929  0.2651570074084602  0.4051959488622188
  0.8735253353514262  0.7000753922806586  0.1518368867410143
  0.6245007207106760  0.8385636810002018  0.5229806749581140
  0.9005868861981020  0.5930167950285886  0.4920823821234853
  0.2003819041797036  0.6425739267344697  0.4232891730155542
  0.5143324854737135  0.3737674420119660  0.5032170183704958
  0.5758827067187137  0.0449200358059042  0.4196753105367010
  0.1673410291013111  0.6202287321207985  0.4450931613923104
  0.3215454580378198  0.1159963258481286  0.0632889912291658
  0.1134888834356043  0.1198057178242946  0.3288994360744982
  0.9801456273245411  0.7689378190550250  0.0554221906965124
  0.8051204645496007  0.9023433667249018  0.3826612996314839
  0.6256320209774673  0.9225212029980652  0.6637212369349719
  0.7954155979152662  0.9982276568605689  0.0429293679906004
  0.9082471637821827  0.8159752032053735  0.3290732087780612
  0.6998934469484024  0.3127276943334795  0.4819214995718851
 -0.0017393893528328  0.1985205720945757  0.8488261267393437
  0.9033873020021977  0.4207413405199102  0.4013789213508710
  0.1480371685917042  0.9600004957666637  0.4705113618798223
  0.4972169772891445  0.6492700149084721  0.4736149920496367
  0.0136626502719473  0.3008582923318988  0.4232783128529680
  0.2989587255925570  0.7329282619879419  0.1153876006216386
  1.0089803139869848  0.6368718000180977  0.4191585379079344
  0.9851467687288810  0.8393701910900961  0.4777830574931510
  0.9978732403721376  0.6332576288337962  0.4911008248544885
  0.5825349383975579  0.9045244091078333  0.4780703900258552
  0.1172927394683439  0.1930898547994438  0.5896913813027996
  0.6279059857504898  0.4949714159796191  0.9464385975318269
  0.2979896645873870  0.5424247247219913  0.1732632174162133
  0.4579028767780802  0.9470230533841417  0.0661065158152095
  0.3338099756955096  0.6315783352191364  1.0403787676408860
  0.3722471751410802  0.6302429692953536  0.1619128366578749
  0.5208832186194192  0.2035735875729588  0.4889531574757984
  0.9760566803971679  0.3980773286343500  0.3134730089341622
  0.8482908799581971  0.8584464103529197  0.0410761356919916
  0.7036557927325364  0.4871797530636955  0.9737927712621183
  0.4944453789235721  0.6906690097810164  0.0452230712874691
  0.3226320485324281  0.4208424816166073  0.2802519581523388
  0.2960361124248244  0.7570627864096173  0.8678137449956690
  0.9062204499448065  0.5815358925195032  0.3990143971060437
  0.1036701769365328  0.8285499021802599  0.0738585949728422
  0.3693514035659716  0.5222432455597473  0.0655038657285595
  0.7263119771131553  0.8869946139774101  0.4770273467051818
  0.7065310482466065  0.3992085760120286  0.5125675494835774
  0.3390859820515607  0.7249913113345455  0.0254774421751430
  0.6372011957558544  0.1768785966966242  0.0640232149430284
  0.3502867388601962  0.7094871027346196  0.5677369957548194
  0.2279657513320021  0.5676948622636969  0.0922454462414503
  0.3131408321800496  0.7018035395997121  0.8141337989488269
  0.1999842961792168  0.2864196694448115  0.4585537200488554
  0.9293934066812732  0.5508362612377151  0.8749231720419078
  0.0670998496511709  1.0264201181924943  0.5822920679048994
  0.9403062025797005  0.0459457452031812  0.5986644969615249
  0.1085196560823056  0.9877061404865125  0.3217669456699391
  0.9531129200689493  0.2773057521687196  0.9658803878494893
  0.1601515510227711  0.8147754179919098  0.5929197873325525
  0.5495224193439064  0.7638085203018146  0.5246497526820564
  0.5892188871496200  0.5906937698775032  0.0403214980366700
  0.9912485901013541  0.1845466076136394  0.6237358222173137
  0.6298972162118269  0.2497881996510238  0.6077997216911739
  0.0356809928884536  0.5951219037414212  0.7735779056677788
  1.0077636526342599  0.5394930520720981  0.9053365842349184
  0.2613888007786853  0.6983505924404922  0.0656492067995140
  0.7988923357859021  0.9166842532809071  0.0186159482001017
  0.8280766490713033  0.0215109116303803  0.7735151685348590
  0.8691606418991958 -0.0258701427412763  0.6648117400992537
  0.0244353442264656  0.6415315946858638  0.6394989654795044
  0.7439962198654841  0.0690761591928349  0.4964529149998649
  0.6242835429529907  0.8084343361954446  0.0120297969487547
  0.5960581612077714  0.9807954060005790  0.7143216905780145
  0.2028129042154420  0.1002887555718719 -0.0021862258905212
  0.8380250142607404  0.1232339021892250  0.3016708405596487
  0.2335457642658002  0.7281493243637035  0.5090214482771593
  0.2607866856496445  0.6528240603241264  0.5339113827349958
  0.1890902031832375  0.6542694842625227  0.5174723209633947
  0.9935076698513008  0.0736010988064599  0.5342448876396220
  0.4652798242370015  0.7092954040576986  0.5556245330004929
  1.0088731569946980  0.4282961610977761  0.4995839623266170
  0.7614851549696028  0.3921408073886123  0.5198596563374774
  0.0004835132731582  0.4803712407380503  0.6948849952353707
  0.8784204126863373  0.7934530134825992  0.3522736920227193
  0.8766725439302738  0.9292930005949838  0.5943214165753994
  0.9220063048844748  0.6961676451522217  0.5057176431352357
  0.3215783305532485 -0.0235563424026822  0.7818920616537186
  1.1019940624638636 -0.0180558029180018  0.1921564355618817
  0.5201870229054337  0.9494693384086070  0.5308173945629974
  0.7249796989602031  0.8061647297660458  0.1141939281521372
  0.0850493361836315  0.1737047571470126  0.4884376513581368
  0.5736778662693034  0.6115437740634924  0.0748340778552850
  0.3095487073447621  0.9324225916400896  0.4617146738602425
  0.8377042116236213  0.0116310836070204  0.8409796671971571
  0.0494787246779167  0.3337734237780509  0.4697550538372905
  0.8425595118134104  0.5000560703729259  0.5468504678425867
  0.7753551562076361  0.7936037786195786  0.5207092478465790
  0.4842659830675592  0.3126157501499766  0.5523868731425232
  0.2307352179075200  0.4077255752509980  0.0837150737417834
  0.6385960767661475  0.9888087257271605  0.4608846698159558
 -0.0364228875198822  0.0368942826826265  0.4588389542118359
  0.9779671152850170  0.5896424868419838  0.5585085593100378
  0.4739867125099250  0.1042643168717044  0.4149538729730889
  0.6655674526306948  0.4792832510401222  0.4668608545612518
  0.5960241648210545  0.5660517099468645  0.9338278596133271
  0.2698697106375187  0.1519782229375072  0.9810825038801142
  1.0219478519091032  0.3784497045706552  0.3957515739458314
  0.1830624275892931  0.3630552296399380  0.3949318836963094
  0.4876814983953465  0.2695822189966189  0.5384315188738921
  0.2840140121895007  0.4071120775245927  0.4694577511861699
  0.0809741023125693  0.8255905652176144  0.5623178577813769
  0.3357918758518918  0.4352500846132653  0.5450959415009884
  0.9346610498403611  0.4401027072951617  0.4723123874525313
  0.7358610919333706  0.5895855719347076  0.5505457434077994
  1.1313264358048316  0.8498073700273099  0.5077623159061333
  0.2342698973894690  0.4991068072350768  0.4343754463348439
  0.6420277456469677  1.0235252818847966  0.3789211557772542
  0.5591692710127528  0.3084596516524623  0.0041548000253413
  0.1028468941400543  0.1603238599756539  0.6195074531139174
  0.5624397231569308 -0.0016725476202971  0.4832988232478185
  0.1394564446328788  0.1449280343672354  0.7212554599799694
  0.8320366992077328  0.3474090574869514  0.5049753270440923
  0.5597844497838016  0.5579270478250574  0.0255828047359951
  0.5305242903679653  0.0551820034590758  0.2723117334237279
  0.9227482285510439  0.9657777071288278 -0.0137946100985491
  0.2906554986026095  0.6383829130824820  0.1975696120967861
  0.8149997136441368  0.4660171289802268  0.1955481849601878
  0.5810267039924734  0.1721900052073246 -0.0279922745527855
  0.9533829790778681  0.4365750254742464  0.3199725473477156
  0.5643686896226269  0.7310262012404074  0.0616940209648102
  1.0329050045461612  0.1737656376897052  0.8370543898916899
  0.0259570506015457  0.6209635574676569  0.7086627396549248
  0.2658698551811757  0.6368783001663926  0.0068624114003094
  0.8942691407463094  0.6614232050192635  0.1448631041557734
  0.7124527443123395  0.0526670879152876  0.4184908818441673
  0.4593333544889447  0.4034996283910919  0.5360996607758036
  0.6524363803400262  0.8244441978780924  0.0868934533808328
  0.2291788440384648  0.7506113981302974  0.6238546485820864
  0.3598818696367162  0.8095185063775262  0.1616541665946133
  0.5714935670353838  0.3224456038978585  0.5506791520939391
  0.5735129295877979  0.6819707996982467  0.4802391817490801
  0.4095986122657487  0.3154624127162050  0.4801978301069246
  0.1727438328636388  0.3679242148813714  0.0708717394817156
  0.1070660440597878  0.9073571758491034  0.1534390501661857
  0.0665435623049266  0.6443339563836515  0.6173711052885769
  0.3195760916866266  0.0408591148278197  0.1386828185306765
 -0.0041889131768372  0.5048402826963280  0.4986185448452109
  0.5869139027537054  0.3685396013133689  0.4686159767830414
  0.6885075060889435  0.3202107101690295  0.0464777518214001
  0.8940670060473012  0.9233625897912738  0.4640605984803852
  0.1299283510494466  0.6548433405481069  0.0251262740708790
  0.8476923909929823  0.3233773100769434  0.4071579871536193
  0.5249638950239213  0.9397431262281067  0.4163583728438855
  0.3685549298363475  0.2462730981410020  0.4423890945334163
  0.9062195799027406  0.6437520489429389 -0.0213477186036989
  0.6306393748077872  0.2134904440056588 -0.0041436433059550
  0.7239485841628823  0.0124897439337437  0.4344893116710866
  0.0110195761626036  0.1544560781547653  0.5303985584037998
  0.8719399453031962  0.2783921689493570  0.9380565667969704
  0.2969351531923655  0.0784488225291156  0.1474884268569851
  0.5341624051046006  0.3011364949642171  0.9330128612539627
  0.1158165023220786  0.1532992575563890  0.5133461984181261
  0.5185083526934186  0.7433826759296698  0.4980660004154401
  1.0561878698377645  0.5763390023185430  0.4811982200412255
  0.6443884176182265  0.2790930561104863  0.5768941232548132
  0.7775104857920633  0.8814026253093021  0.4114766301943810
  0.2715516022937337  0.4721078035766572  0.1327713877611560
  0.2957407431429768  0.6947893906365744  0.4368526867130487
  0.8952483791808711  0.1137824141896627  0.0487526513452397
 -0.0533349864656203  0.8366410008331991  0.0145688292728816
  0.7686900213135995  0.9020572085212801  0.0493150662505818
  0.5890918133662238  0.5027108884470225  0.4392473482787047
  0.7137989980851960  0.8833282927669086  0.5637318055265015
  0.6681491691915075  0.3016244600402189  0.9782685615248297
  0.5535960559967418  0.9627017039322582  0.3895453815148356
  0.3699600616594627  0.6796777797144363  0.2210100822128892
  0.0968505487169725  0.7861960624304385  0.4643333765301463
  0.3768345884909721  1.0161849111556591  0.4384064269048819
  0.2948689933922635  0.5548246193629707  0.0359211206007772
 -0.0128922672485142  0.4004086159291791  0.4163162071380970
  0.9886245119451669  0.9522041775896454  0.4297420071466291
  0.8645191825416513  0.0899000739498368  0.9587061202771539
  0.3223744874880408  0.0117440529254900  0.5123400352426142
  0.1413527947600994  0.0296659875705852  0.4486027877480131
  0.2255020786201292  0.6499618015791893  0.9166271450010375
  0.1715325543743726  0.7082823735503502  0.5639672723404957
  0.7503494992008278  0.4898792121059719  0.5152810352113355
 -0.0200851811917063  0.5506921823151159  0.8174900823425633
  0.0594356221034294  0.9042203542698813  0.0220302403038366
  0.9886101153660080  0.5751361185093007  0.3717304753337197
  0.6719967260309109  0.8908329015292277  0.1311348324171145
  0.8210599519613754  0.8563367989244643  0.9669851750760954
  0.0951752394289380  0.6368179460027801  0.3904375844684375
  0.8659600088425116  0.4054836625328878  0.5281810404615669
  0.8692596233427684  0.4388305008707604 -0.0021611589263543
  1.0292564181939758  0.1803448977178977  0.4270400235209398
  0.7589477304842159 -0.0169076790558966  0.5105272808101620
  0.9942880711535927  0.5577588574908990  0.0104654286983361
  0.1262363460733139  1.0221705450375171  0.5917874546107742
  0.1194649389549053  0.6446604631089686  0.4708693709332609
  0.8786915003236826  0.5677541150319391  0.1219715406299162
  0.2490582540485650  0.7443021963635552  0.9010185512217892
  0.0047624670437248  0.4525544587665459  0.5942664946684332
  0.5379121531970741  0.8531702352646224  0.8239955246830256
  0.3297962597663983  0.6609369735598909  0.7742815662286124
  0.3053296462969040  0.6013928180290929  0.8262311859665252
  1.0107171695008468  0.6274626354690751  0.8120780494340348
  0.8415099906547635  0.8073305270770684  0.2074340205819683
  0.4844752039196529  0.8799262202290964  0.9705917258629420
  0.7293072055117134  0.8168635353550512  0.9563350917786552
  0.0764744489064795  0.7015660427216532  0.6223048477103744
  0.0566287036146478  0.7590320608862444  0.6047392502024491
  0.4328375871706261  0.8752994062939510  1.0090742581738452
  0.1371105071753810  0.7267978698620819  0.7517721852776851
  0.8326787715983921  0.7382685280537568  0.4499753975843572
  0.2496230787521745  0.5453835843166872  0.5978015537313557
  0.9250978537048705  0.4913387333560335  0.1071781494160228
  0.0677484906395700  0.7162855847295486  0.5598800672434310
  0.2454684103471745  0.5752354163591979  0.7014661444299556
  0.3943811410449925  0.6538149889559870  0.7972915302973624
  0.8297667438352124  0.7325072759588163  0.0542493950222222
  0.1255352212211190  0.9194190222331345  0.4394893548847207
  0.9037908452170508  0.2929814802937555  0.2230523004216735
  0.0886841150876765  0.1323285896394736  0.8197355980018314
  0.0870931064247503  0.9374431903422887  0.5371340332369220
  0.8596618957535852  0.3715132534941925  0.2413664953576440
  0.7976100730502431  0.2779387418400472  0.2499382693941644
  0.3648710958753535  0.7076625452633165  0.7863069894725349
  0.1381094967312235  0.1401263239451652  0.7796959120880992
  0.9546872182752792  0.2771782056480336  0.1894412695350495
  0.5911681844028902  1.0222172214642644  0.0209351749337968
  0.5540127981703922  0.9594080199926565  0.8115345642808740
  0.7265459265205461  0.7110398085861575  0.3078720723180847
  0.4134901544781112  0.9316308996250922 -0.0125172030713442
  0.1623382691671042  0.1986560723967757  0.7252547018830441
  0.1169980792336024  0.1943075545700559  0.7604039413859039
  0.2022426977577271  0.2838203486358421  0.8371935596233300
  0.4901972820614523  0.0177204694438511  0.2592667479645889
  0.4733336110618563  0.8434853156148674  0.6343089003866894
  0.1637368950739530  0.6855235455573228  0.9368666383684245
  0.5762926776397832  0.7846872480200233  0.2901442975276964
  0.5319597325477413  0.7649673931467013  0.0014375179737351
  0.4458135586724059  0.8876315185425119  0.0678732204043570
  0.5020540046692779  0.8032929679964018  0.8191096197720706
  0.2763392018323226  0.8386309730981426  0.9537102912845773
  0.8516788063667038  0.8313371807113471  0.3163524206529493
  0.9679901055028666  0.4217642852629096  0.0281482730177709
  0.7915728333507577  0.8208145259112501  0.2425888681957986
  0.3599930560156733  0.7713209448773738  0.9974796595582847
  0.2658475759667719  0.7997171767786555  0.6274785467280832
  0.2035879594246248  0.8875758918706175  0.9819557370041603
  0.1399792910768764  0.5471289900198063  0.6115710765189154
  0.3351629658466137  0.7803786111443284  0.7089479351927798
  0.4125367780587204  0.7018626804221777  0.5797891387543335
  0.0769182615995757  0.5820687810389220  0.6940688016319516
  0.9876223546781455  0.5266303687586693  0.7295207145353355
  0.7642501966429436  0.4779056086401001  0.2287934633809061
  0.1241504458082715  0.6190356215173796  0.7613386195456983
  0.4872590901442915  0.8470806710363424  0.8624645078105333
  0.6053534127145113  0.9984232136003223  0.4120018244773495
  0.8354501688510413  0.7460309261291743  0.2260309806969226
  0.8858566109893904  0.7394997674696666  0.3567701097735804
  0.3855163408759501  0.8663167060720474  0.0504570994753788
  0.3159291385007537  0.5548494606402796  0.7832300160121005
  0.2886369329816202  0.9276827345878473  0.7784382400516877
  0.1820525149232574  0.4608324730211765  0.7511359958096033
  1.0016396961858809  0.1993901213643496  0.1688302146222223
  0.0341338050873843  0.9968472349508187  0.7332386880517372
  0.4947349994286458  0.7174205427230674 -0.0054791089559300
  0.4911897820359666  0.8163314888733881  0.7590837615495043
  0.3005231217904820  0.0125570224406488  0.8634332073819544
  0.5737993806560822  0.6468295740590492  0.0323407946220795
  0.3429516200434590  0.9504535168737190  0.9055244031302239
  0.3528300432119299  0.9317460031743039  0.0222220232053331
  0.7959603654699161  0.9303977738310020  0.4309719908851062
  0.4087387909943196  1.0449072818706473  0.9498346532203166
  0.7911576282031312  0.8355256493786913  0.1788035322829002
  0.7309725125058733  0.7847964644359008  0.4565041405163123
  0.2570957132495969  0.8634269868524272  0.8339341207569079
  0.1147247023606645  0.2276929950223302  0.8688677869165496
  0.1104581935740542  0.5419997039134959  0.8772949444698418
  0.8863677045373495  0.8740864992566341  0.4950943206112672
  0.0126277027281577  0.5047287466468368  0.8539795534032116
  0.2103918990778983  0.1508769094208387  0.9717531464028566
  0.9403268110665988  0.8638553218810323  0.4573092003966585
  0.1420136980068441  0.0378095749842426  0.0270785510772273
  0.0982031500387571  0.1201172335226276  0.8817298853001856
  0.8949579113181879  0.8428341839950518  0.3793058817874510
  0.8921120391140746  0.8860563607420530  0.4241393139484291
  0.9544327589125207  0.8788413286269140  0.3962918415309868
  0.0582673997278120  0.0704994534845412  0.8773915182471245
  0.1720278212349180  0.4450901548681307  0.5860183254502368
  0.4401612445427180  0.8093764370450394  0.7961754911272506
  0.4074845464213565  0.9283992772974975  0.0450578074271817
  0.2578704224802338  0.7248039339287722  0.2020504694050984
  0.2005524734112540  0.7070872102573796  0.1312671993794561
  0.7769209891052379  0.6801984526718891  0.3354364160929642
  0.9550242873900575  0.5867451928422295  0.4827203595336286
  0.0664657597745386  0.0586796984273387  0.9401960653018949
  0.7819698991388389  0.7264196938610644  0.1543669293217343
  0.8517761616659937  0.8793677168598988  0.3591403956598881
  0.8552292594821679  0.6202710142905480  0.4696129253692827
  0.5046636240203957  0.9069872999953059  0.5745906668495713
  0.1912924042654883  0.5541661241599030  0.5755284744565849
  0.6042645219876969  1.0005868383949894  0.3416264668450950
  0.6948371549723590  0.9090502833249251  0.5211054801461668
  0.9958186682300804  0.7112070863003014  0.0621388423695159
  0.8298629978200346  0.8654591369671778  0.4170651431422416
  0.1703206125975808  0.6569214721570101  0.8296223001583047
  0.1434523351061955  0.5230158901037402  0.5047219745584958
  0.4859022137425399  0.9793354974175611  0.7274599094543700
  0.3058532366909445  0.8997954589254474  0.9028122025642727
  0.3293565842175223  0.2999976737019394  0.9799119680315578
 -0.0146390572436174  0.8094068733420319  0.6263918335014732
  0.4411162199643816  0.6586181501416087  0.7593509793325737
  0.7982867947619967  0.0292654631596288  0.9206900834230487
  0.9622501912804630  0.5085467245743464  0.4075821494407898
  0.9928027560028686  0.7399509500887236  0.1661059717452635
  0.4614391926353610  0.9979475055366421  0.0941397085744853
  0.8677140904220283  0.5288081901474185  0.3077508111287675
  0.2471547131071417  0.7732164590427266  0.0071492553938257
  0.1915188320722722  0.8497517018834058  0.6447427726508927
  0.9887323946923056  0.0625722954826219  0.6869440644869926
  0.8878966589641560  0.6465541405583092  0.0337548638343456
  0.8609074135301817  0.9708320358745672  0.4530903550727019
  0.1535945811048384  0.2459991200701080  0.7695848807604008
  0.4756688351987363  0.8305757752980990  0.3037442091245134
  0.4278681710556245  0.9395843949638781  0.2053070581925800
  0.5347160384520184  0.9149241993288401  0.3623082728587845
  0.5810657566397526  0.8474547910282404  0.2749200802828614
  0.7691479519083408  0.6191217969602185  0.3530546746796530
  0.2248151855755582  0.2279115372270504  0.8520202894774731
  0.9841617000591897  0.6495317877527138  0.3074580929801607
  0.1642707146345357  0.7887670328800381  0.7015710922143202
  0.7320953988033717  0.7748942060681812  0.2921712016690912
  0.9975827913833440  0.1387340376436905  0.1826214188467209
  0.1895769062120975  0.6283055706468357  0.9563653190087282
  0.8750196805703886  0.5359278984562498  0.0210797686536218
  0.2155505932118052  0.7465840893043575  0.5623109663824372
  0.1565733986060794  0.5801253899472731  0.9423211344003166
  0.6294058235540696  0.7882661691774410  0.1931513631364685
  0.5398042052395077  0.9510942861087152  0.5832471651345126
  0.2061256918928302  0.7281505254138383  0.4585255498216835
  0.4099336002155807  0.6594735628708756  0.0275864918642561
  0.3416271537226431  0.6522835852592843  0.8300971241929143
  0.9821339418897588  0.2271627745455186  0.6636235585066506
  0.9058460268186286  0.1602747723965949  0.7595139729699051
  0.2853886270295969  0.2205822010192958  0.8720635544547408
  0.2754263358912337  0.2636089033830544  0.9161737930130057
  0.8610023055954324  0.4188031921852411  0.2834915880868797
  0.9128496028917714  0.4015739961777105  0.2495409900793596
  0.8906381220573589  0.7668437627945747  0.3016942230079488
  0.9176371083130906  0.3898648297202676  0.3104768835096766
  0.9582801400665318  0.3497103639107360  0.3438516187576383
  0.9535351341554018  0.2608721467287342  0.2487366811703375
  0.8966050192239212  0.8232394760888465  0.2759778677213924
  0.6394343844119141  0.9771756600439453  0.6688324681539742
  0.1198110762739893  0.9017853385733596  0.6663317369854829
  0.0596097034159402  0.5071297137855824  0.8155873570705382
  0.7712387624545107  0.5873898288417956  0.2507827000686489
  0.1090300992454920  0.0781818877320113  0.8394092103370326
  0.0693403007025856  0.0276456258777429  0.8332719877418656
  0.0357430648216052  0.0370824333051957  0.5355424226721124
  0.0430304542629810  0.7662419699934434  0.5360691945885659
  1.0115268704195559  0.8746817689960745  0.5762673256607148
  0.1381077314532579  0.9502168014436267  0.1690152736776780
  0.1533205499808955  0.9079277945561274  0.1176649949744160
  0.1614097608468939  0.8877618736334819  0.1721038545063643
  0.0989380092049612  0.7386357030730304  0.2016697470382560
  0.8117722088721138  0.2095808937998212  0.5534436616474184
  0.9171832959811421  0.1151193235758576  0.7127834152258543
  0.0485107345417556  0.2297155263893340  0.8457504731747217
  0.9254041469853427  0.3879911367213136  0.6789456566774001
  0.9553681133258426  0.4227004521160774  0.5225718152753492
  0.5671413252308993  0.8123808997560860  0.0071902736004470
  0.1603737233328604  0.9198217834137352  0.5680002025351012
  0.1497701334101112  0.4654011570343558  0.0181795820534719
  0.8023103644823362  0.0080625741213022  0.5271080047415341
  0.1798778485205930  0.4230094767868677  0.0984267357126563
  0.2892871734186080  0.3919205132886711  0.0139028383774273
  0.0939952129690713  0.2147502132356308  0.6379974420616303
  0.6821236246138984  0.1558563900377936  0.4719275983373952
  0.7427396228461541  0.2009019726015065  0.4237818185546934
  0.8518493886274127  0.0918710354267965  0.5832641710984700
  0.7499260738389685  0.9387571682332739  0.4806733240208328
  0.1862588085618974  0.4911217752970571  0.0806624313768670
  0.1344556789441123  0.5811350827694926  0.0412153192014951
  0.4775730227003899  0.2281853385512308  0.0986669764845879
  0.8715579089827868  0.5182773115730122  0.5942366452057359
  0.8841371443876955  0.2164896630958690  0.7425713611411372
  0.5279187889995627  0.1996187802327654  0.1205287790091226
  0.8836346896036702  0.1851691638995825  0.6359324935650890
  0.5742161398476228  0.1247932419025025  0.1029892119608019
  0.8176962026824760  0.0749901302439579  0.6873485663543438
  0.2038807056502944  0.4489751038177959  0.0418670498413716
  0.9353968355953756  0.6944006492094893  0.4456461773288303
  0.7154543940335345  0.0053384114228496  0.0699532025273775
  0.9796951098429451  0.1650901780223061  0.9440256949193376
  0.0073884374991396  0.1988727980608816  0.7900650304172252
  0.9925073900501090  0.1072552841274421  0.9614511977576602
  0.7648158946138255  0.2031227150925770  0.5931392162890546
  0.3662343924533637  0.1221537534509989  0.0295136449288299
  0.9015254492804348  0.0417518278670371  0.8293352427377083
  0.4160639962011058  0.1552043043606322  0.0442271353772695
  0.3986302082650758  0.0855157940339419 -0.0057078116943468
  0.5093318829821296  0.0857573023635125  0.9760615133908310
 -0.0007256762274468  0.8167792510951877  0.0882453704438117
  0.8209886921744139 -0.0252921815816120  0.6988721507213095
  0.1844870400382883  0.8626397738152890  0.5854484501510200
  0.0261475351930095  0.1752254183172705  0.8961330111385662
  0.9181864640826152  0.1462629952336523  0.8201635802898878
  0.3749133618116757  0.2760906673685447  0.1046981331118862
  0.4707116914636932  0.1686635459454741  0.1140691632783569
  0.5756586503303979  0.0747913513156438  0.0589000827836033
  0.9246141054466672  0.4178704518844606  0.7872678466182180
  0.4899400607947476  0.3560034501541112  0.4547301462287900
  0.7928648526280464  0.4779841521955314  0.7916817506279170
  0.7315011591068330  0.4559388632914967  0.6655662101335060
  0.6548818928044964  0.4906534885831450  0.5199225853692555
  0.6720266513087086  0.4342320382855189  0.5420646920902242
  0.7818553831342806  0.4637153731177087  0.6271506838032029
  0.7886862145322683  0.1145069530335168  0.5565948562958328
  0.5840471286917396  0.3760352280056649  0.5714052597503492
  0.9484824484573066  0.6616872406951333  0.8922025400481268
  0.4577279149224971  0.6459784066081308  0.3494507510834958
  0.4976595144500995  0.6017725098514762  0.4429185488602791
  0.7314681750045313  0.7420373634031264  0.1875164254605320
  0.4975462480356235  0.5422662434578767  0.4616365508771034
  0.8460737723221572  0.6065000760273366  0.6848455308709440
  0.8083928433596058  0.5561883749148305  0.6786113430644385
  0.5981778798997617  0.4482322820674709  0.4075284831428282
  0.5812775869621862  0.2155667085072996  0.1933778084724067
  0.8394860722361771  0.2587065620912065  0.4956853368916829
  0.8803311424583184  0.3181723761338314  0.4952646905207421
  0.9269922847657949  0.3567009896641720  0.5703244118239968
  0.5223389666791252  0.1579508117450216  0.0783587595723066
  0.7391568803694488  0.0924042549486597  0.5472496310031185
  0.0076498600423893  0.3503170394150398  0.8193639569958062
  0.9620561985884277  0.4652958644657566  0.7909782962608835
  0.9471715211678872  0.3280611025964519  0.6918596214444728
  0.9764394749968976  0.3926961687773546  0.6414110513074623
  0.8537829817330235  0.4405386585842233  0.7061569356636647
  0.5500112852303058  0.0183141321301078  0.0607262728359342
  0.9844823915902311  0.7115143408302834  0.8992680306875809
  0.9101478551541130  0.2800686852755060  0.6864233883472940
  0.8416863631872727  0.3026303217109458  0.6044288670601159
  0.6486788719775453  0.0127180262342703  0.0387370114540950
  0.7002772196970320  0.6169011176085492  0.5226231223611193
  0.7429485742765654  0.2484799442179070  0.4666333949711883
  0.9730021060216842  0.4203994195573478  0.7496724059604463
  0.0404181976479272  0.6632205330769214  0.1514645353124797
  0.9002737703665519  0.2929485981263582  0.6263274048001277
  0.1392996511007485  0.6283350363528785  0.0828436741978911
  0.8124525624997018  0.2386282925477484  0.6619933684672058
  0.9573739381307144  0.3469065851312608  0.8568084519705204
  0.7881187856256744  0.0744918270782679 -0.0378296105560075
  0.7408909160028252  0.0379586457528517  0.8957393365178729
  0.6801554120473136  0.0127870677435720  0.7681047329221403
  0.9307843132847883  0.2163954932056434  0.9758484507471107
  0.8739693054891420  0.1758030290607795  0.9685684096472505
  0.6241313132937976  0.0562050049595477  0.0797902586398001
  0.8175208040169702  0.1370638316727752  0.9014203391792273
  0.0685775653825020 -0.0307227677509880  0.2898955352773162
  0.8162947209450667  0.1081921553539122  0.7941779762088887
  0.1076070697110800  0.8445415211059472  0.2290769702885940
  0.6697410556896913  0.0259910028378357  0.7041926622120117
  0.7195998968458134  0.0327513112062662  0.6626339588519674
  0.6653701567402426 -0.0609078832956931  0.6240402012136415
  0.6544800894747087  0.6374743641491885  0.5571043689373257
  0.9739715105169037  0.8979034174227035  0.9498216596636645
  0.9573718294086887  0.2271909307184592  0.9315154668071880
  0.3188343048661088  0.6586858579340350  0.5409324446714592