C  Cr Ni
 1.0000000000000000
    38.8108709713383604    0.0000000000000000    0.0000000000000000
     0.0000000000000000   38.8108709713383604    0.0000000000000000
     0.0000000000000000    0.0000000000000000   38.8108709713383604
 C   Cr  Ni 
  61 248 487
Direct
  0.2792876871776170  0.0403548466996389  0.5645555981232433
  0.3480813927374365  0.6852621772804363  0.5722555993060591
  0.1442402607393496  0.9555086322788494  0.5492219521892264
  0.2422243161711457  0.6930364622705200  0.5334237737285599
  0.2086261421742839  0.4216625280433620  0.4604593872448511
  0.4290748698751557  0.2492598871592188  0.5468923687430010
  0.7873347563895731  0.9531578224190090  0.6036397617099006
  0.5644803071523251  0.6949356627816273  0.5453011045359323
  0.7948925278290547  0.1703113466481962  0.5720167226008197
  0.0934954967264071  0.1724649374852412  0.5646314281058415
  0.2674407166303561  0.1969278407039219  0.4324897060877588
  0.6524261446318890  0.6242528825554188  0.5785948226521838
  0.1571986997833100  0.9067040100005729  0.4983063213979098
  0.9916347988307476  0.9353696581375847  0.5992596895449427
  0.1853730436384325  0.1791109303246228  0.5629674584097079
  0.8656603037856464  0.3912675938045498  0.5135627074945737
  0.6676853868896162  0.4067834798534154  0.5512339441809091
  0.6992274407422661  0.6085565684913901  0.5121353814422566
  0.3717663689615672  0.2015542823541803  0.5316391713122974
  0.4942142599429646  0.4168854736456630  0.5485801867307483
  0.4600535856486015  0.4110887147758772  0.4763988050686598
  0.9437371579322976  0.9939110237615342  0.5795913507066603
  0.0818249291233138  0.7344078669145113  0.5101779039125455
  0.4172666506921002  0.7173019547911815  0.5908390000041543
  0.0318771688772739  0.2782994317646534  0.5126857863321992
  0.9112353836429746  0.8851549127523278  0.6375436214207625
  0.8165097383794522  0.8776471061375483  0.5009448137950526
  0.6454423129349781  0.3163398534870722  0.5126963000887611
  0.1941140125729292  0.7364811313871560  0.5742873747722359
  0.4944855362156098  0.7144209198571493  0.6259268249946186
  0.4165672317154304  0.5354275579522044  0.5605049135801842
  0.7183084592696740  0.9441223626352782  0.6566822728946831
  0.2644673860108389  0.2564363507453399  0.5434551186500185
  0.0414609725591967  0.9240862686984439  0.5403543954553285
  0.7465444324082604  0.8674308725681802  0.6834683232251874
  0.8191435636666752  0.4563411388063284  0.5434382106240673
  0.2546438892471155  0.5086604692783436  0.4230468852514491
  0.9746253691720075  0.3359474597293993  0.5653841448089540
  0.6225395546982064  0.7429890516257409  0.6025648432377684
  0.4563073256295703  0.8004867481778155  0.5592838699420907
  0.7553918483028433  0.1506161952211940  0.4998108382062448
  0.9387006557189882  0.8978111202739211  0.5619960796297778
  0.5111102840842852  0.9623775095388434  0.5415011442937923
  0.5582297602508728  0.2028126255869493  0.4705497889112230
  0.1154964072619150  0.0449085550766331  0.5634265227861969
  0.7772754207219049  0.6915185943092553  0.4969127877572467
  0.5136205985176530  0.5564460302334503  0.5499610823122810
  0.5317314419716845  0.6110069385591289  0.4827568453365905
  0.0250037892676606  0.2623608296921561  0.4251027231288155
  0.4608241390188156  0.1294028205571649  0.5145107552921159
  0.0415207755582466  0.4230611731268843  0.4891976060685886
  0.9259828173328387  0.9861737586312050  0.6602908062689173
  0.0257053233770644  0.3537467534471829  0.5156383496865607
  0.2838406597456357  0.4486360659208772  0.5214654379101208
  0.4618105352304377  0.3384372059352741  0.5276582008091952
  0.4915152635541529  0.2221710817269880  0.4990439133828237
  0.1306233093084292  0.2802739448854608  0.3949460781861210
  0.5723229800468325  1.0015383124639878  0.4801155235957699
  0.5255842279305534  0.9010610737592674  0.5741193031478797
  0.8691367107599501  0.8655102511125158  0.5746137977580505
  0.1664930767817719  0.7567775346054116  0.4945294790868644
  0.3985089280868752  0.5717121872798430  0.5312628422315925
  0.2211509629368963  0.2586336336759090  0.5176655034233785
  0.0214627475525702  0.9636624923201428  0.6365377551543844
  0.0617178347991633  0.3196679284376066  0.5053036129495264
  0.2956296539106732  0.4511266943079198  0.5693118509671180
  0.7071579473849872  0.1377891105248799  0.5177183853795753
  0.4649612895517341  0.5950775344398472  0.6060310739661217
  0.8457290018521170  0.1562193299313348  0.5783101141626669
  0.8565195042157074  0.2459648343734174  0.5053140347788753
  0.8828040631461745  0.3728860818031521  0.5592242543239513
  0.9386943891024077  0.3649065038581271  0.5832796785218527
  0.0273523428847617  0.0210472406954743  0.6182238939807317
  0.8663894564549074  0.4334401541366277  0.5423546075205447
  0.0977747911022449  0.4157571556120148  0.5619459913980983
  0.9713180138143930  0.5869544906550248  0.5584853598378858
  0.7708193816097002  0.3732500973191774  0.5711526708976706
  0.8067965505456451  0.4223166672302375  0.5773667171862852
  0.7311306811025973  0.2963206757574992  0.5159059307372753
  0.5976888769005253  0.0148335632281673  0.5209611961575357
  0.6588800167551715  0.1024646081449504  0.5028204041638932
  0.7630060258907834  0.0938709480419982  0.6115998177382180
  0.2269935508124721  0.7747067000620391  0.5654381491475029
  0.1366338817292674  0.5239217618022014  0.5070590228399500
  0.8438928260369113  0.8913736569724080  0.5399567125195036
  0.3700265530469994  0.7039533194943173  0.6138134684039943
  0.3835607102422606  0.7519748884467263  0.5674082102471849
  0.7110582682316999  0.3813638249698445  0.5460386804867758
  0.0065590805593217  0.6283500843077819  0.5530367388642524
  0.7267286251790823  0.4936348915306938  0.5459398071378689
  0.2373062637092180  0.2897649570776186  0.5721020425218456
  0.2817514093803374  0.7690496068673944  0.5848731668330246
  0.8961903618638212  0.7627040950166002  0.4736267183765910
  0.3643478317591817  0.2006866306809990  0.4290384070443467
  0.2498514363060883  0.4184160391896102  0.4921198116166139
  0.2369089786459463  0.4705597789294756  0.4532925114349027
  0.2842165277487330  0.4730668562769864  0.4069927428293151
  0.3686371654937092  0.3157198866871878  0.4428871417100207
  0.1289411006526697  0.1359658554517055  0.5611835327412458
  0.3087133717549549  0.2244589124389011  0.4498827961129306
  0.3098779680496382  0.1727056135479898  0.4156248114059919
  0.2939248631169011  0.4552771153139190  0.4737932460984676
  0.8242630141709805  0.6761485573606807  0.4894636808902057
  0.6868123626417735  0.1625480114843054  0.5730475497016235
  0.6537809684791631  0.2217329877809346  0.5635297646266706
  0.8096599069507113  0.9259484724501794  0.6422498209231869
  0.7577216761087064  0.9176386876743097  0.6799911919732945
  0.2824232262131632  0.1714825496643984  0.4769356110730724
  0.8894500018561848  0.2399757059112854  0.4384830884966218
  0.4318540299439120  0.2263256427776984  0.5946516887743044
  0.2614604747560245  0.3539050169358912  0.4499784644246100
  0.7740272001854298  0.1112343405798943  0.4762733755331378
  0.4813765889294935  1.0002408071616691  0.5521923346252694
  0.8409285908088907  0.1995899884815240  0.4618722685571108
  0.6515823366222965  0.9986494600918465  0.6064838441690305
  0.7467946426122878  0.2422617420211807  0.5293660555098262
  0.7828793055759514  0.7007212625086832  0.4454695644738871
  0.3970948695310388  0.1389560779684273  0.4251832476982833
  0.5050391189862717  0.4629823870968744  0.5348952185696872
  0.4759646482506293  0.3182954508552652  0.4817817517490124
  0.3340325049521552  0.6497941823901164  0.6055423475104942
  0.3854057364000270  0.9659448428849918  0.5790737601150749
  0.2287117741150070  0.1798036631153608  0.5851740306825182
  0.8021311061138059  0.1499662048671316  0.5259848221733375
  0.6913139049046935  0.5999921555127752  0.5611726860366170
  0.3849803449554404  0.5034816308458030  0.5389831721319482
  0.6412648645337270  0.9198799072746141  0.5636755372684946
  0.4649411901609986  0.5553223813348321  0.5606968575416634
  0.1402627393631463  0.1957698689075343  0.5532580070580884
  0.7099835097157882  0.6154421728302438  0.4634988552707607
  0.8102481965519770  0.5036251737009912  0.4668891267302765
  0.4163065920438612  0.3421364764062887  0.5143144273229840
  0.4247501149311281  0.7266437219043944  0.5382649140929556
  0.0862498996905690  0.0866932306860685  0.5564114258183355
  0.0705509235160698  0.1391078867822986  0.5354162150606822
  0.1346694120815002  0.2511190748333356  0.5433630640366368
  0.0561283760878108  0.9772098917836904  0.5421561137042235
  0.1667111173213479  0.3540251244992987  0.5343815506857522
  0.1983053585047281  0.5598550073398539  0.5755786888979428
  0.1815967830747719  0.4531834036639089  0.5775496636648357
  0.5408624765246388  0.6972903118924075  0.6193296084398000
  0.3992509634612110  0.6763511873099594  0.5646479171711449
  0.3762523904104514  0.8720596873320914  0.5370844548280289
  0.8455457396375561  0.8384658621815948  0.4907322547348137
  0.0119737176475638  0.4655753883822347  0.5806799437867133
  0.9312401125520599  0.6963298478880294  0.4694580076082812
  0.0334287680176009  0.5195068560935225  0.5330222319630169
  0.1347919100109713  0.5835675598782731  0.4945361518900981
  0.2718869172861777  0.9344055607682641  0.4992328017753832
  0.9976989372967563  0.3767031054505195  0.5530497821690630
  0.0030669673731489  0.8830227931918709  0.6163787011053409
  0.4842681022335263  0.9303802408153724  0.5664318738705133
  0.5369643898912548  0.9221234874748663  0.5245408211775926
  0.0200006281059012  0.8896325867941731  0.5016143481559616
  0.7706781428063555  0.6968262876687307  0.5897788978504157
  0.8619380177155310  0.7586914837741788  0.5546556724126986
  0.2941385654786987  0.6825000346157108  0.5302123535634038
  0.9870321922188376  0.6549521269269188  0.4770548221800670
  0.8879901701504744  0.6582320410827920  0.5179248048177885
  0.2366903613616191  0.0176315256655852  0.5807109475199715
  0.7465123139479395  0.6068834836451606  0.5309874938632404
  0.6579086198127659  0.6341868185463904  0.4986022050255652
  0.0594185625300933  0.8785018865350794  0.5511057060541674
  0.0553075663862507  0.8398354662164811  0.5083761312034339
  0.0186753155037878  0.0401132588732946  0.5519688187577456
  0.0419931522102967  0.9239660136537705  0.5926314629512206
  0.9492581278425516  0.4771119654039538  0.5749363270346246
  0.1162779172698149  0.9960620392339605  0.5471559534650159
  0.7535360411264244  0.1810945602189361  0.5422928101614937
  0.7579828490227828  0.0499849720370390  0.5637036560088354
  0.1821706624032286  0.9239141856022609  0.5389788535943091
  0.4420820318205919  0.7638118823541293  0.5879277591439359
  0.1245210345076977  0.9472263475968862  0.5016092853923919
  0.1561663151532758  0.8256656244129477  0.5832889077580885
  0.0952484799706267  0.6843325762775606  0.5127182025911891
  0.5427342974774390  0.9549958618686135  0.5815263331603728
  0.9738069703090425  0.7441321419238472  0.5556011023891004
  0.2206150519675869  0.3481950116310408  0.5551422464283111
  0.1460322817551417  0.7198302294802125  0.5824785332966785
  0.0587860075208581  0.3640381925983680  0.5547856153178635
  0.6294475099787906  0.4258501360737480  0.5173562726505393
  0.2649620044457653  0.8311381894017023  0.5709047149636999
  0.6720562788285103  0.1623559566171510  0.4795139144485301
  0.6322462517501618  0.1607264712882120  0.6028857627778259
  0.1648653567012089  0.8647044002244042  0.5302057807596329
  0.6517914100013924  0.4629599436459065  0.4790519776448415
  0.8874617881551182  0.2942803650572147  0.4626560444107909
  0.8368480901258645  0.3091626081985067  0.4934774359963863
  0.3641767559042050  0.0107097312953232  0.6153897514968515
  0.3640912639614081  0.1507951951466009  0.5267259807800942
  0.6190273318455726  0.6017185031105144  0.5487175493900316
  0.8489434100486265  0.8249545228038575  0.5521250713742184
  0.8378505266416236  0.9398756111472200  0.5857411027451810
  0.4580898474039811  0.2889048064368014  0.5352215237249903
  0.5499570349924762  0.0830791343780592  0.5357242789275576
  0.2588763569211770  0.2471288749722476  0.4251301462102628
  0.5507001489563492  0.7979615447495573  0.6137978974132240
  0.8437839746308504  0.3713933940831611  0.4721103007269768
  0.5261619044893256  0.4356885363984926  0.5889546750929795
  0.4069264412600453  0.2864275505786841  0.5731945361872985
  0.5766372749427282  0.7441691174378124  0.6266632616163379
  0.4248735941852272  0.7893360732411603  0.5231748297399369
  0.5753498235381639  0.9015001580387305  0.5852012397367355
  0.9999064672774426  0.3452503377676569  0.4707976840348689
  0.8905918039253709  0.3449967455557890  0.5050922850555734
  0.6715755349314225  0.9401280758865266  0.6276962590920638
  0.9179024717850013  0.5125000265581661  0.5018783041706286
  0.8144969504114885  0.5565694529752773  0.5127699953947873
  0.4753884973168042  0.7829845294074255  0.4848507231460822
  0.1907356271155700  0.0883606420476955  0.5327897389292738
  0.4821754340100098  0.8273490400520905  0.5279419400480188
  0.5938651825341762  0.0072988807596821  0.5849746079683549
  0.3830861244270395  0.3424809690376032  0.5595286245646083
  0.7763649550067304  0.3948447940667369  0.5095896372238670
  0.8273604221964679  0.4264771260307478  0.5000102365619825
  0.5983240182123097  0.7040975092559381  0.5817980032461881
  0.9091934664682063  0.8598634854313757  0.5472241145888521
  0.6532839653281898  0.1108961555968575  0.5603153394636167
  0.5380432507098704  0.3911387922438431  0.5387933304739478
  0.0237317161793933  0.1203467766425289  0.4730328647830044
  0.6468502998033088  0.7371829977835530  0.5573591842315428
  0.5658252805587800  0.6859497934175394  0.4949824916312884
  0.5930761226697393  0.2270952854143926  0.5416016869022056
  0.5982024158642035  0.1127107117204362  0.6015200148522475
  0.4420260330111527  0.1496759785340818  0.4726837750452214
  0.9498203598393170  0.9057458309577865  0.6124378617385987
  0.8873693830870480  0.8452649102425754  0.6155120331280234
  0.9727372356218983  0.8493635745343928  0.5122991740808475
  0.9116167755500239  0.9362104287075059  0.6572130144906561
  0.8910508334978817  0.9076737114585347  0.5934974822455923
  0.7981742334513880  0.7861697513322845  0.6425287147103670
  0.5038123898493991  0.0649778213064022  0.5832140579769644
  0.1580681910651313  0.4021824601242235  0.4604671822048459
  0.9380931228636192  0.1507436825547261  0.4582678235784720
  0.0130796207998183  0.8390403673340552  0.5573453069214273
  0.3377744816936687  0.0846699271790538  0.4658196394450900
  0.0775069717858295  0.5528058482188356  0.4829067633269056
  0.1897936484981418  0.4481668174588449  0.4982717108181691
  0.4435357608679063  0.0848236136992477  0.5009645782771525
  0.1762874577954009  0.6177903912280904  0.5566103596007392
  0.4567201270073988  0.1710997445971610  0.5924761074387570
  0.5376107279291231  0.2155516439784979  0.5196769077690159
  0.3326881438854121  0.2030096865895308  0.5001404112768213
  0.7375155595624586  0.4239625324802559  0.4860921231263700
  0.6064371487743873  0.5429064210184537  0.5491059807572347
  0.7977275871358228  0.9667467571429865  0.5523940937810539
  0.6576485185543891  0.7009824642420212  0.6085410839514848
  0.4462746659231417  0.3333891281565695  0.5770824521723943
  0.5789424097185328  0.5949366319562684  0.5895318714808819
  0.6413957721420167  0.8497583532522613  0.5806985212902993
  0.6940472441736109  0.9531210254034806  0.5752348111994480
  0.5160980018308789  0.6997922211730784  0.5318118851429152
  0.4538288712622275  0.4387345727168664  0.5198863248594046
  0.0192242568388674  0.0588179868872099  0.4865094226549835
  0.0160469898326030  0.2301031251053855  0.5124960463176399
  0.9598325412628023  0.1982984353890664  0.5088906823889680
  0.9765729690386968  0.0941434911590869  0.5756382726169077
  0.0767708510946662  0.1511496717039502  0.4787626904477162
  0.9281057338915164  0.0862998633560892  0.6141146458965658
  0.9606611217203986  0.1513750480007245  0.5629956266540946
  0.8521922256062983  0.9988257383441832  0.5612273793086827
  0.2115241818906961  0.9027084896934449  0.4890209327053348
  0.4722363509188899  0.1779284433108841  0.5192755153986504
  0.5859970619389282  0.1796165284184813  0.5048043405035906
  0.3962089961393417  0.1917995415846652  0.4828569780940407
  0.4793292444476466  0.3829136432092183  0.5140075165485912
  0.2895899863111157  0.5185152765771697  0.4564718662669066
  0.5673399361566338  0.1596717090099701  0.4436700296014556
  0.8979156553844255  0.2850166575737070  0.5220875589207314
  0.0128247432289796  0.3123772984790951  0.5454371151047291
  0.1985541555941604  0.7219418922649683  0.5282244711933173
  0.7864290830865485  0.1705013208609398  0.4571792738239888
  0.6813834805277955  0.2673013046794417  0.5040795188128401
  0.9187217299058145  0.0952331267970494  0.5564809525453596
  0.1106429227248920  0.8835399913627455  0.5103888382258192
  0.6526016406973668  0.7839577169070971  0.5995409226807299
  0.0922722918674323  0.4272653588431089  0.5025116106308631
  0.9989538452970825  0.3952224718583380  0.4984746372573222
  0.0263764535649355  0.7321703331596807  0.5325363690427047
  0.0531198838412463  0.2869746678544419  0.3931180893888517
  0.3826595968013679  0.9937592538284238  0.5109396575376662
  0.0572073930707633  0.3773258781978654  0.4799390428104493
  0.7821456490995579  0.8729237354328412  0.6426215441972093
  0.9520740642196491  0.9480813682152038  0.5620280130570937
  0.9584900176784080  0.9686709408462300  0.6240528650810350
  0.8428113676457825  0.7768849918850999  0.5039229716388701
  0.6167592902076469  0.4908351129527340  0.5667040297404852
  0.4212110654663009  0.2003846379630038  0.5416104088667905
  0.3832949941375338  0.2496603083713593  0.5181680549060650
  0.7341167965562168  0.7151449304372378  0.4764952512988426
  0.0055602942084302  0.9815314297298685  0.5771788962287809
  0.9931772621680450  0.8982029537932259  0.5590545130848181
  0.0716958802244183  0.0298120569415339  0.5168482160225041
  0.5058249458918588  0.2729864274113500  0.5022103990623679
  0.3227042009234177  0.8356428563180390  0.5285077272158258
  0.4764846729278916  0.0149295840246155  0.6051182253487191
  0.4444480052695455  0.2403087798172530  0.4975918777807796
  0.1051158686939839  0.3028932172968129  0.4680864923096846
  0.0526061843896476  0.2703577532472315  0.4659553720169948
  0.0681465341357591  0.9247497106024625  0.4957672549718166
  0.2414553549717890  0.1535818329561924  0.4209728739706570
  0.5178920234007400  0.5990405179116165  0.5728610907221332
  0.1448258480869782  0.7075212777387498  0.4687431900896001
  0.4986343443636018  0.5894113079062391  0.5109586985841966
  0.7061312890855995  0.8918068627324580  0.6497058302249383
  0.3687545349067197  0.2517147340673406  0.4613757625283412
  0.7658748723789163  0.9739286288889869  0.6513621302578553
  0.3119516906308042  0.2396715591234264  0.5499425854844464
  0.7409078096379221  0.9289597574657659  0.6125036886644514
  0.8670931816427074  0.0355175755513279  0.6092397223059223
  0.8134104184766272  0.0471811167736543  0.5864903588056870
  0.9879050183588350  0.2857972903405051  0.4916347769069443
  0.0484924500000785  0.2227584304217460  0.4121536384386754
  0.2300507967291281  0.0201263857487347  0.5163251660346427
  0.8769776470150862  0.9896740513141518  0.6615283215625110
  0.9948767464769410  0.2371533976320909  0.4522444157898413
  0.8200860939921524  0.9900476323532431  0.6168950669025628
  0.9985166075478414  0.3023687870203907  0.4295825768899382
  0.7763958783519076  0.0350595499784864  0.6324422493453746
  0.9423999569351221  0.3205637599856496  0.4677864429694518
  0.1093906348578854  0.2392584325848864  0.4830855116189889
  0.8612834034401307  0.1190545110554166  0.5334862715558976
  0.1264482047030785  0.1185317830064098  0.5049983492948157
  0.7004731181255424  0.0129478429548235  0.5574856913279962
  0.7522586142852953  0.9892974240588093  0.5881872491467458
  0.9101544520063308  0.2250620460201571  0.5358010660186294
  0.7080199841447282  0.9890438402368562  0.6325167622051765
  0.8101156642882981  0.1060508826621340  0.5734825918564345
  0.9074545979032762  0.1447762243497345  0.5967010315998259
  0.9114996590399304  0.0439336696199765  0.5105781838301547
  0.9108963139788945  0.1591223865877279  0.5331247460706372
  0.8048858658221076  0.0251175491273402  0.5306374436325978
  0.9194001831958708  0.0294054915383157  0.6362116251999567
  0.9477746687072718  0.3209164009680029  0.5286490125043476
  0.7977449149053578  0.2169632331592292  0.5030960685721353
  0.0178373457891184  0.1423300859845535  0.5799670229017887
  0.1323868144538910  0.0587065480705792  0.5208617686421541
  0.7429844108073532  0.1530076564433534  0.5961161035343918
  0.8253092447763382  0.3731236218988450  0.5358552647697881
  0.6032206291384149  0.4829101010813838  0.5097953457253895
  0.8553598111119055  0.1827675788389943  0.5199089704490003
  0.9760261721708757  0.4905823975626507  0.5263816408695241
  0.1070452013456434  0.3207659928986689  0.4044972415136336
  0.3412134307845368  0.1071351106359162  0.4075261495209813
  0.5209682424999799  0.2783785706943860  0.5615699503606737
  0.3346170691447130  0.9771899838288706  0.5579014741371822
  0.2895442594849327  0.1181406088322463  0.4412098965184652
  0.0387384523679513  0.4225791149001884  0.5390649054748334
  0.8048753980428941  0.2699648071010556  0.5415172004033020
  0.6964383697589371  0.2685058654659716  0.5641649895104026
  0.7557292130919672  0.2651537100170769  0.5850436625260999
  0.7341204323242714  0.3235388172277848  0.5699783700226091
  0.9674579626299415  0.0697966396545048  0.5214803243333663
  0.9137412096070335  0.0335703394850919  0.5715951362396310
  0.1290903479672185  0.1796372784678602  0.4916364411763119
  0.6575689202490861  0.5704454591524356  0.5097927668451258
  0.9636416992680060  0.0103079836896589  0.5370619209940183
  0.9923020997663049  0.2032828504413126  0.5636260941850348
  0.7798190015587149  0.4634806819233486  0.5103489949933432
  0.6934506595219715  0.2040963389320996  0.5228192410633898
  0.7554051947398852  0.1100035397457591  0.5448625263238402
  0.1802827211151482  0.0425920513227543  0.4875955826610624
  0.8220900123117455  0.2131447174877186  0.5610312368562069
  0.7896333172078435  0.3414425501479283  0.4657078984212790
  0.7837383657007497  0.3283656705342752  0.5270611492837014
  0.0285766118244988  0.2547279359987747  0.5672702248617523
  0.7351462271993460  0.3553994549243210  0.4960493137695652
  0.8904478158328548  0.4902299396429265  0.5523406127974166
  0.8311421029766042  0.5003676661663056  0.5272808106393796
  0.8680748302291783  0.0964775432493278  0.5944227847296543
  0.8608726340424950  0.0579013682685843  0.5455083376670856
  0.8745671515846780  0.5474040477919497  0.5350493539801023
  0.1936468728041089  0.4967996567047961  0.5301622662356731
  0.9157235504642778  0.5978825635303945  0.5384847114826525
  0.3458752664087358  0.2890463531476554  0.5558726649402674
  0.2459027832559544  0.5234616733536316  0.5464021429154745
  0.3099466104916401  0.7113881345770265  0.5892803008440961
  0.2082082846721245  0.3737745863514847  0.4866344109835469
  0.1316462491775528  0.4681220274321657  0.5358346452360263
  0.1087210025309525  0.3658855220018197  0.5103985146802305
  0.2392076452128289  0.4589788075238859  0.5414219728878096
  0.2677910430960315  0.8042460085373581  0.5192222048576611
  0.9888835353195582  0.6842137023704441  0.5723371533702175
  0.3457214178116978  0.6484730855999311  0.5419564340576009
  0.0795230288649557  0.5797765323106914  0.5339282646683671
  0.1908561999306029  0.6135138128938189  0.5007079456690918
  0.1554093462131653  0.5128653233301163  0.5712413840163351
  0.2407749929201471  0.5820029448809931  0.5298952355845191
  0.2919016498592104  0.6168022879150860  0.5411909968548653
  0.2354696587281424  0.6121444853488733  0.5806503192024709
  0.2946907380599463  0.6017748924390848  0.6018860058516238
  0.2739720783571785  0.6596902852061284  0.5861914636184213
  0.9696346897138429  0.0324647811511585  0.5973421958671921
  0.1670966953002904  0.7809600489370074  0.5420524262677193
  0.3133696985427050  0.3882908098185013  0.4576663001293783
  0.0773299481115658  0.9730407656715286  0.6026056492889927
  0.0953796500664421  0.5240052304342095  0.5491724154582187
  0.9718582495239980  0.6033651506851970  0.4975322250370969
  0.9315400310734357  0.5369348685975667  0.5565623829662050
  0.2547530543068187  0.5533714529152266  0.5987890185236044
  0.2219536209184342  0.1934300349758510  0.5244934390945230
  0.0738249468898234  0.0884442530609203  0.4958695410413337
  0.2110070936536498  0.6683803098519310  0.5635149887195057
  0.5956355162551669  0.7799061392781456  0.5749371734018465
  0.3646298708754415  0.8613183008569250  0.5947462000222494
  0.2139583143670511  0.7799229255033074  0.5053845538339220
  0.1946458604078682  0.6730623683896296  0.4866451413125246
  0.1380296275966717  0.5695524257298298  0.5543344343296479
  0.3030297944715352  0.8751297485414760  0.5701318753359974
  0.3209590118831087  0.6950457156485829  0.6530517678647270
  0.3246331714172290  0.9006065200272402  0.5157085963832991
  0.1540114530484979  0.6764945064968906  0.5354964639951110
  0.2173424596379097  0.8430138961071282  0.4922698476416403
  0.2737087274104343  0.8665383257077064  0.5079914444031343
  0.3773621803698769  0.9333399283053175  0.5252350655034566
  0.9595254903077209  0.4343014448268703  0.4796040618364464
  0.3265236352753280  0.9626559916862515  0.4992952902518469
  0.4007265052004567  0.9116226016846537  0.5995909104387298
  0.1152211164994933  0.6277527742351057  0.5345145938093926
  0.0690732911075882  0.4713749486726758  0.5506876063161998
  0.4462798439331965  0.6502528436324936  0.5909510891151465
  0.5910520034819997  0.7352908206361711  0.5278269311010291
  0.5467386059482822  0.7392212930804486  0.5674952773641538
  0.6157245287354850  0.6481020243531741  0.5981170220991713
  0.2035866509918794  0.4065395052575053  0.5412040927424706
  0.1872110894687848  0.5553996515660232  0.5175355648698730
  0.9473781341388645  0.6502855878109074  0.5375052131488441
  0.8101257232610758  0.0855325202976621  0.5166310038537253
  0.7046710621890500  0.0737018491708997  0.5350525667151874
  0.3222646414107992  0.2677713124730973  0.4950815507859192
  0.6519862812993859  0.0423561219513908  0.5250426420903408
  0.5554804073776504  0.6551369701800630  0.5758089297729911
  0.5548110892424120  0.6243539563317806  0.5223326820209021
  0.2625982638124756  0.2902440673860481  0.4702663248444481
  0.3958367390246423  0.0858548331356624  0.5444962113214941
  0.2838448727887408  0.0581041178245165  0.4580170496230121
  0.3878736707238343  0.0537707207543158  0.4927274240465767
  0.2070514689235842  0.2612799112848304  0.4573518526468441
  0.5557277801118818  0.5004191740243928  0.5434162092035447
  0.0197083145333677  0.4653408342676797  0.4952440886555378
  0.1600121475132584  0.2790711960716160  0.4935258209206891
  0.7944388422007007  0.8480139601273606  0.5326581503693477
  0.4494403384477588  0.0667929036878597  0.5617914236411895
  0.5005154624680116  0.5232760095506273  0.5195546591667026
  0.6151432034679520  0.0524006254280649  0.6235602999503560
  0.5166270168755870  0.1732548365012267  0.4766826163599400
  0.5775620145133470  0.1702602224121227  0.5713542009552718
  0.8098809835288429  0.7474781239237129  0.5961882390686726
  0.7991905154791030  0.7832932529654995  0.5463869052180705
  0.7667666918265879  0.5472744868409857  0.5534405498903975
  0.7138914256052703  0.6619233012150092  0.5157846148830194
  0.7293553921175414  0.6511061903174520  0.5771089758234415
  0.6366527736788733  0.2240436781496681  0.5015659621225638
  0.5608041581202350  0.3329233537534849  0.5628530846037064
  0.4168274124596211  0.0172642438864895  0.5769375253768274
  0.8539526010430675  0.4326566049094073  0.4474072792536378
  0.5786466623512359  0.4420210414182978  0.5546065957934528
  0.5414546645045324  0.0233666462323915  0.5564169372546593
  0.8491273680595989  0.7947433462449828  0.6060593540808897
  0.9014032194029494  0.9206225813823545  0.5342464103254390
  0.5452375816750362  0.5434269973690862  0.5856709460118827
  1.0023668068668670  0.9471017597528132  0.5221661719045777
  0.5348033090390455  0.8623873977271005  0.5347870636713117
  0.4306715523564554  0.9016501906049570  0.5491223391013900
  0.3445933121959092  0.9181686968917253  0.5759565608852810
  0.4436739769859615  0.8022273610589066  0.6353742900322078
  0.4319064835932251  0.9636626885337065  0.5359452869588284
  0.4453053988065202  0.4993907599299269  0.5059346795522643
  0.6541036791363249  0.1014728423843740  0.6266365791851380
  0.6057070766817269  0.0642980442618047  0.5605819011079097
  0.5979866050889669  0.1224452490147032  0.5356511684130071
  0.4633394757768077  0.4410648520907373  0.5792957699415898
  0.3680823678843175  0.3072560123445889  0.5041964953502754
  0.5389310833431891  0.1213817092757969  0.5854836802644542
  0.5558778719451588  0.5627779562836149  0.5266987252831108
  0.5651972468818283  0.4849938556862587  0.6020311452105723
  0.6779120830242022  0.3231756914672327  0.5477349689024672
  0.7864792631589450  0.9052956755259738  0.5757856792148403
  0.8982916423378327  0.9755942746284522  0.6019631679441474
  0.7411555825051416  0.7778109545558840  0.6795092373680863
  0.5409986506730577  0.1444807717835296  0.5259064088695322
  0.4849672910861014  0.1194832003000735  0.5557143854152377
  0.3042606480301256  0.0162916281774127  0.5989886877306366
  0.6404289285562564  0.1671785340313128  0.5324411397676755
  0.6007871363400404  0.3317890561234926  0.5171348815886854
  0.4886166603933534  0.3824927856535822  0.5841151969764132
  0.4813887375306802  0.3735232026529557  0.4539876684823629