Cr H  Ni
 1.0000000000000000
    21.0851064963230819    0.0000000000000000    0.0000000000000000
     0.0000000000000000   21.0851064963230819    0.0000000000000000
     0.0000000000000000    0.0000000000000000   21.0851064963230819
 Cr  H   Ni 
 259  69 605
Direct
 -0.0045327214575216  0.0010231801556962  0.0008013830247864
  0.8320670203278310  0.8339306353337321  0.8382866368408652
 -0.0044478334031367  0.7513193086409777  0.0842740171525299
  0.1629076011631620  0.5840667978830048  0.0852773944919480
  0.1627752137305682  0.4157734916144268  0.9170070863281052
 -0.0012530065906290  0.9172114151948073  0.7517215734712015
  0.1673849365138912  0.7521522595500133  0.0826664478859057
  0.0806336597063889  0.7494497672812624  0.8353339242958644
  0.9134126053752626  0.8348490660228359  0.5835488586201453
  0.0807812832611864  0.7513673817321546  0.5003829248024169
  0.0815643563035150  0.5850817961404812  0.1672234240322393
 -0.0017181726562268  0.7517946175748249  0.2516186246429347
  0.1646354254429206  0.6677211496894221  0.3330760013936784
 -0.0002525578074114  0.6707232772600696  0.6676770709526240
  0.9137615347646241  0.5018092006544226  0.5817737873304895
  0.2473119244727105  0.5828683730073281  0.6678583111266864
  0.9152708204518712  0.0008252255950387  0.4171803371249909
 -0.0010357658238065  0.4190679750675130  0.5852053368353506
 -0.0029506246639359  0.4991378493093487  0.8351618889242211
  0.9142435672899798 -0.0016553993456636  0.2496592044590618
  0.1649851072233765  0.9173715119888144  0.4151047113472988
  0.0801881095587566  0.2498148292476256  0.5011575303623653
  0.0811429298262793  0.0847288543552145  0.8368934921439362
  0.9141047825696916 -0.0000381648498188  0.5855343183186795
 -0.0003707878893652  0.0859852126062054  0.7511733824040076
  0.8324556667354007  0.8341810079609911  0.6640231790334995
  0.0815062311613258  0.2499623660376977  0.8356346744891942
  0.9156256639384194  0.8345283027759641  0.4190244778301552
  0.0820940391697999  0.4175190521427367  0.1666871852161671
  0.9135905195209256  0.8338276748313960  0.9174486828219316
  0.1625850809664124  0.0807912390306459  0.4181293915220720
  0.2478922647237801  0.8341976598643901  0.9192992476247857
  0.3314423499816517  0.0851748313973514  0.7527867657040528
  0.6629096976703039 -0.0007441652492859  0.5012708172765346
  0.4970659390149259  0.1663748830953595  0.6653385882375796
  0.1636988773223024  0.8338684596070041 -0.0003910775248221
  0.2499298218525705  0.0019041290548239  0.2486082705328157
  0.1590302972543568  0.9188971144685619  0.7495334381188724
  0.5783957798753211  0.0843610396133188  0.0055305845635439
  0.0806396249620393  0.1681026664747186  0.9180034879137436
  0.2476687631660387  0.0841047034813458  0.6679027486832322
  0.5802540556870688  0.0821632142761997  0.1667981926616438
  0.5801945628845276  0.5849044589184966  0.4995566940247045
  0.5796689004629627  0.0000145472747072  0.4188068579621234
  0.4980215109663820  0.3344119783528343  0.6663080037708934
  0.4995466691805041  0.0848611022682580  0.5845147130707627
 -0.0054126396899732  0.0821716115917568  0.2495750990750422
  0.6618609563235429  0.2517231536731500  0.7506770572040063
  0.5811057130338920 -0.0032105536971950  0.9144299481382945
  0.6644386885903034  0.5034056944871541  0.3307775794577015
  0.1637335311114648  0.9170428935276432  0.0833646104575038
  0.2479894251817012  0.1657798016436098  0.5837976959203944
  0.5784106642134135  0.1654186039972882  0.0847230840081161
  0.6652207205290920  0.3346469051049642  0.3343220543321185
  0.4950815776236488  0.0850412594230737  0.0842073714716682
  0.4127357306681292  0.8361782113727328  0.0853288027707138
  0.5768943798389736  0.5821614527040749  0.6666020891997569
  0.0811726868105700  0.0034838558895067  0.5850405269414922
  0.4128346711189457  0.7466292978608984  0.6630246833654564
  0.4966640440065124  0.3341421833139904  0.8342589625671419
  0.1650042443473696  0.8350930584317148  0.3341895075890509
  0.3295620938915205  0.8348431302961721  0.8343118961514489
  0.2460427602214076  0.6666964234515661  0.2537083200683677
  0.4989652772644823  0.0835898972527334  0.4179756190464080
  0.6627955453465354  0.2497634633556364  0.9184407063632269
  0.4123845154107580  0.0026019645017414  0.0847175858583352
  0.1630478807072114  0.2503414870990397  0.9165754648110244
  0.3313198817526619  0.9164067156125535  0.7517701073749259
 -0.0010793510986382  0.4197698337046111  0.9161888110037930
  0.2476323359293597  0.0012937499655616  0.5865061033991730
 -0.0032161762358029  0.2476599403858877  0.2496138227194349
  0.5001393699923236  0.7494897494125117  0.9182306740318431
  0.9161167359026872  0.5001713598986819  0.4163714613803200
  0.4144284627329951  0.1703491733430404  0.5845377273637056
  0.0001597590973929  0.8343286722096962  0.3346964810348226
  0.8279911161523332  0.7495671336334087  0.2523265093903956
  0.8318343871335989  0.9172184141226591  0.7510082984587867
  0.8286867406469979  0.8343024626601047  0.1705747943625628
  0.8303588887440807  0.4165767459832797  0.7531931589696406
  0.3309675509223831  0.0834382164038861  0.2501707539073995
  0.0812073499769510  0.3337758483384663  0.7514224211895023
  0.6655000476860340  0.3335026349111881  0.1684027442379842
  0.9153080303601292  0.6680474750008726  0.5823555915727182
 -0.0028541826123816  0.6692124600854146  0.3340188130127918
  0.9139304815289749  0.9200456269151327  0.3350833805470259
  0.0816663092259629  0.5870388351462623  0.0013773176830958
  0.7462574493616294  0.6689973137144991  0.5838502236225716
  0.9160345176514043  0.6681763456150221  0.4160059441955551
  0.7477225245869479  0.5002648819337386  0.5805037778395529
  0.0805699951765557  0.5847332426070897  0.5001639000044182
  0.9129297516738607  0.5855343701556434  0.1726662541194018
  0.8311374572335166  0.4173769289816521  0.0896835325231359
  0.7465855537277463  0.4978501087562480  0.9181917753864735
  0.8315795810752193  0.9168766253230013  0.9143695725508547
  0.9143577299380160  0.5858774379110633 -0.0030721414664040
  0.5823117221720963  0.0850292946059072  0.8305995098722175
  0.5818635616744156  0.9142634295150192  0.6664704631264963
  0.8320922390094692  0.8340643932615107  0.5007600064203984
  0.4137757398113936  0.9187912723930265  0.3345075398808769
  0.7494179804059032  0.1660223961075655  0.0850782705534309
 -0.0038869770310548  0.1656363720043918  0.3353263367638602
  0.8297870052776545  0.5856334308620645  0.2514116417079108
  0.9149238191946111  0.3335275148035512  0.4168536794571029
  0.9139355100021094  0.4172547089361095  0.8310098518067860
  0.8323063601843540  0.9170587539178718  0.5824374880447352
 -0.0041646662066104  0.1669034633071626  0.0018922903136837
  0.0797625765073256  0.2529405814720860  0.1682566025753923
  0.9134181182605379  0.9165896857437315  0.1673805885570539
  0.8275752827737922  0.0888692251043815  0.7500148443361748
 -0.0036307211344846  0.4177112711525914  0.4190263875138474
  0.7460740338362546  0.9176848367995647  0.3353677061713123
  0.7480384024403334 -0.0005557721870760  0.0848882182664831
 -0.0052143316424371  0.5029979464932947  0.3355221116281896
  0.9129192541906301  0.2501375610447610  0.8337014875271561
 -0.0018066026958016  0.1680831618153638  0.6676077450371952
  0.8311786517526657  0.2488384931058501  0.0868417762699603
  0.9119233189573496  0.2490653149822864  0.1676058863311876
  0.8297990835180635  0.1688880539539561  0.6661731519836792
  0.3305895946150376  0.4187492687178247  0.2515287474995033
  0.6626874916754805  0.8329582131471315  0.5010318147431000
  0.0816698565260050  0.0795504448469084  0.1642625418917422
  0.9115001144507180  0.4180159642529255  0.1670561598691367
 -0.0022165470997219  0.0825230605387250  0.4167493280382029
 -0.0006880633057416  0.4960697483890757  0.6660299440347011
 -0.0013989077212672  0.2508473954952729  0.5860193063040017
  0.7470486146141705  0.0014666544516397  0.5827157092651664
  0.0804049076712008 -0.0023720780083402  0.2484376850740276
  0.6625070917041141  0.9174636100681847  0.0857265734792530
  0.5772758536215953  0.1667844879254065  0.2517216926699369
  0.4969709224522774  0.3321924317459847  0.0012344217336991
  0.1646204147134976  0.6674995799472712  0.6676570394713489
  0.9167030354419378  0.6664889963558295  0.9181966533038549
  0.2476686031792954  0.2513446776218763  0.6690807352025292
  0.7462704151298515  0.6693612994228184  0.4151934522045155
  0.1629277540667207  0.5000139648787071  0.3343685344501805
  0.6617483102432048  0.4173390639549672  0.7509401190327453
  0.7466366355654410  0.1693228893434216  0.5844035915106558
  0.8324587959311377  0.1655613151075714  0.3352495301736618
  0.6675674360661581  0.6676152624125131  0.8381675902998288
  0.5808760862591932  0.2509509154044853  0.5005593620398376
  0.2458546492639263  0.2513449668007596  0.0010236396422384
  0.5796514800925585  0.6673739598851027  0.0837668362405972
  0.6633597940087650  0.5840424948796302  0.2516919237168976
  0.5783010011360064  0.6666649282648336  0.4170481735863423
  0.8319932108071298  0.5011658524508890  0.3350259101964588
  0.6629031508945266  0.1659087303661885  0.3360049105108660
  0.9159566545960052  0.1665678993296154  0.4145945620216366
  0.7440382287835142  0.3330678192509289  0.9159256389648910
  0.1646033908057670  0.1628324397384596  0.3343881048343743
  0.3305750872266079  0.5848413852008403  0.4200164978885921
  0.4130875111786704  0.7512696090661990  0.8367216629452846
  0.8288190237247866  0.2500629760448523  0.5827865597684659
  0.7443708253616594  0.7508525158827236  0.0007968836140060
  0.6614410084709994  0.8371679391448587  0.1673398929259081
  0.7485432724969328  0.7492201906055197  0.6655369556086583
  0.7463420026720085  0.7506657789092783  0.3354048933959218
  0.1629716234451731  0.4171955764801471  0.0865485754515570
  0.7466275478516347 -0.0018100130118397  0.2525298446682214
  0.3300113441910736  0.8334625803668869  0.5008101324871175
  0.4987061126222744  0.3297665857700066  0.1640960063401072
  0.7472682650571076  0.6692673692404293  0.2514327185268506
  0.1636985107287042  0.3369123738037880  0.3315233062722230
  0.7461972601935999  0.7491811953640409  0.8345162623276000
  0.5808631707191799  0.7502883913891937  0.3348453341667695
  0.5803975522146189  0.8320538953239853  0.5842623810158998
  0.4106612675642373  0.9124903470926728  0.8362508507283785
  0.8302897207341220  0.5847589076252122  0.7521556106948241
  0.3299110562182789  0.4990724691985751  0.3344853146145605
  0.5838896726826557  0.8335050666300936  0.7496406410314764
  0.2475072920312951  0.4182795886397173  0.6702286790134575
  0.1656593729611531  0.5015135864100716  0.6678019556903654
  0.6640260917695820  0.9182864907947370  0.9177263601907707
  0.7443868045942458 -0.0033876572290078  0.4182648869506558
  0.6644317902384088  0.0852578089783521  0.7514370770554450
  0.0772985760997729  0.9179693366264577  0.8353589656000228
  0.5792680251983373  0.6664750430567128  0.9205600226156800
  0.9166718894919633 -0.0002873455037178  0.7521275889697380
  0.4124508447912645  0.9138372394426190  0.5004796510394485
  0.1615677386739217  0.4207638453339207  0.4163482556092847
  0.4960047047063995  0.6670912313822137  0.4998641478890797
  0.6628166773196836  0.5846833953733499  0.5800745558360730
  0.5813268099457791  0.5028117831254068  0.5839516231051812
  0.4962773336145168  0.6665318270964827  0.6663801868024847
  0.2470090939481411  0.5835140249897059 -0.0001002238473016
  0.0815981546585920  0.0014850796058523  0.4173326581656878
  0.0804354666953722  0.6656820825191699  0.9179653845694933
  0.4965870817766801  0.6669584111766211  0.8359536051469123
  0.4127760032645666  0.7521581955263369  0.5007804187018678
  0.3264754730180742  0.5005691377520534  0.6684657421802160
  0.4155291601406275  0.5826304821202156  0.3337614263418840
  0.1634122602639428  0.0831740239535095  0.0836501055558391
  0.5797130905366791  0.4991802795595728  0.9170549128193044
  0.6630679379631524  0.7493283087360298  0.5829373064527856
  0.6629265929407657  0.7495480588664677  0.9176055216488004
  0.7457479816873731  0.5816712093360430  0.0027664077475775
  0.3307611656109318  0.2472797024502916  0.4175042706352906
  0.6647966733227136  0.2526946542867960  0.5829376975302243
  0.4127985150762476  0.7508857433146349  0.1692202079487648
  0.4136640422390367  0.3334982044401623  0.5839585385127827
  0.3295832919679725  0.3337144142881435  0.8341367453846934
  0.4949818069633233  0.0047440574957788  0.6668615603108459
  0.3312621334140193  0.4182139861955805  0.9172377843150088
  0.2463180469235872  0.0027917308263218  0.9179731577189950
  0.3303805203628296  0.4178048306245334  0.0845638966975150
  0.3282907977758167  0.6625538035303836  0.0007218051849918
  0.5790514282082215  0.0012173275530333  0.2518426586157316
  0.4157513493185758  0.2492855804077844  0.1691115719566490
  0.3304973084829754  0.0015344579437048  0.1691639774112456
  0.1632615136460590  0.8317325651867964  0.8383703195915283
  0.2463681758948673  0.3348679460748479  0.2520218866968960
  0.4121272804020235  0.0883448581292914  0.8334568463259281
  0.2449156632659303  0.7489087737254818  0.6690524927496018
  0.2462163904185045  0.5840762514164599  0.4983513204441734
  0.1644480746812408  0.7453323105029024  0.7506962884535111
  0.7461860187372803  0.3370191228959356  0.2513376476418613
  0.3318381572532817  0.2525225179963871  0.7515201131199276
  0.8281221470533120  0.1688704012654184  0.5022418021190673
  0.4985967833143939  0.6665887032810941  0.0001274393382742
  0.3329946467114301  0.2515285836933864  0.5837453543551652
  0.7472794214948303  0.1690640997109357  0.9168335545875341
  0.0811387541383043  0.9172533067899745  0.1663069740275226
  0.4966643040188211  0.5019602794849630  0.3336693743885292
  0.7438865526028576  0.4194991661546580  0.0017325401863899
  0.2477793457164870  0.8342838879661174  0.2541855061916500
  0.3291068124097200  0.1645934911662719  0.1679990429821484
  0.4956449447813303  0.5049880819222874  0.1671466145525549
  0.3326280922024088  0.0839281513361659  0.0837803042131268
  0.4975208068681747  0.1658741367510576  0.3356859458980451
  0.2473804153797898  0.6659540794760195  0.9186471106883947
  0.3355971506426431  0.8338410425996797  0.1672423346900873
 -0.0031111362306947  0.3336404138374054  0.0043826079418445
  0.4972178520728773  0.3330185611582785  0.3387227807998974
  0.0830850707397354  0.3323881784786465  0.9170292215989382
  0.4133325377215991  0.2526911278705682  0.8329780482030700
  0.7456507343055550  0.3342252388614895  0.4137202465710988
  0.4149868908881434  0.5824413004360682  0.1671860636793434
  0.7460395096079101  0.3321837261367155  0.5841140498596188
  0.2479921519974536  0.1660933377379176  0.2501445553710456
  0.3287038534759295  0.8349361559575168  0.0008776389566073
  0.5794992042246004  0.4999206548189440  0.0865302123313385
  0.3282705311823990  0.4221820007532259  0.4163307431400405
  0.5803055317122272  0.1709775327809589  0.9174150870217490
  0.8306989378955815  0.5009089399696013  0.5001968600886442
  0.4130259759898952  0.2527840920679538  0.0008082099039698
  0.1618532443143868  0.0865677898577747  0.9182866507643673
  0.4144557065111559  0.0833883473301558  0.0012003395531556
  0.4133150845162644  0.5006193204048754  0.0849427787430933
  0.4133224544231825  0.5010544910337349  0.5816219858501750
  0.2457069118484007  0.8342683633591932  0.4158860007679141
  0.8264995725369607  0.4188714566406508  0.9168886419371377
  0.3306916059861759  0.4179838465961099  0.7511593497167309
  0.4130603306004941  0.4973384586354727  0.9178479052812534
  0.5805858302459482  0.4178034260256930  0.5014160346766963
  0.1607043134045202  0.2505228078841860  0.5853011175412749
  0.5820402622575992  0.9190829376785279  0.8348531678374108
  0.5816813674321756  0.8345450642385218  0.0868096060394188
  0.4136785577618031  0.5843951025349278  0.6680518934469964
  0.3305981810936041  0.0837854673602196  0.4166322205198337
  0.4136902123233275  0.7506372283414271  0.3337036817620343
  0.8312634835545496  0.4176593559477274  0.0025296209899220
  0.4939117329014883 -0.0851655054951649  0.6657569814601138
  0.6684256171034074  0.0834050584627654  0.0007120894279802
  0.2473059856654467  0.6664946832964500  0.1644951563307140
  0.0797784948984380  0.4972776745780065  0.0006187317197929
 -0.0884610650787789  0.6676289215430110  0.6717794834232670
  0.4135917480632090  0.7475886708462931  0.0823641646796093
  0.8297447841579093  0.0030373030075144  0.7510112481805009
  0.0803882662372695  0.9123269141961043  0.5848202722317970
  0.4086538481048574  0.6624505476202205  0.8346506431039313
  0.8308564170532075  0.9188568899215820  0.0040009504425997
  0.4100794370061918  0.3374064315112872  0.1687716706876700
  0.8294268746603861  0.8334087867606118  0.0805351794732702
  0.8315973301395501  0.3302468672981339  0.9185277823123975
  0.4973136426135484  0.4175613265533615  0.1687957747777931
  0.8319408240326935  0.8307118475715319  0.7511825738102160
  0.6659703592615713  0.1657436646231286  0.2477757353859759
  0.5811921584314086  0.0841012681135480  0.9178401072926545
  0.6697855222450851  0.9170148773215679  0.6676137010266722
  0.4143107004700205  0.4973985986337536  0.6697522708691037
 -0.0866153712940568  0.5844797515792429  0.0847178795160180
  0.2459932260001797  0.8337484729158595  0.1652447859359874
  0.3267783548294796  0.2533900271936520  0.1669801555801431
  0.9104744692576457  0.4138401564931164  0.5842567110214449
  0.6625302309357121  0.7467959955292133  0.1689787958983278
  0.9109755303871988  0.4991164452055547  0.6702702771652260
  0.1640945029140199  0.1671943672335647  0.7503868326999453
  0.4120804319904501  0.7490740768248506  0.9225500548913561
  0.0815734013851212  0.7509714553658569  0.0845919997683963
  0.1649839832701423  0.9162004340780873  0.5049743381349404
  0.1635381661586490  0.8324520997073945  0.7508040391809661
  0.8276512318448450  0.6662110789966601  0.9182991839082263
  0.0826610576475242  0.0845591568713397  0.2511948539382713
  0.6645647123630105  0.5011807967467430  0.4198613347616975
  0.9965042764385040  0.4148415567661006  0.3309539395748204
  0.2450577758648970 -0.0821294129370447  0.7507957724282148
  0.3278439670013882  0.5861674804546956  0.3327349061406367
  0.9963309926717275  0.3325708106158510  0.9165391348537830
  0.7482885548772841  0.2466990702598902  0.2509312403195729
  0.0808068572254267  0.1661679558172897  0.1663624173358847
  0.4181907667820360  0.4164533474969259  0.4190657741366415
  0.7460611087777985  0.0871791059554767  0.4178108941538263
  0.6659847323870176  0.5829461747269237  0.6693581682712183
  0.9167548581909803  0.1665359449948995  0.5031734465185705
  0.9130546902621210  0.4176241113419615  0.9191293040643256
  0.9135539958467725  0.0867588070372216  0.7520420925443011
  0.4176976414925472  0.9182358434279778  0.7479822923471701
  0.1642630073815110  0.9194353730647203  0.8360350763824105
  0.6637033573365887  0.6656791680225095  0.7486035150524696
  0.4114934272553231  0.0818918228387219  0.5848277515438749
 -0.0039750574689893  0.3374861649609279  0.2507064602993873
 -0.0935312163465212  0.7497982954978953  0.0833948916788916
  0.4948774837427530  0.8328546544499302  0.7515358364639600
  0.1634273135709017  0.3313286087715328  0.4200511041418675
  0.2467140708187239  0.2519976393229774  0.5823063171478828
  0.3309363154839452  0.3346593299428370  0.4172024552477497
  0.4973628022743263  0.3343482442389032  0.2509095309244088
  0.7458310053064562  0.3306715340492957  0.0051625531544662
 -0.0027078484409353  0.5833600557955468  0.6682344129999384
  0.5818081144728424  0.6655147576956064  0.8334363048612151
  0.2467146926624218  0.4179789439621035  0.5802720767153720
  0.4117979935385604  0.7483044351166206  0.7500468314430729
  0.9127899741685279  0.8329095685858304  0.3320111628169155
  0.4140041433527314  0.0005125642977620  0.8349036061347312
  0.4131985397954928  0.0037100109557844  0.5008111110988308
  0.4959512489542443  0.9166772265397570  0.0018212663732362
  0.7469327870569054  0.4998020359458783  0.6714950189105273
  0.5839144031386915  0.0034138459375239  0.6667904793294279
  0.1632941409606123  0.2500138493718994  0.3348942946640677
  0.3304412328677926  0.1671341512345532  0.5003050865167785
  0.4140903668448378  0.1686155455078545  0.7506684292126238
  0.4141531641859653  0.2516744093675077  0.6679975091768962
  0.3296683444169415  0.1689343731316294  0.8349095214300795
  0.4140499218604152  0.4152566414763044  0.6668277054172583
  0.4131139673448734  0.1692256991283671  0.9173272516599590
  0.4133545358338659  0.2497110680419344  0.3349092136145754
  0.3305452486102798  0.2518643553411552  0.9180334094816014
  0.3296808962569565  0.3349748842749777  0.0007679615105384
  0.4131393706170785  0.3334289123634777  0.0826970595052338
  0.4141547177956577  0.4168042291785752  0.0016366334898907
  0.4141296001630110  0.1668959698369565  0.4174423110648574
  0.2469897581328515  0.1652498718278388  0.4173735556039493
  0.4138528941061452  0.1674612573724633  0.2523943177964107
  0.4129190089318846  0.4193080240998284  0.1675133148536489
  0.4137218035088209  0.1680078215522417  0.0837301213869236
  0.2480398763665996  0.9181073108028163  0.1669970052514567
  0.4143253272432091  0.4158589540159929  0.8342496529173499
  0.3299298068847172  0.4990011935333465  0.8348020513982738
  0.2475882568862263  0.0826731536241523  0.3344675164840295
  0.3304893366653978  0.5829470768625543  0.0848175121948313
  0.4123117811611092  0.6659330926814380  0.5829566273181744
  0.3280943937196347  0.3362727365132464  0.1674213415381321
  0.3297680377927383  0.0016036892185930  0.0000397416173388
  0.3315383590947112  0.4180121858986707  0.5842164712124741
  0.3302948149932368  0.3332802606637732  0.5014607996585013
  0.4137226604102391  0.4172664904445768  0.5023008520732597
  0.2464709329500575  0.3348215553718483  0.0841136398799532
  0.3305498322002627  0.1674661335036247  0.0006838954667985
  0.3304245575535573  0.2503929039512965  0.0826037673699993
  0.4146528258282664  0.3352329389447041  0.7499635397111292
  0.3305357077548890  0.3343535311338581  0.6683923811578568
  0.4135258673681964  0.0017570201749508  0.9180478590595925
  0.5803495140290678  0.2514501106347163  0.8334246043176733
  0.4134957125469732  0.3344528387913194  0.9176403345484527
  0.3296412492834993  0.5842694364677546  0.5829142458629418
  0.4965155662521673  0.5840758103550950  0.5830837206205852
  0.2460762315319265  0.5012585929666058  0.7524458982295710
  0.4130303304287394 -0.0006029643519877  0.5847737962272472
  0.3301602199000910  0.5827105064342282  0.7513207587250170
  0.4980400713364983  0.5003120440210148  0.6663963058986688
  0.2472525621347513  0.7511950288628064  0.4994915924271153
  0.2463480816039912  0.5827884626949336  0.8364787925507354
  0.4140582146313355  0.0838019124601590  0.3351533953473324
  0.4130159077797874  0.3341758425400743  0.2534668656523060
  0.3292818782166049  0.6656636325552265  0.6668006602478640
  0.4969625689263513  0.0854028006070026  0.7509670097321656
  0.3310939545952389  0.5838741940231247  0.2498281562366410
  0.3298445792756285  0.5006437937811575  0.1677680762583003
  0.2465277754984823  0.5005024096707931  0.2511440141604874
  0.2470981193310372  0.6667193749640528  0.5835976785864381
  0.4134761205688485  0.5838522352368245  0.4999545164701082
  0.3295021070024765  0.5012481693786325  0.5001505471037813
  0.3309382302002336  0.1682865465784551  0.6682854137861544
  0.4996997808777787  0.9173251678584798  0.7521896843974762
  0.2484059350401319  0.8345129547919581  0.0818007063143908
  0.2472913827383908  0.9184792863035479  0.0016062386586688
  0.2484108029402948  0.9189810551152503  0.3329516593661045
  0.4972632864889753  0.5823558113272446  0.9191563625343006
  0.4131861837263662  0.6644606218250584  0.9205114356598222
  0.3292847113801840  0.7495439685637753  0.0829865820676128
  0.3308070098677662  0.0008605448739669  0.3343604403277841
  0.4135730575762707  0.7498336954601484  0.0019578944140133
  0.4143685753926872  0.0854686640828466  0.1687414612604079
  0.3308598203142205  0.7506859429216272  0.2522796108915072
  0.4140380603050539  0.6672789968140644  0.2514877006369967
  0.4138705680402965  0.8336065574995616  0.2518847539087368
  0.3307115428265230  0.6688320694496295  0.3341847834609040
  0.4959030794253026  0.8329940173192422  0.5003693579745924
  0.4141142974036625  0.6680660263531105  0.4172050031995185
  0.4136991053549733  0.0009882659782567  0.2515532840055721
  0.4138196009686305  0.0861034928468536  0.4992777032041443
  0.2467285073534464  0.9178974793626443  0.6665248715809853
  0.3296268362390632  0.4996035041221087  0.0015612837606407
  0.4124429540381291  0.6651139374413141  0.7495729338903067
  0.5792180620478102  0.0007919830943452  0.0849923353519482
  0.2472318467501403  0.8325990181821463  0.7516849372015604
  0.2472623627685533  0.0026250615679713  0.7514134470979242
  0.3313624303867195  0.9168685800659514  0.2511211525795987
  0.2467578644096357  0.7499472230842118  0.8355080307672763
  0.3283827368535189  0.7500119367032100  0.9192902476771306
  0.4967094404182123  0.9174310597094156  0.0861175006764876
  0.5817444704199893  0.8346323146717404  0.9168171284133857
  0.1643647080506482  0.7493293001961899  0.9184953218339591
  0.4117546756906589  0.9180755101019085  0.0018099130708193
  0.2474243787245390  0.0834844961019699  0.5008002712587101
  0.3308895530432169  0.9185259315207208  0.0844849509458218
  0.3305512696647185  0.7507831754512447  0.4165571091740313
  0.2476280956776645  0.7497261632871117  0.0005911262647622
  0.4130112726570080  0.8336698818746326  0.4167720381692296
  0.4135242736500425  0.9180507761996451  0.1683395042708697
  0.4968866010734877  0.9159378531353820  0.5825420834248426
  0.2485832684137121  0.9174151812894550  0.5007813028481760
  0.3297929789874868  0.9160805982718869  0.5842476021338376
  0.4959931186495791  0.0007961859478953  0.1681578201161955
  0.7472195940419825  0.3339469942249258  0.0882776794825736
  0.4972405035132948  0.0834190113819604  0.2517769669625438
  0.3299773484191584  0.0012637541540012  0.6682544796964155
  0.3290250426416709  0.8326366694499667  0.6670318995499176
  0.0810480280582588  0.7498168683007184  0.6678806799644555
  0.2475159251156424  0.9178153694565983  0.8364460013785862
  0.3298061059786550  0.9178247714499930  0.9185809899208450
  0.4113358589630339  0.9176813716909821  0.6654249281664545
  0.4123717503045510  0.8346628008687628  0.9192316524750946
  0.4136606440621961  0.0027973899719983  0.7509172476955736
  0.1649045319684269  0.8326141214767481  0.5004672204240691
  0.4140925762561294  0.0005478542418387  0.4167547467882645
  0.6641433136380036  0.1687221091407749  0.8336674655643579
  0.4974980983534737  0.0013884657025310  0.0000150551329270
  0.6636518557759790 -0.0003030194572924  0.1681690150068297
  0.4125865901001097  0.8325040688390809  0.5838637873828060
  0.4970024158873202  0.0008773203226332  0.3354524227423200
  0.2479689195667421  0.0014863203688222  0.0837779006495021
  0.1628456757469571  0.0017724218068739  0.6679746626504828
  0.4983800860933731  0.0016520094021108  0.8340688005557039
  0.5806333124159290  0.0830302231536385  0.3345078441018626
  0.3295106660963187  0.0012965551288048  0.8347451769878808
  0.0801686764531378  0.9180575882994788  0.5000288656033425
  0.4149446794059986  0.3326917508862940  0.4172522811111741
  0.5810722153254694  0.1685500721853720  0.5841872474402086
  0.4136944296433136  0.5813772857833897  0.0011123753682910
  0.4119859311904824  0.0850824842917998  0.6691459503764314
  0.4964999590552118  0.2513596549786410  0.9175668660275644
  0.1650146246401650  0.9177073003141660  0.2502406001475515
  0.4986542600525523  0.0003619695208238  0.5009376839164839
  0.1643655393126268  0.7509125399447163  0.2518821373931179
  0.1639803893260683  0.7506041241559400  0.4168088009129666
  0.6641997461498350  0.0851161488247900  0.9163913343775173
  0.2471805244909699  0.7508283859499375  0.3340694988510430
  0.4970852354936292  0.2492857722433028  0.0840058790187257
  0.4953774226284501  0.1686454601807140 -0.0002520544220986
  0.1634582231077940  0.0016738833204364  0.0013111721456984
  0.5811838919509122  0.2496833941351191  0.1680191374942233
  0.4982038728748110  0.2497203484966982  0.2526244440180062
  0.4965376635606965  0.1674150446466112  0.1686528810213297
  0.3278188881414208  0.6658288759365547  0.8358447047483235
 -0.0024798737774202  0.6666463169728192  0.8350044311927147
  0.4983470436871701  0.2504251848907754  0.4171514063612530
  0.4145053747467041  0.2498758021796310  0.5001760445044084
  0.5810782196055320  0.2502076560235140  0.3354036555350812
  0.4976394443863195  0.1675451358992555  0.5012521493426209
  0.4973152755827739  0.2512860968697125  0.5842861769435906
  0.5811687226643668  0.0852191317619203  0.5008897709617102
  0.5802894979701502  0.1671208202659503  0.4171532975728701
  0.4977080718415023  0.8337279789878884  0.8359022046839639
  0.4970079431239620  0.2517548462324891  0.7505186801609728
  0.5807293892101029  0.2513141599566069  0.6666168609307993
  0.6639605945432731  0.1690929384095013  0.6675604685112407
  0.3276038984114996  0.7489743186245308  0.7506227821437987
  0.4982248124991024  0.8330746647013301  0.0017636733797246
  0.4974482209208029  0.4994455002264355  0.0016985912393989
  0.5799706195116983  0.4167272981342537  0.0014042043712517
  0.0812787454394026  0.7508617056391067  0.3344291886681995
  0.4143546384290702  0.5008060842100132  0.2513049194129339
  0.6642471027895348  0.4175654763474227  0.5827535186015509
  0.6630688382189810  0.4182509793211536  0.2516143406835086
  0.4970149114247160  0.4164123747540369  0.9186734433299603
  0.4145341603282256  0.5015929678899376  0.4180003993920092
  0.5806400742614235  0.3329529282622533  0.0851365936708923