Cr H  Ni
 1.0000000000000000
    21.1200000000000010    0.0000000000000000    0.0000000000000000
     0.0000000000000000   21.1200000000000010    0.0000000000000000
     0.0000000000000000    0.0000000000000000   21.1200000000000010
 Cr  H   Ni 
 259  69 605
Direct
  0.6569272398810192  0.8363021270252899  0.6678128530703441
 -0.0023543183190576  0.0013949076744888  0.8308296822221010
  0.3260998927228213  0.0824712696391862  0.0875923753213336
  0.3318713453329333  0.9183892163988147  0.5830554418886186
  0.6613637709233172  0.4976945904450681  0.8353263314707053
  0.6574397508884783  0.0007134511930490  0.6668935881167033
  0.8287189782875013  0.4991396010809804  0.0027179147058010
  0.7463301113175431  0.9186854611821363  0.8360938094486700
  0.3243490661447007  0.2496332540866377  0.0856686021702568
  0.5787039750823139  0.0820838131981119  0.6657385405989510
  0.6640510721407245  0.0018375208015597  0.0024936275736133
  0.4129555961802820  0.1681866251243991  0.9192000874938548
  0.5786885093244963  0.9186987793813364  0.6659187325362288
  0.4112119002549097  0.0005906518890891  0.2493542508293033
  0.6633022967492864  0.1691129133119907  0.0008904755543119
  0.5777996868828227  0.3307084217764069  0.9193583013614532
  0.4131512764930219  0.2501308794836526 -0.0005466269447557
  0.2442090637923736  0.4159590610305573  0.1681436588310499
  0.5786692946964629  0.4148461004734254  0.3328018123097140
  0.3277007367664541  0.0857789120286357  0.4142444326629232
  0.1594290740492195  0.6649636862394543  0.6684241274087387
  0.8281746071399606  0.7492359004582073  0.4158226447345930
  0.2449927142622645  0.7476244431330163  0.4951053800094874
  0.1599510061518250  0.8350136956817833  0.4963628801952218
  0.7469938338496852  0.4153609501171807  0.3330360032311284
  0.6621555953904208  0.4977507517382763  0.6672769761079367
  0.5780310836401509  0.2515952143216327  0.8346219757967840
  0.4119353511439335  0.1662283909592088  0.7486731050298937
  0.5787543471646686  0.6656951533805967  0.4168009336960118
  0.9130363912605124  0.8328314533754951  0.0816842015376253
  0.1610824055333805  0.8333939503781043  0.3330418860606577
  0.0791786787504123  0.1651255279766805  0.0842691869700619
  0.4119362282118793  0.0043712936207433  0.7478111435895206
  0.0784023868251637  0.3328410368851514  0.9205013147382587
  0.7433794032909733  0.8345929200672421  0.5804185129421012
  0.4118390865269932  0.4992527862219447  0.9188241913674038
  0.8287357344713250  0.4140325780804633  0.9188164479915596
  0.4107853549761460  0.5818020309870076  0.3327175225266137
  0.3294921546294107  0.8352096991587601  0.1686062613807603
  0.4137244004231900  0.5827224930204650  0.1679881070161613
  0.7461279558090143  0.5807696095289065  0.3327921071228587
  0.4129928158606161  0.5800357143257195  0.8360112346517728
  0.3287914633892466  0.6648510481081938  0.0019148353889977
 -0.0033356637793647  0.6669026241434450  0.6655680606868885
  0.2479598684948791  0.3342601315325884  0.7457753159256731
  0.4944183390724122  0.5015402596742689  0.4977397438653690
  0.3274070980172993  0.4144628755005338  0.4150630806581584
  0.4136676061610055  0.7486177413355877  0.8353811343539042
  0.4128699917768537  0.7503895511501548  0.6676228079454493
  0.3286837608552385  0.4139667831026621  0.7493004184462000
  0.4951327156033830  0.5836496041721746  0.0866876854850249
  0.7470152847246110  0.5001288811475499  0.2502820935330799
  0.1605438978195792  0.8334425444192540  0.0030164399311492
  0.7447973838803438  0.0848419415093507  0.3312863808371621
  0.6622728369292989  0.5810806974171785  0.9184904915140578
  0.3271810819179181  0.5813882906905281  0.5792327968691986
  0.8302768207456803  0.4164852856500230  0.0824250744249102
  0.5791745524625265  0.4976085476633926  0.2519595796611686
  0.4965364291881886  0.9175037010531270  0.5826963484208562
  0.4111750857079911  0.7463387280265613  0.3316386117710426
  0.8274142335796913  0.5820150196942523  0.0832254804660586
  0.5005522099635564  0.9197977153528791  0.4141860114176404
  0.9107314390730292  0.6669538040858560  0.2510057284597142
  0.4963513677335372  0.2520210303676955  0.5812463184528137
  0.4960783939439627  0.5811372886464090  0.7505366450655971
  0.0776058506807231 -0.0010855711483124  0.2492900361786241
 -0.0040724560482667  0.3324582811938158  0.0019981000901022
  0.8286946407147627  0.0037462696317521  0.1657709402623952
  0.0781804605914447  0.5826119823542121  0.0024857518590086
 -0.0048091059987450  0.9171773388667792  0.2461972540635535
  0.8285072814167455  0.5818765796699543  0.4170504577837121
  0.2442006596894280  0.0837919022407005  0.3323355104378290
 -0.0045888771687859  0.5812623990751612  0.4164095476598052
  0.7443205013634546  0.4988357182518801  0.5809433553783323
  0.8270113563385241  0.4991131187758220  0.5002643025429487
  0.4098987051353985  0.9165591157366182  0.8368792764303526
  0.1604469596540099  0.2491163545991877  0.5830170806475743
  0.7445006779776163  0.9160638926588298  0.3328026687136291
  0.2456853532754174  0.9195965832153714  0.8343630418747234
  0.1604227094543914  0.8321555571753736  0.1669561461403511
  0.9106778105758971  0.6678506916776702  0.7506878628694221
  0.8288807930246705  0.7501359919066410  0.0843436685195471
 -0.0053772635013792  0.4984216411861089  0.4982560100503204
  0.9162244127306269  0.6639832393475910  0.5842156384540020
 -0.0066715449273970  0.7452507515989462  0.4156681873272600
  0.1618286687580465  0.3306168446088498  0.4998098713964327
  0.8253701929145643  0.5800849102653609  0.7493676911676938
  0.2449621621612425 -0.0000629670659337  0.2487616718598510
  0.0795336103057562  0.4932711378818078  0.5792359088113551
 -0.0046437952282451  0.1674908181808344  0.8335455809356015
  0.9102724902251578  0.4153517076852481  0.6699522208759401
  0.9105075094137322  0.6672592976688902  0.0824262335202626
  0.2453696937366058  0.0847248190612613  0.6652001522801319
  0.5790481516682442  0.2522962755619859  0.0011800916365778
  0.0790794812414756  0.3329272146129427  0.7478364144768661
  0.0773016947121137  0.5841037221257435  0.1665291547370950
 -0.0052941562701286  0.5009836443610675  0.3328501074771356
 -0.0035985069067213  0.7504203984277104  0.9171474864377204
  0.0822232863214333  0.1675460866583575  0.5825234322392387
 -0.0044944827713683  0.3320833243170773  0.1659651876802205
 -0.0042193387197474  0.4981779347693442  0.8344162013504108
  0.0776143445335301 -0.0000786508122014  0.4165341314945353
 -0.0059269698625419  0.3299425123438365  0.4996662463663204
  0.8273309097929176  0.0010686037536363  0.0018489419753100
  0.7465226262315204  0.3339130628349970  0.7515746968691823
  0.7412563799454107  0.5802534662749887  0.8369850635334536
 -0.0044123821354531  0.9220693222064053  0.4179657915817143
  0.0778724212387278  0.1666876202832760  0.4158034936334727
  0.9130420395718551  0.8338251956939442  0.7518154626530735
  0.2440820521851674  0.2500260158987936  0.1669492159060734
  0.9125104542755157  0.4989862272929826  0.2497126281502479
  0.3283397161385550 -0.0002692492665249  0.0029960741665559
 -0.0040847079237823  0.5016667461228271 -0.0009028906286137
  0.0795811961191178  0.7501498107170638  0.1664530963083325
 -0.0018712011217132  0.9187247700511463  0.5837956423794545
  0.0798354061614841  0.6659623592386148  0.5829578773179721
  0.0767129847750251  0.9183108515270697  0.8331828969461151
  0.8265907039264440  0.7515182191092481  0.9158530889760953
  0.8281983808804906  0.5821927786086358  0.2502037116643924
  0.9116943279555714  0.7498090644396025  0.3329480897771322
  0.3271020492761633  0.2508742627327752  0.4153269205315469
  0.9111235641018175  0.6681472640865392  0.4154379752038086
  0.0778833572148808  0.1676230106679821  0.2500695386308315
 -0.0058058465525620  0.9154698862659337  0.0853562086151650
  0.0830465702838455  0.6652329915667459  0.7501187617201306
  0.2460664863399351  0.5817880028152187  0.8368514884262140
  0.0778400160114745  0.1679210652348829  0.9158749801186048
 -0.0071814493036987  0.3311251194123962  0.8339902248443273
  0.5806655502713362  0.7479586415046547  0.4973217632489638
  0.8264687194790348  0.5813158044429780  0.9224035405599864
  0.6621457264252281  0.6665022430491491  0.3334881849571393
  0.9103849841964339  0.9157075513669785  0.3317216453784311
 -0.0057915595079311  0.3314289416591668  0.3307023489153673
  0.7444271998527263  0.8351692484450799  0.4153986763841521
  0.1616038161312364  0.4151891133160348  0.9187917886255890
  0.2457932141193367  0.6659710047841898  0.0829256548436086
  0.9146181100539272  0.5824486772395896  0.6639396642601326
  0.1635450488530709  0.7483431202559516  0.9172125528438282
  0.9130429871743964  0.4997434274683991  0.0830383025989486
  0.5774691143073231  0.6659263632343645  0.0841181818779234
 -0.0048171529736760  0.2493788124815599  0.2497947134510549
  0.7476807274209079  0.4167146195893915  0.1678332686461230
  0.2454628096265373  0.2474187560836275  0.8331146888547000
  0.7459485030900292  0.3327618244759993  0.5817809956027480
  0.4957264874246693  0.7480216987375715  0.0855310076762990
  0.2473464291183177  0.4138581118270965  0.6651886339615040
  0.1617228678008449  0.3322858293948843  0.3323310522065920
  0.4934951866859603  0.0841711921664718  0.4142769670462256
  0.0774572321462840  0.1675413190044322  0.7509104488640944
  0.3267566761860056  0.4149187162016141  0.0869758775003192
  0.2488595256054159  0.2495940782762064  0.0032350148945174
  0.8276259293974033  0.4149110276948709  0.7502648056670106
  0.0786075353620811  0.2470928014108307  0.8327095239333396
  0.4951953892311706  0.1676892825522295  0.3329649268602541
  0.0784112528299670  0.4113767748891769  0.6666380851496397
  0.7453613063770185  0.8315545252969456  0.0825915580684380
  0.6603255788896440  0.6636699373086863  0.6672388435988245
 -0.0059323949725926  0.5828322979218608  0.9179512727670768
  0.4953841743098621  0.3290400082603084  0.4977853245257647
  0.2452267419328258  0.0846708895812540  0.8343873077137658
  0.1612890814279349  0.4173855066950457  0.0862343330305184
  0.8297739534459203  0.8316041409397864  0.6650609502166006
  0.7437474339399490  0.7494865486806559  0.8363355508896402
  0.4110722451393461  0.3324101659471825  0.2508987512185032
  0.6610107415247621  0.6678097033928414  0.4963359988043117
  0.2462111720512612  0.0000637286250376  0.0845508777354588
  0.2437651167217549  0.4989406211341461  0.2503625092135081
  0.4940508843137540  0.0863934681866676  0.9181062126187565
  0.1624775011670889  0.4988407269700764  0.3312984550129627
  0.9122286569708788  0.0847091118577922  0.1649341674159366
  0.5791206769767536  0.5790982982836914  0.6681139278849937
  0.9116713233965846  0.0842228630424246  0.4992000515531939
  0.8264266240648844  0.9181665990179264  0.9167342978117434
  0.2485180562111509  0.9190150267602534  0.6676718707485656
  0.2424146614242171  0.0848054579339710  0.4985575476278922
 -0.0053325508365506  0.8302285107213160 -0.0002037661902158
  0.5776039731995231  0.3318873323926130  0.5805903582610269
  0.5795429572854240  0.0857700346652768  0.5021459625972733
  0.5783883900252760  0.9168171209040549  0.3318115613515267
  0.5783949608550989  0.0856397942336359  0.1674186096925578
  0.1603919006669939  0.0834409482779491  0.0837930958662382
  0.9136485538714277  0.8337908488705517  0.2505016514537466
  0.6623509479040824  0.0021656390653029  0.4984540421325254
  0.0783765929738273 -0.0000922665520952  0.7516231633780084
  0.3282246505732298  0.3315139293546411  0.4988653613326214
  0.9123586710256358  0.0840458451436708  0.3315065137241792
  0.4951933358723581  0.7467576135051621  0.9163958737546130
  0.7459781606270731  0.1675179037676618  0.4145466225488515
  0.8317867123777438  0.0057195277599133  0.6676529286973186
  0.8300420859311900  0.1680969053197102  0.6670858791524391
  0.3281262692380324  0.0001273488621012  0.1670994677368314
  0.5781047834708802  0.9164776511509823  0.0069153106530540
  0.4936290614195086  0.5775166302702446  0.5807385960004134
  0.7391072355965677  0.6656619159150780  0.5821044375259152
  0.5799197615030944  0.2510769381065326  0.1692067802297755
  0.2419805008153161  0.4979748986851607  0.0862279401889829
  0.6627424887771025  0.2508333304739014  0.2481871025736130
  0.4116575800821618  0.7494514212525344  0.4982865998442172
  0.3259216637788162  0.9155791124287859  0.4142595294223159
  0.4955345157356366  0.4160611253072294  0.0872697968115746
  0.6626400304952892  0.8292669306233422  0.1671943946370887
  0.2440068320049093  0.6659902485381203  0.2509119533235781
  0.5770123285455748  0.7497848486231479  0.6661317401160898
  0.6639931293514463  0.4972368745356059  0.4986108678322237
  0.5752680751178284  0.9165401762532356  0.1657291162752955
  0.4921707296553730  0.5813185014376873  0.9153686779661471
  0.4950506798156443  0.4137119196207187  0.7469929523569379
  0.5818301793988379  0.9194564801806635  0.8335555303587685
  0.3293923497345452  0.8326108621523683  0.0040102656464513
  0.4947918258003433  0.2494680663420424  0.9180954275062253
  0.4976465419565282  0.0850157852216638  0.0874774975139679
 -0.0046912110730547  0.7487479283507428  0.5851365863660912
  0.6629035258535609  0.0830760747746356  0.2488660764326082
  0.6644867555807401  0.4990989610918758 -0.0011922338287601
  0.9117348546366968  0.2488773955669516  0.0013708529049843
  0.7440070477780968  0.0011991201518367  0.0831741276750202
  0.4981154934775155  0.4129773887899830  0.5827142472014084
  0.7460588634706196  0.2494918399429968  0.0003944062809817
  0.4102596717343137  0.3331394580503058  0.7458753478900232
  0.2442129256761387  0.7485611575264147  0.8360996754754284
  0.8301370564642928  0.2501951260957247  0.2489353069080650
  0.4974867991167300  0.0850279127390094  0.5834760922149103
  0.5778929605852421  0.7487520653798809  0.8369997215336810
  0.8277149694644989  0.3322335866827877  0.3322935905946255
  0.4971385982973710  0.9161652762383526  0.0852960073995332
  0.8301626307698736  0.7496210990967651  0.2515689183618432
  0.2456583818331952  0.7522521732174934  0.6704477383970221
  0.5790627643748992  0.0861654408663413  0.8320734240332541
  0.5779200881660581  0.3342428669555605  0.7507179994458937
  0.4937596487156822  0.9204940139735271  0.9204135735343983
  0.9114084346484402  0.1667534994995167  0.0837791732788253
  0.4977399455013189  0.1669274796278012  0.1679120443407690
  0.9128403863217054  0.2507478194050185  0.4985772373890209
  0.4962572529955356  0.2484333111873844  0.4138909085376031
  0.3271158014467325  0.2488958909177674  0.5808885778926199
  0.7443020757225640  0.0835433344802910  0.4997148555041912
  0.0791783145825493  0.5857470300952573  0.6684751091411263
  0.7438091843079325  0.5833125688407089 -0.0002169725437968
  0.9102232471724484  0.1669347009128629  0.7503755365172489
  0.6638741412786335  0.2510302356365171  0.4155416380517495
  0.7476748495305490  0.3320697742132361  0.4143437638924728
  0.0788160333567992  0.8354600822057395  0.7524319533081658
  0.1659516990474734  0.6651934517844660  0.3292367198436009
  0.5783490271857110  0.3328107250839890  0.2490484124885816
  0.0765004669401342  0.4984604239099605  0.7532243865102171
  0.4126426094590698  0.8300691200250414  0.7526656511245335
  0.4117695113915586  0.3326104805344554  0.9231256687195364
  0.1617382329182368  0.0837266821966362  0.9163778549460861
  0.1595571580821048  0.9210176864118892  0.5819349682886678
  0.8288372716042482  0.0838005965493791  0.9177857530285386
  0.3294887137460891  0.4168399264137510  0.9185435312919479
  0.1667049122571604  0.5829999533538166  0.9163192412562302
  0.3284629887178468  0.5809843140493877  0.4148131424143153
  0.5793531031589048  0.6664488729986845  0.2517477576485564
  0.2447502415036372  0.5777247508775731  0.6653112411520832
  0.7466225112789485  0.1663032992370700  0.7521228874634331
  0.6613656614920563  0.5858172140837817  0.0837521859795119
  0.9090163527094930  0.2484309267865699  0.6678086500807033
  0.9126587453169698  0.9177570109746814  0.8336210049480809
  0.8225127127095352  0.6674792960067027  0.7501228919363065
  0.6607840627418924  0.4967908013789691  0.0870409463887348
  0.4123702051369011  0.9173386049107907  0.7492682038083907
  0.0818506683577563  0.7532118075978950  0.5823804386567880
  0.4070718753354380  0.1669440305136097  0.1689577296167518
  0.3305371859659222  0.5026140493455268  0.0858249228523626
  0.7445782380832529  1.0015750744105196  0.6683340413747700
  0.5789881515504411  0.1714503771766225  0.6673073363851254
  0.8252976159770181  0.5807786382093227  0.6621313340503436
  0.4113542732019144  0.8366894266861239  0.3305206303320685
  0.4960825400053416  0.8338867785569475  0.9201619565732334
  0.8285861219845971  0.9137294484432665  0.1668710322619540
  0.3325958932998114  0.5800028609710296  0.6686947379373004
  0.8280189211526836  0.9182475474393750  0.4987988997416821
  0.2488297741531595  0.8364138745010444  0.4974666733369553
  0.3294710631299558  0.7448712457013078  0.1674757316635060
  0.1582814716060668  0.2505820264868712  0.0013719756304101
  0.9964150586744061  0.8335151981485264  0.4167528165633483
  0.4952750712002152  0.4152353256416825  0.4960610571356631
  0.4132230616706284  0.8384214348235060  0.6638963968277767
  0.1624293397419490  0.6643100206157969  0.4197628007003973
  0.7434135690214188  0.8341023913944645  0.6686592945833814
  0.9972393520770876  0.9164145375515791  0.3320782030451678
  0.2466970244749629  0.6644082068444240  0.6673770457893219
  0.9966288458740081  0.6671020231653851  0.7527114487926356
  0.9948833916264144  0.9191043334414529 -0.0025041766408079
  0.2453709965555893  0.9192946200985506  0.5811245327984315
  0.8286238854622842  0.5819276393461408  0.8352820220891377
  0.4968536571900676  0.8293104653164495  0.4153406148087304
  0.1618763536168800  0.8370089829532363  0.9145555171535555
  0.2457005520553951  0.3356625536125654  0.8355436121438042
  0.4139210801145235  0.2512844666285573  0.0879873217675956
  0.6627325093327464  0.2502523666058741  0.6664562136867198
  0.2472827869810876  0.7488352077994495  0.5826105625083277
  0.1617319082895350  0.8329388704268829  0.5858738531413258
  0.4113136631388598  0.3324478758793007  0.8345502603399806
  0.0811156842783943  0.5798056630408841  0.5810626198246420
  0.4129284084702803  0.6592496670091451  0.6675985365038035
  0.5831597690981500  0.0852445547064708  0.9211847217551554
  0.8279796719539120  0.6672035186349196  0.5815820725185360
  0.9105231229197414  0.4144673308486043  0.5790401009867074
  0.6641831378435671  0.9179170719302315  0.1673281688062731
  0.5803796795146406  0.5815774300259222  0.5800997898412189
  0.5819939486014770  0.0840200285870563  0.4134278205141373
  0.4135732731258512  0.9159596536605690  0.4160003664593585
  0.9077623197368150  0.7527828703596638  0.5832916126810620
 -0.0081102150688264  0.1665816582714375  0.5830007065576154
  0.9952799930894243  0.0012209158384488  0.9209548617906517
  0.9084482667236846  0.9190992386794038  0.5825710466455756
  0.0798087867498894  0.5832451452812669  0.9162014466200065
  0.6627627728000297  0.7500946463167729  0.6687131340437472
  0.4953663705719160  0.9183124315575825  0.8335342075952873
  0.4109219345961946  0.0047693089989202  0.8372800862603015
 -0.0877746440720208  0.5810480794654883  0.7519519221578933
  0.8246356221086745  0.8337554873370479  0.7533067191900401
  0.4950317370172962  0.6687194009373376  0.5817958147188095
  0.5746562335873522  0.4979889727284098  0.0012227316599237
  0.4960146948934708  0.4160122027712029  0.8379150208895060
  0.1666937052605417  0.4980068303003323  0.7506011393840056
  0.3255135908808437  0.0048279320071008  0.4150655813942757
  0.3286032276309414  0.8341436811617202  0.9142700984611748
  0.8281004661288723  0.9181436179658674  0.6672351354983370
  0.0793507569243672  0.4982621266548676  0.6662285452400691
  0.1591272414402634  0.9197102856933344  0.6704645548934988
  0.3329031104322872  0.0849457057921437  0.5005169576781746
  0.5805578227263236  0.9174824388007750  0.9205630147224374
  0.0791018428888399  0.3332618789463451  0.8345225973794277
  0.3278609558988100  0.0861761396427029 -0.0014140827318593
  0.0758137030024397  0.6665328189306799  0.3328376470283586
  0.1621733982411580  0.7499073559352220  0.0838172954127533
  0.2439463989497406  0.9170765773996078  0.3317290985973100
  0.1629618840765128  0.9183147835976108  0.7530732787474462
  0.4960716319746434  0.0020562416882754  0.6660757104190890
  0.0787349882345283  0.7505413925799420  0.3321143925534771
  0.0782102006668018  0.4975253142008039  0.4158687072114211
 -0.0047005982551522  0.4142409602860450  0.5825186953835499
  0.1622320479810562  0.4971902970895983  0.4993087783501338
  0.2451531152074033  0.8330411475538061  0.4139568208432431
  0.1646201247090325  0.5803797780948847  0.5829230374338037
  0.6616262381529674  0.9176091496467632  0.4152088714354770
  0.1637699198265273  0.4970208217535409  0.6657293851205179
  0.4972049447536912  0.9177133309738298  0.7495419848010112
  0.0796366965785607  0.5827713053893031  0.8332702398882309
  0.0786584853404902  0.6668544467360322  0.0834975079193419
  0.0777498101406083  0.4991132129446907  0.2504848636560435
  0.0773773208746210  0.8365218586216734  0.5827992244196126
  0.4958306707858144  0.0844982673995965  0.2495837703257843
  0.0789712607516705  0.6661912434085182  0.2479118078318553
  0.5794379317544825  0.8329497300292412  0.9181787686619359
 -0.0054970470264241  0.7496663727280494  0.0832618999932947
  0.0799462883730239  0.7505550129255023  0.6693386857412024
 -0.0059797417229926  0.3322298974714233  0.6671794743637891
  0.0779222437227740  0.8336592007956625  0.9168763961007811
  0.9128018747645589  0.3327403893314520  0.9188216469658327
  0.9094409717153725  0.9168227024394290 -0.0002613777828150
  0.0784110749385018  0.4162261956096198  0.8339098696815223
  0.1620343142126887  0.5799221984027569  0.4149302102928808
 -0.0057996625212527  0.6668603443924331  0.1664386407357662
  0.0784794080317487  0.8331358863300502  0.2491506450177888
  0.9119436408417045  0.5840392857288718 -0.0001211355424472
 -0.0051170106790577  0.0023420243994939  0.3321162896540636
  0.1631151640711548  0.7508133284392757  0.7520135706690000
  0.2441336769900961  0.1673788655430731  0.5818129538529782
  0.4119356882054461  0.9168258549427573  0.1668783412045307
  0.4131995024068671  0.8331309778031855  0.5811877121162197
  0.4128672186856425  0.9201550112474765  0.6641836957211310
  0.3291457791405932  0.0025113889498653  0.6662727642489390
  0.4959787036288428  0.8327010704725136  0.8339565613260690
  0.2458141231553090  0.0029178200947628  0.5823978913025020
  0.4970981900635045  0.7493724423355602  0.7520920588037652
  0.2455383355070541  0.7500478309065766  0.0016295894990306
  0.4960950027647454  0.8319829715929012  0.1671142276193210
  0.3274915576996524  0.9179882123532376  0.7508020990799512
  0.3281084426745439  0.9183928234995273  0.9182999336169415
  0.4957899056217060  0.0013774748975835  0.0030767246375139
  0.4119116845834287  0.0004758687336228  0.0852929442013224
  0.2429517960276946  0.0014309595738957  0.4155186552673321
  0.5792835949757777  0.1672522798316836  0.7522131300516528
  0.4968415848599296  0.0015905744434969  0.4996499654326478
  0.7434095207572248  0.9178978211747281  0.6667183361722679
  0.6629404212357518  0.3320802774155481  0.0014104289772890
  0.3291943851339204  0.7484371013345129  0.4151929407857471
  0.4124071827776916  0.9200496877294618  0.3312717445950687
  0.5800159239690819  0.2509862721108378  0.3320151538980556
  0.4961203622588184  0.1683788363780186  0.4984200046020278
  0.4947614010476356  0.1683210809514057  0.6665234265731772
  0.5787817654619331  0.1681517165088622  0.5816670318105527
  0.4115615791092321  0.1674306263375245  0.2517834569622153
  0.4957769393357052  0.2505210999787877  0.2508739882995404
 -0.0045013480504205  0.8338619697086638  0.5003420509026966
  0.4953698016348725  0.1676703873107620  0.8330260864989060
  0.0790758265243134  0.7496595854833782  0.0005393795575154
  0.0797233938218112  0.8340754533852694  0.4159252671099551
  0.0780339295348834  0.4138253287040217  0.4976461129546058
  0.9105732831282419  0.3327124971650430  0.7504115256228134
  0.9135057188197897  0.4156908611240643  0.0000546838731285
  0.1616978662633283  0.5831332831242689  0.0848782466662621
  0.0779169380636338  0.5000171639421235  0.0839649515469724
 -0.0052486798451807  0.5005274762218311  0.1666645138489219
 -0.0056189397473607  0.5825264129276595  0.2492871001329875
  0.4133264831905950  0.9181864280870611  0.4997423574018889
  0.0801376930828132  0.9176297195453399  0.3322505891609653
  0.5796168684313341  0.0848571371800857  0.3300370002962498
  0.9140990570389194  0.9181860167657613  0.4985505788778637
 -0.0048551936918098  0.1660351670914339  0.3324176473479494
 -0.0045491323284340  0.4167323385747951  0.0837764214355818
 -0.0040441370337225  0.1665299561362050  0.1667659252881109
  0.0783579995253803  0.4172659668902987  0.0011882540187354
  0.0794148744822052 -0.0000102716863385  0.0840398183975506
  0.0775924486097336  0.4152901561068881  0.3329828393730765
  0.0773754725547426  0.3321983632567176  0.4152374287845802
  0.9117107290579508  0.1666426024613377  0.9176346370138090
 -0.0045009268940508  0.0835765720082619  0.2494460464557291
  0.0784461790235015  0.2496059656589891  0.1670741157268780
 -0.0059921633202917  0.2496559387173203  0.9181585028978638
 -0.0043989044389483  0.0844845784168757  0.0838278800903760
  0.0780688007350476  0.3331504098173703  0.0839972228521972
  0.0780338972381143  0.3318848895085367  0.5821982115634858
  0.0765293761039498  0.2491146000723781  0.0008464922408882
  0.1617795164246821  0.2492795005418634  0.9161041052220843
  0.9123446602571297  0.3333620444642104  0.2490997493406839
  0.0774623936205145  0.4163273917469899  0.1670938226586735
  0.5787774941435548  0.0005359943432191  0.2493256393026002
  0.2486899897923739  0.4982437559291931  0.7502306701106120
 -0.0044177428343223  0.0024777035401357  0.4997587033892006
  0.1630021534115233  0.4135583531825597  0.7490135319482197
  0.0779804285256043  0.2499320916258969  0.3329088979656057
 -0.0043185720956819  0.8338249222703672  0.6675639476918399
 -0.0048560439947658  0.2502104436330049  0.5836378253051245
  0.0779676212085333  0.2498249425708128  0.4982573670011390
  0.1603410323201044  0.2500242913518358  0.4156663677688389
 -0.0051946586845267  0.1666859427937970  0.4978968340853643
  0.9122016070314445  0.0839628863907978  0.8334965288048319
  0.0784278179415291  0.2495330449448300  0.6673287612576546
 -0.0062411269183696  0.2501595300324980  0.7491813923996551
 -0.0051617919436897  0.1675532644158680  0.6686917469484470
 -0.0043484810602268  0.8322072572915220  0.3327710485499583
 -0.0054980680451880  0.4144863964561059  0.7503859862030804
 -0.0053228321894988  0.7495745074011539  0.2494742811686916
 -0.0051842152802021  0.2495466686099016  0.4151611132488564
  0.1613005820704187  0.0003615777741291  0.1674036848098954
 -0.0044559031211329  0.0858488558930397  0.9167684067657637
  0.0790393655588070  0.9161288744697068  0.1658232575383723
  0.5801594886557868  0.1684551873146097  0.4149288101915979
  0.9117375639516031  0.0002836414626173  0.2493338105288091
  0.5807739187822207  0.1686666435639349  0.0845817798792722
  0.0789030853094063  0.0838166928230505  0.0007087173882685
  0.7462310132650233  0.9152774235329962  0.1653183039019638
  0.9124013071677778  0.3326679544356660  0.4148838949872597
  0.4129352891822746  0.1684507214087077  0.5818005093968572
  0.0780976908702901  0.0832810250825538  0.1670710389652365
  0.7459097487665345  0.3329865746992937  0.9183283902289856
 -0.0050808971737456  0.6653408308474754  0.4999441651163339
  0.6621197208534007  0.0018922974227005  0.1669837687230784
  0.7457967304687878  0.6656433562045881  0.2507260715652959
  0.4951194396945098  0.3335121211589785  0.1679538896107845
 -0.0036930633532923  0.7519882105889673  0.7508755159754934
  0.4115354556556186  0.0842374231703627  0.3319046522502398
 -0.0049729653798365  0.0010599485113381  0.1660959067165589
  0.0794165673478434  0.7503588528240683  0.8342948543720158
  0.0787957914821796  0.0847960186566183  0.8328031729011502
  0.7439132384252696  0.7501051709589175  0.4989845128138878
  0.1627958520411546  0.2492388799554217  0.7493173584642574
  0.7460956434470521  0.1658303458849327  0.5825869027749807
 -0.0043497743113202  0.2491429760108565  0.0841140460492568
  0.8292371493924385  0.0836142618757998  0.2496605449688197
 -0.0054792546159552  0.9166166618307341  0.7496164864420444
  0.1626438633209831  0.3343934887122222  0.0018986696048853
 -0.0048769245457855  0.4154658026178841  0.4154008208338634
  0.0777966222963229  0.3326203813965437  0.2498830195440556
 -0.0048363171869231  0.0839604466428206  0.4157345702860548
  0.0781059160084229  0.0834723369099750  0.3326925939838902
 -0.0039731605186810  0.0011484186152315  0.6673052012908191
  0.0781963026824331  0.9183136776107610  0.4991278268837143
  0.0785710337605846  0.0844911886118262  0.4988744563638709
  0.0785087711556882  0.0846301586554663  0.6671467797112107
 -0.0046257728034761  0.0846932085079841  0.7500773606130708
  0.6622352979397038  0.8338965055018708  0.3324139135062451
  0.4121076864739965  0.7484534432797536  0.0021389865641876
  0.4155626295319086  0.0033000056912480  0.4156947693624004
  0.2460139464267234  0.5808831764593706  0.4982216934335813
  0.4114049421120288  0.4161339457470020  0.1682021843616072
  0.4966507702171745  0.0039031938825945  0.8342833184430625
  0.4106449176081511  0.4145318093275677  0.4979082155374831
  0.4968587745969825  0.1670735695389318  0.0027522276142122
  0.3282882034782115  0.7493267386568375  0.0833286240235914
  0.5783883374551071  0.6649087165794423  0.7515402673173645
  0.4123916335978345  0.3315779077068637  0.5810294305153332