C  Cr Ni
 1.0000000000000000
    38.6542185159316816    0.0000000000000000    0.0000000000000000
     0.0000000000000000   38.6542185159316816    0.0000000000000000
     0.0000000000000000    0.0000000000000000   38.6542185159316816
 C   Cr  Ni 
 106 1596 3725
Direct
  0.5207112267750006  0.6465034896988250  0.9815250401361065
  0.8490830612888114  0.9878223836837602  0.9033218056775516
  0.7333274203520075 -0.0234295628557746 -0.0011258396726438
  0.5644243011208210  0.8359961079640444  0.4753918142515363
  0.1402650125211693  0.8344607971169462  0.5293366725290632
  0.1065106085447289  0.9202925957427209  0.5280285283658441
  0.3807265623709860  0.6673806081866069  0.9543669195186122
  0.5248071085107996  0.0639940708342814  0.9998318893156705
  0.3844879196974709  0.9993885907487253  0.2563934007649727
  0.3625164555672255  0.3749722643249937  0.0799257155296067
  0.3857458676227419  0.7553332194021370  0.9475748965429606
  0.9565272721978230  0.9483496014372336  0.6204969893662308
  0.4760787755662193  0.1682585036490884  0.8817614334864412
  0.1585461432930429  0.4025332123432019  0.1141516499997657
  0.9088693552463557  0.2826314573556563  0.0137652155031122
  0.6387228476314936  0.8961130060377960  0.4482453873382669
  0.0351422423359262  0.2823023220205701  0.5160126812867636
  0.7464287511346938  0.2818410229267104  0.0728643918474645
  0.3665874464675123  0.6425810212535980  0.0275913195109125
  0.9808200649663033  0.4280401738140377  0.5310404190838308
  0.1027379010671313  0.9241324673896913  0.6262834702122302
  0.3989118243346953  0.1185315944231601  0.4479150986112236
  0.5806143425111191  0.9021434437062891  0.5477817233629395
  0.2661037537850254  0.6042178196181043  0.0242827127800934
  0.9173120291267851  0.0143873307486655  0.5638904925359692
  0.8504093088706622  0.9029440175488164  0.9592336982452953
  0.4933377834342462  0.5969019618212005  0.5189499314041522
  0.3242977772200411  0.9621967269731041  0.2406144000546775
  0.7789526835154827  0.9784746840601501  0.9320767386261621
  0.0885777586610860  0.5141154709946543  0.9991939820059220
  0.5582924781973838  0.8447705717378756  0.9355844855180361
  0.8698010711445366  0.3008403607992171  0.5267839895240222
  0.7216791276503089  0.6457961198542189  0.4897532447832877
  0.5238568881524395  0.8159471996151618  0.5630055781965053
  0.2858888535115747  0.8427333908699546  0.9575661470604274
  0.2224859991361881  0.9735530991991583  0.1842358370955176
  0.3730404485741167  0.2489427937718365  0.5157629627222265
  0.4879785721144259  0.7898802312360779  0.5017283174265649
  0.8196628696476518  0.9464856615974769  0.3218774293718785
  0.4040236874886405  0.6950022180983407  0.7088542682847886
  0.5159815013734730  0.9570577596484167  0.3110699457329942
  0.0111015600112872  0.7970657873358429  0.5537830957990805
  0.5566093884328915  0.7652661949068275  0.5073807519417435
  0.0298541162847677  0.4227960248343838  0.4396099394697872
  0.5831735450458625  0.8899913251561796  0.4007458701215992
  0.8376862533626188  0.9564275070879258  0.5753541715317666
  0.5147816273610860  0.1070625002042982  0.3293637524689073
  0.9452093278046972  0.8227448349897494  0.8998121103353524
  0.1916433037477311  0.9525753806492068  0.4921556867977709
  0.0384282935151805  0.2229445249748057  0.4594793714198385
  0.3280923317475234  0.9931821778902016  0.3379666859138049
  0.4917666164190857  0.1391378691725190  0.0393006288501707
  0.3377839010963423  0.9645232229290684  0.5428547903027480
  0.2817771267744424  0.8570520379773547  0.4936851693767207
  0.8913860792247730  0.0340389179747430  0.4766316975713739
  0.3755641541508717  0.1362532224605902  0.9869257355004504
  0.8097758048437930  0.0348717619806866  0.9560010017164220
  0.4185475041477763  0.5527514870284723  0.8042360071765162
  0.1922695467772046  0.8841233799995765  0.5221650144589636
  0.3951801353152539  0.0263057397767786  0.3485253786590996
  0.4842166938423593  0.0958420048063629  0.8834625360631776
  0.4447656107911621  0.1861387031036731  0.4190800819981874
  0.6927807126170672  0.1677632167648716  0.4704903597217529
  0.0736954375297001  0.8409637901044154  0.5721395176786481
  0.1722295638918321  0.9443257401007149  0.5888647262768339
  0.3979348236117472  0.5779133219426598  0.6799914970915406
  0.1068960940896536  0.9869039108920095  0.5086821599412943
  0.1975466466597994  0.8282084378493620  0.4741140516508761
  0.7465457592760238  0.9232174904927439  0.2948847604633980
  0.3683424634246187  0.9403174046298352  0.1183959157711981
  0.8028704129173206  0.1128061212261641  0.0432835601313593
  0.4333855069982347  0.7114828874775242  0.0122642529396778
  0.4077826996258254  0.2206883893687429  0.9790049676464431
  0.2675493313597965  0.9331927593956079  0.4858087384297007
  0.5796966602814579  0.2431390520765113  0.0229098126885382
  0.8611887589094648  0.0821399400853191  0.0747345121899660
  0.9494616211303106  0.0868447766435650  0.0392621896169108
  0.4982257526845728  0.1916500018773029  0.9765668191764886
  0.3138004130168333  0.7259711626336087  0.9891315564241032
  0.3916580413807516  0.3372675925912861  0.4186179411848921
  0.0677276446089767  0.3818149637851368  0.0910596208434386
  0.1855065025494725  0.3297428699193539  0.0332148811154929
  0.4633897782603532  0.3825030439341530  0.0588578383637479
  0.6709812850004692  0.8613613580076436  0.5401114738675510
  0.1455436457772968  0.2382754890975777  0.4385337914012299
  0.9375985936935363  0.3002367580140480  0.4918572739628616
  0.8767533625718225  0.0027949652318801  0.9763624098800266
  0.0547242707636866  0.0673664144070951  0.5327142061393019
  0.2695687359328066  0.9241176000016134  0.5690596197715215
  0.5486329887301512  0.1665317544282125  0.8465480899593043
  0.4215543544451734  0.6757657771481480  0.8343171570347686
  0.5654186625033403  0.1554218277832860  0.9152914330858741
  0.9577697867263034  0.8742844367185083  0.6419259604567413
  0.7715035423025083  0.9953525553174060  0.2702038965732285
  0.5299208073879174  0.2301637019426586  0.8908120068085530
  0.0635439592979378  0.7259646837316243  0.5236232711949617
  0.1916309393056305  0.4170556359050133  0.0335645991255679
  0.1567175926969890  0.4360328490312204  0.2301716569913126
  0.0640380643938642  0.8610289929360956  0.4969469711436975
  0.7342914694316159  0.0726581953712507  0.0133506948011682
  0.4203575784631196  0.1615865647370419  0.9249342169650112
  0.4484393268704008  0.0280602684494027  0.2684351885193257
  0.5461699894452280  0.6967646119505762  0.1098002372021027
  0.8953340447265442  0.1722138387739851  0.5490695092491333
  0.3367365339728033  0.7863583627958038  0.0246018278865778
  0.5761564698112158  0.0333328709515988  0.3603860226866623
  0.8026854590241976  0.9227694651420479  0.5065057581047854
  0.4304640240274522  0.0152995128745173  0.9120463914532060
  0.7886836355609307  0.7787903846717986  0.1409893376530772
  0.6987194431082490  0.8488134399436240  0.4947924014708961
  0.8436052950128400  0.7459501009749878  0.3987024931912744
  0.7825962393412551  0.6871702004376190  0.2810191011213967
  0.4821809221630773  0.8751770785702840  0.8033090407325743
  0.3559564941286703  0.0327436345720322  0.8264270420304950
  0.8444328367044839  0.7949796755119558  0.2129939640185666
  0.4930313955362307  0.8623324424913790  0.8662022994441845
  0.1938606459729619  0.7653910016644361  0.8956728904970029
  0.2701744785068851  0.8429584182720741  0.0066679163931245
  0.4448649039066022  0.8879368907699836  0.0714384757691555
  0.4309879802812104  0.8383998516361439  0.7384490599312252
  0.4912411083953448  0.8318705379042027  0.7587714607496895
  0.7928234796118285  0.8099888501993183  0.2470969562236259
  0.3073590089734136  0.7957670783059055  0.9862132996915802
  0.5321204598455550  0.9111722142582279  0.8694452124163515
  0.3389367465630262  0.9318733693508503  0.0804291279559459
  0.2736096675658309  0.8637344582860097  0.9071307138532749
  0.3512547507480677  0.9650123437982205  0.9116522007307621
  0.2994186727559098  0.7040333144526992  0.6656699208789377
  0.0249324634649254  0.6002163728582666  0.7160079986357930
  0.1539766965023954  0.5321735537257403  0.5105803881575490
  0.2094618156846219  0.8112511477935817  0.0017953690796366
  0.4644352470774405  0.7861234904523299  0.0284180004145587
  0.8544659149104017  0.7225660487364003  0.4679072296796646
  0.8582999819085515  0.8346580313018774  0.4956864510695405
  0.0911659660264419  0.6885419381763518  0.5588250109319917
  0.1019725723470762  0.7142151782182099  0.4918184628597039
  0.5229344635191112  0.8135865699818695  0.0433773091142082
  0.3941466764647514  0.8993253493414947  0.1074394036681946
  0.2658025070729587  0.5690261359709442  0.8023547457917229
  0.3142021546690662  0.5755322651233190  0.7622660471227845
  0.2907415918579387  0.9407917046585397  0.7854357988663043
  0.3009438909151891  0.9274309162270470  0.8476182483832901
  0.2884348038368704  0.5332695357535252  0.7228945720473268
  0.4183053363977777  0.8012622410084381  0.0673354909650395
  0.5616152629291403  0.7973409072224652  0.0040750964362758
  0.5180222791524124  0.7371173690955203  0.1186677920940938
  0.6720902030270154  0.6791573262110558  0.9555650197480092
  0.1385951754089056  0.4541453876581152  0.6285382846828091
  0.9770010661290194  0.4716823936124581  0.0728325641781624
  0.9974646182651842  0.5585406402210522  0.6786958152951165
  0.9243745817512377  0.4896764840627694  0.3327336522249710
  0.9186505614598869  0.4283461393563203  0.3495780899268668
  0.3819749127653052  0.7667754135649895  0.5735727484340372
  0.0968315210532452  0.5711065766233762  0.5983484387734787
  0.9821321382066776  0.5515095604519133  0.2203700858145096
  0.6036116704532480  0.8610967341370265  0.8433718127288665
  0.6768685824881618  0.0723367668251260  0.8127935962735093
  0.9487836025700888  0.2848037507422428  0.9807552202975113
  0.9257167675270060  0.1931299688201239  0.9267337815061253
  0.6181107176124335  0.0388650949171810  0.0871999375856073
  0.8241879249607095  0.0809155311353292  0.9726265731762671
  0.0138391833679297  0.9336088555921246  0.2935812714045565
  0.7868494684120988  0.0705113944353255  0.7913897379169671
  0.1101221512240950  0.8444057380661536  0.2364527270287493
  0.6496875809669213  0.9996351079791086  0.6665918529520113
  0.7761954945010386  0.0831067867146250  0.7316561357794700
  0.7082796843021951  0.9614918744366071  0.5805841219525218
  0.0468437607668129  0.6893062948291921  0.2580757279171272
  0.2044415006377574  0.6904828540173668  0.1963945557356060
  0.9864873320800149  0.1851345596252117  0.9518787155447780
  0.6987084649698662  0.9023482142249596  0.5370398672533396
  0.5359513882442656  0.9365466665823569  0.9751875244613664
  0.2146841601151488  0.6349683363455412  0.5015349788877056
  0.8671517737355388  0.4437600065593070  0.3826309386887674
  0.8758760233639622  0.5487671075142506  0.4114768545897586
  0.8465450420343229  0.8243823949508430  0.3209205839630678
  0.1188237096751200  0.5417180513414074  0.7207005226103350
  0.4162570263520817  0.1803718849844299  0.3785795622675166
  0.9917391387612313  0.6772198352305869  0.1857034376672638
  0.0647012571669701  0.6205765669614820  0.6161369702806402
  0.4115839252317627  0.7291388412224649  0.7504291530557443
  0.2059793432429432  0.5674566938978574  0.5808969594284763
  0.7326649587757910  0.7669469829197567  0.0645200326402300
  0.9976089114343093  0.4791999554997043  0.5274820564417216
  0.5489289290226073  0.9872903793356373  0.7480048814454793
  0.0796318346556521  0.5226332123329002  0.8219995400068946
  0.1307970502761471  0.7434410523604769  0.7675725485981932
  0.4993057160352105  0.9514967710808560  0.6830303468402219
  0.5168755418500430  0.4877171071451860  0.6390999206530458
  0.3042166370753351  0.7623114231303180  0.8779011156765990
  0.8372636956457699  0.6881527086857865  0.4117957303252530
  0.6030535629505506  0.8897464334982762  0.9496704414080144
  0.3547411757587803  0.9684575883233206  0.9680178937230668
  0.4632314451285458  0.7683498740268441  0.8162906587330462
  0.3909749564750949  0.7553523603517320  0.6309999173413886
  0.4235121431619417  0.7198133396405754  0.8113903224726321
  0.3740388591057635  0.6791092623537465  0.7456062142093414
  0.5713565389828387  0.0880347322350279  0.2299705679890357
  0.7916272837698548  0.7078919202435947  0.4477084954580841
  0.6844720016497936  0.6825170574060375  0.4776492475988188
  0.4013353153087537  0.7441532023326674  0.6918414474557358
  0.8265325352174464  0.5782262595479235  0.3847618580344639
  0.6042050257676309  0.4418851734405004  0.4069300863680390
  0.2116284443051005  0.6682243396793704  0.6066503830177490
  0.1361698012755575  0.0364497964068536  0.8663245756055740
  0.0293148788466365  0.0719711733163932  0.4262660554185002
  0.0530460419189799  0.7777513367775974  0.5311495495849810
  0.0583329558420282  0.9368876732723286  0.5926887888681220
  0.0598216916264284  0.7635797795647534  0.6836654631574565
  0.3408352984014538  0.3093440977302147  0.9974174561792555
  0.2273898297774670  0.3187670491992916  0.0017959185698307
  0.0738066867618888  0.8817968011595646  0.6069722763099792
  0.3347247471215503  0.2857156616909839  0.8842132952764621
  0.2359624309001735  0.2414977899529067  0.8553760471747955
  0.8549161466507000  0.2135725652134574  0.8465905400900350
  0.3771423191109256  0.9503151427103521  0.2405006592693811
  0.1033057087772442  0.2387057328001477  0.6476575988490353
  0.2255633286999632  0.2558705416134039  0.7963061572808521
  0.0044262808990414  0.8427073938405457  0.4336042575426766
  0.4965913810487594  0.0119947378113751  0.2601076112972440
  0.0020371974089102  0.2288345069583933  0.2826702507032805
  0.9573647571326608  0.3049855715977736  0.2979972563416854
  0.9054265397104216  0.8840065305661780  0.4404521767009525
  0.9555327298045363  0.8686385503498211  0.4080813898892480
  0.0690960214502871  0.0878011758915834  0.8858060078507435
  0.1175800708795345  0.0938492087160372  0.8467053079320918
  0.5446535835061586  0.0132101786991835  0.3933364599382897
  0.0595986835308968  0.7353401724455766  0.5767857202440864
  0.0083381202739452  0.7296645432857838  0.6159935019391127
  0.7275194628238441  0.6262238929166328  0.3946301476881807
  0.8324243038295578  0.6413055341248595  0.3678788531913120
  0.7774628947030843  0.6101828828427098  0.3602345279718734
  0.5103375115830296  0.9391537789016428  0.7448045815152761
  0.9871305035807887  0.5958300648993117  0.2629265107112939
  0.8730442416707757  0.5193753366605215  0.3054969009186051
  0.1594885456395980  0.7016668186958696  0.9517769446764671
  0.2225373632163818  0.6969365079291250  0.9761769126572363
  0.5085871625604401  0.9081183700167934  0.6379406362003952
  0.8643680248170524  0.4111917122135688  0.2793906599894106
  0.9163643525556699  0.3955170935262398  0.2470171195142074
  0.8957800264532468  0.7647276356855676  0.2385658166130021
  0.9683377380829943  0.3810839879451861  0.2140347341361618
  0.1462371523816313  0.1557568389895226  0.7868183596195178
  0.5348818413537040  0.8721164521895906  0.2561335373323429
  0.1446956161607388  0.1263506100550036  0.6795576514573872
  0.9549821788784215  0.2740747407035890  0.1931653075118458
  0.7156783627599018  0.0245618361307537  0.0036883324287843
  0.6333569386941525  0.9556089587284243  0.8948496518690603
  0.7322270684417805  0.6861228978718092  0.3782359086457411
  0.4060253465163965  0.9429747477804575  0.9902281851503406
  0.3343947639624679  0.6625610199571073  0.8494702193488538
  0.0952010393449000  0.5785424075639970  0.7999983131205780
  0.7736723621435435  0.5806434604106886  0.2523404307254027
  0.9328131450589133  0.5976633103671694  0.1318570097694361
  0.9684660075965704  0.8381525703283288  0.4803622057367223
  0.8845883342943826  0.6272475565609049  0.1056561051328906
  0.1806633213793322  0.7488545305812334  0.7282341257586388
  0.8305255296079023  0.6216215522917317  0.4248661098246377
  0.3241478007546640  0.7045873233488951  0.8942006525119081
  0.2923769239569625  0.6333621133231193  0.7486231506497186
  0.9268916036691386  0.5646474135140946  0.4843480040039003
  0.1251791525452876  0.6428474748296980  0.7442820229592592
  0.7817953577029561  0.6721411412915399  0.1131902093369871
  0.2434017796577358  0.5970136203692296  0.6804353258488748
  0.1869710909577156  0.9946462134805566  0.5151112033783923
  0.7271182023332508  0.7815966400013572  0.0030930570470122
  0.1069783661618402  0.1068071493750350  0.7822446320781408
  0.9107286621476146  0.3494588391880083  0.2057370365719823
  0.8402731791112025  0.7637207983038262  0.1051847535043797
  0.0763273669931642  0.1775009627614766  0.7017430078227814
  0.1487791210880910  0.8199575458722379  0.6489542645102007
  0.9461188802490621  0.1652436137682155  0.1680502064180871
  0.0051201414912276  0.2437427302736784  0.2205361754015032
  0.4426486327455611  0.8567571539905033  0.9063067139602143
  0.9806896886669075  0.0205493846066827  0.7196428967249756
  0.9339905171582804  0.5703173714970307  0.0268475036978189
  0.0681470716354621  0.0572132054889059  0.7787848604576145
  0.7528807085371694  0.9631669391119030  0.4202560318417290
  0.8031835184042008  0.3339833546915705  0.2292388818293232
  0.8825218068641760  0.2746988498478707  0.7924888283708496
  0.8302798966053507  0.9831723936938798  0.9513905708180709
  0.2981825514482370  0.5663463268989277  0.0366941878713203
  0.6870888344612770  0.4466991114767560  0.5352659467055843
  0.7691883986675613  0.5487648710584194  0.5450792640883302
  0.6176059743981888  0.3402852727454798  0.5172592373607395
  0.9805410664688330  0.7256986128311880  0.8848057882098308
  0.9911414282096505  0.6809328458676001  0.8391240775514588
  0.4700107592468017  0.6730086439889574  0.4583048125185984
  0.5130091921693758  0.5947188329302211  0.4507376053055481
  0.5084172402374002  0.5506766775088578  0.4003287685379576
  0.5093600899388472  0.5379507356664508  0.4594540376416771
  0.8553567192339919  0.6111891035816635  0.7100306258304937
  0.9173072418355960  0.9915428807434337  0.4703452766871709
  0.3756774043871792  0.7076512972042860  0.8523498397311251
  0.2017979154291530  0.9867581512430113  0.5722678456010064
  0.1369055156375458  0.2317456117509102  0.9352563222958457
  0.7702949130826584  0.5338733466637351  0.2088858320823331
  0.8665601791486944  0.4248568722593845  0.2187943532908869
  0.1371244598170294  0.9488210179347047  0.5008078104086666
  0.9030546853113762  0.2886635288337766  0.2256734294244110
  0.0361221414271448  0.1583703344657573  0.8046727110699541
  0.1834733967194059  0.9328340434055969  0.5408655023444036
  0.7776186478464215  0.5626489428526674  0.7109910945395408
  0.8363845073535615  0.7032282078424354  0.1223773511665860
  0.8343647411820302  0.1221877417683634  0.0844011050989215
  0.6352084912955532  0.2621275747296951  0.3722463514531210
  0.9211351318996536  0.7037149372431680  0.7550451519994487
  0.6828996845089771  0.1867433815737249  0.3554258430935994
  0.8989517146808982  0.7326643023402615  0.6311787245219591
  0.9701673699715326  0.7091576121177309  0.7163560654442539
  0.8253996478888336  0.0636404047200681  0.3383176021391711
  0.6979989532121451  0.4327930513621866  0.5964085009349457
  0.7613031891168225  0.0604470714648929  0.5035396694615720
  0.7599634544596777  0.4259462138898386  0.6175242348020548
  0.4818848197268825  0.3727566826707671  0.4627186149387922
  0.9499930187430263  0.3881997023773434  0.7423420299525660
  0.0214902782305071  0.3354360043404961  0.7165645984806729
  0.9105428924339045  0.3388418740447364  0.7363051110856520
  0.5597941619712274  0.0259057227411180  0.0097125386412884
  0.9327057984093776  0.2491332769537495  0.6457965735289671
  0.8609333780383907  0.3016085578399174  0.6698299558369729
  0.8933603806898800  0.1994670803340449  0.6411166480264614
  0.9976459791919245  0.7546786316499389  0.1106183399275945
  0.8583795328869586  0.2682608772080217  0.5656705556058040
  0.7500846792154056  0.2435057161212157  0.5349864277574656
  0.9794529483398510  0.4812942316892225  0.7927787702184240
  0.0457703573609214  0.7235953294649756  0.1371553405903657
  0.9007132431539575  0.3208572574129201  0.5671782205988242
  0.1486905781699609  0.6758727520767103  0.1263616267468919
  0.3006986808224294  0.8336306942668854  0.5329093332169370
  0.8822295839708680  0.3785804167938976  0.5510937901921974
  0.8857739336816223  0.1287694656256458  0.4507982640192070
  0.5771088512857192  0.1636226509889653  0.1521692835303809
  0.9393010403766743  0.4316100782759987  0.7873644455559670
  0.7702836534097579  0.4407098231523362  0.7842546260357066
  0.7268623101564682  0.1093951458629984  0.3436395838670472
  0.8510515773175907  0.7257768286867378  0.6712060362945954
  0.2732289358989586  0.8870881674609170  0.4551595426451611
  0.7400884866022830  0.2655641821121803  0.4097998282272834
  0.7910744121501581  0.2332591404224006  0.4374918286116262
  0.7899680980938705  0.3850039701631676  0.8005518321144465
  0.7367291912143810  0.2169535783363304  0.3655621269254584
  0.7310358294309260  0.3621574190701880  0.6719881487560476
  0.6704755266722142  0.3696619746937462  0.6495006903871703
  0.7061389150728142  0.3920062308134319  0.5462629350690797
  0.6806463006335998  0.3256920437921768  0.6053172083775329
  0.9929164763924703  0.6190745250825237  0.9788460760800515
  0.9255342613029887  0.0573282877074310  0.4498912247696804
  0.9452151433755802  0.5590347051490203  0.9173464222901505
  0.3282320111626775  0.8535481490154585  0.4761445405563828
  0.9860121802926802  0.5827835446090279  0.8156982199728769
  0.8403175459292662  0.3337332805887233  0.5481033184735772
  0.3646082705188500  0.6867358270489468  0.3648140915455254
  0.8902315498472453  0.4559747060254811  0.9354879123311823
  0.5310745137544897  0.2422433118155209  0.1699365193411853
  0.5416606864086764  0.2350305372284112  0.5725320980191331
  0.5832194308958539  0.1497188592492143  0.7110262130457896
  0.6885986180661110  0.2807970979979786  0.4435483180596008
  0.6924011514357893  0.3419623203631972  0.4264253781169195
  0.8678528969994144  0.5124946631897898  0.9164800782950228
  0.9297119785263320  0.5035251472542153  0.9365370249063508
  0.0301653594973148  0.6914895033345138  0.5403382662288168
  0.2214090276230487  0.9108893173355662  0.4897517335111179
  0.2708239880843132  0.8171602551632509  0.4660157328497330
  0.7744151035131038  0.6479734231807045  0.5621785768432774
  0.8479585657898063  0.5107792985471432  0.6879392903610793
  0.8970975959238688  0.5473919196541345  0.7560676506742280
  0.9398393331327558  0.7589114995939763  0.5334652366796157
  0.8493510279159822  0.5407084309202048  0.7941418681996308
  0.8480650872467186  0.2547191545696192  0.5071073460821539
  0.0503486209920418  0.4289197861789122  0.7686260361719264
  0.7405849141561999  0.3477213373982215  0.7331076884550083
  0.5811204628286076  0.3141709965741011  0.6823482229411661
  0.8047021547413706  0.1573217138433246  0.5269929903566679
  0.5902908296350348  0.2710385397858329  0.6376281047460649
  0.9158645621514816  0.0405595406089831  0.5202885402674128
  0.2668058811579921  0.7948821868361866  0.3577268247738780
  0.6233851080381492  0.1986597565576943  0.7164229890226453
  0.5586771092551710  0.5042437804053981  0.5399229303656644
  0.9405199978706265  0.6578745060040675  0.5134008462617730
  0.9438892060285634  0.6551080096065078  0.9456070218295294
  0.7026198987257056  0.2992765172146001  0.7297594476735323
  0.0112835216710331  0.4104593965078946  0.8697353662517149
  0.7068600964309559  0.1423562395605311  0.5174179278675514
  0.5060354565357122  0.9636511553388433  0.1252097367568851
  0.8799625748194526  0.4391252614488050  0.7661689357879516
  0.1130407678804761  0.8727054327041459  0.3445561251396208
  0.9181578633976246  0.4579387912108971  0.6649628422557391
  0.8189016574457534  0.4180225837791655  0.6384061994428066
  0.9395576938838242  0.4010185897976563  0.6817914066104174
  0.7706335985125672  0.3832084321027808  0.5623006936674858
  0.1613791723544349  0.8121506163470840  0.2622970283569779
  0.3083994749477685  0.6724745890335582  0.2931865115365579
  0.0579595026559455  0.5495662986412420  0.6989279939201622
  0.3001675188569122  0.5823210761640314  0.2033576164207672
  0.8592939493505456  0.4399534024372879  0.5385069515856317
  0.9642774056775495  0.6086751445866818  0.6930793597034387
  0.9867322983891539  0.5720738385765923  0.6168359353031019
  0.3865439789083431  0.3660041028067540  0.1902132436484310
  0.9200886491888870  0.5984404596030845  0.5297395341460408
  0.4360374485553672  0.3353506868903849  0.2199926723801448
  0.6075965165339253  0.4843523028975794  0.4535207856162442
  0.5914932438559366  0.3816781541953634  0.4287763276628619
  0.7989827850591729  0.0200136417207969  0.9090211971917856
  0.9688190542600070  0.4945467131109612  0.7333607200628383
  0.1187989417120251  0.9185812229700190  0.3915136892889053
  0.0088152355606985  0.5554330584862256  0.9363431638182135
  0.7783163279353906  0.0755804612344602  0.1392475089093380
  0.8442164873567972  0.2261887551164317  0.7867082635182934
  0.2429023909976917  0.5359402524657396  0.2571999856059922
  0.8045795204632893  0.1461224922709297  0.6757813519393725
  0.3424951888730104  0.4583572443494619  0.1465761986409592
  0.7554257789528810  0.1091400662357870  0.6080873345172018
  0.2863995080521265  0.4135569855267159  0.1970100467429176
  0.6562711469069655  0.0687038149288638  0.5801659992864528
  0.3908712694772732  0.3807720398062423  0.1261159991699583
  0.6108184904232891  0.0518323773924552  0.3288338562686822
  0.7280629339211709  0.1087859747056809  0.8776401443159199
  0.8671410096962079  0.1991078653104493  0.9083773536012246
  0.9929921104740322  0.3037780104988278  0.8811854429803787
  0.7493884597513721  0.0213108472689196  0.7878978220100172
  0.7603676844282399  0.0066652570921743  0.8504559372865337
  0.3855498320744786  0.3308994992432752  0.0864747808152253
  0.8286704530563798  0.0010350759359908  0.8572857662609988
  0.8112288271953533  0.2959709330811885  0.7091067944235172
  0.6300143891718811  0.1799960106382352  0.2236947842068754
  0.6250776056739162  0.1208381720612946  0.2413540936814931
  0.7512136961196847  0.2751065499150598  0.5827638302360724
  0.3328372878222627  0.3496395486211625  0.1164771315956266
  0.7521462393411584  0.0074388146546618  0.5845457092786024
  0.8058017870524316  0.1770233790117590  0.7818431349209780
  0.4241135982283947  0.2124304773450404  0.0276220488260267
  0.2389231639517360  0.4227661816525814  0.0037175412289754
  0.2624352908025109  0.3623385837618727  0.0264680410059748
  0.8096698504433456  0.2663435663631506  0.6038709746526904
  0.6564408730435225  0.1685569895596670  0.5060713067385263
  0.7283390815499833  0.1423281112359431  0.4460253022159434
  0.8420248825091742  0.1636975654531097  0.5762460680385334
  0.8093357254512940  0.0295344974335715  0.5333099082069620
  0.1889522772542007  0.4960220836793152  0.0786356980836034
  0.0389280054041476  0.6149756302043629  0.1072071024705446
  0.4775587320767037  0.2273906813507932  0.1003157267720198
  0.8882833921211372  0.5314784653908806  0.5896812788099342
  0.9541524654076530  0.1928339394647394  0.6606083456664283
  0.5270658532237786  0.1656974978183932  0.0167573468427526
  0.8442852022819457  0.1943174797868974  0.6810666246807823
  0.5123328858725151  0.0410404905042648  0.0462356595012952
  0.7700550423498523  0.2163804512737419  0.5998962543789890
  0.4697679335816045  0.1492480601340482  0.1778395442011849
  0.7324890892932290  0.1645589381034927  0.5936601034612197
  0.5240929528447109  0.1486231876354510  0.0813599581765437
  0.8365468210078778  0.1064322240510468  0.8583574925503944
  0.1651268058694971  0.5908212921916629  0.9874039698217949
  0.8757872103730581  0.0913508779436172  0.6543381427722048
  0.8772011159847209  0.1240724408685366  0.7586848087449967
  0.8906498963807060  0.3949960118162816  0.7204161275206752
  0.9562401419318065  0.4794743853744230  0.5649890617066762
  0.3478976225553605  0.4231213420186662  0.9820946412239627
  0.8490450823870846  0.8516146479052873  0.4320129640825665
  0.8602648883228485  0.0361186851677278  0.9388947988135924
  0.9969371957361859  0.1297390312456460  0.9657671701865447
  0.9357903843642383  0.1485246584812221  0.8845721959078943
  0.9954091827021746  0.1390553810416544  0.9066122947421663
  0.3672047445959269  0.1826112802655335  0.0153471011808921
  0.9319729118130177  0.3123930921854928  0.8597554188197608
  0.9590005310367981  0.0888050587329258  0.9090917234185304
  0.3610920702814676  0.1250008518399516  0.0359547022616195
  0.3596636811784605  0.0839427286252122  0.9870629774405150
  0.4126052395511158  0.0911029807082768  0.0610519477222450
  0.0028279372041315  0.8172228009905669  0.0944373377231012
  0.8519955350326186  0.0323778578982505  0.6976011069409443
  0.1048268617999359  0.7718530151452000  0.0859415532702133
  0.9665129403060375  0.2104638524184925  0.8278116155910056
  0.9761678689402540  0.1661379578314687  0.7837832242271893
  0.9280635914871662  0.1303000350616932  0.7193627920216684
  0.8899495680246738  0.9951579375769862  0.8690362752749776
  0.1064049472994188  0.1385831503511149  0.8867306192669928
  0.8688961391276800  0.4398825457774467  0.1584818591825627
  0.0019067696629154  0.7958796138391317  0.3843728249904080
  0.8712188291585806  0.9678788246941151  0.1522831096267696
  0.5929135113968795  0.9322325791392534  0.3732255385756414
  0.0486025932670731  0.1340569096328605  0.0989006553359282
  0.4003876626211869  0.6287901031885533  0.5233284586029857
  0.8919273966638417  0.7513224017784385  0.0693685457202793
  0.9433355984215054  0.1346089526809431  0.0616435490074160
  0.1919644825511372  0.9282531035715651  0.8695773403925542
  0.3155534895297143  0.5681801926327500  0.5601204647798216