B  Cr Ni
 1.0000000000000000
    38.6592778936156378    0.0000000000000000    0.0000000000000000
     0.0000000000000000   38.6592778936156378    0.0000000000000000
     0.0000000000000000    0.0000000000000000   38.6592778936156378
 B   Cr  Ni 
 106 1596 3725
Direct
  0.9386375190526033  0.2090409614355917  0.5530857577645899
  0.7555714975319328  0.0738280515827263  0.5066634881463699
  0.6055132310279022  0.1864264924285557  0.5567295417736547
  0.9579317124555785  0.6112065256925012  0.9221228972960385
  0.4580739931094152  0.7224716035648094  0.5070594972989000
  0.8399327520320654  0.6881570856649258  0.9744074234267770
  0.6228128282722890  0.8222829861067091  0.0225090200403060
  0.5885672154904712  0.2523946189784017  0.0257166925824113
  0.6238392299381259  0.0844398710845402  0.9718357739684406
  0.2264016518560153  0.1069848531817499  0.4391393506464558
  0.5780062145075444  0.4761017513911777  0.6591177033094848
  0.9458681399848013  0.9215517460062169  0.7423102358068230
  0.9036134263417874  0.5625164387086696  0.8608875235050326
  0.9652840356861475  0.7490950735946272  0.8369220673929573
  0.1136775214904562  0.9642801354474257  0.4805319399544389
  0.9633345625905031  0.4207829226427310  0.5376604065870025
  0.1823864744763302  0.4483174979537406  0.4842583581576209
  0.0721333750714621  0.7862757459264649  0.3968939435815801
  0.3023656549183295  0.0665164033181314  0.4279166287245506
  0.2570605409287845  0.0081043671381351  0.4586802218168168
  0.3171263195333850  0.1184463737397462  0.3543873811214100
  0.5693911393158825  0.8547955630855855  0.9418216368749965
  0.2149427283161802  0.0057050325034163  0.9271316207900691
  0.1239000487560428  0.7786063670539712  0.5305652401943153
  0.9300166331046175  0.7593633928369373  0.4277954636253759
  0.3567297752785688  0.3323631708184720  0.0408533322919689
  0.0453994064153138  0.9095145749255724  0.4654665308806193
  0.2249724935622653  0.1908446074887199  0.5218972954517342
  0.7524763809718819  0.6642926526149237  0.5113921982187853
  0.6999897087237843  0.3320275868087283  0.9806466763600180
  0.1182282859999509  0.1334631439958786  0.9360468888320530
  0.9422314468787952  0.6579289156317245  0.7934921671822990
  0.6940197941127366  0.0113134987623254  0.5060963220065915
  0.1622541147159957  0.6774258825901349  0.0662134922891291
  0.1939535852399237  0.4248684564548813  0.0283483375967831
  0.9606377729289494  0.7098885437595207  0.6113689243571059
  0.8727175033603571  0.6404097017418129  0.4883703253481405
  0.6081614711936232  0.1230171155508593  0.4540830907362630
  0.7637191302498475  0.4375826142762614  0.4005549819501413
  0.2765291162319890  0.4590380285694702  0.4589336152347084
  0.8314509699769392  0.3416307565597724  0.9667763898493129
  0.9043620998369214  0.7038373840967267  0.5451332360822002
  0.8978860127002399  0.1875391995264840  0.4780802857087865
  0.0299968211575417  0.9201838639521573  0.5445714116134233
  0.4408300268781461  0.1515984215407309  0.5109278108906881
  0.8407366437025977  0.7598473946703386  0.5039509661787342
  0.0541811192097069  0.6892456435458716  0.4981830433215288
  0.4251315222679203  0.2233301997891531  0.9754542728469865
  0.8799883815768507  0.0440810106221542  0.9359959386283191
  0.9636338371986436  0.5862003898887392  0.5057965932031020
  0.2092287222556028  0.9101515914475750  0.4726750394615362
  0.9028549481412724  0.6839273153553319  0.9271524761008212
  0.2162520993698626  0.0275161513952034  0.4579908839787734
  0.6578243116165040  0.4201090996927006  0.4243452707641853
  0.7731104137224926  0.8022509710859465  0.5317362972810126
  0.7595547650069128  0.0037237589050970  0.4564958742227157
  0.0844520184188184  0.0337100597877244  0.2138108092573538
  0.1984143575532761  0.9291944073752396  0.5716858182584812
  0.0140867296127272  0.7798777504269118  0.5306121488516564
  0.3600865818505832  0.4207111420454577  0.5001978115807306
  0.3833965307385925  0.2248485328109650  0.4895981824329142
  0.8746636775397401  0.6560493633609055  0.4290969343068421
  0.2502348912192248  0.0908991083424594  0.3418638484672952
  0.3578435074258768  0.7045199277887613  0.5179190204227619
  0.9835945582689127  0.6747542325512812  0.5460722057595551
  0.9786389247656199  0.6643552437347284  0.4030401982668745
  0.7776557956990908  0.5924446848405528  0.9792636483731975
  0.7220938687379200  0.1773220371885557  0.5383372219408437
  0.4640738606265987  0.9784785445919261  0.0101650280737840
  0.3873553017720519  0.0643435478173502  0.4822677050283212
  0.9903398702011932  0.6741135195086894  0.9746388985158785
  0.2720037923742144  0.9924969654635748  0.5541659687907190
  0.1115273479568890  0.8881099818884938  0.5494100880695564
  0.6313813073870201  0.7617396575734600  0.4773688168770679
  0.6625992407461280  0.3414646811166951  0.4919303644852203
  0.0696772690000431  0.6500772836028829  0.0696849932174685
  0.1227014293972009  0.8747513611600825  0.5090671337677123
  0.3581663960182336  0.6205982402057710  0.7746825555571615
  0.0595753211992237  0.0803693075341727  0.8944898454217441
  0.1030948284974569  0.0747043869077982  0.8873617048071002
  0.6614912240403397  0.2190826104244744  0.6202132045630044
  0.7210144761650298  0.6508688043731454  0.4834776117717888
  0.1100540831398620  0.4113489248127498  0.4703784442264223
  0.7791704515715279  0.4254798676900924  0.9686071140853626
  0.0492423172238692  0.7027698552924628  0.4160396608165333
  0.0727757593602370  0.6077034966621316  0.9589339733262957
  0.2749820888437891  0.3278254627882306  0.0622782362644816
  0.6918463322697549  0.0545419049848166  0.9292644629336263
  0.2005598460719280  0.0286544925926419  0.6138638345832022
  0.9994541986826007  0.7219512059735007  0.8283418634181113
  0.7953875913244725  0.4184864757759666  0.5308738701861334
  0.2346543841896396  0.9232217422798439  0.6032529547114275
  0.2208475614685547  0.9051603018849722  0.2585486972310351
  0.1360239812821737  0.0243244530625727  0.6642449532124576
  0.4787986599757083  0.9734977758905446  0.5126974408634137
  0.0452552069905232  0.2105719783280599  0.5300205370708303
  0.1635375388359772  0.9550310802341700  0.6897716677727289
  0.3776832924794857  0.0108308603785300  0.9415441753298227
  0.6976099312768252  0.1202132775314036  0.5917870729012532
  0.9416888062466925  0.0463955577543233  0.9832504138797892
  0.1369645396651267  0.0134790567959609  0.5556756153554426
  0.8638216639428826  0.0126232579914322  0.9642855646562406
  0.2145165754976319  0.0202998836239259  0.6957632458173948
  0.8675637083275238  0.6045458429371879  0.9485328515947065
  0.4076201149002682  0.0020827553319971  0.9744518024514689
  0.9908662223119158  0.8577148524104194  0.5147007943370480
  0.3010197444750238  0.2893092931717560  0.5904057495885303
  0.8328951266076963  0.7057952341734286  0.3497946498233856
  0.8160100893551373  0.4743266716183033  0.1299533934421679
  0.9435738992773237  0.7857993352343781  0.0832235734160975
  0.3599523703238189  0.0328543092686218  0.8269286781089312
  0.1545170884675220  0.3040789949179877  0.8182256696816436
  0.3946081009331480  0.5638289367711096  0.8040767441696468
  0.3515579628436101  0.9661144958983627  0.9132752906789229
  0.8794364817700349  0.6302581115737043  0.1062757763757167
  0.0256384109624515  0.1046113279499786  0.5277480560308881
  0.9549781609657580  0.3035309201687844  0.0629760942202451
  0.4662794172001142  0.5438217296401892  0.8859371456560167
  0.4377016888566191  0.9670896814433813  0.6043941554835065
  0.9299907495510494  0.0137359855664574  0.0923200070790154
  0.7946991676582187  0.8942197459369928  0.1760063619538893
  0.9008567968774372  0.8908131284068643  0.2091715589874114
  0.9199854957329646  0.9067599277959688  0.6934427962482103
  0.5865650198598177  0.6317740497143780  0.9482895193662381
  0.2313775564632521  0.3741838051077048  0.7216315725267619
  0.9476604689482759  0.2450970058554007  0.3131908113248439
  0.4088973311594695  0.0569803659596347  0.9565950471783768
  0.0260720497905611  0.1322324381625434  0.6359780189348081
  0.6531691547049190  0.4266615276637333  0.1465438293882244
  0.1441438072231097  0.5287535783678032  0.5101105523054493
  0.2863002898693287  0.8586236228107832  0.0290262217812845
  0.9389319357900309  0.1062708119938139  0.1824718458062885
  0.5904405597717928  0.5985866329791779  0.8438701981469543
  0.7928823489260074  0.2436071884476714  0.1448614811972406
  0.6794259493834891  0.8088285262122644  0.8267558428366534
  0.7939074468773488  0.2744681689163552  0.2495829713913653
  0.7519366971852929  0.3676821941770955  0.2042060136044927
  0.8183145405270237  0.8629330617595946  0.9819006303079283
  0.4366765032268790  0.5190089729626182  0.4965372010504298
  0.6543804157092177  0.4585599385386798  0.2517767245450664
  0.4862263518866678  0.5560652783986487  0.5590800088997356
  0.4027574408608282  0.6190089857969323  0.5174581445766744
  0.2344674095490524  0.5261351190409015  0.7545364820293196
  0.4726224788487183  0.8309534998584370  0.0787869148942643
  0.5198716222488023  0.7524932129454527  0.0633078800371067
  0.5175581300232069  0.6896186614343484  0.0798268476112729
  0.6182189031530962  0.6426820422545551  0.0686995350752672
  0.1376117645003953  0.4502970701866852  0.6223871233198682
  0.9740054500397800  0.4742334320599095  0.0711955854181926
  0.0050584812370372  0.5081943849183441  0.6312843668483028
  0.9208371742740704  0.4920650481146769  0.3304701547035512
  0.3302096008297540  0.6593106774179334  0.5923892289997134
  0.3517059885301836  0.6354416749883848  0.7179396133892325
  0.4159086918090239  0.1813858488957604  0.3772358404740836
  0.6577660493764402  0.9873020333767420  0.2471369869051239
  0.5973514258273780  0.8735242037034018  0.7894285277874373
  0.6879292077924994  0.0285848215226720  0.7705644061756713
  0.8842683560526146  0.1846599829479766  0.9655471364115115
  0.9206113436316923  0.0816400442286798  0.9482896351395851
  0.6173046684202086  0.0444745470102676  0.0866513332700067
  0.8366026240746897  0.1432663936807137  0.9604249451883050
  0.9556655444872749  0.9050913866292117  0.2778947433222699
  0.7883844964470305  0.0699591378829396  0.7950475102179795
  0.1078469756429866  0.8447064885442531  0.2364125159776458
  0.7671554744903260  0.0971738793419334  0.6688643243725814
  0.7229667329039059  0.0466899895934509  0.6665759075865416
  0.6441944563918344  0.0128441415850863  0.6022776536872976
  0.0982594243001110  0.7370042318108354  0.2087615898875166
  0.1990767443645904  0.6907685109810399  0.2009098876826282
  0.9696196890684262  0.2433907149671150  0.9264449908007939
  0.6940847284541963  0.9146696968044610  0.4761518921176748
  0.5440760460313532  0.9419979883528292  0.9822588604209813
  0.2150513367468875  0.6766805593869381  0.5548759747389247
  0.8177097053915116  0.5017909190182761  0.4620964946848525
  0.9258931422287789  0.5234380695849241  0.4375478797571467
  0.6103395732503398  0.5510231053042289  0.2078313544028805
  0.0042934782728233  0.5411503524492798  0.7347414803672189
  0.1015371232549483  0.5851279663673595  0.7561622613033365
  0.8355211896987296  0.7309198179892372  0.4569436178846612
  0.4352993431726605  0.7171375552616580  0.8232735117072266
  0.7744121414431030  0.6432266870297038  0.4648531280889198
  0.3742045399837113  0.6885550894540459  0.6970942812328402
  0.0669707749404853  0.6562546709431093  0.6768033170299530
  0.8727469437068829  0.5536061698311822  0.4078966332270627
  0.9258427606095370  0.5369140113894157  0.1483957907491416
  0.9817050738288848  0.5982660334661800  0.2657452672082944
  0.3746472676521946  0.7221760726199092  0.8020088445964676
  0.2495866562140312  0.5725790085657573  0.5335022803159654
  0.8717288176093119  0.7759722507127252  0.9552248928191249
  0.9745164971997388  0.4839038577024413  0.4671569594970195
  0.5538866584965084  0.9872325839757856  0.7514580192920733
  0.1480966441438927  0.4681337051260908  0.7920878896617248
  0.1912430115210343  0.7445311075613810  0.7357806095738854
  0.4952798132125069  0.9938757476881794  0.7302939128531195
  0.4685766963257931  0.4469794771556058  0.5724307789380937
  0.2024595489027803  0.7312015044903113  0.7975694365283157
  0.8883023733385474  0.7171484213727700  0.4221790683953243
  0.6584920699798659  0.8762610152067427  0.9795113714329022
  0.3620892835645132  0.9641052231711128  0.9723358845471421
  0.4718061285967096  0.7679732129587103  0.8264607746537037
  0.3423014868606082  0.7594653170313671  0.6191226751935776
  0.3627887233748900  0.7343642134287797  0.7422498413002222
  0.7868963536647831  0.7846267395778211  0.1442102405362901
  0.7658444189460417  0.5215748716131051  0.2687223625744966
  0.0753450795192740  0.0450648220596984  0.8493639129789358
  0.0236197708943575  0.0486591448272603  0.5469352218545334
  0.0195657653200380  0.9241488129317376  0.6017453642923475
  0.0500683672312215  0.8170194202763662  0.6722126918126118
 -0.0000373378749854  0.8272809097298411  0.5606751391682812
  0.3571765999479029  0.3054497593305062  0.9907174727020119
  0.2996370640900278  0.3855159719183255  0.9129388192491734
  0.1406416885257597  0.8765391477231442  0.6380918433422593
  0.2739284650990330  0.2918624503827109  0.8617233963061145
  0.2370831606045191  0.2411008751628961  0.8563802050903747
  0.8587976223038907  0.2121808305898202  0.8420769169159540
  0.4297653861016270  0.9201829448961653  0.2664198215632032
  0.1774667023355885  0.2474343385324778  0.8334373295754067
  0.2252972734087472  0.2540450034111359  0.7947448413727279
  0.9005885156965118  0.8757271754253592  0.2702582295335061
  0.4189759387871436  0.8138007189757781  0.2379845393609898
  0.9513174573333177  0.2607843692122516  0.2490561494188731
  0.9060181394064479  0.3365688708420013  0.2654237113768323
  0.8513490559839063  0.9206394975905868  0.4120021134907147
  0.9526234811605661  0.8746633518040026  0.4037179061164897
  0.0498951941292231  0.1094522775910785  0.9888524863840956
  0.6087574914561196  0.5347733999611248  0.2681759372141410
  0.4878482390417734  0.9637003916968661  0.4529587420632051
  0.1377477770540233  0.6351379164077910  0.7583433679417937
  0.6671620207970989  0.6116955501638220  0.3210292987406865
  0.7168802493013815  0.5810367411455580  0.3470724874342144
  0.8197093210149579  0.5518871924413243  0.2782058741118625
  0.7714621465435625  0.6135624391412496  0.3566820004945985
  0.5851648307660843  0.9188343578001075  0.8326792662467363
  0.0405059274152143  0.6750095308069713  0.3198894975634279
  0.8179876863166244  0.5365454003475446  0.3377838570162882
  0.1719065822060625  0.7016652792049720  0.9655464302638953
  0.2345824931277908  0.6956938831390256  0.9819094589880530
  0.4665382071010470  0.8991599098982670  0.6863699843373841
  0.8610054247150222  0.4129507038843277  0.2787877303718950
  0.9628475239019162  0.3679122018281396  0.2744073869084247
  0.9374527717366997  0.7075867679750346  0.3938773676262183
  0.9027644834352295  0.3225900486839615  0.3263414316646278
  0.1273018643733349  0.2092884832143911  0.7655802893724760
  0.5307162750927122  0.8737492634132081  0.2559064929503208
  0.1761332076920855  0.2152199514527520  0.7262384113316764
  0.9592748879320779  0.3374253755979168  0.1685589866888660
  0.5576559180687268  0.9694630524480007  0.0320813298110358
  0.5963265230637697  0.9070742227207514  0.8943031150652963
  0.7279548130501636  0.7058732445599946  0.3144710331555511
  0.4991992255002455  0.9366415125699392  0.0225724189103191
  0.4590380980378988  0.6596350366963784  0.8420691525664739
  0.9685832283482535  0.7639376353670223  0.6147792382816213
  0.5929115480726913  0.3969078556239855  0.3637873560104848
  0.9341197587587621  0.6451303738273410  0.1771436959562458
  0.6502133443906940  0.3955902110971762  0.5195051413937802
  0.8885069191326900  0.7390008615001898  0.1343675320230997
  0.1416936515543842  0.7073331878349829  0.6712813951928793
  0.0919295623217883  0.7428692890207261  0.4367999539865160
  0.3788817127626621  0.6009649117319398  0.8914239623593947
  0.3350570853338853  0.6730671525202678  0.7990001957268226
  0.9775102604183048  0.5584447352233947  0.4527609666550203
  0.0822296728109989  0.7451029141487029  0.7520275683935116
  0.8321150354554858  0.6918330074021176  0.1855567160493015
  0.2473392947490565  0.6355372571191629  0.7391443397563193
  0.1277421718053823  0.9290482182679166  0.5191489266635058
  0.7230350019877595  0.7861394211767629  0.0067950979646406
  0.0280403234702898  0.1649876869707519  0.7406534148842465
  0.8548216993387164  0.3352984451242795  0.1315964800364206
  0.7827403236670446  0.7635166477279071  0.0328737504530886
  0.0759109590759353  0.1701561746956716  0.7011501133364958
  0.1695147412915209  0.8019687572737351  0.7175413401110260
  0.9968027978880133  0.1525310514736660  0.1296432044539177
  0.9531512696738770  0.2752727235772818  0.1887457015106095
  0.5696783044558063  0.6561748693650860  0.8228717743985650
  0.1743137448852878  0.1814815551421819  0.6186265100927819
  0.6288217879873303  0.6486667518142588  0.8439063625891378
  0.5706739734671009  0.6231926000182407  0.7185302618659043
  0.5212951698971400  0.6173521078241467  0.7604557954488124
  0.7468284440901006  0.4329120679250250  0.5587174804663905
  0.9504262207706209  0.6934727268868318  0.8348166534132674
  0.9539334438632034  0.6658657519194148  0.8876850221387995
  0.4055606336424620  0.6414412419092297  0.4498339825448445
  0.4517247349241423  0.5658037619863781  0.4357007602250870
  0.5555031010553748  0.5351087991349991  0.3637204549936605
  0.4991626782296361  0.4862235401325138  0.4144119712820302
  0.9168375383857721  0.6076648614142022  0.7179633273247337
  0.9074757396266541  0.9510406273834918  0.4181620607413992
  0.3820139851754888  0.7123591705352690  0.8622495852635550
  0.2191791385979060  0.9723256413930593  0.4755136539167111
  0.1294219887796758  0.2426811574712905  0.8703256570018150
  0.8144787094221508  0.4591692146064508  0.1910685688187935
  0.8669147336837619  0.4746880383992587  0.2601543117711476
  0.0581728554675334  0.9466054537256353  0.5041816571827521
  0.9087766265142456  0.3519006846096294  0.2024538456434992
  0.0983637521187325  0.1471155998443444  0.8236947509733654
  0.0789213721782757  0.9285397742671700  0.5675959054806969
  0.8544584799817585  0.3521180746856438  0.2991792139724592
  0.9546510908488227  0.8611377649979930  0.4703478942558599
  0.7986005355750305  0.2206450434339030  0.8217473999658277
  0.9618390714337054  0.9915232013166466  0.8942471244985170
  0.2431345174604272  0.5672593521274550  0.1367729765686649
  0.7144390626872604  0.4844250052536851  0.4838146903202730
  0.8241778642853284  0.5675594338443043  0.6695419979079055
  0.8709188241589828  0.9666010369537281  0.1426080036495226
  0.6427976723703072  0.2730450294438154  0.6001417999122358
  0.9020672749235958  0.3485685313345618  0.6728147799044237
  0.9203421715475029  0.7251820023811324  0.6476619939740358
  0.6800238066305674  0.1826833297124429  0.3561218977568737
  0.8972430508425159  0.6301266688977055  0.5983732921812740
  0.9057083404739656  0.6187446498386424  0.6608380004657449
  0.8073234179688933  0.0155679771406287  0.3705140467426522
  0.6969419338486076  0.4314495589244938  0.5953591906334028
  0.7811091860337591  0.1359379288830043  0.3470471528417798
  0.7576875549489468  0.4223337301922414  0.6178667031273918
  0.4857942440804788  0.3604641672663358  0.4714625543946351
  0.9519652407257255  0.3843034583557859  0.7411301989329451
  0.9736857434177594  0.3270369508236823  0.7562429219089662
  0.8787361827850559  0.4388300188976997  0.7665122480448272
  0.5994158413229503  0.9765710433563514  0.1782330982030818
  0.9238731713764300  0.2914049777487347  0.6878887249595828
  0.8951923435989642  0.1951129247873969  0.6377277281740283
  0.8518398924918150  0.3122171008433152  0.6047026000495266
  0.9432903633126984  0.7689872973976195  0.1448097172025342
  0.8189202067749541  0.2169119021687288  0.5558006954082968
  0.7990611440379292  0.2194485155693333  0.4953672919232975
  0.9901842493110594  0.4332044025762263  0.7463844892517643
  0.8172137873730353  0.4812650276863567  0.8480377572493885
  0.0437888998376783  0.7230273904516245  0.1389265382507772
  0.1457691790277177  0.6775477592438154  0.1255415772254824
  0.2590638256395820  0.8199402670437781  0.4666929984223412
  0.9414076657334509  0.3650723384157518  0.5734221021301615
  0.8486739813817415  0.2616586897938486  0.5007514479029007
  0.5790121468452486  0.2122732757132470  0.1941670966346917
  0.8884460397199545  0.4250776382337665  0.8263274576106732
  0.7959442307921396  0.4723596694369354  0.6243160373524843
  0.7727140877879177  0.0436380269382397  0.2585897282028811
  0.0169783047727891  0.7792607625649979  0.8355105442870584
  0.2630308393170992  0.8857404792572596  0.4563886615648216
  0.7896677005386280  0.2444141162525216  0.3753844520300014
  0.7861611504620490  0.2310740681658183  0.4360301606612074
  0.7796492580628887  0.3975853568905487  0.7384234193007388
  0.7440655498881719  0.1872955477936292  0.4876493123173333
  0.7307794876773830  0.3617407950901133  0.6684247472787845
  0.5888510469538413  0.4345548405881183  0.6151751945285824
  0.7205720270980759  0.3757696069309671  0.6071402396143244
  0.6327764848553439  0.2859603974149550  0.5396347104463575
  0.9816086029805587  0.6145141237949432  0.9790757951703662
  0.9646808908550416  0.9973246829063702  0.3648549858562462
  0.9449232451207094  0.5800760826003530  0.8234711904662656
  0.3711351145129526  0.8418404701681337  0.4396750246267439
  0.8456751519310871  0.5435242569326636  0.7905117322123971
  0.8441706231881541  0.3211995520537789  0.5436112855709310
  0.6316888801326391  0.2603117370184841  0.3736067589683849
  0.3120688660211664  0.7488652550961995  0.4452659417623896
  0.5695874140934174  0.6873210630174137  0.9849967766020231
  0.5774677688245541  0.3244731131036787  0.4512178718057196
  0.6382052165327547  0.1542716673123009  0.6681888564965018
  0.6813677627885877  0.2733143376418936  0.4430971917365182
  0.6840655380046404  0.3332221171342081  0.4353829032031801
  0.8163201960795227  0.5778823916683389  0.9364283601706940
  0.9272097238277598  0.5051171997039496  0.9362484307170965
  0.9976784261334203  0.6689424760659591  0.5976739756266023
  0.2882763327441151  0.9815895712018792  0.5005342207496757
  0.2166691469156601  0.8766879761501840  0.3791731021238883
  0.7742999323122590  0.6460720608440819  0.5577061494198940
  0.8065313891877445  0.4593596107947868  0.6830855726785522
  0.9278262939378753  0.5964684184352784  0.7760512605928257
  0.9406991371707918  0.8378575791447402  0.5321744989209604
  0.8342177407050151  0.5553367408085523  0.7308980242001909
  0.8414673810933093  0.1995669347186849  0.4579474775816125
  0.0225019483205791  0.3637290358135516  0.8235996053932700
  0.7868661575762405  0.2335523395836263  0.7623456670607096
  0.6526853788190787  0.2610111425154545  0.6602971304968311
  0.8186993735685528  0.1088641687909133  0.4609420804864522
  0.5332057774930282  0.3072735611771346  0.7240087814374389
  0.8606230058049145  0.0731942848255895  0.4783432517013755
  0.6357814775583758  0.2592639782678451  0.1434694975780997
  0.8203541892811937  0.9836663634392403  0.1793796592709402
  0.5597477038820132  0.5659244239791430  0.4708965794488786
  0.0126060416018959  0.6257990924422532  0.5511711357271104
  0.8463880718425073  0.6778566890027423  0.9199577211046234
  0.7043532663619331  0.2994830642095762  0.7267269530499867
  0.0112002537070484  0.4069123668285445  0.8679434274263638
  0.7076251855990421  0.0989235177666890  0.4818992431360350
  0.5201462754987619  0.1178108756129135  0.2044908226386536
  0.9296623831116888  0.4428041818630995  0.7263166678080601
  0.1113564441985852  0.8757724755505909  0.3426343156043932
  0.8802028803635298  0.4048811345773121  0.6598521938610239
  0.7686497855571550  0.4084536887706389  0.6784474926844259
  0.9052974354217553  0.4676171258130882  0.6053619539891618
  0.7710441878355256  0.3777146611585691  0.5621501632937187
  0.2077576849047497  0.7841659807343423  0.2909998745474505
  0.1934504511790510  0.6285885417345299  0.2163741385226673
  0.9348500269703232  0.5636865847065526  0.6567556159614782
  0.2455417325902713  0.6141009410138654  0.1815071955633012
  0.8506734042999875  0.4348326071871155  0.5390657413419387
  0.9688800368567428  0.6104172753355394  0.6561629705160730
  0.8754269446750819  0.5360061369289753  0.5293347154637020
  0.3873520791917775  0.4144665002831607  0.2334042963526591
  0.0530639286668981  0.6330440466761875  0.5093743228109208
  0.4351226863563707  0.3525439934765892  0.1562345765698397
  0.7207520401365283  0.3494387243880641  0.4989721300756780
  0.1934872102817225  0.6419227860814321  0.9784966320361448
  0.8247937119385114  0.0392755559568954  0.9285010712003493
  0.0590150063106469  0.1297797472206937  0.9288239230113400
  0.7514480120971772  0.2733068588085821  0.5810491363305406
  0.0535876719159950  0.6108497684721115  0.8988852938400607
  0.7202002069632462  0.0310677785033545  0.1908525624816677
  0.8889076338364964  0.1090269769209162  0.8171150737561212
  0.1899019273562972  0.5686670724884308  0.2321429569548685
  0.8071330905657060  0.1457543485177099  0.6706067397963507
  0.3405994132580811  0.4613421974444058  0.1438411565837586
  0.7535728930370473  0.1078954376020231  0.6010710288071307
  0.2819329609388179  0.3826492415257062  0.0907425145640433
  0.6705364061269760  0.1009511730848020  0.5456650801251297
  0.3875433594598294  0.3839970095347779  0.1289728629566966
  0.5867540314920645  0.0255139794194468  0.5679995484184601
  0.7507123058255069  0.0530072889972642  0.8990685325629443
  0.9715832249679154  0.3916567709866318  0.9732401458880228
  0.0554872555238997  0.2930486064899703  0.9093831906384927
  0.7183863733645049  0.0902121562895791  0.7090862527057623
  0.7586166634056805  0.0085022818691852  0.8555639307599332
  0.4063222739349510  0.3343397129365089  0.0101786999261299
  0.8201648833618957  0.9819806836395696  0.9469503348339069
  0.7923947967383143  0.3525215624715921  0.6898764408588760
  0.6262577155113174  0.1351568736359182  0.1782668008846455
  0.8248787023388188  0.0888609558163731  0.6895882054774856
  0.6214841085972648  0.1063046038808360  0.3058974733539298
  0.3314296220875171  0.3537954448169209  0.1232475819556779
  0.7628775959057238  0.0544626480168683  0.6238854965604781
  0.7978113074413307  0.1895576145171167  0.7164753886408015
  0.3760052098969053  0.2743507723925120  0.1103119099478668
  0.1273526795469938  0.4286418931393866  0.1936183235009656
  0.2509391300590184  0.3600255987598024  0.0185538585723438
  0.9458079215708877  0.2317836027033870  0.7046009195077855
  0.6321502679161304  0.1767366365399733  0.4553950750727691
  0.7250345135963592  0.0889571695242732  0.4050103957247903
  0.8461301749488479  0.1927751799758217  0.6761913248939335
  0.8088341886961470  0.0151994179304174  0.5396398677121572
  0.1813863205482803  0.4301931242832909  0.0911456865624384
  0.1933918061733802  0.5991371925894557  0.1114044293968891
  0.5328026642493701  0.2892299539946337  0.2117145771897727
  0.9518253677604191  0.4710422175590439  0.5677409373764870
  0.8972502322982042  0.2287458997068496  0.7417476733054227
  0.4217788918784943  0.1959647375440239  0.0916188150526231
  0.8345447177792290  0.2059715540806580  0.6141884813739790
  0.5294793852611505  0.0633508775184796  0.9359271304234360
  0.7344531239081310  0.1632973163803530  0.5903294143649388
  0.5271682507194033  0.1965137511882201  0.1248859753039978
  0.7059953812760169  0.2153966865867462  0.5813336174579616
  0.5686046819255171  0.0749293296168382  0.0606040400473759
  0.8843190046621655  0.0556886266175798  0.9928677401716129
  0.0665577433036668  0.9540889052629486  0.3589569283763991
  0.1820507348086015  0.5842643177583464  0.0015579633379307
  0.9665330657611026  0.4907021320828682  0.7310724398939650
  0.9756086405005401  0.5048984048572472  0.1757619396139470
  0.9900096748921303  0.4729490463008193  0.5277386202498617
  0.2349727834034969  0.4712159235164355  0.0426323087500245
  0.8870568335582980  0.7537268976538073  0.4700332742194152
  0.8617577895766987  0.0463944425063550  0.8792894313525049
  0.9910324737323014  0.1920247929145610  0.9453812569196356
  0.9402431702257342  0.1471776025394862  0.8800929245136583
  0.0136926537877988  0.0918815799021709  0.8647334983162090
  0.4242976185507911  0.2721081274100502  0.0165221740769011
  0.9337640210853000  0.3082629574951740  0.8592669885024603
  0.9668470530310689  0.0873147421377649  0.9064413240408236
  0.4672590145211108  0.1198310029867003  0.0711310529023840
  0.3566671193859914  0.0187978973236234  0.9939323696910078
  0.4635054797711788  0.0755109329517943  0.0268953127341859
  0.9987038724661322  0.8152024895855651  0.0952327674093065
  0.7939053391620505  0.0269497086418651  0.7516233159353245
  0.9899841989932724  0.7089785693159486  0.0659286908822400
  0.0074026662511669  0.2562355939589495  0.8302184181390890
  0.9574544270403519  0.2196913272192463  0.7626392371164320
  0.9267292703498249  0.1243909207937866  0.7152559819826422
  0.9045287709444543  0.0036865772139225  0.7888431113564444
  0.9055011680427660  0.5003047081849654  0.7100472470184223
  0.8742942375522802  0.0898949750647054  0.6468294160527311
  0.9451324188628630  0.8139936378368775  0.4209133436871984
  0.2865093604592669  0.8556031626824357  0.9710521532974413
  0.9723017750091970  0.7155190246713903  0.6673413102390208
  0.9995357411868184  0.1986002181219317  0.1727763000647634
  0.3753453822713347  0.5545419690235304  0.5802229582886160
  0.9388299679777332  0.7234452363805475  0.1004734133937126
  0.8854589412437713  0.1061832212858996  0.0460520121511029
  0.2019281078587201  0.9154871871022933  0.9356292049715399
  0.1803999921766324  0.4444744064456696  0.2666688120335265