 C Cr Ni 
 1.0000000000000000
    21.1200000000000010    0.0000000000000000    0.0000000000000000
     0.0000000000000000   21.1200000000000010    0.0000000000000000
     0.0000000000000000    0.0000000000000000   21.1200000000000010
 C   Cr  Ni 
  17 259 605
Direct
  0.4065502019018758  0.8356265447567568  0.4966126247756593
  0.3320670514211783  0.3332564798741033  0.2457781729121551
  0.4977874176998184  0.9254631959886452  0.4968261475977739
  0.5110250915948878  0.3354405040427737  0.2457551538332065
  0.4216861875390399  0.3368745183997267  0.3419000174257276
  0.4168619030492497  0.4170848438076436  0.5889262679778281
  0.7503438310079605  0.0002521364833358  0.4982903704567634
  0.2417927361671858  0.3342009897810189  0.1542124449465164
  0.2419019486208874  0.4264177726944723  0.2462584735441913
  0.4058601507557140  0.7493371403118122  0.5894405617693099
  0.3324195117069677  0.2401772466989253  0.3390796768270410
  0.4978302121309906  0.6602224147556469  0.5850566716562673
  0.5901793584441191  0.7493135905914764  0.5885889643714065
  0.3260068833846473  0.4153232874236123  0.4995764016732957
  0.2389034465215942  0.3350410030991795  0.3408538652348170
  0.2399167669248520  0.2406359472818836  0.2467965458883481
  0.5892807267717194  0.8341473105446557  0.4956140885708090
  0.5873048125344527  0.6596852127695062  0.5856758624272996
  0.6699556104037934  0.5014221805694956  0.3339558557902469
  0.6605949297486221  0.0037723694726273  0.4982735812205680
  0.4129097152082732  0.7511061559083718  0.6801876864252047
  0.4991443314387051  0.3337985509291421  0.0003498319881783
  0.8329203924950614  0.5007908926205706  0.1657043625976053
  0.7493535028271178  0.2492962098956223  0.8333212336246311
  0.7495017447755695  0.4989100417660153  0.7525254003453742
  0.7524147041508301  0.6662770989179705  0.4160507496421381
  0.6658280140689031  0.0841190547669507  0.5861635875535929
  0.6690471294822582  0.5833528176216414  0.2486406296492188
  0.5856346434118682  0.5022285454052103  0.0805013244695093
  0.6672239857810777  0.4147534788623878  0.5851053099539408
  0.6662118642716206  0.3330480823336518  0.6683312314667168
  0.6666835748714613  0.6668075552786484  0.8351832218914835
  0.5980772037276174  0.3349295050963214  0.2482797167443401
  0.6674269359748276  0.0009997259412939  0.1664915255581921
  0.4975046086622303  0.3352228886219030  0.1566206348875790
  0.8338224530466410  0.3310448074286316  0.9991710914013940
  0.7507840924450465  0.1689601008207616  0.7518867763741712
  0.6671916720820544  0.1656409011282470  0.1660390533152468
  0.8330417302378033  0.0012438415371149  0.9989955421076653
  0.9974313342062986  0.9983752343575847  0.3320195576426198
  0.9146914203658681  0.1665611338252957  0.2496092924630743
  0.6672171261207752  0.2503700144262139  0.0817861492937294
  0.4216616664427598  0.2444887147238954  0.3350139840697404
  0.7499986302810476  0.2499851082071946  0.6669385405691954
  0.5838499949886231  0.7509047700789173  0.9998328081053155
  0.4156690807628535  0.1645148797559856  0.0810340667816568
  0.4164514239459124  0.5862972076528778  0.1647917786180390
  0.3309155528195117  0.8327571718963157  0.1644682080608882
  0.5850913403442238  0.7442617808444806  0.4973803892855194
  0.7491084426652942  0.4158606489453848  0.8323028498890126
  0.9158806728841170  0.9162361983457810  0.5012126746058082
  0.9147755784219611  0.6687621141367719  0.2481311576203711
  0.9956328555291174  0.5844644271174830  0.0826689285020687
  0.9145144516076966  0.5005743394846423  0.9161786691774071
  0.5818836467222305  0.1681852267405064  0.7523154721475760
  0.7521035717445412  0.4965886706451704  0.5856714169056613
  0.9987550824047871  0.7505818178485700  0.4180778338770720
  0.8351851242927579  0.5011785403049602  0.3326537224336006
  0.8324507508981842  0.7491996503260193  0.2485051075156241
  0.7486476161253810  0.6692101267024037  0.0820508663147706
  0.9164103613316732  0.5840539605150454  0.8341209854698801
  0.5015334186923831  0.5811640793922186  0.2501199344373197
  0.8324946574287588  0.6670949701785309  0.9993237730374409
  0.7497057037406593  0.5003025113484381  0.0824718838449486
  0.4980260759583995  0.7505603921344075  0.5851285843750763
  0.7522726400727294  0.6650778755341453  0.5841431876660031
  0.5841829881507455  0.8319750465321055  0.4056312105015937
  0.5868095556086780  0.9236638087056255  0.4988775488197090
  0.5829589758476776  0.8391803004936795  0.5870228931635828
  0.4979619534504389  0.8334675729740783  0.4977697361436056
  0.6677198628261514  0.9171457572513430  0.0839582409746399
  0.5009345286105464  0.5842833602847614  0.4152099919732083
  0.8346021508540896  0.0846410429387044  0.4148676455994516
  0.1623127233378069  0.5842624511527528  0.0814952294171991
  0.5843863935216074  0.7509071004546206  0.8345965267045218
  0.4140987243857104  0.6650039295371617  0.7531723131084535
  0.6671424606472766  0.5828108117653700  0.9167397078754133
  0.5843268520086179  0.7498580426607878  0.6775926400290903
  0.6672298670112413  0.7508527677925465  0.0826931646794875
  0.1635541642588385  0.5026081280587801  0.8351448014064891
  0.0814604253243246  0.9987048056649372  0.5839139462308925
  0.6648349876684977  0.4149112167804984  0.7500355558981431
  0.2423707815714123  0.4255184987591311  0.3362852428344898
  0.4159212968395026  0.4162703943558727  0.6780307406634764
  0.9954176024692681  0.5826353879166850  0.9168259063292409
  0.7507590547061371  0.0842077631939960  0.8333372869470995
  0.8335944239982358  0.3325286490957538  0.1674672541762092
  0.1627402615191935  0.2482821084118274  0.5864634015630080
  0.9986157170654947  0.4152384556468785  0.9163335895777462
  0.6658910921176023  0.3326608648434900  0.9984042710582965
  0.6689204122046338  0.5026947232203137  0.1638871629209918
  0.9962649318394098  0.7519560684130734  0.7506027259940108
  0.0824862651844191  0.9988164231942059  0.7509963564120573
  0.2472701952563809  0.0818547242102036  0.8346286851589606
  0.8331141352955782  0.2505668658758557  0.5835231849459006
  0.0800573174290098  0.5851054939088431  0.8347927736555144
  0.2444348637197589  0.5138032792981428  0.2477650313302156
  0.9144946227737061  0.5003803464770961  0.2487527291766969
  0.0807138816436276  0.9984700284220556  0.0818769385109124
  0.9975791118749620  0.1666721075010660  0.5012204756507436
  0.0820258148233738  0.4145636334057972  0.6672515281109099
  0.9981505817143463  0.8330295645805148  0.0003153838463179
  0.1605825935291035  0.4167784631797916  0.5866559500139050
  0.1636425505333501  0.7497421857621117  0.9152041956544085
  0.0766989623792170  0.4193932044138646  0.1640089729762261
  0.9153954564374960  0.0838791618182309  0.1663207842859982
  0.0793327105671108  0.6690241371697113  0.2479794653507370
  0.2428414723364797  0.3349341391509125  0.2479051387162013
  0.9971469875031946  0.9166970283117739  0.0826009290732049
  0.1635508246542168  0.9180265017546542  0.9160874465379192
  0.9169338854931055  0.4998955562448227  0.5838165693999664
  0.7500603066502533  0.2513571698110859  0.3338589294928448
  0.8333781555260906  0.7482404085137395  0.4162230678457477
  0.0813656565718082  0.9977743337333328  0.9165686370431617
  0.9156504298620456  0.5845782978093440  0.6677440898632513
  0.9160123182096590  0.2494929807699867  0.1663825279845293
  0.8329482461288619  0.8341750179266564  0.6690689941719318
  0.1653944815032479  0.3322257032123993  0.6693882760068880
  0.0807116844678712  0.8334379445468391  0.2482636283113508
  0.2438953893081692  0.0794682457839517  0.3338456681457530
  0.6780002996984555  0.8332962230636445  0.4985277956370423
  0.8319664932839578  0.9165639866878268  0.2479010443198217
  0.7502544820843939  0.4153062558816756  0.6689910907761230
  0.0804703811272288  0.8319616217852687  0.4170959379414128
  0.0807821953321419  0.9991890861070402  0.4176526936810779
  0.2442319582037399  0.2496455317551298  0.6664940925539412
  0.9986376580604469  0.3335675041077309  0.9988782824892449
  0.8348000198737519  0.2485897249100081  0.7514372244335624
  0.0779335750217322  0.4153080164583814  0.9974527496267499
  0.9971751702729074  0.5013850455259395  0.5024077603859480
  0.1609779858506633  0.2473741285155393  0.0796460153360886
  0.8349967595548774  0.1661529709325277  0.9987691371176869
  0.0784570984610565  0.1644240412914162  0.4195955835702355
  0.4114522623297162  0.8320066088169288  0.4057177729761265
  0.4166886481773830  0.0819699232654234  0.0010996753276036
  0.3303976370078223  0.1628310671246370  0.5030790191540365
  0.0000867549281287  0.4165131140662454  0.7499673931216418
  0.1501609824724376  0.2470157094409023  0.2495887304454207
  0.9984593585956488  0.7511742917217757  0.5843212681884457
  0.0795107268331076  0.6689868177038644  0.4182675962884816
  0.0782543948850484  0.3340141018230464  0.4203007822296761
  0.0811866937322651  0.1652486058829868  0.0807453204438263
  0.9979214429483100  0.8336587073045563  0.8333294984762619
  0.0800410100887718  0.1637956337797997  0.2490788271686486
  0.1658851357612799  0.3324857326205007  0.8336503081738552
  0.6698507629032292  0.4176724412574936  0.4166795587970897
  0.0809246145422110  0.1664313748973016  0.9157355265772392
  0.7490544114451835  0.0029680912493386  0.5889788154927000
  0.5839561689110403  0.1655523550042064  0.4158673299046944
  0.4150993246238874  0.0828228410874804  0.6688306906567031
  0.5007535932801362  0.9989250532935798  0.1662599554488838
  0.5826547723461571  0.1661981761187488  0.5845262754978052
  0.5848815961416580  0.0021355300540305  0.5867861457809098
  0.5845795979797105  0.8313703652934278  0.2478077546733257
  0.5828231599605969  0.9999524218193585  0.2472935046704139
  0.4174816404245011  0.4207930267531285  0.4981938502529075
  0.7486918093951729  0.0830253462091111  0.1638205091786817
  0.5849974845935445  0.1663188577620931  0.2480029917812629
  0.4995592035768559  0.0846950713365520  0.4139022500911427
  0.5003252493747746  0.0008175477497026  0.8347911661013795
  0.4987933189399080  0.9185825752607432  0.5897201540097914
  0.3275037253453769  0.5859770916928033  0.4164584662853980
  0.5843393677927841  0.4160356285510237  0.6696414554607101
  0.1642223638767762  0.7501550999539670  0.0826441003423202
  0.1643484671367351  0.7500271991853322  0.7524019584832453
  0.5009916573887505  0.4278733428263904  0.2469494252876463
  0.0823166049634310  0.8308605627143058  0.5831817129537441
  0.2468680019779582  0.0796891451765819  0.1629704280924922
  0.3335295761393201  0.9147737243507233  0.9180089917620231
  0.3325654788663810  0.7524584414479297  0.0829614958805762
  0.3265535078791492  0.4172407154956381  0.5896360749555360
  0.3333243953442100  0.5845301977077092  0.9170478904546600
  0.4157281680446114  0.4220407672976189  0.1613666544058850
  0.3182301896311469  0.8334223392776213  0.4977175223772883
  0.9151637402575996  0.5842771304398331  0.3339959314275588
  0.3266745349281796  0.7493745059850794  0.4132453038509937
  0.2460764589394600  0.7486018493817843  0.3301522550495055
  0.6664017063912352  0.0841502184279381  0.9163406900598515
  0.1641405159619160  0.6664612331089942  0.8346771972773377
  0.4159404423459755  0.4278491733170040  0.3333265517510791
  0.0005200293699079  0.2483711894039646  0.7490689438422116
  0.4119138443621680  0.7457947305956855  0.4967581562086468
  0.3311455367383689  0.8360196572127465  0.8358179867281542
  0.1626669497952461  0.7509457517005627  0.5838569352861068
  0.4127719243460178  0.7480392239106926  0.3310415234651127
  0.5817893363404179  0.9188922889008218  0.8345391903046689
  0.4132637646644935  0.8392782844713829  0.5881266541260759
  0.4995842615905153  0.4998119549187395  0.8347764991908855
  0.4149581069555764  0.7523072614713994  0.9985844429385414
  0.2448595774539006  0.9175067219016251  0.3304830540641914
  0.3307363677743160  0.8331344311176747  0.0001351129718457
  0.4138958377034608  0.9183948899233910  0.3285192639580266
  0.4993481351783640  0.6664426260558696  0.4924683169042767
  0.4158714842900195  0.6643730799743484  0.2469478090164422
  0.2446439888084024  0.3331645469519720  0.4294616171674173
  0.2475977527314353  0.4190393442420603  0.9945494640810675
  0.3312822350461037  0.4167653767330449  0.7513496742108637
  0.5017036871508559  0.5729284478535321  0.5867179105276542
  0.0809405163593026  0.5840535206088385  0.6685866604623830
  0.1492730272596103  0.3335460517902388  0.3364855030404979
  0.3363377075031764  0.4242956071034664  0.2463064679233304
  0.4138649901357418  0.5062161398291756  0.2468273236041960
  0.0806944660284806  0.1667211139900126  0.7503395947194109
  0.5005866205327331  0.9194906712169580  0.7526218455937568
  0.5846113150049360  0.9181151964362260  0.0007649253877866
  0.4148154761754149  0.2493131618705695  0.8360954219107055
  0.9934170906090413  0.5035815810832106  0.3317962953763117
  0.4149280660659653  0.2483960503534663  0.6685638046318793
  0.5061477492272080  0.4173148943094262  0.5852984399874851
  0.3299190652085973  0.7505783575390104  0.7511353816243164
  0.3299212343045685  0.6676147076027394  0.1639937796359680
  0.9971672879015605  0.3331733687680908  0.5008640692269609
  0.7513095231508912  0.8343517542591286  0.7541517942154808
  0.8340439777140400  0.4994928667041120  0.8331472707248347
  0.8323112699893412  0.4170756991883813  0.5844575765960293
  0.0811726969824874  0.2501946428302351  0.6676117836465866
  0.7505235077700975  0.2492905205854779  0.5003655772570847
  0.6679042369091956  0.0836705846118759  0.0833766166551608
  0.7497350798554562  0.0899215561714217  0.4999359894830983
  0.8312693498720792  0.8341990209615882  0.9992706997057337
  0.1627045920974934  0.5852890122555925  0.9140481143213621
  0.7510906980648910  0.9109068835456160  0.4993092890589902
  0.9152834604197650  0.2509539769931273  0.8329796679561263
  0.9159677293097688  0.0811919833885993  0.8331472040604144
  0.7500021118229437  0.0012183547768738  0.7530585970652889
  0.8313951316756242  0.8345958608348140  0.8325764660476337
  0.9155894133570329  0.0002311819578639  0.5849606154482744
  0.8322957245093378  0.0830518446288693  0.7529853506328075
  0.7521141397346782  0.9160392547570800  0.3293115066462016
  0.9158248135238346  0.9157844590653232  0.3323775367402975
  0.7507518898078108  0.6664000144489377  0.7528596894497969
  0.7493010852497044  0.9177605275982045  0.1646071865880780
  0.5853082163724659  0.5817373874000760  0.6697023528940207
  0.5027607536191379  0.5012032572630108  0.3342392813188056
  0.9139175531268094  0.4993733638189505  0.0830274097488056
  0.3311878225992612  0.3321761824053287  0.3364132148896198
  0.8340081373882522  0.3330687794094828  0.8318800018530211
  0.2468761589475083  0.0817049642230979  0.6685772538542408
  0.9962341630316193  0.7527071011361178  0.0812095523191733
  0.2463416153355126  0.2450455184777935  0.1575855679511483
  0.7490319314137928  0.7495960421981264  0.1635145996333499
  0.4144531758566617  0.9982090412370631  0.2491380516586746
  0.4090492547015204  0.9247201843598207  0.4982825181299820
  0.9164516545847976  0.2498446079564145  0.3324099588933763
  0.9160136721010080  0.0813117486052716  0.6673028912470095
  0.3330453240973092  0.9147693766197964  0.0836659912786675
  0.5014021250961714  0.8317109311649249  0.1679191705171552
  0.2439997065868409  0.5036778572281057  0.5878705379987632
  0.1594328801384191  0.5038234587103573  0.3338201978524803
  0.2465387209817677  0.4232467109099218  0.1574249078819549
  0.5023350195945362  0.3313214791709166  0.4997052497428300
  0.1629044163924051  0.9195534091051809  0.7507196960617178
  0.1620090761567500  0.9989811199349182  0.5011280585123379
  0.4170254612436143  0.8352881238413169  0.9171326774557245
  0.4207746172270764  0.3364489995280446  0.2498345016209592
  0.5837965040592661  0.7491182610766568  0.1676338597230167
  0.3316324874590348  0.4168106975100086  0.9166963683691050
  0.3330548012527343  0.2481826960844844  0.9160329029883697
  0.4161224127741325  0.3325157009218774  0.0773996409778100
  0.4091718944342548  0.6607281092075765  0.5857732830883493
  0.4175773254308258  0.3326324799876866  0.4317400197225980
  0.3287333838283879  0.0017730382828337  0.5008276702803891
  0.9155476340815127  0.2502276448523147  0.9993926936412189
  0.2459669986170256  0.5837065427200786  0.6691245049166407
  0.4150487933534147  0.5864011883274496  0.9962946597275182
  0.4171354936918031  0.4184587412025916  0.9985654391457962
  0.2423809916605542  0.2449448709181091  0.3367803898313145
  0.3319929492937949  0.2424693003146546  0.2465804281908512
  0.1622259228411806  0.9183187550729623  0.0833380767378262
  0.3351250646689216  0.3350688130609982  0.1561176114821322
  0.5007570897192183  0.1645748331702220  0.1647858396498794
  0.2478560592720837  0.0810037075153349  0.9986664852412025
  0.5096592135994872  0.3352196803062943  0.3366322380703984
  0.0812178980779006  0.7508802348482795  0.5005937395875589
  0.5832001140479969  0.1661457883468746  0.9176196946918810
  0.4164156034356730  0.0814407791382247  0.8352212307426384
  0.1602432957788277  0.5853181768068751  0.4165181618002723
  0.3272721625645821  0.5058251485160751  0.5005548309852192
  0.1605938362825883  0.5034622167163564  0.5029130520039982
  0.1614800080310965  0.5844115466921560  0.5864706765664595
  0.2464866327563449  0.5006329802942447  0.7521441802672146
  0.3288741100858931  0.5058715709708554  0.3336449058526948
  0.2440182717259222  0.5848801192548231  0.5012114270401180
  0.1641869966474013  0.1655161932176685  0.6688134433414208
  0.2473263249243041  0.7516130633004168  0.8346629562519732
  0.1642544164360435  0.0000347126664180  0.8342306264835854
  0.0807024734157527  0.7511148059549565  0.8337679218300744
  0.1593761014285878  0.5862019319642786  0.2484336081388746
  0.2464930285298030  0.9167338508526012  0.8349533082287286
  0.1644220663364633  0.0824532076136419  0.7511728334733609
  0.1640380779689091  0.8335775365374857  0.8338555412606526
  0.2475126347041743  0.5846494968023959  0.8345384659514212
  0.3305012215040753  0.0012295141050812  0.6694473208462852
  0.4158759189276874  0.3338473667652744  0.9167106648136404
  0.1625524493033877  0.6680775853141736  0.1639630714877189
  0.8329670378404940  0.5834235404539785  0.7510442161369393
  0.9156500748078816  0.4161774363569409  0.8330521552279996
  0.0787960608279688  0.5851580373877372  0.5012057646376517
  0.1548107130241386  0.3326717198714355  0.1649052688876304
  0.2436141639173260  0.7487765624725502  0.4986968462842071
  0.2445160433415453  0.6656430093231263  0.5859086621245757
  0.1630905308081818  0.5841465981406344  0.7518537990645677
  0.2461005116659240  0.4172046283819868  0.6695476755668860
  0.2459950897825589  0.3335496175252909  0.5849732406130236
  0.2478767630495431  0.4169548718168355  0.8349014751105797
  0.2481478782362112  0.2491909360183645  0.8349228259372261
  0.3314798136665520  0.3323431163899993  0.8346397215459006
  0.1626254795649523  0.5017622684977102  0.9977631122052779
  0.2468254763385765  0.5861672481130666  0.9973388238164889
  0.1608368872823057  0.5030132696337101  0.1628256403722542
  0.2478141023293335  0.3338939982619588  0.0689477065860378
  0.2465234847457798  0.0009388851676278  0.5849658907396358
  0.0785811129208045  0.2473470386269937  0.1630469724492712
  0.3321884077601020  0.0804502780687707  0.0817597705387095
  0.1629309953438296  0.9165166560870006  0.2493230717224761
  0.2467437965174258  0.9158178027945647  0.1644351983806959
  0.1626370091969345  0.8328264296715266  0.3313297815603427
  0.2488096932355935  0.1641499836359452  0.9158960954350118
  0.2452054244386496  0.8341070503771763  0.4121866256856964
  0.1629712119015356  0.9169452726266949  0.4156631445836659
  0.5013924709820967  0.1649387156516837  0.3315522524567548
  0.5846946355980679  0.2499453274309544  0.1641254788267056
  0.3301736257409290  0.9164627832406296  0.2479839893506388
  0.8332849909127136  0.4997360649256555  0.5017230743484633
  0.8338199029193544  0.5008495170324881  0.6687988209970100
  0.9987444216775068  0.6676338789475584  0.6682523052146653
  0.0771624208594829  0.5026164331786145  0.4176105916027927
  0.0763150748562710  0.3344093229951490  0.2490251336003727
  0.5003310079335291  0.0822728066845112  0.0828803853531754
  0.4173287987511786  0.2446659249837019  0.5029934604895664
  0.9156542175432169  0.5002859895441198  0.4171516675814851
  0.5851557816582177  0.2486235555902471  0.3331618126322807
  0.1634699092842493  0.0813920259116398  0.0813193268585971
  0.5839445919191414  0.1661289141673750  0.0829731973967389
  0.4999427672547483  0.1643589587365616  0.5006224880505330
  0.5837167318798072  0.0863412177273820  0.4998655162502867
  0.5843482970199145  0.2480367627025017  0.5008107814158888
  0.4984407182067447  0.1664273344964160  0.6696653536665967
  0.4168565592457544  0.3277213560845422  0.5846678533028048
  0.6656718258982205  0.2498458014066575  0.7514371320083350
  0.5826454121621905  0.2488552231164026  0.6678094060948097
  0.4981138242008050  0.1655941631822059  0.8346730266842423
  0.4997101175455034  0.2475682297186005  0.5851027764305909
  0.9976470073352205  0.8330780912025777  0.1650917442822332
  0.5834969697730449  0.0839839945336718  0.3307468789074849
  0.9986295562198348  0.9157129627061914  0.4169637903580137
  0.9976263889230632  0.8327474238807305  0.3326898521680760
  0.2480168453694547  0.0001833796259223  0.7520306486753716
  0.1582974971564541  0.4201963742024982  0.4190253256460056
  0.2475709408403041  0.2469458757640936  0.9972131206473027
  0.3306592346309764  0.2467378337035713  0.4261119784146357
  0.4135372146214853  0.5842503157535954  0.4984688342411436
  0.3313430779181237  0.5002644230172066  0.8345729138947564
  0.3300954674420274  0.5013976834811049  0.6704786377423916
  0.5853249764412609  0.4173913354283194  0.5004680339031160
  0.1618907493305071  0.9987755400869684  0.3326130924998821
  0.3332849057790918  0.3329399068942986  0.9969828662235274
  0.1614773614148220  0.4176776807540867  0.0800975348456175
  0.4156420356590601  0.1627561891260012  0.4177746958490169
  0.4154052355801223  0.5002901912911620  0.9161209017568375
  0.5021354110581825  0.2465031708770249  0.4179757025575295
  0.4172421584885385  0.1640165335560456  0.2462506311820810
  0.3303157546712482  0.3313826405707600  0.6688191152407286
  0.3322727452049907  0.6693816163867142  0.9989647143280280
  0.4149334898527971  0.4163042042887348  0.8340037370549006
  0.3309669658789020  0.1541101586544625  0.3324996123700554
  0.4155813507017789  0.5008178891277292  0.7537828720406581
  0.4129481314664138  0.5064910872482242  0.5857222220723882
  0.3319509805159687  0.1634680464113413  0.9986655027214073
  0.3312718719602759  0.0833728346643686  0.7517199067773357
  0.8334703389525007  0.5837045397772340  0.4171343820608177
  0.9155968201997753  0.4170608617023366  0.5006499144190290
  0.9982238191825438  0.1652865176242046  0.8327442248305577
  0.6675318993157887  0.2494744513902299  0.4167979774350221
  0.9157963734472701  0.4167881449894291  0.6666326158727919
  0.9157651043292045  0.3331047088420446  0.5845962981730494
  0.9982696109662769  0.2490793574828597  0.5843338580074482
  0.8326925541804362  0.4155769594934899  0.9163880447931626
  0.9153651035896355  0.3332358872548333  0.9161204206628940
  0.8315466751202154  0.7505349489325164  0.0817953781487139
  0.9164362372403204  0.4999671840345228  0.7507693740843245
  0.3308053593537132  0.2465070602522167  0.5865104111790187
  0.9147960060465735  0.5849391763628071  0.1656544643511702
  0.2458858164990884  0.0822430139531334  0.5015812597641760
  0.9972713418761274  0.2493491399582042  0.4183230066085263
  0.1617025459874969  0.1629742799666278  0.1634412603107857
  0.4145061587172332  0.0012107857608344  0.7523483372143850
  0.4167482944873356  0.9156026299031754  0.1668950183737901
  0.3274548322333850  0.6653218091923434  0.4994622617994516
  0.4142782041975043  0.1644819498960396  0.5867266170963142
  0.0817660387647853  0.8334943069205495  0.9164961799179754
  0.1609072344921912  0.3331182449572103  0.5031177554725735
  0.3309539388792691  0.5054093976043448  0.1604669111434824
  0.2472519508161505  0.8333335313501293  0.0823195568900302
  0.4993880022027607  0.6650533406810719  0.3324303063014408
  0.1631325406650713  0.6680162948661390  0.9985367275100325
  0.1622945834459300  0.0813063321817858  0.4177720846433697
  0.0788147102404918  0.5856221966414042  0.1639021310169295
  0.5859317096141915  0.6652267096861406  0.4140670766790636
  0.3307317093283925  0.5857071779176705  0.2479446519599625
  0.4156691422504267  0.7496702821139805  0.1662685410605471
  0.4165268247619708  0.6684580300682758  0.0820184501954292
  0.2457606273723758  0.1627822162838912  0.4186937218701848
  0.5001999278770215  0.5852365362784797  0.0812538383036188
  0.2427671598883912  0.5047961972624377  0.4173552554405030
  0.3326042450029262  0.4212549399525955  0.0776612831089825
  0.2437573573671754  0.5864320821280467  0.3336945897658170
  0.1609343360095390  0.0800320951182849  0.2494123216308426
  0.4992177830051437  0.5023103357280371  0.9981047498262146
  0.0804198507061479  0.1659007963604895  0.5848831646666900
  0.2457727892305963  0.9995884558904619  0.4162460866298556
  0.2480250416057473  0.3330302559461768  0.9168114867369133
  0.2391053540012177  0.4216363844880668  0.5012766176121919
  0.4162910252826280  0.5037322150538910  0.0791477157953241
  0.2460490675876338  0.8330956494468159  0.2478780585990766
  0.3317031897639182  0.5024756307942474  0.9975220189699591
  0.2473171014884859  0.9994522942607607  0.2482499977197663
  0.2465849930202030  0.5032949831645809  0.0777638674900255
  0.1608231413398497  0.2476114198624555  0.4201071270370588
  0.3324395720799858  0.5865893132142370  0.0798245015982989
  0.4150302454076121  0.5842283014377235  0.3329235282699281
  0.2468706904384297  0.7512813909201015  0.9992454752459718
  0.4147744063555077  0.3311853909672375  0.7518132462586172
  0.3303490185602437  0.7493688473431037  0.2479040155887969
  0.3315632264864613  0.0001100688921980  0.8349414786934056
  0.9985022848596309  0.5005544327335099  0.6679426017311357
  0.2470269062220642  0.6686425911097539  0.0798144850311316
  0.5842353288052050  0.7479037742871263  0.3308259981108272
  0.1625470825668568  0.7505484861435434  0.4151869191481923
  0.6671286130409305  0.4157909535574236  0.9166554385682859
  0.0802691601940469  0.7509232768878904  0.1642357454034291
  0.4989754355186424  0.2490305378481964  0.9168573091765128
  0.5842278411378848  0.5831765745687632  0.8353973296973868
  0.0809920548969001  0.7510675239039696  0.9999419470637363
  0.4994605197484460  0.7508035069013591  0.7539263034960936
  0.5863159245979852  0.5829526755617691  0.4991007678359405
  0.0808951011001950  0.8340553619915774  0.0825891651161923
  0.0790386549203746  0.6688286734460251  0.9173545060386480
  0.5862740861839070  0.3337673396234405  0.4190141021766022
  0.9986232856674503  0.9167545223656860  0.7509813717119553
  0.7503599780033074  0.3318415741971242  0.7505049191053740
  0.6679215569211825  0.5001781546521976  0.9993326284186408
  0.7506359150622590  0.4173741703597542  0.3328471406057886
  0.7509375800272680  0.1677247352684217  0.4158419309564574
  0.7494223002930159  0.8338971505353631  0.0822817721422005
  0.6766893155823455  0.7496822908333629  0.5859811551753228
  0.0797975765546965  0.5011455403652424  0.5859328613977014
  0.6655961075231850  0.9176531362691378  0.9170296707921806
  0.6694111972715249  0.6664516111014506  0.3317051065486062
  0.1643842162714702  0.2482221242716972  0.9157944676552476
  0.6662695192119875  0.6674183190195878  0.9986806409642786
  0.6676660884184933  0.9164856176916272  0.2483211827072196
  0.7511364073329623  0.3334265346159692  0.4175356938334890
  0.6688864774764011  0.9181964676280365  0.5864270053208384
  0.6682226134387592  0.5851267307807453  0.0803659137085360
  0.6672289265034952  0.8333194301813655  0.1659994445262621
  0.8329431372587247  0.5839376638283521  0.9168460627118331
  0.8330871972719315  0.0837697505650618  0.2492519827790005
  0.6667234468164895  0.0016965300670021  0.6698318210174724
  0.7498436343398427  0.0848972368737924  0.6701000775729908
  0.7501790472358278  0.1669082056409938  0.9165901180213214
  0.6671787762080281  0.0849405400249280  0.7521824553245600
  0.6668043070337091  0.9175085299069075  0.7527521593493366
  0.6666637013357869  0.5001349949784406  0.8344167260937789
  0.9157615658566611  0.4176609520840043  0.3335614566622705
  0.7507561511742111  0.4161527237887894  0.5012247246096813
  0.8331439310873342  0.3319235954532881  0.6672363015602633
  0.0794913309627283  0.3326333570729862  0.5842976098839112
  0.6660361563954607  0.2495370901174408  0.9173764443920573
  0.9970412653705431  0.5849263225451756  0.4173199696273908
  0.2460972284044975  0.6665580762202350  0.2473699878801869
  0.9982969969190667  0.4173367367035173  0.5845553658121494
  0.7508850264906415  0.1675994678108111  0.0815561687532761
  0.6668484322788474  0.3321897695834598  0.8335846598103590
  0.6682204054290918  0.2483957120969698  0.2490247230924727
  0.6655647753160827  0.0014761735558729  0.8343494007592633
  0.9155191038178415  0.5831068412640942  0.5013762405888256
  0.1639775811336794  0.4164565717692414  0.7515640512642217
  0.8337503022694389  0.6670694578651518  0.3327675281884205
  0.9983499603908750  0.5835772437733286  0.7504065962185519
  0.6679984612467210  0.5832117855185643  0.7526402877780577
  0.0813514717155073  0.4166900249988294  0.8335213470970045
  0.7496195478071118  0.8346348813292440  0.9167972239027514
  0.8325457035681174  0.9166459020069812  0.9170657729622690
  0.1619095601459447  0.3330747846541608  0.9966958696598609
  0.8332111182890930  0.0840675702952943  0.0826943153908574
  0.8329669753972062  0.1678354854143351  0.3326350234505431