 C Cr Ni 
 1.0000000000000000
    21.1200000000000010    0.0000000000000000    0.0000000000000000
     0.0000000000000000   21.1200000000000010    0.0000000000000000
     0.0000000000000000    0.0000000000000000   21.1200000000000010
 C   Cr  Ni 
  17 259 605
Direct
  0.4087730378295010  0.8368987835522413  0.4954795535075994
  0.7483977013415513  0.2503195272661257  0.4161187654570074
  0.5001943928607546  0.9279238798513949  0.4961335240753191
  0.3310827892336896  0.4232902454361972  0.1552850768607439
  0.3196939906377393  0.7428158433097931  0.4968091121404990
  0.3271666017170422  0.2425826398275479  0.3385844801523689
  0.4230244914738890  0.4241358159768511  0.2485375932576624
  0.4121554643916304  0.7424396441359176  0.5909759435885805
  0.5026539332652924  0.7420830774872286  0.4957095615973554
  0.4995156192037070  0.4145855602139871  0.6694013837265451
  0.8338356962633188  0.2488104294447879  0.6667490540446763
  0.5023311667970559  0.8368379681284880  0.5915579747346357
  0.4214470080932933  0.3328192232000163  0.3406166811961846
  0.5927500816020512  0.8348683254987675  0.4950184552341251
  0.7491668225709061  0.4172209725751518  0.7487191158477976
  0.3304288464940504  0.3304883716090765  0.2472591653980882
  0.2391132663308858  0.4231894564294822  0.2495691264427911
  0.3230484558499189  0.7478328350109894  0.5888983434162233
  0.4110223393780852  0.8351839130139894  0.5889298192520973
  0.4155951792542736  0.6504862280104660  0.5899397788848755
  0.2461737365365034  0.8324492340960962  0.2474870078581433
  0.4141416442807406  0.7517181975753882  0.9986038022525892
  0.4133230706198463  0.9188596502484006  0.3299927350939992
  0.4120061545935400  0.7475017808342826  0.4999705021886032
  0.5824178573379402  0.9182570291384784  0.8343077266450577
  0.4154782544620452  0.7498885350310932  0.3299979678451967
  0.3319001668289636  0.6682938356615231  0.1639013722916509
  0.4144758164558586  0.4155647193308011  0.8361952348120113
  0.4139837806273818  0.9161315233768336  0.9987675982954159
  0.3279991503278608  0.7495561329041127  0.7497781750714713
  0.3315440266410096  0.5028844203321932  0.3369254587682076
  0.2398431074174524  0.3311115214228773  0.2472358501723169
  0.3317127217921650  0.4153018283742308  0.7522457971259960
  0.4148646703587839  0.5033419706890150  0.5842564772691573
  0.0812307327349800  0.5833907581544888  0.6690269012306334
  0.1616322681619691  0.4188266311315564  0.4179896055435545
  0.3309306823547605  0.4210810690319128  0.2470691635342763
  0.4164497320314839  0.5132118717905217  0.2499051862490946
  0.0808419294433111  0.5006829077935449  0.5833899122948695
  0.5817246540887597  0.0011855345681760  0.7546363608150333
  0.5812843987793150  0.9150802321802631  0.9986783355159264
  0.4135849495773555  0.2487043264276342  0.8351655224785360
  0.8332193312241715  0.4165722958687907  0.4155442247789483
  0.4133500668230488  0.2482612180090209  0.6669831361398014
  0.5848165420742290  0.4166765576368737  0.5007276784959394
  0.9991097618210680  0.8330968870064214  0.0001291369522384
  0.4168154148805215  0.4236152254045376  0.3383659453696184
  0.2455053453010736  0.6653437858193183  0.2491823566218158
  0.5807041641397591  0.0825642163279218  0.8338471841294619
  0.4986804364534820  0.0151772764382181  0.4999963844896074
  0.5841777346337069  0.8359162370156250  0.2465243234664867
  0.5832881115688313  0.9999552807121164  0.2467592594619376
  0.4160895952842031  0.4205694630332817  0.5014729190216359
  0.7500482335120336  0.9999861528732387  0.0797033717888923
  0.5839882465817073  0.1641853181464916  0.2465909435366958
  0.4161918892330368  0.0816651020874733  0.3300820892529541
  0.4124924427693130  0.9993389826099163  0.9189092490858004
  0.5003411603843189  0.9260970140019812  0.5886730011855732
  0.2476184899975097  0.5834266174789102  0.3348559553541471
  0.5829950922703747  0.1635570374128202  0.4167791055596781
  0.3307938621585324  0.9165989064775327  0.7512073331074584
  0.4986977867397695  0.0818228289463234  0.0815135620838708
  0.5818798039145602  0.1644441415511206  0.5847404589387248
  0.4974931809481671  0.3247711360623798  0.6665789458609989
  0.2459748711616497  0.7507125480847670  0.9996308778466230
  0.4125988688156992  0.8352282825924319  0.7514327823209596
  0.1620991412507279  0.6655102611290715  0.6674578925558666
  0.4135292430741804  0.5829435250155577  0.6724472577111289
  0.3299572101966137  0.5848465844636206  0.9165208199948904
  0.4215402689840371  0.4194841783631840  0.1584405399956903
  0.2457909134246224  0.8351790804982299  0.4135749277185334
  0.0802599488506510  0.5022943299807126  0.4183364216755659
  0.1640228907694744  0.7504358551156994  0.0821228849525715
  0.1627904251329287  0.7490938735580406  0.7518342103434791
  0.5123027464826528  0.4181626414613602  0.2494314218387885
  0.0789723368422129  0.8322369601635986  0.5841338446771995
  0.2484327438171152  0.0819858095653538  0.1643014382638791
  0.3317068402002071  0.9163805681032177  0.9181565450457226
  0.3196504725137152  0.8344496485942886  0.4994208087390347
  0.2477629143614909  0.5855131611556227  0.9974803878984986
  0.7510021236031312  0.0022978803841180  0.7529665124169689
  0.9159197021730230  0.0834044337468895  0.1662531100093769
  0.2446515238039438  0.5833953418047226  0.5011047941392689
  0.1620492954529598  0.5854697762241940  0.2492415772624655
  0.2418136817516912  0.4182936807015061  0.1594842877900783
  0.9151701734178452  0.5013250892520313  0.5821170612752071
  0.1618608903652740  0.9183622438694775  0.7508864358679904
  0.1617369183711568  0.9176870171811351  0.5826119554056727
  0.4138818413182715  0.8337613363712363  0.9164855654524070
  0.4216288327404704  0.3329343589897634  0.2485503050245148
  0.0820898288658272  0.9983881900397099  0.9177556638001719
  0.2465513136671566  0.3327245420970132  0.9176029435061892
  0.4140665783067187  0.1653943501959517  0.9165808052179366
  0.3306925439151079  0.2493999572759793  0.0817607048322372
  0.0804570882618438  0.4188359230396382  0.1641516903550172
  0.4159550208564973  0.3340161723642466  0.4307214267750974
  0.4134109255798727  0.1643318222986418  0.5870090390161342
  0.0819381103810914  0.2488278652736078  0.1664442383808486
  0.9975269476031652  0.9171573990454962  0.7512333230223290
  0.9983877353598325  0.7505263668309167  0.5820171567382488
  0.2477218862231449  0.0827222915988185  0.9996439952803725
  0.1632145211806224  0.2485081436934087  0.0830832847674358
  0.9988657996270381  0.1660360491636424  0.0002859152600367
  0.2453473602230234  0.4169494465794314  0.9961212270379108
  0.0822352493266422  0.1651224114134273  0.7505620014582136
  0.0023130445117280  0.2490230494812840  0.7504151275429741
  0.0780935490533522  0.4170452428076195  0.9983804301391994
  0.0801451390823003  0.1655309223613069  0.4177166335702889
  0.9963958110393909  0.4187563381566987  0.7497557281697182
  0.0795419435567170  0.3326894951975083  0.4175181450537400
  0.9995566706037711  0.3349511229758275  0.5001178987110081
  0.0814912956384453  0.8337393824446162  0.9173712012301823
  0.2462316600323887  0.5139820870300975  0.2499893601259788
  0.9991082028914152  0.3335976979915727  0.3331042975582417
  0.1637748457467938  0.4180268738335349  0.5835018532769248
  0.7492551957923481  0.4163036285629776  0.5013247737905352
  0.0808466213797518  0.2500514938808356  0.6677994454846488
  0.8388743034210441  0.2501632058132648  0.4169088782532799
  0.6674714247609195  0.0822483778117213  0.0807405907745136
  0.7509297919032416  0.0000411505993323  0.5856697347966904
  0.0000094288931183  0.1652057879974337  0.5002140822154203
  0.7521587808167182  0.1602767392675515  0.4148539502518837
  0.8333217030439357  0.8341101189342516  0.8347961304842219
  0.9989269709803118  0.9986471551513952  0.5003356626627138
  0.7531246597268250  0.9190772425046924  0.3318533564578554
  0.7504380231961252  0.6671827158281576  0.7513317260098409
  0.5841960059446973  0.5838010260569283  0.6705546028163133
  0.9150918607695713  0.5006849236280799  0.0847387405533518
  0.4990605174794239  0.5844133714622455  0.9155334804487932
  0.8337511469921619  0.3333770704499035  0.8348270186762989
  0.6664352573224511  0.3307777110622140  0.8349894334632514
  0.9151426961494373  0.7483652956003050  0.1652589134939260
  0.2473049945710493  0.4998444200933390  0.7524385050102473
  0.6683871223085298  0.7500290106881727  0.2477742955856143
  0.9168926863609255  0.2487427097405527  0.9984916767940558
  0.1633890331109059  0.5834350128697184  0.9151730755201399
  0.5005600812277540  0.6684147605433557  0.1642347640045330
  0.7513115314908581  0.9212940119156942  0.4999411413140518
  0.5010896688860933  0.3313638802294174  0.5003957067689866
  0.9189679779900001  0.2499325234011150  0.8356099036117643
  0.5004549642383633  0.8349480779427285  0.1664790623335655
  0.7497457219851115  0.0821711593117030  0.9996683254633230
  0.3264124076761893  0.8365914085195423  0.6683369690793283
  0.8393669535238928  0.4178881878730497  0.7501466491180010
  0.8329329150152397  0.8332914186839470  0.9997108502770710
  0.0824597833041920  0.9169052224760746  0.1641936316370867
  0.0813408121408210  0.7513524009417893  0.4988176501095083
  0.6681913782241845  0.9217553311081421  0.5882203258583817
  0.6641599680045939  0.2484825981269284  0.7531602648307286
  0.7517909179394705  0.5847417018197477  0.4994912434027218
  0.9979001910322535  0.7515044429588762  0.4175007894101407
  0.8316458941740682  0.5000174763755838  0.3326738835238644
  0.8328067927353999  0.7500417501179404  0.2480528731353785
  0.9148191385006663  0.6676816390700820  0.0834297098698184
  0.9164477176270192  0.5000826838527335  0.7503178940461553
  0.5862005690740272  0.6688114812945964  0.2473181538446804
  0.9159061887888049  0.6670530614541911  0.9174895809317922
  0.7509903465462536  0.4149401771947995  0.8387924337435336
  0.8314829315412103  0.8327389086748084  0.4995147228602111
  0.9976412537404729  0.6676780314914592  0.3324018818729858
  0.9959338672164838  0.5849091031638353  0.0837744525747143
  0.9172035378490867  0.5001195194537856  0.9177744012185960
  0.7503109457524653  0.4165178134849842  0.9996061172401927
  0.5860834277268350  0.6646382645686770  0.4139966772124820
  0.6658733499127137  0.7508608258627173  0.0806782659573897
  0.3305474292872447  0.8333487896976748  0.1665992513996254
  0.8340659286538025  0.9992396800628340  0.3301380873824875
  0.1641316997231413  0.5856603773364532  0.0803189626283531
  0.5829590308801234  0.8330917457065200  0.9167533999356479
  0.5844365423057164  0.7516711936303989  0.8363629090431092
  0.5023237135484035  0.7464865130114577  0.5878726210028522
  0.6685385074316067  0.5844428461603000  0.5833889241424443
  0.5866901622783279  0.8347165815821707  0.4056065037513472
  0.5908378408684261  0.9245295556407385  0.5006075880560085
  0.5928778129948435  0.8351742688174323  0.5872531165866024
  0.5002515754001657  0.8360351373056613  0.4990826258362931
  0.6664087875649801  0.9165533846539332  0.0814892126403291
  0.5905351926790684  0.7456159185530563  0.4986904111865967
  0.5863592065425083  0.7486421551579029  0.6710525181583464
  0.5009778422644290  0.5875442892587451  0.0813087414265193
  0.4183016921792034  0.5043054070618281  0.0783123067181418
  0.7483726563316495  0.3263513422711773  0.7516768275935914
  0.6655997690744767  0.4167207964804742  0.5816741278125959
  0.5862883393701059  0.6661632515018847  0.5860770093296204
  0.4125061895679619  0.7484731828053723  0.6810300591417366
  0.5000996865447230  0.3331601563091120  0.9981710073181550
  0.6685068218732636  0.5018885784876196  0.3323303689452999
  0.5838202412872315  0.6668443896588906  0.0811823998816878
  0.7492297784497818  0.5069834534179840  0.7508736110636821
  0.7520290076938949  0.6668874946602363  0.4163450467944150
  0.5850742035712545  0.5015035542940555  0.0799312820551922
  0.7504089887243405  0.5837287270265835  0.9997934075744168
  0.6689029629629887  0.0034610201128453  0.4983511192867063
  0.6680939558533029  0.0820376328243694  0.5845802383971487
  0.5897540062149514  0.4174115292685970  0.6661405497337402
  0.3309893184350380  0.2469245692452609  0.4276013781175509
  0.5810955679504114  0.3329948444676347  0.2466346085911542
  0.6671403654904926  0.0820327936170740  0.2482363457670375
  0.5003618448164557  0.3318223150807559  0.1640884492935615
  0.8331873216211856  0.3334336781333782  0.0014634439173630
  0.7503041108403925  0.1645987471542815  0.7544774373947097
  0.7509321522354571  0.1660138316630812  0.2485011140679743
  0.5109496363777675  0.3330006695206510  0.3349458276501776
  0.9972990414850614  0.9982047671954832  0.3319637395741628
  0.7490249168940163  0.2500929439667492  0.1683248345718572
  0.6670973968258920  0.2505697616539175  0.0814882401869914
  0.4189609551744667  0.2427079675846397  0.3352845702342995
  0.7439093707668857  0.2461067937163819  0.6675530065788938
  0.5836078414731583  0.7502591064449918  0.9988506609924557
  0.6679596907880481  0.5836528583862836  0.9165470239933545
  0.1629615093875713  0.4993187181127623  0.8355162242857052
  0.3309023985029352  0.0819404353908516  0.0826793401782611
  0.9991507089717391  0.1660718363671900  0.3325326997731970
  0.4998767191633458  0.1634795495811699  0.1631027423728571
  0.9155799761356384  0.2506386604578667  0.1664383388968881
  0.8330308784159746  0.8341334665755579  0.6678405277689935
  0.1636879517014870  0.2484275770224914  0.7494448775255856
  0.0799286909102375  0.8329630504984114  0.2478155647584539
  0.1645530711491151  0.2491949689806890  0.9166777348786377
  0.2442972829396069  0.0804923659932153  0.3336949711441140
  0.9982149127536716  0.2490060634775281  0.9176093745306392
  0.9239758848986795  0.2495849588788456  0.6673879385701749
  0.9148856907547283  0.5831277519701819  0.4997492042445946
  0.9167259146513308  0.0831441308634952  0.9996195586248037
  0.4131210701457199  0.8359631322926433  0.4038380993337169
  0.2450824370351762  0.0822235968348201  0.5001930912294437
  0.1615717846029661  0.2480175305165725  0.2469370276971721
  0.1632026927002799  0.9177368238630720  0.9175565957094355
  0.0793117225572730  0.5833256296514834  0.5010066671351296
  0.0815961933535333  0.0002261769754519  0.0840865787277312
  0.0811929162811663  0.0808832688856757  0.1662545735285745
  0.9145187359117193  0.5004006601084370  0.2498045772813578
  0.0805703238376842  0.0813887051265404  0.6668789803512952
  0.6676519059046558  0.5011261573423943  0.1646587097903451
  0.7475228789076469  0.4156296759824047  0.6589973588947917
  0.7496402147698115  0.0831950427490015  0.8351573175416666
  0.0793628619445206  0.8321465165492681  0.4167807754552021
  0.7480841332815038  0.2500914553182180  0.3250141888294845
  0.0791791653341464  0.9998969491473475  0.4162193707213801
  0.8358962217109117  0.2482622914331113  0.5767863722597801
  0.2460728785426266  0.2513732528759268  0.6663503188374812
  0.6592740244533595  0.4136419953817269  0.7526461423958198
  0.9174668641512493  0.6694838468053863  0.7504327742180532
  0.3309102373072424  0.2419461429002412  0.2475682092781531
  0.9154753488605489  0.9152821299532021  0.1649461166799873
  0.7548939899722736  0.8345617803865002  0.4138319193788449
  0.1623091247121240  0.9164153553289021  0.0848791739288140
  0.2482099680784897  0.0830856665081634  0.8351409929961561
  0.0816387034914142  0.0011079801476733  0.7510208630179194
  0.9964687884837578  0.7496877873426461  0.7502676281369883
  0.3304925496516298  0.1669152488849666  0.8340920024865358
  0.6673742915178404  0.3326547966937066  0.9995462432066445
  0.0820164240117501  0.5840408199912258  0.8335556209951424
  0.9987475754732686  0.4170045298506272  0.9188034081519613
  0.0821010756830001  0.3312455039426838  0.2488591342541418
  0.3309536481624598  0.9154711297392574  0.0839073045856438
  0.9971845944056039  0.5837801669204717  0.9179507038724904
  0.3320200177678938  0.4194750010000783  0.5838190054331213
  0.2461732946185054  0.4194074858178647  0.3394059156554960
  0.3297855571851182  0.3300242373711862  0.1572296029704895
  0.1628686275596068  0.2491464163144788  0.5870134398458385
  0.1501141901328540  0.4188338971902993  0.2496859221113155
  0.4100502152750189  0.9255751421155552  0.4999808171862169
  0.4140613329216919  0.0008490044873866  0.2484874120814444
  0.2471841673222528  0.0818200135397246  0.6675145229795993
  0.4166218074875357  0.5837602894801276  0.3319350235848735
  0.9159626752663902  0.9171903704754337  0.3330634566211884
  0.7517462590746905  0.9180122605833935  0.8348192658692488
  0.6669911081856186  0.8334245012541183  0.6706348382049417
  0.7506259904686378  0.0003083487011367  0.9182211780726924
  0.7498376082571435  0.3409833459986830  0.4167230738016755
  0.8342404775042650  0.0820653996330436  0.7538342419522590
  0.7496085001376870  0.9174100183193851  0.1638709464938397
  0.3295097437170605  0.3341144087935735  0.3381874128842042
  0.2450133088380945  0.2485253056019122  0.1636535362615385
  0.4982946081768737  0.1641209975896857  0.9999894677620189
  0.6698171682842801  0.9188475876877235  0.4131327155189833
  0.6669650081989572  0.5026652276250281  0.6670333552341979
  0.8336453193877847  0.6669509581328239  0.5000652122503373
  0.5832527132041970  0.6683194627117161  0.9166550370507438
  0.7505760846507133  0.5848920044808443  0.6672430319401605
  0.6699482228307192  0.7503111058791556  0.4133899161956325
  0.7500551751486273  0.5833225398962144  0.3319010623756092
  0.5033071503344924  0.5832560601626464  0.5865253291373882
  0.0789203867872643  0.4181428056446426  0.3355156073343587
  0.5858758795812437  0.5845458496908340  0.3308895127351618
  0.8327321615913669  0.5006114029902125  0.1664124031722665
  0.5023297151974251  0.5017986870852362  0.5011603121507041
  0.0814061690619300  0.3335196981289608  0.7508186771126012
  0.7505125773664024  0.8349631448073513  0.5856726645612752
  0.7498164248376583  0.5017602585239875  0.5826856611194096
  0.6678946973166985  0.5013387663807372  0.5002685488501347
  0.0803868132310684  0.9167351711076339  0.6678973370196175
  0.3277119356144180  0.9185102551469169  0.5847577091317494
  0.8337468306323819  0.9169325944658744  0.0822594007210672
  0.9974892622944530  0.7505256052212411  0.9172018829679525
  0.9993919820858690  0.9164051706239077  0.9178725419983782
  0.6674472479880432  0.6670326054112427  0.8351880261245720
  0.7534743335623070  0.7504276856200006  0.4993242227229191
  0.7511235734117855  0.6669895168555294  0.5836318424137814
  0.8334446770872485  0.7501575690321156  0.7511650271054395
  0.6698054035921009  0.6663773776303507  0.4992848955518704
  0.6674976251756813  0.7512672199403539  0.9167735293965295
  0.7513692834326453  0.7505548468663356  0.3311941653250776
  0.6691784925156954  0.5840753923521227  0.4159384790051300
  0.7501354065552490  0.6666823039409718  0.9174888091893791
  0.5851388878664825  0.9188421687464362  0.3289564820241095
  0.9989932431961651  0.3335625937090692  0.8337603955191900
  0.7520378139440395  0.7502400435077017  0.8340740124657549
  0.7499435096408819  0.7502136671715538  0.1653867431698944
  0.7513333789185174  0.8348033511128167  0.2476439603277657
  0.4968074895326464  0.9997200827218274  0.8352890457240653
  0.5029056469151935  0.4193610116457100  0.4181675377242436
  0.7502475911536741  0.6676555416569406  0.2484382308999458
  0.9993719449150520  0.1642951364640824  0.6667178315276054
  0.7491207484578788  0.6675192386898195  0.0816875977245850
  0.5825959304647377  0.8335765774600317  0.0815284756067892
  0.9170044204194140  0.3339350517394749  0.4166328739458823
  0.0807533785750391  0.4180057695750095  0.5003619999968096
  0.7503203401920335  0.9173162846366434  0.9993607200836367
  0.4138361749457580  0.9192087879646770  0.6688831288724141
  0.0806175806428305  0.8341309088452169  0.7507706587374455
  0.7514282887129715  0.5844840830035564  0.8347154693088009
  0.2466208730542035  0.8342452066545120  0.9171847068163147
  0.6673320833110461  0.0836253381814100  0.4142161956480776
  0.2467774417364837  0.6656601053352799  0.4175974946625437
  0.1619991649235879  0.8355598075443713  0.4992520755585784
  0.3279248753015845  0.5803598078771207  0.5869284022904180
  0.3283734907743742  0.9189977151909443  0.4132083114810567
  0.3293014292414172  0.8340833205463618  0.8334778054263937
  0.9157945498772057  0.8332502055697695  0.9176018841840485
  0.2474349385000504  0.9157428671922917  0.0006999248119087
  0.9980444427800040  0.8332082544423925  0.6678976358886797
  0.3309247849589491  0.7512986165513352  0.9168387399068546
  0.0800403857124503  0.9157648618181679  0.4992089254950940
  0.4148618979432502  0.1656703333545230  0.0818466938124870
  0.2458980361547353  0.8343084478464612  0.7514399888852442
  0.5827162986516842  0.9990143155783482  0.0813965124119718
  0.4985334945866826  0.9158125891627142  0.0821961275297968
  0.4141302467394674  0.9984238331082229  0.0822035456432967
  0.1625202681104536  0.9996219962114535  0.4996495762188261
  0.5029424013046189  0.5861413039901691  0.2478258702476515
  0.4993092877191275  0.0832846285238765  0.4133577938994947
  0.4985015746234170  0.0838525764289698  0.5876564503571753
  0.5852373402215332  0.0041890638284576  0.5872863708759566
  0.0802967517754676  0.9994098781614519  0.2483025305312440
  0.6665688473638400  0.1656454926050707  0.0001627573813728
  0.9981088719438493  0.9163038025509043  0.2481442551932756
  0.8327703442089366  0.1667590649757652  0.1653569945779506
  0.5821566088243466  0.0837556653819072  0.6700877082220554
  0.9967069515998435  0.8344589461512402  0.5000343753944038
  0.4132039436906233  0.9172669801826739  0.8354330852908860
  0.8333808099802580  0.0829217682594443  0.9174721660015271
  0.4984189123531744  0.8333325529409724  0.9992261286126588
  0.6668744321159116  0.9996866380179645  0.1640136033251075
  0.5837015962026367  0.0818486115367418  0.1640642418280391
  0.6684412351876433  0.0005575772093909  0.3305849416789683
  0.9167502094179626  0.0000474743832588  0.9180536523193986
  0.7491167874106570  0.4998277615402394  0.0821732275052918
  0.6666818572178891  0.1650368799900918  0.3306214755549242
  0.3301251784773105  0.6674102395294261  0.8345010151053206
  0.4986411845804302  0.8342900276327506  0.8342291549541437
  0.4980401448198077  0.9184775132788889  0.7532393821901494
  0.6650660722322093  0.4173246897888164  0.2483624952366048
  0.5845112067588919  0.0023147000707900  0.4145391302100966
  0.9976196456104947  0.5013390552396512  0.3326282647606637
  0.5830968922245993  0.9166041142446777  0.1651079395551234
  0.5841915605553292  0.9203125876673722  0.6710609370715943
  0.5845327926191344  0.8340006837536639  0.7539497237633594
  0.5812368980974824  0.1657572504154476  0.9181378724918456
  0.0813494745832967  0.4996078326301798  0.7508520876718220
  0.6663515682711439  0.2492971165323087  0.9181150435537185
  0.6665693755701514  0.1654670164697569  0.1648953787938088
  0.6665215965138447  0.0006733826179711  0.8354465553716436
  0.9968935027893627  0.5840055451733007  0.4167109726442076
  0.1652341956342799  0.4179202207757143  0.7512399253821270
  0.8330021898731733  0.6671352264351020  0.3316795625883601
  0.9980531691119751  0.5838555279079480  0.7505721313960250
  0.6670450409935920  0.5850492594567204  0.7523223694821839
  0.0798986488790861  0.4169708360209845  0.8340064110533014
  0.6669381397398881  0.5009661001775413  0.8346486512261442
  0.6649689921454526  0.9987132467621883  0.9986062478549802
  0.7486550044802163  0.4174985904227045  0.1663325988080845
  0.4976415196584760  0.0824537910053840  0.9173551066852270
  0.6661300016999109  0.3324457161814475  0.1651081618791660
  0.5814784591611324  0.9992523898672994  0.9164194942581599
  0.5821196932066596  0.0827150370480917  0.0000852957795319
  0.7489379162692654  0.3336454637928745  0.2484495300138253
  0.9146511128025323  0.5834349109925694  0.3324473450118477
  0.6645132140764616  0.2459602398464480  0.5837748396909750
  0.8344967746123878  0.1604708298969174  0.6682338368798875
  0.8330594337807006  0.4176266219121811  0.5821217506765625
  0.7505531826057110  0.3313587042754904  0.9181070441905758
  0.6654436941175916  0.1632661313206541  0.6689574181306812
  0.9978337705459480  0.5015533134598739  0.1657522475439269
  0.6652315066240843  0.1652980353570138  0.8355899569994278
  0.0807918611938495  0.5847746484011530  0.9991533051851759
  0.9172107681797766  0.0820466340395692  0.8344169284528198
  0.8345548845314738  0.1647609033431603  0.4996513679263109
  0.6673626092917372  0.4158447451257239  0.0817117993769669
  0.6670298499068082  0.1639985052175462  0.5005094912824352
  0.5851469491560296  0.5012431877213847  0.5842579262789755
  0.7498977324272673  0.1639270564860797  0.5840928884308145
  0.5826775505053255  0.3318486031347192  0.9177050018249775
  0.6644574153857883  0.2484527266126214  0.2476128568778971
  0.0794273133297196  0.5037590099803679  0.2488945421457677
  0.2465657448688194  0.5873293493597278  0.1627173143735915
  0.8333081427818010  0.5003220742162499  0.0002639071954801
  0.8337911397695128  0.8345666299648512  0.3307601508717861
  0.9157965882970158  0.7502346602656887  0.3318168817730858
  0.8325638387738133  0.7509455263834437  0.5846269684639389
  0.9156073699656123  0.6671718123093159  0.4159143037853035
  0.3308161991763295  0.1647714086102704  0.1639824517457130
  0.9977777509352184  0.5840247880008747  0.5834747750791379
  0.9979249551540259  0.2492118679659730  0.0836715400126897
  0.9155979532000303  0.6672324583167412  0.5828753849125810
  0.6685107375932074  0.7506214840397754  0.7533537283889188
  0.8337100587010714  0.6666748753323183  0.6681958873619612
  0.8324868916823007  0.5827195461061935  0.2493541594479322
  0.0820080740156595  0.1664110315460424  0.9170178965193297
  0.1642075592845124  0.1654822191772617  0.0001408781057315
  0.8327437599691015  0.9999684716931772  0.1648344961137913
  0.8337936429599104  0.7497270545323386  0.4149056600300225
  0.7501991277618744  0.5004166569831071  0.9176111665224856
  0.5865865909148297  0.4202278306614632  0.3349684464845580
  0.9171107890200201  0.3332535869332330  0.2493384483095386
  0.3287132493701055  0.1635348694957220  0.5025224985353167
  0.1641347287972706  0.1640559398505976  0.1652904399126917
  0.3297838830453458  0.0836765399834420  0.7513392776972107
  0.4125940947224455  0.0000625008864239  0.7520333715697545
  0.2397400975357391  0.2496885436991876  0.3348343936452247
  0.3299753818518562  0.0000191037443411  0.8345119835001508
  0.4982894515955477  0.9990296528369255  0.9990816063370855
  0.3285634713706720  0.3341845963323102  0.5037120848659248
  0.3292025695002734  0.9994608761666560  0.0010567652835048
  0.7490798905397295  0.5835250224345934  0.1654465747381108
  0.0809586364955346  0.3323704127261607  0.9166400155819312
  0.3309723022111554  0.6660541557569970  0.3322728924279446
  0.3284506992134426  0.0827155739641589  0.5853194931287883
  0.4160011256637591  0.6660962252887636  0.4143659209753282
  0.0813184782824947  0.1648277447145147  0.0837889950948847
  0.9989111308326601  0.9988984533889594  0.6675327006541028
  0.9158542407814461  0.4180604287592269  0.1673985141617461
  0.9157570636401038  0.3324265424506205  0.0832208012614961
  0.0805368805794440  0.2501876386571847  0.5008060506115434
  0.8333107622212190  0.3327140730068018  0.1664766377357778
  0.8340690457756180  0.2495148714750516  0.9178932737887231
  0.9989468920929270  0.5006473750712697  0.8341157313617806
  0.5844636845505309  0.6670975624261376  0.7537413053311022
  0.6699101567480483  0.8343518638862647  0.3300110153084258
  0.2472046111150816  0.1651209635107325  0.0823076429341681
  0.3291551915889152  0.1662082910154168  0.6679537868888743
  0.3303547156483947  0.2499771256504407  0.7503785455052847
  0.4970815548936779  0.0839432772883590  0.7533193444755960
  0.4128374742535249  0.1673329717854112  0.7517694475406249
  0.2471779987994359  0.1663384531076880  0.7500655569204431
  0.4973429681331383  0.2480315218247177  0.7521558209107536
  0.3308422591478866  0.2492275601187443  0.9172707434806718
  0.1646857880908038  0.0822161768074698  0.9171062424492935
  0.4167376094441452  0.2483339304934962  0.1637138732957625
  0.0806847328079009  0.2493042840337842  0.3338657206060547
  0.9159123854895230  0.4171266084415870  0.0008075979345192
  0.9178402064261016  0.3331453154284685  0.7506163902347552
  0.8338741112061291  0.0820612834600079  0.5838527312382741
  0.9975980110499729  0.5007785766960013  0.5005237830548678
  0.1630710962081678  0.6666837558796086  0.3337515855141454
  0.0815491773395140  0.4180319590287618  0.6673151672656011
  0.7499685338638288  0.1670839635329836  0.0825431761288999
  0.8329182696272022  0.4175073288419742  0.2496670148043539
  0.9178685119097514  0.1656071754364258  0.4161996390036187
  0.9981857542309439  0.4180729411852657  0.4172271222809108
  0.9178652415859255  0.1658525955496205  0.5829735798698079
  0.7487667325035896  0.2475019334225720  0.5037006348732942
  0.9168504610151422  0.0812463404131866  0.6674557773966024
  0.8341190178341865  0.2475329388054824  0.7548373228273472
  0.1650805676986152  0.1658049834499165  0.8337920401026900
  0.9997578497831300  0.4170578300935164  0.2492514521730850
  0.8350146540640505  0.1655600787375717  0.8353331351160039
  0.9995240277749560  0.3353018897558416  0.6667018541531943
  0.9184655307175953  0.1662307561973928  0.7516247672302400
  0.7500097131563358  0.2505215608972044  0.0005638584945819
  0.9174518498488375  0.0826032622620098  0.4995353301441727
  0.6682492926023965  0.6676721432237017  0.3321315459052359
  0.1638785040540774  0.3331409531651900  0.8339534838228305
  0.6668073240656309  0.6668155556327169  0.9981823860843416
  0.6677020573867333  0.9178827698137607  0.2476706345221151
  0.7486005038005108  0.4170262054673530  0.3315044645290344