 C Cr Ni 
 1.0000000000000000
    21.1200000000000010    0.0000000000000000    0.0000000000000000
     0.0000000000000000   21.1200000000000010    0.0000000000000000
     0.0000000000000000    0.0000000000000000   21.1200000000000010
 C   Cr  Ni 
  17 259 605
Direct
  0.4985176032293511  0.6627835108328488  0.5882343847940613
  0.4144754229217066  0.9204809961118983  0.5874408054435142
  0.2366020248680924  0.3372854618075945  0.3398390545175601
  0.4182703521224392  0.3347296523376128  0.1566573556972557
  0.2372625254888348  0.2421987445262185  0.2462316657384763
  0.3286542286433188  0.7531498289976012  0.4952160694056444
  0.3294263606201303  0.2414523234557523  0.3425756734370293
  0.5874042978801114  0.7520344265045296  0.5859799637303755
  0.4188775425836676  0.5798741051865118  0.2484652533865171
  0.4212422406483263  0.2400406770268157  0.2492005902720441
  0.4148379582440467  0.6618107521446454  0.4950443358320994
  0.4152565061326469  0.4172330162659005  0.5870828564062622
  0.4205186653212536  0.3365579914722254  0.3437344852874128
  0.3255554828486656  0.6692150776991196  0.2473886466295357
  0.2414806835088235  0.7518946396476509  0.5877979403366488
  0.3278593752915948  0.3362528715308123  0.2479211458516165
  0.5127701405280903  0.3344338427738738  0.2500715549889810
  0.4165444560900005  0.9201548847430966  0.3301140816477170
  0.3310252435458280  0.8321199648434193  0.9991608396865638
  0.4990439426817836  0.4979909802130713  0.8350506970140648
  0.2451527444345008  0.9199354395171814  0.3302307748861168
  0.4153627221700839  0.7514460298263024  0.9989519694007521
  0.4177079014324421  0.6704558286543332  0.2483147107529658
  0.4140031171332316  0.8305167245656735  0.5877259936871820
  0.5821911722910684  0.9186433176990231  0.8343448526310742
  0.4161978830922194  0.7524891195600680  0.3298821823508454
  0.1520410005109666  0.7503026577748462  0.5844475908079715
  0.3308583876178211  0.8335363723117685  0.8344872605974885
  0.4190387991250229  0.7537124756338368  0.4962603471719077
  0.5046097200530626  0.6664782185771638  0.4960540476154657
  0.2437083056107250  0.3343078021612066  0.4291334163928487
  0.5017986930265960  0.1644746143891190  0.1626786348411457
  0.3295623475752535  0.4162120460821184  0.7528392945159142
  0.5022221508626390  0.5734922454354914  0.5876576173387240
  0.0802649034064110  0.5827148272681513  0.6690762245884792
  0.1477297400624618  0.3348825340973911  0.3354209599401855
  0.3269572497246757  0.4257996737158665  0.2471451967825532
  0.4166408632112933  0.4899472147472063  0.2481363600877059
  0.3292564280935634  0.2448498917674101  0.2499934088689409
  0.5006910783187990  0.9196857991186292  0.7544884622776709
  0.5839390250078816  0.9181173512959407  0.0000081406892931
  0.4997039514692616  0.2489869919184333  0.9153635281970415
  0.9926382185252106  0.5020897001082303  0.3307078431035227
  0.4150400720899071  0.2488602077179971  0.6679971183441035
  0.4155210630769093  0.3277475597634206  0.5810971376812218
  0.3268167313019985  0.3348933173076530  0.1581600187184753
  0.4161757579454997  0.4263038468152453  0.3384055550211467
  0.9144707823525308  0.5838644099636867  0.3327496109717692
  0.6662917884766766  0.0838149734117205  0.9152359192177071
  0.5012275018402937  0.0828442815427730  0.4167466654294003
  0.4998267333137490  0.0006376300612964  0.8338891118343656
  0.5051116209074550  0.9172562875847756  0.5878623173486615
  0.3255497388701702  0.6622759895075181  0.4982290327084809
  0.5843622052680615  0.1645629912138247  0.4180502193625781
  0.3282948902241354  0.0042987656037426  0.6697488161727829
  0.5000351319360217  0.0001944707623450  0.1650936519048800
  0.5835507943692593  0.1657122223120179  0.5848425526127069
  0.5827016921746866  0.9995257706074320  0.5842751525069573
  0.6675891713024904  0.9183908077894419  0.2487820395840517
  0.5860734061470630  0.9187315043283975  0.3313555669161164
  0.4168662053258152  0.4221673514846684  0.4959414944745811
  0.7497027314542283  0.0824828153813636  0.1640963936089306
  0.5877266837770336  0.3332803314771813  0.4192903021048386
  0.4999144236420879  0.4138198291902164  0.7549576871724700
  0.2464104691574463  0.1525173886054058  0.2477968612254987
  0.3310755937823724  0.0012458645952362  0.8341866921330089
  0.3325066527158496  0.7529356727475003  0.0824032158129176
  0.3319788823232536  0.7499682171013327  0.7541787211056291
  0.2469311181097193  0.5830329485220267  0.8349174581074118
  0.3247492777269999  0.4170610484511957  0.5844860612649686
  0.3308726500459974  0.6691682441021476  0.9997463688442148
  0.4174082051810044  0.4248730996387219  0.1596891090236412
  0.2392049984674741  0.7516458185506827  0.4975492888153349
  0.3291156378369656  0.7539631449681342  0.4048368793097896
  0.1643584925681022  0.7505431626314956  0.0824373477394792
  0.1623556567007299  0.7500963979038513  0.7528058980003888
  0.5062516162748254  0.4251243074505658  0.2475506034887631
  0.0802202661068020  0.8337150220714662  0.5834424323097507
  0.3317557452591581  0.8427039319592297  0.4973060917645724
  0.3312997606994995  0.6661164931478232  0.1569851752452341
  0.9151239333931974  0.5010999873134478  0.0820462381703568
  0.3326199801727270  0.9176875990848770  0.0827455513733864
  0.3283394034353773  0.3336712294928812  0.5037149886499984
  0.1599009777680311  0.5011607516811573  0.3324169686016394
  0.2437162448649081  0.4184700024349345  0.1624007205081164
  0.2462134481336888  0.2476345689523436  0.1562994876173682
  0.1628940309523382  0.9191003961198554  0.7513514081104403
  0.1614388525189693  0.9990282128885563  0.5003382212101932
  0.4157053726805012  0.8343653269535757  0.9178545681585876
  0.4198919749243848  0.3346609390061474  0.2492781870154260
  0.2476010331687092  0.0815381549817612  0.6681149092365326
  0.3293074923036069  0.4166433819991397  0.9171197052917250
  0.3303509047345610  0.2477206748171859  0.9165673836775594
  0.4157153210449094  0.3322538708842104  0.0676499507421950
  0.4174054593499260  0.9180963419512221  0.4967453959048069
  0.4154425218504694  0.3340939278160407  0.4342728677288046
  0.3308246502104712  0.0007807361035063  0.4996560240555066
  0.3290385847563568  0.3345847735850896  0.3389547932050370
  0.5058325557573317  0.4992173658933576  0.3348424011506779
  0.9130409121523850  0.9157900738427647  0.3322069499716539
  0.6683519977377820  0.8348065762633867  0.6697025955562866
  0.8327813530255892  0.0008197832211388  0.9986702638792598
  0.4147752354147802  0.2432352219826428  0.1596297142525874
  0.4983577779120130  0.3328152467875037  0.8334778430525890
  0.9148399257232236  0.5834668068177020  0.6680207012499265
  0.8307884734298081  0.7486117540275594  0.4170149816774402
  0.6665901697800328  0.6662469378009099  0.8352938838012023
  0.6704995133304348  0.4163901433866297  0.4179231965483609
  0.8321524163524784  0.0833027433579868  0.7510936412671601
  0.7481409921048119  0.9179768889647333  0.1655437010437266
  0.9145860099039848  0.0832312546788050  0.5015852662436598
  0.3308115573595604  0.9982017395055617  0.1631218687993856
  0.1631385727900356  0.9183302659569521  0.0830002278429732
  0.7498399044457459  0.2488305604153887  0.3328448407695968
  0.4139623949316422  0.1677771182290438  0.7504345246350153
  0.8343320974703063  0.4168376270655839  0.5843900164472116
  0.0800255616170733  0.2501979627566023  0.6683792663992268
  0.7505877858062721  0.2488548410957252  0.5020740306838154
  0.6672969570124858  0.0820076126816631  0.0825115350216061
  0.8334616355506098  0.1657864209925797  0.5005144814049595
  0.8309113090979451  0.8345812081412238  0.9994415552967513
  0.7499416760281303  0.0015813159491033  0.5832735344823531
  0.8336087842048053  0.3336167312504505  0.8316250723023914
  0.9961977981971020  0.7529366459349136  0.0822172235976067
  0.7477292756244260  0.7503119881318290  0.1642362055755953
  0.2467216769223702  0.5003354667504804  0.9176704636920797
  0.6684712457983039  0.8360647540102524  0.4988391406467731
  0.9160003504637719  0.2508939716851802  0.8336433538031863
  0.2389317890011451  0.3342187615964237  0.2482511178184658
  0.9158553606479084  0.0816970639956206  0.8335048311177028
  0.0816140261045212  0.4150926165373652  0.6675619285870590
  0.7497583630596075  0.0020267460080452  0.7524375663358368
  0.9967153893817099  0.9168497718219593  0.0821828342237100
  0.8330987507611429  0.8349188070187323  0.8326203001503728
  0.9964242275322546  0.1662816521575103  0.5011172187628563
  0.9155098757642467  0.8336962591298622  0.7511654526169815
  0.1633750087110988  0.9179410122666677  0.9156717727517102
  0.7507768059065946  0.9169614515615994  0.3309851561116962
  0.0805551929723111  0.9973753920660013  0.0823389953897746
  0.7509211831915692  0.6657828489075363  0.7537535756413851
  0.9140949236671745  0.5002909855362691  0.2487416592825334
  0.5856594974613641  0.5808030683686108  0.6715774209326099
  0.6687760575650558  0.4187895506877790  0.2486096990822795
  0.7508229223726558  0.0841839213078509  0.8322637226682897
  0.9158276972666508  0.0811595353362152  0.6679959492696917
  0.2476564797574973  0.0813058242169910  0.9980140504849252
  0.9986245722136685  0.8334320633541046  0.0004240628998141
  0.1647124108415607  0.3322510447280537  0.8333506733577122
  0.9150622854199980  0.5839270164621400  0.8348579687502389
  0.5884431191476953  0.4186231347836344  0.1616666505286973
  0.8317903370853412  0.6681830679022458  0.9997615518790405
  0.7501659188252473  0.4150725416425643  0.8340488827617232
  0.9141669894938022  0.9158397375545191  0.5002942915597915
  0.9982808415310417  0.7496792563080621  0.2497991855969695
  0.9952534107223583  0.5841138670838372  0.0815758697515929
  0.9151657384275206  0.5843325874842934  0.9998018438438943
  0.5815170466427247  0.1672742854317723  0.7506926790155766
  0.6698001198838400  0.5840480555642155  0.5860283250205376
  0.9969968623701730  0.7506726658673836  0.4174187189891605
  0.9143803460484868  0.4169904978238819  0.3340325319391311
  0.8319890326093653  0.7500852434939952  0.2484170795073899
  0.7496508395675482  0.6687214684221205  0.0816628376166712
  0.7509733434918135  0.5015433039706162  0.0821124081477626
  0.4999590667483196  0.8371646776665717  0.4957142653043540
  0.6671609174238304  0.9177141951322854  0.0838937145905268
  0.5894713632062438  0.5000685471953570  0.4181946699127083
  0.6665099868992617  0.7516464557198014  0.0820494738895236
  0.3321893402432572  0.7580372299543323  0.2522506157514916
  0.8337788031814798  0.0847971676553843  0.4176852854813100
  0.2442933528409789  0.5018134106915663  0.0789873019056729
  0.6678182301208433  0.5834043082731730  0.9155619395058900
  0.5858464204697437  0.7507340420296804  0.6761943802585159
  0.4964402059523078  0.7537498733489795  0.5850780578911566
  0.7511453918323274  0.6651229328469237  0.5851539775570934
  0.5845232466188361  0.8358389967692759  0.4150100063294371
  0.5845404095614143  0.9194169943750667  0.4981557266270877
  0.5866185843464747  0.8408628501964716  0.5851754031774709
  0.5847328510678778  0.7535902125004332  0.4953256653880410
  0.4142809176503918  0.6659155827535265  0.7553516975735916
  0.4164533256726935  0.5849563474641610  0.1582686014122584
  0.0796978296928814  0.6684342644827294  0.2479353775897835
  0.8334276701674640  0.5006986406298433  0.3320553584982730
  0.6682642707101385  0.0012173576288954  0.4994411103904929
  0.8318320028413346  0.5008918455461827  0.1663261144532067
  0.3326034928945552  0.7505560762061488  0.5867187051547951
  0.5005734420021618  0.4158259852236392  0.9159416630126302
  0.5859089030950693  0.5011143817528816  0.0787078978226528
  0.6689343721484222  0.4153827700767223  0.5852726459836783
  0.7507257383119851  0.4978886659814298  0.7528784656287203
  0.7535769486865829  0.6674361941577750  0.4162704973288316
  0.7495586061002381  0.2496411102782788  0.8326503672847690
  0.7495423858983798  0.0833020236382809  0.6685952915047920
  0.6679681434164634  0.5855916971324131  0.2487533392517230
  0.5882544536076296  0.6618102430076199  0.5872253316679890
  0.5051182513012746  0.4166623571734828  0.5849633866604484
  0.9155787136320740  0.0840453480359420  0.1656298828995269
  0.6006662630938449  0.3349826752887664  0.2477260808419025
  0.6671742101728363  0.0017641008102405  0.1661214374289372
  0.5084492398405632  0.3349317954533909  0.1602260700252745
  0.8333744409127790  0.3314111407783445  0.0007741783973671
  0.7502992953242775  0.1682834454130310  0.7508440866926976
  0.7508916724769115  0.1643049548821970  0.2489841535636911
  0.1613428120127064  0.4174080312634690  0.5860674425857095
  0.9959034787679536  0.0827818174892740  0.4170127434883600
  0.9144634795188025  0.1673172071628490  0.2500016188209411
  0.6682926426117123  0.2481412797936423  0.0811096000504038
  0.4188662340456323  0.2458878714850382  0.3391578615209758
  0.7506932954492647  0.2509396851027365  0.6702733215289370
  0.5841463285378233  0.7509616900688564  0.9998641837286023
  0.5837313709982694  0.7512247847902538  0.8341294740548370
  0.0790638709810144  0.6684984025099665  0.9164573778582982
  0.0780717119823344  0.4180177155852648  0.1634162676481154
  0.2398853734382292  0.2461581820158695  0.3375715060434494
  0.9965044743817977  0.6670861420901176  0.5016451412084710
  0.9148365002739527  0.3329636558046705  0.2475833115179266
  0.8312715734172390  0.8342503166149025  0.6673983731022006
  0.1639146949724726  0.3346303652848645  0.6691917976870391
  0.0785366510243503  0.9972062739123488  0.2487117726724530
  0.7521576822359046  0.8354377794226461  0.5848335829409027
  0.8305223970508072  0.9174813709461876  0.2489667559133944
  0.1484606130768806  0.2470512126459785  0.2478987194733692
  0.0789506347986101  0.6672638241662822  0.4167800153784633
  0.0805969991634277  0.1648353228545474  0.0798276298129295
  0.0803424811542347  0.9984030213854157  0.5845141362835783
  0.7501460175664996  0.3337157814696126  0.7500296211642646
  0.0792243672130258  0.8330540426692195  0.4163518634664965
  0.0786045274815926  0.9992672121033791  0.4171311036284467
  0.5096935633603734  0.3357493433513603  0.3399129771483375
  0.2463438668949510  0.2492941291494082  0.6665907271375739
  0.4149170780791545  0.4177124430122772  0.9974888110244781
  0.9982059188915107  0.3334858905534783  0.9990407687220534
  0.0815108644359161  0.7507860691107995  0.4978660389801018
  0.8355654576388470  0.2480878964832205  0.7488596595709082
  0.4171001513892544  0.5860147680886373  0.9972602150821954
  0.9966286979328922  0.5012818647717547  0.5019083581104404
  0.5830047484453772  0.1662812490294061  0.9170870222824852
  0.8335343401128861  0.1640953598462430  0.9988888696303063
  0.2461293919559540  0.5829482030127091  0.6715364519005120
  0.5858153749467931  0.6672557966605159  0.4151303369200147
  0.9141473714229743  0.3324318469807908  0.0817876299825879
  0.3287720349520379  0.2482806839454237  0.4320809181420425
  0.5011693538838670  0.6681278330449485  0.1647002405929216
  0.5041105169528419  0.3316720797787332  0.5030718303772891
  0.1633554942267842  0.7495035870556558  0.9164144751507901
  0.2436277678472970  0.0808361691815887  0.3338328464290286
  0.5013019760468767  0.8340737459399868  0.1660164514248829
  0.0797455340266870  0.1636355303789265  0.2485111051432851
  0.2477341665684662  0.0826040116285593  0.8341864713862476
  0.0821129240491905  0.9997115698232831  0.7504350069524738
  0.9945634133243207  0.7514669472287296  0.7509784068689610
  0.9968545922595322  0.8331393985230668  0.8325014013646065
  0.6676678811003895  0.3324440938690213  0.9984050922695005
  0.9984383464210104  0.5831086799779737  0.9172821958094145
  0.9982762387530444  0.4158476782506748  0.9164068685887918
  0.8327829887077689  0.3321328310480026  0.1658342997791400
  0.0785402399601558  0.3345685238224615  0.4211828977828102
  0.0776505368746992  0.5858220667764414  0.9978617240606747
  0.4130958289131642  0.5068814404660892  0.5894298889808657
  0.2431227151116951  0.4273644314668320  0.3342379683988104
  0.0811588100304048  0.9977002530839097  0.9162511311386808
  0.1603902128218220  0.1632103435975452  0.5018131801171876
  0.3270138426784516  0.5790105028257772  0.2466558155663185
  0.9988572373414472  0.7505562134640318  0.5830747196484061
  0.9975111379624604  0.3314590034506981  0.8329289336015191
  0.0766167935138767  0.1643630768735516  0.4198851950466433
  0.0785256864006201  0.4151901120812158  0.9969729021142988
  0.9979415163613730  0.2498089391260551  0.7496702743126759
  0.2463559771296350  0.4178055119417203  0.9948327476214094
  0.8323920479045046  0.4981799127419770  0.8327946458214657
  0.9164092180421998  0.2517374376624509  0.3312832987865691
  0.9965581398300659  0.3340999479319348  0.5010006048601604
  0.0805828629973440  0.1672234644278809  0.7495650252339059
  0.0807999430764056  0.1663004656094274  0.9159286378495165
  0.1622579704957285  0.2484241115691012  0.0810472127048229
  0.4158506990178145  0.0818719509778195  0.9980886763451396
  0.4093322952739761  0.6636227442659368  0.5870086265270618
  0.6686695460104053  0.9184221705959578  0.4148892032503271
  0.8324720927675415  0.6666315139487361  0.5012271547689678
  0.5833976448032825  0.6676256602500282  0.9162100088871827
  0.7505320582573130  0.5827097489154573  0.6690011663424301
  0.6690677773091499  0.7501742216755076  0.4153899970026158
  0.6680926454316954  0.4988172911835013  0.6687535609971287
  0.7506210894862237  0.5842753027103590  0.3327518964175416
  0.3275933032854966  0.5827437117934195  0.5870864578757815
  0.0770380327300291  0.4210907399735278  0.3331829676933492
  0.5870292105292715  0.5841248086617420  0.3329026026608088
  0.7514061249910856  0.4159447043953520  0.9994513663995580
  0.5050804408885109  0.5000362658253678  0.5010693445452911
  0.0812191577699119  0.3328819855787401  0.7512014793972062
  0.7500499857092757  0.9182086853979858  0.5005360021246954
  0.7506234682120060  0.5838001757793030  0.5008203272541198
  0.6697288359976490  0.4998958701318810  0.5021808490572464
  0.7503240272580984  0.1662051391681736  0.9160276872920468
  0.6668878424423820  0.0844430871429221  0.7508129611443677
  0.8317592358103015  0.9173316833318428  0.0821062208616603
  0.6671034367434954  0.0016672975329125  0.6677298303791488
  0.8327042726690137  0.0832620470705075  0.5841096055374346
  0.6689380590942475  0.7508962615590690  0.7533987804890502
  0.7503154445937880  0.7497826472853675  0.5004215351562437
  0.7506123637540727  0.4987579816226760  0.5854735842285750
  0.9150205125274872  0.6667497332037151  0.7507181172850058
  0.6683657475420769  0.6669013185675098  0.4992040647858232
  0.6659432977455760  0.7509383122807333  0.9163243663112063
  0.7506236839803085  0.7498352113049631  0.3319689649170188
  0.6689547444216198  0.5847734622643379  0.4164380437881902
  0.7496381449587919  0.6675738107726954  0.9163619232450209
  0.5838610065783055  0.0006248298469196  0.2485460405350975
  0.9984639562454914  0.4162218500363204  0.7514519158319236
  0.7504027264633358  0.7504647120276238  0.8343319305618825
  0.6662170570903226  0.7501781862772062  0.2485419880710374
  0.7495536267676515  0.8339863360905553  0.2486792998743008
  0.9141874747079514  0.8339366963002399  0.9166402107025194
  0.7512940035075880  0.3324667882753484  0.4183471095506442
  0.7497597007294696  0.6680984760051396  0.2483526436642361
  0.9976849867964489  0.1647698028745053  0.6677639658440732
  0.8324401126775742  0.5842733002017332  0.0825785531834321
  0.5832666107735033  0.8350577617309128  0.0826745072638258
  0.8327852146820792  0.4163331765906967  0.4167859644164403
  0.0784436722317022  0.4184255617996544  0.5022279451194923
  0.7495606091141072  0.9176270552661198  0.9995931884166848
  0.9979410421436490  0.5009215663931963  0.6681729978192075
  0.7507037658403116  0.0846788727781283  0.3334503371383289
  0.7511224873346921  0.5823894107238120  0.8344592109534780
  0.6691366002262873  0.9189998726768052  0.5855195821230137
  0.6677512356798555  0.5847034596786115  0.0806717014596248
  0.6661905616479442  0.8346061626119469  0.1661088370651925
  0.8329737690979334  0.5834729455391471  0.9166044513347819
  0.8332974082194577  0.0838292278361095  0.2495569318387952
  0.6672731948819308  0.9178011355051292  0.7522501357735326
  0.6669456670415981  0.2490981967238015  0.9163273284474490
  0.5841408531121600  0.8352321097331893  0.2491209868342717
  0.9963177522522685  0.5839418072437492  0.4171199211035878
  0.2391248229550411  0.6670683018335257  0.2475825356602241
  0.9978498299044021  0.4176028190920376  0.5844185608701385
  0.7501032392289224  0.1653422407256583  0.0816199688818415
  0.6675103720073216  0.3320387367872822  0.8335359062469122
  0.6683076017443661  0.2462046552328834  0.2491798245964039
  0.6655772394958203  0.0017946864459021  0.8339994551453607
  0.9156280857975139  0.5003287992897427  0.5843942951348309
  0.1636194397880404  0.4160780220538898  0.7517433595468874
  0.8327810953332417  0.6673824968390822  0.3319076784929719
  0.9970148671929280  0.5833471129484716  0.7508470572168505
  0.6684239967368991  0.5827697431819665  0.7530753242222815
  0.0805229531581021  0.4153564506666785  0.8340097383111686
  0.6678412916712411  0.4994606390631205  0.8343202455493735
  0.7501131080456002  0.4168971735804448  0.1642840578344317
  0.6698860575249492  0.3320508639335221  0.1611791313055902
  0.0801998237114287  0.4996618552801075  0.7509445499575186
  0.7500024586777772  0.2481173757322915  0.1652443071113306
  0.5059659450054679  0.4192868438693341  0.4195118629322880
  0.9970208625826978  0.7514621517390417  0.9163406159124281
  0.6681884287279450  0.1660187719423157  0.3336888897576215
  0.5845444660151264  0.0010322258457214  0.4153761109845165
  0.4998040386547055  0.8347173634358551  0.8346517260417212
  0.5839336002140610  0.9182117742706677  0.1655509709244911
  0.6689181888701554  0.5023015216409749  0.1634047421909285
  0.7495240057553120  0.0833378892307489  0.9987912662279184
  0.0777713415522475  0.5842982211093726  0.3324979848177743
  0.6676677673569353  0.0832738722813402  0.2491909176586345
  0.5839429321660964  0.8349444331397311  0.7531323208604308
  0.6682585686774449  0.0009894532492787  0.3326343985237241
  0.5849711111185860  0.9190246970229733  0.6704866543306798
  0.7505303590309216  0.5845014943691873  0.9990618314295620
  0.4149758910786149  0.9179794353975292  0.8337663773860255
  0.3303072204033368  0.6670851890963615  0.8349206562040004
  0.5003137270681016  0.8338015225443001  0.9995075946459944
  0.5836643156096188  0.0014329889969163  0.7519649101289495
  0.9151075488828297  0.9996999447012851  0.9169918721824221
  0.5839674088119047  0.0825023408714443  0.1646802064594389
  0.1622499731024866  0.8362441456132798  0.4981884352538097
  0.6668949723435957  0.6673934618788150  0.9985492522733838
  0.4997682327927218  0.3322904124896753  0.6680855523459215
  0.8339507378450389  0.4164892509676092  0.7494607314127326
  0.7505103461682980  0.4160714301656747  0.6677564526683352
  0.6682671321092444  0.5003552946436106  0.9985061236095131
  0.6696371269693200  0.5014216772121360  0.3337711678439164
  0.7503893447742380  0.1671692677725066  0.4171743099197362
  0.7487616663145157  0.8341777052354031  0.0825369704263203
  0.6746481028233097  0.7500966383509131  0.5851132108411968
  0.0795484321321940  0.5008525408540576  0.5860488230784878
  0.6655953838681150  0.9177841977487373  0.9166200994065504
  0.2473441595145796  0.8336040068192291  0.9165574147889054
  0.6684019030828652  0.6678479273719455  0.3320297019945724
  0.6674775759587989  0.0843014700062672  0.4169675586949359
  0.1634463395242640  0.2482952828122527  0.9157844348615678
  0.2440178889441831  0.6659212449778231  0.4149999227736344
  0.4143765059002408  0.5820173325162175  0.6730382018475201
  0.7480136739139389  0.3321875123981644  0.2487049567911157
  0.9152918386302907  0.6665312250329005  0.5849293212544880
  0.8330498917452284  0.0831138561753894  0.9156380118120746
  0.7507354254281076  0.1666630951830565  0.5846826422672962
  0.6692255357949114  0.4171042199012336  0.0803100067731801
  0.6674304048485645  0.1645307053335268  0.1648934556090567
  0.5874377114573290  0.4993193912166268  0.5858231799909791
  0.8336839991154174  0.1650542230616502  0.6670013249537637
  0.5835633682053118  0.3318000636782835  0.9157671479720785
  0.7511089620265616  0.3319848926155329  0.9161175868371817
  0.2449570018324802  0.5842296433528754  0.1621010732811021
  0.9964698553910444  0.5009367345863830  0.1649798795131643
  0.0779302660250588  0.5012486741202798  0.2480280748352009
  0.0798335427179333  0.5844699645602768  0.8348297562220004
  0.6673336435260623  0.2483862379425162  0.5851991585255069
  0.6661329854784630  0.0840253910894069  0.5857536698971360
  0.8322970162245239  0.3326683286189178  0.5015477544980589
  0.6676106164815784  0.1659730403031160  0.5017843774048613
  0.6655482069404807  0.1666530020868084  0.8327807913030894
  0.6660348842814795  0.1664933771664202  0.6685399786802206
  0.9971387361499443  0.5832330752477091  0.5851829151885692
  0.1632737264168671  0.1643375053416702  0.9984384234371887
  0.8327845836968378  0.7506985166392736  0.7512039072967979
  0.7511158125092275  0.8338926829794806  0.4155410893657512
  0.9989708472764559  0.1648756569733441  0.9986035921391059
  0.8321482333174521  0.8329208957418227  0.3319862116744658
  0.8320180074289781  0.0007830372815412  0.1659714016111096
  0.8316444073172878  0.7502604765496065  0.5845902727267880
  0.7512494583545202  0.4993466061348263  0.9159637776208892
  0.3297079800023865  0.1628971765267352  0.1622978968897252
  0.8327919428391688  0.5009309935997969  0.0001939899297062
  0.9969454102432728  0.2482454215640643  0.0810603593252248
  0.9967600078857837  0.4178352949403588  0.4177133427758098
  0.7510183880475635  0.7503319022971467  0.6693101118829996
  0.9144924724442101  0.7498049148828746  0.3326707261267617
  0.8317419894682877  0.5845851966267279  0.2484970922145351
  0.9145134206184545  0.6676922380759402  0.4172352656931674
  0.9977325389169061  0.9163831215709040  0.9164997492106988
  0.1624188954098243  0.0820225845200582  0.5845857579478271
  0.8324564134250009  0.5001543671429055  0.6681848596326879
  0.9978281963894877  0.6666584845308089  0.6679952179820866
  0.0771457500269526  0.5018480007519962  0.4175458515712888
  0.0779740642515456  0.3358319296241667  0.2465077090256876
  0.8329754078877424  0.5826001005859295  0.7514403351658816
  0.9151909973760557  0.4155431170142054  0.8340067211026141
  0.4149240566874887  0.0842981952787873  0.6697038356220899
  0.4146323950040885  0.3326096064046462  0.9180126392314464
  0.4995533652780011  0.0819905727792817  0.0814413577736773
  0.5866565616413055  0.2483637159326975  0.1625979235466938
  0.5015686257118587  0.1643246728657826  0.3349124669183628
  0.4189058791642825  0.2442862490997258  0.5033629894703533
  0.5851717076983171  0.1635264228669398  0.2483603645590411
  0.1624906864067295  0.0811687858183087  0.0811419946592371
  0.9981228170303329  0.0822942301521140  0.7504758426704944
  0.9978123027081806  0.0821360385499897  0.5840406619301393
  0.0790819205707616  0.0811336329170428  0.5019487102410248
  0.0808207873793580  0.0821178414690480  0.6675902881956509
  0.8321583696134802  0.0010805095768848  0.5000463479512324
  0.9968760075766542  0.9167255229517195  0.5838820727495674
  0.0785720232725703  0.0814678899685284  0.3336103616780971
  0.0788533420723832  0.9167357215508322  0.3324718008667420
  0.9960654370375671  0.9991908388842671  0.3327415932148795
  0.9139162526530459  0.9996632819644558  0.2490134180517898
  0.9970996427186301  0.9992087196425448  0.1662075354377640
  0.1624531651613961  0.9990816986007149  0.1655552869518755
  0.9967663455552654  0.0823387803316718  0.2493685733370298
  0.9977513102663393  0.0818904281278443  0.0821903044332820
  0.9979624496780262  0.1651077889673467  0.1658217510906770
  0.8327300423760702  0.1659139111005116  0.1663979805089085
  0.7486086321140114  0.7512828965816110  0.9993519578383335
  0.9136897801302548  0.8341937776656030  0.0828214986469271
  0.9147157888915305  0.9159807519775919  0.9989672306662619
  0.8311596038000629  0.8333539547494531  0.1664913733881259
  0.9143620625213668  0.9165456235617245  0.1659834976869663
  0.9139572351202664  0.6688932309148361  0.0821430213112549
  0.9992606068976780  0.9998383031385685  0.8330129338175317
  0.9974020829467637  0.5005364832170327  0.8338079491204977
  0.7509936155017343  0.3329215774723521  0.5849331912611567
  0.8327047388134932  0.4166658234205801  0.0825682827896393
  0.9980322174854425  0.4997437950794067  0.9986019012806124
  0.5840727447048935  0.4978350949663456  0.7536158968110366
  0.9146059026662954  0.7505499828503561  0.5009140004480894
  0.7508605662218307  0.0016399514191252  0.2498575610557964
  0.9134287117130909  0.8333097360566099  0.4159251331267605
  0.8323800404585171  0.9182592979317303  0.5839371628704064
  0.9140425116147867  0.8333912892732094  0.5840741820976907
  0.8319094936035958  0.8337381566892539  0.5001714752663895
  0.9152918356968612  0.9163227316474800  0.8339485439470342
  0.0788699303415459  0.0810469391898487  0.1649532058040185
  0.9981899845766804  0.9991497609478572  0.6676320049208555
  0.9144095743203151  0.4165732632880613  0.1651563176364766
  0.9150496449192501  0.2489580726344626  0.9990213521528837
  0.0790844734858896  0.2493217804832079  0.5021265368231942
  0.9967714604939965  0.3326541027760866  0.1634821490599887
  0.8332475981698516  0.2498756787114272  0.9160390977482933
  0.9148846140642619  0.9999902850899389  0.7508918037571533
  0.8327397546434275  0.0001232904443495  0.8342233312299376
  0.9986744525667599  0.0825784266380616  0.9161338244199240
  0.9988244619038973  0.9988047008944364  0.9998543041893555
  0.9155386782532934  0.0821022672032006  0.9993003823576446