 C Cr Ni 
 1.0000000000000000
    21.1200000000000010    0.0000000000000000    0.0000000000000000
     0.0000000000000000   21.1200000000000010    0.0000000000000000
     0.0000000000000000    0.0000000000000000   21.1200000000000010
 C   Cr  Ni 
  17 259 605
Direct
  0.4084346072896844  0.8390655390302012  0.4945515636147780
  0.7470694118693019  0.2475718836954054  0.4174384920280318
  0.1579415312132159  0.4220363074134558  0.1577459643909394
  0.1532651204990967  0.3309616305607769  0.2533868014564994
  0.5913061041358121  0.7460538051661356  0.5880556342609036
  0.3328571547546900  0.4231453109668630  0.3419466894974735
  0.4253529529739248  0.4243041287425707  0.2465581203793668
  0.4078244212125160  0.7457686633366276  0.5886318032282681
  0.4988560399535081  0.7457888301546296  0.4946574833818241
  0.4994386709604817  0.4147831004156746  0.6693574396385947
  0.7502496956494248  0.9178429405367465  0.5857041582730071
  0.5003886465847032  0.8408354323586267  0.5888377064592863
  0.4238589795354557  0.3291822590777906  0.3417001352367358
  0.2466822425405232  0.2409578745226086  0.2511053930723682
  0.7485404075839753  0.4168375613779361  0.7481324523247361
  0.3360728884159512  0.3309379394299068  0.2461423691733241
  0.2440428291861219  0.4267000572037307  0.2490674468756519
  0.4139907969899925  0.4152833878174079  0.8355006938726556
  0.3321438922674005  0.6689149234844197  0.1637738732204292
  0.4093785338823894  0.7490305296342034  0.4980512981916291
  0.2460219694407228  0.8332634571816100  0.2480099390022735
  0.4138135017665714  0.7518072311475681  0.9987344786887669
  0.2475363480157228  0.8346325423533451  0.7516768886114221
  0.4148081496347066  0.9186951895381856  0.3291724097848503
  0.5822061828635364  0.9167059405497704  0.8364814270707054
  0.4142100639685306  0.7502400196484864  0.3313791905454175
  0.5011162808158971  0.6564168686381571  0.4984899374428885
  0.4103951031786445  0.8380613001358052  0.5862529857699810
  0.3197238374901437  0.7499419902649860  0.5851081020339876
  0.3311101175113990  0.8357706557671231  0.9993647711619690
  0.3318699106853041  0.5130704100454151  0.3357644841492616
  0.4153127042707481  0.0003120212498422  0.2484107339026497
  0.3328508870801946  0.4146697646486627  0.7522695730948143
  0.4135267639995421  0.5012939030687537  0.5832983353780083
  0.0807835219067911  0.5829189741785885  0.6675872972482123
  0.1626496070745866  0.4179832223249719  0.4202947210185666
  0.3338208983313559  0.4212161509875244  0.2494519988599619
  0.4179816381961343  0.5140225439820333  0.2477928383399297
  0.4135605700901219  0.9285016582772156  0.4991015105226325
  0.4981482527702071  0.9191294572713021  0.7537342598937282
  0.5820762124548304  0.9154985292209502  0.0004070805072886
  0.4130639498183731  0.2502297960074943  0.8363136333174523
  0.9978833432738049  0.4171884915113306  0.4182651505378397
  0.4144322134215834  0.2485720418288405  0.6665050165366097
  0.5856058830506540  0.4180761401756935  0.5011005804490920
  0.2486288935391530  0.2477237025990736  0.1587462231317004
  0.4223870821488722  0.4203617480730010  0.3374987148739825
  0.4129671656591400  0.5822981876816401  0.6704813233408312
  0.5807958517110532  0.0847602640550112  0.8345626782304839
  0.4989517339148569  0.0824182519491769  0.0814564694846551
  0.5812598243980612  0.1640204780086882  0.5841573825312185
  0.5006028796824422  0.9996142345535478  0.4990591265855369
  0.5837402292258465  0.8333000370980970  0.2465245848585217
  0.5844049403038278  0.0003399754549718  0.2470594300427373
  0.4171073414262145  0.4198528670216173  0.5027289321326192
  0.7478370524595809  0.0822977789480514  0.1630565145852465
  0.5848935999504075  0.1643269461697697  0.2475028740808795
  0.4167750166582553  0.0819413273270238  0.3308250526998200
  0.4145606877883494  0.0002316627702663  0.9185865508510712
  0.4994399209926606  0.9295818934212696  0.5842083781396677
  0.2449596619421030  0.5854665941312671  0.3356033054340016
  0.5826260344677152  0.1624259017470404  0.4174565691444416
  0.3304588023959458  0.9163888403362371  0.7514534197545784
  0.4980380653286874  0.3246489112346631  0.6657275151864520
  0.1646629569800210  0.7495005465425012  0.0817854354932251
  0.1639301111721684  0.7495696178417564  0.7516328108077562
  0.5139657822478874  0.4184367683704022  0.2477716544184612
  0.0802195735017000  0.8313888032365351  0.5828798642780034
  0.2479655155939917  0.0803915844343290  0.1637753343476444
  0.3312537807827409  0.9168617885937584  0.9185025812820955
  0.2463675308252668  0.7500692665593183  0.9991031227389641
  0.4117254807168102  0.8338853954192968  0.7520281613504451
  0.3319191564147180  0.5847225110373818  0.9164018127510514
  0.4170898506068652  0.4194846503382935  0.1565348273405803
  0.2478357879706747  0.8339409461493201  0.4143995806356844
  0.0775879889555819  0.5856343019514216  0.3348456230712457
  0.3188098599998926  0.8352506888195296  0.4992618439555956
  0.2455472750370238  0.6655888518431401  0.2489735127280433
  0.2452221271143540  0.6667874061674265  0.7518308100873989
  0.2465457141519531  0.6698304894496644  0.0792197970447886
  0.9175250458786728  0.2502732465972406  0.8328997357093000
  0.4171438912313758  0.5851438819043945  0.3320290951394962
  0.2460272154397193  0.5850306515983241  0.5019096446579906
  0.1603271929707329  0.5865318721658016  0.2499065143920030
  0.2488067888080036  0.4197322939880603  0.1586311714108296
  0.8338885159249273  0.0831052472805911  0.7530969971972485
  0.1628583827976795  0.9179000596593876  0.7515939019778950
  0.1626071309302710  0.9184835533653432  0.5827126729318953
  0.4150350175901183  0.8329036899172085  0.9183237747000085
  0.4253110885817664  0.3330497315487346  0.2488948104887526
  0.7509131592944768  0.9189486425503880  0.8353911898582964
  0.3304905911259959  0.3316938237713560  0.8343947414996347
  0.3323972822530839  0.2498191203577872  0.9167231273998609
  0.3316152658820097  0.2491120887809609  0.0820530736547559
  0.7481159948706085  0.9161318803910049  0.1637996155067058
  0.4178316892310637  0.3331709176406420  0.4327694116541257
  0.3293383142927619  0.0014273579640182  0.4994544811343165
  0.7496411014254181  0.3382219082417500  0.4193447865717453
  0.7500721581602038  0.0006875102112730  0.9165352653110973
  0.4989227870016271  0.1647451584982897  0.0007493233973499
  0.9179477850638770  0.6692873945486181  0.7503309838662998
  0.8352015507316739  0.2478588630841554  0.5826324202111225
  0.7493727464842953  0.0840160895970386  0.8343420643834907
  0.0820386591210148  0.9982270345620733  0.0839255633648281
  0.9126553695824301  0.5019802251884047  0.2508383537170021
  0.6668309920247606  0.5025417663486843  0.1641919832321315
  0.7480345756965661  0.2499830391915200  0.3268657392760297
  0.6586989166747373  0.4136461874736225  0.7524826840259640
  0.7521295591682015  0.8345604104186526  0.4147509259028059
  0.7538019757700730  0.7507579966487100  0.6703506205212860
  0.1632014457992165  0.9187700140833611  0.9167276948608732
  0.9156282101385175  0.9178480989360713  0.3335240502228693
  0.2475558527836766  0.0819895968200273  0.6675484111716612
  0.9980208895904309  0.1649167264130984  0.3334352915364502
  0.3315776407303505  0.3308896557861319  0.3383007364239582
  0.8326117703645305  0.3335579065494192  0.5009970920093557
  0.0814057270851511  0.2498538400775893  0.6672548137930993
  0.8373946964204877  0.2486523889987461  0.4185974794178882
  0.6675807293257032  0.0822364035801075  0.0812564732930318
  0.7491403201054079  0.0808698247220548  0.5001867791266082
  0.8325696738835342  0.8333433140058293  0.9988865581815976
  0.7504321468351881  0.0086077964633895  0.5861277595456125
  0.7499838836514338  0.0831755940585124  0.9977786146320036
  0.7496590041685157  0.0033562671296966  0.7539288881597958
  0.8331957007505915  0.8342032337083112  0.8344298458410951
  0.9161124616086288  0.0010206479881105  0.5833581402851562
  0.7510137889728362  0.9169935868761417  0.3320850992635720
  0.7509249071379717  0.6667859947936157  0.7521529476327694
  0.0804509489121674  0.8330270053035461  0.9177901548533798
  0.5838745219403231  0.5850739663657174  0.6700581157334201
  0.0694265982448934  0.4174566814615134  0.1642421124728214
  0.9138034811387856  0.5014208369050448  0.0834599149770480
  0.9152171677033384  0.0832626510224052  0.1657141387045521
  0.8332315863457005  0.3320950293064804  0.8325837299652893
  0.1652343051712444  0.4177863961682304  0.5844005539250464
  0.9144135644023225  0.7492540876327924  0.1658536372939120
  0.2465947471771019  0.5167964011906995  0.2517796000789614
  0.7508383272635486  0.7501498479698628  0.1659991764793170
  0.9987353671256155  0.8327852614772362  0.9996504184776952
  0.1628369909374937  0.5829496475048386  0.9139543680250424
  0.2452115365980308  0.3332459413608513  0.2492967145910115
  0.7488304490003267  0.9208702935761577  0.4949602817094995
  0.0809494494388980  0.5009714796630306  0.5841924720235697
  0.0807110951932704  0.9159138274360228  0.1659478392450691
  0.9997013907373156  0.1652962570041622  0.5003748156427066
  0.3321610862667719  0.9155100489730614  0.0847315362006387
  0.9158005456900946  0.5009054935967686  0.5822570782103803
  0.1644684125832052  0.2478691422890476  0.9158257957770690
  0.9947465488436561  0.5842588972552333  0.0833007338402150
  0.9167409607693187  0.5002233667708698  0.9167779992992258
  0.6641322005468027  0.2493838214939077  0.7519793026320215
  0.7531535399297336  0.5841849314978291  0.4980703030988129
  0.9987965551297088  0.7520280234281749  0.4175329545977737
  0.8329773464055511  0.5003412896432519  0.3325961987643810
  0.8325006530883534  0.7511872134486128  0.2486633207105825
  0.8324566112926071  0.5826182985764030  0.0830451956283582
  0.9164066969562257  0.4996703431179384  0.7498349561038271
  0.5041705322244338  0.5854141744576402  0.2484473037198343
  0.9159410788705965  0.6670433853587431  0.9170496043343811
  0.7503809741688234  0.4145263861686551  0.8379092882081577
  0.9169303545959879  0.9176486871712823  0.5002915172355289
  0.9990439943499979  0.8331665165728456  0.1655262501477575
  0.7504175509863665  0.4163232872405320  0.9986630054527772
  0.6697676409480146  0.5851911469151642  0.5836936479540299
  0.5843273567925542  0.8357267302375195  0.4138521167332286
  0.5854389348006953  0.9196159865303339  0.4974963926953567
  0.5895752243288054  0.8373300248378153  0.5855010958557382
  0.5007942090647589  0.8376605341105765  0.4958146805275064
  0.6676003313589930  0.9155856110763002  0.0815221177740147
  0.5855173864940074  0.6648592736154592  0.4156006912123605
  0.8336171205799685  0.9987305445057553  0.3315419951272239
  0.1626731764592939  0.5871077160848922  0.0803674754644871
  0.5829211671163746  0.8322277402845517  0.9171429225593259
  0.5833339645849137  0.7512466200900484  0.8362192133066019
  0.6671258955709939  0.5837754533581306  0.9170885913769135
  0.5849566837156391  0.7483649566538985  0.6776288220901162
  0.4988274548722519  0.7496978356757595  0.5862789515472986
  0.5879874766964237  0.7499516347147814  0.4962485916675190
  0.3309892188641066  0.8337002157997921  0.1663643427594165
  0.4182609434845138  0.5848096960146496  0.1614723608001855
  0.0823673623339863  0.9976382888334745  0.9160046119035596
  0.7504697904981114  0.5835222610527004  0.9981023489905800
  0.5860827617203762  0.5018785315628022  0.0803981600926024
  0.5843433978690129  0.5856503376461470  0.1652622050291183
  0.4111840533669807  0.7497354425973417  0.6782247791792112
  0.5006058138095677  0.3336256611065667  0.9990419050632151
  0.6652661433174233  0.0829806836461203  0.5855773775829064
  0.6692866272806702  0.5013580656248734  0.3331547397059206
  0.7490547065035088  0.5068478029034811  0.7508032404426604
  0.7525718920919111  0.6673676319732350  0.4150812386978134
  0.5839822737978313  0.6564549908371841  0.5849212607169396
  0.6653086504155957  0.4180458898886277  0.5815826006463529
  0.7492653644483579  0.3255420377301561  0.7492143039289444
  0.6645816621186388  0.0014579659768856  0.4973950070381315
  0.5899537893390412  0.4177897931014817  0.6657582256524135
  0.9979810175166953  0.9170836650130599  0.7510738260178187
  0.5820674474401587  0.3328576141151737  0.2471105900934681
  0.6673323631050480  0.0823929354799842  0.2491562563103532
  0.5009295757785103  0.3321777767320198  0.1635091259392201
  0.8328703756604197  0.3330635918795964  0.0001380042492193
  0.7503607782461322  0.1673491254234615  0.7527803192476807
  0.6654089307954304  0.2487762958869933  0.2483932098049327
  0.0790051786208759  0.1632123097510400  0.2498458815721404
  0.9973223913103132  0.9989247480376476  0.3324574523193072
  0.7483641512903095  0.2501537482186710  0.1681380824013596
  0.6678113906567246  0.2507324359329978  0.0819469781545341
  0.4171179830822352  0.2397848958455845  0.3347034639242951
  0.7492612497024399  0.2471722767934421  0.6658582873889037
  0.5828270494365105  0.7516281594049610  0.9981393408126371
  0.6672215730213722  0.7507151628987677  0.0826817877259364
  0.1627680182373630  0.5005302000972262  0.8346917202768984
  0.0780653798140894  0.3325504967873114  0.4207916132182539
  0.4142710193375439  0.0834452683591377  0.8353737085948492
  0.9965376552963979  0.4175780292639035  0.7493676526136611
  0.9139750630471472  0.2489453496054868  0.1662061675042270
  0.8337834332322632  0.8326034883405181  0.6689833745356251
  0.1632396072394313  0.2481353550941919  0.7491593892012207
  0.0791016019861351  0.8334562656784826  0.2477240089322917
  0.6607735254727025  0.9213159441170640  0.5855213410694013
  0.9175035575141909  0.9156348106955801  0.1652208685973965
  0.0812875274712310  0.9997113526844599  0.4164445812799578
  0.2465831972916407  0.2494997915155537  0.6666220889378993
  0.9978033844963073  0.3323437430557273  0.9996610354976745
  0.9166699058600347  0.2490433362994270  0.6660479126962470
  0.9967490707833143  0.5847944092399122  0.4164091698882722
  0.9164773484588709  0.0825134676854001  0.9987302832309414
  0.4128504468930844  0.8364671768066513  0.4044193097112127
  0.1621653820929723  0.9170100418277735  0.0841961788359154
  0.3303851315582816  0.1631807215498083  0.5017944247381209
  0.3302161109507901  0.3337100204411471  0.1560175968526731
  0.1574589539592807  0.2425353721605638  0.2498006866251684
  0.5002136600448465  0.1633223243076110  0.1626122011966609
  0.0795843706785987  0.5847002404686703  0.5012612639979480
  0.3360159270849876  0.2421439271402991  0.2491323645742845
  0.0811278450905789  0.1649395804829960  0.0821055546156357
  0.3319325360386919  0.9969729412206201  0.0008237348265095
  0.0815419419632999  0.0822925542828747  0.6666876097661537
  0.2482179112775010  0.2482707401286595  0.3422170094084416
  0.7475809025591378  0.4156066896899206  0.6587830156784797
  0.5129945324211874  0.3319405046828890  0.3358867660931546
  0.0805086562947293  0.8325000504343738  0.4172240206972604
  0.4172665959233063  0.5020845543243182  0.0798548109729558
  0.0817153834189522  0.7515496375630744  0.4999699849903866
  0.9987183772108512  0.7511932714875590  0.5822787703661673
  0.2454533748042616  0.0800057178775984  0.3342647345359354
  0.4990533383845602  0.5840110759883737  0.9167440655272021
  0.0799309329909420  0.1650207119227685  0.4185982906841757
  0.1642254604809236  0.9998811951280825  0.8334315616584793
  0.0823390685521278  0.9999412420928241  0.7519210958898669
  0.9973563656999219  0.7497002112721000  0.7495559473557645
  0.1622423241629836  0.2469832350868242  0.0810650571810658
  0.6675266603006690  0.3329290834375923  0.9990303898278049
  0.0818076083124140  0.5839616018975804  0.8325078899865131
  0.9981240851246743  0.4161324400337180  0.9165709050479107
  0.0663629801647729  0.3340165076140719  0.2491084122177745
  0.0759122114467802  0.4151949108752940  0.9963918619415842
  0.9976412549794164  0.5833296715657864  0.9164661258356116
  0.4094752208902154  0.4176292311554163  0.6659638759568560
  0.2431846770672096  0.4188610342593432  0.3395917361508021
  0.2475938503126939  0.0815439387248067  0.9994590653281027
  0.1648900661378865  0.2487929143266841  0.5857028839744395
  0.1559851643684231  0.4201902523614769  0.2481511155700959
  0.0821551181700890  0.1673277404467262  0.9160618637278887
  0.0013328550288907  0.2489970645857622  0.7476748707444393
  0.2471413478746765  0.4181102609817302  0.9958443671740934
  0.9144784592773305  0.3330625512288974  0.2494783122546854
  0.3274899288807003  0.8355802418493891  0.6694867143517620
  0.5018685176395929  0.3312712018919624  0.5007790127457642
  0.2474184425786494  0.4998862177897144  0.7522229839226831
  0.9157262359827850  0.2507388816512321  0.9989406246272028
  0.5005737583270443  0.6663587444759210  0.1658639500247955
  0.5013358768095154  0.8332177973233408  0.1674036967027021
  0.8387004868065755  0.4172522455471421  0.7490114288927567
  0.9993637904316471  0.3346347423099551  0.5007749021119871
  0.0818670876781138  0.1654099275319683  0.7497069293461834
  0.6657144788438892  0.3310029254576804  0.8346858289821306
  0.6670119198975478  0.9177978855839612  0.4132478291395243
  0.6682563885966284  0.7510651230123480  0.4141310526473485
  0.6668542450937247  0.5030352042060751  0.6673095958284299
  0.8334589294151417  0.6677182130147572  0.4992270200741154
  0.5830044504482377  0.6680455619601787  0.9166974113111773
  0.7514746785064275  0.5851237935298351  0.6675338305510212
  0.7509343864362164  0.5837912073960982  0.3332353972451252
  0.8322974140929039  0.5004305320597312  0.1666364207119843
  0.0784037474874382  0.4173292342303178  0.3359758757925693
  0.6685962523712159  0.5017881258756494  0.5004872619113938
  0.7504441189485345  0.5016333240429319  0.5833693065236724
  0.5864404537521033  0.5843364109535668  0.3321791893492612
  0.0818550091157134  0.3332372181360723  0.7500959761685023
  0.7514099768188214  0.8311636918254718  0.5835409251794669
  0.4985980364938802  0.5815174699907114  0.5867063206348865
  0.5013541216230490  0.5027391217556647  0.5014900575766540
  0.4984412411941657  0.0832394544087236  0.9176200612388238
  0.5817980526913760  0.9999711496814419  0.9174520802816268
  0.8331006654253398  0.9165429544869397  0.0823863102915217
  0.5813964284997170  0.0848692131076207  0.6691161959086801
  0.6660835909222044  0.9995501811745690  0.9990919966823122
  0.6666507264881646  0.6667476409903568  0.8348490823416770
  0.7514052059986316  0.7501752997097341  0.4968691584791823
  0.7523908809551902  0.6660124837062849  0.5832400235762644
  0.8342179407332523  0.7499055033018589  0.7522648412393860
  0.6698259318950159  0.6665585598771206  0.4979124563477487
  0.6671031226272298  0.7506992771246597  0.9164609026616974
  0.7508093726867483  0.7510710308368667  0.3319263513966349
  0.6701659549079345  0.5842282257293314  0.4158771699199064
  0.7498248862377231  0.6669373518253462  0.9174061665406144
  0.5839267189467213  0.9171045283348248  0.3297562654654575
  0.9985334633126793  0.3328058756500119  0.8321099537388642
  0.7519052367957941  0.7498368631346156  0.8343436254004325
  0.6681844245167377  0.7512289605434034  0.2482273363427739
  0.7508232478720732  0.8347676912156425  0.2475623040936504
  0.3280129326544983  0.6661719240251270  0.6702907467159325
  0.4979148349555532  0.0824101585518750  0.5844379705447279
  0.7505895453356343  0.6675242790835085  0.2484950160812439
  0.9987424349811638  0.1647986483768404  0.6661027265849798
  0.7499426533118775  0.6673668354558469  0.0824858065177832
  0.5833060295026263  0.8325614916746125  0.0825252082724823
  0.8325519249277945  0.4167756714245471  0.4168940916450857
  0.0814035381317224  0.4184010522443523  0.5022984178788482
  0.7498735213187054  0.9165631521648483  0.9990487618524929
  0.9977399933708772  0.8351422692059204  0.4998286194789729
  0.5824241194793658  0.0830735085657402  0.0005393051382265
  0.7509453509861744  0.5841371992122800  0.8350467704079150
  0.5836737296049702  0.0039894843527603  0.5868392545955357
  0.0795845832452331  0.9990490897134197  0.2490266170179873
  0.6668325436192236  0.1658160987349306  0.0002540228879363
  0.9972929991949293  0.9173332046605842  0.2493388537859936
  0.4978212167778198  0.0004263664307624  0.8356648295809653
  0.5816581448406067  0.1663200309494989  0.9182342044861029
  0.5869695371791444  0.4196701913525120  0.3352992112649805
  0.4988080547948411  0.0818235191175755  0.4152572151818489
  0.9996489333965536  0.9987198052377804  0.5004138494271213
  0.3283186549394244  0.8336566755718134  0.3300480906896855
  0.2458144666878166  0.9193704789278485  0.4994695225286149
  0.5824434608747771  0.4155859008981750  0.8362832835822732
  0.4139183047134847  0.5827052481358335  0.8360125738958351
  0.4986420240478387  0.6666983464981109  0.8352502342156133
  0.0792510913242413  0.6681872095678094  0.2498512463246128
  0.9152808897282841  0.7504381830610459  0.9995178098741081
  0.1630831847993116  0.4167044813910177  0.9167241990712693
  0.4984606654961930  0.9160006304473105  0.9168639951332442
  0.4996154788692593  0.7506412536852778  0.0824993799911513
  0.5000382439560958  0.9167025246134825  0.2485481506748361
  0.0793069728731850  0.5002949140457481  0.9168926862728753
  0.5010705925662576  0.8348705639563777  0.3299094485719769
  0.4992429012340526  0.9195626333358126  0.4125141216604493
  0.9972925502577257  0.6664334828820923  0.9996439405476686
  0.5827089642823620  0.2497196904741135  0.0002550021940002
  0.8316526206604186  0.1659433472611159  0.1654612954482431
  0.9968621129031496  0.6676608361660490  0.1661562627055225
  0.4151238836205592  0.6590062551161275  0.5858818012332319
  0.6657248687641025  0.4175911867218800  0.2488798615630458
  0.6672381763630066  0.9995733016953864  0.3307906057920863
  0.9970577206452330  0.5009849583404101  0.3341803963444913
  0.7495962818752445  0.5005822507021895  0.0816990293843291
  0.5833692746984421  0.8347344042713754  0.7545597778511576
  0.3300173420233277  0.6665443990811482  0.8343017768942594
  0.5826494465280200  0.9198201228459295  0.6708304252792484
  0.5816144119024067  0.0014625106697568  0.7542056014980207
  0.4138879215995921  0.9172859408342721  0.8349892751122170
  0.5827970516300458  0.0008657261375624  0.4141552608932116
  0.4991899423743933  0.8328339932751087  0.9997629238269344
  0.5837287460972035  0.9166719004559271  0.1648915237387403
  0.5845510292988771  0.0823014082934412  0.1640334628330158
  0.8334941410587956  0.0840538663581917  0.9163199345606514
  0.9161083751174888  0.0003125872774699  0.9178877178628096
  0.6669194826494943  0.9993356697672612  0.1642710612941735
  0.4981228378337134  0.8335553671107031  0.8343919243670260
  0.6665414217864446  0.1644284705105619  0.3313804909041081
  0.4997421405266391  0.6678147855326724  0.9983853824140132
  0.5853878574223691  0.6683635777621671  0.2488438799385946
  0.4141521866907437  0.9192081190384698  0.6691847190407544
  0.3303429490050291  0.8338376021535852  0.8352071834343794
  0.2471817734769353  0.9164205244464390  0.0006807585346530
  0.9985386370883496  0.8335760959508710  0.6671674255960635
  0.3307266722382509  0.7503701018246416  0.9168749749958411
  0.0814955403795329  0.9154382508752117  0.4996391509358798
  0.4152157013289079  0.1655219811193153  0.0816097821491382
  0.3270956359747552  0.7500636288188578  0.7532608862933681
  0.5838433552388929  0.9992236688457474  0.0817914463974590
  0.4996814110696032  0.9154880273596551  0.0834772160828016
  0.6694092147963736  0.6669109026410057  0.6705237896594123
  0.4153019302952249  0.9986579841767403  0.0829103941356283
  0.5832082322854799  0.5002969260282534  0.9171406192546386
  0.1630978597544812  0.9996412236892174  0.5001420064046992
  0.4985977552933775  0.7504165915365927  0.9164440692039203
  0.4158386820145122  0.5850577981915379  0.9983931629402131
  0.7487523911384425  0.3336990044946691  0.2492318307931746
  0.9982918456699061  0.1659122871361125  0.9997486433831279
  0.5846405023664020  0.5035299587736255  0.5846356110700132
  0.9963856609728902  0.5029304741150344  0.1666023758850683
  0.5821768555493443  0.3318574008044032  0.9177194414694060
  0.0795041514520932  0.5844792861216670  0.9987519685295462
  0.2476584952333098  0.5876507560953793  0.1624457243086872
  0.8338035360493835  0.1645586470548161  0.5009854991493332
  0.0782017346149961  0.5031287594437646  0.2505380467093951
  0.6660846273140164  0.1632884093435262  0.5009454890060162
  0.6649372359179910  0.2460103086284999  0.5842512915679500
  0.7497497749789663  0.1632969323559903  0.5845319759264526
  0.8334866940138147  0.4167622492336552  0.5835213188064488
  0.7497123133564092  0.1651133331234848  0.2479155509547206
  0.6655786741208762  0.1649697412086170  0.6687455291848209
  0.8338630802658130  0.1650579255103475  0.6673753827628108
  0.6650875803889196  0.1664204969851396  0.8349903985979406
  0.7502672237842812  0.3313198003350581  0.9169454568503923
  0.6680253880503476  0.4161347486268662  0.0809818117183826
  0.9170718009201930  0.0828968543988727  0.8338013899082298
  0.8337647118160939  0.6672590003040263  0.6679857207960432
  0.3323852277588124  0.1633690226438013  0.1637767017580611
  0.8321399053251646  0.9995623355512938  0.1645838499471647
  0.9968838673201077  0.2480892340788235  0.0823547332137585
  0.7499423785737749  0.4999003773781802  0.9167727412989014
  0.6690171394252412  0.7503869205827965  0.7534513657919403
  0.8328250145659908  0.5003663831203384  0.9990100212358436
  0.8317202112494221  0.5835134982022936  0.2502220051191808
  0.9147981577601010  0.5840390052242415  0.3332630371888198
  0.1643817332435126  0.1650121437919575  0.9992270184421677
  0.9151740339740944  0.7511278664653593  0.3326865446667217
  0.8332659541963083  0.7514311960113972  0.4151770314995088
  0.9159856774318383  0.6680014959057743  0.4166295579105998
  0.8332164811313365  0.8351927100127993  0.3321182983656787
  0.9983587771209423  0.5840573014282507  0.5837130208727450
  0.8329199625232294  0.7509056499891416  0.5838664011677831
  0.9162017838644680  0.6681544127639605  0.5833281128188998
  0.6670967708599250  0.8334302278978875  0.9994636730758736
  0.0788683161026759  0.3322465301471271  0.0809189969468157
  0.3324921548669631  0.0817260228705867  0.2491390403590270
  0.1636612923075882  0.1652296562573879  0.5014701734856646
  0.3308216030687087  0.0004904423795413  0.3309408244997464
  0.3312921710896446  0.0814308589378849  0.4161059324331716
  0.4142284111407148  0.0009053865213839  0.4126512921824872
  0.5009572808144683  0.0820054721440286  0.2473622532791504
  0.4142785214757103  0.0802975013413720  0.5004852824162063
  0.1646900411981509  0.3333816819031656  0.6675588652383813
  0.4117274649137195  0.0024945189756776  0.5866295601685620
  0.2479798898077764  0.3327801960240155  0.7502177905537742
  0.0815729661774394  0.2493846344188365  0.8322840159771502
  0.2470779540688618  0.6666315199029055  0.9165566412939373
  0.2474580010358541  0.5006210889595479  0.9156353791334745
  0.1631545103480709  0.6669433440728053  0.6675159331138795
  0.9163332118462251  0.1646617475078330  0.4170014553859904
  0.9151650521652175  0.3333999558930747  0.4186454794642838
  0.9169469873577656  0.1658786539286681  0.5836153236644653
  0.7489063554583250  0.2469060319510214  0.5048538370731384
  0.9168800473203673  0.0820103628278059  0.6677166793089481
  0.8344042791842685  0.2480790269887994  0.7493496146254572
  0.1646958045571407  0.1659183569698873  0.8334760581634333
  0.9939239301481280  0.4193038105240415  0.2513288579789331
  0.8349068019748666  0.1667713737470884  0.8340056951442717
  0.9990929434799571  0.3341547759755898  0.6666124293676184
  0.9170527637347459  0.1670667717886817  0.7501409826067366
  0.7497002291241768  0.2508914710668395  0.9998039785003688
  0.9171585340229111  0.0823055276534430  0.5001178853536492
  0.8348138006265081  0.0831526388950216  0.5840321020352279
  0.7505755837645551  0.0007083977016678  0.4148953047229590
  0.9163850555930797  0.0817489441228541  0.3328200553057389
  0.7506505968529793  0.9178546092014971  0.6734200414686213
  0.6669256473722479  0.8340814151166989  0.8348547252452149
  0.8328334202260645  0.0009641632342109  0.9995693103435879
  0.7504951908643391  0.8341954562536829  0.9167605253376174
  0.8339053222918235  0.9166743363756199  0.9174036495135361
  0.1627117472587043  0.3313796947149210  0.9974667310874721
  0.8327254454143344  0.0830781110154087  0.0821830929259440
  0.8337987745445677  0.3314826230287580  0.6657157387392495
  0.0812231739901312  0.9164137317418092  0.6676931513096522
  0.3278155079266876  0.9193163121561465  0.5848393012178286
  0.3287324556688884  0.9193821193753386  0.4127395543018605
  0.0808990048242626  0.8339969097487080  0.7502380817514418
  0.7502128473612047  0.9996112767012463  0.0810866488221745
  0.0783030185616319  0.5024869804271378  0.0807428612822212
  0.9978305814645713  0.9166851898541583  0.0822896105156981
  0.9150083742814051  0.0000319454605910  0.0827865237061959
  0.4984341163804096  0.0022151585438416  0.6713034184730333
  0.9981874462032644  0.2494648669585890  0.9163773300742599
  0.9163682665644411  0.9993391999889085  0.4164919566740465
  0.0817951384515142  0.0827937734272079  0.9990981087750056
  0.9157230321076114  0.2497329727761533  0.3335549039645661
  0.8340537655324576  0.0815978617118870  0.4156465436402451
  0.0815033930382543  0.0828758753827698  0.8338653345720261
  0.9169050668266473  0.2492029557864300  0.5008544259367718
  0.9141130585219698  0.4166178707513052  0.3342540807876413
  0.7502774848473812  0.4173521032437746  0.5021760833467455
  0.1656529604224650  0.4178100330737434  0.7505978485395308
  0.8332036118690286  0.6678247905918046  0.3327466454814254
  0.9983500280097264  0.5837017918369765  0.7496879829351687
  0.6665712194941377  0.5848340168178491  0.7521961716426334
  0.0805971479507999  0.4166575727112686  0.8329844435803525