 C Cr Ni 
 1.0000000000000000
    21.1200000000000010    0.0000000000000000    0.0000000000000000
     0.0000000000000000   21.1200000000000010    0.0000000000000000
     0.0000000000000000    0.0000000000000000   21.1200000000000010
 C   Cr  Ni 
  17 259 605
Direct
  0.2435935986246388  0.5112408176691107  0.3379486385186121
  0.5897093139570555  0.8398659275339452  0.4950418667564904
  0.6691122875503325  0.6663917097227539  0.4146825509163186
  0.4092178279190411  0.7515484634480306  0.4087052178460850
  0.5920628743630221  0.7494602776106351  0.5910109114091857
  0.3348600490245373  0.4203111661228043  0.3421758749558849
  0.4258787011900321  0.4234053249158847  0.2479316695373713
  0.4050355548097235  0.7517760258421479  0.5931241987704220
  0.4982937814053526  0.7484028777271525  0.4967073121594344
  0.4223598783472090  0.3294249869988389  0.1563161644316761
  0.4971094628856782  0.6573628715078840  0.5913543690634049
  0.4983182582270315  0.8437071518204742  0.5912397379647872
  0.4237810441590661  0.3270834446769893  0.3426027179051616
  0.2426723474490036  0.2403607359081699  0.2509481270065020
  0.1532837527725830  0.4161790305783666  0.3392756446818769
  0.3329183530921868  0.3292425771805457  0.2476241945486988
  0.2417833657218521  0.4219468243795826  0.2427516435692154
  0.3316337526225093  0.6685109975811750  0.1627130012394213
  0.4081933188640698  0.7522650845189655  0.5003283762725196
  0.2450433096566544  0.8344642565031162  0.7531277770791637
  0.2461595822983277  0.8346356547007981  0.2475542889095148
  0.4147392172046816  0.7517459483647192  0.9979811357444344
  0.1622652310661673  0.7525838175643947  0.5836874344500647
  0.3314312322639096  0.8368886455415355  0.9989516083439127
  0.5828592506030050  0.9179801405986510  0.8363772211006195
  0.4149251524345620  0.7523593419447064  0.3207506245717411
  0.4144842887231587  0.9208867259604033  0.3277217927261116
  0.4990362072870200  0.6576471096828083  0.4986689242020332
  0.4090126479907858  0.8418680346908115  0.5859436975979826
  0.4986470399874143  0.5011365794849162  0.8347178458189266
  0.3345262142978298  0.5099145164009812  0.3350299753456153
  0.0775214332272890  0.3320789995675920  0.4216516090876784
  0.3328817482707005  0.4146603682073555  0.7515698446286913
  0.4133003603608929  0.4989506673400592  0.5863517111498086
  0.0812743106024683  0.5839616811248454  0.6681088402110511
  0.1625840264018216  0.4153033731216514  0.4277060904413579
  0.3335550626348874  0.4204423725472193  0.2482261873940581
  0.4182619438406158  0.5131969573122653  0.2474634791499450
  0.9982738823276187  0.9167124479603616  0.7504586359474313
  0.5819639978028442  0.0016196392685898  0.7546753520622782
  0.5829660945507558  0.9170473175948692  0.0001821650927703
  0.4133132449378423  0.2507046170679674  0.8361134993983816
  0.9934325334257610  0.5027825318695406  0.3322208792138527
  0.4147573954852503  0.2484543821704605  0.6673877280145224
  0.4993378773005001  0.4158025902733192  0.5848184103312026
  0.9988377727732717  0.7516232662826998  0.5826894143677304
  0.4236170285934634  0.4181664319907041  0.3380643751115314
  0.4183999032402965  0.4214145278597752  0.1577353596062630
  0.5823789321655528  0.0838825488079178  0.8341324404072187
  0.7505685551802169  0.0840197477064670  0.1638331159707433
  0.5869067441943916  0.1653525616612604  0.2488857604915845
  0.4168139497488544  0.0820205377458669  0.3320205249744337
  0.4139815427352000  0.0006656669480864  0.9186072136668750
  0.4985467107331084  0.9319392688697014  0.5852481248770423
  0.2446923904516575  0.5997025685760835  0.3314741819328501
  0.5841842457639986  0.1635082275360233  0.4191484103734023
  0.4130506689647032  0.0824559332398035  0.6689278956447655
  0.4994968619211140  0.0835206112248322  0.0807224188452144
  0.5822401583864317  0.1641400996598718  0.5844117778221999
  0.4972255850129412  0.9994988399166657  0.4995062524820107
  0.5832385933420837  0.8348418029415197  0.2463725767038007
  0.5852032774286366  0.0022512401343006  0.2468225943796510
  0.4177166009511805  0.4195945298942402  0.5061168543371165
  0.5828914476115500  0.4162478738847348  0.6689312753947741
  0.5147420580771679  0.4154183577850288  0.2467271230577130
  0.0806736760563102  0.8317177734317883  0.5829102402779421
  0.2473195638096767  0.0807386878513113  0.1633958996957713
  0.3317763425383508  0.9181244069291145  0.9181492667141569
  0.2461310921564212  0.7503740142648820  0.9990665189174839
  0.4116684240103200  0.8352246847334661  0.7531345108793304
  0.2444764627369566  0.6678220965394881  0.7531603116287333
  0.3269025893701124  0.5825687829444250  0.5868003581435467
  0.2474759131775094  0.8354927559330765  0.4141195812439007
  0.9151663069286822  0.5848749631217663  0.3335402123281700
  0.3201139237598650  0.7527823473429420  0.4141571183934155
  0.2461392702145590  0.6677788278326959  0.2447869810930437
  0.1646787484848107  0.7499284228487977  0.0807919589911320
  0.1645405536555449  0.7505761576970361  0.7512917962282437
  0.3317567602411918  0.5836829400004429  0.9166594759987692
  0.2461581491164768  0.6692475496526589  0.0791595905512521
  0.7507835826392013  0.6674524238156224  0.7524940475794479
  0.0795872913928135  0.1647311865058262  0.4192678595696186
  0.2467728320467119  0.4996764749484435  0.5856229690790548
  0.1541716688172639  0.5071029588339582  0.3332867135052786
  0.2471739315973307  0.4165553755838376  0.1543607358994050
  0.0816181801760678  0.1674971954281399  0.9155237272380944
  0.1622488200544460  0.9185726652858520  0.7514867864292211
  0.1633214996109069  0.9986285376744535  0.5001756308236361
  0.4153776043074795  0.8332447289396984  0.9184760632316988
  0.4227741096143022  0.3319091953669381  0.2491534478349995
  0.9997680298025923  0.2486977746719321  0.7487445377914981
  0.3312615425417060  0.3316262893895058  0.8343228352380416
  0.3319740620876153  0.2500369567682921  0.9156372813581978
  0.3298072010605322  0.2478060239171395  0.0792535235720048
  0.1620316870427715  0.2477844015864773  0.0810199347332085
  0.4180231930495249  0.3316605314003123  0.4336396228559187
  0.3301646240880776  0.9997634082510907  0.5001115205279063
  0.1635235549839395  0.1653958213816905  0.8337598761607861
  0.2461160767713186  0.4177794255153228  0.9968966357946610
  0.9136304053017954  0.3317606204154835  0.2499270198364847
  0.4077822593699273  0.6615583627653002  0.5850166588634592
  0.5022110101940739  0.3304689622390520  0.5014561497191837
  0.9145862979419230  0.2514250911700418  0.9986581332042082
  0.4993079024326910  0.5838525490743510  0.9157984378946938
  0.6672088983784750  0.3326696445440741  0.8299422996868204
  0.2465482183976551  0.4996380893410816  0.7519968915333066
  0.4999053849794908  0.6659448366875065  0.1642789337639102
  0.5013766455230644  0.8354587900874342  0.1660178101190668
  0.8331704143307084  0.5006626787883840  0.8322217239095012
  0.9977394984757860  0.3315812428070982  0.5009814612262841
  0.0814994711854481  0.7508391887463962  0.4988199903075576
  0.0773019212483704  0.4147138059137050  0.9980751438305955
  0.9971268003903715  0.4174725574239042  0.7495840981542859
  0.4177769733063614  0.5013994335414376  0.0783148745409372
  0.2469199019186497  0.0820063452181379  0.9988944842806938
  0.8321384768876132  0.3315382843796064  0.5018897591491172
  0.0806440692799906  0.2496131736364843  0.6670199653846640
  0.7508167165434564  0.2489990897692150  0.5018540308664504
  0.6681960098252236  0.0835076122246122  0.0804838994708191
  0.7521688767366507  0.0000458242755006  0.5866066845707673
  0.8321067422696958  0.0824919851981467  0.5840009508959666
  0.7496552062289644  0.0815890364760823  0.5003678885330918
  0.5845243265774661  0.5825163491397790  0.6708912004731198
  0.9144999093463527  0.5000777293178034  0.0833368053743198
  0.8325439676723779  0.3329068572645251  0.8310465219710784
  0.9154713720982585  0.6674906111518266  0.0825854782384394
  0.7501380423256521  0.7509895389951776  0.1642994215970511
  0.1623405358938918  0.5819839341951237  0.9143306493096891
  0.3321090912235191  0.9167598884924804  0.0839309634794492
  0.7512342763439183  0.9216253734394046  0.4998801846466458
  0.4139448814718783  0.0831003823367072  0.8353736684931072
  0.9178039096237866  0.2506462559726970  0.8320520612171053
  0.1615518320650567  0.9180242037306027  0.0845105888860590
  0.9163384968087728  0.0826913043426787  0.8342508026284364
  0.3297005028894883  0.3326655133083316  0.1567544162124277
  0.7511949613839333  0.0012660061714400  0.7538373946197260
  0.5012100926717246  0.1627465570857744  0.1622083399839856
  0.8330513701109720  0.8341128373281362  0.8345981779623106
  0.3331111078093438  0.2399422088683548  0.2504837983229354
  0.9147269397082589  0.0004648284105780  0.5833812975442961
  0.3317320502735506  0.9978294193557166  0.0004303836020415
  0.7522767821722661  0.9183001240079615  0.3301857269309853
  0.2473217572253578  0.2477212808857273  0.3417088424190703
  0.5129484150157039  0.3303618424653246  0.3361923229268299
  0.8330515964628885  0.8341179394102641  0.9996293622318033
  0.0801521066257790  0.1643449467908432  0.2495347100030982
  0.4113646884564373  0.9192648972999713  0.4984372541498898
  0.6704555582002306  0.9233733971020659  0.5867903765771828
  0.8327397109445510  0.7508217033149277  0.2473914951819951
  0.7495472838987645  0.6679756947804212  0.0830686627931827
  0.9177073602386311  0.4996265927719107  0.7502636264345793
  0.5040604893686755  0.5831252292315273  0.2468195032781534
  0.9166966783450072  0.6671661528473967  0.9166763645419587
  0.7497602210016405  0.4157400340866331  0.8316759184175296
  0.9161230011628251  0.9176716187304939  0.5009633125386979
  0.9977904299435416  0.7520070299386367  0.2490147364186975
  0.9952981091658013  0.5834638206565881  0.0828306439160748
  0.9152813948435828  0.4992238693179656  0.9155036337680359
  0.5806832665183272  0.1652073060444687  0.7527952206421992
  0.7505883472976822  0.4964572325184883  0.5856262080966580
  0.9984082339724956  0.7520900525928865  0.4181686272180632
  0.8348025459008224  0.4995201030777591  0.3329575401140044
  0.7506124115407027  0.4153906310998079  0.9976727324607350
  0.5849729676075388  0.9292232517806025  0.4995753300457089
  0.5876553368487232  0.8398382143922790  0.5858608847853776
  0.4969078762008731  0.8409023870900818  0.4979519014552072
  0.6676632373984119  0.9167324590328569  0.0812130120764375
  0.5014378784965295  0.5822595445909957  0.4154167328897982
  0.6675794355328891  0.7517877969435041  0.0827289394449061
  0.3306202381248442  0.8355262701217111  0.1641061785731237
  0.5833545377727563  0.8327312298575643  0.9171710371795696
  0.4988126802120138  0.6651461747092109  0.8356115886315770
  0.6677905620910455  0.5830066492374322  0.9166533400937201
  0.5862415393973762  0.7495973260827407  0.6810240836282040
  0.4979534391698071  0.7508366209148474  0.5873986272477735
  0.7534030592222771  0.6653163010393339  0.5846257538196629
  0.5821314049347658  0.8363064507805046  0.4057401690446861
  0.5876193777818581  0.7498023110110716  0.4998085625465732
  0.1616580343119641  0.5847982254731319  0.0819129149985725
  0.4178138759552146  0.5836183286858766  0.1602413146930880
  0.4153506084238924  0.0017215429343658  0.2480203582772784
  0.5861897778417148  0.5005939897682813  0.0790515539114147
  0.6681741429029826  0.6668934681538977  0.1642301314433197
  0.6678942975928353  0.0824115089533078  0.5857276757509396
  0.4118348612612582  0.7513453394877424  0.6829740896596018
  0.5025073888507018  0.3330627463911189  0.9967467539721259
  0.7508957834710063  0.3304780069177422  0.7481276427737907
  0.6677024312963811  0.0026782861242670  0.4974504077287003
  0.7498755249663854  0.4984618065829028  0.7517823339036862
  0.7590869931629893  0.6672256361886970  0.4159433777388634
  0.6698320640028985  0.4998459263673602  0.3328158055193612
  0.5863532330876032  0.6596767080770694  0.5873151764869842
  0.6659941582491913  0.4155253053698553  0.5868672139937544
  0.7481810419518906  0.4995011588887862  0.0830660530575848
  0.6642415601005636  0.3312149532167579  0.6702256349826409
  0.2467858175171699  0.0814567668464110  0.6677399851556427
  0.5865356073401984  0.3309487810696553  0.2500564957295577
  0.6673466955942814  0.0846504186126969  0.2503316955738872
  0.5110416152913211  0.3327001858572869  0.1656012819647590
  0.8331730726363511  0.3327925770005285  0.9991017480791694
  0.7511372677115495  0.1662152238208398  0.7525620502891353
  0.6678165613773717  0.2474410459029615  0.2494052421303340
  0.2469776678571045  0.2471545175777273  0.1588448148871079
  0.9968630211564197  0.9991928292999823  0.3316048198995920
  0.8324981661785597  0.1672158262452158  0.1655684779833865
  0.6684712712560921  0.2506114618651694  0.0802561570329044
  0.4170411583767364  0.2383650128281321  0.3346900048630592
  0.7488761422568225  0.2493904339403772  0.6671053335833542
  0.5831923663119549  0.7507884895231656  0.9984594984387674
  0.8345232875157927  0.9998001566172525  0.3319347341393200
  0.1625598331391785  0.5006043282408749  0.8347011159003817
  0.3315563310229542  0.3292498130884665  0.3387459404446524
  0.0816367353096585  0.9980534155299671  0.9158987552431498
  0.7495304747774629  0.9173360131039054  0.1643298232699951
  0.9142058139868563  0.2485070277531402  0.1662041863422404
  0.8332773539164291  0.8346312219764599  0.6681545342705307
  0.1632274013942722  0.2480132374202194  0.7489341018684921
  0.0789008167620901  0.8335199223319594  0.2479778252722348
  0.1647058877341999  0.3330691036557588  0.8322285486993560
  0.2451016329567150  0.0799100926771598  0.3347293361814511
  0.5004361315022394  0.7527009080783277  0.4074042275081007
  0.3301891498302847  0.1637680921613751  0.5025952154405026
  0.1533954510929772  0.2474231452080718  0.2488663692629487
  0.0793611566394060  0.5850781318700580  0.5019501771025577
  0.0808001207000828  0.1655620221100029  0.0812123645435827
  0.0813708740371017  0.0811194560025861  0.6663824587550595
  0.7512327033359344  0.4163474059624430  0.6687662204547334
  0.9170438097623320  0.4990171819008001  0.5833463256511568
  0.0799659579554261  0.8332196317211483  0.4169574432518336
  0.1631563089613288  0.7507954667740688  0.9182687671597597
  0.0809086030900514  0.0002082277893022  0.4168159761774721
  0.0778084404394302  0.4174141685913317  0.1640912699271172
  0.2458948087283992  0.2496220642094718  0.6670945233215232
  0.9138478380798378  0.0857774990803291  0.1654348399880780
  0.9975989304138825  0.3333296520281093  0.9999433294001083
  0.1635767021308714  0.4172166790519550  0.5839319778409747
  0.9167612918517614  0.2491482896761661  0.6663681346402095
  0.2456231074116688  0.5106085993711982  0.2456312488264225
  0.9950228013496210  0.5853216813601956  0.4170851437755304
  0.9977009749799821  0.8336781609533375  0.0004584399748365
  0.9164686509418704  0.0825531026833590  0.9990459321723520
  0.2439511347390027  0.3311580668661469  0.2466668722888707
  0.9968647036726506  0.4189059184904665  0.5852908627296204
  0.4157244459197596  0.5849756869726586  0.3315881598601956
  0.8337032181906574  0.9178437302089374  0.2478765710880573
  0.0805241347283649  0.9171672054111036  0.1643995046866683
  0.8341298116247480  0.0826514391193159  0.7521751899821770
  0.1636450814443220  0.9996910860811088  0.8340561602903761
  0.0817194438380344  0.9989470521184782  0.7521785554681996
  0.9962399722987328  0.7496767714885105  0.7499933278372469
  0.7506470582528455  0.9173147696453529  0.8349012159809083
  0.6683796971239475  0.3324947697259467  0.9970193267292717
  0.0814864467504414  0.5838696955764815  0.8333175809614500
  0.9980200523878220  0.4150801235700199  0.9163447165564775
  0.0781240938218950  0.3313904275640776  0.2481203841911846
  0.6695507916017245  0.4160104906301775  0.4195663339636110
  0.9962634588075556  0.5824716045362972  0.9172776156799284
  0.4162560055634523  0.4158641522714426  0.6658373324161486
  0.2444548981801344  0.4201501341358075  0.3342908922713030
  0.9143168537389077  0.9172862334831473  0.3323400402532715
  0.1645164843180009  0.2475785397793711  0.5868150569941289
  0.1519985528004573  0.4166982671652246  0.2475700600589885
  0.7513066221348174  0.0009600651844315  0.9164014354983985
  0.6690998804868599  0.7506562577761789  0.7525336305033540
  0.7535949236176518  0.8357846592650006  0.4132431326069846
  0.6632076683447434  0.4171478622193907  0.7496276403539668
  0.7491838321610013  0.2501281086114968  0.3353239316424149
  0.6698775116195679  0.5009061267385480  0.1642791137208239
  0.1627577476891506  0.9194123969580463  0.9163824521627582
  0.0810996839316423  0.9984549490726460  0.0833549365631541
  0.9141409978923669  0.4996991348516767  0.2505223887826228
  0.7505856052982709  0.0836770828034933  0.8333940383443313
  0.8332628280854891  0.2489634924705869  0.5822956270712640
  0.9178129590287782  0.6697010628503524  0.7509106758766375
  0.4993736668064769  0.1651606511163718  0.9994291863968827
  0.9982450143166103  0.1656492035577518  0.5005528446763928
  0.6686421194510765  0.9188876655777994  0.4133432379845675
  0.6661031687783775  0.5002596656996771  0.6685128143124313
  0.8338990722406534  0.6670000608341926  0.5018292931650915
  0.5836127146991478  0.6671831615049204  0.9159253440535763
  0.7518203313292171  0.5825517322610020  0.6683468470738791
  0.6682357569879545  0.7549846467191196  0.4134729792403343
  0.7524784317227670  0.5823240495561154  0.3325766100517307
  0.4983599376670755  0.5722006899829277  0.5863978874355414
  0.0682151061788439  0.4156319667378763  0.3347444707258725
  0.5855309747376658  0.5826337115832109  0.3316575916695169
  0.8322708982951764  0.4996352210337275  0.1654370067087044
  0.5013645194249093  0.5005126977071983  0.5006297466033779
  0.0813762666052491  0.3334427742129193  0.7498232250547353
  0.7517095927359021  0.8373701374921945  0.5857013918328929
  0.7526978924057734  0.5822047114713057  0.5016881106148554
  0.6687900860995919  0.4987290799114971  0.5024208959236793
  0.5842207873597822  0.6676951772698424  0.0814975959114772
  0.5842545357485823  0.7503106243785156  0.1646046217213764
  0.8325803781771773  0.9176230942687575  0.0822653059655198
  0.5001842277046361  0.7506812301350463  0.2459292060105361
  0.0793821977825531  0.7524373940157899  0.3330436624617739
  0.6677343220356037  0.6667365186276591  0.8345429956569610
  0.7531178981208900  0.7503306081321952  0.4993579619656073
  0.6702451555103657  0.5821508222517933  0.5858271972998554
  0.8335027800065702  0.7499707411428218  0.7516002284210713
  0.6698977825073220  0.6652171243841410  0.5034848290750247
  0.6671512492885232  0.7508064848606438  0.9171652046967874
  0.7520273897343669  0.7512335286378765  0.3307047447374842
  0.6698096760352665  0.5788571332075655  0.4172223892795129
  0.7495576983630915  0.6666703681397119  0.9168836515754061
  0.5838841364146730  0.9193977881010563  0.3289183965725616
  0.9983104295331335  0.3334117328580163  0.8317738993997394
  0.7517013211064403  0.7504059575114209  0.8349373812567467
  0.6681267728239652  0.7515105739583096  0.2464163950497979
  0.7508603067775043  0.8349354353237053  0.2474475636009054
  0.4982958493395966  0.5821568802477318  0.7535519100518561
  0.5838580325159629  0.4999354825111796  0.9157623449663271
  0.7510635858380048  0.6674960720372362  0.2477302899246539
  0.9982744570165664  0.1646144183649588  0.6669032211521093
  0.8329485998644764  0.5828993866789363  0.0828194736602943
  0.5832392318677824  0.8336535284663047  0.0819756021857865
  0.8326097522243227  0.4156178837934649  0.4168840040129844
  0.0782099302267285  0.4176258954506825  0.5027552030798005
  0.7501478474111443  0.9172858622361295  0.9993603074583968
  0.5834120802468593  0.7516251751581381  0.3276786990001074
  0.4161655493608753  0.6659017754914405  0.2465690595649516
  0.7511013829779167  0.5837898704038659  0.8339482452805300
  0.4988118556255233  0.7505271120404814  0.9156555385663767
  0.4997873062812135  0.6677774910809663  0.9976625527828265
  0.4157679059977545  0.5845037937766083  0.9980577846286492
  0.3198696186395807  0.7515300718770065  0.5848627761826911
  0.6669090987665368  0.8342354465478162  0.9991461714596296
  0.9968289746862860  0.6693188986444319  0.3338710446742115
  0.1642947830647168  0.7522894028306847  0.4156405989833459
  0.6699832847058107  0.6647265095230849  0.6703853196865820
  0.6674519462981725  0.4153225116630196  0.9146468488774180
  0.0797544008190645  0.7508143247107381  0.1649154154492219
  0.4988266121960128  0.2492462357700315  0.9161617330438154
  0.5833439202318687  0.5829275529981474  0.8351795872330240
  0.0806067052903869  0.7502851331516261  0.9995374113548022
  0.4995105423842456  0.7506843137221063  0.7565777325491606
  0.5864425568856463  0.5814520038852531  0.5001675979056260
  0.0806310394647974  0.8340498799856730  0.0825171121194112
  0.0800777324719354  0.6667885475654429  0.9165256085403358
  0.5861758049752087  0.3320694334582011  0.4205455883301819
  0.9983838388558336  0.8327490741452029  0.8331679192920276
  0.5831738641895379  0.3311007111996544  0.5849551256685506
  0.9985888468588607  0.6672898229289576  0.8336787931213988
  0.4982224686542133  0.4152069770569939  0.7508768560784556
  0.5818639158927110  0.2485015400265360  0.8336424165117812
  0.1632762862502701  0.6675621482692156  0.8348806159792105
  0.4990131111560451  0.4983598222740828  0.6707831319910288
  0.7496192231533081  0.2492159232017294  0.1657915555734155
  0.9154087424141304  0.8336932989050122  0.2478724553692221
  0.5002809425590399  0.2482326630296065  0.0799208553958343
  0.4139411843678263  0.9175505505827017  0.8358420852274950
  0.3289239010079913  0.6668227038183090  0.8352893952682082
  0.4999101099449502  0.8335118164008026  0.9993832470015345
  0.4979867680894776  0.9190647625813475  0.7540347984373472
  0.5859278665829226  0.0838587551788237  0.1637028741700235
  0.5831297909446824  0.0019737843204525  0.4138297918314521
  0.9161609790017132  0.0004536481648419  0.9172733603480214
  0.5842631721706694  0.9184734393125857  0.1643744318344163
  0.6682553111858547  0.1658766083248931  0.3344121208024687
  0.7497228876492830  0.0839595804463354  0.9986291500137595
  0.4986261140812622  0.8347532425026920  0.8348460959765106
  0.6676143972837766  0.0012442306876580  0.1643106300881376
  0.6671398649195995  0.4162833441375149  0.2496932468820414
  0.6679472573516952  0.0007335111588807  0.3311258399066349
  0.0757567621898248  0.5864434301128054  0.3334120028818244
  0.7505226167495125  0.5829487516048685  0.9994002666174888
  0.5841884387820498  0.9204790431972470  0.6706646413995508
  0.5844151870166073  0.8365701136470000  0.7548341293525294
  0.0803363270843204  0.6672063483169682  0.0813506511544528
  0.9968314588970524  0.6677711113807040  0.1646683318086522
  0.0775929448795294  0.6694892711720679  0.2488150959958630
  0.9151089322761679  0.7503149410509133  0.9996541818465730
  0.1629750547698316  0.4165014559392262  0.9161086985407643
  0.4986448881302416  0.9168735925769588  0.9169499121268416
  0.4996675787311942  0.7509283426045440  0.0822471717704053
  0.5001588011630987  0.9194249296665559  0.2472122420640231
  0.0790027396250496  0.4993022840343098  0.9172480542448631
  0.4986525188752414  0.8374190084811005  0.3271200276231533
  0.4978378957676561  0.9205282181578111  0.4128830241238939
  0.9972513138226565  0.6666167257186995  0.9997400428901287
  0.4128790048071235  0.8410838763829976  0.4127792102814243
  0.5837685057665523  0.2495101253704588  0.9984763118500201
  0.9153092220434217  0.6684670494495366  0.2489916179877825
  0.3274276540176410  0.6666135880471902  0.6717868489886569
  0.5034042887240934  0.2461726601066524  0.2493015380556099
  0.5887847865287565  0.4182545098161076  0.1616797147020484
  0.7484875026177636  0.3314072733056290  0.2504975984251233
  0.9952303255783831  0.4159707678266650  0.4194950483110963
  0.6664261062914957  0.2473664119120024  0.5848665958823651
  0.8325682095742412  0.1655778387889244  0.5012109353377656
  0.8336359323198786  0.4159753921251023  0.5848464407097691
  0.6673574307510725  0.1641720684720355  0.5015096684282705
  0.6665410303801388  0.1650607022007953  0.6687257521046601
  0.7500760000154378  0.1653190233537140  0.5844241355113362
  0.6658197820698369  0.1659083373870258  0.8334818632159480
  0.7500819770077575  0.1662736078006700  0.2496713065537464
  0.8343413988480881  0.0842340322025493  0.9155591379100299
  0.8332103316147786  0.1657611865081861  0.6673860856490407
  0.6681912637456657  0.4154156761668970  0.0801222004467770
  0.7504137766493706  0.3321029338981560  0.9145020284681573
  0.5845014291377235  0.4988449334154504  0.5855217471347939
  0.9957921641914007  0.5004046583939313  0.1653091678772515
  0.5835903321754620  0.3322633344141457  0.9150160566302570
  0.0793841876625502  0.5836112000879344  0.9986580001496045
  0.0767399485809596  0.5035729392928521  0.2474224516118660
  0.2462431360520417  0.5867467631250314  0.1619525172661992
  0.8326873594794347  0.4998226748214253  0.9995245186296295
  0.7522553789038379  0.7503733401086187  0.6703805638158983
  0.9157418096475545  0.7514244730215379  0.3320034262542412
  0.8326736413402095  0.5832664437485511  0.2492094689386443
  0.9151670454670400  0.6683424824510615  0.4171485819702246
  0.1635086899192320  0.1653631694790817  0.9988036668601267
  0.9982321309246465  0.5840111126764780  0.5842834899752565
  0.8333897839845492  0.7523214174406709  0.4160667069130272
  0.9164501266448704  0.6680648739619307  0.5842808393620229
  0.8341158733284921  0.8344140490238979  0.3309194199923198
  0.8335625820899950  0.6669435997592572  0.6680640993829242
  0.8322959115754552  0.7514835251593445  0.5846567955230518
  0.9979081062008814  0.1666143346903714  0.9989177988727780
  0.3311490729234475  0.1628588578091677  0.1634604505769324
  0.8323063742764288  0.0014827480951950  0.1648841046259435
  0.9972834148133360  0.2489792615480997  0.0818312318711855
  0.7505695643346887  0.4987990743062211  0.9150778463103388
  0.5870775180190505  0.5013778627064437  0.2485516579145320
  0.9990998080973561  0.6674561717347427  0.6670230949725066
  0.9985097395234863  0.0816393005183967  0.5830849108485016
  0.0806917008874591  0.0822308375892957  0.5004432961985057
  0.1638861678364438  0.0825312922248495  0.5840979831837319
  0.8335858934320771  0.0001333613286683  0.4989735448995490
  0.9984528583720443  0.9174097963364632  0.5833118496126629
  0.0796730015984390  0.0822917415011309  0.3345113742574883
  0.0799280108156765  0.9164489552789955  0.3323784873430201
  0.9979834415332698  0.0823409417213531  0.4171535016978496
  0.9149079743262332  0.0014944635625600  0.2480149729897647
  0.9975443430018899  0.0009299864645646  0.1653832327358203
  0.1638125443834192  0.0009328828136609  0.1665235072371743
  0.9971213398387359  0.0836264761391635  0.2490100683687381
  0.9972193754289157  0.0839454202023283  0.0820014292176562
  0.9969847776983262  0.1661723274707232  0.1654073863199578
  0.8333156305732343  0.0830448180016727  0.4165828235731053
  0.0811347598973235  0.0825743602447092  0.8340681675202359
  0.9154341564941858  0.2489083387362482  0.5011851536341091
  0.9153797615840732  0.4161218243412630  0.3338497622523335
  0.7509606912430364  0.4154521799246969  0.5021780871599926
  0.8337247729904720  0.3316528990045801  0.6664954535509913
  0.0803761841416784  0.3331909126237755  0.5843778325609931
  0.9149926075773736  0.4159313639155241  0.5012405415826729
  0.9988335647389471  0.1658002891634906  0.8330090720144273
  0.6672870188444381  0.2479776820188301  0.4186245150736505
  0.9158861685853134  0.4169673779673712  0.6668366151502718
  0.9166332191806913  0.3325298766661215  0.5840377678950841
  0.9981962845388926  0.2485725305442074  0.5844440198243243
  0.8330200089142187  0.4155373306888518  0.9152811407547008
  0.9153873003104326  0.3333222195392993  0.9154429799645667
  0.8322834958655824  0.7502381996522309  0.0819285612391043
  0.9162865862222206  0.5841252530613057  0.8330429692634257
  0.9142405756086873  0.5837175400760802  0.1658754134361292
  0.9970790438590136  0.2480929249940707  0.4177906508000382
  0.8338071895339541  0.5823317128165698  0.4169219404101633
  0.9147586604567647  0.4994401372540820  0.4172958918412148
  0.0790065380803516  0.2479471921830848  0.1640048040286618
  0.8331793902248622  0.4990535904644133  0.5023260553420714
  0.5830934644225091  0.0814002782881266  0.5011108264790816
  0.2461703300404642  0.9182192646975912  0.4995536186498080
  0.5828326062346811  0.4161384828124058  0.8337962610920350
  0.4139666599837315  0.5822868230572892  0.8349646382593002
  0.5843961988154853  0.7504585508962053  0.8345022491939260
  0.0775953395085361  0.5019258754996712  0.4195942166424588
  0.9967510770818346  0.3318407451894936  0.1657472867326499
  0.8338843545763569  0.5837985974305191  0.7503709479771575
  0.9153112422468703  0.4161367831047361  0.8324846850798447
  0.3294043566274433  0.0007753892581105  0.6697825055756418
  0.4154370937929486  0.3334472897643174  0.9178711585626305
  0.5013663688592696  0.0017666017763682  0.1646109174344722
  0.5852184122976437  0.2468269280601028  0.1637627461177996
  0.5019915652638092  0.1634897338845041  0.3329139917892895
  0.4164917302445322  0.2447759750965782  0.5034850350032052
  0.5860015490420195  0.2456960538124237  0.3347850497369200
  0.1631107836771145  0.0820559706977936  0.0820847527213434
  0.5843060509953760  0.1665352752845266  0.0808415914247034
  0.5000626940640877  0.1630221659352755  0.5022668994825696
  0.5839090885315116  0.6670155845607638  0.2468681472149981
  0.4990458866963917  0.0825824454445271  0.4164046537130183
  0.4979248248358533  0.0812171774057032  0.5856835790062268
  0.5858407759264458  0.0038977465976420  0.5883329260021350
  0.0789977967468810  0.9994613946615578  0.2486414188743886