 C Cr Ni 
 1.0000000000000000
    21.1200000000000010    0.0000000000000000    0.0000000000000000
     0.0000000000000000   21.1200000000000010    0.0000000000000000
     0.0000000000000000    0.0000000000000000   21.1200000000000010
 C   Cr  Ni 
  17 259 605
Direct
  0.4095338061860416  0.8345692323163898  0.4961553359792114
  0.2374457218572652  0.4237026390393688  0.2470012682714239
  0.3246971499798333  0.9236713700178877  0.4986025667086334
  0.3289464224623861  0.4243939455003288  0.1554381835631531
  0.4232991949625383  0.3291932043297989  0.3421464923980763
  0.4986759744009314  0.8364387253015650  0.5914016626747681
  0.5882199877866402  0.9257083719157844  0.5884359356299250
  0.4218869624648306  0.3292667055842933  0.1558467437173514
  0.3308118213536874  0.3292698555226506  0.2479980653307311
  0.4060107871080034  0.7436265055930982  0.5918325749627560
  0.4239981715758190  0.4252121486790489  0.2484687112813000
  0.3310110136814635  0.4252528314439552  0.3427332558811659
  0.5920559755581429  0.7421847235469984  0.5901290743275819
  0.1644879861767977  0.9171132316835835  0.6663383792684737
  0.2393405297962377  0.3292296574714614  0.3428901832124084
  0.5924965604220259  0.8350011689032106  0.4931324935048885
  0.4996835874107078  0.7421206118698229  0.4940302604415354
  0.7485707784172383  0.5007824771236163  0.0830978154767674
  0.5860073994636043  0.5021677720484058  0.0800725151188476
  0.5846453840518238  0.5847945204653796  0.1644524970318070
  0.7520201176464165  0.6663438507738610  0.4161498560826198
  0.7495351216264762  0.4992502669220203  0.7518412509208543
  0.6684880455674063  0.0826062832555384  0.5855803435782378
  0.6694660845153161  0.5011584124860522  0.3329059675954436
  0.5017408391421635  0.3330637357424103  0.9987267572261542
  0.4138481234209995  0.7485524926813060  0.6823547979136516
  0.5839397096107565  0.6525985583215604  0.5867724365903002
  0.6662608167251156  0.4161172770710488  0.5852780609668961
  0.7494602125341950  0.2491119957037497  0.8331010748642075
  0.6685812799981977  0.0032100941444591  0.4946739783428011
  0.6648326152011470  0.3331974636004413  0.6674511264914079
  0.0806477513290492  0.1669955824457704  0.9162418596725551
  0.5864147336330127  0.3324754187328013  0.2495286749080173
  0.6677222726366466  0.0847464757617339  0.2488922660413070
  0.5106155053881009  0.3331822731801013  0.1652841415858413
  0.8327412520530346  0.3326368927174362  0.9999993207168979
  0.7511844493109479  0.1673844753683802  0.7521490889549473
  0.6678712963157702  0.2488096587650439  0.2487032650787393
  0.0771118888930166  0.4149297047699553  0.9975403216106414
  0.9971007250510315  0.9997944912404548  0.3313004161677840
  0.9134937529977331  0.1666059505550516  0.2494842227892375
  0.6681800225418847  0.2511592303331255  0.0807144140522794
  0.4159819328357093  0.2402024642149267  0.3330726424031246
  0.7500099287993186  0.2489594704137477  0.6676121730224096
  0.5829049718662467  0.7513582282196007  0.9977836962163400
  0.9996394903366714  0.2488298294974531  0.7496004170425468
  0.4194040323366182  0.5865686394548316  0.1619032942616707
  0.6673254463153065  0.7502845381341087  0.0835619580703712
  0.5889451219009924  0.7448096067523026  0.4992535611391590
  0.8321912390816028  0.7493269879486305  0.2484044195250971
  0.7486058334381668  0.6687481848813540  0.0827240488606557
  0.9162829414036805  0.5838338943701125  0.8336546260979307
  0.5039911658732684  0.5846787149298540  0.2493931939635886
  0.9167835637103259  0.6663525537567804  0.9163908615119417
  0.7490548754765952  0.4159668945066764  0.8326814653442036
  0.9153036529428876  0.9174712745327378  0.5000232973537189
  0.9151881879825648  0.6681363420868740  0.2490307697564888
  0.9960400240914520  0.5835730665729064  0.0836664799747247
  0.9148711001699392  0.5007709619886360  0.9159965967380037
  0.5818388537724859  0.1684035296286266  0.7530098143930533
  0.7521697115856032  0.4963627664752613  0.5854207563684410
  0.9984633084117274  0.7513647899322540  0.4177797770668732
  0.8344253255720844  0.4995014800285995  0.3330837937644270
  0.7506881101061331  0.4165409579333696  0.9991495503220822
  0.5854096731676979  0.7480632538754772  0.6796093051088483
  0.4993472327010736  0.7454678615192131  0.5871012759567319
  0.7535571799764099  0.6652952575329626  0.5847141903196292
  0.5845669758524328  0.8351227238510329  0.4041378285961895
  0.5855000688209188  0.9255109578871429  0.4964904131268038
  0.5879661033988365  0.8347775003832559  0.5839934000086811
  0.4995989204316937  0.8338804749808797  0.4973016033608232
  0.6671189314159667  0.9160259392133940  0.0816339150163708
  0.3311751380616639  0.8343295616089191  0.1654508227751328
  0.8333989090910811  0.0840393120443804  0.4157977881784380
  0.1628187746119824  0.5842794739883184  0.0824758291660975
  0.5828272818728948  0.8323699200261349  0.9169601024290058
  0.4132367696910746  0.6640097842771443  0.7523173773700277
  0.6673305256965261  0.5829372499647011  0.9166384247519719
  0.5024761295153455  0.5834411166025664  0.4147614029235910
  0.1631160944605005  0.5015960124191591  0.8341956599698446
  0.4132648937068865  0.8343695288121120  0.4053290869790434
  0.9964666592129514  0.3322151700955678  0.5004839320918042
  0.2464136287557683  0.0832622298737853  0.8349908252342958
  0.0800973280737144  0.0007308533034531  0.7519487258963368
  0.9967018858845208  0.7507029557122199  0.7502773352706966
  0.4138254911055017  0.6549384661966730  0.5867929884814853
  0.6678818688035089  0.3336363467277095  0.9982854144716539
  0.0800516878050565  0.5837462290691264  0.8330653946749932
  0.9983047557220831  0.4150926144252118  0.9163724546452566
  0.9966642616647864  0.3318391478063507  0.1654534575058408
  0.5008607206169284  0.8334752350411458  0.1672494737075470
  0.9957092642361387  0.5823355629168526  0.9166119530910557
  0.4167350560506802  0.4158631064600193  0.6659320783291497
  0.2408699521819699  0.4202608760666143  0.3367249596213707
  0.9151407380889228  0.2498771800479564  0.3322234707816270
  0.1642814000446462  0.2499321107245648  0.5859671745670372
  0.1491303305006170  0.4165829301389843  0.2504198203454058
  0.5017510646204169  0.3310899360888765  0.5009620221534131
  0.5000388874735874  0.6663663884432668  0.1657626691387698
  0.2465200010884644  0.5818869966379815  0.6678318415000002
  0.4996628773759543  0.5835011918138908  0.9158544378735171
  0.4177116963938183  0.4190734457381061  0.9966984939695801
  0.2467501334228759  0.2406260540726817  0.3342823895734819
  0.5008946238053450  0.1631166230029343  0.1630184805135196
  0.3290652575198278  0.2398289144265111  0.2509975004201168
  0.2478102571935246  0.0819830238153080  0.0002635301223691
  0.5121536668863462  0.3320253692877928  0.3352661037708212
  0.0798150468208164  0.7494311430463796  0.4992258708041362
  0.6673640082860343  0.3330198428385935  0.8319557110362256
  0.9156554837510764  0.2511025193035891  0.9998715330144785
  0.3298591493704374  0.3317519693879176  0.1584305090971178
  0.8332132672271776  0.4995896995946846  0.8333616777401150
  0.1641369826629656  0.1658452182601731  0.8340827816486476
  0.1620983294911749  0.9178270450721668  0.0840893026273359
  0.2450496022327172  0.4173174965545124  0.9955231136459983
  0.9160089584402786  0.2512354285350514  0.1663422191223161
  0.8335017769737730  0.8345888655220990  0.6680746172250451
  0.1652496621697200  0.3336144097597299  0.6676677070222682
  0.0803226245596012  0.8330183077629266  0.2487137927821358
  0.1652158571307044  0.3332174305137590  0.8326074246961583
  0.2448012411335108  0.0820669343593869  0.3328212685622386
  0.6786900087274377  0.9223478931907091  0.5846667022377778
  0.3309322341321723  0.1642435572577347  0.5018208844085525
  0.1616268996848220  0.2471640547588809  0.2478229826126412
  0.0787430129257325  0.5837451091413969  0.5007132062676504
  0.0814857492892846  0.1662048210800260  0.0816465178083345
  0.1626789935691827  0.0849551991774153  0.5836333749011278
  0.7504166472637773  0.4158107538206363  0.6687989042195150
  0.7497377413180851  0.9165527122243969  0.1650103569287953
  0.0791405056679323  0.8327537405093141  0.4163067133892212
  0.4173918255034855  0.5843526048154061  0.3329146765795014
  0.0802152908700869  0.0005908664883582  0.4160397205218372
  0.3311691320924278  0.3330066511856856  0.3380082260442024
  0.2447072683857145  0.2510592045190462  0.6661980516793727
  0.2470367347185202  0.0832223692554390  0.6681781890167970
  0.9980176428293097  0.3336864221567310  0.9999612720454019
  0.2462874927910141  0.2468062299286353  0.1641977923012715
  0.8335153935992318  0.2481086157141976  0.7504002735777097
  0.4150770077971970  0.0013513073110183  0.2487765486441038
  0.9965448313614390  0.5840452126971026  0.4167061398992796
  0.4166982010700103  0.9244254627908374  0.4970121876692125
  0.8346169752990215  0.1666933434630864  0.9998716788757298
  0.3322738733384829  0.9157410260599079  0.0843993255447935
  0.4149687549155701  0.0823582773580745  0.8356007138941466
  0.8324681699094126  0.9165251055016213  0.2475133810720512
  0.1623106250108605  0.2483340942874160  0.0811559276508643
  0.9151283540386413  0.9164040423099025  0.3314565490036939
  0.8322790845250172  0.8334486557496802  0.0004383939809299
  0.5862780444486674  0.1658202023120913  0.2483908722524233
  0.4992455661298149  0.0849004768339763  0.4146185403695469
  0.4139119175415070  0.0003586587972535  0.9178018104869056
  0.4959705103025432  0.9256965040791203  0.5854887671134803
  0.3280272537804086  0.5836074006082077  0.4191406202907141
  0.5843577878675785  0.1656879717319721  0.4165351737181854
  0.4153270636443874  0.0842214137568411  0.6697586501496201
  0.4986421957735521  0.0831588797432746  0.0817708813358289
  0.5830921063105429  0.1646966417493715  0.5838146327503156
  0.5850674355576082  0.0137197947745294  0.5854148997025546
  0.5845884788828983  0.8331109836245688  0.2482236040513668
  0.5846324570218083  0.0015491164720219  0.2469440335992237
  0.4191063713840062  0.4196672074278830  0.5055688751858149
  0.7492434681381832  0.0833559203493337  0.1634182768740971
  0.5831070382110020  0.4165714458664342  0.6678077970029070
  0.2454388918283971  0.7491086243981624  0.3306202321980554
  0.1655614544704381  0.7486585961835828  0.0822565120936287
  0.1647657676821425  0.7489716985410684  0.7516463571351746
  0.5134024413992452  0.4162080579016612  0.2472058444675600
  0.0791230545778627  0.8295695548252892  0.5811024037895148
  0.2474791395965160  0.0810555224114377  0.1638480129256469
  0.3320719638823278  0.9162020636106618  0.9171976130869270
  0.2458118695216496  0.6665867220990261  0.7521864150608039
  0.3263903217621483  0.5812049715307587  0.5860597767797614
  0.3319929933935042  0.5834098387143037  0.9163643052939088
  0.4188213427182675  0.4208373262343901  0.1589653180385990
  0.3210190136398454  0.8331852128445770  0.4968774656560679
  0.9147257828728008  0.5839082018984880  0.3345515444328543
  0.3279888823306460  0.7495114764219635  0.4122309896917554
  0.5821062783836480  0.1674640527791122  0.9186376707745466
  0.3291063687647899  0.7504761629152772  0.7522954320560571
  0.4205840129404822  0.4203428835220092  0.3380224374542768
  0.8347604877285032  0.0825586949598794  0.7527543745385415
  0.4097526629867062  0.8346007246661034  0.5878329141450965
  0.4997730051610696  0.6530213484494842  0.5002650094804896
  0.4153410081312979  0.9198223810056381  0.3285010266547230
  0.2456790259983664  0.8341000042189981  0.2477172360937686
  0.4143741908041547  0.7518268463528275  0.9976987316947080
  0.3314166100604974  0.8352123195003147  0.9985526561114348
  0.3304022413918997  0.8355271044966427  0.8367008729902053
  0.5833510112013792  0.9177909245472113  0.8363143947985822
  0.4121136942056421  0.7496794376704952  0.3321139996773587
  0.4100346766784518  0.7449040505712394  0.4998623129625684
  0.3321253220150976  0.6678054854697033  0.1637601740814116
  0.4990231317514496  0.5002491051242562  0.8340397809749679
  0.1614123240400563  0.7507894117190749  0.5816930689748386
  0.3315324263961609  0.5151855261988064  0.3360165141595620
  0.6689036173440221  0.4164135373911629  0.4187414462821913
  0.3324755285561038  0.4158066913518861  0.7509878238345572
  0.4986300850062281  0.5824554199166598  0.5871891177392051
  0.0808558128312008  0.5830302058495237  0.6677107031007637
  0.1511778101959567  0.3325771990949784  0.3361072581942237
  0.3302271190806079  0.4211298943944061  0.2480659822952546
  0.4179623181301650  0.5156451846981409  0.2487309248457528
  0.7504101796663752  0.9177072783459564  0.8352765605360613
  0.5823634508134964  0.0001714500582479  0.7548990857437198
  0.5829313486687825  0.9169759984589874  0.0006111209119792
  0.4148763015280083  0.2499246307016804  0.8356645135702502
  0.9933214706559335  0.5024494218732516  0.3328251298600866
  0.4149247873377057  0.2493273809068151  0.6681417559757338
  0.4998506618167495  0.4162509084701743  0.5845926787244087
  0.2465711757496738  0.7500421630036112  0.9988416861928370
  0.2465390687003784  0.6680769570503259  0.0797024023680599
  0.7517646807265743  0.0005567087520787  0.9172985246041788
  0.0792309614792386  0.1659857401095219  0.4186140399374600
  0.4993410956292821  0.1642131076032695  0.9991080530431321
  0.8323325132407791  0.4169241221698447  0.5841037342282069
  0.0809237069553446  0.2504232700850447  0.6667986582637812
  0.7500107282259758  0.2492861294595174  0.5012580081022883
  0.6683502585946819  0.0827330820763647  0.0821198572013609
  0.8323887885848114  0.0825321881883240  0.5831723161434444
  0.7492214779352195  0.0827891765162344  0.4992024958693749
  0.5847584849550550  0.5827156596384646  0.6712691000394996
  0.9150029519946383  0.4996021727042003  0.0835515992773345
  0.8332709346951925  0.3327370761498176  0.8314919234193090
  0.9968438012625958  0.7515217457265393  0.0823470389720267
  0.7495596348240890  0.7496312004025023  0.1639045184394284
  0.1628676827061248  0.5814723974802800  0.9138002284687886
  0.7510809229767247  0.9207378080991273  0.4980819914383777
  0.3314464798080007  0.0813231311037424  0.0824357633837239
  0.9154093138373059  0.2508755253004995  0.8327751118196483
  0.9984511742734610  0.4163652332104427  0.7502228658843345
  0.9170331104941744  0.0825435211551048  0.8340119356609129
  0.9982493725146663  0.7513631308665388  0.5835906949514368
  0.7516274272722516  0.0019788185915016  0.7545726390377094
  0.0778428549246044  0.3333400451915559  0.4210067407844502
  0.8330526154188040  0.8341733052434248  0.8349470738730380
  0.9986362198174059  0.8324591701692667  0.8340008635016798
  0.9143246922089726  0.0006321910806973  0.5830608634112933
  0.0806899297342933  0.1661732120390394  0.2487074495060127
  0.7523458178416825  0.9170705316432856  0.3291440089628956
  0.0810910192597394  0.9987367171860544  0.9173814380282364
  0.7512561531430604  0.6665734125629782  0.7522859781089726
  0.9164569541978620  0.4994161257774937  0.5835479130956297
  0.1639079971022327  0.7499243530886189  0.9178186623264747
  0.6689154374811147  0.7502690104241290  0.7523720393653686
  0.7534068681270890  0.0028276852204561  0.5863134778941188
  0.0784644525611310  0.4174986697565858  0.1643715712368952
  0.8332204663017371  0.6662583640876808  0.6660852068890204
  0.4178911081628349  0.3323425240666129  0.0661157142509560
  0.3327467921246903  0.2479945194789882  0.9148889470855195
  0.2458631974804281  0.3343217281784235  0.9146945605672082
  0.6649438672823500  0.4159518925467174  0.7490531539324071
  0.4217138898335578  0.3332247408442822  0.2486303599051346
  0.4174611977686655  0.3325776522112742  0.4328589078445533
  0.4159658886153578  0.8345344765774094  0.9173161022840228
  0.1624935849302560  0.9193478217513456  0.7563722135408781
  0.8322448808927555  0.2496822544558216  0.5835114405205946
  0.2399508503819961  0.4175207590404958  0.1584671058057169
  0.1597444249902338  0.5033893064312535  0.3352400342923744
  0.2474241685630881  0.5006230266876571  0.5860748733480157
  0.8321268234202144  0.7494857680875822  0.4158767220767645
  0.1601338596962166  0.0018070316718017  0.4981918486929607
  0.3297520251451184  0.0116737304328550  0.5001060521894213
  0.7488143257361001  0.2515490584818704  0.3339108109976212
  0.7508655120374461  0.0838699122956542  0.8347293036749585
  0.9153069900403593  0.5000408699405666  0.2500359906799996
  0.1630882389408255  0.9187798577487889  0.9162507715635178
  0.9978308526668224  0.9169758114013790  0.0834468567715016
  0.2405157701771629  0.3295416797947961  0.2488955156054665
  0.1628456181963667  0.4162577451260768  0.5837977423615489
  0.1611725451465927  0.6685047996105481  0.3328481008938017
  0.9982837221173109  0.8330257310046897  0.0009078330558899
  0.9966445274589816  0.4183654366606037  0.5845703902783032
  0.9968440270673543  0.1674680738018614  0.5003720389640901
  0.0808903849787612  0.9992399140866141  0.0826181619243369
  0.6680829105521037  0.5026747856104524  0.1650721148702032
  0.9152018744054518  0.0846733712884076  0.1661571065704709
  0.1607370484045260  0.5844344374772945  0.4175000478096029
  0.2471809678206603  0.4995015396978187  0.7503705029115361
  0.3321792155911670  0.4174757349373920  0.4291754523048295
  0.3302709443660772  0.5014394066020894  0.5030179838212482
  0.1618499980657407  0.5011578827401574  0.5028906310922245
  0.1626048412817985  0.5827522212176985  0.5856072315902437
  0.2450745902780081  0.5830783031045882  0.5020541116595516
  0.1636677357058776  0.0015176326983906  0.8347943407083112
  0.2459215464143887  0.7506216445279353  0.8353980511156890
  0.1640088080436368  0.1667330600661310  0.6681524828922583
  0.2474162978916352  0.5829435956191698  0.8339832078978455
  0.1634822192608964  0.8332516860722068  0.8344996146452116
  0.1641773789850461  0.0836747857985844  0.7511773397175183
  0.2466546178810322  0.9173207090358692  0.8350267424033462
  0.1610663208284765  0.5860552122799583  0.2501300140599156
  0.0808752772979024  0.7503671940475879  0.8338144980232471
  0.9979440737368048  0.2506058892985725  0.9161216133329183
  0.9151890121073295  0.9995949185467283  0.4152299609065594
  0.1628203938766241  0.6678659080451966  0.1645954525985530
  0.9152445496219206  0.9998363627257714  0.0835561680859980
  0.4980814541849817  0.0033904897035651  0.6712587592349575
  0.0793735174504166  0.6670006252089957  0.4171644170788038
  0.1608918042934286  0.3317473605586547  0.1634393019444738
  0.2437276614558934  0.7489780304218112  0.4979215856531414
  0.2448514584465893  0.6647077709262104  0.5846534827841195
  0.1632851709346475  0.5831671770563365  0.7505079759812313
  0.2481435363725126  0.4165036318368336  0.6676711075686822
  0.2479028138382804  0.3340644437007484  0.5842710382345295
  0.2476186414826657  0.4166076053656366  0.8336837515310669
  0.2473014257844549  0.2498257703138422  0.8339778844016890
  0.3310551326752281  0.4164259687490174  0.9165619531666389
  0.1623515168697353  0.5011004750754592  0.9981018423251984
  0.2460994773133929  0.5846900895883352  0.9977311295579896
  0.1609422249021750  0.5021523832469247  0.1639833103071344
  0.2443501283723272  0.3318916493677261  0.0795402681187918
  0.8328494865980520  0.5834942234760888  0.4165335705205573
  0.8331606089539655  0.0843455834535904  0.0829770083408618
  0.4145831848941084  0.0818847297367119  0.9998369317012825
  0.1623061580379029  0.9167292730803555  0.2491216834245879
  0.2466175592800638  0.9166927458776796  0.1655031931989291
  0.1620577640117528  0.8331571368463760  0.3310513823942774
  0.2475709116288896  0.1658013561900614  0.9158882471805274
  0.2449162560168193  0.8326534121226598  0.4118736585197953
  0.1615276829089873  0.9177798065525329  0.4136195438864136
  0.8334196923804308  0.0003724030751595  0.3309713609700222
  0.9156497595734168  0.3328006550791215  0.2502871463920694
  0.3307255395417242  0.9173663283239634  0.2482321720033818
  0.8314185727951996  0.1679229127891960  0.3321931321661131
  0.0798425067943700  0.3326991604367132  0.0821874634602304
  0.7499904654820368  0.9999941800260262  0.0820512008446962
  0.0793366090215994  0.5008849283876559  0.0813231327383343
  0.0803197706668310  0.9162866810985703  0.1658264219034839
  0.0811640206034297  0.0828398084129040  0.9995710134255342
  0.0809486679477668  0.0834256822120533  0.8348114471467670
  0.1627206985654404  0.3333194818168049  0.9977056544932602
  0.9147724213700542  0.2497060104641836  0.5006069299906024
  0.9158303406754180  0.4168694935175180  0.3333659142918180
  0.7506219126629894  0.4159742405245521  0.5014184282515645
  0.8328132898744700  0.3320116641551307  0.6668615374969279
  0.0797768128087217  0.3336954953171455  0.5839322060778482
  0.9147684524308453  0.4162051455855383  0.5008742647060932
  0.9986194393889901  0.1664022374459421  0.8330832600449495
  0.6673416018878725  0.2494425826972623  0.4174919343068643
  0.9152843767307317  0.4165058078494263  0.6666043435275152
  0.9153391678835306  0.3332309877091788  0.5844404231184394
  0.9978962300278161  0.2497410261705428  0.5837078153112394
  0.8328202414471001  0.4157712632116555  0.9162976959767127
  0.9149880454364602  0.3334714093421890  0.9161613576628203
  0.8318686157039211  0.7497410286397690  0.0823129553614157
  0.9159683464661753  0.4994691923849305  0.7512052888812961
  0.9148407820898832  0.5836440322042827  0.1662707277261909
  0.9974026316064780  0.2491072934869787  0.4171215387399926
  0.1601931344112896  0.4185982517702570  0.4191989610540808
  0.9146012633182422  0.4990863375460665  0.4171553332287805
  0.0778384776606623  0.3298541233745665  0.2481166067457700
  0.3304865093218685  0.1621324464458161  0.3339736281784379
  0.4153681892147020  0.4980759063132491  0.7515815817618001
  0.3303423213473344  0.1645002327310239  0.9987753014214885
  0.3312102198319632  0.4999713652117246  0.8337628730608693
  0.3325660714052503  0.4168808388250843  0.5850940094873462
  0.5840300978778705  0.4176443574907593  0.5024341534740931
  0.4122012289519190  0.5813570420831019  0.4992644157645997
  0.3284013524950000  0.3312593241352910  0.9959979186753600
  0.3319712896661726  0.4987848415959726  0.6688383334757029
  0.4153833727932982  0.1643110811004803  0.4177160696375746
  0.1618964992278566  0.0006087290144531  0.3319651539998701
  0.5016988677905445  0.2458504503271237  0.4181802277809603
  0.1610731820061492  0.4167314089426906  0.0793898231498567
  0.3321041513657174  0.3328725610040948  0.6672038265687777
  0.4159415662800587  0.5007054700369130  0.9153883327691619
  0.4152934685678812  0.4163133686993480  0.8343069792901883
  0.3309720817491437  0.6682016526307057  0.9977602285656568
  0.4166482584633395  0.1632492433010440  0.2474381959764975
  0.9986036993487772  0.6667607050976107  0.6671939892080132
  0.8340132626742482  0.9163599308265984  0.9175532548276437
  0.8349885835152331  0.1663261655242828  0.8354367175537071
  0.9979456772145640  0.3334720546178659  0.6669076353795570
  0.9157595191920674  0.1665870360397147  0.7504880124208667
  0.7507388479274154  0.2505744860170855  0.9990484649211873
  0.9149780161227625  0.0829976145487363  0.4995715362002399
  0.9148077710983586  0.1663438130679894  0.5835349758275056
  0.7522550385785267  0.0007619826380254  0.4137365818099076
  0.9153967784639391  0.0839569928407033  0.3322748048529172
  0.7521710460690207  0.9185288525956734  0.6712665507910479
  0.6674310839861057  0.8344407395408205  0.8356039207155446
  0.0801724305451886  0.2480832904656031  0.1646200328320097
  0.8329496328715273  0.0010219773627616  0.0000815517103152
  0.8328953997688846  0.4991833798845375  0.5008861865733979
  0.7506437549419041  0.8343457706600117  0.9173844207964365
  0.8339253174356962  0.5005790612628939  0.6683285251373906
  0.0782343842347624  0.5014307665032555  0.4180124162948505
  0.4161369419600200  0.9170846050918495  0.1667965901581663
  0.3315345815227452  0.7514149694304374  0.0823630478355243
  0.5007982610315622  0.5853629907556355  0.0803194568297960
  0.2437719184725058  0.5027813109281137  0.4193648199497584
  0.2428843101573300  0.5866853592141704  0.3344933095977225
  0.0818117236048506  0.8334307132731954  0.9173808799881182
  0.3308008194184340  0.4171502187486352  0.0698292210769024
  0.3310201075389765  0.5111409617173464  0.1631868832763721
  0.4142648436299353  0.1656078648041043  0.5864418948318902
  0.5005713162937921  0.6661370287460783  0.3322425742256547
  0.1619377955567548  0.3329731561702290  0.5030308123785895
  0.1619325869857931  0.0835733458910273  0.4165991904956979
  0.2472979711331028  0.8333324213779686  0.0828889477424329
  0.5863364605271849  0.6647228575582182  0.4148104557868872
  0.1620693723840340  0.6658187589062501  0.9982937643549875
  0.4155214744840105  0.7500205223478986  0.1658667494818100
  0.0792925089269889  0.5851022158121737  0.1647617633955969
  0.2466958444773516  0.1642071228433274  0.4187531956245685
  0.4155541938776223  0.6690291453991549  0.0805679804742998
  0.3299714773345925  0.5889044453010529  0.2474433909452194
  0.3313648653114659  0.5868640647024180  0.0796062283646628
  0.4153191711280220  0.3331545403995699  0.7500300141996752
  0.3306211170830193  0.7493715969191296  0.2487116482489320
  0.5004091463497046  0.5017170395379701  0.9973568789156094
  0.1620958328028807  0.0826230648952242  0.2493569903254710
  0.2455705531742724  0.0029500160683628  0.4153201503373001
  0.3277965156263983  0.6648699491912062  0.5004213432078035
  0.2451646792153789  0.4185616057771288  0.5035718345036232
  0.0801781673430701  0.1670474996047992  0.5842973678366984
  0.2449997638088367  0.9177359447701379  0.3300375304870951
  0.3319164221177344  0.3328230092917790  0.8344600411814174
  0.2473333507146406  0.0012133177564977  0.2484507395022668
  0.4171266330669264  0.5027312836372324  0.0787861656290098
  0.1615529300827055  0.2476194944851637  0.4186208667504174
  0.3306380143470768  0.5025700848711369  0.9969363612406262
  0.5036076731742405  0.5012684807908655  0.3345266455555387
  0.2452006953846956  0.5030927744115383  0.0798044136714286
  0.8330566381330486  0.5834044917767275  0.7507166426023582
  0.8317593291978082  0.3325035583877949  0.3329591734363286
  0.9961692716621560  0.8343746761159698  0.4993324473723152
  0.5874848766187833  0.4188955986035928  0.3358281998831245
  0.9975640318102115  0.9997719540513794  0.4986266202945220
  0.3279680018866061  0.8343908983625298  0.3286912017943116
  0.2383867292958805  0.9195214726175742  0.4980939577946790
  0.5833294924817751  0.4161363112904889  0.8335317071600793
  0.4145859477437221  0.5826007177388666  0.8347212681582002
  0.5845661021053971  0.7499889464931588  0.8345281026294061
  0.0795862311896217  0.6676335424457284  0.2495367110171220
  0.9152418705389451  0.7503394352709690  0.0000692230689916
  0.1623025900528742  0.4170337347941985  0.9151760467515483
  0.4992246808840512  0.9169504923647088  0.9171446667991794
  0.4994352285884895  0.7508219272513911  0.0820912411446412
  0.4999477635305666  0.9173009780201401  0.2481121989535907
  0.1625204699376728  0.0047610167276822  0.6672519809265325
  0.6691607520137105  0.8349082314507654  0.6710769096148919
  0.8336399829319784  0.9174674564919308  0.4141223206286838
  0.9149300416514274  0.7500950137998884  0.1654651990259462
  0.9964833241820744  0.4164071276175339  0.0825946435193790
  0.9148764762992845  0.5835630356657052  0.0001846112226128
  0.0805846816546191  0.2496292533062443  0.9984602244171467
  0.8340276117902311  0.0006478609858585  0.6689575807916072
  0.9159970405887027  0.9167892693743289  0.6670090926143233
  0.9165094244763060  0.0000610208954692  0.7518119416652794
  0.8342947011502132  0.9994713538299195  0.8358902377365657
  0.9986559777588649  0.0837115362110958  0.9173217540887654
  0.9990409784572905  0.9998896923281855  0.0009663663913663
  0.9159172489810891  0.0837301753933234  0.0002555044073804
  0.8329648929877385  0.2503694796778922  0.0825867078307491
  0.9149897196933644  0.1677627995399015  0.0838353209611469
  0.9162755345643219  0.1676782930539138  0.9166037939738705
  0.6663982402681510  0.3326200538679208  0.3345194831905844
  0.8324415831987495  0.2508186137666870  0.2497736366811303
  0.7519054538475950  0.8339413467117843  0.7528289235556341
  0.9155228325504065  0.8333404011771902  0.7513281130471838
  0.8345427610525202  0.9173361571812955  0.7525127398521596
  0.0802729097723589  0.9163296352681848  0.8346848616410705
  0.0799167122900863  0.4997845357281355  0.5851355173164896
  0.9157706525843916  0.0827199636110162  0.6670946069836041
  0.9158661990128552  0.2494353486222756  0.6670571574376669
  0.0814502000227172  0.1663835024785293  0.7503067354346161
  0.9987104034898214  0.4161923293226788  0.2494608955678145
  0.7502518831308242  0.4998764905852743  0.2501200308266840
  0.6675517806799324  0.3325547371688480  0.5022623328378378
  0.7501293117063519  0.3330134739939568  0.5841011459340423
  0.8323294307767067  0.4167111954225094  0.0836199068807007
  0.9970454882912064  0.5003227128766217  0.0000138545908557
  0.5826496436987334  0.4989764355698802  0.7519026438139376
  0.4988374712919101  0.3320789919391799  0.6669177538184105
  0.8329360983804232  0.4159170666842297  0.7500764490522069
  0.7501413333978900  0.3318731073348165  0.7492685665014496
  0.6681351221413394  0.5006356922022477  0.9992045149593347
  0.7485478117164545  0.4164454006131029  0.3329397564570766
  0.7507254932671558  0.1671508607124607  0.4169273380880957
  0.7495820033065712  0.8332780160657609  0.0827059685718155
  0.6780150626028122  0.7495428437090538  0.5863643463588840
  0.3318835988709167  0.2502170074218065  0.7513076083055582
  0.4986304331217291  0.0845874717413715  0.7534954512235353
  0.4141792410231558  0.1671576283658689  0.7517091580076994
  0.2478113277776050  0.1667370048349129  0.7507904231054109
  0.4981927000292947  0.2489916184185905  0.7512765260630093