B  Cr Ni
 1.0000000000000000
    38.5903224038424852    0.0000000000000000    0.0000000000000000
     0.0000000000000000   38.5903224038424852    0.0000000000000000
     0.0000000000000000    0.0000000000000000   38.5903224038424852
 B   Cr  Ni 
  50 1596 3725
Direct
  0.0039384834572915  0.0154752919236094  0.7914799591067803
  0.9646562956435265  0.9951287094415656  0.8058481129181523
  0.0097618338125866  0.5928143272260882  0.5648799734710576
  0.3753049779937064  0.6590634616031729  0.4768038737337373
  0.1734052184673597  0.6518405331241950  0.4788961515164956
  0.5579093238845574  0.9113659154724471  0.9882556326822178
  0.9648918390774740  0.7058383185732403  0.6774198904906300
  0.1640988265983858  0.9328481108459767  0.5875342964938004
  0.1259612109444864  0.7751676446617637  0.5281136447617394
  0.0167939905268535  0.8581458213770929  0.6599804826719271
  0.4335084409592901  0.8943570869713723  0.3322580613235559
  0.7965000808411434  0.0511488659163698  0.9035698596134774
  0.5711926250405633  0.1906185615367316  0.0310177505405092
  0.3881482376564778  0.3666304832890582  0.4129730215634304
  0.9006357559466112  0.7726800830620838  0.6270734970394218
  0.9884983218325534  0.4394435476765830  0.4763748181490317
  0.2510081387816852  0.8289202577895632  0.0698278041109236
  0.5063768934533951  0.9329134038268987  0.3457935298980626
  0.0288878767901942  0.8916776890307255  0.6323677517702042
  0.6915861914916307  0.8335871141130264  0.6079206852410907
  0.4469845987614630  0.9679688443779799  0.2958256084436444
  0.1384809796944727  0.8909013893562734  0.0091123176125967
  0.6337238842276687  0.7546416512623588  0.5436442323998355
  0.8510129558077383  0.9017599632926179  0.6024503982167118
  0.6769393202347628  0.8960491420861791  0.6609847969522706
  0.7406184598348373  0.9032604174195983  0.6147525962885553
  0.2230029452142819  0.1910421867120302  0.5987558708474997
  0.9526145590475790  0.0991177747996194  0.8914605768180057
  0.0556202992117785  0.2012881824525795  0.5967175876319373
  0.6725630523001933  0.9544265786507559  0.5560428561378223
  0.8911226219299154  0.8341736732431042  0.9506781406439448
  0.0135987263322559  0.7721766812005427  0.6816677114395386
  0.5104526593543478  0.4246222344923596  0.4879923997788958
  0.4785820851650515  0.6589789274235370  0.5143300945149690
  0.2461862887901631  0.1363232531821221  0.5346394784770040
  0.1102490188001335  0.0708014903957103  0.9568004684586093
  0.0025304888184346  0.7906039816251227  0.6025878248448827
  0.9372106808553130  0.7803227623257054  0.6532275429256299
  0.5665416780302065  0.9717189679960213  0.0448324837060139
  0.6113874280020286  0.4242381679073205  0.5228714160444652
  0.0182369249267991  0.9820033535244701  0.9022509119151602
  0.0293952282393400  0.8969704756067339  0.5844050461638732
  0.0258165410063673  0.7130150924307359  0.6229723083670674
  0.7125809248518815  0.5284405433967791  0.5910564858124741
  0.6899305338665471  0.1042445412534455  0.9752395293098260
  0.3641931149344537  0.2468396445797721  0.5208806543839086
  0.5597878528607493  0.2670901339927414  0.9661348828413846
  0.6333183453838171  0.0059233966778637  0.6217934839340269
  0.0650054056242044  0.0532854530832721  0.5928898975962065
  0.7294578187665351  0.8369990997682966  0.9430853943512771
  0.0945116061353408  0.5908807130286604  0.7519477997203854
  0.0310330799422687  0.5980023947653154  0.7295226530715914
  0.0831793484001618  0.6017362925255322  0.6927223636434978
  0.8544513242107078  0.8764487019782509  0.3690382126152618
  0.4477957233691195  0.7599834832690093  0.5994979867131803
  0.1366754269879486  0.7430489192662183  0.7718255964179989
  0.1777879030829350  0.9107983410883805  0.0556464464219247
  0.0628600535685032  0.9905577980298368  0.8672481343037329
  0.1815548432774169  0.9101854796031376  0.7015399702337072
  0.4661314807760107  0.7687576515630674  0.8260800745962260
  0.4172274388490043  0.7296185939166432  0.7620162174208581
  0.2962057708400850  0.7446700605013160  0.7162789295269710
  0.9952809956220104  0.5482552171318882  0.7264212290951022
  0.7928320209206684  0.7057876425738587  0.4462164383671553
  0.7951428889842703  0.7830659158537679  0.3732033268909625
  0.3770401004532249  0.7162315594231863  0.4741512403770426
  0.4280327310128143  0.7190419718821313  0.8221021430029894
  0.6029786300344282  0.8959844097219355  0.9574183678365245
  0.3629388769868321  0.9599132263526772  0.9838490908718169
  0.4058041315709144  0.6449026975067894  0.9402738796458167
  0.3963108847850003  0.9730495164638800  0.1014264677818561
  0.9599132702184524  0.2402518423676845  0.9327792961044589
  0.3400799323384188  0.6956486666793407  0.9603875690309139
  0.4336613588138393  0.8697173572675801  0.8544659029884027
  0.9488035741455811  0.6856791753590697  0.4548657026094794
  0.2235944961684625  0.7865224853917044  0.5142993703168774
  0.7382224574095859  0.7381651425958397  0.1957694711310176
  0.6907243080841299  0.8172575879670865  0.2155750840325119
  0.2651308177226809  0.7794264643848461  0.1934133347730789
  0.2233648885202470  0.7736940966002617  0.5741279310423226
  0.2480147155721412  0.7061442087305857  0.6518759219413991
  0.5846515676010933  0.8011261219464767  0.2401218976297982
  0.3408185065602374  0.7358208202743202  0.0057449166776663
  0.3244162742028446  0.8068063628459176  0.6582879257015425
  0.2299376330547507  0.7001969607886482  0.9800692224154715
  0.0453445848575000  0.6132606501463177  0.3376561851562621
  0.6055222890238288  0.0459361830354964  0.4062937605651571
  0.5183841261384275  0.8068230674772032  0.8931596007537358
  0.9017834158909116  0.8301350445641430  0.2282600889601052
  0.5044042037000938  0.8559172631135350  0.9391565738484975
  0.2587456994545878  0.7616500708857005  0.9227917077550362
  0.4617962953368617  0.9321076930163221  0.7935960212210454
  0.2858040702008098  0.8250881329311748  0.8658102667065237
  0.4328377681363589  0.8366229842040688  0.7463910641869341
  0.7475525762923441  0.8460822377885107  0.4552233838659898
  0.3111175947444936  0.7978311306288913  0.9982282837680472
  0.8343570513558366  0.5800415832894726  0.3874571109254412
  0.6809713212142755  0.1351545286062733  0.0805338448289214
  0.4845008609567356  0.8957666100983169  0.2998083832085340
  0.1402204688697897  0.6119032950080213  0.9104615314500848
  0.9085232714105345  0.8887909098862598  0.4411597510087375
  0.9527938720620446  0.8301561355978220  0.1325436063957829
  0.3661404879938974  0.5568182965438511  0.5737411404880124
  0.8479168543201936  0.4983983370148420  0.7439860993175158
  0.7772709468116967  0.0292393563897910  0.0875595789371692
  0.3513247229568284  0.4722843748816918  0.3114736931840929
  0.9830482648596772  0.6107982601564726  0.9738016460568213
  0.6965973248710113  0.2636417268016868  0.6206750993363624
  0.7363365382587863  0.3135229638914099  0.6219467185737474
  0.4882098449467960  0.9633034086419554  0.6245514078938971
  0.3541918702849752  0.6723545544107696  0.0260283363115154
  0.3474081377622336  0.9840800464595560  0.1387479859679806
  0.4594630171008418  0.6789190409275841  0.0063128378649418
  0.6652919182931487  0.9532431071765687  0.1312043490792535
  0.3879597663250222  0.0053238342470826  0.0218711169917092
  0.8894921622765026  0.2434083447700982  0.0027002955059236
  0.0766008658752694  0.2990504725358323  0.6298946335021293
  0.6088200126855644  0.8768201513066896  0.0761311706508815
  0.3913410481541509  0.9846662920613091  0.8148281210022474
  0.6378138898372731  0.8036714320297202  0.1450504635923282
  0.2245824760752429  0.8735123340275599  0.3811772307375302
  0.7549956993756954  0.2032958946856634  0.9226171729533699
  0.6972247514919825  0.9043314790846615  0.5395864039528135
  0.9124988660570138  0.2069022751353041  0.8723739804965970
  0.7845235613408847  0.0705101459062707  0.7931558912614680
  0.1126836720219953  0.8562834357581831  0.1776953100570227
  0.6646341617402609  0.0494026276357956  0.6472534758275538
  0.7144644482583747  0.0897940621271461  0.7112431784055576
  0.6545096930141688  0.0509497847333507  0.5903048994414085
  0.9032668824434210  0.2437048964558442  0.9278929567665215
  0.5083767736515595  0.7597546118589014  0.0552957138047905
  0.3298537609130907  0.6762472902686206  0.7955430097985696
  0.8799791629284991  0.5027913794539597  0.3701745832906740
  0.9917653102910322  0.6117190142861187  0.2051240117365063
  0.1019048669220133  0.6733272551084243  0.2244309570763166
  0.8852013079322540  0.5294444960532193  0.4794892564014291
  0.2686208608108286  0.6512376732078251  0.4574205743565637
  0.9299076497571440  0.4890105581923586  0.3355440790559400
  0.5803560105999997  0.7980848000524904  0.9170773452791013
  0.9235593679100165  0.4107566550614633  0.4176972908959158
  0.4243607279194905  0.1675164997946201  0.4440552041122336
  0.5677138880786224  0.4769305526416996  0.6579657279866929
  0.5920371497693578  0.8725393504765835  0.7934876546396872
  0.2076789736685518  0.6865483638043306  0.2007700604046989
  0.6853192984050905  0.0278764491352208  0.7727361244670681
  0.9908878208451607  0.5673994437575178  0.3887608749270162
  0.2152708855753556  0.7798156980893943  0.2906729637708861
  0.6303714419669629  0.6646529120735326  0.0119619384613570
  0.1799395349697582  0.2088198838688865  0.7914277536902342
  0.2171921995717499  0.2585386606883586  0.7973397157321416
  0.4559157310984186  0.9691937454475783  0.2350725879298800
  0.1199723773543621  0.2153228286907101  0.7698963751089142
  0.5366884860387997  0.8784863472799301  0.2604784285327170
  0.1809738560439441  0.1758391794432134  0.6853554194785123
  0.8390553630279708  0.7226205555402618  0.0650906172116656
  0.1691407389256706  0.2543581179445666  0.8376281773154782
  0.0472396071467380  0.2685064119460954  0.7934160887036170
  0.0046490682336086  0.1955449580410397  0.1788881085318657
  0.8929881542251890  0.1190672436132923  0.2157162494734636
  0.9744538609861924  0.1351366944596288  0.6756051932997351
  0.9390270579338575  0.5630830153487907  0.0274848653283614
  0.0446622745032056  0.1148701189382622  0.7603620508895274
  0.8631856657739141  0.9671752996710300  0.4590353895660160
  0.8606827768868095  0.9367201276938741  0.3528853255686196
  0.9664233448483754  0.9038200327281178  0.5126591158834605
  0.1823035544300108  0.9829365320954127  0.5074379985497841
  0.1510746521067447  0.8140086338293291  0.6536523510643258
  0.1409200478043494  0.1917836992108189  0.8920848455818829
  0.2658033640163623  0.2970751279110520  0.8656166920250242
  0.2448229425147799  0.3087934740490478  0.9730303581864066
  0.1989897645693981  0.6564736529945674  0.0352225273096691
  0.2553828086718081  0.5937205798834394  0.6952253698499070
  0.8377377354420513  0.6603113983193486  0.0776026358139719
  0.9225529713908942  0.3963464941399306  0.2488356733346504
  0.9510359817252936  0.7207303565050647  0.3305774422248924
  0.9148973811950964  0.3353268991129405  0.2691348395084535
  0.9619960615322440  0.3063621885060635  0.2981407091096892
  0.2217497333424782  0.8707311899708412  0.1472072471252997
  0.9474137394830568  0.7359206605220474  0.2712864857218486
  0.0256847344822690  0.8427350645424848  0.6057988343566503
  0.5495708593857459  0.9858257315734991  0.7541659499615984
  0.5048805654197340  0.0501221397447659  0.7069150728029695
  0.7293051054017391  0.5977724439458788  0.2884434676426703
  0.1151685863870480  0.0970049497815370  0.8439303655363602
  0.1745853622896408  0.0565268744651187  0.7609555627947032
  0.0240180898536489  0.9866417189765829  0.5698514090348331
  0.1827699359571520  0.8776206746177818  0.5934685036559302
  0.0049430816034197  0.9368129306101862  0.6132824820991871
  0.8710085094513874  0.8263315567558505  0.6676784483036244
  0.2973910711248368  0.3904665533746176  0.0319042286654552
  0.5257639966133369  0.1364471698584795  0.1441659156134011
  0.8232942102386906  0.4563112300615002  0.1927994587684469
  0.8214181246313933  0.4421540888426684  0.2546760307055994
  0.1773011798920583  0.9229047325552658  0.5320300819314446
  0.7888669900448022  0.7390893042618126  0.0998126445370181
  0.4610731212704270  0.8988353560343803  0.6862305800382383
  0.9023437869682398  0.7965524146944772  0.5739225098859445
  0.2941365807150690  0.6105757839188204  0.5902905603593021
  0.8402576108011282  0.2269494624801416  0.7846905769101199
  0.7001504429507459  0.9220269488072199  0.4760450898806958
  0.0986379521308902  0.5553724801259424  0.4904917251484898
  0.3236462886873758  0.8757795644285119  0.8708073495421143
  0.5349986769759363  0.8103460753240000  0.9549088604871142
  0.0604622711057946  0.6413211696683108  0.7651503165402620
  0.8461541388151200  0.7500484577459727  0.4017765235278011
  0.1490623554710853  0.6628959551014605  0.6273747619552174
  0.0710983820185546  0.7274165601108967  0.5882144296964834
  0.5111901006372572  0.9838815868153959  0.0628977648447570
  0.4492940553924434  0.9399817478168685  0.1281060197615215
  0.2979165277215091  0.5123136070582953  0.8370642922937355
  0.4365669918587535  0.9443277791402984  0.0681524678756865
  0.3257305729277760  0.5748096619047126  0.7786094261611656
  0.3513794559534150  0.9351189432296340  0.8127794962349544
  0.2267946558340581  0.5306182901097779  0.7536211460179771
  0.7466165411643981  0.8304542598748272  0.5143770430505247
  0.9555394205634573  0.5966763072620528  0.5395888993454291
  0.6459511215633442  0.2586587624820609  0.1425903494000313
  0.8035193444415999  0.1432535760717677  0.6736379464613589
  0.2511913647757889  0.5486037265970192  0.1991047044021306
  0.8897538385776398  0.2310857532153837  0.7451207947109292
  0.2568211375388637  0.6271770825727184  0.1218445796503571
  0.8021661072673364  0.1777440544740009  0.7797046698446782
  0.1028485371692091  0.3918769114459331  0.6778209297897183
  0.5044818385183840  0.8189890431074442  0.0431976336267665
  0.6384722742731954  0.8000574386757899  0.3725513184417736
  0.8430663884786351  0.7370530017101046  0.2319044196622356
  0.7975055631038026  0.8485092316332102  0.1313284003849286
  0.7952570914773064  0.8158248919791646  0.2508226142279507
  0.4272515937995267  0.0182819541511006  0.9155401109655394
  0.7571117575939309  0.9532097367821765  0.4830776011207766
  0.3913322970923440  0.8900194746737708  0.0616268297924879
  0.3130874788073389  0.9198780027406535  0.9168529360517235
  0.3174217007063509  0.0217060430995854  0.9343886115478510
  0.9848035517943806  0.4697945994760722  0.0737247178551559
  0.2421862843094295  0.9387586652166928  0.8286819497548473
  0.1307844826573558  0.4551408928888210  0.6246130209026466
  0.0578283658586792  0.6225590714668526  0.5696021798729667
  0.3304534404409187  0.6423325203479329  0.6903314150620581
  0.6277031123439577  0.6451977301874978  0.2959066880645940
  0.9953049377374326  0.5393326195215660  0.5666690245510395
  0.2583938634633642  0.7292384019367557  0.8168693250739715
  0.3577483512996785  0.7047324481118460  0.6332759288151870
  0.6824479357513036  0.6598059149076355  0.3684457273705286
  0.0200456534258008  0.8649153202624722  0.5406511925061080
  0.6921178559771619  0.8336719957835381  0.1558841181981449
  0.8786046061441998  0.3542563357294388  0.0063827032052643
  0.9577440509502140  0.5302812836483772  0.8284642747916345
  0.8376632345456702  0.0980959996467235  0.9186921679629423
  0.5446464421594829  0.5794258749406882  0.9490925433735479
  0.9138275143773885  0.6264985671963693  0.8880307857454846
  0.7449725788712057  0.3350527053868676  0.7936214071853133
  0.6456822270199146  0.2924011916631915  0.7662921360923560
  0.2258697232360058  0.9070365330836755  0.4908801197144025
  0.6353118130738605  0.3050527779321441  0.7052176314036649
  0.5866570011189690  0.2678835822206894  0.6379648685408612
  0.8729124128534098  0.0763290991988682  0.4827580408755886
  0.6922609514572802  0.2777019147039626  0.5618829425757523
  0.5570699892651114  0.3378914918651022  0.5542965513304394
  0.5675383461330055  0.5090713965649729  0.4838012551144805
  0.8854847751224600  0.5620810831976001  0.9474002594112763
  0.5501874773107450  0.3985881309666052  0.4600137114414026
  0.9161700974912778  0.5138807853569081  0.9288298868881965
  0.8592924675800185  0.5189081478614603  0.9091847179676494
  0.7671304171712942  0.0775244965665979  0.4492809783613892
  0.7004092161934156  0.3349075111592894  0.4255012831837720
  0.8067891210815399  0.3197609052153199  0.2936261799156838
  0.9583880283367258  0.7579673224576371  0.6997700581375683
  0.7742837298218852  0.4514332524322258  0.5143334930811755
  0.5894838949152690  0.3796897737963293  0.4939362165863027
  0.0268760582439165  0.7798965145345333  0.8956390389523073
  0.8543837205702015  0.3333264578368145  0.7748998520777368
  0.7667134850498175  0.3912284894832245  0.0779172166330140
  0.6169849113409644  0.5057620309613288  0.3897354473771181
  0.3605192409000428  0.5812042100252105  0.3371108099918395
  0.5153731855265927  0.5520808763134510  0.3981535451628291
  0.8270335953235919  0.6212439080206222  0.6440539963310944
  0.3299112987079029  0.8737833556257486  0.4186984295331161
  0.8423227757252727  0.6120182945035795  0.7024416154183387
  0.5908741510907595  0.3217771806430870  0.4532668037291599
  0.6404399816229337  0.2595593760332885  0.3713963412444656
  0.9157624528200680  0.7117174221902554  0.7064326905119669
  0.6873897935632396  0.1809142715988373  0.3536712693784511
  0.8690226080629911  0.6754153915403103  0.6475054178856294
  0.9711057340043009  0.5765742045756902  0.6019918369603010
  0.7644778540117857  0.0472504982632377  0.3447911902448210
  0.7679528358207054  0.0935564339552593  0.3904613276651054
  0.7342929050601114  0.1032172652991656  0.3364971250705266
  0.6602545462944759  0.4128125623593701  0.4371880422199962
  0.6950146406666795  0.2753301888367877  0.4444242714045459
  0.7450829632802830  0.2592790832044009  0.4092338897186521
  0.7934299388329674  0.2263272441384158  0.4359310132723440
  0.3606863906775689  0.5970571651614068  0.2772338775350334
  0.9026081303714927  0.3710984727432469  0.8409208932597944
  0.4113121912119277  0.5658109416961313  0.3025012574966365
  0.7673124438750247  0.2789154712332736  0.8101547966140874
  0.5712848498290924  0.5677927439529704  0.4694194196872010
  0.4710510838308444  0.6262338187248266  0.4153296079143005
  0.8278540423447415  0.1720587417766249  0.4452757520024166
  0.2582862621499318  0.6430180091282679  0.2877401123944106
  0.4265593518630425  0.6800503027642445  0.4980209682299088
  0.8533205616619483  0.3653873399726519  0.8816008392140513
  0.7213176984573347  0.2067636839176913  0.6323015160750091
  0.5921260923231029  0.2350336245153029  0.5344094842911915
  0.6715918573070935  0.1647096920123399  0.5687982923333444
  0.4532093236114042  0.4286031115239934  0.3020480052640009
  0.5477838467320332  0.3358765002971263  0.2534701768242149
  0.9877668892603476  0.4612418151220863  0.9071524285908228
  0.9291933396164785  0.4676296855184778  0.8861772803030508
  0.9789397093161798  0.4735693372151248  0.8461498489583279
  0.4950125993226229  0.3202328455269960  0.1817759078157173
  0.7308105045397433  0.1957519357332098  0.6965082001020924
  0.6601091425886700  0.2139158466112362  0.6141960961375594
  0.9109180677784614  0.3575233654095359  0.9019553358185791
  0.3182809764297421  0.7023369685028611  0.4045764898607657
  0.1071858036734437  0.4476890830290569  0.9485205032641196
  0.7619537911088523  0.4415789673638443  0.7803200773961729
  0.7409041937003047  0.1972970222134098  0.4252420277515232
  0.7248014112603062  0.3587556822819829  0.6684049883504322
  0.6031513859295127  0.3748656828776336  0.6257945855294671
  0.7148422878752828  0.3712697890434343  0.6061533503579675
  0.9875011682922560  0.5354181630547912  0.2827944679196315
  0.9496092257929184  0.7980652178615956  0.0303635645041925
  0.9209254006536463  0.0131192668831484  0.4040966506235525
  0.8772669159592275  0.9532377283347409  0.9752542186566290
  1.0013551338251470  0.5721234953377387  0.8859044073308390
  0.8974177560695913  0.5381833451133312  0.8073913330835270
  0.2751875764817352  0.8238678344512024  0.4736186921039255
  0.3700848656498198  0.6892075726681243  0.3660612067479467
  0.8701987827830115  0.4746060106607857  0.8664518323390369
  0.6192309182608703  0.1972168204905095  0.7176837283533248
  0.2718573287779528  0.7958147977622581  0.3637200561421980
  0.6323577437368524  0.1524437682276608  0.6704043403419566
  0.6217725355848851  0.1642298205591641  0.6095136980431446
  0.2156793248518662  0.7644555203772999  0.3505115774383885
  0.6926336217692387  0.1109077034273005  0.5864024187679169
  0.5257413653191602  0.0817555813136385  0.5395354085656425
  0.6678843139997090  0.4425306112530999  0.5378895282177304
  0.7498647215146667  0.2687786744633869  0.5781579661453887
  0.6301341706041994  0.4402774988465137  0.5739445811077504
  0.7878263008491241  0.5048333824453949  0.7230321126189615
  0.9757060083970185  0.3194334169807148  0.8172687745156904
  0.3894599119851173  0.2713272148167737  0.1038870399421253
  0.8944913002119023  0.3511027464651268  0.6726645020030079
  0.9503068078310600  0.4332916956684886  0.5136230546721559
  0.2516770304910660  0.4669632081654403  0.0524279089065680
  0.3286914373965215  0.8588462803181571  0.4773605336113778
  0.5681243238942538  0.5530847033689756  0.3015013188830386
  0.9939407958764627  0.1909179244634122  0.9511899024854457
  0.9968982687763046  0.6890914659310745  0.1293795519115175
  0.7903401820666798  0.4718085882608049  0.6196321196227663
  0.9388533886852898  0.1116421211127341  0.9440159454957007
  0.8746750558120137  0.1235693816206970  0.7570868332069672
  0.9667974863540028  0.0530621896092809  0.8633037244984453
  0.3679311364724156  0.1675755267363883  0.0817090859613114
  0.4097197304333794  0.1113694055132668  0.9992674125616346
  0.4653835677429966  0.1040230636895719  0.0206180194530888
  0.0019873514974438  0.8142838428850696  0.0985643441351731
  0.7864764076168912  0.0352290871717460  0.6900981714592269
  0.0485894687336369  0.7354459570228137  0.0785081302274478
  0.9983578676375505  0.2625009329733499  0.8337103147457626
  0.3446997973278087  0.2517738675587684  0.0272256648745170
  0.9720559059237112  0.1669543220375731  0.7824391274970234
  0.1682817625532970  0.7087324381465471  0.9553882361196120
  0.5385358622443076  0.2438896535922920  0.1682222668338161
  1.0017026081669655  0.5614798170981374  0.9396185125507279
  0.0736419079623930  0.9497648203678092  0.3624592035661464
  0.9468968700003183  0.5103485727014604  0.6638932878321560
  0.9206155734213319  0.4452078940185051  0.7215302234251876
  0.0622878992096163  0.8434170489872244  0.3347877674524435
  0.8720483225422234  0.4073333008248063  0.6550499042631938
  0.8739856481322572  0.1833124166924514  0.5147827190132549
  0.9914301334509021  0.4275054585797251  0.8029319731096596
  0.6954388861044490  0.3228129008588551  0.4946815565991901
  0.8718464759415153  0.4108158972178297  0.2821357639103727
  0.0541360562046804  0.7511916518758305  0.2452422754966575
  0.8480740123432307  0.5878282089356671  0.5609559851612778
  0.3062066913865577  0.5817774591367327  0.2067397244003440
  0.8872273906833360  0.5001775604559299  0.5386149697775993
  0.9908650095354090  0.6579921199654285  0.6850739471348688
  0.9346459274060159  0.5419166572607299  0.5466425116799086
  0.3993316652169680  0.4116577095802254  0.2327554941980137
  0.9833800352985211  0.7450251323246451  0.6444376102324456
  0.4475465892059415  0.3488064836464480  0.1552615439649548
  0.9019959586947599  0.7657172302663536  0.4697633097330132
  0.2110743996003142  0.7187745504982640  0.3059025200742302
  0.8849749951056629  0.1118164539147979  0.8185109843297236
  0.8638284916154851  0.1351613298574113  0.6944866327505355
  0.8257060644742585  0.0869668144266363  0.6928522244041597
  0.9425233491988761  0.3900518914602438  0.7377413715275777
  0.9651292774448252  0.3325218699821147  0.7558414138255011
  0.8668167017604632  0.2873736131900448  0.7295846920016256
  0.5044534497962752  0.0446621202155921  0.0488805685461849
  0.9160376826003785  0.2937397407123791  0.6896615809367156
  0.8184115249947740  0.2500617190816087  0.6624093119379572
  0.8461491446815704  0.3140745788308590  0.6058101591892003
  0.9831863561272969  0.4444243344489427  0.4214444166848993
  0.8617504443550068  0.4203149923694181  0.5953861676581405
  0.8348898079177183  0.1086350510555388  0.8577240056042922
  0.7633867462464751  0.0609540347335573  0.5079834527659617
  0.7796162797784574  0.1687086367936427  0.5460798420575070
  0.9444669480897220  0.3568865860553342  0.6294926232570286
  0.1552791549761035  0.7177096484877616  0.1745843284815234
  0.9326682406166041  0.3717091942414692  0.5672397083449311
  0.7844094614629860  0.3270996857893259  0.5195789000337164
  0.8913619020849753  0.6195737755096602  0.6578128604769917
  0.5753156141104844  0.1053808567770653  0.1691088868413126
  0.9304137253434405  0.4349078393507548  0.7818208345362769
  0.4900181681975453  0.3742713556602801  0.4699574994591734
  0.5342894630821308  0.2262336540474511  0.4573880732619758
  0.0007460441043267  0.4164644874194665  0.8638596964437257
  0.7128803845536767  0.1444591361954582  0.5285487309890621
  0.6257030644138442  0.0900478098426836  0.1320366980479735
  0.2056278177858096  0.4902677753200590  0.0321154339764005
  0.7523801540483444  0.9970406403258646  0.5893439943583989
  0.1912535204379074  0.4335645585157204  0.0358333345275712
  0.2456694739562839  0.3631481537522462  0.0177278874975516
  0.9386676528732764  0.2362084372143411  0.7061286143561417
  0.6623234107923451  0.1244841197640586  0.4605514328952944
  0.7164335925878402  0.1083072922592578  0.4242996973486665
  0.8160364620738446  0.0985443573985346  0.6316283095282658
  0.1948937874638225  0.4845067973705363  0.0872126759801352
  0.9718956801569542  0.1994946422830026  0.8876065571815243
  0.1477724350785309  0.5660192507693351  0.1010343149506934
  0.4153245736895681  0.7851780873952873  0.1298034678679802
  0.4348585880104595  0.2421505893607917  0.1308001174824450
  0.8296363211108089  0.2384364873029191  0.7234221073112737
  0.4132050685466745  0.1605429616685392  0.0406585512484633
  0.9018995719179539  0.1864001882849555  0.6986427109925303
  0.5205911868548848  0.1011712244605970  0.0407235913935602
  0.8936377070247462  0.1987807112409437  0.6337935793321706
  0.4184099424255398  0.1386547674488862  0.1078406657353129
  0.7146554665377950  0.2176209133894387  0.5716189004775544
  0.5806104078663894  0.1823542141842981  0.0909468136156854
  0.7305681561053756  0.5394106740542993  0.5372407263798898
  0.8816251896384816  0.5184704309236317  0.3085910640093137
  0.5614190390014587  0.9117346771119006  0.6028654701600472
  0.5110675930269314  0.9372379277642798  0.7524530210709116
  0.8935406734115326  0.7538869643311453  0.0771881386351785
  0.2265171460274176  0.3284169945238175  0.4456632360382352
  0.1935440113327226  0.9318442007057626  0.8679340849768424
  0.3092713181811801  0.5094232981001479  0.5122395927779535
  0.7680334228115046  0.9222574331742046  0.0613167798068920
  0.9501242582014615  0.1791072371870315  0.1049595769608813
  0.3680139688786995  0.7359444046146365  0.1837718601768265
  0.1033096916327482  0.8790014478357712  0.9005097974688610
  0.9375817182503807  0.5245780466718966  0.6042502767882726
  0.6055551635691229  0.5746665411706701  0.9662232344728696
  0.6726071685891158  0.5515085467724097  0.3389083372474642
  0.7862311679615094  0.6599272553532921  0.1760080299142339
  0.3527995450571982  0.6196213270336591  0.8148494426516908
 -0.0000665464965983  0.7211801394889896  0.2356965479973883
  0.0789862990839542  0.8207442984916680  0.9543502771281133
  0.1877574873721878  0.3605930668033798  0.1188494361422839
  0.8421715172754961  0.2590181339678210  0.8943131234682135
  0.6647852273575739  0.1106655621739608  0.5213423161177380
  0.6519778584657382  0.0449123974245995  0.5342188029470801
  0.9732534950279402  0.3514462897469708  0.9226101768864940
  0.3464333777247271  0.3947160402256897  0.1628604959020284
  0.0583813075838998  0.2564241252528069  0.8518034162534814
  0.7466400735544865  0.0215813765383828  0.7923836376151234
  0.8408152579221809  0.9621308110373612  0.7966236786428912
  0.4008864504778669  0.3482029590954778  0.0218001968768709
  0.8180571587398945  0.0035689305214997  0.8749579416703176
  0.7624342964312844  0.4076918221589261  0.6755158372415399
  0.3018309393774346  0.4858812962707772  0.1190236730002035
  0.9383351238187743  0.5811474134947890  0.1956780350021740
  0.8538130792709282  0.2578366098592780  0.2168504232323264
  0.9352800897272149  0.5532895661415638  0.7059166560180860
  0.6976672893986631  0.7041909030878626  0.5862480007276096
  0.2231433118859829  0.8591071701596921  0.4433657378092604
  0.9217899296802677  0.3659537419613210  0.1437502906427685
  0.7326817635528808  0.0895078544297365  0.1694400596072998
  0.7816764450693251  0.0604606647393347  0.9582971501410056
  0.7815862377208649  0.6392924385815049  0.0088355482789504
  0.5784059418039932  0.1360252158339627  0.2756568406875228
  0.5270165843173137  0.7405316693118851  0.1194639892352280
  0.8944888064868743  0.6409713452986947  0.4988619186949707
  0.2078243642787305  0.6897046118994886  0.7515100068793550
  0.8362786287867553  0.6442053235705164  0.1403402766801048
  0.4384846345453949  0.7065873106250362  0.8818823583071385
  0.9856038992939761  0.5035392708652979  0.1784901295290514
  0.0210229195296914  0.7137623245557985  0.6813030083914472
  0.0554705187547343  0.7346918266020691  0.5353938346982515
  0.3893577874965539  0.6684862271671099  0.8168637124748206
  0.4524490156223268  0.8386978294248183  0.0621368752326147
  0.7369745249258285  0.7064801833358036  0.3171106319078211
  0.6330433177079700  0.9568657539837101  0.9027574157461008