 B Cr Ni 
 1.0000000000000000
    21.1200000000000010    0.0000000000000000    0.0000000000000000
     0.0000000000000000   21.1200000000000010    0.0000000000000000
     0.0000000000000000    0.0000000000000000   21.1200000000000010
 B   Cr  Ni 
  86 259 605
Direct
  0.5717627952588187  0.1575586153967179  0.1700731334802752
  0.1879952091025136  0.9225490585735440  0.3644234128162573
  0.6884770313480416  0.0758888307141683  0.3538641610270385
  0.6782151309774812  0.9905944001298572  0.0886950093716251
  0.0352112286001404  0.8438993149912268  0.4001780860097706
  0.5816544701522757  0.8925126304058605  0.5417515077441334
  0.0184605959645990  0.9745731923395980  0.5943314425041443
  0.9379911538587472  0.1877339861265445  0.1514506463492111
  0.1503496717452207  0.5075901839634226  0.4051432521388183
  0.7624201845793710  0.8899603998672770  0.2223905542398146
  0.3581425690241125  0.0211192427485544  0.2429484509964911
  0.5798865962624701  0.8926365295342843  0.4581461095342266
  0.4660954851271447  0.1090856411686472  0.4471985279961925
  0.6775047772379071  0.9950097677559043  0.5783430060906752
  0.1028164000060458  0.1527000375440339  0.1804030067399180
  0.2513996060259570  0.2210623480671647  0.5892359982233716
  0.5822158571048933  0.1504030034157486  0.5096032522421819
  0.0088006170782727  0.5947589102611299  0.3295210457593999
  0.8317373324945508  0.0812821605398650  0.0206560587065192
  0.0584162341512142  0.8424093618387607  0.3177572654938843
  0.0899509483964966  0.0063812998665257  0.6233815282215631
  0.8909035987039803  0.8116652962788033  0.1442071992533984
  0.9571242004470034  0.7284252063850404  0.4191631804719251
  0.9226870226637073  0.7335830715394251  0.2647642327432144
  0.0653201637189245  0.9342165233015761  0.7457596609678681
  0.5698960799747734  0.1608658136540121  0.3434090370871387
  0.2149603885695132  0.0815864160201133  0.5117831638274833
  0.9993409356427804  0.9099572498604007  0.0087784819615817
  0.8315286473927695  0.9592158407166010  0.6125375126745028
  0.3290851826058128  0.1435366879042490  0.4279876662344244
  0.2572888486623738  0.1279143372080263  0.1438981500956089
  0.3405537541702703  0.8976791184760538  0.3719728780052747
  0.3288741758775570  0.0806017382665351  0.6407316348230001
  0.9824378836591404  0.9345555566168116  0.1828961169374272
  0.9234767042828348  0.9743239433668698  0.6937658224078979
  0.9240550948854642  0.0007835204749553  0.1516878312213059
  0.8799063884267498  0.9888328679730927  0.3242057113191333
  0.2096046745454064  0.9141369258672881  0.2195860802120907
  0.1216441020346800  0.1883949558224130  0.4407502166603156
  0.0097536073122892  0.7253174690552385  0.1570668669267754
  0.1037802745214830  0.0015811561550993  0.1980000943697649
  0.5825488474668090  0.0903317253547277  0.5718421746004478
  0.9791467513197663  0.9242125602427271  0.6467942377683288
  0.8655854750644199  0.9095674189643006  0.5578851168691328
  0.6457414133253953  0.0410429861382816  0.2311459835303523
  0.0029664169907225  0.0886803876564974  0.4872522722694434
  0.7379974853312617  0.0943749580545652  0.4142996065930771
  0.4073485970745062  0.2083736921444413  0.5916305901540798
  0.0012095372404321  0.2316443369154376  0.1863498462656355
  0.1690334720284886  0.6921496343865329  0.2663424719761462
  0.7098091106211910  0.0650568221922494  0.2773914813413040
  0.0724627897702402  0.2138131648674023  0.3757123389309519
  0.8245683089911521  0.8501391749485845  0.5959491829035616
  0.2447408559280900  0.0053550722429439  0.3383130933900085
  0.0010954381676046  0.8981805249312149  0.3438620951181936
  0.0660520585210743  0.5897379854895964  0.2556272962420961
  0.1433536015175050  0.0459100392741241  0.4829128312216711
  0.9412620469350698  0.1001019998423903  0.5968153950093128
  0.4208876392719634  0.8470479726937786  0.4911594731314187
  0.9888299041507843  0.2449110396872808  0.4992670239931019
  0.7557869119029179  0.1576361228738780  0.1604835424219776
  0.1242536087453765  0.8379213397602892  0.0611012963387097
  0.2421395209870578  0.8192630756705069  0.1503878377948001
  0.5880950895664169  0.9196844685909573  0.2355889700778849
  0.7203597769637944  0.8646441086722366  0.4903572081916126
  0.4832563756261364  0.0133819626865522  0.4269818895058007
  0.0830549648028667  0.0270068590311569  0.3378386690147108
  0.1288745957113238  0.9219472490655330  0.2135286315154873
  0.8268648930594620  0.9410074125203426  0.3627532073726301
  0.7338268249470666  0.0055234002033370  0.5122234582659485
  0.1637641710977783  0.9650488290657961  0.6015060080643836
  0.8397143671036269  0.0139816855233147  0.2562972902437695
  0.4822482939801773  0.9887933306424742  0.5780998692887838
  0.3426319294714167  0.0035819125387385  0.4429563180630513
  0.8422502834551427  0.1708131301812922  0.2604333136944146
  0.8303493493731903  0.8711570011186912  0.4042591444039087
  0.1965236871713981  0.6521179104888692  0.3321827699943481
  0.2298140668224597  0.7508945412239976  0.4181334137982057
  0.2499850412154683  0.1554321809302834  0.3437300457124411
  0.9053718806493002  0.2343922170815149  0.0931832115888385
  0.2613143954848231  0.1354603968090073  0.4787436234847200
  0.1543169852087830  0.1631746407880657  0.2455383779938244
  0.7829356201632478  0.0337783229435101  0.4461884239304905
  0.2380180196838465  0.9193922246821983  0.5805539745347394
  0.2624295585513940  0.0448168210241155  0.1415224178292755
  0.3934096229624702  0.1219014531605621  0.4839839144237264
  0.3289837444581642  0.4250838569673961  0.4178675064718307
  0.5785638324281446  0.4201836442411810  0.5059341947915735
  0.1656564333818379  0.5823762700375965  0.0774055517363014
  0.2487213378068812  0.3505911235401123  0.5949090278039548
  0.8821657298249010  0.0894959296108292  0.3113329097387459
  0.3289706878763904  0.3411226332961979  0.8340095741797391
  0.2540302691324429  0.2639820721234183  0.3261867625843254
  0.6663727456600451  0.7410105908790108  0.0754015083575399
  0.5790964578302280  0.9123600717889542  0.9883128341816522
  0.4146380151391967  0.5038714667590052  0.7519429717361524
  0.4139640527444853  0.2622570595367792  0.6734506845191419
  0.7294485556975410  0.8201806365454939  0.5888209449369357
  0.5796107120843775  0.4996132010809332  0.9159030416586112
  0.3316614110823781  0.4232319813561245  0.7537854901612268
  0.3362099076355354  0.7352812866884226  0.2470867426425129
  0.6602288472039436  0.7350125384825238  0.4149104949365874
  0.2537966676365213  0.7456734866809084  0.9932091886330437
  0.4149648017690735  0.8284308077616677  0.9103694772605919
  0.6602135424794259  0.5771824673584413  0.4183645619042621
  0.4163003868459809  0.0852999166913896  0.9955505291107750
  0.3388347707284344  0.8324239445677657  0.9866712974344664
  0.2557378550502185  0.0020317427440447  0.9125540274621855
  0.0060834701917445  0.3397986994866468  0.1607925160833567
  0.2451592175708185  0.5011853145867878  0.9140363918259159
  0.9128979927713362  0.3615826405329168  0.2576896619220559
  0.9173602768364637  0.0891048188120386  0.6893195378468329
  0.2460287687551938  0.5835299500841749  0.6699865991444290
  0.1654070347510430  0.2549605973299024  0.7514310632225487
  0.0776897511755715  0.4160205372700881  0.5164834219817336
  0.4980124081515625  0.6558389912250385  0.3291193790475049
  0.5836647266657521  0.7414870059415246  0.1590833531644872
  0.4160240600971302  0.5046672303337928  0.5876055173413447
  0.3300389502913439  0.4236037785079833  0.5883211305235821
  0.4152810056866866  0.5825484707373270  0.6696242765698527
  0.4954124790065739  0.5786892780177798  0.5870331761221868
  0.8258807254047112  0.6631901731308106  0.6710052386246319
  0.2537242666566691  0.4199384998024520  0.3278119161438908
  0.6651951480966873  0.8946985637290602  0.4042468387844116
  0.2551980758814534  0.8295385289018579  0.9091362810983429
  0.7446774776510461  0.9006262385932929  0.3289271682915209
  0.8388761611157016  0.0039894052283606  0.5215125673643068
  0.7365809804720208  0.4144312403800800  0.3366900689508893
  0.4260149567470365  0.0312564457857551  0.5038024222140431
  0.9952104315324131  0.0085536282160337  0.9892090330866806
  0.3501977095659780  0.9872634436403219  0.3349537008912122
  0.9155147404731347  0.1953632829605156  0.4393908315436855
  0.3351025350635117  0.0886387728547549  0.0795351970552621
  0.6599497649126358  0.2601287865228674  0.0700755176004565
  0.2371919357663949  0.9176571187603733  0.6780464444649843
  0.3369301704078669  0.8240290284602837  0.6740380371072811
  0.2344714841859705  0.7505861160010446  0.3185156053301582
  0.2698403893645041  0.7520599181665518  0.5081037162697003
  0.1623027206348322  0.7456159761626895  0.5875847126875861
  0.1641067388980649  0.8607300936014028  0.2894669470215159
  0.0808014431937186  0.9143705541987203  0.8405668968931583
  0.7810537868729255  0.0233417045807150  0.3411474189838503
  0.0774455802064922  0.6684886910557651  0.9181357966716639
  0.9970411060470501  0.0721243684206366  0.0715669060297958
  0.4151918890743924  0.2574470198307769  0.8327026601008169
  0.4993923161072126  0.0006895306730500  0.6798363560472385
  0.3436909608012721  0.0021989849349691  0.9904036996425410
  0.7600475809101075  0.9194990573933909  0.5577985474870899
  0.9134427485677253  0.5815791753031038  0.8344477723357601
  0.3318930727860023  0.6627947971426830  0.3284492951705441
  0.7461200280178576  0.0021460913821318  0.7579140468077361
  0.4959202899327270  0.7362771701843083  0.2406845288066538
  0.4992878099942123  0.4978747265487117  0.3330030049369586
  0.5825255640166180  0.5760519557589332  0.1604541677832120
  0.7504278221056192  0.6603497391592198  0.0788686158331461
  0.3359948757125514  0.7441857269552432  0.0700186297267043
  0.4996238837155302  0.7409998628690344  0.7578208088295252
  0.5789371849500583  0.4166368511717169  0.3340137994257939
  0.1804983098469006  0.7543666041501073  0.0818183637137841
  0.4945478211556055  0.8172506341867348  0.1562891906019339
  0.7442252584919087  0.2572528595640403  0.6772133532337031
  0.0793997872319518  0.3401253107020450  0.5932566042711435
  0.6610250190493943  0.0864138370411273  0.9109739882695969
  0.6639148683189254  0.0870192150646820  0.0620142789188502
  0.5818735828342974  0.7420303596051734  0.9909563840105315
  0.7414476003202596  0.0869621136866201  0.8359534852250103
  0.4259809606186428  0.0813119362273609  0.1615551484753721
  0.6631032553405246  0.9803839416663691  0.3126152061715097
  0.4152290957342672  0.5809370865290089  0.8340278805173484
  0.7150456795401408  0.0608265090238859  0.1547279126912303
  0.4967023399394939  0.3403306319861703  0.6706421143496770
  0.6314542363654420  0.1242764688918092  0.4201916098326961
  0.5804696523466114  0.5010768014542872  0.7541133576796423
  0.6532742061747485  0.9428216984653303  0.4978360145785430
  0.5015185149785240  0.9153864784515674  0.9106890035822235
  0.8381131485957276  0.0944054796718972  0.6014024987541647
  0.3318683927428173  0.5013442849455948  0.9949975986821622
  0.5800365952978968  0.3382387489807965  0.7543853687711819
  0.4973017448788790  0.5025587708576913  0.8337992215503423
  0.7664119441333844  0.1359857333061921  0.3271434194446856
  0.4147575117093294  0.3434465288332407  0.2458266906483316
  0.0511108698291062  0.9558662190218042  0.2692848098097076
  0.5804258799203568  0.4179335496794683  0.1626748520078436
  0.7471082360184697  0.5822257406089503  0.8374618451841623
  0.4055732392093521  0.1797292749649659  0.2362826990518826
  0.4978313357361118  0.6623243351575770  0.8339762966194879
  0.6639048347208957  0.5774022082331303  0.0782887328864855
  0.3355956985943565  0.6623089156698940  0.5013769286879223
  0.5072118710777036  0.0928951397353451  0.2310914098438364
  0.4998217187240357  0.9124338775480930  0.7562338495787932
  0.5817467911716483  0.8118577547858907  0.2383735664533545
  0.4295216128138912  0.9076702649567814  0.1499043732816970
  0.6650831811718850  0.7416353446607619  0.7566194394650869
  0.5822339696568120  0.6627240450922683  0.9171340785608554
  0.4999285734479478  0.6626451524891502  0.9939286284097291
  0.3310874317771523  0.6620523616654864  0.8328342277612317
  0.4990951214774179  0.7402173552062952  0.5859830810413234
  0.5819231083134888  0.9141000382140007  0.6891045106309671
  0.7399520243549081  0.4204158425691417  0.5092231992924715
  0.5824833869523949  0.9906884182041583  0.3972316305730286
  0.5798501168580424  0.8081851463664078  0.4045091028814762
  0.9095630409561700  0.3421112492457486  0.5981095183885581
  0.3312319278715650  0.1943782933014652  0.5137347525604817
  0.8789099785560432  0.0109261163131396  0.4192141981122997
  0.7418944328218950  0.9834488415687188  0.2367787159428352
  0.7431221390882112  0.2567290117324617  0.9917429674695712
  0.1620779820041776  0.6659729525472271  0.8338487840969908
  0.6619891987081188  0.1756605685721344  0.1373379900640533
  0.5005762251443668  0.9109931304353013  0.0675588048806934
  0.7512127429899093  0.7427452591312658  0.9971450738692013
  0.3354649223047714  0.5013668646021111  0.1577403128925731
  0.4133395709705269  0.5817720239153636  0.5003145265349173
  0.6626350313653403  0.3372728538301821  0.8341995465781153
  0.0789869199303092  0.4220324284671700  0.6717529306053678
  0.0885427386916038  0.0968239827988775  0.8426086983340735
  0.2567990389535283  0.6587000684726906  0.2419002447068594
  0.9931044704215016  0.6629865244483265  0.6679890408295133
  0.1606379520380664  0.7472385658597860  0.7522055613802059
  0.4372300937914487  0.8167681907369038  0.5957568234323196
  0.3316975873823690  0.0981657010845343  0.7579494995180660
  0.2477756457645388  0.7418973737360912  0.6734444017757033
  0.3269376583474075  0.9159436420700041  0.6271223541105745
  0.2478821502662853  0.8186337584147229  0.6048446993594258
  0.2407923940519746  0.0018204231091299  0.7638462800854560
  0.4162967877270600  0.0870623143075836  0.8296185922217836
  0.5817071392980298  0.0002413344403108  0.9132063412128683
  0.7398326602567492  0.4160491042187962  0.1626260822381819
  0.7433160885988929  0.2592235507527836  0.5147072111071743
  0.4975408487287595  0.4990429047871224  0.9953579234114484
  0.9167277518078197  0.1742098795735823  0.7560608400898223
  0.7438397139047014  0.4212749444621581  0.6749418541394965
  0.5776139239526987  0.1722097148357699  0.7511367422685765
  0.4951111673811090  0.2611875692808416  0.5928886936637822
  0.5768675515134445  0.2547743891593735  0.9948412883106353
  0.4881082558915271  0.2742191261909238  0.4211611574248790
  0.6623518426377817  0.1881096731967026  0.3322574391914188
  0.6601932901154798  0.4175282554926293  0.0781517625566878
  0.3941127183802995  0.0703786493092062  0.3950585397177430
  0.6709063299378569  0.1404800589274616  0.2266185076336198
  0.8311425073690705  0.3385636978066095  0.8355261524701050
  0.8314495985387848  0.4985337062207954  0.9981396281045617
  0.4993034621289097  0.0856212412722756  0.0817455636223898
  0.6620439615884441  0.4954204046999582  0.1634613254568004
  0.9134025503031505  0.4190644213019698  0.8352002699052629
  0.4801800288146559  0.1716542466848803  0.5269443481028925
  0.9188484263618517  0.2863241990516002  0.1736341109289306
  0.6589423814748215  0.7387089721243801  0.5886429602204373
  0.0859353407687807  0.6808988217190384  0.2109080068573073
  0.7382671484058998  0.6526051075938292  0.4196308030596698
  0.9028766914085968  0.4157829503950783  0.3459585763161852
  0.9899467124094802  0.6585482879757953  0.5046559948014206
  0.0525259140203496  0.6442384260379640  0.4192696974088320
  0.2648417240848357  0.9964906286837147  0.2358130998492247
  0.9994195234773432  0.7410416958868951  0.9100378058464711
  0.0931373259698032  0.4247420613026966  0.3292310103050666
  0.1729319959371214  0.7913337187915556  0.4906505386916266
  0.0878051749154324  0.0815175058405336  0.2519304428487486
  0.9873546357258846  0.5663074218415596  0.4244947790849251
  0.0839089089982765  0.1740107445797133  0.9209442154124337
  0.2457076886939893  0.4248858426090036  0.6750466536893512
  0.8300960282098685  0.5750933320195103  0.0794821212931616
  0.6643876055480143  0.4987188556395339  0.9978510045272246
  0.0799531618620006  0.9108243947663649  0.6489585048747823
  0.1620600852166922  0.9816571868303458  0.2820353053079108
  0.2655458591947434  0.9120373965516851  0.3050999258669944
  0.1615485686742163  0.6703826153593635  0.0023238043022150
  0.1915295262630210  0.0782206538924302  0.2029489708501162
  0.1609898546252082  0.3474132219865649  0.5065538141776901
  0.1694003353164014  0.5045044349301953  0.1582670502490754
  0.9927975470270226  0.5819820618388815  0.5880308176632284
  0.4977037551807305  0.4184242626634811  0.0784461935792969
  0.9105766862514983  0.9103132049537859  0.8382975518803299
  0.2505701301342800  0.2589847530436877  0.9926189332485036
  0.4128016248606430  0.3483636874012800  0.4183436349862519
  0.1622804019789892  0.5026557721856703  0.8360652555748174
  0.0092528373722906  0.9925610837470817  0.8293108876280372
  0.7430979393466224  0.8151407397499124  0.4109836183861642
  0.7480474665133007  0.2571204808032046  0.3440145484569164
  0.8140669294277958  0.8293101935309339  0.4984578413995566
  0.1774494688557674  0.1733520919219453  0.6663867354120523
  0.4171285288666212  0.2571978163496877  0.9948981052198198
  0.6667895709956350  0.8289453287251907  0.8351563796058431
  0.2506048301416389  0.1787132495719718  0.7543958295406529
  0.0884801284040672  0.9286927914061480  0.3700136017190039
  0.2439207788048276  0.8401453849785311  0.3879897173962329
  0.7489861181695624  0.6611606352870022  0.9165771907806199
  0.1687581592688332  0.3397642928197897  0.1583435714865235
  0.0864360137257242  0.7534999773960849  0.0061387713645786
  0.8349611603066678  0.7477053782017503  0.0812294061163472
  0.8201349785090931  0.6551706112331241  0.5065630185431573
  0.8394214974698258  0.9122714903576171  0.7581697122036131
  0.1741819392538090  0.0056792815622568  0.9904663143253135
  0.0895861709371163  0.7725206527545591  0.1327348007507820
  0.9088442193556383  0.8211024382660672  0.7512167891376039
  0.7449218816643717  0.6507129246019052  0.2455681723982458
  0.1635851945666761  0.3378701899125947  0.8343154282888976
  0.1835138162537538  0.0856926883323778  0.3130373386029298
  0.2122622872589509  0.9854016346563210  0.5116730387857390
  0.6581117007191556  0.4925003550140264  0.3322932481357011
  0.1549884157657251  0.0709149994315579  0.5867699924117910
  0.9909479306236533  0.0880154405702978  0.2836468669748269
  0.8367866242616847  0.1130677024676102  0.4172481528549209
  0.9130624520881726  0.3348452584770785  0.0755299053753214
  0.9973205030838700  0.1653384503593705  0.6671688910251882
  0.0802872723216468  0.5018172786150228  0.9168647959020220
  0.3335699973421302  0.3421548735434093  0.1591311309368864
  0.7742696046130952  0.9349691038320660  0.4461401056749151
  0.9727519967587183  0.9067100518932896  0.7485146188730073
  0.0805793619133855  0.7473977930060658  0.8282304224767800
  0.8316755495162166  0.9156010152682669  0.0694785902414550
  0.2452849154996588  0.5038800966696960  0.7538328341362490
  0.0628584636558830  0.1923989704328277  0.2666492393862990
  0.9979396812470065  0.3363738397682290  0.8355814524891731
  0.1386053143094379  0.8221313575823133  0.3868104468083093
  0.2579089226472563  0.0125494752451112  0.6025660342000928
  0.7927090041238689  0.0932595018617545  0.2289334543174016
  0.0915551892916469  0.6580155708504962  0.3181706563689127
  0.1744868101070381  0.3456543425039362  0.3288429189233698
  0.9068569113728573  0.7440775459115728  0.9971667402066702
  0.2519109497823556  0.1760306216778401  0.9181318788188143
  0.0791286224335626  0.5020387274569027  0.7516957215576535
  0.0914874402594908  0.9698964220785579  0.5268584958373466
  0.0812214307443574  0.4194793652814615  0.9976795807058501
  0.2468945574423653  0.4221724644101374  0.8328322761682272
  0.1807264186225753  0.9828990207303140  0.1471969463601244
  0.9151362287216380  0.2504745027476096  0.9966897445028238
  0.8292736375524716  0.4192668545820045  0.7566679105609363
  0.1890404125944525  0.0848997986197765  0.0767977123884467
  0.9955228085800885  0.5773701542174282  0.0788970230961043
  0.1675608422753471  0.5892591256032993  0.2503061937588273
  0.4156586772302702  0.7389670109514060  0.1564406617033937
  0.3313359000085004  0.1798521519006649  0.6641073615988589
  0.9962702313807388  0.5821937366532441  0.7503939635606883
  0.9952952388776444  0.5031950790757177  0.6724919258374202
  0.0825929425812694  0.2525408619816868  0.9994787282326991
  0.2505627280319037  0.5043607241443733  0.4178933754982281
  0.9077321671524536  0.5696865965356294  0.3381184401673923
  0.8229661669521559  0.6432663831637854  0.3337498752005392
  0.0861946174018745  0.2594024777830681  0.5106076163723194
  0.8213065228616923  0.4946680302611043  0.5091028492260714
  0.7454289618243050  0.2567374282248382  0.8360953636953455
  0.9163929027308125  0.1769221623574244  0.9159796674508393
  0.2540360054641010  0.1775907882089411  0.2464842045640823
  0.1682305318052465  0.6669472880861097  0.5060243651593577
  0.1644043062127809  0.5841615129044535  0.5851380850329667
  0.9099294596294266  0.8275505932301118  0.9132896832008238
  0.6712359307890119  0.8866608579253628  0.2431339315483542
  0.8304222307627823  0.8302307588942294  0.9942458504275218
  0.6626951945417963  0.4193085921760611  0.9148990790957561
  0.8053205114309746  0.8356512419844919  0.1598353733896861
  0.6598295309255852  0.3356297800481506  0.1613319983562555
  0.5809173397878857  0.5801667799129828  0.9967441513058928
  0.7415035562411832  0.3292143769391712  0.2501181732889818
  0.6603354476383700  0.4115036405713838  0.2485862875802917
  0.5821501066549777  0.6612231511305908  0.0769843214699463
  0.7464539953613779  0.4192652870040289  0.9962935366866028
  0.9193302259579745  0.8407009626328382  0.0633131768516224
  0.5796981077820365  0.3386082560685090  0.5905117047411325
  0.7459373735807169  0.3383007141111115  0.9150650384688008
  0.6600426591958670  0.4195576555070282  0.5903952882550380
  0.6633109700501009  0.2573825663732425  0.5953210111837872
  0.5820354843629001  0.8280547199150041  0.9118393290586991
  0.6652423173090467  0.9973323526284916  0.9924760470935170
  0.7650440764973614  0.0099723214635363  0.0625659346775898
  0.5372107791797537  0.1818917242617246  0.4302778140399482
  0.5834783673292475  0.9147334173717702  0.8316709730323492
  0.8190103766844546  0.8173390660130238  0.6785510849949565
  0.6530779659604161  0.2515833202114874  0.4269790803649497
  0.4188988571903758  0.0014729036261701  0.9086918080115146
  0.8914092534978857  0.8960058010148170  0.6542927581299240
  0.4998283646215631  0.8287763469098035  0.8338390974548536
  0.8434095140638264  0.2719726517739524  0.2569995201843475
  0.5813690657436363  0.9981011704672955  0.5898152696385310
  0.9316744380033234  0.9923279792660310  0.2470190155721720
  0.5844340805819025  0.8257419632157937  0.7588759977344932
  0.6409776986118063  0.9715843413641300  0.1736673546587651
  0.5043592850106845  0.8236677813338944  0.6807995136864575
  0.7443144440329817  0.0886876229576864  0.9855178715492692
  0.5224088338964302  0.9578585638738820  0.4970673339103588
  0.8266027119873275  0.9098995377218563  0.9111885549717081
  0.9975069402825942  0.9197527710672116  0.4383252365934710
  0.9589041641319058  0.0929364895475150  0.4031051789611536
  0.7412095511999157  0.1841600456511079  0.4308052030895853
  0.8289013863950280  0.9978080588679102  0.1629696591094573
  0.9158901275121007  0.0865943060050603  0.9794281614169137
  0.8306752330113459  0.0000678330827213  0.9740327531434415
  0.8255063057077578  0.4887774695717294  0.1643308783093035
  0.8297366438534091  0.3369564076566436  0.9953404577872373
  0.9095304565785366  0.9014474651689413  0.3557721658244655
  0.6605077412846880  0.2549809617511341  0.9135331403370499
  0.8954079857894266  0.9100395874676337  0.4741657647960640
  0.6600839777246544  0.1718142901504211  0.8338013503523066
  0.6698299473257415  0.1741028754985058  0.5187661830483781
  0.9911368068746423  0.8963677663997037  0.5542576681848410
  0.7501308501539270  0.1739736043099082  0.5991104621322803
  0.9103489748842604  0.8207040742768534  0.5694189797982490
  0.6615073365952145  0.3389474268665965  0.6745771769984340
  0.6619892850922294  0.2562518805279788  0.7554090845310854
  0.6641658883343251  0.1750512470075651  0.6782528367661440
  0.8961191764926327  0.8091685868151456  0.4221902142978524
  0.7515615393677123  0.0927281580461718  0.6867592333579567
  0.6620085208448744  0.0880219461982735  0.7539762761462319
  0.7595191944037467  0.0195776115678281  0.6081177168239101
  0.7369141054945306  0.3357902940118406  0.4259113413836567
  0.6585676397423247  0.3304498995239176  0.3367108362170115
  0.6586266312902288  0.3359124424774700  0.5085370480224795
  0.8215284750250417  0.4927545293817391  0.3375650329269424
  0.7562672676159550  0.2084409408106044  0.2440819858981501
  0.6620699187000577  0.9996133875291462  0.8326347704837687
  0.7410560646099761  0.9991649177187608  0.9109218324940088
  0.6671169316417151  0.0006635650936186  0.6757561235179097
  0.6716159229434412  0.0923946625739413  0.6063131378757285
  0.7463818685284442  0.4968280326907220  0.0791891708775636
  0.6930476816050489  0.0111166327537958  0.4190875243705390
  0.6646614985540593  0.6615206984611405  0.8364506116592167
  0.9032844421781826  0.4821950830947301  0.2526358633319696
  0.5831446450851384  0.7438501870716319  0.8360885990528650
  0.8283866830354638  0.8254660118982290  0.8333567653098917
  0.6595280400389144  0.1727794533556104  0.9922142748871824
  0.0838809778084937  0.9910297850259895  0.0585850240133618
  0.8354874833133069  0.0071054156444841  0.6896255438377606
  0.9071844710646135  0.0968417108122405  0.5073311048325713
  0.0016494417127477  0.1761945249095531  0.8372616532204407
  0.7552814529973831  0.0966673220495953  0.5128485894678686
  0.9229989258613380  0.0036204390713435  0.6052065767226670
  0.7431452631606101  0.3398313827116891  0.0750753368730783
  0.8313212569813880  0.4182267760934928  0.9156218315903135
  0.9082495797098371  0.7450639024978465  0.6650281174171555
  0.7447640388950098  0.1714369316178475  0.0662858316021405
  0.5804658826110923  0.6561864372100710  0.2420886953921205
  0.8306549141961974  0.1771184239726905  0.8364006712392441
  0.8285673420721784  0.0910338735687774  0.9075449246983825
  0.6617985457883937  0.5009510054725558  0.6725334453924715
  0.8309428989992219  0.0905806510859536  0.7661141441930165
  0.0043567213899398  0.0918772661349510  0.7623506434707900
  0.7458150746609833  0.1756468335971773  0.7597263278999580
  0.9154142595990377  0.0082403869714613  0.7752145491777859
  0.8253352866007245  0.9999146889994001  0.8382967294684009
  0.6545697363530565  0.9071222260327648  0.6057179861602155
  0.5144084700474144  0.9060404747190841  0.6045655833637160
  0.8890204017854643  0.0215289972820108  0.0679061026457397
  0.8254750898973056  0.8186181876989774  0.3286951196440616
  0.7483495200338723  0.9139572357636563  0.8324568526151227
  0.7393209150905286  0.4960307915576504  0.4209714089835982
  0.7463344731615548  0.9155110284938774  0.9958816838455294
  0.9103383063417793  0.9231234721884118  0.9870800925669238
  0.7554918704243462  0.9154752767816210  0.6733009601965012
  0.6627407878064752  0.4201555902740192  0.7549791915693839
  0.6644093005253907  0.9125621725510441  0.9131531295462733
  0.9135467601159104  0.7441747826158163  0.8341510014031126
  0.9074045763789029  0.0893029056534688  0.1852491667696222
  0.6565346958843464  0.2570721562536699  0.2434608814119608
  0.6631482136686654  0.8238544875398748  0.6790430305213978
  0.6452319323034752  0.0562682717821667  0.5076745730346490
  0.7471959684131730  0.8280476911677075  0.9156604259908477
  0.3334775151741900  0.5001687533224530  0.3305664411935140
  0.9330742110469059  0.1865622782836747  0.2464037016710717
  0.8438223890870687  0.1933366031644659  0.1679733653684518
  0.9992313723394560  0.3328130624676982  0.0004503404535424
  0.8205004721626102  0.3418095830870769  0.5128024796456863
  0.8213225398007963  0.2579016408537370  0.0733991129710737
  0.9162901352505043  0.2572339227457012  0.8354611448552769
  0.0038447506958932  0.4231717519845318  0.2402695055136168
  0.9115660716521535  0.4210942642671083  0.6756225256911633
  0.9039745089277987  0.3401455357183389  0.4341037515997108
  0.8166963091821384  0.4119113488993948  0.2526970873033051
  0.9137797729662220  0.2577446709756417  0.6774227423420990
  0.9140803369982841  0.4138138344466007  0.1594216739840899
  0.8298377917862266  0.2583633983851784  0.7568620153500334
  0.8291686359399757  0.4154104187540181  0.0781770839575418
  0.4155807658148423  0.4198413896060922  0.9951602075872744
  0.9155296491396265  0.3360485410716146  0.9178187198326826
  0.2475660115553323  0.4229945441812957  0.5037267077289216
  0.8306890595911821  0.2563187029241664  0.9160357730762438
  0.8219391264652491  0.3379506612559051  0.1632490005929822
  0.4136503168912024  0.6619197302240777  0.4155672636518400
  0.9198461774885739  0.2875444773835156  0.3404638311685789
  0.9998166847152994  0.1672118571484923  0.9991202558279952
  0.8296970249782722  0.1742300248172672  0.6829412582946615
  0.9056245968677266  0.5771359674859557  0.5078593538162139
  0.7453340077286174  0.8282523252862168  0.7562911865975123
  0.9019528538294690  0.1836014626220269  0.5994541635825135
  0.8226456157172709  0.2610039625568858  0.5984536791268196
  0.9063570927282343  0.4185374683401303  0.5144910403520242
  0.9819062670246048  0.5567749133011656  0.2489431385742287
  0.7465403485864904  0.5014910630961911  0.7549945102824083
  0.7415490135387957  0.3405694255856716  0.5941117670483189