B  Cr Ni
 1.0000000000000000
    21.4827392433039996    0.0000000000000000    0.0000000000000000
     0.0000000000000000   21.4827392433039996    0.0000000000000000
     0.0000000000000000    0.0000000000000000   21.4827392433039996
 B   Cr  Ni 
  86 259 605
Direct
  0.8125142922129186  0.8870523063980834  0.8337094754475232
  0.3116575743151091  0.7009065192076677  0.1614894737169993
  0.2797605311010254  0.5612011353408255  0.7510324916244202
  0.7452919486791701  0.5828406350328630  0.0539874831172296
  0.6187387751669220  0.6063830216992308  0.8660526494875347
  0.4994761268730115  0.3829261486715175  0.6957478083668206
  0.6642733388191984  0.4312598281594154 -0.0074504069964542
  0.5652357149235187  0.2140230334774962  0.8721912944962431
  0.9096327272981205  0.6561695779160048 -0.0281928173416895
  0.5729678688419528  0.8353319896356073  0.6667732276150676
  0.5865908782346424  0.7641453400083124  0.7042204282266977
  0.2409926111758298  0.7489033093953457  0.8950471941621398
  0.8002641782373747  0.6500524998871421  0.5702505584628352
  0.3197477958425965  0.4226685915527792  0.6463000669883535
  0.7858469015017241  0.4840382642778408  0.4133420568938326
  0.7022334421268357  0.8484697615928535  0.4790302764586932
  0.3095405555848595  0.4296023632759595  0.8380038970297766
  0.1326450773656498  0.3444507756957872  0.7254604909845458
  0.6004926673198241  0.3479317181904940  0.8158833438106974
  0.5162858013645453  0.7594639929760414  0.8356887648264990
  0.0826713971815090  0.4027193936742640  0.7573943400193337
  0.8025028413994738  0.5349734572861536  0.8853137038938274
  0.6969102276165625  0.4996450977551514  0.5515631983224697
  0.5013653547362567  0.2606062147231811  0.8372539335252531
  0.6341646704512016 -0.0329921225552184  0.9204224113872306
  0.5569624579701694  0.4727293245625432  0.1238652140474471
  0.7582560895348281  0.3438078459956784  0.6286817908841458
  0.1661092664607539  0.6645759167947100  0.7375645499095597
  0.3728879326046342  0.4874802142817715  0.0902107500640286
  0.3949225158570422  0.9193866154741472  0.4529900870147959
  0.5528650272971620  0.9457571997792942  0.7841237073115905
 -0.1091637351679980  0.5771551040550219  0.7185411656638369
  0.8020130177059661  0.3990886038223407  0.6681321682340975
  0.7956746836622796  0.0000896844794949  0.5604925345824298
  0.5261722674643295  0.8473457304952500  0.9258221231749328
  0.6581611255103638  0.6540963270125933  0.9192883252890549
  0.7102102955795909  1.0054791177184244  0.7950863089801454
  0.6386680875852659  0.8672874783601596  0.8201428623550552
  0.1711252532785633  0.4972152585678668  0.9071673918813042
  0.3084968954713729  0.6199913606776489  0.1578827399118057
  0.2356965888092137  0.5553964744817323  0.8934877979904429
  0.0653022239583464  0.7343648042865738  0.5835210239462351
  0.8080337665527749  0.3085932195129720  0.5749302799558966
  0.6435817450303464  0.8289454868062338  0.2207746235973586
  0.5213305230290797  0.4763426373354421  0.0424750878070758
  0.5556687380425098  0.4707703666033076  0.5523426571349874
  0.5386819744934405  0.5313924532764576  0.7789051459027846
  0.5045054085284090  0.6055246242421644  0.7670680741529623
  0.1502151037323405  0.8078064595727761  0.7406536363964571
  0.9126849499162050  0.8720728657542759  0.1685542483019987
  0.6613498730265505  0.8110393711522248  0.4227275602704695
  0.3033925474298896  0.7445604715730849  0.6495916505929770
  0.9091170186814225  0.9522494191349541  0.1661317474264287
  0.5566671364931080  0.5814158609756485  0.4593535121599329
  0.4667107437789511  0.5937851803426626  0.1205668699173214
  0.7763350196504110  0.4913914440782462  0.5572266632567731
 -0.0144158119659403  0.4694563338630171  0.9086513033797271
  0.2317397775225005  0.0727065458334017  0.2872311561772417
  0.2066873140674691  0.3054330314480868  0.8460554733500656
  0.7099548565799639  0.7449287377091501  0.5762978741635018
  0.8914396951228080  0.3384613993799135  0.8256475146986517
  0.5643110100800826  0.3583371315974161  0.4771362985174819
  0.4396255768760394  0.6911501809522751  0.6201357869585649
  0.3950439365187050  0.9209988758687624  0.5341419830784837
  0.6116001647884522 -0.0003169528683992 -0.0036344631866381
  0.5611693520938960  0.4381619910901736  0.4743838272329489
  0.7272925272954183  0.7497132422773707  0.7591556064044197
  0.4819906367264357  0.8096901391745531  0.4153787994801171
  0.6670332081894990  0.1648582111181369  0.7511202411611082
  0.0642819834901863  0.5867817305118163  0.8684796557479048
  0.4662740234965287  0.5840583363005647  0.5305294576393226
  0.2348700936210462  0.0709735489896769  0.3658019256928395
  0.8456213376507717  0.6354992970855514  0.7570152069451024
  1.0178288945408582  0.6647503539582507  0.7278185918587329
  0.6578189666934351  0.9001568222564995  0.5252166773396463
  0.8981489578381540  0.3978187908673906  0.0417673225611603
  0.2460518933809044  0.2506195374054878  0.8947616229904650
  0.6407263311965863  0.4142897696125657  0.6859574016224982
  0.2437517664784585  0.6050243863550070  0.5571779452606291
  0.4006950398048774  0.6417395572657550 -0.0133715420294475
  0.2387348047340195  0.6207386684855665  0.0113608658206042
  0.4981452376538268  0.4218228163196148  0.1621455660567649
  0.7424692955857707  0.2460976856861817  0.8835541857253379
  0.6370314936978229  0.5705689418195163  0.3373199230630000
  0.5631797989028960  0.7440138872064359  0.5613492269098881
  0.0782180284761196  0.4048196726732391  0.0517131056078256
  0.4731770413078528 -0.0169867620399877  0.4899095149457197
  0.4003795680990440  0.1514446381209314  0.5741981947390932
  0.6615691478814861  0.8265330035763967  0.7292990898227143
  0.4742972212703555  0.0877804871742082  0.9131917171137818
  0.4606164167400288  0.8575381101657489  0.4951754202928976
  0.6359357547317362  0.8947739624619112  0.6202221940438222
  0.4834322467476195  0.0726027010560293  0.0861507421607617
  0.3311704928251660  0.8482711048093341  0.4923755854960623
  0.5724941673854823  0.0730168042739370  0.3237257489835809
  0.3888878997589304  0.9180219810344344  0.8393041165202717
  0.6417750739972937  0.9335218931897306  0.7393944352729482
  0.3922972277704229  0.9238158089542597  0.6697143161113230
  0.5679038124586709  0.1534589300356669  0.7390398982401025
  0.5802717608768446  0.9066044524546145  0.1656272554115054
  0.8268813733161945  0.8292147142004309  0.3177025413714882
  0.3971887181089977  0.7421238595851330  0.3149540604944657
  0.3972543866377353  0.8332931815726372  0.0832098027906932
  0.5733150766317296  0.2364304107297180  0.1642250881522324
  0.5658993051475736 -0.0159428970388457  0.0841409490031546
  0.4857645694902760  0.0756044193049769  0.2410506420203707
  0.5741640257924772  0.5043313574756549  0.3886943861119089
  0.5716207091663016  0.2280747477817166  0.3206504092042403
  0.8470636744618251  0.7437810132789940  0.7337783486333255
  0.8243436016089571  0.5724341859070478  0.2458109854540914
  0.8202707645363252  0.6557451478265056  0.0133545793669025
 -0.0213381988701962  0.5803948759647070  0.9191792323146796
  0.8386595224437566  0.3973251866375456  0.8957912174365104
  0.9098363996772711  0.8265452005213526  0.4024528084238671
  0.7470369223293896  0.9120635315155541  0.1609096696094222
  0.4931587750850283  0.3987457599103779  0.5418005066189857
  0.4020115896880918  0.2362535729099113  0.1623737406146286
  0.6372664504688340  0.4068517642766368  0.4135798759729122
  0.4864296349779185  0.1512453502091420  0.3202632359886857
  0.5668936882361912  0.3984039703679872 -0.0162434211138072
  0.6594129896250592  0.2385912757882038  0.0767746194671912
  0.6537658875969632  0.4861864540127897  0.1627656186342671
  0.4034987042523162  0.3137947353475901  0.0887017869019507
  0.3982573910015804  0.0867335876536721  0.6621550509696384
  0.6499294547909054  0.0740852371809660  0.5676212095862819
  0.5670856204853633  0.2287949174052396  0.4832343353543511
  0.4030919494822766  0.3143365297153686  0.4003617484300264
  0.3081858865363887  0.8281614692736974  0.8382211246613304
  0.1614315907455524  0.7425019535806368  0.4091259857574985
  0.4006807689512326  0.1602396590083842  0.0804491534891282
  0.6399022242792555  0.4827658082329204  0.2961015672696644
  0.1537077399902681  0.8273535250653432  0.3253702005125256
  0.2339039419394557  0.0803437520157831 -0.0058570463988067
  0.3974408279705594  0.0854920268652195  0.8309691843681360
  0.3263975042075740 -0.0157087221572335  0.4933185413008850
  0.3023897680368771  0.1428961584529719  0.3220819553474684
  0.4005327701544932  0.1516899901399689  0.4037122402951424
  0.4843526533266599 -0.0064281225947893  0.1634055727338257
  0.2323559182062652  0.9139185796170433  0.1588051528598115
  0.3146747654813205  0.0821132670775493  0.9138579600289348
  0.3135067260429247  0.0799155174468614  0.0766634979133227
  0.1452006935793086  0.9117475741134037  0.7447797002601845
  0.1754152378062303  0.8468488859806369  0.6484517744272554
  0.2488975512622776  0.8183644782915408  0.5769205561670537
  0.4962867837209110  0.6421892287486624 -0.0470268600186189
  0.1492474775424616 -0.0009104725767153  0.8296285813645727
  0.3965873235614334  0.0073939110438494  0.5841864289967377
  0.3810018048760819  0.6590474442303382  0.2260861857490043
  0.3174791303037030  0.0760574239589196  0.2369154312216439
  0.2734927767464420  0.5810620634262069  0.6488301164720232
  0.1469570456740249  0.3982897768196841  0.9164980133346627
  0.3148160975032078  0.0744003229088101  0.5736230322149224
  0.1750760338447282  0.6579707172522135  0.4916032440083452
  0.9059940089906274  0.0818417702995715  0.1637748417413831
  0.9039801102756850  0.9233088655130457  0.8152863724083951
 -0.0060375658944640  0.5727199033501881  0.2457753833635308
  0.9035024420792375  0.0768759214023430 -0.0054035936067544
  0.2271358168786438  0.3189180551380432  0.7384744380189325
  0.2391351715481404  0.4837115085587286  0.3967636210316722
  0.9013531491523670  0.0721807903082573  0.8236293540478388
  0.0693409170109821  0.4032081661795483  0.1636380764512269
  0.0730790940820469  0.9130986433944872  0.6540459850170649
  0.0735709431561788  0.9117729698013022  0.4853857434159367
  0.0703463629401775  0.0796920530357453  0.1597852419232541
  0.1545302564928282  0.2369657842940840  0.2451215510764266
  0.1622254347555956  0.5725027195328276  0.0770117887208049
  0.2350845322262196  0.1584862716111554  0.4115637232101780
  0.2347123413417379  0.1540372804467331  0.5735429005916117
  0.4008845141880925  0.7570321384081093  0.1609148950489764
  0.5541112870781308  0.4805379344118238  0.2245886861023317
  0.7439182945716601  0.3145524038291919  0.0793256120221717
  0.2455267186889920  0.7514637398983028  0.4876139468112716
  0.2358483514134534  0.3177810454119619  0.4065751442984630
  0.7391318100512587  0.5450362658485348  0.6362341474722006
 -0.0129041417077665  0.2379803122034547  0.0803549249741960
  0.9085591809347066  0.1589663002905990  0.4042958806367486
 -0.0075287055310793  0.1569743216277261  0.4838726317268677
  0.7406350239109817  0.1514075506810691  0.4100616359383868
  0.6533637155121500  0.5742154991855518  0.2331957262245800
  0.8224992092082869  0.1530019648874631  0.4804947243394568
  0.9066139652426157  0.4046229204032876  0.1648767059215654
  0.7339399261467281  0.8413692136878685  0.5707507837559903
  0.0536506598453163  0.8325595172552490  0.7537727664329907
  0.7410712699825175  0.0589142219424359  0.4967857539501605
  0.8135506397087067 -0.0046318744323423  0.8197051657850851
  0.8328341433790650 -0.0802616649755646  0.7353911844392842
  0.9083897078239364  0.0010321051087349  0.7356300813299151
  0.8250173383953993  0.0741024810504685  0.7329097763949913
 -0.0081473139609314 -0.0064000871021977  0.3233947004297355
  0.9148689920766540 -0.0070024166270555  0.3982800250872766
  0.6580873162459920  0.9117562527006905  0.4140359798926129
  0.6585484960339756  0.8295369145935493  0.3232371923258001
  0.8416082774312023  0.9091455128596548  0.1005917807856358
  0.7479868979757202  0.0966785974412179  0.8088010436808120
  0.1558646444493701  0.2368614973477297  0.4049528903723868
 -0.0904170909228400  0.2365452400781775  0.8215190428218130
  0.8258107653053269  0.4040290523584109  0.5701099310494409
 -0.0186970338425819  0.9125499794699592  0.0973032698987729
  0.1536918753798356  0.4021985570857741  0.2432104052718495
  0.7049014604043886  0.5708095764523696  0.8968234512174361
  0.8263873968680120  0.5746664377378933  0.4042576011218655
  0.2535783026943484  0.4908764927003255  0.5719127489235188
  0.4061774625476980  0.3150383664426124  0.5640454407153245
  0.2364014803572664  0.3180405040075314  0.5631029195332350
  0.4304624881455439  0.4725191080186567  0.0024525746616904
  0.3231197833278338  0.5734484241736054 -0.0500993977602933
  0.4288625233474258  0.3116861107411776  0.9000025848568304
  0.3153697182183192  0.8309481818090140  0.3207405641681993
  0.4023822475485078  0.2507440882398644  0.8202149428407253
  0.2340919244864038  0.4833637138388867  0.2451406336202829
  0.4152780473519184  0.3941346803536078  0.6265184103704536
  0.3968031058655559  0.6569018189368113  0.3922429795468250
  0.9043834839415926  0.4029196534103674  0.3241142494173684
  0.8210455207700010  0.2380240794932750  0.2471132226247899
  0.9035793542704746  0.6586529217580108  0.5615288336791081
  0.0754984119458455  0.5727201360913104  0.1668492111364677
  0.4003495792948815  0.7613704298526334  0.8389702409752202
  0.5729773444189967  0.8464459650151598  0.0819387180621583
  0.6716040938481570  0.7501632606365490  0.9394265576340698
  0.4531352741564061  0.5320196418667442  0.7228017253911063
  0.7393491357768404  0.1562351299550574  0.2441956581799547
  0.7404719079204556  0.2426429350235630 -0.0043427916978895
  0.7748617435795265  0.9011989475623660  0.0148861495460033
  0.7311280754159807  0.0276352941692816  0.8881065965283359
  0.7398862230405236  0.0648794207351510  0.6291877984020553
  0.7503761794316405  0.9300810728398000  0.4897016491392950
  0.7121424317088656 -0.0342498817767586  0.5862031040078378
  0.6588190294496367  0.0658843939657191  0.0708824075006890
  0.5519172214338268  0.9305483039377963  0.6805738037643982
  0.1505425328980637 -0.0088388570451479  0.6598147032588759
  0.7725062813991072  0.8160462728250547  0.9109468869900799
  0.5582364505242587  0.8459506718941084  0.7634314065406361
  0.4850324679085536  0.9176672127441782  0.2431497394152835
  0.4839673680819190  0.9174025819646648  0.0818827454702229
  0.3848313762342089  0.6851240833050408  0.7735793461166907
  0.5671394901259487  0.6435115170101599  0.3785326526568290
  0.4092129836636766  0.7465911790255952  0.4581340455426964
  0.6480954931539514 -0.0048355952459821  0.4889651568320803
  0.5641782093678769  0.5727754584213733  0.1659739345509548
  0.8225873424385266  0.2398446283389125  0.0782680569379001
  0.6521850508434714  0.3247829602459653 -0.0095296094048483
  0.7420588277565509  0.7560963694045334  0.4745276370407974
  0.0727894598493191  0.8280677286534135  0.2473717950124641
  0.7156086530663620  0.6696776408770841  0.5111154365992229
  0.4846702585255405  0.9118079705635994  0.4029090202974799
  0.7456203975268041  0.7455340339485106  0.1688039478883151
  0.6487200329875500  0.5864242887774026  0.0903711067455243
  0.5751855880357671  0.1539378514965020  0.2410043755066798
  0.7552791717453123  0.7468691472996389  0.0031287226342211
  0.9887890613117757  0.3145055878622404  0.8277561030716624
  0.6844316168758112  0.6776956086804986  0.8265011174046374
  0.7463811749015491  0.5554673307103999  0.4786105512644884
  0.6540650032550833  0.6004989148822911  0.4276880454626111
  0.8482328091781048  0.3932467983976037  0.7555690355905745
  0.7236118504183667  0.3365576604594976  0.5387241518432593
  0.6346017796842266  0.4066330204012617  0.5370859947840653
  0.7326480401964418  0.4317961922554391  0.4846428276217786
  0.8298080849775894  0.1647565847692355  0.8257015156819466
  0.5616697515790102  0.4300326150226397  0.8575583264319969
  0.7482036398015096  0.2453716506027376  0.6368120839257787
  0.7210489576663563  0.4327937675166116  0.6172106692400594
  0.7406932417033243  0.4837375462254536  0.0867647244772319
  0.6940763257386834  0.4996327732020094  0.3892454929371584
  0.3144494459588765  0.9163110169522233  0.9128441830107608
  0.4955251117149657  0.4044259790306605  0.4070548658953226
  0.1565970293036299  0.3198328450386834  0.4847993205934621
  0.0913396068646283  0.7929643396037862  0.6623142738838327
  0.1531223795570561  0.0743071672687943  0.5716335071216829
  0.2394532515242240  0.9080109920274934  0.4918202479863896
 -0.0111600139738045  0.3199805301550411  0.6447758581137055
  0.0741018716345336  0.4027671963921434  0.4844709792035269
 -0.0064248515454808  0.3214387242297504  0.4856854576492192
 -0.0061422512312688  0.4854352129204518  0.4792795874669694
  0.9114271728311574  0.6584659649872707  0.4053658434089898
  0.3091186353405234  0.3099665296465131  0.8263985756635216
  0.2201290745718076  0.6186196392158433  0.8118416763580381
 -0.0026096472293645  0.6525997841784005  0.0114541364097700
  0.1688714552587632  0.1454775656357208  0.3250643294407560
  0.7409921139393366 -0.0070573185466162  0.4048072976758079
  0.0632305208792504  0.6614651862912106  0.9320729746985009
  0.1597984428308535  0.7473761313310263  0.5731447404530573
  0.2300718308639268  0.1535090358496601  0.7347446527082820
  0.3163171266079347  0.7605165403734628  0.0799580551584484
  0.0072663669795404  0.5168942472552271  0.8184217377612422
  0.1490181599626001  0.7486803142538292  0.0832119292553753
  0.1440270531987241  0.2420305370634650  0.7358840706714627
  0.9130968975806160  0.7353493636171294  0.1693971338301293
  0.0716985568411389  0.8298643972491064  0.0835955247387252
  0.1790816981535521  0.4259652342778458  0.7320369958745990
  0.9080453825219106  0.4886039755057690  0.0885774953883895
  0.8352360552291821  0.9119248683372583  0.2339634542658046
  0.2330653536404784  0.1589866704875328  0.0759308077693403
 -0.0156260803526296  0.9120332945886271  0.2327312681259272
  0.2326925571366165  0.1591068876555488  0.2366883349541312
  0.3261318732785858  0.4741447080803085  0.0016640614159103
  0.5590322939263362  0.3158923183948107  0.9018775951651791
  0.4744982536608581  0.4055885194885914  0.9134573030455524
 -0.0026867618211586  0.4847759514938839  0.6483474175754379
  0.3171835230826444  0.6559219708629102  0.3176011449810605
  0.1430723930198881  0.8314104970304703  0.8357129229144905
  0.9120612728168151 -0.0052388029584687  0.5681642800837384
  0.0915186072395010  0.7307119395441811  0.7639646823784789
  0.2389172338924617  0.6573917850193619  0.4013498187940394
  0.0722591383243443  0.4855033058903550  0.4046222418067130
  0.0699302937092748  0.9131398813334750  0.1627743558078385
  0.1472995596651850  0.2449976397338720  0.9068834765093249
  0.9168426322025856  0.2324424097407509  0.6516450458789868
  0.0701534455174103  0.0745992995725866  0.8269370461900699
  0.2309731744065219  0.3187311924059754  0.0798455716913294
  0.1280535641709385  0.6659941771588123  0.8427885941119085
  0.1832994695521999  0.5627987610844116  0.7206080571706135
  0.4884067100562897  0.4788973304046695  0.6315899811553652
  0.3210528058206309  0.4832819357415495  0.3231067784619757
  0.4785400740179486  0.6680770471891812  0.0449063314421675
  0.0654007855951581  0.8415636494911761  0.9207525466103660
  0.4981005506934826  0.3521712965971927  0.8001289693267464
  0.3971740406924598  0.3847074057715474  0.8257092679339526
  0.4003895074487578  0.4006577364793456  0.1602994797593395
 -0.0084884825624892  0.6595107094237606  0.4887058681620692
  0.0960263333975721  0.6857894213248353  0.6639869540158125
  0.3907289069943201  0.8343909372333536  0.3952388549741934
  0.6258555111887074  0.5092097318713452  0.4862918592424235
  0.8309032962915308  0.4904712281248221  0.6458507406643044
  0.7443852423446999  0.8286290936625886  0.2420533238718914
  0.9418089191146037  0.8035456352902629  0.9206569327842649
  0.3114989842285724  0.3892785036761721  0.7425364049839468
  0.0727429570776641  0.3215107620702569  0.5657297649539408
  0.3177105078512746  0.5860376309425138  0.8454842523808003
  0.8251774840852687 -0.0051086666901832 -0.0042289143031398
  0.6546646144433484  0.3811739746908293  0.8980835920507804
  0.8265951303966287  0.6578978028967379  0.4785647609689995
  0.3167198762618765  0.2468027974651444  0.7348863775269963
  0.2463301637392033  0.6594707893318273  0.2339094125894323
  0.0686334262275196  0.0774024336730461 -0.0054307502824786
  0.2017714375640815  0.7401778989142870  0.7992243159227306
  0.3053794526344666  0.0072856362848629  0.3208171126185790
  0.1515206597090044  0.2402312660557257  0.0768203254294245
 -0.0094836546590782  0.1595276531553413  0.3241935522827726
  0.2022095750430595  0.7432639044335687  0.6827185462774735
  0.1807540975427175  0.6322691083464159  0.6380319841246964
 -0.0120886818155929  0.2382334725398844  0.2457401899170145
  0.1607091733789360  0.0016450951770891  0.3248030438499510
  0.0777293958219823  0.7393365361974663  0.1650890487680683
 -0.0045906685268837  0.8257991696723942  0.3248353208137341
  0.2659892915392639  0.6596827392643587  0.7232530679095902
  0.8338077433807479  0.1553584887390323  0.6468374163151229
 -0.0155291580411601 -0.0021473595203220 -0.0016952938030580
  0.7327781198268773  0.2112371717607877  0.8002885443921629
  0.8247213589479062  0.0787086020975655  0.0785393144574966
  0.8263733416175015  0.2330489964127115  0.7314329674341408
  0.5712142273378743 -0.0126368802022686  0.5727250368950856
  0.7361873631846996  0.1550957981885282  0.9091991539843586
  0.6920182713441418  0.7936728015753534  0.8348035257222066
 -0.0082204258623045  0.2386879157604186  0.5656179899432514
  0.8252039563438031  0.0734064489555165  0.4031998725293836
  0.5707919827796397  0.9122071440903500  0.8663571448483832
  0.9069938153498733  0.0013440294170550  0.0817496717570726
  0.5621259083588511  0.0241656917205269  0.7431122919740917
  0.7375412093274120  0.8890108160376936  0.6738804021307945
  0.8239509759385669  0.8329994930173289  0.4864723166185627
  0.6721165159918118  0.8808907952925367  0.9116414914137214
  0.7838742797877022  0.7323697851469612  0.8318442122998778
  0.7381557073903928  0.4016563130280806  0.1659010174735040
  0.9102325161232974  0.9110371828791213  0.4837940673851717
 -0.0412511018852398  0.6970462749651981  0.9066579178301439
 -0.0073273896402022  0.9096079620503141  0.4038185840755285
  0.9057211552436198  0.1592378992987508  0.2453379428447019
  0.0482727918706571  0.7535212791294231  0.8670518440966698
  0.6599736489840033  0.9250644926373727  0.0747703125339994
  0.8298081836539197 -0.0041658305861958  0.6482222849803468
  0.7733775879732829 -0.0669967765299951  0.9098597897449061
  0.6594952168917206  0.7395582659397234  0.0725545877893979
  0.6606731613105717  0.9154860669936367  0.2444263426596262
  0.0764238290689880  0.7410001134106655  0.4883778940487553
  0.6364391901318811  0.7884446736023580  0.5129518482824260
  0.1503510459327687 -0.0042578662839238  0.1565786401823138
  0.6302652739478747  0.4841142453255712 -0.0750024747529686
  0.1548082277887819  0.9104339687552396  0.4058456147249620
  0.6014524937691379  0.5870419734369501 -0.0420843075190483
  0.6937384241404174  0.5293772847425171 -0.0008879671964375
  0.8263377775743748  0.0019158883753528  0.1639770745928523
  0.7502016650005346  0.3283963829131940  0.9190894683550495
  0.7554880053407697  0.3973298340593722  0.8257951261463594
  0.0846869595809190  0.6478823722507333  0.5580288909830718
 -0.0089948385768350  0.0793078314681619  0.2453916647040744
  0.1596915404642189  0.5721284869382589  0.4036069194167983
  0.7496132135580424  0.8365148444683680  0.3973161934385028
  0.7793244352216144  0.8274327060956982  0.7637513546890516
 -0.0034998650304638  0.7460528757862978  0.6923762143141863
  0.9093973675158259  0.0002644257333393  0.2459564809824130
  0.9049466979519082  0.2378405258097368  0.1645600852506141
  0.8224963497925689  0.1586227790506282  0.1620241413902785
  0.9059594855443183  0.1520574462556192  0.7385739276332826
  0.9047888142210415  0.3211789454361305  0.2448999856760534
  0.0886132376451825  0.6115746422280992  0.7507360155572327
  0.8991763377273980  0.7428153017293009  0.6398706438535962
  0.9056477470499618  0.2371969364744483 -0.0006717307805790
 -0.0072440534487541 -0.0053482447272468  0.6523844746246958
  0.7235290437074520  0.9136818016969765  0.8112987504859844
  0.1477761515879991  0.9174455576555938  0.9152799892427094
  0.6274258378151651  0.6850414313937889  0.5945104195623976
  0.7487515886638330  0.3325251680361352  0.7241553333893230
  0.6665757937349922  0.2492844550967137  0.7157019418945366
  0.7464187103671617  0.3970933806795324  0.0071220281355405
  0.9127232953676537  0.0771501846863687  0.4821763710459814
  0.8269527364482487  0.9121719208601536  0.5711836927862414
 -0.0190225925740787  0.7494260856609969  0.5659484897702514
  0.8342559947575312  0.0815572247889467  0.5651652899818361
  0.8381163353352109 -0.0043308496966800  0.4799908079455677
  0.0801889989229289  0.6579423095735262  0.4097355451044817
  0.0661380983992983  0.7501409623154848 -0.0027420432725844
  0.8333069201597887  0.2263769366748495  0.5633920247418754
  0.8221655616844606  0.2392213165947403  0.4068187032040044
  0.9169769446890176  0.1552830244278810  0.5654208676009079
  0.7405037453567426  0.0741423127894972  0.3253209393562067
  0.8228770658763026  0.0791210585219082  0.2453445486636338
  0.6396326962869253  0.7854084658324182  0.6256962770813485
  0.5825990947188022  0.3895047940502983  0.1601086965489447
  0.6103014562025515  0.4875893895015408  0.0498345606777817
  0.4749820804703789  0.0873609886021738  0.7474398243557091
  0.7467519008758853  0.7686390056099841  0.6669290578352430
  0.5676086449190771  0.4012337923107785  0.3198171796337407
  0.7636857666724080  0.6692246192104161  0.7337890273031153
  0.2328327922171944 -0.0027847545332756  0.0765979164158263
  0.6565523503096852  0.3945423960087112  0.2424222542087238
  0.1493680473245580 -0.0025924031782434 -0.0031870908674834
  0.6443427843254724  0.3077220710362635  0.4768342260528368
  0.0678132831688762  0.9185742833903154  0.8315995696138679
  0.7330145282699833  0.4082233268992747  0.3319784192237824
  0.6548715035361627  0.5012025491162021  0.7145029102070872
  0.3174585385462591  0.1629265727191377 -0.0046669234943689
  0.5882775917965793  0.7323093738423391  0.7870259222227463
  0.1503536807924286  0.0783350480888606  0.0758774599178159
  0.6555788725379372  0.3195165254437290  0.3281358046744902
  0.5664947948848319  0.4001126455388937  0.6307407001481615
  0.7340125121135654  0.3274555977736401  0.4131405583382693
  0.6468669262795129  0.6014327950500465  0.6654286446659926
 -0.0107698725195311  0.9205834702185290  0.7385365220061593
  0.2350374094558536 -0.0095051073345950  0.4136903718850596
  0.7448121735743729  0.6581004316073010  0.2432787332218344
  0.0744929081645012 -0.0068376330427646  0.4039831220337270
  0.4014645606653464  0.3163619640214093  0.2418289185565946
  0.8327495280698282  0.5667834849527905  0.5622521183850789
 -0.0118029990337974  0.8336949390416013  0.0101673041935871
  0.7402424062866648  0.3183443861843825  0.2471387525234884
 -0.0187342992013873  0.8477571303934140  0.8316877364195248
 -0.0084744639827304 -0.0069720961995559  0.4844150489859261
  0.8192035744702781  0.4883925123957188  0.3260954992939522
  0.0779929315981167  0.5686728454231977  0.4803537938673312
  0.7311971150735287  0.6639797144080409  0.6251757357136022
  0.3111626238276021  0.8384512763575477  0.6672812160985214
  0.4776912190959579  0.6721634200914217  0.1653107661696664
  0.2328176165277201  0.4814588878318616  0.0870582990399229
  0.7387284822406186  0.4881142050255643  0.2434826345372987
  0.1593964128713744  0.8270851277296078  0.4901569658723728
  0.4000338783300337 -0.0042708137785638  0.4008480162902155
  0.7455609478626981  0.4629355175222920  0.9197780066466199
 -0.0086170658232463  0.4884284105700803  0.3242989601851644
 -0.0113689256908278  0.4977893586777116  0.0003949291033065
  0.6620551962818514  0.7437001791069104  0.2445960254658952
  0.5691423406617001  0.3103737308081004  0.5621781343887560
  0.6706903493714064  0.8316726338650270  0.1371935249531080
  0.4906289146159163  0.3103800860225025  0.6444659458512383
  0.6478203745186804  0.7231227298095023  0.4089860043150575
  0.6974050020257945  0.5900725544713137  0.7616786608508183
  0.7399724011601022  0.7452354928192954  0.3266483543944276
  0.5840764523986919  0.3378964945112513  0.7207202583868799
  0.8243103609389869  0.0798188514723299  0.9069702823234153
  0.0748130663134302  0.1568141795081991  0.4042275278332423
  0.8381061345930678  0.3322617170107151 -0.0029402758337307
  0.7295870649008942  0.5039069246877892  0.8176124841384270
  0.0732772261682661 -0.0075936395368452  0.5704669557878239
  0.5336893016483782  0.5715043212893363  0.0516488036577572
  0.7450353583384973  0.9140346817623932  0.3198873575706877
  0.1476548439375793  0.8329208207712063 -0.0013840139091650
  0.5248174865256664  0.5046138027809129 -0.0468679794612878
  0.0457564621585175  0.4062483330161272 -0.0314538837703704
  0.0808809915335276  0.4952436095139541  0.7300664812887926
  0.1323340464821758  0.4486683060176688  0.8243842201070789
 -0.0071885775467452  0.4024897136042084  0.5689674936731702
  0.7880476637784178  0.6102967373135776  0.8286067534632434
 -0.0101825150398130  0.4026612384732238  0.4027156702371545
  0.0382770438266392  0.4083367306453242  0.8533188393752502
 -0.0115640301902795  0.4041046870040552  0.2452092316153477
  0.9119589751988573  0.4054217219180859  0.6542509578632068
 -0.0109962612170299  0.4868663627626220  0.1672599739881627
  0.0790138904948727  0.4027569161467729  0.6558251790597143