B  Cr Ni
 1.0000000000000000
    21.1200000000000010    0.0000000000000000    0.0000000000000000
     0.0000000000000000   21.1200000000000010    0.0000000000000000
     0.0000000000000000    0.0000000000000000   21.1200000000000010
 B   Cr  Ni 
  86 259 605
Direct
  0.7379382913165601  0.9164670274652559  0.4172655927127600
  0.7687349276737052  0.8871102382949515  0.6049564110796151
  0.5899788082326904  0.0416307419917513  0.6051340956886696
  0.6355032054890648  1.0277033591037705  0.4285939169788445
  0.2440742397472615  0.0408253983194829  0.6601346426292334
  0.2766187804359144  0.0808726121399227  0.2674262427840207
  0.8653460189880381  0.1003833323977847  0.3301700063816084
  0.1590359232684450  0.2238813718219270  0.4982089035365129
  0.8973111073285494  0.2115052723465241  0.0823310147640999
  0.6578859733620166  0.1700838129569543  0.4123435723607209
  0.4981504428144526  0.2893265195538269  0.9201565266226434
  0.3165537754909136  0.1705529100846461  0.5875068788204488
  0.8240084755832228  0.6964714501500361  0.4331941970450175
  0.8287827019785515  0.8353349697109799  0.1075280345694632
  0.3942298671920938  0.8802736435704241  0.3335204865178729
  0.7536572629297532  0.8502178164814979  0.3509503237018566
  0.2495947053003816  0.2395023585133917  0.2440189609559461
  0.8687655665083877  0.7431153177501347  0.2537180630042731
  0.3437601234801447 -0.0109561705546266  0.7530927507314598
  0.0864786226265510  0.1028653996472003  0.6103865391065897
  0.3732342803310553  0.9739707472717849  0.4481063952929555
  0.1475322422627002  0.2033286814170523  0.3459105709507705
  0.8649865111155780  0.7556821498683071  0.3985339379063708
  0.5195531661461399  0.0776445505200821  0.1626374492042027
  0.1502955218299341  0.2256151839111240  0.8182262507024353
  0.6218738682643832 -0.0141523226896865  0.3586176195409495
  0.2440919793574320  0.3436296957542071  0.7909514966045871
  0.2464845270831315  0.0942577301655408  0.9161969327482565
  0.4653271745421350  0.2776904256667518  0.3146239868559735
  0.9073474991649073  0.2171348310491093  0.4194494565932286
  0.9364497157560253  0.9171143229195312  0.5433188096746427
  0.5716718656595297  0.8396921331064638 -0.0052319443271780
  0.6086864184921410  0.8310470948900955  0.3463482087849491
  1.0203455040687055  0.1612739195773543  0.2672244853968262
 -0.0260206076252499  0.0170643727018172  0.4285882310914855
  0.0011972683080483  0.0919204180544285  0.0000399293632974
  0.8967692145911303  0.8550701010329098  0.5044111661406615
  0.3990042315432173  0.2191970365555999  0.4306892332572703
  0.2321355586791861  0.0866012056943919  0.7353384041850193
  0.1842547783094023  1.0100096019721105  0.4196964921904044
  0.3225415560885382  0.2778145399317498  0.2625558804182397
  0.4951004395737488  0.9328831361677692  0.6655866967830960
  0.4347296984237123  0.9022158335629314  0.8997518382033286
  0.4106228812012166  0.1708318987538569  0.1576652029127804
  0.3362152385847366  0.3160813351402991  0.0883506612326962
 -0.0095693340012266  0.1466170158071320  0.7319351815037703
  0.5725889206510516  0.1630743817150412  0.3165196374694252
  0.8448330038107514  0.0205975676731160  0.7597397600017506
  0.1566151510832353  0.3055210629492384  0.0968591412797162
  0.5857657818538059  0.9363740929227320  0.2575393297257664
  0.0945900702685361  0.2435082729671938  0.0864550572807398
  0.1705691451853908  0.0880477241869240  0.1699557079516894
  0.6480359459909285 -0.0074695412994805  0.5794648427591350
  0.4935527059277830  0.0759135367704738  0.4646126539506930
  0.7434700995388991  0.0507882698292654  0.2464526703429648
  0.7552596825330860  0.1577091448659639  0.4949684566704092
  0.7331540281892706  0.6950186240405059  0.3321329563886449
  0.0813330171563722  0.0322915752284905  0.8427442332720225
  0.4273791555942760  0.3194941038378410  0.1775746094683752
  0.9809723439271801  0.0792047227279841  0.4870104298385623
  0.9179602451952609  0.1227587573099113  0.5204761163804316
  0.9312208950937488  0.1608354258692789  0.6649431138612464
 -0.1069803368324750  0.0795998981977382  0.2533386341143181
  0.0889697776613930  0.2664108715853410  0.7783406343821366
  0.1757158604137433  0.1364971500522829  0.0362875094825703
  0.1562625881300648  0.1407245409941715  0.4906209190066201
  0.2476869747456497  0.3489341132108653  0.7065159638279075
  0.3922936161418868  0.1598863425592598  0.8232099867419119
  0.4550076636297413  0.0590314695118772  0.3075021133225144
  0.7366408461586539  0.8352409983097188  0.6605770786335868
  0.6668459485784582  0.8753125324588354  0.7590552531998138
  0.0090326702869876  0.0131722400840541  0.2508606381876742
  0.6738619493631099  0.7574822995810153  0.5048472574471433
  0.6303556246006687 -0.0694577472382876  0.5299556850091085
  0.3310509112119115 -0.0390690571345632  0.1501950444961505
 -0.0634187477124663  0.1639735239957549  0.1388522206167069
  0.8351760102234455  0.0163311295310056  0.5797565262135110
  0.3189937027478250  0.1071374566561418  1.0086190433230837
  0.8929731186790549  0.1274776369731442  0.0784258278674697
  0.4990521180108646  0.9408164817177546  0.8610134938635063
  0.4750561840120558  0.0853667837939317  0.6666446718509809
  0.3380086668079803  0.2341568229329823  0.8350976547718230
  0.2441664232543564  0.2903257590512845  0.9934470743327320
  0.6684048639385610  0.9572821811317842  0.7606479320409231
  0.0740988377270659  0.1618284832151153  0.3339116978702228
  0.6592497775434201  0.1664778016099598  0.0846529762470279
  0.6357352811978992  0.9264806829751769  0.4347676759882418
  0.6629239653725592  0.9108715148095705  0.9170921310841479
  0.5689583078803241  0.7402225858454564  0.5044147808037360
  0.4904679581424560  0.1768038666680220  0.4885723491259357
  0.5826988808583992  0.3498232084091176  0.2459892648380252
  0.7405587863924321  0.9236388580633167  0.6973010224052717
  0.5797616806127724  0.3376490395205126  0.7523679267953816
  0.3088108192395109  0.2798573146833769  0.7418933914995878
  0.5952075698641425  0.9131949501572599  0.8327684446226583
  0.8298678446425365 -0.0051091048259051 -0.0094355802759768
  0.7462648582941336  0.8257672871181607  0.9169473126768962
  0.5783335100634234  0.5012634922820588  0.7515849249764636
  0.5734876876309846  0.9068900348310672  0.1495811004854214
  0.4108792294999031  0.6613179088797864  0.5882443379906738
 -0.0101264080813648  0.0810872926704720  0.0952157735235334
  0.4943675353829030  0.6613721434258911  0.3323530044040104
  0.4082634458598684  0.8119288632832435  0.9173714157018343
  0.7494809481218673  0.4287993808732901  0.1647449688919124
  0.2464161643618099  0.6618023218388490  0.0851686951560845
  0.8297605097758053  0.8247905591072840 -0.0015806675910287
  0.5837677146770220  0.5061580997573728  0.0798770531300374
  0.3280529639757341  0.5001889654733389  0.8323730444093390
 -0.0024003241918902  0.7425266238049482  0.0821159743311926
  0.1619257577528878  0.7394121126179429  0.7540676762131525
 -0.0043190999508455  0.4264784402136594  0.2502297475558869
  0.1789727598005974  0.2833698013342403  0.7367517898909265
 -0.0054513914888404  0.7466009014260779  0.5850827686521827
 -0.0014939568280915  0.3366649501355042  0.8355901997012951
  0.8299205090097397  0.4241128652336439  0.7540646131626143
  0.6655807986224025  0.7415307074170581  0.9175011857716726
  0.3370002479430110  0.3338595135846741  0.8372048062898179
  0.4938224342414105  0.5019117130745867  0.6690751315536528
  0.5014071281641951  0.3417004899557743  0.6663313117267320
  0.4109111016327056  0.5804870646063609  0.6698219774481293
  0.0814431689992239  0.8276378228406908  0.2462039741297210
  0.5758604843461413  0.6609459763832973  0.7530827185852953
  0.8341768986297808  0.1832829329918849  0.1556972238303543
  0.2473605967459106  0.8925080236407312  0.5107383091518838
  0.6739931124966905  0.9130034964124280  0.0917969798802781
  0.1630794772274672  0.8239519854300094  0.5041349108661932
  0.8279958830052094  0.2630075306751913  0.7529645041333926
  0.1669738927320920  0.8266737965102567  0.3358010461208685
  0.2487985766745419  0.9049798883412417  0.1697693989835764
  0.3609327749773649  0.0169942640114537  0.2236654722543631
  0.7472364696251661  0.0869703329704421  0.6539078990533663
  0.0802796465839550  0.9046340884178409  0.1617504507337540
  0.2473273867889354  0.8979669202608548 -0.0025901223656650
  0.1619810217088374  0.6630945351547295  0.8361428753977119
 -0.0058854737482740  0.8340863671060310  0.5034869664200465
  0.1617913350892466  0.6633636086974708  0.5031284292090978
  0.4925704398439791  0.7400789097722760  0.0842967810695775
  0.8921982457823699  0.0328466224753001  0.5003187276780661
  0.1636838150840784  0.6648200076360027  0.1654828781900182
  0.8357230754613098  0.0851967967963155  0.9083105252274390
  0.9028055525586042  0.9069250596858163  0.1619614343802985
  0.9157608310375774  0.1159850380129320  0.4183938559733347
  0.8361270113587246  0.2633269788958883  0.2484268625717273
  0.7370691355785862  0.1084115892120478  0.3314917010521941
  0.8098454466661444  0.0848891416642911  0.4142428829569885
  0.3081067277687237  0.2225548234517686  0.1618582803285612
  0.4086548330924329 -0.0219259918645590  0.0782203724821934
  0.4304769017331473 -0.0033302992641979  0.9227841297503501
  0.6990103932732303 -0.0023036309375859  0.4963016937060400
 -0.0060209614735127  0.3457838465393816  0.6686536968684499
  0.2438070338931389  0.8960369711560455  0.8390625611494137
  0.3315929268273736  0.1146934696316039  0.1849732999142274
  0.2480954784243251  0.9039201799398029  0.3413147933441519
  0.7496618981297396  0.2604220560972654  0.8312955135805511
  0.2444931145737664  0.5824028999019932  0.6690438848321949
 -0.0037108956704479  0.5830215860583716  0.9160673119605451
  0.9053737786689652  0.0828516579223295  0.8250317306275236
  0.2393213694917931 -0.0134690244479766  0.7492936585290121
  0.5832551321524598 -0.0025041006721558  0.9146765947329968
  0.0817256455898573  0.2734597406541259  0.6684829900093435
  0.5018875713317972  0.9261429043778953  0.7613323691484453
  0.9109583070495985  0.5110943471064002  0.4164330992306293
  0.3291783514663671  0.7425305516168179  0.2485517117121790
  0.4136507541866529  0.8158603005386821  0.4158159267553915
  0.4361213512931863  0.0028790436447826  0.6122424823812043
  0.5816602888962072  0.4286186834818423 -0.0048538302953208
  0.4078605734061950  0.8118397133266209  0.5905792869723041
  0.4947644772563516  0.3450676879780379  0.4965259194246859
  0.4921089594379752  0.7428502833340450  0.5911201497700866
  0.6649385969556826  0.3427330418525900  0.5012285838301542
  0.5785894890154282  0.2660992457509960 -0.0120911802355259
  0.4181909169788801  0.2700471790141758 -0.0001219521674783
  0.7507364453400516  0.2621638171414741 -0.0059620959623028
  0.6628008262454984  0.5826389873034339  0.9153019441613468
  0.4995360821463988  0.1666293516378912  0.8340839420632592
  0.4963903721570416  0.5017825622410877  0.8315032891750549
 -0.0190680649592484  0.1877119420225177  0.3556323528958080
  0.5769776981244179  0.7365208408119153  0.8338648605115280
  0.4589991314313506  0.9117817543422734  0.4088627939223118
  0.6662546009687651  0.2674686803747565  0.5832594571385961
  0.3300546391920557  0.5020754804145539  0.1693536879539496
  0.5038651947742568 -0.0063321014647181  0.0075186173430585
  0.1701665823737729  0.4133548786470501  0.7520503838746929
  0.6926690242955645  0.0174703860779925  0.1658701064430846
  0.6627072736887267  0.5053468602397795  0.5030237283563678
  0.4958775510876970  0.5038184896490100 -0.0039754474650860
  0.8366336767525566  0.1765215117143605  0.0041659376893526
  0.4940938832138393  0.5062544662611637  0.5013421917915921
  0.6666570930924628  0.3487321874338033  0.3338787095693497
  0.4087538060968132  0.4287873491240515  0.3361694506985902
  0.5785832610021164  0.5020143820116749  0.2494718347583509
  0.6626920777641534  0.5816455948406943  0.0799341719753915
  0.7219538905441408  0.0067445337849700  0.3751336038405733
  0.6617194567756672  0.7404613945989357  0.0815019742531233
  0.4887392291000639  0.8369944356100191  0.8404122040919034
  0.7440934663429573 -0.0121094480207311  0.5994938006057990
  0.4118831551792599  0.4296190212276164 -0.0016589677397200
  0.9141694872050580  0.4245746204645439 -0.0007363742946717
  0.7492909823097972  0.3448487314375020  0.5839419283221399
  0.7637096859134946  0.9027403010125030  0.1568179111926412
  0.7351931594333083  0.6474149119742333  0.2447394913742127
  0.3276247746168143  0.5862371457880501  0.4165612797358273
  0.5733597979720697  0.8230622305824259  0.7642147841516888
  0.4110005048797278  0.5788665628781381  0.0004756745765054
  0.6552179774412933  0.5797755623535067  0.2489648623735385
  0.3219669555642576  0.4111914986424211  0.7518293303381917
  0.9128399299288625  0.4248308200547424  0.6699094607803465
  0.1524143601547150  0.3312791987923394  0.8386649695782450
  0.1597451302322670  0.3516079143651602  0.5003668115241366
  0.2447052257838071  0.4261450613674069  0.3328649244065271
  0.3281446074783769  0.5000352285413157  0.0020515626834711
  0.9161209682510494  0.6651690301094757  0.5892511043131008
  0.3287695003972355  0.7425727527277216  0.0846749883834244
  0.4327349385320911  0.0130520323703081  0.7246187077033382
  0.0035638354257868  0.7463406284067180  0.2468756759600936
  0.5903407006837549  0.1837220954615011  0.7536854595544534
  0.7459137935105078  0.5028837656850688  0.7517904371702698
  0.6268685692578906  0.0889030546533599  0.3551296237320250
  0.7513778170121530  0.2738446017771834  0.3318491872362259
  0.5406395202622567 -0.0026307521900250  0.4149313886902429
  0.4885586770772015  0.8248712398597166  0.3326939404578162
  0.4917544473142946  0.1821501286290105  0.6590819565353507
  0.5866393942537483  0.1132311498130792  0.4740793772999277
  0.6684726610163688  0.0917876580448526  0.5707819621105886
  0.5751592163396771  0.2779600888447531  0.3235191453445003
  0.5045295360053992  0.0905608148755362  0.5707626084982887
  0.2465722372629406  0.2610374754033826  0.3423425867565768
  0.6582061818011823  0.5810595771108711  0.4202694161004590
  0.4594185771917581  0.1736255887762623  0.0532240755066546
  0.6641211333784762  0.3417676410557157  0.6673291263580649
  0.4936975264179992  0.1943401357518736  0.9609229481038359
  0.5882830448576651  0.0933314568526749  0.8455042870709623
  0.6588657052618626  0.0140080146709740  0.6740318222497701
  0.3345404620704842 -0.0235302529944794  0.3486624766820537
  0.5783610882788849  0.0185964600969075  0.5107810280363133
  0.7465943081286031  0.4273129559709886  0.3346400186575302
  0.6590967548078872  0.1145461222319890  0.2462724161270288
  0.9144268954354400  0.3471903687929204  0.2490730051721874
  0.2448653260385820  0.9010072734100218  0.6670168574755075
  0.0827871091937892  0.9022109194497637  0.6758281273611154
  0.8445074478148028  0.9087623738567834  0.2444528526190493
  0.0833762879998011 -0.0059030890125878  0.4232501341985342
  0.0658012336749381  0.1522700102785151  0.0554125048876627
  0.0788339657095270  0.8215723062716683  0.9202170347974247
  0.3270830989506028  0.7399147411504282  0.7552290579065760
  0.8209209732228517  0.8490858968231044  0.4379144480943447
  0.9254155637402711  0.8299865576864068  0.4102298007768282
  0.1436823454296282  0.1009146731149241  0.3883134142292162
  0.9105435535698948  0.9336855530542271  0.4493319690537481
  0.8292727322621730  0.5021141874223327  0.8323753782649079
  0.0116134662430087  0.9109001639741735  0.4181341868360094
  0.8895780334000446  0.0107218294217060  0.3784379301164550
  0.8318139374237793  0.8327543283027620  0.6691893386841677
  0.8309778875583513  0.9106420804034775  0.7563393323849523
  0.9106156884269119  0.8228335408037654  0.9192192807973378
 -0.0074041960680084  0.9099622780417930  0.0780798549449364
  0.9215150550219779  0.8251223505839468  0.5940158850900145
  0.9125021083878840  0.7439586453957447  0.8353725230414969
  0.2165694602268572  0.1854446208925579  0.4254976432400582
  0.2438587327431526  0.4229171133642742  0.0012815279433755
  0.1743397667184071  0.2608025271296062  0.9230685451803324
  0.2422516135771915  0.3444813068292090  0.9093742104473563
  0.8302073044907753  0.6633877263335762 -0.0001778285654852
  0.7401958023429038  0.7414205990500627  0.1594741478569738
  0.5950036110968799  0.9133732337126095  0.7022685791983285
  0.4072316532046413  0.0928370960329598  0.5143839157534256
  0.2463214880041223  0.2528471584562703  0.6530547140560164
  0.9127445939766786  0.5858501174716816  0.6713652081496361
  0.9301878524769819  0.8286129284244615  0.2474906042680197
  0.8333935336255800  0.6711366632430609  0.3334780404689734
  0.3281182145120390  0.0454205764783832  0.0903768142977556
  0.9004010369632511  0.7506545933977865  0.4963585646602944
  0.5825334336063194  0.1196569155504686  0.6616959501320895
  0.5270949151145005  0.1010047987598304  0.7530116641327201
  0.9117902237269140  0.3466366724866480  0.5857222743839708
  0.4103585177732537  0.9346702149409639  0.8119600815023459
  0.6633123730490789  0.4213402436746587  0.5847111346911934
  0.7386742382079705  0.1094483421340757  0.1645504604444115
  0.2446932673108369  0.8198673350612801  0.5897487436767864
  0.6609785749224723  0.5830120539325782  0.5879079747166975
  0.4947917798326904  0.5013564588824906  0.1668907067173159
 -0.0055026239322306  0.4242701421746320  0.0829913750082881
  0.0870143933889216  0.1713508834033671  0.7529822273916045
  0.0895417259619724  0.1323922328030704  0.8593977196018873
  0.8319207107732260  0.2670736639890590  0.5826005422576568
  0.0894521300380760  0.1884868049413949  0.4300134001832433
 -0.0074293814468542  0.2546911121913337  0.0882566383083329
  0.0746833847040249  0.3479072935176125  0.2543178872615051
  0.0295490658431594  0.1633504498837775 -0.0607316224674118
 -0.0026069016922586  0.0708911370274028  0.9031647482250872
  0.8674088507345286  0.0993716654231003  0.6072780747541615
  0.0812525454452979  0.0799587838764520  0.5074583560723300
  0.1752937310795290  0.0779063814671508  0.5769526975920964
 -0.0129721523986336  0.0898010636838623  0.5855151156362387
  0.2598395579987603  0.0398983572664928  0.1704182606459955
  0.0858992376783972  0.1823680682217848  0.5519949611836555
  0.7459931971528678  0.6633933342908578  0.7539578880917654
  0.7474338636806257  0.7405546255203603  0.8358350826080428
  0.0790289713755492 -0.0240592032311060  0.9246841858476093
  0.0768562020299687  0.9026923726332717  0.0047825591572014
  0.1597118398376369  0.2792102890298838  0.4143434026159752
  0.9141801115050406  0.6636657692627905  0.7539466557571902
  0.7479905194188278  0.4270041853818400 -0.0041664467869338
  0.9064274879136016  0.2680124749196374 -0.0011000930194934
  0.4925016308380156  0.5804144299220866  0.4184664471483447
  0.3297262431701353  0.4280476960922964  0.5811691175228693
  0.7469605564557414  0.5890742309489572  0.3338027643114579
 -0.0059483065534958 -0.0079198353941843 -0.0007364731291142
  0.3274317136519502  0.6611183358245424  0.8338484677445442
  0.7384206364952099  0.9138263855758151  0.8270211713197297
  0.0759665664560598  0.5091127542813890  0.4180815449755435
 -0.0034548353483277  0.5868308929406174  0.4177702878840661
  0.0764075616207253  0.4235877756733337  0.0026474378383114
  0.9159517508060372  0.2602426445968504  0.1698537883180466
 -0.0079057665147775  0.4284884636462760  0.5855350952178869
  0.1590701019607530  0.4316666476347646  0.5812186716818513
  0.0768883166823291  0.5072301339118250  0.5853401484268039
  0.0727990643023887  0.2781479735595275  0.4974992384104663
  0.7546359311014532  0.2685899186508220  0.1649387977051239
  0.3835633573002317  0.0891867770577213  0.6261879543101558
  0.5817377521954512  0.8143373263978777  0.9016763667644216
  0.9168122531169163  0.6666455034943528  0.4181927184271030
  0.1618511948901708  0.6651740124502830  0.3329002627428186
  0.4926338162337440  0.8301700366310742  0.6833131039805386
  0.7573006182494072  0.0909234614810363  0.8358291252418861
 -0.0034779419668540  0.5048820487144315  0.8364796535999320
 -0.0076313071002529  0.1801731786057453  0.4868963555085857
  0.1603038793844456  0.5009260553881024  0.8331700692644430
  0.8302686727723296  0.5035517030193158  0.1655541659837860
  0.3285684738323814  0.5830997543849668  0.2491244615655899
 -0.0036216335328240  0.5849310799869850  0.0826202499432576
  0.8272944567547599  0.6729773505871183  0.1763694913860072
  0.2422084803729443  0.5870881929553157  0.5011741042378821
 -0.0018039368825646  0.5847051456103864  0.2495338146618299
  0.8301691611855097  0.5038647100303441 -0.0010248154459332
  0.1583841025918710  0.3527518317177918  0.6584740014750498
  0.8293812028177494  0.5897607789554592  0.4179758815932097
  0.8289168945318151  0.5105558679552572  0.5029442471472365
  0.2432397172350700  0.3422091877385606  0.2528141471448056
 -0.0034435742476431  0.5864084361927234  0.5866802175647545
  0.2445642259822735  0.5813544425013960  0.0022484710193674
  0.1626379445171793  0.5066559372176760  0.3340016772168793
  0.1640251086426513  0.6617372907462152  0.0023047599981505
  0.0293672904300646  0.1804183897747197  0.1599181653653209
  0.1620397038129749  0.5012642948602515  0.1673386933017330
  0.6677257623448193  0.1903996038374898  0.5033775330517589
  0.9215384199756098  0.1935836714228419  0.5801873324196568
 -0.0000209341361027  0.2686499304918933  0.5809749107682995
  0.7537247393840162 -0.0097310682663871  0.0769551452981156
  0.9097686359633471  0.4311994412811457  0.5020964209901341
  0.6614921993795273  0.1986785075019797  0.3251818530673478
  0.7506196238828493  0.1848509153791457  0.0786960439642391
  0.7440237382389521  0.1970095782555787  0.2508687673282895
  0.6675780968870985  0.2781387885794419  0.2468153145211546
  0.6704325103344284  0.2000807012485971  0.1673288304549391
  0.6732538485223917  0.1769091086847251 -0.0058854185023935
  0.8267366587936097  0.2705137297975730  0.0807893495213228
  0.6648935312742709  0.2639577773413995  0.0728777344801076
  0.7495287580283395  0.1915612069490806  0.4096369997979041
  0.9133715063527313  0.9026302553163926  0.8405290172610123
  0.0796602485749662  0.5831105913832203  0.0012663143678935
  0.5869686434192032  0.0084091315285052  0.7712530318049686
  0.7471294036908903  0.3480619154212221  0.4190601893895816
  0.8277064111852777  0.8258179656284804  0.8354472169553341
  0.9059774598531771  0.1797328268079965  0.7528476475577812
  0.9151410446098844  0.4261891238244894  0.1664843351423983
  0.6676559851274462  0.8210261456408423  0.8341486076749594
  0.5952801057550352  0.9242379228311697  0.0168521850503923
  0.6506177966233457  0.8162716461943177  0.6790329486373803
  0.9129526529092472  0.2712361556483313  0.3332662413643678
  0.8311004541089345  0.5857679456026530  0.2499839317836748
  0.8308867093856841  0.3505990058366923  0.3329952093036461
  0.9171453214127209  0.1762197588323136  0.2519382959563997
  0.8289318087754930  0.4299468969688508  0.4181444743234869
  0.7467521392926316  0.3462585720292718  0.0787829623598722
  0.3136342337687634 -0.0213785897443145  0.8399420487113776
  0.6663881657509753  0.3442381319211942 -0.0064293223404550
  0.0763507216135752  0.3424594514303353  0.9228367625995980
  0.9135729517831648  0.3439045944635103  0.0846564396829773
  0.7491251628831193  0.2627795010346465  0.6666092972290248
  0.8271874308380899  0.9068386151546407  0.9160790583053351
  0.9131542616342722  0.4295107921797882  0.3329117121011813
  0.8300744143223528  0.3426753022566407  0.8332738231558788
  0.8304812086246391  0.3493004353293857  0.5017000214351046
  0.5013461497960353  0.9059059327548775  0.2403664653170922
  0.8299492975583110  0.4266770494058851  0.5866064692780741
  0.6612427540253180  0.9177551087165885  0.2109006386983830
  0.5890145676019984  0.8321252917078339  0.2519924983047524
  0.6904297300176558  0.0824738984963717  0.0687042705735093
  0.7520429508355868  0.3494910714440546  0.2477353828255479
  0.6745094259526107 -0.0014742078778857 -0.0070067447255946
  0.8326316814876588  0.3476289479482805  0.1657437942506144
  0.5803382324146620  0.3422595206371067  0.5823750552041373
  0.7502080321214148 -0.0050070036709562  0.9139765462434910
  0.7763802889442326  0.7450025160822339  0.2663905188191095
  0.6728364906853569  0.1780660414964067  0.6618825987011240
  0.9112137020679285  0.3454651105420543  0.9149688809183011
  0.9110113319280365  0.3524913042911159  0.4171060831039885
  0.7543489139005408  0.2628690837196426  0.5004380924219965
  0.7489991117484075  0.5823750646059002  0.1615446019210573
  0.6664617446384734  0.4268942343777656  0.2483317227895127
  0.9124946658214225  0.8260693381515776  0.7545060243138918
  0.6753112897484370  0.0902648305244765  0.9148829243944083
  0.6626779026356185  0.6608015365888573  0.8353681002353077
  0.8290732783550763  0.6625054089127251  0.6743324847027670
 -0.0040024185662983  0.4224798351670733  0.9171353559139734
  0.7463999930784988  0.5082031274431698  0.2502995149294686
  0.6634318253117480  0.4261596999937272  0.4194675920216546
  0.3330709870112673  0.3353947626559355  0.1784515117160851
  0.6627624775584737  0.8268099710552822 -0.0019152566518421
  0.9192215606602008  0.7447073859020847  0.1658225839381025
  0.5400067608524118  0.9105492199873879  0.4937063260207494
  0.5645442292653945  0.8309599827913511  0.6022635950963288
  0.4709697247384660  0.8969490688860708  0.5843286508530726
  0.4861322905329314  0.8175751312155967  0.5044505647044384
  0.5585915286583214  0.9078709884134388  0.3438296575318421
  0.5654256073462599  0.8257695210821263  0.4241717800752032
  0.9165787182432981  0.2633097938806758  0.6688237489847463
  0.8311428246150309  0.2723270517979700  0.4173670447337647
  0.6615444406557551  0.5830391809960198  0.7513165744842673
  0.7488944677555843 -0.0440250531126453  0.2594464363204254
  0.8323596767912199  0.2592658685707288  0.9153571691766103
  0.7470520318764358  0.5041337906020572  0.9148209618386396
  0.8323656691842722  0.1867317987916053  0.6646385395367757
  0.8359228562639817 -0.0037335261808283  0.6725477226299932
  0.8303029576989960  0.1761360090529612  0.8332222801865052
  0.5050143025100410  0.1760806823431916  0.1597993613589754
  0.9121875601862960  0.2602056288368484  0.8328173436804681
  0.7820744202300201  0.0754728873640586  0.5287936041071856
  0.8286885898316283  0.3464816817860718 -0.0030091495461222
  0.7554146840079409  0.1789097383940194  0.5836182999362856
  0.8128996600354459  0.0039469748897975  0.1776133055412243
  0.8029679056693377 -0.0244080534864151  0.4592649569314893
  0.7501479251923746  0.0164031196134148  0.7543098620782760
  0.7001052623800088  0.0961579129982388  0.4487124631960678
  0.6646157520145374  0.0960611058232416  0.7518952464554610
  0.6666540023042055  0.4269858911538267  0.0784164355967438
  0.6577821530548771  0.0093438152240443  0.2781213249120329
  0.8301060764433358  0.6632823569342259  0.8342517238031752
  0.7645645538563386  0.7445949899071994  0.4940550725281357
  0.0799079617860980  0.6616723326972525  0.9189835618218974
  0.6643995725730174  0.5044094546249741 -0.0044241916848735
  0.1617093017777627 -0.0213818167206327  0.0017236166185243
  0.6631562689608511  0.3390899584639512  0.8328186192429662
  0.0791821215211547  0.8229463389351587  0.0828870888888515
  0.7542120386273811  0.1772410736677545  0.9160328167083670
 -0.0023150508742472  0.8290637746737400  0.1613578240975334
  0.6703029902251865  0.1763053906018431  0.8356705747899354
  0.1644484721910570  0.8250048229149471  0.1669205122722454
  0.7469456705724563  0.1787955001817464  0.7494077584957201
  0.0832726648285866  0.9070655356298072  0.5058832169009129
  0.6677375206227281  0.3483840607650961  0.1608701187447041
  0.1676295230849930  0.9095149672465379  0.4226664915344204
  0.8308179804768363  0.4241308173650105  0.0809414678647912
 -0.0046114374745340  0.5086100769164705  0.3330790077179833
  0.7462433011823171  0.5078251226776300  0.4187479402142271
  0.8287372191077956  0.5829136832423572  0.7531668081019098
 -0.0047837592830066  0.7426306178506684  0.9189510768480846
  0.4117618641708472  0.5035809917068224  0.2511746882766245
  0.9266444749296802  0.7458196083567527  0.3298900760427808
  0.3270468330020468  0.5063698523388968  0.3337081156402268
  0.6476347592473350  0.7371063626995038  0.4191020994299601
  0.4119593338386603  0.5833883537189698  0.3327612605671105
  0.8298310285475364  0.7439825907590313  0.0853336001168619
  0.4131796141424677  0.4222159943668647  0.6673419309268920
  0.6635269841592172  0.8219386087946793  0.1615481772626175
  0.1639529652486326  0.7429373927015873  0.0839196956275813
  0.9574162254987547  0.0840196676479236  0.3173015166107522
  0.4120526314781742  0.7429658349426743  0.1676924247058309
  0.9072004856189877  0.0748285235723126 -0.0028972308125075
  0.0787627366868155  0.5027419955953775  0.9184315138529718
  0.8319556298527176  0.7363080735324825  0.5956824829757814
 -0.0037763540572539  0.8222636311275793  0.8377915091427731
  0.5722862326680468  0.6581621653910000  0.4189563714669439
  0.4123808944801133  0.5817677203875959  0.1675060936057452
  0.1469903973149399  0.1863329949263324  0.6498878169800497
  0.8097538592907378  0.9277958125402183  0.3545760392454079
  0.9139134850892134  0.7440040004084765  0.6735484650152811
 -0.0027555795478301  0.6651089956217259  0.6712381205833279
  0.9127863050024897  0.5835108222673366  0.8347724666511589
  0.5693021425460673  0.7414793863180941  0.6770999802455713
  0.5356473949528329  0.0157218474254005  0.6757414845842621
  0.7447316376025399  0.4226522656223501  0.8324509735731173
  0.7361912593856395  0.8962085192630637  0.5133934462418394
  0.9129893970437868  0.5045290025681013  0.7529100071111122
  0.6690301201406840  0.8998771324216803  0.6094635895318019
  0.8441780490893809  0.9290895416934319  0.5603929754310193