 B Cr Ni 
 1.0000000000000000
    21.1200000000000010    0.0000000000000000    0.0000000000000000
     0.0000000000000000   21.1200000000000010    0.0000000000000000
     0.0000000000000000    0.0000000000000000   21.1200000000000010
 B   Cr  Ni 
  86 259 605
Direct
  0.3050976931213651  0.3379459546726982  0.2643339439149399
  0.9900190199290482  0.6251319334164994  0.5060385522088188
  0.1580635186079759  0.7525820971378062  0.0356534029949405
  0.8460539427825036  0.8376526160217236  0.2573186113597822
  0.1700804526090874  0.4930529338746512  0.0952423907308391
  0.3471017154334971  0.2253091838913143  0.1572874006540618
  0.2401812793161608  0.7343360453418544  0.3710662106160994
  0.7380499549896553  0.0786325839051422  0.2209001152320225
  0.8124780823176172  0.2301132061017240  0.1488993684472870
  0.5826463115477912  0.0688159661262926  0.2534480874391487
  0.9843877359858393  0.9870978153762131  0.0898676697610115
  0.9126978115250682  0.2966729521154965  0.2905852009632116
  0.0999299389131919  0.0021869004717153  0.1959755406710792
  0.1728083677961058  0.7528701804931214  0.3246622738689558
  0.9912416111094211  0.7055566270186878  0.5075847613600406
  0.0983468227126535  0.5637823300398510  0.2171479474544226
  0.3727513624906892  0.8134802403756970  0.1552794260869056
  0.6057041531961994  0.9998935961285003  0.2973631770324980
  0.0040162322682426  0.1717939235148575  0.9392066798949906
  0.4196694224987069  0.5750901143698128  0.9392386803883791
  0.8286066333467118  0.4115916662866723  0.3157294724253559
  0.1504431233451440  0.9391900734993075  0.1726910716161550
  0.4178752891827985  0.0635204939011929  0.0983256800501644
  0.4513627121609755  0.9980412649163244  0.0561528925268526
  0.3443968037079780  0.4225678541184270  0.0199221640882025
  0.5639622837842071  0.2509727996688428  0.2398134163395756
  0.1604546895471886  0.8108912844544027  0.2612507513994126
  0.0551863430780055  0.0349483480626917  0.9869976550520847
  0.1602729356792786  0.5203620175777581  0.3554974042842730
  0.3314140063749521  0.9424569288442067  0.1681937856319395
  0.6692403533237272  0.0897478689378822  0.0384942612232155
  0.9217885534301988  0.9170702296887679  0.4013787844424281
  0.4227512313970879  0.5035531864590860  0.5056813322215867
  0.3282346127341281  0.9208920340692960  0.0166277816209567
  0.2773661092845844  0.0519153698636033  0.8991515662871773
  0.9970617526284515  0.7583101803387009  0.0065967013126269
  0.2356465008141512  0.5152031381702975  0.4952542230417844
  0.1583937082112699  0.2345063092376420  0.2933149282642913
  0.1571747157361665  0.4358605671629620  0.3436251977516572
  0.2499958231264752  0.5756294949126874  0.2439507235955068
  0.1573562714242203  0.9356740058703749  0.9750114853532816
  0.0860560702531600  0.8983642040757072  0.9365404103938729
  0.0090883090725384  0.2396955814108080  0.0097470722004121
  0.4082503120993399  0.1713121505293825  0.3002808213685425
  0.3994856790239726  0.5067779533377342  0.1682844288416827
  0.8157480695736722  0.9229857740318007  0.1483402370768122
  0.0983775381184932  0.2633411187231094  0.1440102451554970
  0.3159102833597524  0.3661850168399834  0.0709530668540936
  0.9185871445468113  0.8401694888640252  0.0098456959624751
  0.9953423973037847  0.4060285716098924  0.1775499648641167
  0.9901314742785299  0.6337767403892154  0.2321883289338142
  0.2654666672312155  0.6991585297894127  0.1605472902671272
  0.9212904706504357  0.5063197154174363  0.3144090898149304
  0.0014412456327014  0.0701260343402198  0.3390917631713174
  0.6318870278891788  0.0740297016618630  0.1110744809535146
  0.5115097866709806  0.8094493880104046  0.2669978608700237
  0.3436064131617335  0.1390161879582418  0.2585458869126798
  0.9959307438843131  0.5059979637156247  0.0932759779088114
  0.2732488038894005  0.5591297790561433  0.4358507851081388
  0.0561545348755297  0.2062752073952728  0.1914025874687390
  0.6792526485868576  0.9949094036425210  0.1023507899305018
  0.9596554887357687  0.4192819621289697  0.9807060814101866
  0.4723184161434293  0.0786795651804555  0.3524720561939195
  0.5109005852738131  0.9199172003137778  0.1716704176127680
  0.3333746554229004  0.8485158654484659  0.4015913838178799
  0.0510857606905836  0.0148015079753089  0.3717620161760337
  0.4581718868213543  0.6648292437791969  0.0811258053391036
  0.2231240524624071  0.0762483200386891  0.0819852966436800
  0.7783280735886202  0.4104595693842030  0.2473524534928060
  0.9910697829924392  0.7668714446881815  0.3316763618182743
  0.3884652895692851  0.8955048107944897  0.2597105999639684
  0.1623076255804037  0.4191565943654065  0.1655556608103361
  0.0539003530440215  0.4054885845067517  0.2467558889938447
  0.9641152928356855  0.9425792110088834  0.1588422559859716
  0.8448458752513109  0.4169834302047654  0.1678947683743544
  0.3942554857039209  0.5695832808938879  0.2323635409948962
  0.2451468006279418  0.0044308299522429  0.8423790135613419
  0.2394843517242635  0.9918193387863473  0.3223854364995051
  0.0980867759910179  0.0813143467961418  0.9363371530474219
  0.7542540035285891  0.2662337865378548  0.0979172308122532
  0.4048655916979895  0.6543010218492669  0.3422273290704484
  0.1778384366262179  0.9308736860802116  0.3270414634856040
  0.8708915465817813  0.4229363718221866  0.9819440755852948
  0.9000774606460519  0.0154115525548941  0.0396022534215195
  0.4628228313575893  0.1018981542137418  0.1578169060449083
  0.9339145792902920  0.9081797743620874  0.9547059054762791
  0.6632196590622238  0.8321735284396683  0.3451708621421462
  0.7513164727031665  0.8337984169373818  0.0734076819378581
  0.6641944426806297  0.7465949507611999  0.9103035694749968
  0.5945007808158769  0.7488417087816863  0.1673411981189863
  0.7455270833579339  0.8298405885872230  0.4274351511292817
  0.6627063279736046  0.6670050684230474  0.3399857852355191
  0.9127871628543801  0.4918044276381714  0.9124296872297685
  0.7417847413775469  0.6672141750637005  0.4253779787702436
  0.5824903427328985  0.8342037130546246  0.7508283651340127
  0.6642371852144916  0.5853856140255184  0.9082102331264658
  0.6629003755309832  0.5020396923165941  0.9918334206928944
  0.6643567483107522  0.5034947436546516  0.8247885913442342
  0.7490145522336694  0.6649758929187436  0.0774435226497473
  0.7462925989248980  0.4172641344665335  0.6656338339122996
  0.1701296308833819  0.2491006208713433  0.7482825722194363
  0.1573384234004282  0.9152116402187503  0.0734532601204277
  0.1543138899241740  0.0342597171154689  0.0069668772622010
  0.2771215309078542  0.0699314116609810  0.2597868914088188
  0.1725823095217487  0.6706174854367095  0.9730520293965650
  0.1623333947110811  0.7516675452816372  0.4314714253754092
  0.2530074750366456  0.3315662733437211  0.9057800988831665
  0.1794273299367665  0.0772555466202586  0.8891383351688225
  0.2441693777953460  0.1766076530964095  0.2653523683889652
  0.3343597764835656  0.2469004080063943  0.4304667864316565
  0.1853912441863191  0.5069288521709455  0.1967282393854160
  0.1649681183966481  0.2499271807458498  0.4369633036594623
  0.1858998053090495  0.6396587406657698  0.1841517399934143
  0.2436121768946325  0.0017310800572963  0.4367321284749547
  0.9977345425593280  0.5821666363418061  0.7465148574134517
  0.7464172232369174  0.9139223554886066  0.6709420987554716
  0.7455613306548921  0.2504711352738402  0.5109394285569188
  0.1299390797908316  0.8408244966409749  0.1695889160949010
  0.5899095690713314  0.9990332081750173  0.9122007676989684
  0.8280749238085721  0.4154242720715715  0.5885411163169475
  0.9074013866400472  0.4893228921743111  0.4222547614686893
  0.5084126742486277  0.6622327371873843  0.3374319106530857
  0.9054377492455637  0.0850087420553118  0.3514490861859831
  0.9084466846783801  0.9962031490062193  0.2460260935784443
  0.7476232578924312  0.3329379497447321  0.5903912355413655
  0.6673121227011856  0.4983111247465384  0.3379385567053693
  0.6650090129833720  0.4164976277895465  0.5873225090435767
  0.8988686425289611  0.2557817143335150  0.1879203482139973
  0.6620909892697436  0.3404150425023344  0.9886907300135443
  0.5813555009018997  0.3317822268366704  0.4233429301129544
  0.7486386667951210  0.9137897053451958  0.8307075156664505
  0.2531934779820734  0.1656041787441084  0.5960585467035816
  0.5840415463679955  0.9980793096417800  0.5900698413810962
  0.6747817784779759  0.3349341944329114  0.1604102681882213
  0.8261483332894154  0.2467762389179812  0.4325252644718953
  0.8318071941358222  0.4117888619916232  0.4213854807952681
  0.6637982035305952  0.5845631904020075  0.5868859961679976
  0.7561157096887342  0.0780032909993675  0.3591165677200504
  0.8278915544973867  0.0810844178505587  0.5916705552879770
  0.5835175105493529  0.1696161409227045  0.4263239542969653
  0.7545975356362203  0.9134487417247814  0.9850293265687315
  0.5092315918535012  0.0868470490807517  0.0685429988989475
  0.6536723570057619  0.0195043264895096  0.1953394637739699
  0.5877263215939189  0.9152207081873012  0.9937719280192202
  0.4176562532959781  0.9136419510031687  0.8341771447166014
  0.5841153601375980  0.9154506496535824  0.8321063128083852
  0.4205173531421972  0.6691895008417421  0.5875853436401796
  0.6642200628980013  0.3343987779534394  0.8250253442829086
  0.2362567430783677  0.3150828849839198  0.0708640677329539
  0.0710038837963040  0.9376472262647289  0.0242947282700577
  0.1296187776716408  0.7236170884096850  0.2401741081822192
  0.8292003334921265  0.6644558654135261  0.5086426722478438
  0.9132553910786133  0.6608137973431877  0.9069290373879746
  0.8282663901290245  0.7456735358540394  0.9055661139904581
  0.2453249712572919  0.7628187223865401  0.9866604370202207
  0.9111784453400467  0.0823130017742957  0.5174686301555099
  0.5902795110529021  0.5790097499454540  0.1663125805200759
  0.9963134596101649  0.9237758747580329  0.2520291495981686
  0.4965372529582687  0.5172779416853333  0.9867850949355211
  0.1690548037144078  0.7509540828877119  0.9028753304654186
  0.0788365747701541  0.9990918330841471  0.7445189134632569
  0.2428892928009276  0.4250591447903135  0.1141660267830079
  0.9144800981993426  0.6622861467091115  0.7456762982403197
  0.7480561817006108  0.6638200333857956  0.7460736975959907
  0.4421118366686046  0.4968278655763392  0.0793450843957844
  0.7465388330973087  0.9121662626787149  0.5099278943767849
  0.6758743205705934  0.8253875428374060  0.1637525871522068
  0.0009533396971897  0.8499599417701528  0.1733860841357717
  0.3288252343221817  0.4988114241759377  0.3614316455942454
  0.9957218987907498  0.3336202268682079  0.6719794715202622
  0.2524360513242971  0.3338660765091028  0.5892424886541739
  0.9219077641925324  0.4033412819634745  0.3389063348811888
  0.0001517162071076  0.0746339320784042  0.9093474399718233
  0.9967101449665448  0.0793586082192737  0.4377789031155548
  0.2508420058366923  0.0833017753718243  0.5155078948595294
  0.9934275935682400  0.3276889059449036  0.5143905826741095
  0.9998553929147077  0.0307568087250915  0.1804975838231199
  0.2516903471776739  0.6715109905609525  0.5942078385606854
  0.2513853613506423  0.5813915477244945  0.8244864521731439
  0.0804768699553474  0.1655544374882827  0.5978699806370734
  0.9948671841691893  0.2502641723426155  0.7505058787394514
  0.2525983265738985  0.2520244881503893  0.3518669763659525
  0.3303529770677534  0.5022296641338247  0.4917239464035303
  0.0782883771685482  0.5697406910523294  0.5005166648010881
  0.0648688368839045  0.6659958406780492  0.4456201625384711
  0.3376198722131423  0.4183310669389006  0.9126464607837088
  0.9192028300761389  0.6635358902706630  0.5760394803685431
  0.3395733374164127  0.9986767166437022  0.6697067985930847
  0.9096740004526626  0.0828652544249845  0.6707237120150472
  0.0868609560562266  0.3315626917371269  0.8992830168274480
  0.0808117168280451  0.4091195775983003  0.9815194558444413
  0.1715050680440116  0.1575280596470802  0.9759789223934204
  0.0775219933289084  0.4690739081300579  0.1672868526361834
  0.0821318620564336  0.7553113902549946  0.5094533840473425
  0.1691749070848450  0.5751522880471439  0.4428588117830875
  0.1674946201191130  0.5817217271242647  0.7449419503036965
  0.2310541975694304  0.4728382983714068  0.4103102903524377
  0.9984021862307585  0.4176856989245271  0.7468650500522636
  0.5883602899679528  0.5824785041128095  0.9952513063746929
  0.5095047407159631  0.5878634568720652  0.9061545560467121
  0.4193946887023429  0.8329462731114702  0.7505664172174743
  0.5823941768674733  0.7503252387801058  0.8301036919398165
  0.5013033786782537  0.8345374276227711  0.5077625722377564
  0.5850473463153594  0.6687907686624367  0.4194168217613698
  0.4248558374333782  0.4976252104293449  0.4120094007148136
  0.6665670103630400  0.6657276838894476  0.1652749476214550
  0.8309230360824709  0.7437163219717787  0.0782057878171840
  0.2510747522196943  0.2494747165854801  0.5152823662071006
  0.2363599570467207  0.6791912917127068  0.2723323509041197
  0.1694060820123554  0.8283805406657325  0.6707343813729378
  0.1437517426767708  0.3995435554115838  0.0681843539678311
  0.3384252965000150  0.6665208295590379  0.8275617532909919
  0.0805925159979420  0.0753189197419464  0.8288664209644512
  0.4265789830591171  0.7320012679380504  0.1463789313698889
  0.1740121438930737  0.1673317454365307  0.8216668489082172
  0.9970004637303841  0.8355610916642828  0.5109657481182636
  0.0814716013426618  0.9145680001230690  0.6734689899861924
  0.5866354054392917  0.4988741176024697  0.4184533836471511
  0.5067793065365120  0.4971561181003431  0.1678062727478857
  0.5873875708939053  0.4972641045153813  0.2503843188879964
  0.5874104925901399  0.7488467179777016  0.9944989564664216
  0.4204322536284483  0.3351498231900319  0.7466384578466120
  0.5829803803564096  0.4155325601767605  0.5045097150565667
  0.5817456638032863  0.2488833524211021  0.6668930615971237
  0.3204051732022963  0.1661580715318582  0.3518688061294643
  0.4202084983851324  0.7400724904250212  0.0147906331796327
  0.1678532421615090  0.9133241907243077  0.5972864028597923
  0.4202998471069473  0.1655707035701579  0.5880182995343526
  0.4155562245001467  0.1582772725048276  0.4193232272489965
  0.5012447649085575  0.4177063049457935  0.5839686093798434
  0.5028743631148070  0.7482511139264875  0.9155340153121941
  0.3384936531717277  0.2427041539734139  0.2569138409459636
  0.3367884239611095  0.0121554620161180  0.9774602820864791
  0.2528299851719401  0.0840525673603025  0.6710749009970802
  0.2506145644229466  0.6616176167184348  0.7471188958384211
  0.2413154282761696  0.8282291843446007  0.4262691401639297
  0.2599349881077557  0.1631782281553573  0.9042195328275852
  0.4186009085592419  0.1676688045740428  0.0872731668767607
  0.3260766179013866  0.0842000130410182  0.0716476091667206
  0.3588775552947991  0.0973742167850731  0.9084734714083373
  0.5824874366176911  0.0832564739010832  0.8327696741526127
  0.4260251880851258  0.0846930628391774  0.8266013704738927
  0.4189307668329736  0.0836144578998483  0.5089103833239671
  0.3727899429348323  0.0520165092213868  0.1903283033838407
  0.4186256026643909  0.0089036705963298  0.4225070604252228
  0.4079681812985191  0.9218120556618342  0.3554410663307467
  0.4185479865072066  0.7517062925301491  0.6685910736542804
  0.3381182652670953  0.8346168313916329  0.6700019654109285
  0.5818868381310097  0.5854015689475427  0.6648827267155032
  0.9122479997185223  0.8297658156936381  0.7454626795956468
  0.5816211204629121  0.9962817820488861  0.4279752832474868
  0.6668700692263768  0.0817557266233585  0.5893046724025033
  0.7458564996684803  0.0821166420316469  0.5093071001439757
  0.4136325526596704  0.2515456186064454  0.3538603786596026
  0.4256477631234651  0.1764471312071317  0.9108208437505974
  0.6573105312936081  0.1707804463006025  0.3529167627562190
  0.6656500149190530  0.2501452263254114  0.5873340762906114
  0.6584956926898785  0.1345265491874904  0.1989749743064808
  0.5028659637370533  0.0814849571103771  0.7504843916124049
  0.5026660245967879  0.0811910676533724  0.5873638949552414
  0.6602594090030394  0.7513027744115386  0.4231361896891088
  0.6643960414190893  0.1671360258812589  0.8305859726176861
  0.5846931658811693  0.4184041623625218  0.8249718863843645
  0.3411658879107840  0.8320804818841163  0.8300425842868507
  0.8877485691112961  0.7635846053131083  0.1746857621730332
  0.3318376054374776  0.8306117050413153  0.5036565070708903
  0.5030023479593159  0.2537478592334989  0.9106171948769064
  0.4177522990798855  0.9144660831391672  0.6691275488844101
  0.5174991064355045  0.3228068431175448  0.1748627184727899
  0.6638975870717859  0.7496340986669465  0.5892311558876673
  0.5083584344119031  0.4145108473192662  0.4233748136167254
  0.5132605501115820  0.7505021962480198  0.0785136571322052
  0.9131284408736288  0.2498113035034246  0.6746236835364122
  0.8996108350733700  0.6726744604904992  0.2621852065939614
  0.8209012118336108  0.5852667508363675  0.2580876909474604
  0.8296727775232356  0.9139538835603684  0.9074707053035943
  0.9971955011066660  0.9132735058616273  0.5917964618486803
  0.3152381501396418  0.7620865555468902  0.0916488150750756
  0.6633615572348540  0.4191428013034512  0.7457010669037405
  0.1027611265944126  0.9139428428999262  0.2516783041977867
  0.2390208683626009  0.5611317163157730  0.1288874476757526
  0.4187459587930684  0.6669790654236905  0.7486151199184937
  0.8198476889833323  0.2449504430031744  0.2550372086889244
  0.9075924704052400  0.2624442742707754  0.9704752184889835
  0.0810584090768944  0.3628439888113468  0.1601538715545245
  0.8277204912261167  0.2543135478187227  0.9049104810407735
  0.7454487064444889  0.3344846167558807  0.7472908002386925
  0.8286753910365364  0.9965592224509133  0.5143722168385602
  0.0119826420103631  0.4061816930204309  0.0763420323829273
  0.8297540339550864  0.0815979752957649  0.4355386475611693
  0.8845356910498869  0.1735873080879877  0.1049299481279251
  0.7551036600423655  0.0934381731118471  0.9937620068297289
  0.8267033989754042  0.0865752159525914  0.9031011049835884
  0.6644157795715657  0.5028755314290246  0.1658528708656453
  0.9122644109538124  0.9133362430535484  0.6725492783899143
  0.1693901216896528  0.4185196610386332  0.7457719596681475
  0.1808936352119288  0.3226625886511022  0.1562276902148893
  0.7443338555967134  0.4986443164563754  0.4230456487510767
  0.2552158446461205  0.0851242175566257  0.9872976863848807
  0.0812253709789254  0.5828479789630997  0.3715800596219044
  0.0852283094600856  0.2946630817392242  0.2521350932955798
  0.0599360177228669  0.9342140030464059  0.1370403021110628
  0.0759085736113676  0.4043553675583298  0.5124207418854450
  0.4196152291081980  0.9185414310727816  0.5065904457593544
  0.5799592669851862  0.4204190952616192  0.9930726806522850
  0.3522985313891373  0.6695967773017747  0.1007577696792522
  0.2469466774898335  0.3996189416323461  0.9921233984913663
  0.3346912866353884  0.4188779919106949  0.5834867800514760
  0.4196736840863126  0.4996261091935624  0.7484428249144141
  0.3342936613082830  0.7501613931143901  0.4223101344271745
  0.8251488528445892  0.8342191146824074  0.5085752366385617
  0.9095326037619328  0.5698250686748327  0.2209722919802391
  0.0731750770393744  0.8204913793688161  0.0753037054391452
  0.2760511334012738  0.0267594569864460  0.1585561001515867
  0.9105961702966890  0.2558689851584940  0.8310713194241786
  0.0854517921963016  0.1035194676806623  0.1811007451837767
  0.0792734049620330  0.6463706814057222  0.2849480459674933
  0.0811329561165495  0.7423293148270087  0.6654047129650867
  0.4156263111214993  0.3465089803034975  0.0751408635863726
  0.3242272103330680  0.3322718792383448  0.1648939748703968
  0.1685095472190586  0.9089125898535859  0.7411459334266818
  0.9959512025818006  0.6594943293066898  0.9763230275014853
  0.1603001046721229  0.6632229405286272  0.3628233739352736
  0.3252288798034458  0.7054329042361104  0.3280064964632148
  0.3331170559294289  0.4124203526799731  0.4228847231956396
  0.1146898882881980  0.6592344981617673  0.0580604524346074
  0.2815827737954919  0.5912259080804626  0.9993067815494953
  0.1671378298690416  0.8337318137099468  0.5107018618995338
  0.9150583837974817  0.6665753688852565  0.4401523480584791
  0.0824714535150539  0.0823924126128119  0.6726947953118350
  0.2642735158749502  0.4938939179093090  0.0386267560281403
  0.0804695527827145  0.3318416581082772  0.5940526127848734
  0.5039492374682607  0.2501755247616350  0.7463674847079207
  0.5078551203054437  0.4178989562750551  0.9069433356402622
  0.3415176244730457  0.1683368355199774  0.6678448046821390
  0.2496134203098966  0.4128213648234139  0.5090951891852260
  0.4262684600937062  0.4135841752236493  0.3455651466658363
  0.9118831672989449  0.4215093321878816  0.8260780757943897
  0.5859180660669564  0.6680262179056139  0.9107310290886456
  0.3359207623813089  0.4176279623398691  0.7474405298470111
  0.4259844081740529  0.8270195101001536  0.0733984019955577
  0.9964788949374118  0.6612968054280703  0.8243482008805987
  0.7435655015344070  0.5032701633767678  0.0749815804187905
  0.9129685566914658  0.3512745506612540  0.9100442956919226
  0.8359720824534688  0.0809684291249277  0.0792660212290631
  0.2531245717969496  0.8300435930137074  0.9018472807972763
  0.5031654291295052  0.9144661987444374  0.9137440955500330
  0.4991945438093641  0.9922171209663260  0.3381436767826914
  0.3438576260495616  0.0829979144113166  0.7452846289456128
  0.2541530943252984  0.6647695176716010  0.4297401879559655
  0.2573945167972046  0.6658089170515999  0.9053659658439046
  0.2320879938604404  0.6759393329982298  0.0744582387224557
  0.4180043687366645  0.4172398830342596  0.6671229927952489
  0.4330074406158472  0.4045380168767373  0.1730107605899032
  0.4106299636193134  0.3356884048033716  0.2580008399390485
  0.3389552503660422  0.3290320861321063  0.3495163041034404
  0.2324847301719550  0.4878491976638056  0.2940557566466366
  0.9540163508869629  0.6745317865277758  0.1594042173303024
  0.4213477428002068  0.3339652592221884  0.4271501597969469
  0.3392711028879096  0.4233167571762301  0.2772111947582918
  0.1670235203286930  0.8994443760360236  0.8908960568824402
  0.1679690877328034  0.8233279999386970  0.8146990109244338
  0.3308837746761865  0.5959384732676135  0.2949638280045126
  0.2521797530357652  0.8311755262140678  0.5891218375738845
  0.2536630592473357  0.7492893665393534  0.6700292942801416
  0.0802157654968947  0.8245183125544971  0.7441667876394452
  0.0809460695513005  0.9100932571942316  0.8179869132958245
  0.3405974578186546  0.1700585426531440  0.9953191072738912
  0.2518409990610930  0.5827165489546868  0.6645893694254567
  0.1628719293820400  0.6600682157677005  0.6601614058100032
  0.4188097861804590  0.3347603271345554  0.5859942726256052
  0.1687746213107902  0.6622798651566774  0.8289331346447866
  0.3407337364806866  0.5851852046767764  0.5874233240402769
  0.2378138046006866  0.9189485533100143  0.1520810355156164
  0.4204320715217547  0.5918289304512090  0.5009885562796657
  0.1676829553479930  0.9195780292511498  0.4306186857209494
  0.3368376377233898  0.7484604271297878  0.7487667933499367
  0.2689518685625913  0.9022418261822466  0.3485474270730158
  0.5011732655559842  0.6688483429688497  0.8291358438548260
  0.3347033602256815  0.5004171724277612  0.6675807839265092
  0.2129617936289078  0.8851122666343985  0.2518642865685636
  0.5826937418668121  0.2545619413273879  0.9925017232996456
  0.2549682159382168  0.3358424037782526  0.7477182309431517
  0.2531649184374923  0.4173567923881252  0.6667563089324414
  0.4988799323773937  0.9191851104163005  0.4264167751163024
  0.6640380608054457  0.8313641604202697  0.5090498764135054
  0.5013270888879827  0.9985452619938188  0.5084163740988110
  0.5005438425103564  0.9157387909205862  0.7521580612905415
  0.3395137318075747  0.2539675100987778  0.7460422577232239
  0.4187702031852407  0.4143888398736992  0.5036020677942602
  0.5812393765885929  0.9153078170178444  0.3421764640237502
  0.5005989596320490  0.9159137862203172  0.5886536112855132
  0.1522825343887039  0.8429824869196026  0.3472941447468287
  0.5004856540507643  0.8340546753881788  0.6690594987450181
  0.2482458516398039  0.9151051989400825  0.5120510230600914
  0.3669783549279534  0.9782136297331284  0.0892173157246023
  0.0795109548869454  0.8381324648572951  0.4312358700693680
  0.2556034540414122  0.9135683006179076  0.8274872689937673
  0.1441353440640974  0.8366548329410215  0.9863295711206976
  0.4221407632573236  0.2536853481995281  0.8273260764864473
  0.4983029669091606  0.1712296768015052  0.9932574077543924
  0.2280167987087528  0.7804024098472715  0.1912284638503753
  0.3102138630760187  0.1428799614839166  0.1685536538668889
  0.4132452377537632  0.1659835954709986  0.2049446305294925
  0.4228519462136888  0.2723614518176151  0.1595670501965560
  0.5006547121773770  0.2488413378792245  0.4253897643843717
  0.2546767578021776  0.2532711915258828  0.6683345018965845
  0.2537834649923048  0.7943746214991169  0.3015763970542383
  0.5004046040776617  0.3309403770604720  0.3377880787810618
  0.3357053741612057  0.1649460045400151  0.5108971503668016
  0.4186841722999456  0.2467430047389784  0.5051304397564707
  0.2576100616405619  0.4970393814505596  0.9167481544180884
  0.4227293454224830  0.0817508688441788  0.6681854502064156
  0.3371580342543909  0.3359078017580384  0.6661771009255059
  0.3435590662967345  0.1722517755454195  0.8240058666778078
  0.3388853040558077  0.2498508946884886  0.9091998731967823
  0.4206529532777030  0.2538537473079893  0.9966055877306331
  0.4198312180962650  0.9991237691288531  0.5888496303921623
  0.2572608006817444  0.5989571747136623  0.5193441012593804
  0.5829761092341840  0.8332485845530205  0.5891763955515926
  0.4253614456498638  0.0000726749999558  0.9125332901017439
  0.4730577801737161  0.0041279081756091  0.1490219518916338
  0.6704037063710993  0.1615680157911671  0.1017411322796906
  0.5584716763611717  0.0853283489867470  0.1658432265203441
  0.5849163933352163  0.9974633855933515  0.0821914472486053
  0.0866954505129620  0.4168760503744698  0.8233676325121505
  0.5458123539114049  0.9851297716950206  0.2309656319163333
  0.4964115123416830  0.1675235848111726  0.3441409141318558
  0.4200922823097066  0.9848237047241142  0.2582302086472259
  0.5017815508233164  0.9978899619738060  0.6704966129375506
  0.5051245324703488  0.0839201649161651  0.4353263166533612
  0.4212951280308274  0.8307065421519455  0.9175368163171712
  0.5882381511531551  0.0848001517718101  0.9936401347867414
  0.5107275941914478  0.9993098231618960  0.9898127029277053
  0.2537915665752662  0.4181653865450609  0.8286021018567686
  0.3370933300111082  0.9181941578712367  0.7513841313076507
  0.3340027361327612  0.9137878014954238  0.9173758773656105
  0.5005623058843020  0.6679560321426699  0.6672083079737017
  0.3395144306307722  0.0017093528703026  0.8374229625349000
  0.4214886993400203  0.2521119299800444  0.6671742117720399
  0.4283322915927151  0.4868017359003929  0.2553525800675628
  0.3376010436950891  0.2496962440108324  0.5880540691535050
  0.4293577064297010  0.5986962452380985  0.1529381118159225
  0.1771288124717198  0.5780093872668783  0.9114308740468369
  0.4323242758875459  0.5704189584954353  0.3298328071782193
  0.1707727660727840  0.4984509951515567  0.8276524098570127
  0.2513974590637590  0.4996314682234286  0.5859059186622008
  0.1483086312272957  0.7338923885309019  0.1276730194915210
  0.1622283110211794  0.5781673273816635  0.5787711134730348
  0.3384676898772048  0.3302702612790990  0.9867931553823350
  0.1671894154142053  0.4998170634427282  0.6650150095035242
  0.5030822625955464  0.7266643210837505  0.2422935565189941
  0.3362349340000212  0.7508852149082612  0.5885572309499250
  0.5825209267009990  0.9155355265655565  0.5080406608608835
  0.3368673727687562  0.6657784435040164  0.6685238616962191
  0.0776048548456456  0.9282120470685999  0.3566495047551380
  0.1666089800129479  0.4834828613202523  0.9835231302028870
  0.3432814592243076  0.5531920958043137  0.0978780774598335
  0.1605375573217628  0.0960328506344045  0.2729124821422733
  0.3350451230420513  0.0052506206357303  0.5129100127111352
  0.3247004935494080  0.0026126205072608  0.3560569053428033
  0.3374522759864778  0.0831386954824076  0.5918288599233361
  0.2509799898741303  0.7476389873978214  0.5093599646410617
  0.1660461984825664  0.7490341327854632  0.5889408503700578
  0.4215328555787449  0.0841914435926162  0.0009057642151983
  0.4198612071662464  0.9972881576194236  0.7528195565188285
  0.2574077898195650  0.8317000435066708  0.7486678645585174
  0.4225977718873768  0.3349513330429994  0.9100550484522565
  0.1650396215885724  0.6682278257120648  0.5078065520011937
  0.1894745756797001  0.9955544473866416  0.2403017939655381
  0.2533102731297433  0.9975317118955038  0.7477808549897356
  0.3885424133706753  0.0789428170183687  0.3178088909376756
  0.3642062362940009  0.5098034442089142  0.9910389216696491
  0.3303004031360272  0.0843328833838843  0.4312623870607031
  0.0856585448405781  0.5805591328340564  0.8265413541051210
  0.8217359038098484  0.4225308723932922  0.9034399035574334
  0.2531744030865888  0.7460992469420320  0.8243227063691830
  0.4208092669384597  0.9218683581189416  0.9997482887868346
  0.3416101127015437  0.8270614191327144  0.9948223400304801
  0.4222576373737484  0.8054947065572370  0.2362770788954311
  0.5039314636433463  0.9150919050554730  0.0789765328929029
  0.3559406272792096  0.8243835650801148  0.3191611655657080
  0.3073877564294299  0.9591720794885227  0.2549933346844842
  0.4998664838777645  0.8369276642508211  0.3518781172116930
  0.3157678111595797  0.8542692607944393  0.2144123263489840
  0.4202332163073796  0.8306059314174448  0.4254272119478892
  0.3318304876135494  0.9285099610168647  0.4391108455097186