 B Cr Fe 
 1.0000000000000000
    20.0899999999999999    0.0000000000000000    0.0000000000000000
     0.0000000000000000   20.0899999999999999    0.0000000000000000
     0.0000000000000000    0.0000000000000000   20.0899999999999999
 B   Cr  Fe 
   7 206 480
Direct
  0.7152213623888222  0.5122398948103454  0.2043096362738035
  0.6998746067544175  0.6979583663383806  0.2155462426939029
  0.5855910875102965  0.7620686651412455  0.1360111378600955
  0.5207191947651939  0.7013825334953551  0.1370161303370358
  0.7749730346173174  0.5736779897611568  0.0098859403881384
  0.6542592620622828  0.6487436378215136  0.2714149848959276
  0.7155764614412902  0.5147385383426096  0.0160479702126817
  0.2161111634381932  0.7866179315296966  0.9271168227540053
  0.5735597211062853  0.2861172594733334  0.7131943802841276
  0.1448599571754914  0.5722331361566486  0.9992411137861673
  0.2864391247796377  0.4309057558343752  0.7139020185272529
  0.2865466015337176  0.2856356869818674  0.5720701811305223
  0.0029115930055894  0.7140431983826193  0.4301838786294101
  0.3568551504528269  0.2141202323546941  0.2149893971582291
  0.7181548359792995  0.1447597163907449  0.1434211692971224
  0.7912327281439152  0.7894893539754994  0.3623255154513995
  0.2876607391250918  0.5726832286781094  0.5727327625857334
  0.2167614075912969  0.3600101222621303  0.6414021282946005
  0.5712526194298093  0.8597327988898903  0.8541613240155507
  0.1453913414104470  0.4274056474121888  0.9989280795498827
  0.6430973728813375  0.6451955042906529  0.9233061326111007
  0.0742235047582713  0.6447409385392520  0.2156846708552239
  0.7879283911791775  0.3564391417919253  0.3566174872170368
  0.0017680664610394  0.5735513148721024  0.5725276056164806
  0.9304836682777928  0.2152904764958851  0.3575238660796638
  0.2869554784241121  0.2869104023432305  0.9993523002939844
  0.4996926426752825  0.7887225824636561  0.3616750590457843
  0.0024953464481909  0.2844834154904734  0.2870181146622588
  0.0759127654841071  0.3557457431188673  0.0692130196449595
  0.8595922582775727  0.4287688796225142  0.7149839594913859
  0.5726822538031582  0.2851928545274756  0.8588760487850409
  0.2870839783478357  0.7124399389513426  0.7131534250986082
  0.3543939782266222  0.6445780635583045  0.2164969265931243
  0.1434594163123988  0.7155974357066758  0.5711775184557663
  0.5031274698445111  0.2134653590430544  0.2150915334024075
  0.2845018876161005  0.4287620370608822  0.8564160536896614
  0.2869354912217512  0.7151908421403108  0.2860846064368247
  0.7903386994662719  0.3550013148395574  0.0711710345417801
  0.2861081442144012  0.5721348061587541  0.8542226309013210
  0.5737615326819234  0.8582569483276306  0.5719781195102299
  0.4268737808356739  0.4281402175777532  0.1432694665644154
  0.6448528168634308  0.0717152347441219  0.9283656599323744
  0.3567241218055986  0.5011833486107810  0.5030376431423248
  0.2151913516908592  0.5007097234863399  0.6413081854155145
  0.7887600543110189  0.0728111614259840  0.6406416886631741
  0.5731733436779072  0.9996641836681913  0.1429144848395206
  0.5020504693254073  0.2146788308879816  0.9284348554916930
  0.7167759783494373  0.7153848829973292  0.5722904027987689
  0.0720865504486166  0.0713434482504246  0.9295181363774603
  0.3583835807733878  0.5000916936570318  0.7868489331267012
  0.1415732499682426  0.8573197171750837  0.2871945905745273
  0.7173844451574302  0.5719692845106705  0.7141445582803184
  0.5014004112040913  0.9294347101111723  0.9275863531231244
  0.0021287535761467  0.9996644170097992  0.4307041498954308
  0.2869709783401763  0.2848649092152194  0.2858630973235886
  0.7886554204294611  0.4990249425565708  0.3577843965005646
  0.6043342900422338  0.6748587484779235  0.0790643859353223
  0.3566242548408498  0.5003810923095917  0.3580419524865897
  0.1433664569566394  0.8575569260883856  0.4296242237224692
  0.3567878074200873  0.6447443488194486  0.5012098678300994
  0.0735611669297617  0.6440811979142798  0.5018713708686761
  0.7165879847942329  0.8586365141903043  0.1393960761187925
  0.8566177115614060  0.8577796223781091  0.1426080429406565
  0.7178173532027733  0.9983986938793808  0.1421302732931470
  0.5729922754494871  0.1426052337450934  0.2858489279307210
  0.6434688607774578  0.3555830732488968  0.0740155978288700
  0.0025529329538487  0.8586365069341474  0.9987299217203296
  0.1442914867271046  0.5713742410289034  0.8540222032252722
  0.9300666690311212  0.0700824731242418  0.2169815796485191
  0.7876294127388919  0.2126747479811230  0.0712741758245501
  0.2151578279902599  0.6443223450620214  0.6418357811820530
  0.2875696060120180  0.7153606607244661  0.5721290589645306
  0.8604322210349178  0.4275826402008986  0.4285399987257024
  0.0026337686593645  0.8559175373578238  0.7153470433591775
  0.5727233237428321  0.0018360081766066  0.7131127877810092
  0.5739998861434690  0.2861154529025317  0.4284085752607690
  0.3580073114218862  0.6436700894147368  0.7846933270408869
  0.1446020309653255  0.5719419231790870  0.7135477455226347
  0.3582193534874178  0.6435927798204432  0.6429615754725528
  0.4274224984117100  0.5728511762672950  0.5720283994469607
  0.7890247653848010  0.9312937096506571  0.5013894947355726
  0.0007190435441285  0.4278508579479476  0.5718007203020500
  0.0015899865121852  0.9998589635608518  0.2860211850185574
  0.1449926283086636  0.4286216834976742  0.5721301414144421
  0.5070888098191366  0.7815985967897044  0.2117667575881528
  0.2153547878596439  0.7852535184406573  0.5011497934365183
  0.4327340573540320  0.8567378328338044  0.1433025386632309
  0.5002207980628848  0.7868571922504225  0.7836994133740939
  0.4272766165284400  0.5717731203995622  0.8558115725694024
  0.1451985508208122  0.1419028255109683  0.1423372570151740
  0.5023917250304728  0.0718793488005265  0.6417339050956573
  0.9353168291065015  0.4998079010059898  0.9271080757401700
  0.7866138215868932  0.9274230110279621  0.2128999558998753
  0.8610684321885149  0.0011427898701750  0.5714665928095245
  0.7882744731613186  0.2146024407660721  0.4990761528001815
  0.0737086318068657  0.0716166227644604  0.7841850621771124
  0.9319756371450264  0.9295686941581008  0.4998133953311305
  0.8603025466653649  0.2866141678514813  0.4298287892880306
  0.7194839801127282  0.2872882818122784  0.4291549990980383
  0.7175366800573464  0.5726969609300299  0.8567925461243757
  0.8689519516500542  0.5724481022152307  0.1402332216269669
  0.0024111550246598  0.8585454917986051  0.5709273914596407
  0.1445003113275534  0.9994075968765470  0.5707013457172113
  0.3602589987558725  0.9280458154388649  0.0713609387350630
  0.5729387041541019  0.1430621607001450  0.5714123618651655
  0.7882929402221487  0.3583508105451103  0.7859676240186748
  0.7165026420624072  0.5676412797149710  0.4303623218935478
  0.7878028416992711  0.7899253434348780  0.0694292891472853
  0.4293102351833031  0.0008048208180845  0.4298178325838928
  0.3595969703262019  0.9301502716520773  0.5008660393269204
  0.1448593526533047  0.1431891267193491  0.5701553513147616
  0.5024707349774815  0.9277418991136157  0.2145765563982141
  0.2156681708873142  0.5005405556536525  0.7852589115480278
  0.6433939056458852  0.7858392191852667  0.5047185475419479
  0.9318836370340989  0.3596173519812542  0.6443634984477350
  0.7176434980725237  0.4340363590817393  0.2838605066501877
  0.4301936241535481  0.9991739539401969  0.0001283297969286
  0.4989026739228357  0.5006870231150248  0.9271235824386875
  0.4293311437349187  0.7156602931753967  0.4314632095311806
  0.2139208365290190  0.0714002846340298  0.5015995367832302
  0.0734947132092498  0.6435125993615483  0.7845374358704739
  0.3574851129278123  0.0711009714611562  0.6429398121673247
  0.6665138730099134  0.6014380661863828  0.1711885663876251
  0.9339427328559554  0.6448276915885763  0.0701964807327804
  0.0719691823826450  0.9284578462457441  0.3587061886370797
  0.3574898447534685  0.7853206265668523  0.6433849980515209
  0.4252133033857878  0.7167540741217818  0.9945317547676830
  0.9328948264751907  0.6439216139041296  0.5012234160197448
  0.0015888053200683  0.1409978396369885  0.9988094215125531
  0.1432769134175721  0.4282108230267962  0.2854102507550244
  0.2160671048552668  0.3599832982133755  0.7849364611344295
  0.0732157496783574  0.4995221208867227  0.6414990795642892
  0.9310086491996827  0.2143099722965055  0.7843574385671196
  0.4992127343971979  0.6427869871243884  0.6435973083111486
  0.0736475208060578  0.6439177657929919  0.6419870283122499
  0.4315828611535770  0.9998763240023373  0.2852855498229268
  0.6453165747291593  0.5002468127900687  0.5008186573522276
  0.0023209360532356  0.4304543371810426  0.7144930011018357
  0.0713747240387508  0.9297857117723789  0.9286142002386972
  0.9996678614469123  0.2848973679582221  0.4299011290446063
  0.9319124987136511  0.4997951149430601  0.5013474552484485
  0.8599020856605919  0.2850690096365961  0.2877704137917900
  0.2153890303736289  0.6441754661038074  0.7848345009617864
  0.4285351411914815  0.2853254591073482  0.4287924266396579
  0.1435162565243753  0.5728514556136505  0.5725274416577396
  0.3608178725555927  0.0712818589171690  0.4997529854077299
  0.0724694934639577  0.7855163999455541  0.7841598080354341
  0.7176018877747885  0.1432872695872267  0.7129720625908584
  0.7871154671573041  0.5016441901724880  0.9323618325634134
  0.1456599591305851  0.4282642037991021  0.8562199552453340
  0.8745136146905195  0.5711220085982878  0.9971749244768751
  0.0026305632382075  0.7141380248769398  0.7141880675915320
  0.2158833579046156  0.0718476350775607  0.0713708750048144
  0.2871083991552135  0.8584885976109654  0.9993210996390359
  0.0727692756493129  0.9274517543606084  0.5000542082436140
  0.8605742777724221  0.1431956958618635  0.5704521327135427
  0.0017251551292691  0.7128223360266341  0.5723301533505645
  0.0717954785246132  0.7855606449897129  0.6421010749942241
  0.2865267149554201  0.1409599505572036  0.0007941683244920
  0.0019097616420049  0.0017641819362012  0.9985011654783112
  0.0038091091231831  0.7160176042156776  0.8543033125066610
  0.1415947551516870  0.7158866970057336  0.2863728074734241
  0.4290132246475163  0.7145731000534683  0.7126364500425261
  0.3554488154446629  0.6432796424902686  0.9253425915575501
  0.9319362769282821  0.6427370736847486  0.6437140493667398
  0.7892370999288845  0.0709475645386373  0.3576597767436916
  0.0027961596752171  0.8592757252367198  0.4285803774044813
  0.2146082325757586  0.3571165185598265  0.9293487687797215
  0.8606566843752933  0.8584979816086904  0.8547749859535809
  0.0037580433833701  0.0018268603118777  0.8577360599391847
  0.5571893006783841  0.5762303666783970  0.1403610528623514
  0.1442919907375501  0.2853797777067843  0.9995962188557798
  0.4305188240215579  0.4291425362029843  0.8572658690016174
  0.2873406758632758  0.0009281705370482  0.7128039776408783
  0.1439693283142169  0.1427263990943331  0.7150084800115257
  0.9321048968399451  0.7856749307023340  0.7845205807781644
  0.5702319155479187  0.8618860660113117  0.9971809230679667
  0.4281684411833990  0.0022828920143668  0.5721928136880309
  0.1430578322137658  0.7142589131825193  0.7137835869217627
  0.7872056085110212  0.6415855331533939  0.7862103424672954
  0.7180467337157233  0.2841788793639785  0.0021567078452379
  0.9293348918722066  0.0705068630235222  0.4995426287659804
  0.9309338431343188  0.0719900994725983  0.6411333482272789
  0.5713819291388418  0.7141159025931525  0.5724919494551293
  0.0748843529203806  0.4986900205179660  0.2156416833964837
  0.7877721839887666  0.3570949556092408  0.4990105043495160
  0.5008953430229751  0.0707442393967939  0.3570568107021869
  0.9319130415784102  0.0710733887282271  0.0702277845488411
  0.2874333858281735  0.4307990008266963  0.5725333466933141
  0.7882239228976075  0.2137922937880534  0.2157195609802453
  0.2864957044087132  0.7144356956815167  0.8560747945512209
  0.7520514356870022  0.5581950688316296  0.1173116967469349
  0.6438435951937579  0.4999738994223201  0.3571172255844877
  0.9304210044056853  0.4995647206085089  0.7832837521997245
  0.1458717207357360  0.4297619275110793  0.7134583965607033
  0.7190630572696574  0.8618972029703047  0.9977409407912018
  0.9324310742145672  0.3531378018647662  0.3581774833524584
  0.4267293705583429  0.5720856113099897  0.7136699016095817
  0.6457669642354652  0.9299140502215425  0.0703011148991417
  0.9329194937598306  0.0707319902900058  0.9279553696493330
  0.7892205459468451  0.9295652178291923  0.7848245154817861
  0.5716095223571048  0.8569642798901217  0.2862591006722829
  0.2851403553434965  0.7154202298846019  0.4310144212046733
  0.8595913056159887  0.0004462293405429  0.4305240195912153
  0.0737342246478328  0.7871759040082553  0.3594073959824501
  0.0755580903554535  0.4990806655896731  0.7843656677712859
  0.0742793517627869  0.7878556865456599  0.2161560148460041
  0.2138702924509166  0.5005789655552227  0.9261836851706188
  0.0743217492742216  0.3552581451142522  0.2167381981317505
  0.3578334935891161  0.5011480746031109  0.6427485667603290
  0.9306462150457963  0.2151332244480342  0.5000997524698413
  0.7874658206425292  0.9288907518534841  0.0718378371897520
  0.8579972763858240  0.0004478756032182  0.2850496544377326
  0.4242919929386521  0.5696054337261598  0.9956854952590324
  0.7171313673980961  0.8582432027555759  0.7139008593233874
  0.8055386286460297  0.4843963319706018  0.0622848115210468
  0.9311664691654187  0.6430369330362735  0.7857260650876924
  0.5734604979488086  0.4289737022779695  0.4292143349051898
  0.5729955940455361  0.9999269530777407  0.2856709388936160
  0.3574110768722289  0.7866141900344562  0.3595808978514312
  0.4979420023881436  0.7902739499309300  0.9239605613478243
  0.6447040059464529  0.0719461289441003  0.3566771149885160
  0.7804580725783071  0.7803790017291893  0.2127930039677687
  0.7171284070829897  0.4287298036898943  0.5710208154663022
  0.7887163430617693  0.3578223460453575  0.6431043110245235
  0.2851153194198656  0.5715144488703494  0.9979055488904923
  0.7165027420241595  0.7147123250868292  0.8564237009048787
  0.3572094952963475  0.7878473240892490  0.9264634971106067
  0.6447951659358888  0.0729464024015844  0.6427360997413042
  0.4291511911407005  0.7151046026509993  0.5725277664939665
  0.2149064121169244  0.7867514228705175  0.2159579508656729
  0.7175713966714127  0.8592525960965908  0.4321140386768824
  0.5727934822659030  0.0007435939914713  0.4288302196755212
  0.5671424432562369  0.5761512899576537  0.0012673172872801
  0.5716699842032869  0.7177912613928761  0.3021744836048773
  0.7883355566459835  0.0714854825847815  0.0722570984013928
  0.7897118046466861  0.9302719473935251  0.9269666352879312
  0.8597233677199008  0.5716189895528153  0.7151083768356553
  0.4307184439852740  0.9992271600314969  0.1431907455478225
  0.6444877752627201  0.9297570787256905  0.5014718823641798
  0.8604326105133310  0.5712937527945864  0.5721037005674886
  0.7895526424242839  0.9298734898792618  0.3581221419232490
  0.4322205757948429  0.8559615681465902  0.2854190493160673
  0.8601635373091797  0.8590923090784660  0.9988562255990570
  0.5661526233665171  0.4259139221041858  0.1423021116230407
  0.5021491690078932  0.3574966651294518  0.7865107159148464
  0.0035339624497485  0.7158716641692549  0.9986690379523344
  0.4301543456285151  0.1428828545097246  0.1436833424308599
  0.7162614072386170  0.4298333365633064  0.8596278924108184
  0.9349132003796333  0.6445579249213973  0.9254880246506186
  0.6450045549079144  0.3573987981985258  0.6429641454975110
  0.4299251671218723  0.2857298568406508  0.5714219793158749
  0.9324133876431909  0.7867073105513884  0.5011234881366678
  0.3560615137865537  0.4989165588421943  0.9260575151064822
  0.7166155606779285  0.5689303720837965  0.2895170342014872
  0.9338816940776405  0.3545079845454948  0.0711011834513225
  0.6437014829778508  0.3577822020836171  0.2145399015102663
  0.5730337144082892  0.2851031746022717  0.2862959893572661
  0.5736383574942165  0.1424831889760431  0.0001299845225350
  0.5727853239338060  0.2845905110073577  0.0003315051444090
  0.2864480284110198  0.8579808470667457  0.8558527552519117
  0.8598967253871332  0.7138113893658626  0.7142716144154545
  0.5731557810046091  0.1434593720920241  0.7133760684068093
  0.6450175525376356  0.2144707146110146  0.6425366877911262
  0.0028437688788344  0.8584803673961995  0.8556840852187341
  0.9315682732017816  0.9296525286061617  0.9272288042502672
  0.8602611453777518  0.1431283291012064  0.7128788784390367
  0.7889656713612963  0.7863169019840943  0.6430035501625324
  0.5718747654726356  0.4291093934688662  0.0006678974578706
  0.6455564163641695  0.6416971488946670  0.3701503045946435
  0.4989846506265023  0.3556911359553900  0.2151677003468777
  0.9360427080427983  0.4979794312304874  0.0704545134564289
  0.5012388753661697  0.9298390482473111  0.6422642162380454
  0.8637802874723637  0.7185557231213842  0.9950902502901788
  0.7985844963488635  0.6539991188671377  0.0654369081534701
  0.6449503330554087  0.5007651388307270  0.6434586514568835
  0.8663627701767285  0.4242536912302097  0.1436391685720364
  0.7166765814380459  0.5710811761319540  0.5719356412564334
  0.7894621090520783  0.7870800178115761  0.5024364447505923
  0.4283890581804625  0.7177290415285499  0.2890740700026818
  0.7173285810091070  0.0007507419111026  0.4290119366198326
  0.7900973134107636  0.6406371625478406  0.3621678845953298
  0.8576752900705555  0.8566407483675917  0.2853463325146901
  0.5010292111054381  0.5017087413281139  0.3577588689925397
  0.7889335683068345  0.4992680275636990  0.5004719399369196
  0.6440802737428365  0.3573682466147636  0.7867420863580449
  0.5006121435362973  0.9303526674243391  0.5015556464321463
  0.8609219446054708  0.7144591390679998  0.5722943161798223
  0.6449047922763614  0.6434535137119998  0.6429850338329282
  0.0735254680917392  0.7873869465278284  0.9271579591085960
  0.2869010947893547  0.8578519264604140  0.4302291257107718
  0.6441779951484602  0.9298148555042641  0.9273059824636480
  0.3576421529585002  0.7875420995192477  0.0697381254216588
  0.8593656546925319  0.7133613799261680  0.8567399558322851
  0.2867086697684341  0.0003743685728753  0.8571122279850085
  0.4998833902926685  0.3555439026078972  0.3589667173874616
  0.4286854436799066  0.4296872934315997  0.4296928154819933
  0.7177300175780239  0.8580280689663079  0.2888859874945840
  0.7889147003005833  0.0722964549694914  0.5002054885468300
  0.9298189943643140  0.7868791012254959  0.2151535583754947
  0.7169709124211174  0.0014061209847636  0.5715937765515116
  0.5033737646942155  0.7833416260018068  0.0708482814378305
  0.2153538287186614  0.9292321757191641  0.7845734762266761
  0.6446503789756446  0.6427699469883326  0.7845519863881373
  0.9316776589047937  0.7862678162514292  0.6429394813846634
  0.9308892016120360  0.4995311219036769  0.6432469838132572
  0.7883827915785927  0.6421934187234243  0.5016480317953648
  0.8598041433134826  0.1418903575712752  0.1436534504131931
  0.5743534212599140  0.5802659412950684  0.2829762672339901
  0.7177318201851687  0.7160279990253540  0.4343359661004892
  0.7165463704247678  0.1430405104802031  0.8568713924120317
  0.9320978810894379  0.6439242018686575  0.3590357857597898
  0.7182598366072434  0.2858811889491024  0.1434875026695248
  0.9352442641211951  0.4997149226511152  0.2151427353894784
  0.4867640370035310  0.6439567029308415  0.0611395501139665
  0.7889601786039481  0.7883536581682850  0.9260087417563821
  0.7881718736631257  0.2153556851934156  0.3577000507864226
  0.5719447001849651  0.7159396481866237  0.4335385147179318
  0.0034487419871747  0.4287960652811599  0.8552553974966810
  0.5736984956840536  0.2861484361804248  0.5707963299653865
  0.6451580261960927  0.2152434736724039  0.4993251805612961
  0.0028614713906687  0.7159667039218632  0.2866958875223219
  0.8622111247644657  0.5731471050008804  0.2879083990596883
  0.3587233036804049  0.9288695329493671  0.9287842655590541
  0.6433725560130031  0.7952838174726744  0.0595430121862135
  0.4206444823541435  0.7150157487342512  0.1423457434581155
  0.8614778779550711  0.7165496349544975  0.1431942643948485
  0.8602739497806710  0.0008266583129771  0.9999733774400005
  0.9314805769773356  0.2128933050489722  0.9278020959587410
  0.6442089045848907  0.7858818166988868  0.6428584151079280
  0.9319929190993644  0.9286151791269873  0.6431264689318309
  0.7176688763493195  0.0014522219072001  0.7132964849097638
  0.0724865825416184  0.2135014834249256  0.3580844754890798
  0.7879595483140781  0.2144404771344462  0.7845030083683180
  0.0020246832788753  0.1429358180798659  0.7134526405418664
  0.6444590056166082  0.7871617677672766  0.7845449287300985
  0.9301545066406753  0.0699239500931392  0.3576904525645031
  0.8590747317932885  0.1422450876993252  0.2865456288807873
  0.7172100172522167  0.1430851128309794  0.4281968331819794
  0.8595510777039882  0.1436732671657605  0.4284508496105207
  0.7175339515497687  0.1427702168140580  0.2862245354478321
  0.8603152446673493  0.8584667571896614  0.5718840248012353
  0.7168732592059303  0.0009397107693482  0.8561534037241566
  0.0023184283752942  0.2860314429471815  0.7135986576193452
  0.7883151828794209  0.2146335110897698  0.6421320403349182
  0.6446655324360808  0.2148403890612928  0.7851213032054789
  0.8602846108672584  0.8581071405691626  0.7141321369057292
  0.3594701140070977  0.9285623255336074  0.3576463915845469
  0.3571150847824062  0.7857814425057981  0.7841836044821557
  0.9311669982982832  0.3581569882656204  0.7846241428607152
  0.7169242842743579  0.7141613169120958  0.7147474553585500
  0.7167208740910461  0.8582866431382360  0.5721593538994989
  0.8604960203209291  0.8594528522747071  0.4310536064628196
  0.9301537319150499  0.9300099629402856  0.3571839831534555
  0.4990112355293707  0.6432072173301103  0.3611018033520620
  0.8597303099504451  0.2864952831188514  0.7136795084165679
  0.7892785063487245  0.6421629974916412  0.2117285552307187
  0.6445557615928840  0.7899599513793106  0.3641256802200427
  0.7142183695064703  0.7211952243106760  0.9940998556367716
  0.9316986797890063  0.9292710326138873  0.7849381818485328
  0.0023732766242497  0.5717689890074338  0.4301562623110133
  0.7172353486647246  0.1437947073735215  0.5706652445798934
  0.9308810480558168  0.2135934068307516  0.2155500206343554
  0.8601623913504921  0.4299426989027328  0.8571339995573607
  0.5020389667996852  0.2144417126668640  0.3577780787296164
  0.0030606445001410  0.5709610785218606  0.8545908712812548
  0.6456296890334885  0.0710925357583083  0.2139118557435912
  0.3581121171537905  0.2148877798314936  0.6424383214230823
  0.6449484777123017  0.2139188269253673  0.2145505674876413
  0.4302562950319572  0.1430815188465908  0.9999981061084365
  0.6457935226507212  0.2139392520762619  0.0726495110995543
  0.5734221520284019  0.1432323707590426  0.8573688095744020
  0.7886198283658369  0.0715907324935753  0.9280479648521384
  0.0053216951963698  0.5719858315305644  0.1431893105266886
  0.5735504500971393  0.0006892082263091  0.9994297155484130
  0.2874516366707451  0.0011026125751965  0.5705417496514147
  0.3572101286753570  0.3567226181486258  0.0714190246784928
  0.8586262307392774  0.7148080788184332  0.2875308315204645
  0.9332301128239076  0.3548019507492710  0.2161412130249527
  0.9332966357632141  0.5003874518304260  0.3584841775563715
  0.7888334750951114  0.5001810845545228  0.6434447250809426
  0.2875250661133220  0.8580642056577968  0.1429406100304079
  0.2152390600367130  0.9288784535322989  0.5005548790685097
  0.4989568553927772  0.3558507663968698  0.0709906019582149
  0.7902044164568700  0.3578818535296467  0.2150069140970780
  0.8603815026888342  0.1427816073998747  0.8561673763924670
  0.7874893562578309  0.0712000201161684  0.2141781505118457
  0.7879031425139991  0.5007491349379325  0.7867983575122249
  0.7165681377083700  0.2860461352027098  0.8568780609266006
  0.7890714527076459  0.7863485256831131  0.7854990567313410
  0.5737252656548789  0.4306285180349451  0.8591635611128177
  0.5026398103367596  0.2152236908685958  0.7853823771522700
  0.7878242820501503  0.6427960239242428  0.6432395507045512
  0.8599322047104443  0.2869191990584786  0.5707304974685445
  0.2855093563993214  0.4284289201828540  0.9989748205112199
  0.4276545491895558  0.5713991339284050  0.4303928136627355
  0.8601337947460080  0.4280089136769780  0.5711358407223962
  0.7169503018150866  0.4293883807959328  0.4275885385011934
  0.6360089577353685  0.5005846567489268  0.0788268538042310
  0.6460436751726284  0.3578590604972488  0.3571122278666285
  0.6466606999657132  0.5050725259285238  0.9347251321988856
  0.5976402808511797  0.6844178765680086  0.1971276688608306
  0.7886200128616417  0.3559768938199084  0.9282380985705568
  0.6452075507988755  0.5009048295419080  0.7868494752049675
  0.8596485733418883  0.2837529955203396  0.1432612048640316
  0.7168080193890546  0.4289334411581523  0.7150000022184989
  0.7175275873310722  0.2862891393159487  0.5708803525819923
  0.7883798865232239  0.0722933565669629  0.7843259827725938
  0.8071852617891171  0.4979729836179464  0.2165638915459806
  0.7170729594719004  0.2867281477360227  0.7142925680187394
  0.3563877476258224  0.4998690232577656  0.2150079940898819
  0.8614952802794421  0.5698660580996485  0.4301915499312474
  0.8598321442228842  0.2853407986752245  0.8557001737050342
  0.8684931657722420  0.4224880914285029  0.9926727020207311
  0.0014576418557340  0.8579808350261492  0.1437468411185210
  0.7169988393432170  0.2865546785923740  0.2849128125056057
  0.2151241401780495  0.6447206894025175  0.3583634393282831
  0.2851616039840313  0.5724694199248220  0.1432094417016029
  0.9314760089109970  0.2126832123929135  0.0717130274558400
  0.0056587885295545  0.5719890346352349  0.9988238327343394
  0.5719869776272045  0.7146478971292305  0.7139043544048218
  0.1442302303025901  0.2849867598964401  0.2861093617564642
  0.2155431610017753  0.2139776366753846  0.6422679053674973
  0.2146487851749147  0.5004509958988086  0.3583312441647108
  0.2144439463466108  0.6447559161540192  0.2159436756723983
  0.2145972340905084  0.4999438820493614  0.2150598201319246
  0.0037922515809184  0.5720258239515086  0.2869442296089411
  0.1436902468867369  0.4272980076645509  0.1433353374090075
  0.0747632408082724  0.3564141114660392  0.9274096447157009
  0.0740901489626907  0.2142136299902749  0.7845399252286924
  0.0738817271399348  0.3573720369320985  0.7845748779222259
  0.1442837188463088  0.2852743166804541  0.1428094078916335
  0.1441869937767783  0.0000848083175294  0.1427074771009131
  0.2876882186888652  0.1423545260412846  0.2860247772052059
  0.1441997837369058  0.2851566635629881  0.4294408661557038
  0.0729354681459660  0.2140942265684811  0.5005360506568630
  0.2158643204698167  0.3576869687825202  0.5008499233209277
  0.0034845199023851  0.4275352219904087  0.2872685822319965
  0.1439898020498837  0.0004378460551916  0.7136727713179526
  0.0035784804288983  0.2839796170527793  0.9996297993601039
  0.2156164131133824  0.2135599830742568  0.2141032151779912
  0.2152819409970556  0.3569004123265643  0.3580384351756092
  0.2876520232203475  0.9997495897562479  0.2863569602567210
  0.0733805119224179  0.3581101304119250  0.6426996831168490
  0.2151481331064242  0.5010326110085986  0.5011701818338167
  0.2157156416475922  0.2143751380846837  0.7850899349598570
  0.2867647687714374  0.1433458609941312  0.8568367665979726
  0.2863085498812031  0.5723342096794122  0.4299395086415674
  0.4998307268678324  0.6425961635996965  0.7846909566579454
  0.2156693190214693  0.9289694861177134  0.6421696665802633
  0.5722515866746334  0.2842785210181467  0.1441266124433952
  0.7174605906571322  0.8597991346032205  0.8548900787633534
  0.3576119491750953  0.3563484757343162  0.3581201612537320
  0.5021181540040224  0.2147413062729921  0.6424904540799123
  0.2873929657426127  0.9998338594148724  0.0008005474365610
  0.0723659988950144  0.9294679730629212  0.0711093728553187
  0.0741514877939280  0.2136171624598266  0.9280834394579678
  0.1443419900418098  0.8584868963153347  0.9987909168405097
  0.8603351914792059  0.2842039673881550  0.9997770898088809
  0.2155186958375421  0.7856469556535463  0.6427621676769659
  0.0740136931511694  0.2124425757591106  0.0713970269005767
  0.0056590197108620  0.4265875846779392  0.1436669860385194
  0.1439291870264985  0.1419097675936962  0.4295105611382451
  0.0720618411194037  0.9292552889088096  0.2149625794080243
  0.1439291391205805  0.9998227632565031  0.2867454491996630
  0.1442012001451450  0.8580890685621920  0.1430912549961158
  0.2862871107500556  0.5717058186174278  0.7136606720105625
  0.8600640542887588  0.0014999710225758  0.7131515197843320
  0.9325834601601065  0.7883902124368238  0.9255805031509914
  0.2854328260301884  0.7160129617237003  0.9975129639411293
  0.1448448179582365  0.7159370793497277  0.9984578037487084
  0.0744749881310702  0.6439591902376963  0.0708456031850345
  0.1440240245387991  0.4288056826320724  0.4295560267941106
  0.2873564796857165  0.8576609030545114  0.2868449640596783
  0.1445585278318668  0.7157014703200766  0.4299197702380901
  0.0731314087138855  0.9293370722522057  0.7848397015545885
  0.1441284168846257  0.8573521826908871  0.7135274405732571
  0.5008251500769274  0.5007445821056021  0.7862579484093274
  0.3592030839264971  0.0708021134844243  0.0712640558304719
  0.0720439294932626  0.7864671333215187  0.5004245395349064
  0.1438244889448684  0.5723399728268632  0.2864731383945588
  0.9316807776518428  0.0716730034124240  0.7849374384054874
  0.2157175407445021  0.7874421805439732  0.0710141425650120
  0.0020142873563998  0.0005835263195645  0.5714348103625407
  0.8600810915168694  0.1420593680382942  0.9999708796747929
  0.1452425304077635  0.2855949600614860  0.8562013478191277
  0.9309612109545488  0.2148577654890479  0.6423112026133911