B  Cr Ni
 1.0000000000000000
    21.1200000000000010    0.0000000000000000    0.0000000000000000
     0.0000000000000000   21.1200000000000010    0.0000000000000000
     0.0000000000000000    0.0000000000000000   21.1200000000000010
 B   Cr  Ni 
  69 259 605
Direct
  0.9850086194968301  0.1677835905529518  0.0773481709949135
  0.6509797151197229  0.2834474712803656  0.4803583879809434
  0.6242159935581979  0.5919929290732694  0.4033768762480704
  0.5655397790371426  0.0919297763898420  0.0379805032439805
  0.2761889552121656  0.3309010444549764  0.6576733623279457
  0.4358919957855562  0.3434988221829171  0.8592511470494266
  0.2349436144938083  0.0319329796745272  0.8175750239999482
  0.3282491945091990  0.0586768160215200  0.7116552031707898
  0.7434282757674820  0.4155518055629802  0.4328994445587522
  0.8266384361670124  0.4889278083236939  0.7493749187004791
  0.6651893271529642  0.4866417154180780  0.7492383104269372
  0.3385904655904620  0.0825445599182934  0.9714833933833718
  0.4227946348134504  0.0216480680218233  0.8188717042027351
  0.7030393166601256  0.4657164171466339  0.6788500911166921
  0.6920691313334919  0.3199494328373835  0.5384168388522051
  0.5541721013910387  0.1510627163973486  0.8322628927183668
  0.5881609711319769  0.5661133500758627  0.5908737669554636
  0.8210499170788732  0.3214973517022876  0.4397788066156539
  0.1032600656497689  0.2371167445027916  0.7502874107986301
  0.0878407914211223  0.2542276972245047  0.8998926697430700
  0.2353969112536711  0.1758188340038584  0.8238642787492018
  0.5640297147853327  0.3069527003626696  0.0104646519219279
  0.5055018458299712  0.2930884928269644  0.5556772864437663
  0.7576221928321237  0.1691960545857973  0.0170817999684694
  0.5001205404375194  0.2062445577385303  0.5626885973740724
  0.4718049177622017  0.0911705291744985 -0.0528676677211212
  0.6539328232075398  0.1732026764000368  0.9253447817621490
 -0.0069035791456370  0.1440484480465987  0.7888865931242756
  0.5863600763192764  0.2542922789343047  0.0729184829031860
  0.9960440119349463  0.1440918196840332  0.8766211128027919
  0.7049109026787530  0.5920015999629316  0.4033796602023937
  0.5690384679625160  0.3996703937687260  0.8979261595726654
  0.3315693199217770  0.2754576250098407  0.7990729503080696
  0.9098954194266035  0.2666660094514982  0.5675036180868592
  0.5746999370080490  0.4059683501694484  0.4303654285756102
  0.4177843446163291  0.1683971306068547  0.8387166283478042
  0.8979685062381605  0.2443372129824309  0.9313403386504751
  0.6067506905684203  0.4092354265170306  0.5879130865948885
  0.7598019295894621  0.2387212196929553  0.0750769757502197
  0.7860504207347323  0.3663680069052584  0.7887545519442313
  0.4694121182436111  0.4437659744808100  0.5650353680923934
  1.0117312474834526  0.3796333207579088  0.6577608248365002
  0.7726422327829530  0.2850658186230333  0.8120204971734485
  0.6106929455559696  0.0440452946574548 -0.0049878055949377
  0.4995571037475625  0.2504861485265574  0.9960341846056407
  0.5756781975006123  0.6320249154067902  0.0858271626788567
 -0.0852700609934215  0.2497816254064957  0.7531561564803768
  0.3398867002107674  0.3309882188978175  0.5955731444610175
  0.8287028098962980  0.1036680992819768  0.1714273466436020
  0.5070860917338648  0.0261762591883667  0.9077877019243263
 -0.1353978020089134  0.3046594285339746  0.7151181555667796
  0.1570639608416336  0.2451908544973528  0.6778521301756163
  0.7592406498082356  0.4171479213624829  0.9118733927779917
  0.8195024653957116  0.2538005689714199  0.6605598107349129
  0.4916122554894565  0.5332301852799558  0.6856593860803678
  1.0067983876134403  0.2906285090043912  0.6528893149910232
  0.4278958158348121  0.4187022164172241  0.7478652612589503
  0.6659528267277266  0.1735050702164663  0.7326274786404950
  0.5807138655095421  0.7130290743764971  0.0797037776286580
  0.8379969234440269  0.4112570188100570  0.8342873118130902
  0.1776455156670285  0.0911175866392640 -0.0576516736050023
  0.6443159997164986  0.2322552694079890  0.6778242935071026
  0.7538368751533785  0.1986890687108629  0.8190155041710546
  0.8273601726839889  0.1869638780862742  0.0645734126186597
  0.4119683163437241  0.1884337756063762  0.6704766922899530
  0.0671924944312235 -0.0424696207217654 -0.0769223652074309
  0.6701950028511667  0.4018570893646641  0.0046351854131282
  0.4684917899308096  0.3636121302491351  0.7020903101225455
  0.9136621941246769  0.2923149921993538  0.0025007207956127
  0.5773924308764999  0.5010892311854984  0.0881167656434435
  0.0005432354042283  0.4197204728283196  0.2506533585238957
  0.1662360027046991  0.9151876896649682  0.2488723022246328
  0.1652430901284497  0.6719496455979247  0.6652445742099810
  0.6641187451192339  0.6569233554401971  0.4793745722628282
  0.0041517594170932  0.6696983601406263  0.4946094506654183
  0.0848297097953399  0.7504223535638868  0.6619540025601597
  0.0800931566776074  0.3314956338296656  0.4133859676559373
  0.9190239261017141  0.5076332870180581  0.0882625197267394
  0.1626885445855188 -0.0067765732088476  0.6557273516144992
 -0.0004355988498582  0.8319400179078581  0.8310246405365400
  0.7486996384411407  0.2453557543095134  0.4909159125822888
  0.0028039353136448  0.7533975321465878  0.7486634049050407
  0.1655600421961336  0.5036665156766688  0.8382083097467108
  0.0016515577984607  0.7504379956170192  0.2459665688452920
  0.8424010216188071  0.5929803786575447  0.7497739299779091
  0.9203204386044060  0.3441772091022896  0.9197933259981942
  0.9194818105822672  0.5040256822801592  0.4115634634120219
  0.9173685823980378  0.6702046002649364  0.0844931092632500
  0.7090193840195094  0.4038790249526105  0.5987862277460856
  0.0066413072711637  0.5900844203643133  0.7497174470482227
  0.0059067343995998  0.5873412419173817  0.5776653972669692
  0.1635339960829758  0.1650491329987451  0.3306885001507828
  0.6586320067241214  0.3983313951823338  0.4866208434159436
  0.4051920170772876  0.4210637220916296  0.3329992202633547
  0.6583280825683016  0.0653588510699833  0.0913554337541650
  0.6675163556302828 -0.0134885098034450  0.6566040926472823
  0.0848577187089207  0.5079911003893778  0.9218414937366187
  0.0776150059697611  0.3320623354204613  0.5812625195651495
  0.4024272600866966  0.0153087286742240  0.9169930923264327
  0.9191014760564563  0.3302598888387115  0.4107627278586756
  0.7097542475375063  0.2520561997369779  0.8872013441864485
  0.6649541699990404  0.5786051323112549  0.0876064119648032
  0.3276833301693364  0.5864862970329130  0.7498519537057289
  0.5604420825929991  0.2508791235110061  0.6314326904275377
  0.4121752641772555  0.8389983574447352  0.9166500542659949
  0.7035977114219759  0.3566968213252307  0.8503608694521766
  0.7459519980852818  0.4545132373363986  0.8145306792721991
  0.5723526985933499  0.4135508078211387  0.0026721671673819
  0.6615326552471700  0.5056944839635177  0.0035031211243549
  0.6643735688364639  0.5224903940437656  0.3329565115638355
  0.4923858694706580  0.7487105181835670  0.4135600842535379
  0.4936653647719261  0.7500838346725275  0.2452891500820028
  0.4067569885020840  0.5090111674661236  0.4108526336604739
  0.2473030300429579  0.8343035645935594  0.7462222184707176
  0.8399988094083958  0.5031877082742784  0.3293170533423316
  0.7508893189201539  0.1506318397423763  0.9166541205960647
  0.4976048175785059  0.9072828195161408  0.7408911148925064
  0.5699025894770576  0.1105505063608313 -0.0711786560194521
  0.6963863229615513  0.2387698162563293 -0.0068972797607109
  0.4751590182693222  0.3471250712312505  0.0210822857835704
 -0.0031460833376695  0.2479635976872512  0.2519428511377709
  0.5956555543184473  0.2311564390689146  0.8694247211840628
  0.5066727407042112  0.0091060046251254  0.0030251819390622
  0.2487072054500468  0.7522631116612508  0.1650964409252813
  0.6629994389264303  0.2307485647842186  0.5743870074481245
  0.6643358897103880  0.1607141648263616  0.4912314712552975
  0.5784199385960889  0.0754494038099374  0.3288358384992958
  0.6809825935286979  0.2638594378006151  0.7706891016365288
  0.8313926774215150  0.0532066463060093  0.0829530261030569
  0.5787475386325578  0.9072162334883811  0.3307810500940637
  0.0846364240136026  0.6725982328952477  0.7488825750375997
  0.8374582397196717  0.5916994886580229  0.9198476533522885
  0.2469881818860740  0.8307533462905208  0.5773632809377602
  0.9275710075287977  0.5102683035283230  0.7484919448687696
  0.0074746708336765  0.4272896363190081  0.7520186470132155
  0.7516310255149139  0.4212595347018455  0.1710328553970541
  0.8341468321317481  0.8269198746070116  0.8305401797583222
  0.0814941023871405  0.8296777713511783  0.4129229871779461
  0.2464748909925193  0.4182824051221973  0.4932043561400263
  0.1617088110257639  0.2521741255736323  0.0911405820263404
  0.0057691860041994 -0.0131269942075430  0.8312919796572780
  0.1640557303878835  0.5023327704638775  0.3317824613577182
 -0.0016325357636993  0.3324859008728426  0.4914603031032947
  0.8378459093059122  0.3571025871500911  0.0016690032823230
  0.0830579998663523  0.2500415298614981  0.0036420898259255
  0.1640529263271244  0.1597625255239507  0.4944306429571057
  0.8069163179676863  0.2506153793951462  0.9798485450944393
  0.7480299924076219  0.0669407520426355  0.6542145964597852
  0.9132096699783638  0.0709690720041503  0.6545942216887840
  0.9261535446108696  0.0719873357086453  0.8298107833407796
  0.1654669913158529  0.0004172414001045  0.0047897735708760
  0.2443417644890233  0.5040588593688553  0.2500394361344782
  0.0978926845265807  0.1533664433469902  0.9211149033203878
  0.0863136343751993  0.5023271264580449  0.4108817103300824
  0.0025620494677045  0.3445855258964477  0.0025379548111056
  0.0020053768082619  0.5861445100236021  0.2481528622811425
 -0.0042820232753046 -0.0089080321073569  0.4908602786151760
  0.0836055024668072  0.7511852251290989  0.1668913852180352
  0.8386308847132743  0.1310687378395349  0.8261000532443078
  0.9070279230961517  0.1610691466696703  0.2427063840145874
  0.0896321203561881  0.0773646911101786  0.0082546818980607
  0.0819629663876495  0.4206098367361770  0.1707197062601571
  0.2440389480484201  0.2537159288144453  0.0168348507948602
  0.9179958150446468  0.9146041173968862  0.1683812138513740
  0.0006311595421235  0.6717136211878186  0.0043539147381305
  0.6634487393182297  0.0752600992993970  0.4078487924437538
  0.9243484456162765  0.5124531314798032  0.5784536198712107
  0.0817156357203791  0.8310588447600252  0.7433809567284978
  0.0784970594372652  0.9079794250309924  0.8289441338510466
  0.9161005670268197  0.9106527591092448  0.4919708221088260
  0.9199756457961364  0.7508242977581225  0.6624470307181469
  0.8368760317344075  0.6669769726734976  0.8345791026603847
  0.1618957508224562  0.1669751426137361  0.1710081458646669
  0.8316270041040431  0.9138686981993429  0.0828381310310238
  0.9152144572267122  0.8329254056988694  0.0833955543545137
 -0.0047488192840517  0.1571206937632233  0.4876376365061564
  0.1644929241303437 -0.0063606306014586  0.4924708439467477
  0.0840292595035702 -0.0033632310817518  0.2490934693647548
  0.9198690785393632 -0.0114330622561929  0.0839090120497779
  0.3315911860291209  0.0766866173020034  0.4096307095515450
  0.8347844532584665  0.8337556632570908  0.1637713668379831
  0.0840983257873686  0.9147453417340664  0.1671278197381880
  0.1618142716587949  0.0715670352087335  0.5691608887733663
  0.8325327158836089  0.8271289174103570  0.6618920824070358
  0.0028160786054508  0.7503078172724892  0.4127077279494131
  0.0862769275659402  0.6731863814423376  0.9178707091594782
  0.9163613546389038  0.9090781020820977  0.3314585001171442
  0.2356580993289546  0.0035504558521906  0.9157435566668293
  0.2956856892899056  0.0808268412505146  0.8863292514641855
  0.0056339283466932  0.5099351905997305  0.0026215418847660
  0.1633262802157087  0.1676961163675925  0.0106854717675649
  0.0827302942381065  0.4160080079558609  0.4953156567731335
  0.9265535971313146  0.4271033560070174  0.5009052257200016
  0.1636221341912169  0.4230591719783116  0.0896164610225567
 -0.0046449163280652  0.2518036013477964  0.9359610471508756
  0.1595083628734811  0.2444774711282985  0.5701673482239935
 -0.0011695149209320  0.8283140476295286  0.0037875176546505
  0.6594106079522936  0.1507149169678018  0.8286833771884458
  0.0847503969854328 -0.0030617191225056  0.0865573687274783
  0.4936948183049056  0.5890859684629373  0.9226833633054089
  0.2504148109745111  0.4286038605415972  0.8390389934865490
  0.7475765763225269  0.6687306752663893  0.0839612551473513
  0.1666834961670134  0.4091794771294783  0.7512331299279114
  0.7481948003151622  0.7485132938937675  0.0019478859517503
  0.5790894685328467  0.2236271150305300  0.7517411481715691
  0.6612574583547087  0.5924301580053403  0.9270568188317484
  0.4129110164640030  0.9097184395955382  0.4956788095823029
  0.6642560149262945  0.6699710005956040  0.8406003704549705
  0.5883911587680195  0.0577118950354894  0.8285462671217959
  0.3283419026254960 -0.0011011893971713  0.8249076211981777
  0.4121510712243328  0.5892041986337844  0.0033426824782641
  0.9132008984246160  0.9075101297232981  0.6587977866119752
  0.8313389439811266 -0.0107117647844609 -0.0024227400711857
  0.6861398321229027  0.3849181035100404  0.7471492490533981
  0.4956041501789686 -0.0113480034049690  0.4924750834981028
  0.5802202668329972 -0.0054475466557201  0.0843213648032725
  0.1585856551200506  0.0662756237469874  0.7337464295202832
  0.1670503748912168  0.7559364038486038  0.9171997936831564
  0.2471351151770578  0.8312367137795099  0.4128356813550965
  0.2456349826200111  0.8364811078790826  0.9162819734099897
  0.1682820472770407  0.5072691677664289  0.6628404975517227
  0.0811258151013698 -0.0046225762148092  0.4106352116533118
  0.4107018827847882  0.8372204465438461  0.0811406897877910
  0.4117192242187396  0.9062194491723090  0.6583959827285712
  0.7466964644004466  0.9050970401584356  0.3311009273828961
  0.8267962864611682  0.1535147772125863  0.4877450673059788
 -0.0008188399514882  0.7522184476428236  0.0837842604975867
  0.7492459458088911  0.8246594535064986  0.5768673257525674
  0.1649513677554082  0.3316361030425418  0.3312640234192307
  0.3293488843951520  0.4427842966834649  0.7538332350115414
  0.5137411908669619  0.3102583007167783  0.9200484008405665
  0.6631214376277389  0.4363501088568696  0.9136884887927293
  0.1792748831974607  0.3559419788433422  0.8459483995748132
  0.4050381963691794  0.3359504576447685  0.0976949986323248
  0.7508214404084641  0.7458313676317522  0.6621098060552952
  0.3306214337445777  0.2369134188583620  0.5677701529724367
  0.4119599484501822  0.0737864835159010  0.4906319735820683
  0.5717570125825995  0.4194376354527724  0.3285591363694649
  0.6631623579754654  0.6610144901205219  0.3350765291330798
  0.4119449261371811  0.5158645263996059  0.7561673087251015
  0.5799302745563549  0.7442001190641671  0.6627713248615922
  0.6765184561895004  0.6021292243910235  0.5684222583030943
  0.6639323919140668  0.7458751875097770  0.4114266344153076
  0.6020347056761065  0.3277292708431063  0.8258102513931181
  0.8381852397513229  0.6719918632188460  0.3275693760084823
  0.3270575642397721  0.3358820297363388  0.1739188451411199
  0.8385558079732049  0.5901550522540101  0.5773025056773682
  0.4042736739827901  0.4312444099093047  0.0127255239660437
  0.8362976914757394  0.7486935322515497  0.4120199443405638
  0.2449128813852623  0.4264819088986839  0.0126165165939779
  0.6552143006929733  0.6678524582168730  0.1527451465143785
  0.3266720546237435  0.7536894652936219  0.7497929594564695
  0.6643581333281127  0.5200833580933357  0.4567525925487771
  0.2448786896280370  0.5890438609529672  0.4969642274642420
  0.4082439477994202  0.5888883043733106  0.3288810272383020
  0.5789251397853361  0.6671003492380624  0.5774746637209741
  0.3297884585577598 -0.0029553894332029  0.1692244589243158
  0.0838021791567064  0.6692499660239706  0.4129026265839499
  0.8399792621653320  0.6697454821160430  0.4934482233527844
  0.0826511239602021  0.5875233407165869  0.1682888992133791
  0.4038983351519491  0.4258443546397536  0.4833267397570724
  0.8305315873059882 -0.0131564238321138  0.1711177442769672
  0.6545425669287445  0.6673923236682610  0.0161103757227672
  0.3290300431869885  0.5056194199788544  0.6640838826422167
  0.6617150546305065  0.9050603122369193  0.0868965017731186
  0.5038333208273058  0.1572522675371073  0.6577044558217804
  0.2438446682342391  0.3331216716107823  0.2527045539220474
  0.6071354646885040  0.4345788849136092  0.8101616675644575
  0.8347797033606640  0.3333803335780269  0.3346380655612270
  0.4959896985669472  0.1977022084637206  0.9055656092580865
  0.4096390913006690  0.5134232127808811  0.9228654177494169
  0.5813280059717707  0.8244771399511630  0.5776247840598173
  0.4959340578285085  0.0724525668621446  0.4087804548868408
  0.4932988792748717  0.7532678000211239  0.7526952475285689
  0.4058753430930360  0.5925032844592075  0.4949175167786440
  0.5763874983791444  0.5811122052402183  0.4949713654065943
  0.5785174788682493  0.8350910369223187  0.0827509754179132
  0.5782206883553231  0.8296174883423432  0.2515037110770389
  0.5012283641520022  0.6715140032369863  0.0085701987607053
  0.5696458509872852  0.5039492507443301  0.4100712985087526
  0.4180612803809601  0.0791551803419609  0.6590575081432253
  0.3254275053069536  0.5066847158463568  0.1717227803411386
  0.6664834419806346  0.8287017785634418  0.8319136317064549
  0.7430141747884942  0.0652885437562648  0.0030335815244602
  0.6647929732571759  0.5909764147012785  0.2465134529762371
  0.4121849113867074  0.0784027153106913  0.3315284157533391
  0.4931661909503555  0.0776585155065391  0.2524769974959172
  0.4112563321675788  0.9096674166971894  0.3294811417878389
  0.3318260942066327  0.2476379644945564  0.4158484139883988
  0.5799395568309111  0.1182302620481715  0.7394887090865094
  0.3269212695642599  0.7507994217137036  0.4129401057712144
  0.6607909440869411  0.1362866428992682  0.0157336010968198
  0.2470481442680230  0.8337649916147618  0.2492223637323518
  0.7538435191653725  0.1613462435492087  0.2382396584264432
  0.4219890042780446  0.2478793606345202  0.4942396808349634
  0.4893381246909417  0.5920003452477682  0.5797047315300953
  0.4894763964009055  0.6801776799593746  0.6683460348292204
  0.4918793707051130  0.6765128951527397  0.8379351973053780
  0.4941464454231465  0.2496199449051549  0.2521546506691810
  0.3243484049190072  0.4182441968370321  0.4119516407038909
  0.2468097774252326  0.6732369811386083  0.9194191818118111
  0.3170314621209528  0.2568329155743516  0.9394550320083586
  0.5730406441639410  0.2502612154059020  0.1763207200226648
  0.4917678558288122  0.6658993738312018  0.4988936245523792
  0.6744300166774896  0.0693838195401373  0.9139662811125597
  0.3299945673848091  0.1650075938876358  0.1721457215169848
  0.2466888992424732  0.1652033556274470  0.2515028978574608
  0.2451730300431434  0.0835751701350070  0.0099016569711846
  0.1640487012748190  0.6694491012889739  0.3313084669340087
  0.7497824461642835  0.9043767892483300  0.6593006458699525
  0.4118464873763650  0.8306493280432972  0.2482381215904070
  0.6684462526682767  0.9032312956172841  0.9103665380051911
  0.2457552247619865  0.9131680454535482  0.3292089613684482
  0.5779540198554425 -0.0092527556190211  0.2537186102978793
  0.8321428070991570 -0.0103083870579378  0.4901295848258948
  0.7478423984983080  0.8278726494373138  0.2511287891740807
  0.4943315019134173  0.0694375253278921  0.5705636982786028
  0.1678433983697548  0.8345474760932212  0.0007329100192336
  0.7449981653402817  0.0742875055862629  0.3292139432397577
  0.7625492823728238  0.5078555833994559  0.4028851498579394
 -0.0056304126487553  0.1620644192091544  0.3248603448710322
  0.4928840126419363  0.0597907073211800  0.7375423100873234
  0.6635510774153685 -0.0131540346367466  0.4901647726772261
  0.3283160171222541  0.6721209477324864  0.1656900910338411
  0.5691555344868554  0.3365858046741277  0.7273278093956828
  0.6651389410250306  0.2446629591905945  0.2399924635758505
  0.6594946506984196  0.4219903153653526  0.3811886549898453
  0.5785878806017296  0.4254937259732653  0.1748096857650385
  0.1661034257655619  0.5019705918954063  0.4946207750244714
  0.0831918260224682  0.5863147783958309  0.3305558845170952
  0.0015694085488844  0.5054096254206774  0.1687833926782493
  0.2465860456412059  0.6698420738643006  0.5813475353504370
  0.0058619914209538  0.5066288592476215  0.4926120955887424
  0.5617311329340168  0.5995246478899455  0.6717720196105498
  0.0863889573068137  0.5870762709869101  0.4946426620537641
  0.2456468264541928  0.7505764640339927  0.4957752936730240
  0.0921692520545636  0.4275272691027162  0.6624329346969065
  0.9269458342554984  0.5137179652489691  0.9202608093299055
  0.1657328827597371  0.6732895736155206  0.0009275561283218
  0.0077997809972941  0.5102817769097214  0.8352263114655367
  0.0871547879427767  0.5886611804132682  0.6652365908759740
  0.0014681957170056  0.5021740037613418  0.3317096575072591
  0.0872640959724891  0.5899234598716103  0.8345981125654921
  0.0837914874428778  0.5071375909553384  0.0872650302530287
  0.4939461872035773 -0.0091735876840360  0.3311743231771316
  0.4940584520619227  0.1521916093722268  0.4868745554719389
  0.0026663417402051  0.6693171494081834  0.3295454305916821
  0.5045215583051493 -0.0166920361908911  0.8241320426846090
  0.9151559865770797  0.7496050485795550 -0.0001825215304976
 -0.0454960137271587  0.3337805898572361  0.7199918326148266
 -0.0112206571759002  0.3338621433988148  0.8344546105549895
  0.4742744213670333  0.0932918248547370  0.8526444000459119
  0.0832291915201358  0.4224624009767385  0.8369855852924850
  0.4902824481338157  0.2500267247264832  0.0917605900990171
 -0.0001763798174196  0.9115034825625822  0.4107707865738658
  0.5774809813717138  0.1635700908870844  0.0966307687680277
  0.1638849369380063  0.8312669416615224  0.3306098808539513
  0.4959960362780396 -0.0076168646151800  0.1710189062058106
  0.1644037012967015 -0.0028092139152111  0.3312277037029414
  0.5769310777493903  0.3363910746526649  0.2493689503148148
  0.9181781106486330  0.8293237686705028  0.4118585621893656
  0.5807303607287796  0.2446332074319319  0.3244677187932202
  0.5684721736766111  0.2359582495500724  0.4948596951147048
  0.5807728834702902 -0.0148690611140821  0.5708374468767291
  0.0013989702320448  0.5886943742584241  0.0854545491706303
  0.0058665546402009  0.5927099439541226  0.9191844589628364
  0.5792514736420477 -0.0103465018045201  0.4103345798469933
  0.0849127316333751  0.7542453144300911  0.8329336831231718
 -0.0014479487516315  0.8311410669334689  0.6601613757659266
  0.0798870879518316  0.1615768467183582  0.4113103680853297
  0.2489206303810367  0.3470772714050895  0.9343873674113320
  0.1648315409152137  0.5087945222454924  0.0059667379598634
  0.3269034752816891  0.5889517504747499  0.2491253669040560
  0.1636751748951350  0.5046530197732642  0.1702094858532028
  0.2460683505313054  0.5892091477928627  0.1687734398772706
  0.4963614733425958  0.8263597573255653  0.6620552508039147
  0.4114177298259009  0.8336881850087307  0.7492903822035322
  0.6716337493881274  0.0627332637160601  0.7418651134961896
  0.4942255126691174  0.1568279869799806  0.0138412711538254
  0.5774546371138960  0.1488277060717609  0.5690307928085023
  0.5768967000938003  0.0612714900511995  0.6481902812033311
  0.4117452623340964 -0.0085379406860353  0.4109251244619899
  0.2481351183253921  0.8350002401519221  0.0832665885857066
  0.3291625195475089  0.7515944228936756  0.2476651365951544
  0.4110833882070783  0.8300174065233292  0.4130024438447793
  0.3290281354328070  0.8315073148047881  0.3304541170239521
  0.4082470857623645  0.7531516389910691  0.6663257132461073
  0.4761180159208469  0.2673775186292579  0.7074480999495284
  0.5803141339224661  0.9055860736869961  0.4929286118199496
  0.4943123667435860  0.8280397666941148  0.3307941235917859
  0.4925022792576974  0.1650655452043229  0.1733564327081522
  0.3309843909167793 -0.0073284147722179  0.4936123782382589
  0.0015385559257645  0.8314898112398590  0.3289231015020803
  0.1662502019513160  0.7538308621332224  0.7495066682906689
  0.0819175806170999  0.8316839732527194  0.5782794356915427
 -0.0003609895539898  0.8326359347904955  0.1665724808651468
  0.0832933418526728  0.6715557475505411  0.0848880041880330
  0.0900544180044267  0.5080068000873122  0.5786731959670045
  0.0751279169443820  0.3274275072201527  0.7088997041069992
  0.0837433585740145  0.8321904012360826  0.0851113810831381
  0.0839335714037025  0.7530257513882541  0.0010287625095431
  0.4372944523958128  0.2577712202979150  0.6087434991815562
  0.4961212442416430  0.3342845883363013  0.3337607186452958
  0.9120318705910148  0.2358089838862281  0.4827321900380934
  0.0807245930970935  0.3371033668256904  0.0881654336393830
  0.9149729286624665  0.2458747307585740  0.3296911825369012
  0.0838559547052611  0.4250065458135043  0.0063409545087707
  0.1621973059405095  0.2463183965387561  0.4131283943290144
  0.9198780958222146  0.5036001138803328  0.2496672425123610
  0.0752561510042476  0.1481793256184580  0.7317496307034022
  0.8520729661922652  0.3420761406159683  0.6337172081085328
  0.0029346771968630  0.2343977462825532  0.7352616994933358
  0.8410933743208727  0.5900554871203328  0.4098358397923754
  0.0039697546725460  0.4266934853129136  0.0874963816253881
  0.0758162614666927  0.1545493660907010  0.5669594192895863
  0.0005750146397226  0.3386373052863693  0.1699420673648824
  0.0459219449362868  0.2069432508452817  0.8323298196392469
  0.0811810722544128  0.3323029245149122  0.2517795964179390
  0.0800794047462183  0.2465643634656189  0.3316428173224830
  0.0894569177850418  0.3081569445472933  0.8152520962125961
 -0.0006657200246309  0.3331740360267268  0.3319284609278598
  0.3256589006473429  0.4199750516420892  0.2523900039101570
  0.5778797605290876  0.0725604780813575  0.1748169225851570
  0.9122211337993295  0.1474331273948251  0.9183728406310778
  0.4125006037420888  0.6721258980645463  0.9217340863123712
  0.9146658277898182 -0.0073322055988779  0.4092612262855870
  0.3307777231154049  0.8386820382485984 -0.0022492618368561
  0.8365077512195161  0.4261879127573229  0.0886113942504697
  0.3292751348596130  0.9168354305124700  0.0837897560415874
  0.9178669061760668 -0.0102691181043880  0.9129934827297210
  0.4127670146852581  0.9241874643199657 -0.0015718994163103
 -0.0081357711749530  0.1505666531922567  0.6526479023237152
  0.4921602249843550  0.8376307280969902 -0.0010695007079616
  0.1665042496476840  0.6729201307404005  0.8342478926530428
  0.4942869890843120 -0.0143962069946554  0.6559786774082088
  0.3252296863739580  0.4246715699219074  0.0931321108293346
  0.4102110900252234  0.0799929978353567  0.1713926673397298
  0.3305907053331282  0.7540354222896053  0.0821536851317490
  0.4100016174414020  0.2485023867006171  0.3320387630216534
  0.0791441247799310  0.1641256271812430  0.2494508065506976
  0.0075396251021405  0.1505163288770262 -0.0096357653192398
 -0.0031421463617735  0.2582924445464060  0.0812673073056351
  0.1654479056870818  0.5864384596433786  0.4128452077092352
  0.0901810844697527  0.5042648832066987  0.7507810188050720
  0.0846700406368148  0.7507813329190893  0.4965407855459705
  0.0790430831539448  0.0750928573947097  0.4891512866295382
  0.0018151873517066  0.7500063767279500  0.5787323003882020
  0.0110289472786278  0.4333892011063655  0.5775605998038155
  0.0047198814546386  0.6719914465434610  0.8333087083666404
  0.0002078971778195  0.8305166524212704  0.4945935461280152
  0.1656297688320040  0.7516436723770745  0.2477568949207963
  0.0852378078393768  0.6686440456286350  0.5798078812326543
  0.0788113817716552  0.1655732108325895  0.0873240848583597
  0.0040556826597316  0.6701456797643272  0.6631950039424875
  0.0820600761945189  0.4167188137006163  0.3322394899974807
  0.9148133849060804  0.8279912629535781  0.9157012844151988
  0.9548759855828007  0.3414017184403882  0.5939613456776874
  0.0015487890899268  0.9117740394737202  0.0839933082466145
  0.0826500861337561  0.8330345754532071  0.9180773538997568
  0.8353162343196809  0.0652130471543278  0.7379983049478593
  0.8335559830282107  0.8275432840888262  0.4937873827374977
  0.1135986894325297  0.0321142736581725  0.9081908379139730
  0.6640642563341830  0.8249609863258267  0.4944343751198528
 -0.0008404898053408  0.0747587408186973  0.0856410497265013
  0.8712617348970634  0.3347869662876296  0.5178474927672427
  0.0002986349018488 -0.0061408977469918  0.3298328675040375
  0.7560009218445704  0.6087980546830530  0.6592993353912696
  0.0804176954401910  0.0800217499530115  0.1691924916180278
  0.7582332654884698  0.4174770806519686  0.3327919810003767
  0.3886480894486622  0.2131333649308323  0.7596620708830109
  0.7519705908600937  0.5135831416968314  0.9175298693951957
  0.0750499461537476  0.2287514003486135  0.6482383125528508
  0.7501978468464341  0.8253307875013901  0.7461108426710575
 -0.0054891224798114 -0.0108314645711189  0.6556683437313614
  0.6661309435804457  0.8237422340813140  0.6602850048346419
 -0.0069338098309016  0.0676987004296357  0.7355448236664827
  0.5004529534006956  0.3370226575804754  0.4759883367923248
  0.5376410175248014  0.4906859502611076  0.6136769324484846
  0.6648430545964186  0.7586096445795475  0.0840779759642477
  0.5618333043799902  0.3433323239793771  0.1016365635169047
  0.6548653753081441  0.3224464958923041  0.6545359924083128
  0.4903300580001804  0.5973171781422022  0.7571349948065824
  0.3248653602836590  0.5884572721767444  0.4118095811278603
  0.5730278904969212  0.5028969573692208  0.9185550809474586
  0.4895945114947886  0.5884826633801553  0.4120550416403974
  0.4096522988233032  0.7550122892984420  0.8354021878285102
  0.4109271114032298  0.5929890017907694  0.8390670677655510