B  Cr Ni
 1.0000000000000000
    21.3835224004948046    0.0000000000000000    0.0000000000000000
     0.0000000000000000   21.3835224004948046    0.0000000000000000
     0.0000000000000000    0.0000000000000000   21.3835224004948046
 B   Cr  Ni 
  69 259 605
Direct
  0.7564869224798911  0.8331476567568973  0.6711917298472341
  0.8354747280497945  0.0608228633621805  0.6594694407685318
  0.8310740812785706  0.0964216481558090  0.4450198642473546
  0.4840249820296204  0.9468270278045160  0.3476081729491192
  0.8336215341373004  0.6372799459511777  0.5406592748284542
  0.0801537304973112  0.0098071690893315  0.3629906361041291
  0.8576430717243572  0.6907568364697200  0.3138811191902512
  0.2182519730738700  0.8942856582509500  0.3964235751158037
  0.9125598319041481  0.8134048826546366 -0.0155870573789675
  0.7384682910272229  0.5903531141737666  0.2442772183851897
  0.7012774659571444  0.9207640800891040  0.8094128949155475
  0.7435980789829876  0.8835559627251773  0.8641832000226437
  0.0694996897788107  0.5842968160029953  0.4101972904753584
  0.7172135792690433  0.5977122447224590  0.4279789979935840
  0.9062939646112116  0.7514034356168875  0.7431076650299270
  0.7446393566794134  0.7473632580390475  0.4084092451276913
  0.3053348445338057  0.9272599934871303  0.5073153089819445
  0.8162541889374949 -0.0866946307062912  0.3913297266224404
  1.0835679411733814  0.0099586472856056  0.4487829485097575
 -0.0311553383569857  0.8178512600570684  0.7306799557685456
  0.8872525063745323  0.9237784378247734  0.7336916580303026
  0.8347380093484298  0.0148600383028105  0.2749527181401128
  0.7160402386644503  0.8488881226402171  0.1341482306531417
  0.0804747025272402  0.8176953188117373  0.3379720614503834
  0.6615944101655955  0.1499751638330908  0.5649898251480712
  0.7435841942131592  0.9252607119131095  0.5788536380287993
  0.6589545411716531  0.0807615860081578 -0.0166448819181589
  0.9714678057460194  0.9145578067774274  0.3281020870692807
  0.6373436775658146 -0.0048868307251274  0.3994247947291346
  0.0873447781505302  0.7806277561592979  0.5853534069694242
  0.4244429943663788 -0.0046578401961824  0.3173461629432228
  0.8995668056525954  0.5859073129368320  0.2475425589560733
  0.6454040571194659  0.8040986828411134  0.2919494366874313
  0.9553321040560686  1.0217466679587939  0.5857455102517335
  0.4860605692145270  0.7363339715077897  0.4690989849007715
  0.6781391281744666  0.6643013310723571  0.0856530511777708
  0.9323315685372663  0.7828480520286778  0.2348196469368522
  0.7432194042850863  0.7434655325291007  0.2160784142064444
 -0.1573662977930857  0.8175791178754708  0.5741065112796595
  0.9876787407407057  0.7362745636696165  0.4939890153239677
  0.3246409093345412  0.7007037536774688  0.2399687600243532
  0.4704837704901180  0.0388670491193417  0.5868440384231215
  0.6173681666084202  0.6578074963703743  0.1463194080086042
  0.5945338736669946  0.6492881624125655  0.3375420741828209
 -0.0418768407813086  0.7044966393158975  0.4233314390815157
  0.9297771136637710  0.6386816685099197  0.3052766367294624
  0.3238728513313541  0.7828877089425041  0.2371136588696141
  0.9758497295244550  0.6649360543128465  0.0730920730941099
  0.7490705247064768  0.7299037098212178  0.5563048372387902
  0.9848768441100064  0.9085645018174601  0.4879413175424923
  0.7159787519625622  0.9954029614605708  0.6164814395078135
  0.5865519251737135  0.0718685402584486  0.7352911764135569
  0.5839329028440317  0.8391440738952379  0.3398185002009631
  0.1674657732070065  0.7403256705087068  0.4531386184157401
  0.5247116982512001  0.8226506715060906  0.5869558126556691
  0.7339748231627871  0.9230751598613552  0.2602178096007675
  0.8248787591039948  0.0431958786152778  0.5113539424332488
  0.5897349260300807  0.1517604054554614  0.5005358219276287
  0.4796241972196523  0.1198879919196088  0.5844672642084016
  0.8159985977340325  0.8777260351056142  0.7121111943096038
  0.6627776068325330  0.5032765536767151  0.4010348938543348
  0.6730297324582137  0.1365078770153591  0.3932762351672807
  0.0851473769953486  0.8656030508764695  0.5834680246531544
  0.5652715854455859  0.0896163308893859  0.2659996488310506
  0.6130655079689560  0.8237646962717323  0.4779552602532726
  0.9997003678307576  0.6683176426129674  0.2699818873027929
  0.8429616549053334  0.8430585996421092  0.4221344826781185
  0.6700882095202247  0.8962620388298447 -0.0036031098651416
  0.7732372130150705  0.7321063577000230  0.9222266009407507
  0.4886993892747855  0.4083446731848802  0.0734675231726267
  0.5522683032180632 -0.0177611008391675  0.7388213334479344
  0.9140544954532047  0.3307800124410231  0.9107800233025615
  0.5667832057019985  0.5710935279985897 -0.0047479254462098
  0.7429787359200718  0.0964617808384826  0.5067534941807641
  0.6563228743032730  0.4905700957056334  0.8326313080796583
  0.1614454760643799  0.8285710632344184 -0.0081668039821109
  0.2456608030992002  0.5763654857897428 -0.0069655873723976
  0.3257400497412207  0.4077311489624965  0.2422659493024126
  0.1691455208089008  0.6453136369200846  0.5026969947810482
  0.8342761469452868  0.1747822558922871  0.6672880055652017
  0.7435928332246791  0.3303497039523385  0.4102784814471847
  0.6423890148047939  0.0083241016703192  0.6825304097042543
  0.9106957459521567  0.4858245713085241  0.2428818174702579
  0.2394910844724685  0.8268647269726561  0.9114759377210513
 -0.0021672408389176  0.0858299241736481  0.0713714654537665
  0.1607744886030972  0.0021161342807459  0.1551220742535527
  0.3252859814542631  0.1664205357390552  0.6628274009673698
  0.2440896479419696  0.6567099394064279  0.9126380839153238
  0.9140731482029043  0.1710965458642651  0.2375600122006170
  0.8235055874017658  0.6071980773823572  0.1798103742265168
  0.8281046127289678  0.2486819871520246  0.9102722426059070
  0.5005092320336354  0.1601420241141373  0.3220712473870024
  0.6575968333674915  0.2481488414234352  0.9079525885450269
  0.4860164210002565  0.9143835811135178  0.0727920932384157
  0.2451660583712623  0.4107193114596595  0.4954834365630218
  0.4769457466211654  0.7335797240620268  0.5848249918068200
  0.8238360445808088  0.6629647411953884  0.8513847199101280
  0.0807996821137219  0.4914378442109919  0.0734441882369167
  0.8295151402644453  0.2525014838568250  0.0736036203766405
  0.9099855956545367  0.4120012734004205  0.8326180005755869
  0.1625506739418082  0.4880035481529028  0.3250376901623892
  0.9116090633178922  0.4903858370668031  0.7525964270313850
  0.9038013482112875  0.6817896993521787  0.2236830607638084
  0.8279119492385487  0.3297683715282929  0.1535869116175080
  0.6564114252602685  0.6533076725481197  0.6697964158622571
  0.2451923427930318  0.3269625626264727  0.4080155607879994
  0.9124828390547310  0.4876842482121184  0.0726481237015045
  0.5753884339084644  0.3293014248111522  0.5788907590613007
  0.5760067511687820  0.4097591391051622  0.4969254877193585
  0.2459893004424538  0.4087599298661105  0.6638733389493102
 -0.0040083767959475  0.4105069644942395  0.7485742515526154
  0.9117444903303590  0.4112682171934323 -0.0104025535288413
  0.4096381070334688  0.3290410454466927  0.5772256248946642
  0.5722980838768663  0.0873392185028490  0.1517936397162106
  0.5697744541072339  0.4024842991900159  0.3250072158478607
  0.1628059073313942  0.5702351600897825  0.7485381502077957
  0.9135062868011480  0.0896406251264814  0.1507235810717717
  0.4884540613123271  0.3282636913124222  0.1544950057454469
  0.4101393538816219  0.4081943559196492  0.4948946949543416
  0.5761777590294802  0.3267052818416840  0.4103501536548017
  0.7439427125222524  0.0029327928596333  0.0685995776158226
  0.3260599779692612  0.2462485255373668  0.2401953877932451
 -0.0002185433770533  0.3327753476596829  0.4945395779024277
  0.7439714386723330  0.0893329288056814  0.1486559935089974
  0.8265134798112108  0.4064429884896770  0.5845226939548503
  0.6592657894187842  0.3284849727344081  0.1512951480302082
  0.2447923279282940  0.5690235331604016  0.1578739592773175
  0.6586684192179452  0.2567322100525589  0.2329124395569600
  0.8257505111300496  0.3984881228612546  0.4122400722081046
  0.8293503120491605  0.3293018056688017  0.3240660838830654
  0.4850750519184800  0.5707856795114049  0.0741165542731920
  0.1661966391828627  0.5667952451329104  0.5817808284463931
  0.8312946466676640  0.0098890710897170  0.1492982776953318
  0.9209886584018989  0.0901058948133984  0.3134623495303377
  0.8384991352614987  0.7767676511665953  0.2586706885039929
  0.7391879233427331  0.8249717663078009  0.7662545419961809
  0.1626766016120522  0.4095243967342445  0.7483337514316458
 -0.0029821345284765  0.4796267607377155  0.5028968360756787
 -0.0009229783421466  0.6569961821931243  0.8357660002936093
  0.0810136315703140  0.6592336146336855  0.9094149445437140
  0.0869292415999158  0.1763866166651110  0.5785113614291192
  0.0795594682635990  0.4114180301669763 -0.0057677752153491
  0.0809187733182386  0.4084407896754703  0.4939644362268066
  0.3274036025169326  0.5713445036396078  0.7492609798372987
  0.6589682032846956  0.0895592042614212  0.2325693607679763
  0.3259641124945890  0.2476266126719633  0.7455028204686928
  0.4092533438786676  0.3271057697200821  0.9101775041267072
  0.6602375658348613  0.1728876420697857  0.8339374432361617
  0.2423613827024040  0.8401432323931369  0.2377565939470548
  0.1605077885221697  0.1665765182160517 -0.0103040072791618
  0.2440922382652539 -0.0025154892802699  0.7470163746952462
  0.4878756746074798  0.5699109954629352  0.2402292889184288
  0.1556560053415430  0.8260030389889392  0.8294764077108858
  0.3215238799534849  0.7382065377091418  0.7496496762672784
  0.0780559547348922  0.8278842737986601  0.9113396208463321
  0.6447977019633875  0.4766884448610311  0.3107725567838254
  0.4896282455454387  0.4908799914126146  0.8288374523948043
  0.4019108344339236  0.6509881146792282  0.5832126846696895
  0.3270015215523232  0.4921492898002652  0.8283023672120289
  0.5536483651078145  0.6751296565302078  0.4224800825172302
  0.1520748361452846  0.0775220515101708  0.4071686727998322
  0.2471613387131034  0.0056966204216705  0.2341747554683835
  0.1647673383011393  0.1680568607580393  0.6627401894661816
  0.3259246992270794  0.1655720542992694  0.1542589192148085
  0.1642914985231435  0.6511473266615336  0.3165058309981409
  0.6453972436084862  0.0571637570672424  0.5797664874023396
  0.5749675851358632  0.3279458228341165  0.7456207050904512
  0.4195134575785230  0.0836832471488010  0.5041491966659793
  0.6617310057910397  0.2530462334274122  0.4014351222961999
  0.9164195473503981  0.2526036139642074  0.6647909844481001
 -0.0054972088924825  0.9173357330650042  0.7361171009235609
  0.1558184146520172  0.8199941733948815  0.5233436851345774
  0.4927599986412348  0.2464500560668415  0.9083823783608135
  0.5638926863352135  0.0806527361138301  0.8290705386508483
  0.8264719177444690  0.7577625676717228  0.0554864075958700
  0.4852151111934249  0.0780358162916952  0.7447622178004566
  0.1543923146296554  0.8244337811885991  0.6578474544450261
  0.7307313443202470  0.0062982705126674  0.7645070393511576
  0.9202067251047403  0.0961886927662260  0.4998276365363324
  0.4922797084214408  0.0823825529692653  0.0726886977220155
  0.0763828304586485  0.9141376231047321  0.8241756713111471
  0.6596880345979584  0.2497949057256724  0.5802102077672869
  0.9148911242745172  0.0866907672702763 -0.0104727442046652
  0.5765068907070064  0.1728879222492367  0.4046431718037338
  0.4906251038394434  0.1698289647995287  0.4940019972085015
  0.3173323626623941  0.8213182133422193  0.4997130898819591
  0.3936815236279017  0.9057816512471667  0.3350671924357729
  0.4800250723361497  0.9247386855008697  0.2445814719781983
  0.4809267139659284 -0.0180870208226438  0.5036285925456915
  0.6592059555782385  0.6503436853380249  0.5014987646220587
  0.4860293568890700 -0.0075184163071883  0.8295176664760753
  0.3256861737309483 -0.0023788756086692 -0.0101538297353043
  0.3240437552442639  0.0853699951150115  0.0707203324292707
  0.7304951599160143  0.0976676788661094  0.3054464490609046
  0.5455778358771749  0.0733701812264754  0.6480743961253866
  0.5383428368574136  0.0679248958952718  0.5207881330369153
  0.6342705121387775 -0.0012039829303908  0.8108947675248007
  0.7422648583871095  0.2509921997087352  0.6655066528064871
  0.6581855002856216  0.4943113495759857  0.4987212259938917
  0.1639770420752651  0.2489199307820634  0.5776994072913607
  0.2457071586879266  0.3272173945119087  0.2422175557058096
  0.0974434941768347  0.7462065624287171  0.1535533475488623
  0.6494112041279781  0.6546821082441012  0.8310612160057465
  0.2551315249468379  0.7440920877433665  0.1728084405254803
  0.4072273654676744 -0.0041193293729299  0.9099606889270785
  0.1660951141808657  0.7432417075662738  0.2429277713397670
  0.9275726373520532  0.7982753765081547  0.4461882326941834
  0.1650725970332517  0.6462533886051430  0.6680544681668493
  0.0022433579315587  0.8298197136682300  0.8266141036726777
  0.8351693764374597  0.9282294866089402  0.9020063961763519
  0.0003174901341024  0.6433777386653337  0.6684726959821429
  0.6567644219808066  0.4111088063504221  0.9091675827543163
  0.0213311048276193  0.8205886589760344  0.6458597513479387
  0.4108169324858624  0.6522601627857521  0.4125230122819241
  0.1649366442178771  0.4899795884454528  0.1567602608457495
  0.3269294385208741  0.7455442295062366  0.0782322998720117
  0.4079323013094091  0.4056768196090449  0.1563975029606233
  0.5579798253835954  0.9151537706960796  0.1536845749824332
  0.3940004713713152  0.7435122726358320  0.1701011430714133
  0.7490824053890344  0.9359025794657955  0.1487831247757159
  0.7374147403717193  0.5757524332693249 -0.0004349759109580
  0.0745852538517745  0.8236104514049437  0.7417935190707303
  0.8027008858989614  0.9029667255445063  0.5007073027897281
  0.7745107763997652  0.6737597931948099  0.4691992274648641
 -0.0008748984680753  0.9193955179408608  0.0739877173894571
  0.1206412619619593  0.8363473097148997  0.4310837625714601
  0.5519752075701265  0.7411303070532258  0.1639776922326016
  0.5704621656355885  0.6565472763978988  0.2357712336701185
  0.4051647961807942  0.8255743439135347  0.9086035874155810
  0.0892020821769465  0.0879870390775766  0.6622829777087860
  0.0821129803634732  0.2480794301203873  0.8290613867978218
  0.3271740261778617  0.5690097255846266  0.2439607421808812
  0.6465594458416272  0.9266220168495234  0.5990299543799634
  0.9116460603764811  0.1614091009099735  0.4058248902766735
  0.0167867063930888  0.0831838478244179  0.4103023580262805
  0.0808695640220440  0.2477215096964130 -0.0076951377078525
  0.0807855706805269  0.0039090033077785  0.2318431000560472
  0.0865521026456748  0.0923341264565505  0.5039963628985155
  0.8358300442588584  0.0868278448205987  0.9098572601940698
  0.0809453318529788 -0.0002360514914100  0.9112239452361398
  0.0824851741655095  0.0837516016987783  0.8264881547937232
 -0.0035600975332826  0.2501385307992730  0.0750328740347035
  0.1631550788736746  0.4109488842309027  0.9113885645301931
  0.0828847936740300  0.6573314844779248  0.0799445385372969
  0.9119185002298783  0.5786868321349244 -0.0005776223285011
  0.9188872665017428  0.0369275447635690  0.4182272823147010
  0.2334754537711031  0.6631513192920726  0.4064226989483548
  0.0016587545076286  0.1723876749263069  0.6656473224759618
  0.9142332647278494  0.2511748567224714  0.1561922266308741
  0.2474509310745441  0.1657900839562445  0.7449503709637021
  0.1609439143223199  0.1675076719146632  0.1571003683083879
 -0.0017407496941150  0.3295400544972416  0.3251161043984330
  0.0821313338186144  0.5732558635311746 -0.0060635009608819
  0.7240233105505705  0.8204030348118382  0.9334924561203113
  0.5548790367280325 -0.0204381170333751  0.5950592146842670
  0.1693194080558359  0.0836230827146704  0.5799198542805107
  0.2426711400293756  0.0052493285576373  0.4087662050813610
  0.5674002655000601  0.7465708225917139  0.6588507670960611
  0.2423891691713081  0.8212785857576501  0.5870428349493209
  0.4087258163067913  0.4075231664655975  0.3259992683980725
  0.3810516019248008  0.7481135375910677  0.3115282201557263
  0.1681556616814775  0.7422691770629029  0.0774876685895754
  0.9152910734550509  0.3333017323912287  0.7507230889952063
  0.4875033107391066  0.3287447837858528  0.3240190125247638
 -0.0048479757375824  0.4094392423348591  0.5829094807143467
  0.0805680725455440  0.4081319257309920  0.3241340064233704
 -0.0040906736369520  0.4121376983350683  0.9116804175021234
  0.5686558296257374  0.4834837915383963  0.2353100745128487
  0.8096255483461341  0.8116191149408135  0.8620490971181346
  0.6590164689094047  0.7244965278195844  0.5962583902080961
  0.5693174828621820  0.4906397935790297  0.0745610863736669
  0.2420648268655523 -0.0028373000418669  0.9112013314690923
  0.7426542240567269  0.3268900793822406  0.7463607881772105
  0.6891568280455347  0.7603128485848479  0.4911332680385963
  0.8251651423298281  0.6570245106555742 -0.0118258880187920
  0.0787129069048672  0.7395404099322707  0.8315485233035024
  0.1625620777981477  0.3293698486177303  0.1571113803310143
  0.1629934044655648  0.4914661743201602  0.8298433632289147
  0.8239241084241141  0.5763558412795601  0.9149235449334209
  0.9147949414062168  0.1683792486251117  0.9113308490649238
  0.3254971747869839  0.0821860214587844  0.5805662763592022
  0.2439739936576857  0.3306452271323767  0.7453574107865627
  0.9010198405242621  0.5720443723644230  0.4951511456817431
  0.4017093965162201  0.7353303879281283  0.6685290389608598
  0.2446289725317320  0.4075572470652597 -0.0102143300074125
  0.4068552882632244  0.5732339442158800 -0.0083202746531341
 -0.0048805626164097  0.3286439514615537  0.1559082964224774
  0.1646787410953937  0.4874783919492503  0.4951659066674113
  0.5634040171078293  0.8909941026399120  0.6587767480842125
  0.1644380309314166  0.2488372214793589  0.4084689748197146
  0.3271447632071262  0.2450741842599371  0.4088781366383842
  0.8267259104767756  0.4867056418382555  0.6720834930177306
  0.0833198252587026  0.1697936910845399  0.4086033853792635
  0.8297675016484403  0.6545072609088113  0.6737569852166991
  0.8190006787199144  0.5640489626954270  0.4111828907621167
  0.4957492214794517  0.5740919508456366  0.4122462758481337
  0.6547484979900585  0.9141878273169117  0.9006776916884653
  0.7433318235370004  0.3273024596071675  0.5817503637809140
  0.7725083379565105  0.6572875395165778  0.3666096025887330
  0.2566114454230677  0.7434867588011297  0.3069800597514011
  0.3109378086209156  0.8323837141698802  0.3275383013438942
  0.6560387999430497  0.4090209335159521  0.0727357797703483
  0.9430435425478427  0.7385776511048265  0.3269523651731280
  0.5588441452856019  0.7384301327609777 -0.0072871304792531
  0.0833829483127400  0.9174712562018026  0.1555502331990359
  0.4081813441698155  0.3278062750465467  0.7445375820786950
  0.8296885676252944  0.3293861334259485  0.6652461782747071
  0.7387654601449878 -0.0126078012765792  0.8787656075774909
  0.4058716356985917  0.6564536547664364  0.9099863775132839
  0.1611588727432105 -0.0015238573621866 -0.0105923832988299
  0.3246511674301313  0.0019638328250981  0.1515338580523984
  0.6579764607163284  0.4902893262632350  0.6660208387680162
  0.4901929917986411  0.4904213197638138  0.6633701222602643
  0.4845593350866306  0.8226467408246908  0.8319158586978339
  0.4050620152035716  0.8289749900138706  0.0762435989690005
  0.3268060056628860  0.1647046685283640 -0.0094556245036166
  0.3949370799298367  0.9035459609849115  0.6726992464391680
  0.7421459689457167  0.7310300159846405  0.6685554024283563
  0.4082986822076871  0.0818936176524940  0.6546226664402032
  0.6578936564105738  0.1591286675903320  0.6635303149223669
  0.8323437414775324  0.2506899040650018  0.7474148167312111
  0.7211795369852377 -0.0017613432388666  0.5136437701961254
  0.6685155407008960  0.6858165623335204  0.4006335159572708
  0.6554534758614365  0.8275664596210101  0.8335630885176218
  0.2443778356498849  0.3299399351723263  0.9118188310985369
  0.3245342967931180  0.2443892902259466  0.0734423722867728
  0.5728421908046787  0.3281361602277887  0.9087877727172499
  0.5734747633234970  0.1666087986185860  0.0721549530822745
  0.7455617130595925  0.3286730114416045  0.2380770180073407
  0.6574349576316478  0.4107577867794506  0.7474818988397243
  0.6592265763927531  0.4031353928038953  0.2334906989364504
  0.5707240531943099  0.4060188667057478  0.1543333541848085
  0.7417226072743203  0.3288649333073582  0.9091418841710047
  0.7442097833091221  0.1683458531073968  0.0699552815500516
  0.6576622489000982  0.3278031696707012  0.8279611106745418
  0.7411463476312304  0.4067995237034570  0.3233638145423347
  0.6585988719061059  0.4093711397335006  0.5811814268893112
  0.7418786694617163  0.4071717375080914  0.5001785903969180
  0.7431886719258697  0.3317811060375909  0.0720909374093022
  0.6592705868095564  0.3286974472058087  0.4944863952834250
  0.7414465024080398  0.4084740189033290  0.6675021668688090
  0.8300209328426810  0.4899510620489342  0.1593220851341820
  0.7411337014597422  0.4104726617447648  0.8298491522266248
  0.6585558279195145  0.0072661349787165  0.1511001818012979
  0.5720104050875678  0.9091948824676426 -0.0073409898262378
  0.4701446869415992  0.8191749277199554  0.5065733634193123
  0.6551368831871609 -0.0085972282049467 -0.0082080644991704
  0.8251115606350207  0.0709251283742060  0.3554110338474269
  0.6387418545801978  0.8131981038219894  0.0051418818393094
  0.4038129925919324  0.7392968361309824  0.8299210224838263
  0.6402731181801754  0.9053185420192494  0.7430743880604928
  0.7616926684348447  0.1603018715335575  0.4064750589297608
  0.4771725925806085  0.8188803040930801  0.6683877318377671
  0.5714454668885999  0.3288187258119935  0.2372838150094771
  0.6497747625998521  0.9180466006556228  0.2186552203964161
  0.6588451662205829  0.1698843415437395  0.1521007124455911
  0.4820903500364504  0.8986002402390516  0.4238129188364156
  0.5646421167670586  0.9063689381760087  0.8288018272570449
  0.5662229397538375  0.8325343860177549  0.2437742011253609
  0.7487452018440403  0.0809444352337491 -0.0160205307853706
  0.4804259951137538  0.8299277081640085  0.1645803857542455
  0.4809296114017316  0.9009173625400898  0.7476201779505238
  0.5434153623906182  0.8018491196463017  0.4215421262382562
  0.7452483652912981  0.2506126705915471  0.3231955619131134
  0.9186830969507981  0.0897209519671311  0.8287326942197505
  0.7405271781053184  0.4860986901996449  0.0695383873930348
  0.9122092475708988  0.4099004833642482  0.6666320587498014
  0.8274158643108408  0.3293085436986108  0.8302992126239448
  0.7403685964270038  0.4093410597366338 -0.0106313408129849
  0.5710458585831620  0.7400913560224532  0.8314813498042476
  0.4860075441081587  0.7401899913437560  0.9100040508486820
  0.7451192219760425  0.0136033362048913  0.2296487508956382
  0.8263805668220104  0.4915165505848441 -0.0092553154663622
  0.6643107109329397 -0.0072043338989483  0.3062857673569044
  0.7126291118272073 -0.0580274662905861  0.4167436804555751
  0.6553053915830240  0.1781062731821392  0.3122756980574268
  0.7460745048504541  0.1688932561891409  0.9112136317494380
  0.7433593394141182  0.1755520372562442  0.2319171889550593
  0.5735528806371257  0.2459319090258721  0.8261844226413917
  0.7436932575433941  0.2505007322546858 -0.0091063600752392
  0.7490788123628931  0.2544198839875917  0.4941116044513145
  0.7489967521168251  0.1747298473087933  0.5835568820662659
  0.7433416847400821  0.4116453603227491  0.1569182831808286
  0.9131452180516153  0.3298130107441247  0.2404737515240559
  0.9154462196725132  0.3299633282896232  0.4103552807820967
  0.8256568944839574  0.4928901397056408  0.8322927730907325
  0.8858868351678887  0.6585256429994245  0.0953949189488994
  0.6589014749381196  0.2490013836291537  0.0718123928042127
  0.6594409565400550  0.1696166010319697 -0.0106292772058771
  0.5696988814956651  0.8246275123973157  0.9115197467647062
  0.7512893694387103 -0.0691593228836599  0.9763425365362546
  0.6600331291661018  0.0762385370846795  0.8944660408232681
  0.6694218223587637  0.0958785763925788  0.7564106051440486
  0.8366889251604612  0.1042471436257947  0.5795901655542938
  0.7292967804710420  0.9218051906161970  0.6790466087917160
  0.7439603273293209  0.8208972305438692  0.5799124248211648
  0.6733145785369364  0.1803761189372741  0.4791963375198111
  0.6141999223135258 -0.0220599214909760  0.4977508426807623
  0.7183322599076387  0.0506665955591093  0.4011383875376234
  0.6542532007630900  0.4924204039021072 -0.0057134724961092
  0.8272165588356781  0.3303761578946310 -0.0092046484306549
  0.4867262118713626  0.8392827071587411  0.3248510995834563
  0.9151249115544334  0.2499730722134073  0.3246290294006149
  0.9205494611776307  0.1765977725987866  0.5817598530810714
  0.8262507041137377  0.4087973608532812  0.7496704574345754
 -0.0024586243603657  0.1682707134986934 -0.0081862365129666
  0.8318899539294052  0.2507250725592833  0.5823572042591987
  0.7447026136242373  0.2483485714654743  0.8278069138555191
  0.8303452870799064  0.3285944974340919  0.4978680565874860
  0.8268602442929520  0.4114380844849122  0.9108038458952844
  0.7479704455123450  0.1701503894127940  0.7442743040111127
  0.9042558220533519  0.4795158888448328  0.4183167070329369
  0.8324377142429495  0.1702676679494606  0.8290630450379821
  0.9113557745892006  0.4889048597144465  0.5827274074595308
 -0.0046395581725067  0.5736612034333809  0.2461629206865373
  0.8254162311808191  0.5761414885255924  0.7544792652427179
  0.9145652160553728  0.5530457470318044  0.3365499530400861
  0.8261288850593536  0.4768200747875648  0.3328237354486775
  0.9114373638165149  0.5692308039815530  0.6718531068222440
  0.9180901163141024  0.1682453374401451  0.7459256482373857
  0.9123705516668595  0.4057118130519868  0.4996363767382990
  0.8288585843362176  0.1690299338388856 -0.0089074236054705
  0.5695952773500925  0.0799607769697698 -0.0118473988812984
  0.0860120255526248  0.0054094012478051  0.5835618923678230
  0.5533381920518106  0.8263082074805724  0.0767519720037178
  0.0000770206171119  0.0858232914741866  0.9098597497380549
  0.8274144811789190  0.5642114894082196  0.0735607646578756
  0.9133545734118119  0.1691301801423963  0.0717520777982641
  0.0010465590795689  0.9167867552304099  0.9093728985893621
 -0.0028090863619665  0.0044950578632491  0.1503779480092139
  0.8228504819133985  0.9316064593870820  0.2317444536731041
  0.0805813568310676  0.0857073141021416  0.1534365453428790
  0.8276238183245987  0.4114098063820023  0.0739408364894215
  0.0105277645181611 -0.0365528684681961  0.4102361950347306
  0.5695532091669827  0.9281665773685950  0.3146199809938135
  0.4687266630111829  0.9011913938781333  0.5880321677109004
  0.5720890710791773 -0.0014671033707333  0.0740408069795935
  0.6848072942663500  0.8802456131104089  0.5037851246340872
 -0.0016681741860849  0.2486424697477350  0.9107778045292154
  0.7928350272839471  0.8607155237008340  0.3149353074245440
  0.7851761459593446  0.6750501316646229  0.2586329150646974
  0.9185164424536447  0.5662982350521438  0.1569359688326451
  0.9196155885588783  0.9281047142482897  0.8246716813049818
  0.8346142792808194  0.7570845670225419  0.3785803034307740
  0.0012058520126242  0.1711341792676200  0.4920901056504178
  0.8168867698712127  0.5744239162842337  0.2897597428372518
  0.9308962285719415  0.7314858882830337  0.6595239267894021
  0.9241990982187568  0.7768696249969371  0.5595513465601827
  0.7261860900143889  0.8344622408392651  0.2247854519020655
  0.8382190675897485  0.7918476835929626  0.6732754389101844
  0.9140515953787660  0.7620296149411241  0.1451666360062987
  0.8281089952716927  0.8473812196026660 -0.0216197702073360
  0.8949116601963936  0.9850036825472485  0.5238689301609215
  0.9151709619755768  0.8410016285918684  0.8966229322827217
  0.9058095060906194  0.9691948073910589  0.6392643685557128
  0.9103625592720038  0.9253924501093913  0.1469871456369574
  0.8189104849689256  0.9824028300970067  0.7065059501732709
  0.8162501510464611  0.7186337071378629  0.1622137936298118
  0.9179357680773302  0.6549682707427544  0.9151874200577303
  0.8298099142545234  0.2514278702221537  0.2361604022468156
  0.0796696022497511  0.4111393682586792  0.8303431991511757
  0.8275764896012705  0.4841317096481829  0.5016082277600888
  0.2445506453313924  0.5732840766817759  0.8295820723886842
  0.8885491787841429  0.6490173405827558  0.3912926137280794
  0.2473536542467392  0.6591926030971568  0.0771393113483263
  0.7503319427625020  0.8389958120856971  0.4162723831013981
  0.3260160353994579  0.4912246358835359 -0.0075656177597986
  0.0104999964228589  0.7192704032833577  0.5830936844239614
  0.4822171824685351  0.6568756601663823 -0.0069472074345612
  0.9172283523022796  0.6444403074749349  0.5884145980871572
  0.4061037788514645  0.5706173532120397  0.1594373121053178
  0.8288535246682885  0.5637384656439638  0.5930079093627686
  0.2463563016344093  0.5685848006434646  0.6663611376908981
  0.9117341716812063  0.6564533874233347  0.7516461819127599
  0.1636909762895115  0.4887491018144347  0.6658054475955814
  0.9224921560884848  0.0870943191045029  0.6580347858791724
  0.8315309779956968  0.2522959129283858  0.4073711237297638
  0.1610655200281491  0.7420767128857756  0.9140956391303574
  0.2457976871794750  0.4891552186929586  0.2427534287864537
  0.2437051929799262  0.5710767656128822  0.3267229969115504
  0.6542614760097750  0.9130064488100792  0.0853776876489239
  0.2443884234482871  0.0847478329397420  0.4916082702524682
  0.8285621413337003  0.9229403491164047  0.0669418635126804
  0.0015112809429901  0.8301142468741580 -0.0024075704666047
  0.7392374316332406  0.5753854479995910  0.8332406114842053
  0.1612157137980212  0.3284160947377059 -0.0072251800841865
  0.7429048155028366  0.4911690293137951  0.2454902855918745