 B Cr Ni 
 1.0000000000000000
    21.1200000000000010    0.0000000000000000    0.0000000000000000
     0.0000000000000000   21.1200000000000010    0.0000000000000000
     0.0000000000000000    0.0000000000000000   21.1200000000000010
 B   Cr  Ni 
  69 259 605
Direct
  0.4803092225326761  0.3111629481261073  0.7644923168465557
  0.7040290945983766  0.1656990826389958  0.3194631779808658
  0.7601721967440613  0.6311093239583105  0.4769405356667783
  0.6549147085964040  0.7431888228592585  0.3377867201603662
  0.8345753576989661  0.6050568480368848  0.5130068050367040
  0.0816896898843833  0.0072002885124157  0.3721578480940043
  0.6063884724022787  0.1603245669436789  0.3217144226847706
  0.5162630753996622  0.4168407377580676  0.6610556914411312
  0.6702182472791371  0.4277126576438802  0.6507258322173843
  0.1771074314607891  0.6716576663672982  0.4574843914447149
  0.4905786632328272  0.4139025538751704  0.3478284523050310
  0.6817237502842808  0.3397962432880954  0.0979305828076442
  0.5683848976823873  0.2620000047650469  0.4249412592187932
  0.6586762405949790  0.6724073383019313  0.5716286173658500
  0.3653269040156902  0.9079537613067463  0.6605192147809771
  0.6678491676768394  0.6950595834038181  0.4042602976503347
  0.7004369853511067  0.1791292967732982  0.5460252688035060
  0.2481765637099103  0.8283834825022038  0.3452781666902214
  0.0747893704466295  0.0087867640513515  0.4542889137531797
  0.4274748137914972  0.9969306962503349  0.5050994919782070
  0.7091266672002888  0.3211957243039644  0.5109646670682332
  0.4637993175872890  0.1600757200207015  0.4859041391394233
  0.5900049570295882  0.0732445191075341  0.4322336490734452
  0.4221330808199641  0.5873943291969225  0.5655899451180793
  0.6730256392782784  0.4122815300680649  0.3612542407727132
  0.4764104355266745  0.6401663782227365  0.6025526239865330
  0.1741928888846337  0.6745129090922558  0.5422613588494194
  0.5823164027956106  0.8633510063369197  0.3872939619803380
  0.4720122733778799  0.0825453376223835  0.3590656798922682
  0.8463590667712286  0.1819990210195540  0.5519383160977187
  0.7658441308692592  0.7616965189941816  0.5430641534242575
  0.4074725322416356  0.0769701978261516  0.7051205826482234
  0.4869532571853217  0.4094986920283589  0.4889886316179138
  0.8459725972185234  0.1780979213539534  0.4694897224832018
  0.6229617249547162  0.9521118394356024  0.4991817956804941
  0.6544662328167721  0.3997476809783162  0.1472289323111651
  0.7341088791222043  0.2601671021830568  0.2416541777497994
  0.5131919426606207  0.2539871652082327  0.8119709400216798
  0.4986267953182422  0.8367324503814303  0.2559699489464705
  0.5860499805583197  0.0923669549266651  0.7281110693243437
  0.4404200549864264  0.4156123065019379  0.4186208099466401
  0.4933108557259280  0.9143380610750498  0.6559029310654070
  0.3957730100663294  0.6471005471212528  0.3498842496582805
  0.5099716016591662  0.5933629825469424  0.6636912445291460
  0.0016334349879553  0.5060527253789761  0.4271295480431541
  0.7378888573464951  0.0806485862550174  0.4298590255758630
  0.4376778201141876  0.8143083573275161  0.3150507241822626
  0.8385713156063128  0.9187544947404835  0.6324527758369685
  0.5087913351829146  0.6641067171816982  0.4201769786894545
  0.8419777448776582  0.3246192386787007  0.5516670529930477
  0.4255674828057784  0.9432920283797690  0.6972750275294533
  0.0801476046996793  0.5863690383899112  0.5791715137899862
  0.3968543749927093  0.5690381779058937  0.3159184996889437
  0.9906990959817309  0.8362822940912508  0.5784172063279347
  0.4896149338341332  0.0244212022558609  0.5605348474429487
  0.5751873000080195  0.2668985491738187  0.5738526647814606
  0.0012918528688281  0.8472105544046253  0.4293119956416603
  0.0067676736143794  0.5092040162875131  0.5808384542341078
  0.7349015608068435  0.0354302756762140  0.5038300382396219
  0.5901380051734494  0.4334886765024482  0.0989355491603915
  0.9157102959197893  0.9756130758539078  0.5032375389446698
  0.7473561466112713  0.3939652930296677  0.4032645111174669
  0.6849823035083831  0.6148938221923731  0.5157198640142574
  0.9313887369374751  0.9998633145989055  0.3598498802689913
  0.5748614135272433  0.5091808200245490  0.3461929481111197
  0.5650778702679944  0.1313397382652145  0.4952892423176148
  0.9250771534709042  0.4237213448782722  0.5774322979366194
  0.8332060062174264  0.9143136459355850  0.3503576151687630
  0.3369189746643319  0.6843346560132737  0.4012126392393139
  0.1650342603017269  0.6703259736780440  0.9982626620109002
  0.6663648664431165  0.7543734306611255  0.9233278182904232
  0.8352510658361191  0.9207814832257400  0.9237318001648260
  0.4984302926619428  0.7558236659825237  0.9197479256049775
  0.8364635119236463  0.5881164824830526  0.7602642737362773
  0.5987148501931294  0.7537001003437460  0.5388008190250824
  0.6002688693370641  0.6606149254578441  0.4799904150954209
  0.8437693577065712  0.3388700386599289  0.1578501599303630
  0.7518482069302433  0.7478509784116945  0.3043994198438356
  0.6666153397755200  0.6689657768786552  0.1637822308868090
  0.7530025347149059  0.9240918920507141  0.1585708884812348
  0.8344994638970153  0.9210739668582063  0.0805753640055087
  0.8445960013322208  0.7490472450454490  0.6000588787974123
  0.5869518131209573  0.6725220458755981  0.7579692492170677
  0.7534385227121477  0.5905340102516268  0.8434016286454624
  0.6675954260280245  0.5061784380182216  0.8443279775350538
  0.7527507934668208  0.5066739741742152  0.9202236231187094
  0.7621188038171056  0.6618215396588597  0.5811219439641414
  0.5914182320862115  0.5572519930797210  0.5135530845429088
  0.7534586830103754  0.5018247426702429  0.2352712621582901
  0.7556041592041958  0.6608370012828777  0.2350241080544790
  0.2462656224221616  0.8361851233016644  0.0768820703909768
  0.2470091338864416  0.1686976018749240  0.9184593723170225
  0.1618121234755823  0.7524793314738103  0.2359164007922479
  0.9224555314770426  0.0854602990042706  0.6819439806382460
  0.0825442944633205  0.0874077154552388  0.6739784988756331
  0.2450531793610342  0.9988759027706057  0.4134299844217369
  0.7517536084425538  0.9202483941975772  0.0019910258122778
  0.3304473751558484  0.8387609468105031  0.9990877601493334
  0.7522283337181983  0.5880345755105489  0.0011695189508651
  0.2442707780140438  0.3333076366121659  0.4135474327734469
  0.7788548898199984  0.1212568388889533  0.5157758589152074
  0.7540247598900441  0.5070549824484704  0.0769625735438829
  0.9220567502901658  0.5062228325064045  0.9198321682273333
  0.9226264743217544  0.4210032250066643  0.6818566852872462
  0.8509438701038570  0.4931642172731838  0.5028387235268897
  0.9219421441264024  0.4178368685518700  0.1603122752912646
  0.9216087338345323  0.5876290160756835  0.9991872000542180
  0.9996744011779490  0.6699356489993995  0.3228329948436706
  0.6782678106441632  0.9003925877576887  0.5925797017737422
  0.6635883432899059  0.8391627491633765  0.3188196348991426
  0.8328015005664795  0.9245888926763397  0.2436899691902014
  0.4957857133810241  0.5891644240488035  0.9180238625417088
  0.7555822072058601  0.4225295253850225  0.8485754154134835
  0.7708523280461210  0.4213549568324916  0.5072209824132684
  0.6543945769660235  0.2326270532851309  0.4832762610121478
  0.6170150009898083  0.7811763705486500  0.4265256172773121
  0.5663177731184537  0.9693114824527476  0.4128744667843101
  0.7425456430431172  0.9195298222766173  0.3179416525993809
  0.6603857312284640  0.0928252079018017  0.2520792800165462
  0.6656065232410791  0.0893142059101506  0.0810138913985911
  0.5871434524339073  0.8319116010775640  0.7572884638943680
  0.4145691493208690  0.8457331739880960  0.7442430144773579
  0.7548037037424019  0.2540083564146777  0.8428828693950406
  0.7620347766208081  0.1795244365307576  0.6186241578900187
  0.6758576403942810  0.2656264093857552  0.5924970705937517
  0.6689578150667020  0.4192994339394714  0.2458998719849255
  0.7748504754560286  0.2426828856568520  0.5147666432566473
  0.6612410829244313  0.3126075426268486  0.1880042510888578
  0.9184320054899631  0.0883063072308098  0.9996862769509670
  0.6718072628287745  0.1697120514477801  0.8419587793369389
  0.7574724838908784  0.4263383398333828  0.3120681709102275
  0.1684823225223492  0.3380894645839579  0.8370266407764076
  0.0808914180217612  0.7527370840043519  0.1584360109746493
  0.9192634671918858  0.3300360539310551  0.4056465917687758
  0.1681566369909025  0.1679367046821529  0.8374164296249568
  0.0700670277489717  0.9161871579982952  0.5057602126731944
  0.4029179582183504  0.8940180806809156  0.5035437289873793
  0.4983620379073840  0.2507686841651547  0.9206269468113868
  0.5899707708178665  0.7449484217002701  0.6776513472585612
  0.5810603774970724  0.0079846950063848  0.2412256837795981
  0.5701262799133877  0.7843878240103579  0.3110096599302653
  0.4167938686478461  0.5882847146202667  0.8411371541332708
  0.0797892740132974  0.3359122160873946  0.4168911908898106
  0.4128260073604162  0.4190098816506741  0.8364913022403099
  0.0843140631245156  0.0881367614098511  0.1602013283966135
  0.1713718362963963  0.7560437560467782  0.4009693187483833
  0.9225638520293006  0.6656282572248607  0.2422429145715200
  0.0185431781233208  0.0816729301136434  0.4113890899498850
  0.3241888882155990  0.1687113223923902  0.1578659165594772
  0.5002746394840027  0.3356915498475962  0.9976993734909577
  0.3976224809074336  0.9215869664537149  0.3188828362933009
  0.3253505408729678  0.9134299050459548  0.4110409743503706
  0.4120341437788287  0.5823204822371635  0.1588179588304313
  0.4106753785789498  0.7511732225081870  0.1566058857004139
  0.4894200150552016  0.4125473846230532  0.7600482591030665
  0.4122050216016874  0.4212920841269104  0.6723040781397656
  0.2473453769864520  0.5876378612037302  0.6745863212722844
  0.4087578064128510  0.5002320577265965  0.2366898552356010
  0.4136445648282729  0.6736217609307869  0.9173590276524232
  0.2489627097502018  0.3369275980615813  0.7541690654699708
  0.2460412699714605  0.3337777769730879  0.5854524130762465
  0.3192075993250219  0.3370978666833581  0.6710299403649975
  0.3898042246249487  0.4155990867141894  0.5048003267225266
  0.0030926418691732  0.2531835420817866  0.0794851049028166
  0.4967134286722115  0.9212307071439843  0.0780915703166306
  0.0017149493604610  0.5837603786584876  0.2452133057603816
  0.2368491778050127  0.5784573170853203  0.3175584387642021
  0.0855470321477585  0.6712257336977741  0.9189485698145941
  0.2474068485270749  0.1694491678165109  0.0771253484088393
  0.3207103799503426  0.5043130739480175  0.5017923435988060
  0.0023838275539189  0.2524613650343987  0.2447933966686551
  0.0015894963130082  0.5852712583677182  0.0785866563790254
  0.8441055111534516  0.3358077076701860  0.9932445509282840
  0.0814982548475111  0.9213199889285888  0.6764045630901596
  0.0866403442060324  0.5054460794301618  0.9178424716852410
  0.3175953735054972  0.2495911431961454  0.5839404419699848
  0.9975922010133859  0.0073961795081318  0.6766317859028097
  0.8396433563124585  0.8156432235442793  0.4983965270118827
  0.2348809586054468  0.1660883798792191  0.4125698805779162
  0.1653925160011004  0.2531558235577789  0.5868134209516616
  0.1079810031677559  0.7352873232705633  0.4909510829275209
  0.3314815985824875  0.6700226036258075  0.9977287741259546
  0.0024487989630000  0.7522838916384142  0.0793055297414425
  0.2448541546021479  0.5829139347272968  0.1578133075560204
  0.9986422249359918  0.2534077960562778  0.4173641071429108
  0.9192526627699025  0.0902179436991994  0.1615789528939191
  0.9222324810603980  0.8353579418371347  0.2415903934852323
  0.1682410931429242  0.5058836739989377  0.8369852882615694
  0.8358922190266409  0.7520157009850446  0.0818961401315681
  0.9090001958347586  0.8374716283241828  0.3998116418900864
  0.0018781720481975  0.8368177552973758  0.3268336759680864
  0.0867552051619056  0.3377891441662662  0.9179683253499314
  0.3236488657431587  0.9212810245093543  0.2378429855233623
  0.0832692699149581  0.8361730781784548  0.9192327931493595
  0.1657590670682874  0.2546714519192416  0.2447391052370409
  0.9169232322108211  0.9201055627015663  0.0010214101358242
  0.1662727467234410  0.4972879088979876  0.3247269123465766
  0.2466665744085050  0.3353335215627139  0.0775647020043274
  0.3317131882951342  0.5032854697548861  0.9997227921935606
  0.9214409792544460  0.8371450403787954  0.7644920695236120
  0.4795228788658919  0.3289829187506575  0.6657815816267824
  0.4547587419129499  0.5095112704799118  0.4904570872804009
  0.4143562722871031  0.5018865840080934  0.0816817027679948
  0.5784531474356476  0.3225449750895423  0.7580641155957411
  0.4669176955063667  0.2398650741438667  0.4089042377502533
  0.5801714372095621  0.5894268798770778  0.1668596810894548
  0.4981797960700932  0.4243462341155294  0.9214567277576932
  0.5831188750265996  0.3328546135254659  0.0883263386084095
  0.3305033317038689  0.3373853511616417  0.9975955753370929
  0.5876628871403679  0.5101761002478217  0.7702104006850119
  0.4013930412702900  0.8314350523219413  0.4109729462970045
  0.1634409247458881  0.9190980657216735  0.2375602927533421
  0.3295495963495639  0.7531073761045642  0.7563995018593493
  0.5804933792960485  0.6708983987806759  0.0854937205329335
  0.1529824095991978  0.8371435109852139  0.5106012935327212
  0.5765772483410956  0.2482111446679547  0.1657603663435855
  0.3304916348145389  0.9202335755638505  0.0752692496310542
  0.0820115634229516  0.9202915905886119  0.1580079756149138
  0.3336726593694487  0.9235672773708110  0.7540107099442453
  0.1441067496640691  0.9430005063227814  0.4222425830214528
  0.2451669629179692  0.0880099350738470  0.1565259832369144
  0.4136677820675234  0.0863483794447316  0.8433493681095195
  0.2481626895726548  0.0024609753595075  0.9165430793669517
  0.4164700629390174  0.0037499614699325  0.9162933782305904
  0.3358189452132092  0.0045742273281183  0.6683490996801976
  0.3914481563886177  0.0236270068124594  0.4069954917189412
  0.5745538107817130  0.7550460820865674  0.1656659107009572
  0.4153893250571100  0.0847652802653329  0.9946634957011549
  0.4087654530458519  0.0847311192869049  0.1579913460796050
  0.5931838983916099  0.2543515173700457  0.6720485086814336
  0.4993989967136754  0.8384771974789191  0.0001513929080528
  0.5761077337757449  0.6810475297636035  0.2440601099972892
  0.3258564430568445  0.9970175825061341  0.5021081084847399
  0.4090760571749679  0.2497381472037218  0.5028997549457002
  0.8368466966359632  0.2521153185244978  0.9203749440426547
  0.3126695565909074  0.0880164487615115  0.4125402743145747
  0.5800129045832306  0.1699742967234751  0.0819686997315170
  0.4141597807562790  0.2559096389836559  0.8332724251340619
  0.5848608904445611  0.0035355617274059  0.9182813882603068
  0.7726497042585557  0.9955068679066720  0.5956537374440839
  0.5836669697202510  0.0083327055697528  0.0784372380848995
  0.5647836193295223  0.9505259251174776  0.5934979825332510
  0.5149382159759476  0.9469185409248286  0.5024879593626541
  0.4922911618697970  0.0595794799495881  0.4493220337270787
  0.5028098258618953  0.9225628017965172  0.7563210630428799
  0.4061377761686317  0.1518865639274168  0.4070145246430326
  0.0880547915015947  0.3364171392895731  0.7583895096263834
  0.1639397083338489  0.9214087855058699  0.7549606228518126
  0.2455328932325928  0.0846135747944027  0.6713061826820365
  0.7042009347753667  0.0934492832402274  0.5973413880720974
  0.4076666514798645  0.7530514414366160  0.6806437655684077
  0.4994165231001014  0.0150335228612061  0.6724909348967935
  0.1595351467996397  0.0020888123674696  0.5097351510656432
  0.7530296561918883  0.5829816702814603  0.1571471322774571
  0.0017791179649495  0.8362808583047936  0.8402030955732298
  0.2438796347271149  0.3340657945950861  0.2434155580635444
  0.3215423904903117  0.4137970097863103  0.4119452053530581
  0.8110587836072007  0.3324669064014396  0.4587914380814073
  0.5154562292386826  0.7418089497425661  0.4889445928727370
  0.6633517119645639  0.7549807737264823  0.2352041130913466
  0.0021359906557756  0.5880852747472124  0.7565718597584760
  0.4120061745617455  0.4173751848763274  0.1610632152128693
  0.2261811465127660  0.7528081687489708  0.4978164125862661
  0.4120898408023725  0.5887810445430927  0.6697209004395356
  0.2480468051672842  0.7555004683316486  0.8363261179584646
  0.0058922227701324  0.3386795646750789  0.8386573650044715
  0.8385569324414569  0.0899502423117149  0.6050587125570577
  0.9209266323461223  0.1701682910416916  0.2426995783155712
  0.0828765062386149  0.4177264778772175  0.1610322265057750
  0.7521177147218759  0.1682681848081520  0.0809675761168758
  0.6678884350327368  0.0039331111201577  0.8428176894569052
  0.9081780415733423  0.0060960413659275  0.5973097667485923
  0.9064783090047754  0.1098791568614914  0.5181987295037703
  0.6713770621480485  0.9014333317194423  0.4119623163864889
  0.1668338975913100  0.1688114343581610  0.9984410443672112
  0.7543573786992873  0.9177915709986930  0.8456957355007262
  0.7557660479202930  0.6688890903111129  0.7607437817453074
  0.5900706010892852  0.9187826391119832  0.6885365648062056
  0.7546451809607003  0.8340296213986510  0.7659279951978175
  0.7249249485837066  0.7844998908236742  0.3993440718364682
  0.1656211372300239  0.7535203263968443  0.7565126720376641
  0.9250401398878130  0.7604397258666484  0.4961261653069885
  0.8364025453997298  0.6670707872220076  0.6762638112746269
  0.7370101168482106  0.9341642463833544  0.5033789823514169
  0.0023380565782262  0.9203528328479734  0.2380689205081579
  0.9229515996040245  0.5043497998457228  0.2455909747873099
  0.0843125416244543  0.4243211545728616  0.5003469499652997
  0.5856378962110848  0.3394114115752681  0.9286578072746244
  0.8950276849918279  0.3834480898749872  0.4925541940400113
  0.8422466835800352  0.3403559149779122  0.6865939412070572
  0.9231774324894259  0.3391698584096603  0.7601115210231340
  0.9240070086367012  0.3373497876216577  0.9186859746670205
  0.9185448503410034  0.9186725084951635  0.8424696256501072
  0.8275965068215136  0.7012923165749215  0.4888702634522565
  0.8374887391501341  0.0878876371471965  0.9203770958568741
  0.0053486360146404  0.9451092681891039  0.4119383901687043
  0.7692107879938214  0.9866180644756866  0.4036272578015930
  0.9207283689593200  0.0032556475743700  0.7628061909230981
  0.4001791100371531  0.2461599818967422  0.3247950533157869
  0.3964462355015790  0.1756044615776957  0.5732385149599442
  0.1657534569503277  0.3362022488756153  0.9979844177333160
  0.0836939691342464  0.0021433902652119  0.9199838184052380
  0.2373908232754049  0.8362589246526149  0.5881983767901818
  0.6770968129668239  0.5917254482707219  0.4175036173050151
  0.6655713857444326  0.7517678277957277  0.0865658178961006
  0.9179546668236250  0.4189385757106998  0.3251597525127778
  0.0019687698709911  0.3393043870897817  0.5031889942375926
  0.2483600623290268  0.5874670792378659  0.8381451059006597
  0.2452479526202350  0.5995283264118514  0.4962314326929766
  0.3850449892809661  0.4982518132828070  0.4106110976047456
  0.4082106783075742  0.2513708491371743  0.1591251584625922
  0.2451235747436098  0.7529258786788503  0.1597141288150670
  0.2492964477824357  0.5052877604219885  0.9176504899863412
  0.9088019609015687  0.2539806608815200  0.5054974639890895
  0.1538778982083140  0.0732313878126566  0.4161089012505270
  0.0049971588662851  0.1700362057009657  0.8395492111790415
  0.2450533984772113  0.8363080149899870  0.2364782287904533
  0.1652555823347368  0.8373355106921962  0.9969078786172340
  0.1669773427973991  0.5065966954220478  0.4991417110626008
  0.0867582228160677  0.1698408124140701  0.7565983088953563
  0.0003411353876319  0.9211833659037945  0.0802915804008099
  0.0091940559048470  0.1696839886717884  0.6793017895088790
  0.0861744033106440  0.4201922612400312  0.9978633669969790
  0.2489436493640690  0.3369495272769963  0.9183008822562931
  0.1622793717534440  0.5831278270467625  0.2391883421495056
  0.0852304569438736  0.4176634685731986  0.3292122071990736
  0.8984081193159388  0.6659214093357069  0.5720684030603516
  0.8377293912169097  0.0087489865999193  0.3227382412191361
  0.3950895994754878  0.0848418084427666  0.3139293564377341
  0.2457064578194615  0.9197727588648664  0.1562267075616742
  0.2380482736073306  0.9235820271297315  0.5062188029648961
  0.4056719019005186  0.1673247352473614  0.7616823488062782
  0.4858090922865850  0.2479200220394043  0.2402521030582172
  0.1695850746537733  0.5062707367181579  0.6757395363114789
  0.1688250257351527  0.4212489245074873  0.7571210831493944
  0.3280279710644262  0.1614605661101632  0.6695619793662543
  0.5498826854434616  0.1501788246794828  0.6672079488953232
  0.2407050499768275  0.1693799040223231  0.5851306010736236
  0.3966227933319883  0.2521111177261792  0.6672194565655832
  0.4926105617783732  0.2334311989831485  0.6063999932616727
  0.2492906980411232  0.6706321063798251  0.9181776731466860
  0.2456725586375739  0.6691872631542873  0.3996182988715719
  0.3256694567652651  0.2496928243570707  0.7552566318429608
  0.2475667576089706  0.0033016362474040  0.0772133862620209
  0.3317544186649209  0.2531882661172041  0.9170475290536858
  0.3318364981165522  0.5879050603883968  0.7556265456326523
  0.1626637980292338  0.8370478054856072  0.1568685652023200
  0.3294440882419749  0.2528509315237619  0.0772391308494431
  0.2416903516523191  0.6649063183745445  0.2321193470518409
  0.1650455521959178  0.7527933986750878  0.0782005421672241
  0.1596075692670423  0.9210154448356852  0.5913859137959085
  0.3313104315670382  0.0027924970051269  0.9960458221995500
  0.0820978356311717  0.8371583219094549  0.7563512732032078
  0.4991053627213656  0.7566598370705400  0.7609286146177563
  0.1657609759899825  0.6706829891156119  0.6741558996443295
  0.6669403115607554  0.5921776001288187  0.9203013603253086
  0.0838689136234730  0.7532609833053736  0.9987421059890194
  0.4133481022526619  0.0045400258981545  0.0764517282904549
  0.0845091069706993  0.7533539800401795  0.8378389224359185
  0.4138186407553331  0.1708599434858411  0.9175274170995393
  0.2486757210228612  0.8373202629807844  0.9170349463769987
  0.2435362898459794  0.9193687732124916  0.3253741263992805
  0.1668920485327394  0.6706080897497370  0.8368310915390953
  0.4165497103083260  0.0066627468056957  0.7627631837608451
  0.4075811740220221  0.8394019510650442  0.6118687816284565
  0.3285170784509995  0.0838982091798357  0.7557529289256408
  0.1657516296518527  0.4194552746006252  0.0790193898726709
  0.4451682812107363  0.1473301878700270  0.6642905422109469
  0.3303548624493632  0.0858331152277872  0.9180097180777055
  0.1667800594604064  0.5888786251615002  0.7556053221190515
  0.3300594586867978  0.4182956701748596  0.0790544074279516
  0.3302926403890586  0.0855726303799280  0.0757479626294988
  0.4142057951677359  0.2534375687380253  0.9984059307911807
  0.3238341903785533  0.3316253206826499  0.3271415615114826
  0.4038813228835342  0.1678777617234782  0.2376587130613595
  0.6716367076845040  0.7498466259218245  0.7598520248372426
  0.2492736751224921  0.5067825632558026  0.7571240493339191
  0.5844148070955338  0.7544788169680601  0.8397719425298532
  0.4050880638998975  0.3322562941594875  0.2411899676540246
  0.4991798551053595  0.6738706228475753  0.8376625002676827
  0.6528879462932979  0.2240165064688378  0.3751992390781435
  0.4312090339079618  0.9516366262092718  0.5970361805500967
  0.4005541962696019  0.3303578781952285  0.4140171210126106
  0.3215408461475990  0.3275683149451837  0.4978550214947160
  0.2477534658581727  0.5032194444430241  0.4129064686697851
  0.3291010120586920  0.6667571711169440  0.1592277803155911
  0.2444121148817806  0.4979186461339903  0.2378185044873635
  0.5819816350012607  0.9292917052948860  0.1548342844840749
  0.2477845809538346  0.0854538649286627  0.9971308055462751
  0.4998196997171095  0.0036088684817360  0.9984675795858829
  0.4141361041432973  0.5039579575110792  0.9185779678955283
  0.3235381300553561  0.5872560059568750  0.5894655157411119
  0.1723690951778619  0.5897621033803705  0.5901574233064619
  0.3304848808535997  0.1691952828477207  0.9969171761591435
  0.4816468343795357  0.1645828166618075  0.3195623231604721
  0.3251854470286504  0.2456332438434807  0.4127247581651030
  0.3190370900007146  0.1675608252203937  0.3263499628816924
  0.3143433874410902  0.0873418445646000  0.5806142545860198
  0.3165034589657347  0.1687092410243190  0.4944479227636367
  0.3969251027746712  0.0888406579764263  0.5024653136410073
  0.3179594012957384  0.0029348040554675  0.3232616884369613
  0.1137587106813675  0.6189632523014953  0.4970901672279386
  0.4874367464293963  0.4174224531621347  0.2509685275046499
  0.4119840435007723  0.7798772971739079  0.5163814859761676
  0.0862634228745441  0.2540637433834775  0.6733213095296126
  0.0876170067439645  0.3350910121113374  0.5865511792429701
  0.3316729678333660  0.9199515190587766  0.9171244673604418
  0.4138272208978632  0.7552643553729024  0.9994808922264666
  0.4949487251187892  0.9271514210273978  0.2377211011927450
  0.1691699840236126  0.4162474665202281  0.5851525834323981
  0.3205208936218076  0.9138730025227586  0.5816086308040667
  0.4131897572402025  0.8374648479328597  0.0787717950162158
  0.3199564648932593  0.4212829466149810  0.5910140934222045
  0.4107484944596143  0.9229695990451089  0.1565048786709598
  0.3292917716231983  0.7523121937174101  0.0780568038829494
  0.3901174070822538  0.7393139010042845  0.3348122860556016
  0.4960834123342890  0.7537939014447927  0.0807471566490609
  0.2461020518990751  0.4183603443745029  0.4994839939971094
  0.4054342637748196  0.0016869227816888  0.2389507806144513
  0.3104040701492353  0.8327847419513872  0.4992234117058855
  0.3002990962173705  0.7728505074067167  0.4065731950828524
  0.5810283124065974  0.4250930289799786  0.0025231519992292
  0.1644017428955698  0.6682721766406688  0.3184510369070044
  0.8462851167557991  0.9201324232563414  0.5383517713420701
  0.1653713531360791  0.0878465322184096  0.2392572822086427
  0.0837870287694709  0.5022474658101601  0.0801422515971326
  0.4929472963482778  0.2293171609500752  0.7251920532879567
  0.8355319472332489  0.7526050099928939  0.9225549437614601
  0.3317021264741158  0.4212385398563280  0.9183866065614534
  0.0907919401630188  0.4182615574335259  0.6767005738000792
  0.4142145103494229  0.3370014977974248  0.9188296943421594
  0.3275550390157518  0.3341457193734759  0.1593340933864463
  0.3298380746827753  0.5857431577429657  0.0788941118519791
  0.0032548729715984  0.5012432360225606  0.3296954944762113
  0.2441848278359590  0.7466876523372296  0.3098564700926523
  0.5954739006918502  0.5824907677662992  0.6844437990939207
  0.2474199508484167  0.9206866359035145  0.9961823788445276
  0.5780420141060545  0.5179030863791382  0.0770458509844618
  0.1616148409140400  0.1685481593450431  0.5003700507179824
  0.3324958939297551  0.8337097479544786  0.3144810228479434
  0.4201925177755511  0.6955608733283661  0.4397694318361728
  0.1613237593668293  0.6683483494715777  0.1572062791709791
  0.1661008290861184  0.0024372418008011  0.8367689465287897
  0.2490847886905748  0.5869254431993072  0.9983659802459400
  0.1643476924446479  0.8376761694023150  0.8369065616010656
  0.3313031620735539  0.7548789222102932  0.9171542686555753
  0.1652486522647720  0.9202304211435239  0.9173519567236709
  0.4157786921725943  0.9204752743420288  0.9969027349810541
  0.2483761296657305  0.9202196631501717  0.8362091339264816
  0.4999004979138116  0.8388449396480101  0.8366117919559419
  0.2483975447195990  0.7539418090922222  0.9972010423563964
  0.4009199631928390  0.4162621100681986  0.3277312426423484
  0.3231826367769328  0.2512348387106059  0.2417641447670210
  0.3303669261135595  0.7511416010796900  0.2346597740213415
  0.1664542665107215  0.4184139412156443  0.4150563084745093
  0.2466189956119751  0.9214646370586095  0.6725628691100336
  0.1631742798516612  0.5001020264013106  0.1603195262806684
  0.2487584047372337  0.6704187641898738  0.7558677414147946
  0.1651316454095019  0.0028977329600075  0.9977246542595246
  0.3233266986061802  0.7619662219590981  0.5899379523368226
  0.5008474426437506  0.8517987861735541  0.5605883006863541
  0.3299112146555069  0.6704005396722877  0.6735807948598268
  0.7537153645393276  0.7520149055548970  0.1626273364319731
  0.3311185751627593  0.6708631104262045  0.8372866193278384
  0.8408772727360926  0.1661617571096421  0.3232449344076473
  0.3179039262570471  0.8328689445223045  0.6759991413708947
  0.0015719734933601  0.0878140380668873  0.0804730791241189
  0.4140218970614667  0.7576944669283985  0.8348712453428305
  0.0836072754340328  0.1701413011050219  0.0794213540010822
  0.3275298308460792  0.8374936155176457  0.1555587237222130
  0.9205232730325997  0.2534962792594720  0.1623698453734909
  0.4123356899989480  0.6700371195086723  0.0791425484185983
  0.0844082119408154  0.5866794267613303  0.9985222358786099
  0.2438451321739769  0.4212500212408577  0.6729749787590387
  0.0825635222835977  0.9201267626664854  0.9991012994436871
  0.3288998582715812  0.3365792871539392  0.8378603682405499
  0.5750902574222778  0.3245748283845831  0.2568657557824565
  0.4979141078356797  0.1695972036364314  0.9991119002883840
  0.5044201108265775  0.8261166152782761  0.6755514915874533
  0.5026212026345495  0.0046595109895308  0.8379762652825752
  0.2459676552214160  0.4159399521370522  0.1592972146571799
  0.6800507610215316  0.9967937740963791  0.6767287609742735
  0.5645776992690149  0.0737016398285741  0.3358442997911409
  0.6661640325000400  0.0014942536992270  0.5637001088072602
  0.5773253974410265  0.0426461681182716  0.5230099893102192
  0.5853975134277258  0.9190316761596999  0.8384275183167276
  0.1631277827482456  0.3354969461472765  0.3298457741361498