 B Cr Ni 
 1.0000000000000000
    21.1200000000000010    0.0000000000000000    0.0000000000000000
     0.0000000000000000   21.1200000000000010    0.0000000000000000
     0.0000000000000000    0.0000000000000000   21.1200000000000010
 B   Cr  Ni 
  69 259 605
Direct
  0.2351097953726661  0.4246409420425944  0.8956290225225619
  0.3298803782604179  0.7293882790278353  0.6603281673279041
  0.3869552486156522  0.5872751682960032  0.7550148765968450
  0.4874064160558269  0.1667644398956767  0.6011404660839276
  0.2417186145205735  0.2522561745292982  0.0701142900996486
  0.9667784184993171  0.5216252717872450  0.7907160713478160
  0.3476946341039321  0.4882172363592114  0.5710499114186550
  0.4990188089563739  0.1715870724389036  0.9194329898709996
  0.4977330393006047  0.5647623331281116  0.6671578299053430
  0.1000880687114426  0.4317039231220370  0.7666501671434405
  0.0932203655137788  0.5589171596628585  0.7205399002348244
  0.2255911659720266  0.0535776170948969  0.5768864428123377
  0.2074996338344947  0.5115784789134341  0.3132241887750924
  0.6232879586134265  0.4260773804367516  0.6629596958228399
  0.0868878101634775  0.3388496837319462  0.6647130087165618
  0.3792960302397312  0.9986699131449004  0.8444715073378638
  0.2560367809693151  0.2983336441806444  0.0007987083200202
  0.5094156706885077  0.2767933338938586  0.6967501164946259
  0.0721739662271239  0.6861518326699543  0.5688786323818226
  0.4819842496268935  0.0929515288698773  0.6669577578563330
  0.0758923596409423  0.2484148965628703  0.0577833191780210
  0.4092038578641015  0.5091653856803398  0.5154011852409632
  0.1490542967415033  0.3017607316630052  0.7131736927633683
  0.2162994631857185  0.5030471206792954  0.4986246597322619
  0.0641925823643866  0.4973682532510848  0.5027604068672720
  0.0418619304979853  0.1663019235526529  0.7475565287697158
  0.3495398099987131  0.9890679357593054  0.6053598185288082
  0.0055216761941244  0.6532700788255229  0.5960525233500236
  0.4528872967803779  0.4322729377881653  0.6700730662138193
  0.2447537746546636  0.3436804022930512  0.4835994781675669
  0.3329956355958576  0.5143564430287509  0.7537538649632481
  0.1019836826304861  0.3967564619123359  0.2870527188303372
  0.8448708622032582  0.5061600450438724  0.0904708340896181
  0.1123519035760783  0.3616696238257105  0.5187269277987915
  0.4002287858289116  0.1844098071490404  0.8146107291582509
  0.0786551542961143  0.6850020666037839  0.7845810292002595
  0.9943282821321394  0.5046377139422573  0.0945029857290927
  0.5405876793328264  0.2393775954076732  0.7607069105413294
  0.5760123381263433  0.4253441104216797  0.7329905939120946
  0.9990735616628711  0.3486678851417446  0.4182345837142936
  0.3384139502189071  0.5193812019356312  0.8881158644497289
  0.0950390913183165  0.1563699347162417  0.6709293261369447
  0.0577707495017111  0.2625673547597570  0.8888039312070277
  0.0821166336416403  0.5410507766655877  0.9371671182413414
  0.9818545133559858  0.3902899493749808  0.8902019800784028
  0.0688502006197886  0.7824830515864908  0.6694933980777872
  0.1769397150029311  0.4595256554797421  0.6317149587666571
  0.1694608409237994  0.1757529779559726  0.9238802731321315
  0.4600958878907148  0.4182588713555230  0.8562184081397023
  0.2235243396300328  0.2388933629077635  0.5670351127843679
  0.1937005101314257  0.6241537048625500  0.4089984393972955
  0.3520418119894695  0.3195000708874209  0.7465273440628429
  0.3016398623393051  0.1582463235768774  0.9262293066777469
  0.0627922859264295  0.5718205373467393  0.2398771913306753
  0.3338311756798845  0.6659963400716824  0.6068951501808303
  0.0056653068891525  0.5736161609133159  0.8432055102855539
  0.3461495643774880  0.3269837902561442  0.8926624798337550
  0.1073459600256842  0.3241579185712920  0.8537826878532567
  0.3116394297493120  0.8594487884305512  0.7493513537102767
  0.9070434283953540  0.6275454433773296  0.1686300303376596
  0.0974703226357109  0.6621382346817545  0.4962961574522813
  0.2956691747978183  0.1255408476498759  0.7282485600864493
  0.0805494024740502  0.4564793656955488  0.9413519597861135
  0.1613555012502632  0.0194781852745861  0.7455821748169932
  0.8808313746931048  0.4059717201917341  0.9970427321274664
  0.0602831625099389  0.2484221093230398  0.9732221114048968
  0.9988965688371304  0.4314631298809967  0.6628156962295443
  0.2540343201557238  0.0083739804162919  0.5104730046842717
  0.9238908139153972  0.5825960613011357  0.7462143415346255
  0.5914617902871084  0.5048787250035629  0.5745808804266503
  0.3351900078379361  0.0813189306441656  0.0877833039227266
  0.1536384568789375  0.4951863129468793  0.8803438815377824
  0.3381773123677809  0.0666226049637946  0.9232563037753723
  0.5886891549215014  0.7501275543994438  0.4985341618002771
  0.4232909156353620  0.3298318589545141  0.4073663704410798
  0.8387008264570899  0.5888293403563055  0.2456376868329627
  0.4199318628596397  0.4211820682536318  0.1676371524675848
  0.3403186255997735  0.2463253911432106  0.2464218725830963
  0.3344283168047393  0.2317248140950933  0.5667375443380930
  0.3353645113248626  0.4237659780731001  0.9165495525923890
  0.5030340540225100  0.3337972263383268  0.3329536223793682
  0.1562407374924717  0.0821878159196307  0.4127185154710132
  0.7475593129822349  0.2493793254851887  0.1670737414817899
  0.6661097296792333  0.8371098998549037  0.1684237797761897
  0.7477486256617623  0.9177396682830754  0.0028344099572157
  0.4188730732414834  0.2503789637687229  0.1685472555696302
  0.3415133629820576  0.3484855997712971  0.9989607508281229
  0.3381529873780267  0.5903202375934552  0.0834189736954688
  0.7469230294265772  0.7556745574067101  0.3333666229143530
  0.9086429620209073  0.1628826750608178  0.2522803052793752
  0.2381890528888143  0.9120352734836504  0.8422620153252046
  0.2503378539363584  0.8380211271106764  0.0902870673133706
  0.9089612132098074  0.0009852816922510  0.9217779530776120
  0.3359824292020199  0.1655235890021525  0.1677124463289946
  0.8271768698253716  0.8386112266720422  0.0031216442187474
  0.4985087505165285  0.1713504460269545  0.8240406950390673
  0.4195353243612926  0.8384530418748776  0.0870114147043728
  0.9104000501016060  0.8371418480990643  0.9224146101887761
  0.8271286997492500  0.6761169408571547  0.4983755377149612
  0.4204663368512638  0.5880267061526478  0.1676129276191294
  0.6701936900828093  0.4207531543481626  0.7568839770890846
  0.4247058725040036  0.0843556037618587  0.8362772370163876
  0.3409475874307517  0.5038171154412202  0.9998411085399871
  0.5963093022166377  0.2479850020799594  0.6680831463073929
  0.6668004274996640  0.8348268941887838  0.0024849557112233
  0.4352588256450120  0.3362543087975387  0.6839910893333646
  0.5032494003110120  0.5032601087638116  0.3316078772193978
  0.4036847470878038  0.1563569652899696  0.9187680428329460
  0.8278721734264589  0.0825791178579671  0.0877944025296053
  0.4412692134718890  0.2592727408150314  0.7640534783271037
  0.3351278839542798  0.9990232111523611  0.3292390963500191
  0.8265386430728808  0.9988721764022866  0.5016331114511040
  0.9058509867417004  0.0797126071653780  0.4996938398469319
  0.6679446481368067  0.5866397968883448  0.2526783756481636
  0.1620266142582625  0.0768339309940890  0.2523875713611654
  0.1667353992278021  0.8389953631053629  0.1713384624429497
  0.6675965155782505  0.8363284200111878  0.3324844467323235
  0.9992899426773423  0.6803159706063129  0.1661626736507830
  0.5855052368893563  0.1686731723075312  0.5849530340560783
  0.9937319499007927  0.9177104385953108  0.0895238214610616
  0.9741537262963853  0.2464724400973407  0.7513832657435753
  0.8239624877115463  0.1642889828890450  0.3317937200213085
  0.8282108876086607  0.1647456705299913  0.1691757540670729
  0.2544959108562138  0.5960045340868152  0.0124369274629128
  0.1583864850759783  0.0029463284713058  0.5026552485397267
  0.1629207129431779  0.6893350919473118  0.8519445493610186
  0.1452972771762857  0.7508804758499849  0.6035202968566856
  0.9067355802145628  0.1609560114880680  0.9220980927582687
  0.1397448436770651  0.7498629412406822  0.7397996038495022
  0.2523222183942243  0.6753206313983233  0.2447822467440935
  0.7437884391411080  0.2476941917749645  0.3324111687124612
  0.5895821553384871  0.8314180894033913  0.5835681784709097
  0.5055461214927076  0.0843498474793683  0.2511264847451801
  0.4319401205713165  0.9908640515140438  0.7526980659631138
  0.3398530219034694  0.1592650011957348  0.0177290009626207
  0.5856926083682551  0.7516015986106082  0.8350240887333971
  0.7418582906144675  0.4184725205994196  0.0042410150354298
  0.5839232519291252  0.5019887227734123  0.2516753902113789
  0.5069384490180237  0.9985043100278868  0.8387934781450592
  0.3438302248152955  0.3328140837884638  0.3258732266027585
  0.5829372523496608  0.3334854480518074  0.2509809715375544
  0.6661211419420932  0.1647826651135430  0.3342232783639998
  0.7475907345633213  0.9986930578342451  0.5854644831174725
  0.5858411515974523  0.1666558612465942  0.2500637055048124
  0.0764108554687160  0.6844503509516530  0.6737396249496433
  0.3347688809773480  0.9201118495727262  0.2511642246542303
  0.2498753992274073  0.9078746249965376  0.4959789204519714
  0.9109774235685532  0.9978883263897258  0.2532409787525931
  0.5061622412893230  0.9991661421163932  0.0074100969483287
  0.7439104450824251  0.4157337325245459  0.1698135526829785
  0.5097685433033446  0.5075000048637529  0.0093023103429942
  0.4309724123683355  0.5044724328444681  0.9252981659876551
  0.5905177827299084  0.3304684522267704  0.5735045242851864
  0.7472298112179097  0.2457457567171602  0.4987601907093892
  0.3316992742934884  0.9291028397205757  0.9167452128574888
  0.1519462267590543  0.8379382471214768  0.6713271415484204
  0.1630725594273814  0.0037404769232758  0.1678627462689885
  0.8316166300338981  0.6747112376316204  0.6711961255051360
  0.1567383062593523  0.3612942167210283  0.4277816009786699
  0.9953348005923257  0.6792221175831107  0.0115974127632475
  0.4228040782558113  0.1600257826181364  0.4089405967344590
  0.2497574216746531  0.3251707416535276  0.7283263985818905
  0.1821800850607701  0.3919495876698021  0.8155361888437492
  0.5050696043351969  0.6723059915822717  0.3291379958058527
  0.9078396851530922  0.2527672832222681  0.0170019494550887
  0.5042858832417039  0.6764942401833519  0.8394145873643214
  0.7459357127306785  0.8344984664541376  0.5860047898107307
  0.6676077965841003  0.2490121187800658  0.7572026323757075
  0.3426052770530785  0.2219513828980766  0.7287777089539831
  0.5084809690633373  0.9124212100416634  0.7510295854901434
  0.5400156509024731  0.3636862588089714  0.6627417910846866
  0.5853568290525490  0.5036214134290279  0.4163887456559175
  0.7483015579388722  0.0799508726425644  0.5019312763531683
  0.5057061409053676  0.6699264787657201  0.6684177576690923
  0.7490957241661123  0.7519808722415087  0.8372914836122863
  0.5088294229283385  0.6744002276733327  0.4937956538759378
  0.5028491253722999  0.7551308659775926  0.0866214715761312
  0.5843596655875168  0.0008901299640020  0.0848158361766409
  0.5877066758761305  0.7539218983034228  0.3303755540713974
  0.5854786866416781  0.7554227800785509  0.1676879236420303
  0.1628224136499508  0.7594164847437103  0.9297464815359842
  0.5871271713561722  0.5877535888651959  0.4976159901650881
  0.4212844806364939  0.5041122725037052  0.4111390739710715
  0.4199928257342562  0.7566605286239497  0.1661834553902815
  0.5830549136582415  0.2481261888097724  0.4992952032505908
  0.5056653618454764  0.0825512303974355  0.4140877614736063
  0.4320661950372745  0.8281788550840377  0.5801950978107815
  0.2006882162686114  0.1240291606897842  0.6712295568235568
  0.5848583395814786  0.1666340128799470  0.0871259914614285
  0.5078842348014726  0.9162345986762205  0.4127475655048313
  0.8302544783758732  0.0812373508245013  0.9213125138000244
  0.5030020171180904  0.5907279859633531  0.0879884867198098
  0.5850838187149378  0.7540207436611062  0.0049109351841578
  0.5035817961076945  0.6750419662385034  0.0048752310432442
  0.2489435587746886  0.8390822799905250  0.2487925696163799
  0.3265014529471122  0.0673798362974772  0.5550012744373044
  0.5047962056016354  0.5076330528594457  0.8385559933417510
  0.3561100485813123  0.4166323768966852  0.7230053099968782
  0.8314781065335269  0.4147828514508058  0.4153380003193930
  0.9876935062765689  0.1606218181771771  0.1763587082759133
  0.4200858002612992  0.7588451076507496  0.0058302183997063
  0.7451754409994163  0.2473428034369702  0.6711814065817091
  0.3337208297295206  0.7583910547302468  0.7565858673567897
  0.4154366618081839  0.6134084035227643  0.6621068515938906
  0.4250877551070589  0.7568816633302081  0.4910949324131967
  0.3435016616470018  0.7650222798788667  0.5711114145663122
  0.2510528746840676  0.8389138024452714  0.4074495115698394
  0.3365112554834164  0.6765586104861834  0.4953724952975796
  0.3351537278763895  0.5090947701784810  0.3388436795634365
  0.5812120451206144  0.4213254227279470  0.8356745311843811
  0.6646088810060992  0.5861869198910246  0.0880144639176324
  0.3414482796522365  0.8303205820175986  0.6621535222162335
  0.7473267913984990  0.9173393845497040  0.8364054910495160
  0.4155714562939643  0.8398485807357747  0.7510256564412958
  0.4199362915132304  0.8376959921094926  0.9238510789967532
  0.7428315149741812  0.4183242893980137  0.8394334845048258
  0.6664445160250483  0.0780517786521106  0.7533685778995181
  0.7492354293561599  0.0827500585350178  0.1661919204897125
  0.5097382703471416  0.2634540916681440  0.5917200814359420
  0.5844941885359204  0.2500056467838958  0.1683816834698715
  0.8272831858230878  0.2506719363106743  0.0873651767282758
  0.7452697607297608  0.0822066658422544  0.3335984342632560
  0.0176872682814345  0.6150218327092615  0.7571444752726785
  0.5079127951720461  0.3371129890507926  0.0102114864553433
  0.6670804916464769  0.0822378913147271  0.9211057341752467
  0.6644621214453121  0.3330647291304056  0.3336613089514423
  0.5860314625228276  0.9997512999985554  0.5827398661943107
  0.3453076890470467  0.9844932097687319  0.4949597251682996
  0.5056973044975253  0.1643372941642061  0.3314703380497206
  0.6672118193925931  0.2507436996015115  0.9233296516917818
  0.5047927006527264  0.9193384749464221  0.2499344116824564
  0.5046924430483753  0.9192438991250999  0.0850993705930462
  0.8276713079359941  0.4995295597364969  0.3280641994733517
  0.7464662920906384  0.6717811021913824  0.0872493343667138
  0.0789933606351271  0.9188919659580986  0.3348093646052684
  0.2494069181112539  0.8462570231966035  0.9252373039533557
  0.1667982508236808  0.2445905571378771  0.2462312988021445
  0.2646042487713340  0.4006672467384442  0.6399377880377628
  0.9089395070766906  0.9177524103664179  0.5009984210858046
  0.8286596585659589  0.9963212952549807  0.6711061897775337
  0.9083457194803851  0.4960747204611913  0.2500678860328484
  0.9124634954950260  0.7607756171626845  0.3329535868815505
  0.5876695447939763  0.8340207354415384  0.9206748928757016
  0.0752773598397341  0.8399538298804080  0.9255661427868721
  0.8291130267272024  0.9171792023498360  0.4187096121182158
  0.0751872337218702  0.9991364802094383  0.5734940238560526
  0.2914859495776305  0.3800083764004079  0.8118887663904026
  0.9106267250164465  0.5841602995098104  0.8473845513120016
  0.8281029956397992  0.6723783410635222  0.8427264069469161
  0.9952013666788135  0.7594224869496999  0.0884149273866748
  0.1533929146784457  0.6285879160314176  0.5781505003836245
  0.9061784231472794  0.4213438011138677  0.8353913767989728
  0.6658930304391517  0.5895104817938248  0.9235070556662431
  0.2526656110493435  0.4569326825079790  0.7172846130547414
  0.0026124732147040  0.4111907871125203  0.2563929964504611
  0.9106810051216744  0.5940234941490319  0.3293243703257215
  0.8296474532969539  0.5870506793377699  0.9237409638883081
  0.8290172008557235  0.6704935820143223  0.0052789177901232
  0.9095361844622973  0.7559076154039726  0.6712289457288948
  0.9964341293801247  0.9958556461151400  0.3375615137082865
  0.2515571668190095  0.5016051823623853  0.0755409551713407
  0.7515944097089706  0.5003246612839888  0.4141045986342197
  0.2477931087435803  0.4118187551115557  0.9998909232546178
  0.9821011455347699  0.5007540145431362  0.3227457200335303
  0.2312299088425890  0.1005758743091303  0.8885606370152298
  0.9035080777056000  0.4847831273094297  0.5894828767450400
  0.1596518986062491  0.0000551083429219  0.0121841917186759
  0.1437721342655248  0.0819744741519238  0.9385238851892480
  0.7485733504717451  0.5035023558602065  0.5794403923068479
  0.9142587443175336  0.3389843570909132  0.0808016774574111
  0.9077785177110413  0.4977000481224138  0.9335149362766970
  0.7467409254073484  0.9183906833226361  0.1674433245377030
  0.7456109187974890  0.9172337461168151  0.3347050206326402
  0.0934666318921100  0.4172518080420640  0.1826299236031113
  0.1576853694738248  0.4967702912317692  0.0031553933899340
  0.2554730169453777  0.9594312389005077  0.5918888510965296
  0.0733856150186264  0.8394405324921574  0.7559047161431921
  0.0640960050521729  0.2227753088697081  0.5058608142523688
  0.9915411236357249  0.1645671290566158  0.3315303622777588
  0.0677646260825656  0.0813115540108079  0.0105608157227115
  0.9864963170483414  0.4208219852971442  0.7659850185694083
  0.9937774623461301  0.4884316429749698  0.8868444916767304
  0.0159689634249462  0.4944461330706563  0.1931213206603851
  0.0053709529996085  0.7456547427193533  0.7435427035777098
  0.9105974126165014  0.8366550797348761  0.2521087992698827
  0.9932233862797311  0.6785235387252680  0.4980055348813543
  0.3338145298972048  0.9992253337343689  0.0073583911724770
  0.9958023151447488  0.8366573659759207  0.3354007121760019
  0.9963080269687609  0.6752213211805547  0.8460495263235607
  0.0985906251913249  0.4929067213283245  0.2773547571445846
  0.9086041904496428  0.3309081786080736  0.2482070200141175
  0.1591775816083573  0.0862055627166735  0.0800864322978470
  0.9795524242842497  0.1617924013117185  0.4984214538762964
  0.9967136590816943  0.8371348876472646  0.1691081987154469
  0.9994657276842404  0.7515556816023247  0.5975140397093662
  0.9922267330188665  0.9979799289548205  0.1703570270815421
  0.9086970310560020  0.9163693905258531  0.6706920856248506
  0.0772641748673697  0.0005095266678515  0.4194928224427283
  0.0419582456847242  0.5904754626306623  0.5236946986212377
  0.0795463697642841  0.6725750162878144  0.2491396714465084
  0.8226765406904744  0.1650767572332081  0.6713794951587309
  0.2506837178498112  0.7584994682029096  0.1700528011742012
  0.8260709439950671  0.1612817933492184  0.5011753350689756
  0.1639643589286182  0.5884095752681012  0.2465221125265357
  0.9012485440450495  0.3285905927302608  0.4155123822468145
  0.4973727488742303  0.4069254304283852  0.5772611882547386
  0.1859623582360769  0.4246466358512557  0.2456462480595904
  0.0685584596867029  0.1672493434234886  0.9119582879846633
  0.5852484951839572  0.5915365816717185  0.0052223666593964
  0.0804225950983024  0.3000551680248149  0.4309037433963885
  0.2538820084567816  0.6036846184800833  0.5062670709932764
  0.7413704476129599  0.4147704770957800  0.6677066635299820
  0.9836716629004979  0.9941183215564057  0.6715335322308635
  0.8123632727070023  0.4901834361324554  0.6656039790471383
  0.6668299044493645  0.5018825502331586  0.4965351680988225
  0.9003606414288865  0.3257358086846484  0.5866834379812528
  0.9041711878707557  0.1629790973482062  0.7541020693390831
  0.1876837877890285  0.2854352327423147  0.8087395562588248
  0.7466874100738986  0.2480474589760985  0.8413297791287315
  0.3352977807537904  0.0813642051106511  0.2488187617991947
  0.3350064002625008  0.9202759520900079  0.0869735280370011
  0.8240867155412714  0.5927942697830829  0.4124419114469078
  0.6642642442899768  0.8336107142772967  0.5016775388052315
  0.3372651789938368  0.5971228817209734  0.4099833642927821
  0.6681496929487997  0.6688336668409530  0.4990331210728789
  0.7521589190973782  0.5879317788057139  0.3303407614878901
  0.2489625102060294  0.5157374204500483  0.9395776493323877
  0.5854516051381782  0.5037496926799624  0.0888900971420557
  0.4199297212157684  0.3368532667302371  0.0854694144386925
  0.9842290034303502  0.1605536740440154  0.6728777667826998
  0.8277542480958093  0.7557863577218592  0.5856939472613730
  0.6683499246583072  0.1627216914131659  0.6686801472074402
  0.7470734420678167  0.9977502393183248  0.7539439913727923
  0.8289008079871067  0.3343119161014686  0.1665059499729626
  0.9745430243900315  0.4073231449068757  0.9806232087634805
  0.9104992363789367  0.9992751437852749  0.4161991704652406
  0.8261485502434441  0.4150037388829905  0.0857154452264516
  0.9057765864921483  0.9964229721107222  0.5853186187416882
  0.6660426845353824  0.9994120366085026  0.8371302642377020
  0.7467595398041297  0.8352567655435856  0.4182897742944442
  0.8276715689747191  0.8374257666743804  0.3348647937436922
  0.9919464819859760  0.3305351929100010  0.1721181823975401
  0.8240616583018207  0.3333236441551145  0.0028872178700975
  0.7466636572163530  0.9176067455359304  0.6697311060910158
  0.6666162473178241  0.0011301082512437  0.0030606296765200
  0.8300872105851271  0.2495546582900735  0.9241464083806942
  0.7461968469579208  0.1626397131574372  0.5846361911661879
  0.6670117691457693  0.8343777030502871  0.6685332384249252
  0.5859019235956279  0.0005735596019247  0.9212366776110112
  0.8274556040737158  0.0802314301025333  0.5874646271288931
  0.8264674034632857  0.1640496696479945  0.8386690727280158
  0.5860483175735781  0.9160315298910237  0.8377808680467655
  0.0789625821214191  0.7618530068686840  0.0082790165169730
  0.7477826910633598  0.0000134272284529  0.9201251706614983
  0.8278581273967229  0.9983178736756829  0.3346415379362364
  0.9905230963977886  0.9999461921692964  0.8403941418915392
  0.7455155924681688  0.1641754966844608  0.7552245758664251
  0.5870459850673406  0.8329281282225049  0.7530218071903861
  0.6651831259666859  0.3346149230459418  0.8388091228967638
  0.6655325126476082  0.5045616275377416  0.0053219883732623
  0.7440957556133310  0.3293409040049259  0.5853866027817490
  0.5103597311582740  0.8318167099337679  0.4967245168968801
  0.9035633062964671  0.2468689262461582  0.8384099223555002
  0.9087452160754435  0.9996192281232431  0.7552459611898621
  0.9120983432817100  0.0834219422738411  0.0055404813101376
  0.6663991750482268  0.2502108230242268  0.0877466714351288
  0.5110878456457549  0.9129578008353225  0.5802860355283058
  0.9100960810282310  0.0806730463442597  0.3335392664699464
  0.6667537932105549  0.0824180895002076  0.4182298106869973
  0.6640681074805441  0.9994254086191741  0.6686673489991551
  0.9069071871659785  0.0791270241811843  0.6708371760078479
  0.7464099977405942  0.1644947400359663  0.2494012906278935
  0.8277973241840545  0.9150137057078688  0.5856930413031115
  0.8299647016701344  0.8350262439381522  0.8380852317018657
  0.9141314785535198  0.4186506068360301  0.1686565228951847
  0.6656101988414690  0.1648987815591559  0.5005420314524766
  0.5826505965686085  0.3297335101254384  0.7585161738346184
  0.5861079567279122  0.6741335775936280  0.9212833680430844
  0.9899828231267221  0.2454634293295594  0.2507387481981531
  0.5843924817287348  0.4191875860388052  0.1704526076056037
  0.7480091919264447  0.8353530808315867  0.9196407039874234
  0.6654246350416674  0.0816512733793428  0.5852709582356521
  0.5040078703651226  0.8376639198596720  0.0041190954220266
  0.8252943657604218  0.2457080018660188  0.4151133082830947
  0.9040186551974396  0.1612685402657310  0.5873521759975976
  0.5850994024702278  0.9193470101215675  0.1679379166444817
  0.5035526798707023  0.7563546685920445  0.9217632601337035
  0.9052447493357514  0.1628350544277363  0.4132492547432971
  0.7460779054743251  0.1639209209759382  0.4173929612113192
  0.6658764783400384  0.2483816096269290  0.4165129498386067
  0.6664947765074770  0.0832561681131549  0.2491593725477393
  0.8258004471604251  0.4128516211955175  0.2495574579084429
  0.9096742076943930  0.1634369221696051  0.0886877597819862
  0.8306182261367951  0.5949803227900551  0.0929568941635396
  0.9099014887860145  0.9183482791901467  0.0041366919386758
  0.7468460984238102  0.0792858279763508  0.6699732651501594
  0.8278194704977208  0.8377955447431376  0.1690590701256338
  0.6668066394043441  0.1653081446852853  0.1670081662857827
  0.7468486152072537  0.1660888873172823  0.0849553933118427
  0.9118034519670708  0.8355201886308091  0.4183662741832251
  0.9064495674121169  0.2466331420734053  0.3313542642482342
  0.4222683154611683  0.9188533797824596  0.3287600004293060
  0.6666373805419337  0.6719225417197721  0.0051890175100634
  0.7463762321477567  0.9993144973499412  0.4174154074516140
  0.9142398086029435  0.8322909521435857  0.7550480007792180
  0.6673714743507627  0.0001806040057697  0.3329484192537080
  0.6660135028278640  0.0830374603988628  0.0856415572955375
  0.7471733279640905  0.9999835259126936  0.2508677909537819
  0.5873491895164951  0.9993673906407414  0.4141636962412441
  0.6665367629634800  0.0009208399514682  0.1676315230047319
  0.7483277524304626  0.0823684901233104  0.0033415632747613
  0.7471799285358707  0.0000346589698425  0.0855712274982346
  0.7469266222572919  0.2488011520863105  0.0039198824155435
  0.7487644823843708  0.7519066446377979  0.6695800909312634
  0.6618871444438511  0.3354577276454559  0.6682871293827787
  0.5065422538038153  0.8303851149346358  0.6683047856224601
  0.7469909362213206  0.0811568551339653  0.8380400837545740
  0.9903792708729960  0.0841442691221091  0.9232112348816843
  0.8297098539492990  0.9152304817728278  0.7548139304143464
  0.8267707320141410  0.0805148995418197  0.4158888963640133
  0.9126602615166833  0.9163959262335154  0.3352459931182354
  0.7484318891002808  0.6713436026498124  0.2507176846920601
  0.5851276776242752  0.8374228314709279  0.0860742341541963
  0.6679874253438144  0.7529296243663308  0.9196618536963160
  0.8288402401469729  0.1653754179528527  0.0052124547701883
  0.5054550054652890  0.8339780065303227  0.8366914433479756
  0.8262333871414800  0.0807502671796174  0.7536784713520666
  0.6656259303409897  0.9167504429236211  0.7528329784132067
  0.5861566373860997  0.9183344264799272  0.3318602892286023
  0.6662315210789064  0.9996299204369380  0.5016569622517910
  0.9067209867246097  0.2493215643005307  0.1698671106563243
  0.7456010163198341  0.3341646084560341  0.0868612537208961
  0.8283319401155875  0.9990221665117418  0.1694769489771380
  0.9190529443233832  0.5390405273466881  0.1436462262584269
  0.5859808701946074  0.8367458760467684  0.2495436923508227
  0.9035065043198911  0.4082796399247295  0.5040750616833104
  0.8256961932692186  0.2487394840586658  0.2499016255017207
  0.6669613448253926  0.1656505351213940  0.0041715713505054
  0.9091660321156189  0.0800117694353641  0.1711197567364415
  0.7468988186349107  0.6733289818138822  0.4147782854270198
  0.8871681028405534  0.4947393008320163  0.7526965228771819
  0.8313607265602909  0.4994416822770529  0.4990904393719278
  0.5036021092950169  0.8381913101845175  0.1684077142721973
  0.8275974800820053  0.5869134780028535  0.5750514837242197
  0.9048507751184882  0.3342774502121137  0.7570090720340524
  0.7471541184096089  0.5890284958698309  0.8418983138506357
  0.7434257370016042  0.5040691602421060  0.9221368119701424
  0.6675455425300766  0.9175007616205145  0.9196207523331110
  0.9034276861006731  0.5951640336031289  0.4929391830399816
  0.8221702334432242  0.4101049261479693  0.5833794419773788
  0.7482249433288438  0.8346228571184076  0.7543232443293636
  0.8225028659332827  0.3310313548019080  0.6713089854807490
  0.6670515616308150  0.6702144603300871  0.1693983076720118
  0.6677241459293685  0.6709435937171574  0.3313260888025441
  0.7464245694419278  0.9169327070061530  0.5022476901143833
  0.7463265206340325  0.7556762041459811  0.1679602037014690
  0.8282948527113685  0.7556504517515640  0.0859588869228727
  0.8286382044801398  0.8354223023318964  0.6708507852529634
  0.6672336236117562  0.7536275579843215  0.2498937019787584
  0.9068104802323425  0.3386262180585847  0.9217090157500255
  0.6684281229145527  0.7494387424667454  0.5864308353034540
  0.8210018265344399  0.5016016302275892  0.0028054968567094
  0.6670949786447957  0.9188207216470542  0.2497592107335724
  0.9726499461144972  0.5923174783622526  0.2327711633079121
  0.5875905719675727  0.7506181750762482  0.6691719126245503
  0.6663006170013502  0.9170172016491416  0.5855680573046735
  0.7472564246198690  0.8372841163594422  0.2508606937421325
  0.6665100726401959  0.9183163254997334  0.0853321518720762
  0.6674274187188015  0.9172523857191854  0.4172574327411035
  0.7484030757078457  0.7541779838084897  0.0039366309961541
  0.9195214211961590  0.4715583114313562  0.0518733373039678
  0.0468126012570381  0.5911702477801909  0.3256245955694588
  0.7470634695075795  0.8364583078925286  0.0859105860095812
  0.8213783547978167  0.4964481457462879  0.1759157598605957
  0.6693876013309221  0.5867301053919685  0.4130212166586365
  0.8283055206036263  0.9179812358486491  0.2526539128862827
  0.1945301987949335  0.4053842481546079  0.5434650102535620
  0.2495114287780727  0.2313184461877432  0.6559618251476339
  0.1584401051842732  0.2390527841451432  0.1032863354186195
  0.4200873514292123  0.9993533284468530  0.0876204071801322
  0.7479582421244478  0.5052718020389109  0.7571896750636271
  0.1624810934561298  0.1554039475377732  0.1748363554562015
  0.6637020181819098  0.4203999813440861  0.9205349866770959
  0.2440784826870497  0.9796700293550882  0.7432815210481754
  0.8174589819449005  0.4117083985770199  0.7555307690817612
  0.1646611812348739  0.8395718366138267  0.3299764060883660
  0.6700586229701613  0.5896981459144939  0.7537589662577212