 B Cr Ni 
 1.0000000000000000
    21.1200000000000010    0.0000000000000000    0.0000000000000000
     0.0000000000000000   21.1200000000000010    0.0000000000000000
     0.0000000000000000    0.0000000000000000   21.1200000000000010
 B   Cr  Ni 
  69 259 605
Direct
  0.1636384099068865  0.0773659196135748  0.0093316856087793
  0.3418957927381898  0.2396388033052883  0.8192464354196535
  0.5686899785699818  0.0840017469467556  0.2546687019751686
  0.3159954408453282  0.0089047718513728  0.2464656502541973
  0.8933244899463462  0.1627845050295857  0.1473443827247952
  0.6767190034550391  0.9394899232562698  0.4973343471239145
  0.5004062555055777  0.0078736849684132  0.0734341947922383
  0.1077049437244642  0.1230289043741788  0.2637064222871779
  0.4906729668226104  0.1973175764459210  0.3690034262095703
  0.4218894521619141  0.1639149235445911  0.1770814527066943
  0.3265248898495850  0.1291568245536232  0.4440586891748415
  0.9822174501797765  0.9385524861480875  0.9972114176557364
  0.2310591714627153  0.1594739006891307  0.3360013488146228
  0.3400673782560363  0.2426760742873945  0.0252917985261927
  0.0756335823147664  0.2413509344467866  0.0937772498308022
  0.2678290441333815  0.0910741668122229  0.9094473543715569
  0.4269746918496647  0.9119467591907887  0.2625552305677755
  0.5695886760296294  0.9368214721203211  0.4012155553575957
  0.1524797954678765  0.0769387517824032  0.5024740432389020
  0.1575136410843686  0.8581270664216715  0.7585521341616477
  0.4135655903765409  0.0066489996499003  0.9953286084607154
  0.1371018033055099  0.0545897206188609  0.8191253166164141
  0.2440268044223145  0.0763568268330521  0.5948980735167801
  0.9813703425878282  0.9964669836970074  0.2474989679424842
  0.4315687966366824  0.1410052324489991  0.3387658202372982
  0.0432330248358146  0.0923813945373495  0.1438260450005616
  0.8511776907405194  0.1004538882140171  0.1799111086733216
  0.0080143978431639  0.9582246231861696  0.3205691075742247
  0.0281882512299067  0.1867711854042174  0.0524852848112226
  0.5019437357734780  0.3073539792082857  0.2442267415870937
  0.9131433025998212  0.8670718053694750  0.1634437714296148
  0.8200090106418871  0.9772737347080828  0.4404408792149890
  0.0787417821800361  0.9380663965003611  0.0906928204330352
  0.2461975352577170  0.9600510100680477  0.2270062157207756
  0.2394023461037190  0.3426708445816545  0.0373985849129117
  0.4838321552683571  0.9268102830908583  0.5042906851708843
  0.2053724437352933  0.1871971043330866  0.1144338896142076
  0.7637645031586485  0.9362895750061594  0.4003428826398691
  0.1401385214137426  0.2299964614046393  0.1542467700194757
  0.2419632140194887  0.9381824109411199  0.3978055054468114
  0.0160820214396443  0.0071520148803488  0.5898944053942151
  0.1076313639194024  0.0292667661036862  0.9684032938762100
  0.2311341490897922  0.3417429991793692  0.1248791724640059
  0.6658765592649305  0.0839915734729637  0.4888122173819435
  0.1511976599828697  0.9236783769501055  0.4986078055632195
  0.3236470516011833  0.0568671331496256  0.8583789530658966
  0.4219534972881766  0.1515556985757119  0.9843095619112990
  0.5135141919245044  0.0179686759104664  0.2552589578673963
  0.2631548016211370  0.1449096651098080  0.1607990863515638
  0.9490896840662406  0.2616314316583757  0.9128901526270533
  0.9210883878598750  0.8631617865128138  0.3286178931027491
  0.5285863516499264  0.0704994022322966  0.1836661702655425
  0.1934119995424313  0.0241376272771393  0.5511741111767381
  0.4964464144431661  0.5674125712468546  0.1602717295780088
  0.8269919597652063  0.9869466915600846  0.2586284256764403
  0.1608354302713176  0.2288137804130755  0.9745883770756999
  0.1650689707216638  0.2247881199127029  0.8372961080432945
  0.5869181811632979  0.9610663012076918  0.6008409435849120
  0.3321679348484253  0.9231549086401781  0.4947870816998109
  0.0822340257226832  0.1500528453352571  0.1882075836340087
  0.0324232704993834  0.2612155045365255  0.9109589103188436
  0.3421569414970696  0.4774192039955956  0.0745858479580006
  0.5809708839162776  0.0477518708029443  0.6020315451545324
  0.2875731479552522  0.0721872181257855  0.1149772460180025
  0.1753900909301297  0.9968234488064808  0.2557974125121841
  0.4097609806717347  0.4176736005632003  0.2066409752602924
  0.4262358715494587  0.9230819214039049  0.5730525645435864
  0.4752409598217023  0.0718552675913984  0.5030485820729917
  0.0205883588872342  0.9839752228557013  0.0537856334984576
  0.4223291433782069  0.9984719745926959  0.7426865292135907
  0.5812771777857726  0.1760397610307960  0.7561489502820019
  0.5797721268183272  0.4249889919593269  0.5047046972141693
  0.5055738169711259  0.1722251279960447  0.8273533672582699
  0.4991458989751804  0.4217526489780480  0.2641835134539876
  0.3334453175139406  0.0813663592934046  0.7543238732210624
  0.7681825196583404  0.9138294621786081  0.4970740318375061
  0.6714690243725032  0.1869541177736014  0.1638631490820913
  0.4065085410476896  0.3079935369402713  0.0784273761214933
  0.5864259075597459  0.2594665348555333  0.9963798743727894
  0.5821717200151543  0.4234608734397803  0.9969308150618477
  0.5010019191427517  0.2583274343699988  0.0818173768782052
  0.5800859742099561  0.4258036381144165  0.3385466009607725
  0.3310752469199587  0.7442721936504099  0.7480300307869830
  0.5978842100351570  0.9036164084633184  0.3164462325513314
  0.4138939074883645  0.9019222473963548  0.1623011466369250
  0.4964138211223771  0.5035914745105988  0.3383850693294760
  0.4190079851270117  0.9019519415439273  0.8246249180665890
  0.5719075816674910  0.0979947594197298  0.5048546597351303
  0.5815280360682047  0.3422833786101658  0.7497669295499354
  0.3291209190436238  0.7381289639340255  0.2436540886284504
  0.3289431394214885  0.5854867156119260  0.5843871614986593
  0.3274446822829306  0.9843463659691249  0.1546102488764259
  0.2431712975776488  0.4211727497382594  0.3417972715388322
  0.6618356255266575  0.3436033396568994  0.3388876844123261
  0.4155948754254530  0.9015603345509428  0.9947712920884340
  0.4165985031068554  0.7442044051864738  0.8281798416597199
  0.2375902692881372  0.7414261495307066  0.5027912987911181
  0.4134546630100586  0.7430130176085807  0.5078694335843736
  0.5005375748304576  0.6624345976357937  0.6682800529234879
  0.5072707628130703  0.8214518235843271  0.3192799002303871
  0.5891978861055179  0.7458514805932565  0.5007617779141194
  0.3356817140775586  0.3387064991459703  0.1789741135910691
  0.4996865704923132  0.7426404328916729  0.2447204967552916
  0.4175938903338298  0.8189609924005258  0.5909223380525409
  0.3319250455683241  0.4900028559455865  0.1728360185234104
  0.4166217275329350  0.7409035713107788  0.3268223903426273
  0.5860243344725480  0.6666139601446489  0.0780579141517364
  0.4997409460919820  0.7458307596554201  0.9114749972148307
  0.5004843681929877  0.5055199052562473  0.8309523837415704
  0.3245491786006783  0.4190088221157879  0.2615941763646062
  0.3342824092046986  0.8216249206388372  0.9949550331706731
  0.2403254945175889  0.8214711858899238  0.5832614429385823
  0.4037394482588093  0.9953499213923549  0.5100223772117827
  0.1617957255319268  0.5748018141960924  0.2473983220708541
  0.3276112280634159  0.1817881868775678  0.3564544811777965
  0.6666047853884536  0.5870698774760208  0.7471529703694345
  0.1627532822828121  0.7357687296917074  0.2447164357609945
  0.3257744810956869  0.2712441876041946  0.2607139979721833
  0.3488983622891503  0.0937546589375334  0.1879398120914562
  0.4239783089092977  0.2522094627064039  0.9835899522552567
  0.3356625290022665  0.9019979512221485  0.7426331608894911
  0.4165383343015717  0.0167154193244669  0.6082594251026694
  0.2489581827236368  0.0980565475217898  0.5007316655997379
  0.7295104134900013  0.0166328342563613  0.4465093105416797
  0.3038379621617537  0.0014623208857722  0.4415845387747555
  0.0549378762404289  0.9987604336972166  0.4115051104909908
  0.4156717483629234  0.0020599929080492  0.2277604942944944
  0.3301455955856190  0.9050378912801531  0.2436884268877300
  0.3688033726359300  0.0788017137962789  0.9404228196749109
  0.1621247078828759  0.7410638610345819  0.9168054673779416
  0.5826906249847765  0.9091747963661736  0.4998565914407812
  0.1675492504748101  0.9001188393513703  0.0708051331601075
  0.6683218916997750  0.8280748676277786  0.9948375897858992
  0.3224971193407499  0.1644191831212624  0.9668854875783757
  0.3668501676316305  0.9733417046867878  0.3234999534194904
  0.1621768338062075  0.5838449109323804  0.9149149822378463
  0.4137474698697128  0.6696012791839574  0.4179741749674308
  0.6657896645562320  0.5814884802335740  0.2496842986517974
  0.4158732698355035  0.6663491407314077  0.9103154808318078
  0.4183770017684901  0.3454565449287282  0.9153001842696035
  0.3310834999704788  0.4252859406388463  0.7495563041313242
  0.2458307792853732  0.3448765703269011  0.7455315993841536
  0.5058215765327846  0.4239295158971928  0.0708776766543649
  0.6717477002639337  0.8258346676505749  0.3239699048445130
  0.4140414758644824  0.6597026942475595  0.0785641037866452
  0.5870058000058951  0.6670753852110208  0.5818151768789201
  0.3310807625550667  0.5857854156427362  0.7480841533908064
  0.5821269694359249  0.5838756064833657  0.3330801646718398
  0.3292849453361688  0.4259662225406126  0.5829398166395124
  0.6582521874151336  0.0042016917402641  0.6655394865573786
  0.9093180251407000  0.3429632328049587  0.7534010198153100
  0.9098610682166912  0.3422284798781191  0.5878910717981073
  0.7470930955535386  0.5036945980394303  0.5850464021736560
  0.4119080860120922  0.3435131004786051  0.4258416286234357
  0.5039921030311143  0.8223272869023194  0.6692369700165256
  0.8303657538624555  0.9158041513867220  0.7499169652211852
  0.8310904894119384  0.6607850087197961  0.1616641968518606
  0.3333747136054399  0.8215009602391270  0.8280906941045972
  0.6671179487896294  0.7479378953628546  0.9124039748712431
  0.0771243078069266  0.6641310683873124  0.9148722860900679
  0.9923174349658984  0.4223578197533668  0.5870335528089811
  0.9909537332579267  0.4192540028136997  0.7525630302864526
  0.9905020625380541  0.2607780130674077  0.5892249598833241
  0.7467178663573673  0.9994993970021463  0.9125354148407954
  0.3240936758253140  0.8029494228592360  0.3261472264905519
  0.8535467318297580  0.9000613375836346  0.3967942731025619
  0.9823901682710252  0.2720260399479486  0.0783253356360666
  0.9137313129563056  0.5033424263697609  0.0782497911465579
  0.8204922339773583  0.3415599643054189  0.9991172484102471
  0.8259065790326898  0.0888379663506946  0.7494194714379970
  0.8256405531327687  0.1791677819885998  0.5094571719773804
  0.9097410469425683  0.0987359347255494  0.5085515296038021
  0.8186205387276357  0.1805987657910061  0.3409530101359393
  0.7457202914298423  0.2598329237979533  0.5059054478986627
  0.9956037924139284  0.1817996535735889  0.1521929304300294
  0.5777054626897248  0.2621761072207393  0.5093369805737222
  0.9089897161209423  0.9998990981226782  0.9169774542754541
  0.9158812989000009  0.0035716351823009  0.5929406513827766
  0.9868602610043126  0.0932307436216989  0.7593020713992270
  0.8274550617012779  0.5054428148623870  0.8316023639229191
  0.7449266618428192  0.0885722770790136  0.6707488247677733
  0.7553974258513415  0.8315753314684002  0.4103317075953231
  0.8284731840950867  0.8235797397542690  0.3231714205332896
  0.8306786409177203  0.6619762971430363  0.9943573728424520
  0.9972033327928826  0.5846381585829995  0.9138188367097980
  0.8303549775404299  0.5851986580005047  0.9125641535506769
  0.9971124477069931  0.7354658851277491  0.4163344296159674
  0.9109458386323279  0.5837192676044080  0.6675841572121961
  0.0817379665745845  0.9231687671749765  0.9935993951518426
  0.8255884495008584  0.4228283467638261  0.4198044249516318
  0.5811543060283882  0.5054528667024902  0.5827429243641241
  0.9911740979023317  0.4203872033973678  0.9137909157945392
  0.9894653966675740  0.3341685653451933  0.8428452501557102
  0.9943113701776138  0.5835639029476830  0.4162317315459182
  0.8436406636165991  0.9163868024206973  0.0939322652848184
  0.6702110823570810  0.7484208139789296  0.7484681779684998
  0.9937453247890216  0.5775187696394204  0.2468558888454375
  0.4968049481397042  0.2600104996684948  0.5896348315001155
  0.0764093743882716  0.8312610697142808  0.0795600824045180
  0.8254714428975466  0.4244858729756226  0.2491708291314584
  0.8263669516075227  0.8244500516619399  0.9933397724607748
  0.9112578008814790  0.5039666189373954  0.5857628090923011
  0.9113608933807785  0.5027751485714606  0.2486336104347559
  0.5838089890850823  0.0003697329560130  0.7536576291264024
  0.7509935426127436  0.8300677572060626  0.7488963083225207
  0.8358076871167252  0.9176189536448378  0.5869214154168101
  0.7456303538622927  0.5054431550165995  0.9122253380114337
  0.7433212585692178  0.5064055126752216  0.0799253867724962
  0.7455876736645354  0.4259271306865937  0.8313362357486900
  0.5822669677032312  0.4254136822850298  0.8312314975847368
  0.6625421308841343  0.3415953489819550  0.6688614315765737
  0.5003067764045513  0.4260000056831972  0.7500920864049300
  0.7465332217329519  0.5023177010061786  0.4193887805370460
  0.6605924432202432  0.3447350779838781  0.1660304073185430
  0.9397802085902349  0.0768238146479523  0.1434631279969889
  0.5010974869974297  0.5844716810142138  0.7480683562215791
  0.7478933271858224  0.3417967185565835  0.0778513737298784
  0.5763668545709648  0.5033854042099541  0.0833568590758876
  0.9081628442359615  0.1666754101925458  0.2463176011189593
  0.8223617550080156  0.1724557163848870  0.9956441188694366
  0.7443126629712921  0.2601708677369190  0.6707547696182374
  0.8236303876672316  0.2609037591486404  0.4231696217573144
  0.5719900252918214  0.0267216388456689  0.3424398920994031
  0.7519988166302145  0.0021835046570769  0.0780453455580694
  0.7449357734713883  0.0863482759145671  0.8308085295646210
  0.6680904176735811  0.9992161619985690  0.8313633564896521
  0.5859132525686610  0.7442320688808733  0.3293129468335412
  0.9091521867704943  0.0114374764670418  0.4168117811211416
  0.7454628431490072  0.5037117326425539  0.2505134804183093
  0.7609367159745100  0.9102763717147826  0.3087402452110346
  0.1583444145010643  0.3405394609713551  0.5067417536520199
  0.0006404631169757  0.0898466611448423  0.0572242215321173
  0.6674868565434564  0.7439656128118419  0.0772337787325853
  0.6702823250365305  0.9047350781514722  0.0736257746586748
  0.7556352672141214  0.8325226802114160  0.5815745187420512
  0.5858028743988821  0.9124834128053760  0.8290604885477949
  0.9071742102409601  0.9182543395386018  0.4970441609169567
  0.3280528431720644  0.6627397721695490  0.6663577223041962
  0.7389159787806148  0.0917215626958039  0.1641486267064105
  0.8204990083684320  0.0057606201883318  0.1594673271251450
  0.8301755484155176  0.6641862267129159  0.5006567995199883
  0.6633227716216772  0.6618180056941620  0.3315297401185402
  0.8301669317485448  0.6609694772027299  0.3317327663335287
  0.9097127720976280  0.9165701425785150  0.8322869040688196
  0.6640948726917376  0.0822373158877973  0.0705977807801864
  0.6729097435035926  0.8344472225437665  0.4974429835207577
  0.0558662404029118  0.9071369931915851  0.4834826501372446
  0.7438404563326217  0.3407536918781043  0.9159478037486035
  0.6664128536728566  0.6677478680931135  0.5007081305008844
  0.2404245816330002  0.6605314414625622  0.4186829508676006
  0.9896374573202281  0.1909126892474686  0.8442495402154878
  0.1552299135825472  0.3402659296079850  0.3409321851238972
  0.0758644215252619  0.7465090836147060  0.6645599805832961
  0.1020960157728777  0.0023678590926366  0.6391423109451860
  0.2450957734536527  0.6625484610353780  0.9130315601116421
  0.1018086694625529  0.0333481027374519  0.0715980985291097
  0.9115810403081481  0.7460618434950815  0.6660321272092052
  0.2404251386300553  0.0559847109711250  0.2046644804080414
  0.9977639679118042  0.8340805293030872  0.9978669647514671
  0.9857214090404968  0.2600363083230796  0.4203510071938870
  0.9076115418577456  0.3413609703184185  0.4205495029923611
  0.5780815860739504  0.2605070564506783  0.3351061660587666
  0.9897027123942392  0.4202099988999110  0.4215206371193862
  0.1938842910777165  0.0033793384726025  0.4535972781466652
  0.9954086191683590  0.8291746710089215  0.8304683716681885
  0.1720635649393572  0.2700596584515129  0.0732111677587646
  0.0767442582990281  0.4205446438958236  0.9969526152369796
  0.3324105924921091  0.5064811953351459  0.8294321937667032
  0.9009633718889958  0.3449353751225066  0.2516918281433276
  0.9917932274724748  0.9149046333651512  0.7604707322128849
  0.0760293525726280  0.5037321123318181  0.7504658776894023
  0.2406427896222823  0.0754465862534449  0.8112728382748803
  0.9952002676361610  0.5795146905690272  0.0803822960558041
  0.1078861660672058  0.1495628897196108  0.0941759789881763
  0.1601951560648187  0.3421863879378128  0.6706235166953342
  0.1615366862325985  0.4983311933399573  0.9982060367856163
  0.2393664785103768  0.2626801235695922  0.5129324316874528
  0.9781162054257178  0.9117317778627343  0.4036123959840795
  0.1594733566342035  0.5043074115247871  0.5036691703645089
  0.1598561591575915  0.7470093960646589  0.7483504140540180
  0.9921377925386421  0.8974341959844302  0.2414891301640543
  0.0751293089876375  0.5029722283119509  0.5861914810076051
  0.1607930501487586  0.4986486590560328  0.1650591501674107
  0.8019677826155640  0.1813716112334514  0.1721130649369610
  0.1627527650437834  0.8252078519886489  0.9951436609508614
  0.1614128730301201  0.5037191179585571  0.8299063141370643
  0.0806007452390271  0.7385816911185414  0.1613184635739137
  0.6633661878479422  0.5837994173055487  0.0798383398093417
  0.3331450181976592  0.3468930324886101  0.8272057883775791
  0.3212154577908581  0.1524592172680266  0.8504621070531686
  0.9928926782968482  0.9138899744689651  0.5788887693644589
  0.0757049954536828  0.4203613592703453  0.1660757713491122
  0.1476858907907935  0.0993513526367368  0.5985883723712063
  0.1604200430130723  0.4268391602583944  0.7487615914775755
  0.1580897861651991  0.1708973657394689  0.6801625745157731
  0.9219695577419526  0.0014231186456682  0.0641612145897991
  0.1643735917241137  0.3504936704616058  0.8191963784247296
  0.2449926009186607  0.4999538990339914  0.2563555658393091
  0.0760857997673570  0.4993601394514696  0.2532293049422982
  0.9962497812693450  0.6666191214932764  0.8317361516894994
  0.0272854613288197  0.9955705019864867  0.1541169371253140
  0.2411366500489445  0.1886457644520472  0.4299678932932554
  0.9842588175352699  0.0085450703820024  0.4969069918723069
  0.9908859680451543  0.3367052464260480  0.9853100122544756
  0.0788667043920868  0.8931172468530471  0.1760225677156397
  0.0649748558623440  0.2677686312371012  0.3425493881536884
  0.0955049673960580  0.9984728299024246  0.5334956965600364
  0.4150713582963397  0.1829353471741057  0.0792607295434506
  0.1579815679007130  0.5816103313018474  0.5827894768161294
  0.1251034702378441  0.0601016266324839  0.1875121659932786
  0.1577448727091006  0.7463293383268099  0.5840638973531149
  0.0756975624660380  0.5782445075286207  0.3338308340913931
  0.0757688910080039  0.6597857148296037  0.4165774899079607
  0.9073505519862577  0.1761995036352976  0.5892603234048286
  0.5877553294474301  0.9047215010932932  0.9924973407231079
  0.2470403256838503  0.6591800115190022  0.0802852201437285
  0.0786724181176669  0.6611943801594322  0.0799111730561723
  0.8077367478538359  0.0102179672541200  0.3492926164336578
  0.0720396381873848  0.1791037943059684  0.5918896036196079
  0.1581194975671663  0.9689846735983835  0.1564859685938442
  0.5130583342024696  0.0000400528926408  0.6676451930273154
  0.9831170608290287  0.9029824359115735  0.0916030467761648
  0.4151066916578626  0.5882031172034172  0.9924536635129290
  0.9108322934731337  0.7355453185840490  0.1609973496811774
  0.6713060570412198  0.9059627901803190  0.4063968178091141
  0.4944808082572170  0.8749284869951554  0.4164656042389392
  0.2924171716467137  0.0020427892614565  0.5468835465463218
  0.5171853186820250  0.1718722764675864  0.1566860767958864
  0.8039960606094667  0.0918218883015313  0.2607395189129377
  0.0775138804116708  0.6667481469534982  0.7491044622313462
  0.5836584159338484  0.8237174620522413  0.0771521848472272
  0.5824025000794952  0.0787986253159548  0.9881695651770116
  0.8326800368190055  0.0951055292020820  0.0834000645015847
  0.7490855566677520  0.9151560674559635  0.8305368302346336
  0.6728997150024310  0.9048068920315269  0.2368324086074238
  0.1615337158699754  0.7429737657863219  0.0786193003077878
  0.9051605104960883  0.0885346790047249  0.9918200470982679
  0.9987159639127577  0.9157244760743644  0.9064257067928428
  0.8331471505901793  0.8323443771874270  0.6670250969825762
  0.7487749507924709  0.6651033471376928  0.9127771107832886
  0.6694707009290067  0.8223398259472867  0.1563538734430836
  0.7532810402514603  0.8265466231562967  0.0773848038189223
  0.5844325591762721  0.5861634262190493  0.6649579137695794
  0.8318565819859394  0.7491056071455655  0.7491497127945548
  0.6632603596074998  0.3420155552402211  0.8325325417620769
  0.7433351863508548  0.2632014770903469  0.3383920635922467
  0.9893367017094975  0.8280456668135698  0.6659142735687515
  0.7441108687800559  0.3425128952753697  0.4219123703639163
  0.9807022850958699  0.1734020056151474  0.3378945233586869
  0.8298329661350082  0.5852334207752604  0.7488746806498500
  0.6667959934428401  0.6667405296551286  0.8297795489947850
  0.1841301559447922  0.0857520877807947  0.2974315593596640
  0.9927750314280599  0.7459590578763020  0.5844191536044900
  0.9744162045822576  0.2647215794519852  0.2512124767224975
  0.4941958863984787  0.1086678728526780  0.4188323201635715
  0.6638265850293924  0.2669600789265980  0.2514611560642085
  0.7501548322836092  0.9162687639060527  0.6674982405093005
  0.6606600722515578  0.0887313957314069  0.2762211000780999
  0.8216137629043081  0.0932323337060807  0.4320828269238142
  0.7340635237932873  0.1781693292254528  0.2593102808473171
  0.6712263977365037  0.8296461038059526  0.6680102804477223
  0.6590564658157512  0.1884354764551418  0.3399070151579235
  0.7404882382429037  0.1772180621170524  0.4267045068546220
  0.7440863187130669  0.3403591409153587  0.5873098343583153
  0.8319032049465949  0.7461666630364168  0.9135618290864913
  0.6682925159564841  0.6669794036432297  0.6649700729603152
  0.2377913072174673  0.8162466707273411  0.4154507888774391
  0.0721033341405644  0.8245331580662413  0.7457320162963151
  0.1605461003405686  0.9123204396155454  0.5887118616372066
  0.1584357441628929  0.8152191071407806  0.3296003587789780
  0.7477764053239621  0.6645628074445219  0.4159832964568511
  0.7507372179574466  0.7493655980882025  0.4975629346154141
  0.7476765886730632  0.5854487948063274  0.6653708453450070
  0.7460922499699034  0.5055539067506193  0.7490212309790979
  0.9936882211941653  0.0031739879159482  0.6792215278251286
  0.7458621761251691  0.4233066212737516  0.5041308357656057
  0.2598671973023340  0.0703029574174243  0.0000702995444103
  0.6647086641717129  0.5047124086912868  0.6657241067554313
  0.7449606416978169  0.4235125624281300  0.3358222140762778
  0.7435689424833488  0.2573902206951729  0.8325606825476617
  0.5802912221306126  0.3427168496256744  0.5877155921284855
  0.0793737396241829  0.8309065558207407  0.9151484350838228
  0.8305970962268915  0.0923544087152927  0.5965146042739752
  0.0719223972833394  0.8187881941200302  0.4138595853477189
  0.7440558694239476  0.4256787096983959  0.9972969502686296
  0.1999480465236533  0.0868318720432927  0.1009064655983049
  0.7446325955628800  0.4230520489817720  0.1639779089564579
  0.1836525996941339  0.9853629796984692  0.9905789097932658
  0.9937540422512982  0.6648964661741412  0.6667527586551465
  0.6724556000120332  0.7497469800743164  0.5828556395496589
  0.6646028983212526  0.4250733900336361  0.2514039387431173
  0.9143893662273972  0.7453508547079795  0.9942842066209460
  0.7516475205844827  0.7491610883669589  0.6660203201698337
  0.8240258153889670  0.0847753204537682  0.9131610106827219
  0.0761809106410627  0.6635248560233253  0.5845079106670906
  0.8348345917175952  0.0149523183260271  0.5180467556108821
  0.6694445712640436  0.9150089214046362  0.7496917003863948
  0.0816217365574330  0.1192346647977360  0.9828307935006011
  0.2467475684395868  0.7426893027369518  0.8304355272457343
  0.7512089884142639  0.8210181179557166  0.2389914204773321
  0.8254802960349945  0.3419023125116444  0.3371574171796330
  0.9872183354148275  0.1779536086837371  0.6707932262508325
  0.2485922324796150  0.4273083068965973  0.8300427333052510
  0.6656442017277926  0.5849032661121335  0.9129534963068152
  0.8296779382303606  0.7429572338723598  0.4130537557143528
  0.7470031916408588  0.5863384823199655  0.8304160690519428
  0.6642874639542040  0.3426895280072373  0.9974945697973859
  0.7469678575734968  0.6620039429836732  0.0782432957662939
  0.7464371833319097  0.5843311113581504  0.9959729739937773
  0.5804915850102930  0.5051299136684219  0.4197726927363011
  0.0762730606070520  0.8983874383324689  0.3324774294625374
  0.6643612314806530  0.5052758811068592  0.8306322511519829
  0.9149397917154379  0.6652379242276371  0.9134215900786045
  0.6623712964154669  0.1784858487504803  0.6733452661813809
  0.7452402700475107  0.1804780899354797  0.5929306327030369
  0.2557499064424029  0.9966525431993850  0.3176522985506395
  0.6635457458880452  0.2591983828900559  0.7524493221691279
  0.7434155442535759  0.1724358659583986  0.7503229089259165
  0.6640285553835831  0.0870450425551165  0.7517524385449881
  0.0786306637708504  0.7473248886546864  0.8324609384357597
  0.7454152555724876  0.4232466067870794  0.6675281340346522
  0.3295542504952749  0.6588946638947318  0.1623436192410063
  0.9021477092732959  0.0471943550253559  0.2454589408450686
  0.6614088026464854  0.2589313699102720  0.5881018034210183
  0.9137755427750177  0.8155911722890948  0.2457873950551574
  0.8312082462003924  0.8170557970672269  0.1583929026067799
  0.9939588034178783  0.6623150157554016  0.5021200951871189
  0.3258462436565472  0.3398596967180778  0.3444088825719110
  0.9217941883044456  0.9605770613943799  0.1755192792436725
  0.4129994127072442  0.5043890352158181  0.4204607596037256
  0.9129513840489855  0.0895807618789094  0.6731684097977249
  0.4145907225164310  0.6634667354536136  0.5848791563752622
  0.6702877330769538  0.9103048070838009  0.5872550338333861
  0.4156505758977453  0.7406894055213080  0.6673162730921836
  0.9968900408231335  0.7482553956416502  0.9150429532152087
  0.4154985053195064  0.6632629076253185  0.7488642806663041
  0.8890306474545284  0.1005298877766581  0.3431372043058710
  0.4877863354285265  0.3563791719741004  0.1632120334408781
  0.4128375819877342  0.5853719312173734  0.3363882916919425
  0.6644049848556979  0.5849148340238001  0.4179762597791279
  0.9120641748964564  0.6660646723157544  0.7494476999859031
  0.9149700820135896  0.9165797941916539  0.6711788176108261
  0.4066871324636188  0.8699699255463921  0.3385638934203289
  0.9090076026456272  0.4217586844413738  0.9964153586029368
  0.9123447459184080  0.8308842293531986  0.7501055398189229
  0.8309403846751283  0.8311962344836822  0.8316185385985513
  0.9956854480116980  0.5010075692375983  0.9964883425883433
  0.0744881065762051  0.4219579394778227  0.8319911437896957
  0.9138845486467174  0.8309917142927584  0.9133919884806843
  0.9937610550848180  0.5033645682593549  0.8323509574626047
  0.0744985806127604  0.3435528032888279  0.7494620475765484
  0.7469753907732611  0.5828482427939273  0.3343747576672577
  0.6641089129565891  0.5041631183887830  0.5022280401142846
  0.6663210934940549  0.5850224063771173  0.5825236898262831
  0.8282711782419878  0.4225057186953379  0.5867555472250755
  0.9895794254460059  0.8243330462819221  0.4992490863709897
  0.6620962441073286  0.5045167762154795  0.9976743351258613
  0.9015447063835235  0.2558489158791404  0.1639243581392447
  0.7445012663331955  0.1706920325782898  0.9142882915114980
  0.0793212653684961  0.3442891580061425  0.9116878142812600
  0.2560310370763985  0.1799591069758046  0.7582906978926349
  0.9941784704098416  0.4983898981894588  0.1632785243172144
  0.6645339799446091  0.4235705800851315  0.9141303376142829
  0.8288091787390329  0.0009756916547769  0.9986996703065275
  0.4375089241493231  0.2588189697438298  0.1826144113630138
  0.9033111090798871  0.0888531881164177  0.8328575219122432
  0.4965614627083329  0.3446046274988839  0.5078198264743128
  0.0750181558872935  0.4219680719748338  0.5047537467632609
  0.4963010950510672  0.1786474664186093  0.6788269488268011
  0.6614407375058168  0.3422926461603770  0.5050710984645863
  0.1564865685497168  0.1452297038749089  0.7985500677396641
  0.0742207667318505  0.4213122711567560  0.3395662446808811
  0.1623078486331773  0.2571666629297803  0.7500388544813210
  0.9885919596257486  0.4224507378984721  0.2508781358505777
  0.5815408925886134  0.1696089942765112  0.9116856700427276
  0.0879602822286967  0.9025369375266032  0.8224894547413942
  0.8268126183037520  0.3420851789723403  0.5050595556564916
  0.4104858222859257  0.4995630336624442  0.2581744152797793
  0.4112155571883292  0.4210829134561191  0.3428811629626583
  0.4151594914670312  0.3402893901118940  0.2623949378108115
  0.1756158128098498  0.1604895784859841  0.2045272411731432
  0.8281731634459966  0.5047615275478581  0.9959694173819198
  0.9093018409318505  0.0028316779927545  0.7529843143507052
  0.9099022010091071  0.5017000914844755  0.4189867907524807
  0.1597604511119240  0.0573919200533599  0.7256589084741019
  0.8288564334766978  0.5028324733160344  0.5029713369929325
  0.9935491240562632  0.0958885292446175  0.5882702850633688