B  Cr Ni
 1.0000000000000000
    21.0782136497673136    0.0000000000000000    0.0000000000000000
     0.0000000000000000   21.0782136497673136    0.0000000000000000
     0.0000000000000000    0.0000000000000000   21.0782136497673136
 B   Cr  Ni 
  17 259 605
Direct
 -0.0148407616092681  0.0084354280787781  0.7579066715959718
  0.2397712863793441 -0.0049761712181898 -0.0083745446602376
  0.2704342794460755  0.0182431612457818  0.6837117479922041
  0.1055389223656709 -0.0894731439633543  0.4182666584813242
  0.2448054332485390  0.8424958431060854  0.3357278522618263
  0.1695013860502114  0.7763834568838488  0.5126194805966304
  0.2380884398148959  0.0098238931334046  0.5038123683089483
  0.2344174263619039  0.0652865700098622  0.7369564413488335
  0.0312096306939871  0.8416119589436556  0.5846091141602354
  0.1496777988236692  0.9004070494219193  0.8566271710003812
  0.1781141080221364  0.8436956977495013  0.9102136165517389
  0.1729849926481301  0.0205114653021283  0.7685158590568774
  0.1634257159899215  0.1487394370020484  0.5888975013220442
  0.1731138921687420  0.9030046628033920  0.6502776673477394
  1.0109327598258933  0.1653494909592583  0.5804841050714049
  0.0661837916637271  0.0858172205676614  0.4518750303589332
  0.0973219215332979  0.0259178018935765  0.5027558735467202
  0.2559820405674696  0.7483304617257832  0.6696536279962492
  0.1650325424359262  0.7436578574714122  0.9184021345081809
  0.0698354579097811  0.7630424688843875  0.6550915540884358
  0.4191209774756640  0.6656036040275550  0.7506805039224612
  0.2402508750090053  0.1052779286677348  0.6505169382207686
  0.1681153552477583  0.2529467771469626  0.4138716496871201
  0.4174135734166045  0.6654993402391907  0.4191081090225695
  0.0809431989186861  0.3410981159017060  0.7560995055607315
  0.0791305532544656  0.2580816845842736  0.8375186589651260
  0.5001496546724155  0.8334957558520923  0.3345038530431395
  0.7473417153973972  0.9177257703513122  0.4990563132513762
 -0.0007841522340881  0.5823116510228946  0.7510565179137757
  0.2524740077483305  0.6679294660736033  0.2491865675131011
  0.0681550553298133  0.0014789776014207  0.4059404996563219
  0.5022156984132183  0.0861097421480875  0.5839404910538997
  0.8311437829614824  0.3370318260611767  0.4967691566186066
 -0.0143969905203705  0.8346142930116353  0.6723549153372499
  0.0002092835173901  0.5843060546595205  0.0862119875342934
  0.0008137966278953  0.3358962680912919  0.3325254532091881
  0.8328906533580951  0.5014525794816679  0.6672847492975534
  0.0828714595379249  0.6692351793275173  0.4206382923386333
  0.3358383836765425  0.6644257190527335  0.0037496653686170
  0.8302054536428483  0.7481854573305011  0.4148530970966384
  0.1681272441259827  0.1673761195819915  0.3347525947736200
 -0.0043916335675631  0.1706888505824944  0.3311673595351738
  0.8311593992294609  0.4999901587478280  0.3339683279861778
  0.2439425439433535  0.8377671406597176  0.5827963502507764
  0.8312510495593779  0.3356396933138172  0.1689226870304949
  0.7485232893413093  0.7496699844330532  0.0018531432223890
  0.5841827304642929  0.3373334255398662  0.2486326697487030
  0.1621975231840417  0.9163849956758202  0.7521482004403224
  0.3344881366010215  0.6659643428364692  0.8340195111763319
  0.6637115232637387  0.0861829161903551  0.7490961257785250
  0.4202940815961073  0.6662645552530080  0.5864829998494751
  0.4188332260706499  0.3371206136213326  0.5846596718132265
  0.2505739575827440  0.5024883093613437  0.4171172599837064
  0.5003000991421560  0.5024708936066719  0.3339563051824833
  0.3344416378423861  0.5844592753611640  0.4187227926584075
  0.0004924113596474  0.3370149843297020  0.0048586911614378
  0.8323952473320141  0.3356585517557985  0.0039330492883038
  0.6652424196454035  0.4175346485663604  0.0836759776732646
  0.5016596085729700  0.5807408496368042  0.9150451117770704
  0.4998121519079596  0.5009839393978345  0.1670191626331382
  0.2516884518225592  0.6649519441400336  0.0843621244880470
  0.3324784412463381  0.4996791593387623 -0.0003641909749961
  0.3311581999688229  0.5007419243887952  0.8346448100919246
  0.7494338407706510  0.2551431165543762  0.6679884385510513
  0.1667953852175941  0.0846421590428858  0.4195584242054564
  0.3389136480516675  0.9166060694986198  0.4155298881867920
  0.0815766859618802  0.0008795261975581  0.7406970163050463
  0.8320062162022414  0.1676215582726714  0.0014286348483437
  0.5012062585911531  0.9183101161253838  0.2495277316293969
  0.1667505591231137  0.0006983861993844  0.1679804904293858
  0.2531623714590333  0.8308376089997822  0.0879102895555368
  0.4232466413948868  0.9171862629698339  0.1658656753209131
  0.3456714452331390  0.9098051294874963  0.7555733491444990
  0.4191161592969664  0.6644150085633814  0.0826326059898491
  0.3393111074126531  0.7451069478682647  0.4193236259950970
  0.5838542787803752  0.8324173267757510  0.0832506859517218
  0.4191117627169940  0.9171469461568714  0.3320725108756636
  0.5013605753832031  0.9174848780935007  0.4150067668981570
  0.7482091787859054  0.0858631967761598  0.3332391520727752
  0.1726563727237895  0.9433368680086599  0.5658990498721264
  0.0817754629973505  0.8353658647346037  0.0862199551914050
  0.4238785602968603  0.0021739553661685  0.5804051902085177
  0.1652734321336883  0.5828216779426335  0.7531636734454268
  0.0829554853595000  0.6667274806420792  0.2486403092982054
  0.9137012833280002  0.2530618244737355  0.1683678760080257
  0.5018441944565715  0.7485010195827672  0.9176333676306496
 -0.0025730300509139  0.6674559799759725  0.1673794088799384
  0.3370013428437865  0.1696457078315351  0.6678850639660880
  0.0776706122690607  0.6650176321394149  0.7487642948015425
 -0.0022106789551813  0.5827048666536849  0.5827814402645921
  0.6636563211244918  0.4186111680088563  0.4175869711773075
  0.2495635827949518  0.2515109885390920  0.1680483554234629
 -0.0067247399438972  0.8323083063536837  0.8365386885937135
  0.0807153487167599  0.6667614438146905  0.0859130175347074
  0.1703995349342749  0.9180495639775875  0.2533409817977507
  0.9145509883209375  0.6650561430994516  0.7500038572932718
  0.7483344741093167  0.2546052943029341  0.3314013724020307
  0.3341619407666663  0.5848998028751394  0.2502951199745204
  0.2523652684389060  0.5813592846235798  0.6675956801876093
  0.3391018587912540  0.8313138380984543  0.8356866271822817
  0.5052807058071512  0.8313587210091266  0.6666088987342640
  0.4186213973299387  0.9159894594471379  0.0022587947753094
  0.8328162007044133  0.3366991689163651  0.8368470016336703
  0.5000456771373977  0.1706785170598890  0.0002757336367820
  0.4995162437771324  0.2524411471326013  0.9175444629237346
  0.6654775533819073  0.7491818303014124  0.5841182597153511
  0.8296632552998007  0.3369947211426726  0.3323842940130202
  0.6671296308944643  0.2522453221178131  0.9173652870536908
  0.3319508491741935  0.2519375874908133  0.9186126659679434
 -0.0028867879105902  0.6648518046537125  0.3309680942614000
  0.6661058651080842  0.0844833486087080  0.9193698536218936
  0.2503277617942282  0.5838592862055861  0.8352104656361861
  0.4159426000969757  0.3369496914334479  0.2496408937821572
  0.6660235159735087  0.0020326409723541  0.6676440747757296
  0.5842257080712324  0.0860665653463991  0.0009716978266238
  0.1813822253214655  0.2635345183873996  0.5783074784019742
  0.8335519128065045  0.5841502971131507  0.0849933125799321
  0.9121517654139033  0.7486922439202923  0.6693150199497651
  0.8324618151799292  0.5824145163877041  0.9177134445974074
  0.9136577084486780  0.7481462103100920  0.8350098857152833
  0.5013272721859048  0.4992943721361841 -0.0002977915654256
  0.6660027274922045  0.9177301932534717  0.9178080851387742
  0.0823929482527740  0.4159757800894121  0.6667263922712713
  0.8307479759883554  0.5831442238860486  0.4167579655545563
  0.0780205503892413  0.9159184661052878  0.0095575604203581
  0.0822055857566319  0.3351932222865604  0.2508258747452660
 -0.0002979186770280  0.7527003564113847  0.9192158077600245
  0.8308678930618217  0.6679222748440351  0.3345705201494500
  0.4164794571138951  0.6666134522780872  0.2512309387738237
 -0.0028679056462235  0.3366051003152920  0.8379063420283122
  0.4176370159458925  0.3356218102165083  0.7537043319622840
  0.0000831008088367  0.4182893930469636  0.0850467224932538
  0.4230524174250493  0.8316748006550625  0.5860271042282983
  0.8287120908784663  0.9169401992731292  0.4159667842968350
  0.5850849593590493  0.8343028237583108  0.7510450896981378
 -0.0040942622870034  0.0079535996134767  0.4981029021173606
  0.5855573899116918  0.9171176056807472  0.8359691902410885
  0.0755795842992518  0.9098405481479590  0.6608655270555803
  0.5843108265736623  0.2544512396023637  0.6678359854404179
  0.0009294539826376  0.5034316674686826  0.3333157382391301
  0.6623503684027646  0.4176818029611717  0.2498250518311368
  0.8306903319931058  0.6658474578130529  0.6666421003008159
  0.7474015232207722  0.0862983515750539  0.4983871659240514
  0.5028794390876482  0.0864189877320925  0.7510540436062179
  0.9114457242673468  0.4198452735213454  0.6671829789677506
  0.7488173575522380  0.7491027027871814  0.3333118576183758
  0.5832827948735304  0.5845891759319888  0.1680463216002770
  0.4161286139358982  0.4175363587572657  0.0008514924129566
  0.2521022164787023  0.3363916487894320  0.4157746238601928
  0.0005758963475426  0.5851187157252982  0.2512459396435817
  0.5004011162243467  0.1698251394191067  0.1660498594580849
  0.3387178023192260  0.1700228899867078  0.3312061911693019
  0.3320943674840329  0.4178306005432874  0.9191646764841400
  0.6647579655735824  0.5853453740085103  0.2496812029014930
  0.3345136292076263  0.5807127223978422  0.5861051604914647
  0.3351972659037902  0.7467883600955899  0.2496066512189726
  0.7476362457418682  0.9168901278778292  0.3339995254199802
 -0.0070821677159627  0.0000400124875530  0.3288433706620913
  0.3341705796873190  0.5831301379379087  0.0836505956261747
  0.8288394395151651  0.0861745624459679  0.4145010155959540
  0.8291771657473685  0.0005884026480882  0.1669576990812451
  0.6647639692904845  0.5853705008341450  0.0859235236946613
 -0.0045782252233109  0.0010862151644627  0.1698740980103791
  0.8277113369964654  0.0886519425576804  0.7521835116672597
  0.0815321503439116  0.3363972916091520  0.4132008606427939
  0.2538010741036136  0.3381009389497681  0.5827313088589953
  0.5836867602782499  0.4173512765456363  0.0004233202544285
  0.9123664575118111  0.0025989978585243  0.9204008491148973
  0.7493469983035705  0.1683755453125834  0.0834710911742500
  0.7483706799416936  0.2529290213481473  0.1667783810265581
  0.0826260766323342  0.7497974280610258  0.1664847462501193
  0.0810125111766233  0.4183122181611729  0.8373381705639517
  0.1648821508088807  0.1690394018614119  0.0016632068062232
  0.2516251456856378  0.4174880988929505  0.6674983722431410
  0.2522359579505765  0.4195282625625031  0.8371545392754015
  0.0774338922678356  0.2674942082365109  0.6826718062467304
  0.9083928308211214  0.1706974038168330  0.5828663931288282
  0.4161425999343922  0.1685223683210250  0.7519686216725109
  0.1679830182595195  0.5026372255447936  0.3342943571746886
  0.8303212104841133  0.3352150504594379  0.6667053533256297
  0.5008639574752829  0.5001300061029468  0.8368546823806100
  0.3347486359419860  0.0853130669782653  0.0848624445407642
  0.4167791040145962  0.0858260951727422  0.0003792763819194
  0.4219311642073657  0.9149498265090533  0.8361136456266324
  0.9119863678152043  0.8337518513543466  0.0841990453186122
  0.5844032365831177  0.6654648487783000  0.7508704308256521
  0.3336069752826450  0.0854930132902122  0.9179755561857835
  0.5026944019798473  0.7491360160026073  0.0840242487516790
  0.6661166639588031  0.1692308756638907  0.4990301258991661
  0.2426427730942884  0.0841782474453329  0.8333154965721626
  0.4223450014977640  0.0024336935872189  0.2479315334032235
  0.2579240377394756 -0.0225026973112020  0.7724198060928074
  0.7497201917839651  0.5839658699251952  0.6679315703517369
  0.2554735832042214  0.2568729611761879  0.4920752839124376
  0.4993609812317564  0.1682028544502382  0.8343128331808023
  0.9154752276173520  0.5832070949974421  0.4979997765405322
  0.2505231455675442  0.0024629850325102  0.0902946519537101
  0.6684770093035414  0.7510194374220966  0.9179564866991877
  0.6666147392549145  0.4992578507695333  0.6680523340271634
  0.8303815594814267  0.5839620010672846  0.2538081437002878
  0.7466692070311113  0.5012882128481608  0.4174738465200407
  0.3360802603108735  0.3360688073900561  0.3314894353962739
  0.8319201216724065  0.2533635548765525  0.2489200225318411
  0.5836893222622893  0.4168274485117111  0.6689502374265710
  0.8322116809934225  0.4193144091666959  0.4160830607608080
  0.4197137042202745  0.3364131294387410  0.4156473771616986
  0.5020021872448992  0.2547422418993278  0.4156355195561714
  0.2492809499645016  0.4188955042090467  0.1681388572339889
  0.6655838440096123  0.3377058403701813  0.6683673945149503
  0.2505547601188254  0.1683459424940531  0.7512658496138965
  0.1662558302503910  0.5822449471032553  0.5837719662273296
 -0.0086291106631701  0.7474751998390431  0.5833246979170906
  0.8307445219106584  0.9170005932787465  0.0847962830744746
  0.7473714346393802  0.5840182069094388  0.3338721617837390
  0.6653714889985511  0.0006586971660758  0.1668774705664770
  0.5028705974642114  0.0880547625404585  0.4166970431565931
  0.5833524525779825  0.1690602558060977  0.2482839790452916
  0.5847006736463551  0.0018175896863048  0.2493279562034335
  0.5839521597121369  0.3365478230236390  0.4174169308378486
  0.5843459236962054  0.0864935764399415  0.6678212980375121
  0.6674334318450447  0.4180475119225731  0.7520116746799955
  0.5844296533153898  0.6660595807537020  0.2499673906959128
  0.5849293456488068  0.6661356560062441  0.0838843471854116
  0.4984821754212089  0.4194460086767459  0.9198346486632906
  0.6665425830538217  0.3341671067967926  0.8362578893100331
  0.5021259047996143  0.5000659008636389  0.6684503358491554
  0.6680891156724612  0.2510270374380685  0.0849434890616914
  0.0787128477456189  0.8302666180535890  0.2464419844322104
  0.5849140325588384  0.3349651990424417  0.5844687611316620
  0.0823755150439227  0.6672959922517039  0.9182196247983981
  0.5006098072003815  0.5012260567229302  0.4998669234077194
  0.9146906812660055  0.5020956066882902  0.0858696756495748
  0.4202680861630940  0.7493002352995700  0.6681913918058879
  0.1721952261454997  0.0044929764115861  0.6693737612496474
  0.4993210795600935  0.3332146637599941  0.8369719426222356
 -0.0007946897509361  0.3361421265443401  0.4989087965119340
  0.5841196172902681  0.7489976557581316  0.5006001176141037
  0.9137393275457262  0.1688775949872016  0.9195971473246033
  0.0697257020288198  0.9210500314407079  0.5097363916836810
  0.9084709640011037  0.2552217149529626  0.6669783220896213
  0.5823831591354602  0.7501196173447295  0.3344641029538756
  0.9025424643462362  0.0026702903315977  0.5840968968421006
  0.1683832764595619  0.0059363747083031  0.3347618914411593
  0.0837813620148029  0.0855709999979757  0.8382443345164184
  0.4188989567535015  0.1691605018079138  0.2477852110284681
  0.9149629198142680  0.5015283207141832  0.9197487279223250
  0.1679524363758161  0.5004821323120316  0.1682890334243800
  0.5010939710197654  0.6676782113176731  0.6678659254374629
  0.7504995687341767  0.6656543708105368  0.7504930516008643
  0.6680560577361406  0.5842278323374668  0.9172425140157097
  0.9150564475344628  0.8332739373904799  0.5827922118643071
  0.9120903587699151  0.8335995877804367  0.2503263492254270
  0.1663862335952945  0.6675206796338257  0.5034363615485501
  0.2648343212211212  0.9153849153903711  0.4970500097518334
  0.6669840248554911  0.9176442881535548  0.4167767127990022
  0.8244203529374179  0.9132861209445339  0.7535847360973060
  0.2508917081510001  0.7475691550883015  0.1662667509248704
  0.7479700029585457  0.8345233098032833  0.7510566609806507
  0.7477257643663878  0.9190018407308660  0.8354537857598681
 -0.0018761949908231  0.9166802552081145  0.4154979953986188
  0.0832481671204029  0.5005987082211995  0.9181756577208687
  0.1672432924891058  0.6638592031448611  0.8343701785486632
  0.0838801141220877  0.5019512024514617  0.4176127234649740
  0.8344866620241959  0.5020312082218690  0.8376130346608688
  0.9141774068035645  0.8341171124214442  0.9185142445057523
  0.2500935246050225  0.4185054061502044  0.0024536253294105
  0.1672141764511261  0.1724952532986061  0.1678674574635551
  0.1629051935013591  0.0842805540462311  0.9227235150536117
  0.0778878912934516  0.0892405349027401  0.0052594368699018
 -0.0027277799728612  0.0870171347856975  0.0872938589102803
  0.0817191264735985  0.3352387620634342  0.0855638176714068
  0.0850856065217678  0.1015719089924216  0.6542435848859697
  0.8302079861305016  0.2544773207110220  0.4140385041467279
  0.9144325731265497  0.4198933981681306  0.8372267376673107
  0.8304394043914425  0.6658355041132641  0.4994484288003671
  0.3324019456483085  0.0802826754799267  0.7458629318758183
  0.1664663553761357  0.8606926091148271  0.4791911248918597
  0.2528670274972403  0.6650161516058245  0.7502379782728705
  0.9156349973794584  0.5018574839313181  0.2510253143750127
 -0.0037701426122532  0.7495915957679434  0.2491502618752803
  0.1686320213235685  0.3354311646013107  0.6693202992042279
  0.0772211356908545  0.7451031660767273  0.3320296188322795
  0.0822992028581057  0.3366319873100772  0.9205659022537476
 -0.0015539283724348  0.4186079187294802  0.9207781346416491
 -0.0006921723934962  0.5018524261832288  0.0028355720843207
  0.0826187098473030  0.5009989868493301  0.0855961756260927
  0.0822002911499358  0.5842155974563185  0.0019804298743607
 -0.0001004791075038  0.5026011105193097  0.1678232193753579
  0.0852206954118793  0.5857351975833039  0.3354990618803641
  0.0842073655855785  0.5834585872995162  0.1680782459168976
  0.0004166079952072  0.5844623450515172  0.4162564415351890
 -0.0068697103687756  0.8324469815004395  0.4982827737223668
  0.6675114538264055  0.6670571803390940  0.8346471723774482
  0.7493839925350971  0.5010640020924941  0.9190711407997677
  0.0752086258644741  0.8254217291924369  0.4153517436361571
  0.9162746511170131  0.5845144594418352  0.0023643397738760
  0.5852356126131503  0.5834162263352354  0.8347032687721920
 -0.0042787328985114  0.7467810241743589  0.4165767791632359
  0.1661446872006955  0.6693459098555421  0.3353406018514046
  0.0812764771181789  0.6654811401187276  0.5858232818806235
 -0.0026988428415982  0.6663898688372316  0.6664915551289583
  0.0815532602836861  0.5835447838382964  0.8351622870965070
  0.9147889671635442  0.7505328545244264  0.0009964218513878
  0.9127911661339561  0.9169182686021857  0.1680949005925051
 -0.0022059262855799  0.7512663832246622  0.0840785758962879
 -0.0044706940028223  0.9168784178431787  0.0877049267306919
 -0.0039298458288340  0.8328735502745858  0.1666287183454265
  0.1917091369674181  0.9077831007202986  0.3823494415140650
  0.0822547503890571  0.9167456049269450  0.1701019290751452
  0.1557583156530676  0.8216026207623967  0.3279877288407914
 -0.0041806506939566  0.8323333072188084  0.3314866145747954
  0.2515951613084513  0.2512756322937624  0.8366407970161169
  0.9142331905126588  0.5832335339372400  0.3341739007356512
  0.0821729229902693  0.4987204537172719  0.7507287806809595
  0.5031687599448912  0.9161147415567290  0.7525067239350923
  0.5024842432176959  0.0013355470857285  0.6673191926322602
  0.4195159948392722  0.0008885965852356  0.9202637154059877
  0.5037287405575275  0.8325574706711533  0.8357978512414060
  0.5839432988735387  0.2518457138786194  0.0002062895405636
  0.5838514640148417  0.0857959998212647  0.1658642264763670
  0.5843917098066912  0.0860537108780437  0.8346707669891424
  0.8329992040947060  0.4184402203278899  0.0849313104189417
  0.4209882434871882  0.1705099135143053  0.5842335101868648
  0.8310421273335983  0.6663431918630420  0.1675590882873779
  0.9151569150714526  0.5838164319416751  0.1687578842482483
  0.7482869298172042  0.5830414890760122  0.5007486605687831
  0.7506421943667176  0.5005183022725366  0.7515046291763660
  0.7473441624236232  0.5002783602859433  0.2500540059140270
  0.7494435806045195  0.5834231145769818  0.8344574241095851
  0.4190737342992452  0.5007585527044262  0.5850628621236278
  0.9165388974603814  0.5011070961507370  0.4158542403685059
 -0.0039638903728783  0.0021046114526937  0.0052756407686352
  0.5831063457175980  0.5006111718731666  0.5852188912091920
  0.2499829404691530  0.1693481184102142  0.0841118140400600
  0.3329476760700647  0.3349580118345303  0.8356787076414921
  0.1647380801592081  0.0899606988386883  0.0893500772120680
  0.1669399427107966  0.2523175674037673  0.2518761327976293
  0.2509006589525963  0.1692365935079103  0.2507469918252817
  0.2524280600877531  0.0869784140270523  0.3320924430005111
  0.0828062068267853  0.3320456200815846  0.5845245503404048
  0.2536541344452858  0.1707500661690396  0.4131638727465576
  0.1659347982377017  0.2526593943272256  0.0854580439462723
  0.3365374629108825  0.0879194279266483  0.2480703193872298
  0.2573931047713516  0.1781589873319222  0.5748134206281740
  0.3422373989754146  0.1741082472608348  0.4976404788360376
  0.3448029812717725  0.0001638352741495  0.8352930279041147
  0.1639450798632388  0.1714810287190125  0.8370411491017539
  0.1671943718502178  0.2584804267402842  0.7580115704028909
  0.0001447271656756  0.5010797290498058  0.5004368843674092
  0.1661503818417735  0.4179591436570335  0.0858223281053065
  0.9134756566452613  0.0012856199262832  0.0867622704538135
  0.3336819888023820  0.4192705423377337  0.2504827191031501
  0.1234247075058005  0.8385338943744486  0.5784160725859685
  0.1671384824178997  0.3354481988105556  0.1682026933962973
  0.0823657140350601  0.2513186566530989  0.3327645451533818
  0.9167757870905429  0.5848376971628486  0.8354122138859678
  0.1670839404006086  0.4185002513076824  0.7519869526423029
 -0.0027040842631265  0.2536156788397732  0.4139164500950863
  0.1659070805327763  0.5009657766882278  0.0025042156881533
 -0.0089183454626232  0.2577289756036393  0.5830660244015756
  0.2493632100219204  0.5838793586550181  0.0007205590058173
  0.2560357607769227  0.2546645108717119  0.6673971318909415
  0.1672899958399063  0.5856865401576065  0.2511894784376801
  0.0893364407460742  0.2079307550236967  0.5943767969655239
  0.2504172155177378  0.5844099563318860  0.1677446717154730
  0.2494341949450118  0.3350248702383574  0.9194949596613577
 -0.0092104358417374  0.9167984623779971  0.7493384455770529
  0.0844065866376810  0.5024287839592395  0.2518636538376185
  0.1665652855560301  0.5839210510789409  0.0846449877212156
 -0.0140153118948286  0.9251544302355239  0.5862794932707994
  0.6671243022798599  0.5824295902653351  0.7509506848459727
 -0.0042695484836450  0.9173725138434319  0.9211975091473101
  0.1584912847315913 -0.0070294522881910  0.8502383179333204
  0.1544038003791660  0.0090998922537311  0.0152130414837806
  0.3367235968511931  0.0026994782578216  0.1658200161431054
  0.2499011600691612  0.0865708077769057  0.0017809901051970
  0.2501729911648121  0.0885952518649763  0.1672394713044174
  0.1659873984084513  0.0865426517225347  0.2502411165476137
  0.3440195823428479  0.9176859074415752  0.2414624973883251
  0.0807705839914018  0.0878114708234340  0.3325240409329109
  0.2609984148228836  0.0043083344188058  0.4107340951320206
  0.0831750216869729  0.4191454218374485  0.1689281044078825
  0.4183838797320553  0.8320865585721183  0.4181068597103339
  0.9137581731610516  0.2543353367142487  0.3319195175297823
  0.0820238431889552  0.2546572577500853  0.4937876031873312
  0.8313355152443522  0.0010948656691180  0.0019832134139651
  0.8276579974528423  0.0877194876595390  0.5829061522763114
  0.0771675244783637  0.1811137153298246  0.7537961460729655
  0.0007445424704834  0.4193778132902500  0.2513206686682040
  0.0019468066946763  0.0953305776842265  0.7486921944883815
 -0.0027480835553840  0.0878191942144705  0.9213664814798598
 -0.0057552858411888  0.1756173889458694  0.6701136881457094
  0.9131209257752745  0.1691840212907639  0.0854038583224007
  0.0802879179423496  0.1699699922533589  0.9193299399033329
 -0.0025488553301787  0.0854788289286785  0.2502791761065063
  0.9137960532823175  0.0850051704961834  0.1682324820520027
 -0.0014458829992281  0.2527913634164681  0.2503590009668492
  0.0812653495343501  0.1704767047829489  0.0870244762955992
 -0.0156241888037557  0.0797061845651744  0.5880857647446099
 -0.0036123658881664  0.1699452216379206  0.0032387585788488
 -0.0130798614742023  0.0869083781494414  0.4084480293153010
 -0.0082535476680921  0.2565020915150004  0.7539318326821441
  0.1513005522325731  0.1042665116948470  0.7438155040018762
  0.0827729407798739  0.0022946599310653  0.2524444997437958
 -0.0025961930112431  0.0050977901241193  0.8450500481779810
  0.0816139710549564  0.9141647271115396  0.3277443313675119
  0.0812984795055187  0.1143731188500013  0.5364725533337332
  0.0831171801026792  0.4196525822995330  0.0024413668249784
  0.0837708477047524  0.4198358479499146  0.3333526874221358
  0.9161324773467395  0.3370339783589609  0.2510571829596556
  0.0822851084884690  0.2527762299250389  0.1690764801039697
  0.1667888293075660  0.4189612308952980  0.4154547220936598
  0.1667954804286306  0.4188714919806156  0.9193445966686640
 -0.0019485567806101  0.2530609601994505  0.0855611690262145
 -0.0025338481071134  0.1701365303629469  0.8367529556705540
  0.0820005881557775  0.1700633910111880  0.4155985160573243
  0.1664223849241143  0.3380193443635506  0.8379214254376302
  0.0770765720997222  0.0018686686103625  0.0915371660492769
 -0.0027725997484462  0.1694751002468730  0.1683876372196959
  0.8282156232789825  0.0850912325081672  0.2491875037076340
 -0.0005751039378131  0.3360770520652608  0.1678907078195393
 -0.0025803496156475  0.2534123730461666  0.9206007010672084
 -0.0001354456891210  0.4191027766546325  0.4154471474205411
  0.0825395457794287  0.1690529521805075  0.2509920244754864
  0.9141607843281850  0.0851131647319757  0.0033798934036989
  0.7479254854716393  0.6673976810505092  0.2498843589338133
  0.3333258126602087  0.3358792998510043  0.1673555429317016
  0.4168559998463154  0.5008192354966143  0.0833444885970130
  0.4174491557706786  0.2526991980676896  0.1672438730096733
  0.4187188136090448  0.4192386624909540  0.4999573216565105
  0.4176728762377580  0.5025483020653201  0.4173012474614863
  0.3364543686799463  0.4185347637681941  0.5840743310357774
  0.3341509192689273  0.4990407541213652  0.6681419867766830
  0.2512811052130429  0.3371248147901310  0.7528925613566114
  0.4180351340135335  0.5839105784958861  0.1673279774724617
  0.4178080546763820  0.4197646548606103  0.3336254580592622
  0.3325767653320834  0.2523692180133509  0.0852649957864439
  0.4217656791309426  0.0859107757535430  0.6679695169457059
  0.5009489638254607  0.4185464551478032  0.4169247840867374
  0.5824856785102460  0.4188775003241617  0.1659468369170927
  0.1700633027621489  0.9298252121375772  0.9429022835774231
  0.3387688335382347  0.9145216160702659  0.9175140809012792
  0.4221379942065162  0.1712955085435134  0.4149088537446791
  0.4213585212891235  0.0874953667281290  0.4990554171109676
  0.5005042123774148  0.3366983624689231  0.3322063261571532
  0.3380746228597868  0.2570467498984841  0.5829032305116957
  0.3320590189286431  0.3350855248753397  0.0017241873970357
  0.4154413332443431  0.3343697922710743  0.9183129518245532
  0.5828379159947946  0.5014112150258401  0.4168075439369764
  0.6660805883716479  0.6677733782423726  0.3339856857643217
  0.7498857063477963  0.2526617742679705  0.8367257576410680
 -0.0064650231278829  0.3380628522607021  0.6676621629509560
  0.9125325349360369  0.3377898077189829  0.7525855564267457
  0.8312841540251888  0.4186531545731207  0.7520591265105702
  0.5844133110814678  0.5834211501115010  0.0001209079156659
  0.7495843298961862  0.4188969903832540  0.6674115471286098
  0.8322399206863306  0.4180213260015864  0.9204757828974697
  0.8307807584615498  0.8339450524161848  0.1671050600408315
  0.6655171634107842  0.7498841486670332  0.4167363159754033
  0.7467022844230993  0.6662325191905635  0.4180313716994619
  0.6651857572191361  0.7505373892384291  0.2510418460741758
  0.5836044027327223  0.6671658272480819  0.4170034769689445
  0.9161164725267754  0.4182407340965702  0.4983039247019139
  0.6660184672209108  0.9178165723271875  0.5829514553410335
  0.0744455104802506  0.0053688793080641  0.5939462183310334
  0.0675780346242602  0.9207954137045081  0.8299505202069706
  0.0778667025682206  0.0021880251717581  0.9267359752172400
  0.0784567201715035  0.7476581793430098  0.8334144980889775
  0.0815909993607110  0.2518105055314166  0.0027692313223755
  0.7469523512836135  0.3376321682106176  0.4162301198409234
  0.9149185674862799  0.5827312741553330  0.6661746386528501
  0.9137214604888463  0.7502168169722679  0.1674064182397732
  0.6663156523556728  0.1689320433679862  0.8358860227845022
  0.8297095855714663  0.8329272305734329  0.3338482768483900
  0.4169177999608920  0.0860976229190031  0.8346668491468602
  0.7476944459658753  0.0845692847041299  0.1663893748002477
  0.8321168045789874  0.5025351771525035  0.0022269090239164
  0.7493529313544973  0.1688941800771907  0.9189359942622911
  0.6654877322287807  0.8334333275395148  0.3341498973267710
  0.7476119415974550  0.8330880887264496  0.4168272995456405
  0.7471056338597258  0.0009461700425011  0.2500073108002026
  0.5838430293117907  0.9178839271698614  0.4989227685496000
  0.2447389984123107  0.8999297589212634  0.8473050721229576
  0.2496285072801999  0.3353957970093787  0.0850193762511129
  0.0752144702131533  0.8325404618753742  0.7509175621622327
  0.1656258210478833  0.3352953200088698  0.0024676140692852
  0.1671622956776141  0.4184818494077350  0.2512382395747527