B  Cr Ni
 1.0000000000000000
    21.0795331378408193    0.0000000000000000    0.0000000000000000
     0.0000000000000000   21.0795331378408193    0.0000000000000000
     0.0000000000000000    0.0000000000000000   21.0795331378408193
 B   Cr  Ni 
  17 259 605
Direct
  0.2393844116307672  0.6228813600447052  0.9070079918480057
  0.3341951210034155  0.7434488530077004  0.0036591719287055
  0.3998033078623608  0.6327182248201707  0.8249549556944088
  0.4176686822354643  0.5887275799178772  0.0813438737779983
  0.6512730731027512  0.6732549082516097  0.0898164308895926
  0.6605812533836389  0.5944852985688153  0.8471960428014490
  0.2354712450238182  0.7076838623799954 -0.0893910024434683
  0.4145418873879821  0.7440038742868501  0.0819085464870752
  0.6839250871836271  0.6549271315624506  0.8991915783913657
  0.4030185541186078  0.5439860182422722  0.8207437148223128
  0.4930588649759393  0.5076794162643171  0.9216433518075937
  0.3382724416356168  0.5897418155360026 -0.0022066796950636
  0.5017868169935931  0.5933317066973421  0.1667757925265638
  0.5925790830958542  0.5412686127746462  0.0188195978708665
  0.5936558007257871  0.7332985205982847  0.0757801983576089
  0.5002950516903486  0.6592647539474111  0.9229100742458479
  0.5079328575155253  0.7399430081894831  0.1693082635137143
  0.4171917311608323  0.9192175824389194  0.0004625163340832
  0.1635083179837718  0.8409132153643959  0.8311679847602567
  0.4166925787668912  0.9185038355699094  0.1711080472724260
  0.5017233553699447  0.0830925474118740  0.9185658827119902
  0.4175512782816111  0.9232432781502533  0.8307859582785022
  0.3329956331264811  0.9198967105554546  0.4193320824344882
  0.4161141948878868  0.7565573643345753  0.6619533502654860
  0.4142142797915049  0.8391482986658090  0.7475722757715839
  0.2484349217533915  0.0030048141731136  0.0853165016964434
  0.4827671682958337  0.5849359007174585  0.7568677077772240
  0.4177714143091902 -0.0001896024713646  0.9158621965704312
  0.4160904821513942  0.8369492423518197  0.5844738584020721
  0.3400982038276635  0.5815780995723717  0.8972004668944736
  0.2497796454309059  0.9193619361708804  0.4998512468781445
  0.5025931743088944  0.1666894596974791  0.5011708072293809
  0.4152074435397916  0.8397042711842281  0.2552550165080583
  0.5838522749397352  0.0857886748755691  0.5009832246454736
  0.4036890747731621  0.6785180794002145  0.9217683121098557
  0.1738915590036295  0.6662134365815832 -0.0055253710945349
  0.4982852778062141  0.6796842622127465  0.8259585572723381
  0.3085166453983728  0.6744602712098124  0.8434129374191434
  0.2492294519028769  0.4992302019090458  0.5852872079476489
  0.5873284732165911  0.2492806007941162  0.6688704054280639
  0.5827004724493073  0.1659998514429549  0.0853525597018318
  0.5814028389392593  0.4988801110091586  0.7522167821491786
  0.4986563533641372  0.7519107565449942  0.4168151392968651
  0.4986506627385120  0.4936813293219551  0.3429696956611037
  0.6693536903096164  0.4988052883047139  0.3399120538162941
  0.3344259577445214  0.4998442365550372  0.5030917865417660
  0.4993171609928725  0.4899487057776379  0.1713844289086928
  0.1658259263625815  0.6663106787535520  0.6654181389758537
  0.4186502441148491  0.2485021538654293  0.6660682687026709
  0.5847201950170899  0.0837234625702408  0.1677091558433596
  0.4181523708652604  0.1671510378945824  0.0859316438922542
  0.6683725792169566  0.2493461473626734  0.4191193198136419
  0.5873110222846003  0.3304349051866698  0.4202543922651540
  0.4997260235725031  0.5002959317002834  0.5034576410848645
  0.4164095672602954  0.4123072936248828  0.3382507733651992
  0.5875976472115197  0.4075261923816502  0.0066371615042289
  0.5859642034323918  0.3309893856014826  0.0867484281252414
  0.5856122046895312  0.4141603479504972  0.8335622018341671
  0.4164005734268861  0.4109772127140340  0.6639023321491452
  0.5027158954076673  0.1680476591175201  0.6675823524271538
  0.7514162888220981  0.1674230200102534  0.4176787995080700
  0.5860367406902487  0.3329848843984656  0.5864130148201145
  0.6683734802573447  0.2497108132214899  0.2522639701945052
  0.4141658907830108  0.5840196056647762  0.6663483866249060
  0.2443759008119098  0.8417614891007877  0.0878544788241916
  0.2430702407412428  0.7625282216894272  0.8270188837208781
  0.0808905218470302  0.0028251844710649  0.7496391770536657
  0.2470702185726380  0.9224663045186424  0.6646795575811515
  0.1640501028472446  0.8368317146715735  0.3359021632172333
  0.2502509030868034  0.0861118445264070  0.1684758696458190
  0.1646409519444008  0.7511028736543477  0.2527747454525443
  0.2504908732296969  0.0854485933926356  0.0005899457850366
  0.0853081952194443  0.7523770715308921  0.5004026193050228
  0.0812330517223559  0.5834174745678364  0.6672356290507595
  0.1647370211218500  0.7511010453558253  0.4183294693210998
  0.1671274733592888  0.6662745924133535  0.3356667470834480
  0.0032054058985393  0.5828428455681229  0.9170146753406088
  0.3315262650939430  0.7511028057620045  0.4178800901463959
  0.3380193715599035  0.5855143882235142  0.7535649171357790
  0.0838904656950603  0.7511860524210117  0.1699333525093767
  0.9152441909721778  0.3340980837824151  0.9184779979876090
  0.4135782195179877  0.4109030925003600  0.0032389984847661
  0.2483593341856199  0.6673919944271971  0.5849044112449487
  0.1669413119933048  0.4974084032361897  0.6658344078275141
  0.2485742728102527  0.6683746555085829  0.4201764808424979
  0.3341491357164198  0.3304290813164479  0.5022375472234811
  0.1673581654720124  0.5839649702696420  0.4199319473946629
  0.1664486498302902  0.8365082387857972  0.6654526272870500
  0.0810585747192740  0.1687347091109895  0.7511626841574228
  0.5029856157759530  0.0822150959480449  0.0855194634523996
  0.3314501102587067  0.4138024999452065  0.0839369403487850
  0.4099160095991372  0.7586967153440434  0.1833373967082330
  0.1662258788066887  0.4160038417939243  0.2525095456372451
  0.4169362097934953  0.4145125875089493  0.1715896223601829
  0.5009301210711079  0.1664686869641303  0.3347394080270121
  0.4130423622540604  0.4076934928375647  0.8305980197349060
  0.4996451391677912  0.6688277480499518  0.3348786507189601
  0.2482586192252064  0.2494477257835886  0.6683734253270265
  0.5018606378010697  0.2484041724194024  0.9168544009263531
  0.4164999820039055  0.4996773601158540  0.4204336083585613
  0.5017027351805504  0.0022362019263655  0.6666066513290226
  0.7536571505263792  0.9199126241789398  0.3376289754986526
  0.8366898237068979  0.6677336910082563  0.1712496965363079
  0.6673597879493925  0.7523622175952530  0.5853945794919529
  0.5857137901098313  0.8375608641106020  0.4210235486856104
  0.7523514449021909  0.8351728720169525  0.4205683436413236
  0.9177385742729959  0.9194692072225974  0.5024272266814271
  0.4166838847798329  0.5842641769859503  0.5010680725888942
  0.3340944127772340  0.1666349536692068  0.8343236969478011
  0.4171232661843425  0.2498575941592390  0.5009293010840401
  0.8389934315997187  0.8372787212654089  0.0008879912263487
  0.3352296516078384  0.2497954083499289  0.2528178570974322
  0.3341942125834115  0.3306339471372071  0.3364784829414181
  0.9184945328716487  0.0034267736796174  0.0860278315922069
  0.3339052516960113  0.1659964687999352  0.0008861092323458
  0.5777302379076907  0.6668508690008644  0.7497292317848399
  0.7517681983604417  0.1686436380131172  0.7523093210563395
  0.7524139084655627  0.1659758956745553  0.5853499632369175
  0.8334088956363329  0.0858771964547785  0.5854694998683759
 -0.0011312737884619  0.2514969536349199  0.2516254701197805
  0.9199097684370916  0.8360199957570413  0.2526219192685530
  0.8339889985835401  0.1661409456477274  0.3354308270493001
 -0.0003238091340363  0.9204994732839242  0.7497054157461330
  0.1668586943149189  0.6660357975362845  0.1681293538028074
  0.8347356631768764  0.1661823208879296  0.1701418261095263
  0.8371228414480798  0.9199255885599444  0.9170553486877902
  0.0000340484840507  0.0035847938709774  0.6667375450622374
  0.9178896206030155  0.0028673399471535  0.5840136092605313
  0.1667635290008554  0.4145397993638711  0.5855023606121418
  0.0007105710456775  0.0863771826049704  0.4183800278253257
  0.2490101119662771  0.3290088044723818  0.9166890774629101
  0.8330297924220773  0.0868177293672368  0.4178850903400512
  0.0818135607907385  0.2505451712457390  0.0010685351846815
  0.9183641636246922  0.0031538744512797  0.2526162775578275
  0.5848323917791941  0.2493805856035330  0.0016146592930881
  0.8358393038533607  0.1673037322136373  0.0027443279047521
  0.7545717657550782  0.8354862735145010  0.7481165037754474
  0.6723390065575262  0.8349477079854141 -0.0022203959530764
  0.5898572891105931  0.4839824155898458  0.9203901983532013
  0.6697029998132468  0.9213275465924361  0.5832148530746041
  0.7527481120517170  0.0007237279954103  0.0838268572503319
  0.9155328813164553  0.2517635891531982  0.6682635999558258
  0.8348128784184682  0.6677862391631940  0.6672897321442115
  0.0040566050578529  0.7516507172721376  0.0869423894087517
  0.9178107305080901  0.3326224910344426  0.2534067049497044
  0.3327709826875507  0.0841820504800547  0.7494947648890176
  0.1658931462471706  0.2511353560766726  0.5846118557706816
  0.9202544198684881  0.0007020524807251  0.7494189090091604
  0.0852791442788602  0.4991794524155124  0.2532480265542565
  0.8352037667495937  0.3334075154337711  0.3368144813236803
  0.8342516341041895  0.8354601542600874  0.6673910325105693
  0.9176013720391700  0.5014164875366085  0.4204899629268559
  0.8344368548106886  0.6680446533145016  0.5016294279759913
  0.9197926608853970  0.6670009329058656  0.2532848956048946
  0.8368149442964337  0.5008820702055646  0.1694006777601248
  0.7537902836256625  0.6666530700341972  0.2574041114844274
  0.7566646285264323  0.7512862906497569  0.1745531575953440
  0.9181878646576451  0.5833884343265442  0.6681958444586089
  0.8345126296073136  0.5017851100313906  0.6696867797914074
 -0.0015118886432701  0.4171339181235714  0.5859658554011434
  0.8342221793730196  0.5019589492587834  0.5019774178898839
  0.8333207179362020  0.3342329842251505  0.5011702403678029
  0.0010650955863395  0.1672935265712853  0.0012497262859711
  0.7546700645775359  0.9190643145005918  0.0001890971772030
  0.5863241030247439  0.2480953896497392  0.8351701560172978
  0.8330574399237191  0.1668766039133700  0.8338133579009448
  0.8362783307883400  0.5003295473096870  0.0021038306909786
  0.8336345142596531  0.3353714676790184  0.6680597682061623
  0.6674098662295290  0.5760159589899235  0.0883075192345003
  0.6675979502179310  0.0832254022268651  0.2506139299231685
  0.6682340950407053  0.4173834941807379  0.5870801664688728
  0.4178188128161718  0.3324631135174617  0.4219274949811582
  0.6681344791990910  0.1664577130509122  0.0024489919824856
  0.5022909734578078  0.1678492744451396  0.8346520353323734
  0.5860760783533315  0.9204129127626648  0.8298309322974188
  0.4975202294152896  0.5834071636514104  0.5855202839181384
  0.7533291605434401  0.7531795211642732  0.3378245166678015
  0.7516620373495769  0.9191253838488918  0.5012898430950018
  0.7502879085538305  0.0011398032508485  0.5829362541952496
  0.6704905793957900 -0.0000452138115695  0.0009121571437854
 -0.0009502223239010  0.1692643840578939  0.8339688573250389
  0.7553585982983027  0.3320675355974790  0.0852330920235324
  0.6730640532379267  0.7579176110397725  0.9115255972607637
  0.2463050492580982  0.4932033287763438  0.0861510857433564
  0.5879709740825190  0.9169630897164522  0.1701145777374103
  0.5878900119438375  0.8430132024456519  0.2552791197215343
  0.4989532711072062  0.7526450121972361  0.5854790753775085
  0.6741254493353485  0.8441416801778280  0.1727940105013222
  0.9192467953516831  0.8368129823633610  0.4207137836513890
  0.7526960011869434  0.4176970077658505  0.8356911460828432
  0.6560396909252848  0.5758004334061095  0.9436344665604882
  0.4086695569867817  0.7502397135207962  0.8332336701314118
  0.5824747230230061  0.9190736044886363  0.5004516858610242
  0.7521793790758335  0.3334066461533851  0.4191775717361409
  0.7568238111737301  0.6680001162379563  0.7456269732445530
  0.2484744516948779  0.3291376622791744  0.7489705249159415
  0.6678360775749348  0.5841092262244895  0.4192161758973189
  0.6673164919296954  0.6679169739957264  0.3384117676519557
  0.0028830800911880  0.7514238081476681  0.9194612290725429
  0.5919140538699471  0.6675973381511231  0.2581049392838963
  0.7627740253389546  0.7578422197914683  0.0025907382751916
  0.6825530089885230  0.6859866376490900 -0.0071714658144783
  0.3333047728566229  0.0858419281251361  0.4193449357645117
  0.6665012656311448  0.5841358025838029  0.5849029139132581
  0.6666776566179540  0.3342550726210664  0.6676548740120056
  0.4188662848881756  0.3305914425261054  0.5839676449864372
  0.7541349374139821  0.5848566207733703  0.3365192821500386
  0.5852524877234175  0.3302529092172866  0.2543330140538175
  0.9192184877898760  0.5840442614338680  0.3349979998138552
  0.6678978076651028  0.1677983508996096  0.8368947752393089
  0.8358576296052769  0.3346705818232131  0.0028893381280567
  0.1662545088925716  0.3336782362196776  0.3375199999650358
  0.2485106450994368  0.6681999647215571  0.0816976674918261
  0.0838035806940261  0.5824475771488393  0.5030466253926760
  0.0822883468651411  0.9206141097705597  0.1698810902532482
  0.4152898563852134  0.9207912572379500  0.3372972093097980
  0.0826287768832449  0.8356500928749006  0.7495093140376050
  0.8358963126409835  0.5819492557587069  0.0885902201122894
  0.9201449201636919  0.8352831347306994  0.7504249070378178
  0.4175202803767188  0.2501007300712318  0.3371321521955836
  0.0006991784453738  0.5841768607330216  0.5860013467773951
  0.1660826666294104  0.0032372078472181  0.3350781015871635
  0.1653739983424203  0.4128281958222949  0.0853331381561017
  0.0009123708540103  0.9208426880675156  0.9189200129911932
  0.8373479288443382  0.4160624698868167  0.0867349495306075
  0.0838731446121829  0.3327337774592243  0.0855033208575705
  0.0811307579616337  0.0877700129422116  0.0012402505846208
  0.2487852905452305  0.4956188855477781  0.9136781573057478
  0.8391027043949377  0.7563656380838760  0.9162252889268482
  0.5000001184511043  0.7582716495683232  0.9099438165206443
  0.1730131368646504  0.6687548016105305  0.8388376313725373
  0.5016192269260621  0.9207974051822716  0.4210243496326555
  0.0007553146501693  0.8354674374383244  0.0040336278834102
  0.6724509108080780  0.4934566996654548  0.1724906117947671
  0.2470057823512199  0.4953341604483795  0.2531439544199236
  0.3261006422213474  0.6685485515142918  0.3418694827911135
  0.1664909348128654  0.0859510891767380  0.2511471464455482
  0.7513466272351823  0.0020844192799069  0.7519222175777297
  0.0791529871579837  0.9196652878243704  0.0004744192752329
  0.8384011248766023  0.5805186284911505  0.9212648509930820
 -0.0011918069244412  0.9194648671984935  0.5846360905638345
  0.7513966241008492  0.5015738196867197  0.4187358905263858
  0.2487888730653074  0.0037042992779479  0.9176262805755417
  0.0002582621091510  0.6669229278730029  0.8354690190047664
  0.0838172967012948  0.5824107157173206  0.0017494622522814
  0.1644015318421185  0.0033524395486421  0.8350404913972828
  0.0018355266539861  0.6654323307822938  0.6683302742408619
  0.7501135801234721  0.5850840429378189  0.6696530842154496
 -0.0005281999341863  0.1690771508465881  0.6679779570821864
  0.2495487344422227  0.1661417813216816  0.4183636153961422
  0.0825541794787180  0.4135942940149642  0.0020179829509795
  0.2501637611036249  0.2493515880606582  0.1702406508628161
  0.1662107069372326  0.1672882622252631  0.1698842550689159
  0.0840466017946518  0.7520973786690680  0.0022591048775920
  0.3332373897738461  0.0845781434700696  0.5864346986874273
  0.9170349482791753  0.3339380300445874  0.0855594215778540
  0.1654747111566607  0.8358922859681382  0.5005895239380792
  0.0838647158183388  0.0865647156753511  0.1708534002768541
 -0.0008040170842080  0.9195333726319657  0.4193487873761784
  0.3329121054352627  0.0846720468268694  0.2514583407020390
  0.0833931824980259  0.7520943941724531  0.3355509220276712
  0.1654894090409921  0.3323344755596018  0.5022171280241825
  0.0019467347053147  0.7520334955109031  0.4183148811979194
  0.0013081274050328  0.7500853916123333  0.5837368709424187
 -0.0016895855809507  0.4170392651841973  0.4192635152999967
  0.0814031891014173  0.3336658725096457  0.7509223558060582
  0.2483266862138742  0.0849703618798770  0.6681140866563489
  0.0829981373400142  0.1680474785294063  0.4186773410242948
  0.2496255387502551  0.1656884400258805  0.9200941738361128
  0.1663055961046075  0.0861937800898003  0.5853306836173341
  0.0026332907541747  0.6661445921018118  0.3347942880292373
 -0.0002892061706845  0.2498709035811012  0.4184901411287680
  0.3277384300391727  0.7668618001522761  0.9094020883904836
  0.3329687364403691  0.0041494989718088  0.6654061453310188
  0.1672973062694914  0.4153026502041567  0.4191880436432722
  0.0820952643765319  0.4136489909718926  0.8327596781058976
  0.7579569628844328  0.8401388744726649  0.0860504589143512
  0.5910052476190097  0.8376068617280319  0.0821961843862070
  0.8353198513994838  0.5833973724968587  0.7524487281372099
  0.6697236804372597  0.8376084668705238  0.3378414375075413
  0.6640171617107927  0.5842571868694312  0.7524166057908549
  0.6664565478837717  0.5022187038895722  0.6692165655534602
  0.7541105549362330  0.8366280454155384  0.2555954683448735
  0.6676161091699390  0.8356880509688691  0.5024780369805831
  0.0013043157835225  0.5002615268311671  0.3368363905519485
  0.9184557644652438  0.5836787190398900  0.5026110708790915
  0.7551911206882450  0.9213327933307831  0.1699273154140123
  0.7528906033759603  0.4994290690058859  0.2546681547962597
  0.7519899786810800  0.6682399627911970  0.4194549171898073
  0.0833085147502817  0.4989713635783299  0.4199495857655111
  0.0008198448268404  0.4994081714143295  0.5026690544448392
  0.6672261368994169  0.5011296454557425  0.5025203661907238
  0.5856241805267745  0.0851251828103728  0.8351621378858721
  0.6694008138671689  0.0851786677402690  0.7517703191278977
  0.7506177120130045  0.5022662409582590  0.7531795980522821
  0.8353126756321497  0.0015911520022899  0.0017804752594511
  0.8333157383435261  0.1682906296124450  0.6690036990097930
  0.6658816593251807  0.6675313905562841  0.6688037693013764
  0.0821126257980509  0.3327245049767673  0.9186100999645844
  0.7503138749379420  0.6672343903135106  0.5853699594090745
  0.7522122381357804  0.7515771013471336  0.6657868311495512
  0.6668276735066335  0.6684096495645984  0.5026416102719411
  0.7515557442615832  0.8356295136596905  0.5835923307025827
  0.6718651400515743  0.9217295024697163  0.2557681330868483
  0.0010173556431719  0.4990189161087698  0.8347492397262545
  0.6686283567623306  0.7523649289067020  0.4195610312332554
  0.0021940436269611  0.4993922358171460  0.0019860907725742
  0.8372139897004219  0.6682909711734211  0.3369882505483695
 -0.0007692869306916  0.3338557025950102  0.8348405410770530
  0.0020936654747768  0.5825093366634733  0.2520691948324467
  0.0033286054990094  0.5831775771433521  0.0859001860877009
  0.6691694868979940  0.3300848023483727  0.1707563346189396
  0.7509442722906682  0.7513819121797862  0.5023991660351416
  0.6720264851252475  0.6664369899812842  0.1785376019641588
  0.1607972966656828  0.5756677840253198  0.9158301327734206
  0.7515780007229088  0.6680221881507762  0.0880602887858810
  0.0027555428750651  0.4991253034528149  0.1693332694165871
  0.8376241513189527  0.8367390913365351  0.8320142535690123
  0.6809767681367771  0.7617335769719424  0.0888502829847519
  0.7529481290893184  0.5892699067147321  0.8379362360280509
  0.6696045050087269  0.0014791134974556  0.8339557588446037
  0.6675718298848489  0.0028873027665401  0.5000088338465620
  0.7540191054853034  0.3322855459832709  0.9188705523981622
  0.7695409300682886  0.6705870994605382  0.9200788147061792
  0.0829703212209844  0.4161511533586975  0.5020602968368270
  0.0009618213615274  0.4171026857653317  0.2531695981761311
  0.2502805242453425  0.6663864594933064  0.2533060977590179
 -0.0018966709921987  0.2516698885588595  0.7518345886829206
  0.7519632560976014  0.0839780930740404  0.6687143222314378
  0.8347550410023146  0.0848822083614967  0.9182254349790484
  0.6687989042836303  0.0847373827614203  0.5852793417488453
  0.7520409182596317  0.0846150765203860  0.8350472374187409
  0.0027690859217856  0.6668078411728003  0.1690547204462880
  0.6690637515840729  0.2487856705474076  0.0853471356813501
  0.7525218843292472  0.1665817239415526  0.0852325018059830
  0.0845677256584167  0.6673371806442406  0.9170472820721042
  0.6681131537020187  0.1666041772481103  0.1683066691087854
  0.6692395496521609  0.0841170526478604  0.9187960279747555
  0.5852004335732673  0.2491098711022662  0.3356507106717955
  0.7511285729201466  0.0845483661039280  0.3343754894331730
  0.6683834535322937  0.0857794119659803  0.4182727027621533
  0.4987335903852569  0.8344145105420645  0.5012713496440560
  0.5906225910678051  0.6741192742223681  0.9048745560548810
  0.5845059195220164  0.8399549344917826  0.7470980625683676
  0.7544723910319998  0.4984642018751290  0.0878952376971691
  0.0831067025729856  0.4986083668467717  0.5845885367677780
  0.7520103572445905  0.4161174842235058  0.3368155591312298
  0.0845009980969217  0.6677693552217236  0.5834249650551596
  0.5004160061799980  0.9209756616792126  0.7486075585459639
  0.5852274790791711  0.9210929738381641  0.6653930503353020
  0.4180916428106283  0.0840812081900759  0.1681559077700485
  0.7519001498286503  0.2498135323792493  0.3353019800154291
  0.6686445679002733  0.0834297746664103  0.0853115604517280
  0.6689045452424569  0.3316572343490334  0.3368360958543450
  0.6690230495994458  0.0004934351519657  0.1689005676913228
  0.4992018050862341  0.8379591379803816  0.8291573098309262
  0.8365774204169907  0.9192063298842698  0.2532102099262707
  0.5862358351857988  0.8395057618690687  0.9117451842250820
  0.6683435018947760  0.0022321696265448  0.3370083308123523
  0.6699407129743415  0.9204061896409277  0.7488112731376637
  0.0846805709263798  0.5826318194885860  0.3367334853641505
  0.0012046296890191  0.5833398196407765  0.4198349472650129
  0.0862297772557621  0.6667513696176112  0.0832391620246353
  0.0838098293335907  0.6657477524243934  0.2521693274526670
  0.5024524298797315  0.9212105662797756  0.9135071196524315
  0.7519648180666624  0.0844649257191608  0.1684359533326895
  0.7516103839857472  0.0022814414806018  0.4185511114709256
  0.7514559405991424  0.1667927730022261  0.2520192317812647
  0.0837834617502556  0.6664739050447571  0.4198798449785607
  0.1651570883987374  0.0040562382541161  0.0016587718111745
  0.5911566899746521  0.5698893719761586  0.1778710267252955
  0.7511002960334220  0.3349293233474352  0.7517923286844618
  0.6725252037951326  0.4117762746028102  0.9183779696145721
  0.7501878700135522  0.5023313099297660  0.9213917731458651
  0.6717429418428660  0.4887737330390212  0.0085629320653247
  0.7537587669725395  0.5846338220483568  0.0048228221975303
  0.7531612422864379  0.2493224241665891  0.1689850414195114
  0.5026531059225853  0.2490670867344826  0.5846848076817258
  0.0017524826630594  0.7515942930577335  0.2521007851920889
  0.0824268259368427  0.4159069666456551  0.6677418994703919
  0.9195427103956864  0.6668009182426112  0.4193157753030349
  0.7565981509362580  0.7537700229327533  0.8319306140210387
 -0.0006564439080082  0.4161791356540409  0.7513753937963585
  0.5013191038647966  0.3313371524948496  0.8343823827131699
  0.7511696752850103  0.3349527943044273  0.5860061589476852
  0.3312778881408847  0.6687900386033695  0.6655898353505898
  0.4158624883254249  0.6678712609839204  0.4174746734031967
  0.5851245864552366  0.1668732795612884  0.4178779505063429
 -0.0011934286600933  0.2510232336445067  0.9179636067667459
  0.0832096307187657  0.4157746883041541  0.3366792368483090
  0.5839084994529988  0.4998169802063232  0.4206004014792409
  0.9172770272165154  0.0854863582370437  0.0016340130784290
  0.0816934063334924  0.4965231504412945  0.9172859053191759
  0.7532816422649018  0.3319990159016426  0.2534938756593309
  0.1662575728357911  0.5826404022762829  0.5847244348218638
  0.5853048871699681  0.1671315380423147  0.5853198957163561
  0.6719348365462241  0.4100671143357761  0.0899781102803950
  0.7514628658368735  0.2503905049622460  0.5021713790512119
  0.0009662922430621  0.5836598159944675  0.7517693376976282
  0.6693275678057388  0.2502552450623187  0.7522308697715119
  0.2494139495240817  0.2495455777642994  0.5017038202255986
  0.7522846838853747  0.2502982104144205  0.8357919020373030
  0.6685661574510882  0.1666970598308527  0.5022143561851866
  0.6705383562770746  0.3306059582857481  0.0026073266023561
  0.0027420668316122  0.6675430413893415  0.0015867220345498
  0.8336900125335843  0.2518849182234966  0.7516987531954907
  0.0825450459226439  0.4991006499221968  0.7500654025906912
  0.8386747276890880  0.6688300839112823  0.8327707436018392
  0.8365574009714769  0.7516955085544604  0.4189122886226549
  0.9204608796619360  0.5834541562259715  0.0027407406800678
  0.8370688229450545  0.7522795283740354  0.0890565544051244
  0.0014080370866716  0.8362680010842138  0.1690076782771378
  0.9187112989098750  0.7513404556904373  0.5018948204271459
  0.9200090757407214  0.7516726275485138  0.3360131651696438
  0.0815102810066286  0.0857532785089392  0.8336569279418115
  0.0009576853360344  0.1684378571188818  0.1694112468200822
  0.0816973213163009  0.0041658492022499  0.9180290239279753
  0.0000829924973160  0.2502641096982476  0.0854353878485513
 -0.0001075030135850  0.0027053550865618  0.8333581530406410
  0.8347428952864470  0.7508384154500316  0.5843717336352238
  0.8376186379931745  0.7524844559507140  0.2554488093565274
  0.0016690375057475  0.7508131356972577  0.7504384241175717
  0.9195331785208645  0.7511367351383714  0.1702863157136504
  0.0006211453490338  0.0035930172115115  0.0026906976365823
  0.3326042120131056  0.6681343781716275  0.5020780529749026
  0.7525113321608509  0.0029295221705203  0.2530200984596422
  0.8342643625391726  0.5846409895306264  0.5858890229959424
 -0.0008556188250453  0.3344076390846422  0.5018227985896898
  0.7520112161239270  0.5821066507462321  0.1713476047008850
  0.0000392213237637  0.1682988763366847  0.3360201719359698
  0.0834780426450957  0.2508861040126281  0.1696373601668452
  0.9184344862074968  0.5841929148070314  0.8359895853619606
 -0.0000579065205173  0.4999768984532480  0.6678296054937303
  0.8332222717460581  0.5017828901411695  0.8368941996921931
  0.5007970663976968  0.0035119263292066  0.5016146324023506
  0.0832113290738484  0.9187389417695195  0.6664527202473000
  0.5851046958141297  0.1655932126173399  0.9204021052953646
  0.0002077236287811  0.8355649729853136  0.6665006541071928
  0.5010484346199680  0.2493347890348105  0.2534711627698520
  0.5854090510683102  0.1666164833513598  0.2514488970362675
  0.8379197335160299  0.9204953145754505  0.0865530424353556
  0.9194636514570658  0.7509478172264483  0.0025068941518651
  0.9186221655415919  0.9189641965767490  0.8336910396661571
  0.0824947274292061  0.1688192764512078  0.5846886318589892
  0.0826335975964192  0.0027259935974071  0.5841939194921121
 -0.0007207021545818  0.0859388675854905  0.5854087781418505
  0.0004790400685816  0.0036222570136897  0.5015105840776847
  0.0827898081680684  0.0853907156906259  0.3353899028592630
  0.7517098940393989  0.0007879547136351  0.9193345851090569
  0.9172410626595545  0.1676792061874558  0.4187387445557224
  0.1651935208824181  0.0043946409120818  0.1687931735290881
  0.0829911822938220  0.0029122936040034  0.2526387152625574
  0.0003654409317711  0.0852544659763293  0.2517351104806044
  0.0003507659123465  0.0026256496513077  0.1690565259310911
 -0.0006474770778399  0.0860252639554315  0.9175158085321338
  0.1653365554632645  0.1672425960991015  0.0021874098914504
  0.0004307061212276  0.0860168562786137  0.0859733790152437
  0.8348549771961078  0.2495647269587511  0.9189311490318132
  0.9178285794912301  0.1681697495665787  0.2523933544535009
  0.0814042252537592  0.9207511416937332  0.8337072301092111
  0.0824112904994323  0.0865185974591790  0.6678263732420852
  0.2467490300575437  0.9222953060282714  0.8322827023145588
  0.8369607071877544  0.8356108059425602  0.1718371769225730
  0.9171238206120869  0.2503589535100798  0.1689637401872255
  0.7507388217584550  0.4189788855584901  0.6691991882413065
  0.7544207928693517  0.4143372469302333  0.1711557593542504
  0.6680314538245993  0.4181774340578271  0.7523216575688217
  0.8332500246273109  0.4178117084211788  0.5852795644828438
  0.9164694006412483  0.9180086831067134  0.6664687057387423
  0.8354300742363565  0.9191226489157978  0.4192203170059950
  0.9183762718997509  0.9194711337218373  0.3360479419270593
 -0.0008121102677973  0.0861816261357318  0.7510522326999441
  0.8344323210315562  0.9197882181377218  0.5838416921759789
  0.9179319562094316  0.8344415215907868  0.5840299448531849
  0.8370329852725557  0.8364144336326937  0.3371466411532251
  0.8369232526145809  0.7525604945243424  0.7495009287966987
  0.0000279841871701  0.0027752670332891  0.3358002547192940
  0.0816347415078659  0.2507136739934872  0.8337866333216771
  0.8352037072405761  0.2503713418715428  0.2526235440215199
  0.9186333339447516  0.4174536964406740  0.0017912744156921
  0.0004717844917041  0.3338445559791888  0.1695410757543359
  0.0011018737952237  0.4152023265078609  0.0854452855885843
  0.9167252989572443  0.0859552679572482  0.5014992734898098
  0.0843020567347022  0.4977201301303688  0.0846176459136944
  0.9168116974640707  0.1686458008884857  0.7517638662806895
  0.8341354737206675  0.0845644728118196  0.7511478642915018
  0.8347172469311742  0.0016262847689628  0.6673064319280178