B  Cr Ni
 1.0000000000000000
    21.0489060624779860    0.0000000000000000    0.0000000000000000
     0.0000000000000000   21.0489060624779860    0.0000000000000000
     0.0000000000000000    0.0000000000000000   21.0489060624779860
 B   Cr  Ni 
  17 259 605
Direct
  0.4064500328156342  0.6595864917047635  0.9967861640629849
  0.5771514844769191  0.6679786475473078  0.3250342541227152
  0.3478802854177472  0.5179525468454226  0.0711355345980696
  0.5887787927277449  0.5065345041802419  0.9972441276733250
  0.4988256478878257  0.5837040504521264  0.8669121655033762
  0.5265503250784667  0.6049421456774676  0.1657829497579187
  0.6812636128082465  0.6484343825884874  0.9049631010474319
  0.6836758806378662  0.6246335190558985  0.0946632585788202
  0.3501513147887840  0.5845350556219691  0.9992634750733417
  0.5884984063864337  0.6600257690546943  0.9995555725574613
  0.7417589870600477  0.5990006466711727  0.9395194279491064
  0.9182303095370541  0.5029124496148548  1.0012885737617754
  0.6812296557481403  0.5378258712247345  0.0964306939066102
  0.4997593598312900  0.6550931734699974  0.9164810480205090
  0.4882459333183565  0.6463026912487203  0.1011976467979445
  0.4087150094543929  0.5127509578148504  0.0054552932952788
  0.7490385596798624  0.5006680129410123  0.8355628195615419
  0.1655911454881969  0.6695414531092460  0.6667816125022941
  0.9999980721803541  0.0862244653127102  0.9181217212776754
  0.0822312181068430  0.7544976851920464  1.0015293188804284
  0.4159600279544008  0.3365663715817310  0.4198773542554295
  0.6664338125355810  0.9210451575848866  0.5832288487576704
  0.9189805956990963  0.9208509087069134  0.1695495939065342
  0.0009874636442988  0.5037427111091359  0.1675513838914066
  0.0851691187879652  0.6693836387890428  0.4183830877578013
  0.8371964426828201  0.8404768703938343  0.0030884469756166
  0.1635117649378328  0.7571499450158423  0.0847378814472833
  0.9175345550591869  0.5029282812235263  0.4203145462305722
  1.0004075752346249  0.5870329968689031  0.0875763355910352
  0.9161466021466889  0.4188605639254554  0.6686868704466329
  0.6662322914793073  0.0030143963196746  0.6670231063499312
  0.3364752346689644  0.1697800171018395  0.8329569468968541
  0.1664830953688653  0.5017984567570030  0.3335253841370119
  0.1642764682182562  0.9218261175250154  0.4199370024171838
  0.3345255708696090  0.3365133911429785  0.3353430660138659
  0.0841575220555414  0.8377747445718928  0.5844128272651251
  0.9198215136411829  0.7548062883167392  0.6659078166327758
  0.0025693170120754  0.9200595331293144  0.7497153117119539
  0.4194963736344918  0.5032645802816496  0.2491961648517758
  0.0826293291896106  0.4167396628309225  1.0012162203470765
  0.2464653217185448  0.8403116445364650  0.0844367177558594
  0.9181079908196798  0.6723508595740710  0.9163852836610172
  0.1677996255006268  0.0877712005822420  0.9170632142124575
  0.0834145986202604  0.9222052983564722  0.8332780804421691
  0.3332188749967429  0.9203234577700791  0.9148581516954258
  0.7525112742188713  0.2487395068126743  0.8343213824941120
  0.8354935104211828  0.0853187682424730  0.5838777356491779
  0.4987930588375445  0.9213854867193988  0.5857352106651532
  0.9184642319335147  0.0064542919373158  0.0846683465289412
  0.4153140107906963  0.4127129204294426  0.8306829406792013
  0.4109138231969353  0.6744972630029002  0.2558199963968667
  0.7524196064617227  0.9188077369216956  1.0010228416596445
  0.4158730456546493  0.2476691190508080  0.8323561793449501
  0.5003729905398092  0.3322480911760806  0.9997787077303358
  0.7510847995621419  0.2482564781725317  0.6658734619075405
  0.2461686808182906  0.8402682409186913  0.9161699441352789
  0.6681980385781262  0.9213027084960168  0.7483803117067913
  0.6667210543506751  0.4135617880145886  0.7456519292512850
  0.6701222309476347  0.4110022574441277  0.2570197207937144
  0.3358266648700052  0.5012565777282665  0.3328008936201740
  0.6685953736726415  0.4167782955435636  0.4197940948577967
  0.8345885141108234  0.2479420767697596  0.2535073754721112
  0.5885154838679477  0.5010904159611074  0.2507357997600095
  0.4998323326727769  0.5029491012889128  0.6682603516317761
  0.9181530761889525  0.1682046394806683  0.7508127379065650
  0.4165160037120824  0.6692792062453840  0.5845220030134547
  0.3239220825411414  0.7618624594894896  0.0863899739265469
  0.6674501712116619  0.1669982964005896  0.1684081403964897
  0.2447351383906713  0.5879969056886584  0.1705933626528959
  0.8403160218502976  0.4094558179332402  0.0875069064997141
  0.4143622498922801  0.6716734051394493  0.7492073401481715
  0.1663116366484458  0.8360987108889306  0.6659763677878717
  0.3320005470892654  0.9218832744675209  0.5857535083983698
  0.4996800810690624  0.0855206066151056  0.2517542552711068
  0.3308069552287948  0.7525509846557804  0.4202587544380869
  0.7496376339095412  0.5851432710775701  0.5016085298801531
  0.7511229015789752  0.0848842271066474  0.8328605417855245
  0.8337599158666534  0.6708127513740761  1.0040341934281944
  0.2485001871553571  0.8389561159295539  0.5837135696051304
  0.4160662120980301  0.9197718090439596  0.8326896825011180
  1.0015547680417713  0.8362674511955487  0.3361427743546432
  0.9177551357313630  0.8365736920961606  0.5827453209493249
  0.9190096387412432  0.3338771856748017  0.2534852837976606
  0.4151538014936563  0.7537575742798499  0.5016499112784680
  0.1669581500688061  0.0052801326527012  0.6659957136437634
  0.6692886517725249  0.8373696651783645  0.3365713644730614
  0.1650979062990454  0.3340595881304407  0.8336230954031569
  0.8341609620685559  0.0033816191846336  0.8334754167117874
  0.7540545141390144  0.8386183562396485  0.2542046495574285
  0.9998267354347613  0.2518626279692208  0.9172709780279703
  0.1654545411878512  0.0033234080735275  0.0011833825241875
  0.1654923743642109  0.1700377549339690  0.8331290029101807
  0.3350970465680218  0.1690223167908700  1.0014557865470233
  0.4170863585148081  0.0039236990649321  0.2530821104725164
  0.5829829990809278  0.9184717964434900  0.1688267788435388
  0.1688906629094777  0.2518782505169350  0.2505716188864334
  0.0832098973644442  0.3370077192989431  0.2518093348282011
  0.5810672965778665  0.7542066602835107  0.4986382147177292
  0.4995658519607807  0.9193309173041631  0.4181697423865194
  0.4162284490136869  0.8378827229452860  0.7481008894915822
  0.5006787878128071  0.5855606496653187  0.7493545547640680
  0.4996318872983896  0.0833334853202689  0.0836893940492478
  0.4178931185095191  0.3339131127300404  0.2540082049578093
  0.5832054005340557  0.2494172908274619  0.6644764272524829
  0.4168264043041470  0.1680831086193031  0.5833304540864073
  0.5009915962388594  0.2516765007622611  0.2524391236147883
  0.5827839333467909  0.7547276023156969  0.6651264866208176
  0.4137384958407739  0.7540440530530196  0.6673417328141094
  0.6673941641194721  0.1671495497775226  1.0017635145568013
  0.7535973133894616  0.8396519965229867  0.0854615908270418
  0.3340803379407082  0.5016998643303413  0.6691598580019582
  0.1665348131186243  0.4178228659446045  0.0828839113141194
  0.4990405690718913  0.8357629898735237  1.0003724843604458
  0.7504165493723004  0.1670429937949541  0.5835221377434645
  0.4180453468188944  0.4195100195855879  0.3371137525829382
  0.9190756265691539  0.2530335450173035  0.5017161197719545
  0.2480096110113204  0.3344910955548359  0.7510108382439173
  0.5842997579896220  0.1675525900418557  0.0837258280190191
  0.9183049874137652  0.7537421753713905  0.1706992171853761
  0.0839781760984671  0.8390412894969365  0.2525231132768310
  0.0820267342599065  0.4191327491337931  0.6666389223154934
  0.7496244810780499  0.5821882989282056  0.1655744433208563
  0.0814108718402602  0.4194215738698762  0.8349321290524396
  1.0001311300151272  0.6698784807932512  0.8344968561652323
  0.9177669419770170  0.5863614404305537  0.4998237842868668
  0.0835302628329283  0.6699011423359901  0.2527968576354320
  0.9167732004172889  0.3353032670926886  0.7491827005034289
  0.0858070994778955  0.4191198281828010  0.5010636832172990
  0.9181881297986271  0.3332336089141725  0.0856577898574800
  0.9998276842999745  0.3354007641196375  0.5013650855577725
  0.8354013668458740  0.8400746657961542  0.8292036694800008
  0.9168954959763383  0.6706522646750688  0.2528322628521369
  0.2499601123387497  0.0875493619877737  0.3350676578963258
  0.1673675869745808  0.1705554232712894  0.1691717596151504
  0.0841054510483736  0.9207889305716508  0.5006268053660966
  0.2429230096619008  0.6691562235253401  0.7465819128429465
  0.9210291666339331  0.8392871817846596  0.9170287533995567
  0.2449153315938261  0.5879245364275179  0.9996329288632435
  0.7511713733760123  0.7569479490134774  0.6648004525358198
  0.8355218704229289  0.4179735219234004  0.7464088922502070
  1.0019595862168849  0.5018186577020072  0.8344162700532630
  0.1681783785002791  0.2509725015642865  0.7499685321063357
  0.0833152120038763  0.9227941056786371  0.1697010798500720
  0.9186469339077820  0.7522836444078134  0.5007764400988611
  0.6678490483296686  0.4127949111633828  0.9154458314847760
  0.4148459017401980  0.4102214668003084  0.9995249068313499
  0.0845276461355366  0.6670454869397371  0.5844956591998056
  0.5855223562482564  0.4158667632167267  0.6669983566981923
  0.2498434349517974  0.0032824412312576  0.0825137672279833
  0.2460079894021077  0.8399514370565010  0.2546872233121453
  0.7462353789719279  0.5966252821399027  0.8362065112551480
  0.8350751105077994  0.0026848645077236  0.6666907593668253
  0.2463855740159205  0.3320684336797734  0.9147997669675553
  0.3342885481100243  0.4197861257251683  0.2494314091401957
  0.0844939484243422  0.8372229043097208  0.7489295588757801
  0.6698428318298025  0.3322372459577290  0.9986412065581332
  0.2501020533655157  0.3353172813399611  0.0826716763847277
  0.4999781141894327  0.0025764186245544  0.6660679077770533
  0.0826380816895014  0.1700332548986156  0.4183952642576331
  0.6696035397318287  0.2493213480546020  0.2529952758109413
  0.3348327975148725  0.0008820456054841  0.8346902951087761
  0.3351128995313590  0.3354515404528938  0.5002546116954419
  0.8338793248634431  0.2481534031474551  0.9155563487304230
  0.1675377957560764  0.5035174573895770  0.1664458091570489
  0.5824688238392968  0.0018491878862832  0.0840333001567505
  0.3322877393889824  0.2501841441385259  0.7480918939731529
  0.1663295952267745  0.0061240222907769  0.8361349753865180
  0.4128883500970649  0.7586328927034908  0.8276074687357501
  0.8346583494544811  0.0037006913278551  0.5021539309292982
  0.7514721751533320  0.8364350099604475  0.5832315372532807
  0.0842920252172365  0.0033316916362233  0.4197991527431462
  0.0014592750257443  0.3351748151452042  0.3368792379656415
  0.1677843408582394  0.2528432403996187  0.4182419441415617
  0.5001276208564639  0.0870572563112019  0.4180538904853441
  0.2507494960757616  0.1703575062975216  0.2519051322634099
  0.0023530642517185  0.1700372523885181  0.3350373652307280
  0.0837066954579196  0.1706547786821702  0.5842481410612724
  0.5127820799218463  0.4998799490403088  0.1760323162485508
  0.0027779054032387  0.2511095051370489  0.4188345539465227
  0.3340735690332105  0.4150776825941538  0.0831913095917393
  0.5010673395082590  0.0854096736768017  0.9175652510759588
  0.2507935510271986  0.1683839451525124  0.5822624617833123
  0.2445438978979702  0.8381330773765802  0.7482664832605459
  0.3307268414569613  0.9216476914061729  0.4195661158284898
  0.9170900508917135  0.6686384588359113  0.4194951185634386
  0.2493164290490347  0.0862858053910663  0.6671536970208355
  0.4153193656437134  0.9194923242952072  0.1690505371720075
  0.6717083323359292  0.7593130371542821  0.9141626809178138
  0.1667258569948064  0.3334955878046718  0.6690598198323179
  0.0839744143209590  0.1694343537862116  0.7517860481832372
  0.7532978567420033  0.0007313572249881  0.0830860175533143
  0.3322599596971589  0.5032119248374063  0.5020753391482911
  0.8360081867548290  0.7536971004229803  0.2535108512539628
  0.2492752562307282  0.6671956247833364  0.5845837360895902
  0.7499963900788572  0.1671634596405826  0.2523156886194629
  0.3342323395351562  0.1689134813176873  0.1675449455414291
  0.1653195354880360  0.9230801883493442  0.2520055797762747
  0.7511947534451713  0.1673656538168748  0.4195420137543930
  0.5830008208420724  0.9202229962354309  0.8343892139438934
  0.6700157719568842  0.5850574670923009  0.4207984181072026
  0.5852152580858824  0.8382611039919021  0.0865391814679012
  0.9170571545493351  0.0863093121171224  0.3356568225899402
  0.9998426689173844  0.0877959301012057  0.0865192848485654
  0.3333030809688680  0.0033518080378999  0.6657452256613426
  0.7519485745180051  0.4169271988432723  0.6658994959417299
  0.5847321771539954  0.0007528437569164  0.9146300117133664
  0.7515828968365986  0.3354537785259883  0.4212843915769125
  0.6708407002526915  0.7577780123961703  0.2553811030558339
  0.3322768480812659  0.3325398377942173  0.6682353923523088
  0.2501449434604847  0.5850037604341493  0.3345497257318215
  0.1641546815145122  0.7538467744730100  0.7500766667032368
  0.9186098363423872  0.3354605835037083  0.4183203672343529
  0.9194313320326256  0.1663824209156019  0.0836387174269124
  0.1668711442619454  0.9224042624710241  0.0849816438015073
  0.5832866393322130  0.0857431776829977  0.5008425173171087
  0.6688260179710438  0.0860094920353583  0.2516614165556239
  0.4992600709257450  0.8393658515806390  0.1711862990476386
  0.5846971786403957  0.2524256827980533  0.3367172060364051
  0.5833255869905392  0.1690367124193673  0.5838414344063630
  0.6652943110304005  0.9194378215473842  0.9160182596953097
  0.5839708240990715  0.3292857820907970  0.7474426008772495
  0.6673136322514330  0.5878861407356712  0.5840632924632690
  0.5842722635284443  0.3292733816367310  0.2557818251588802
  0.7489911476687984  0.5878071955635324  0.6653125405573613
  0.8337063841490117  0.5896324092245887  0.7505676223340965
  0.4015623492375303  0.6948069275994336  0.0939569973252717
  0.8352479131748476  0.4157152176422242  0.9165551107477615
  0.0840954675808456  0.0023009602217786  0.2524974352618990
  0.6666411891709598  0.0853895217330058  0.7491409514336774
  0.5001449371118697  0.0849346704462094  0.7495426904981216
  0.6740835442771417  0.6691213690614480  0.3346805792977516
  0.1664177272289287  0.5018566988284571  0.5009350577359265
  0.4160765026371522  0.1692637720504429  0.2524575401560572
  0.7504866083138958  0.7554481189243399  0.5002756464977212
  0.4998278977983599  0.5004146277411186  0.3333972278199090
  0.1672617985268175  0.5866578026282490  0.0855875136005616
  0.4988920935247895  0.5842241614759024  0.4184111632134829
  0.6682036714970521  0.4169631585252002  0.5862361249220216
  0.5855537290734307  0.6748048081208833  0.0985296629697453
  0.4181134355101818  0.0869518630017784  0.5003308396301637
  0.1672075559316701  0.4190389103005367  0.2496892201815472
  0.4163570538046266  0.0026660217668981  0.0843072718770107
  0.0873566022935217  0.1701802616481569  0.2508996793319328
  0.0004170565792671  0.9208710632371302  0.9167693048694816
  1.0031537539748026  0.4181124394737000  0.9159043001311176
  0.4056113682020049  0.6841353226172904  0.9003621250369374
  0.1659386458395656  0.1675714685998658  1.0011959002423876
  0.4971017860308365  0.7538636059398530  0.4205800379650734
  0.2458456447382192  0.4160501964166898  0.8317044872624042
  0.4163377141650430  0.4189362886531896  0.5012039342564846
  0.7499548995228756  0.1682008904097747  0.0843531779865212
  0.8360350467995903  0.9201537086528836  0.7487577765167417
  0.8338930616465180  0.0020222857542892  1.0010561267373908
  0.4146839461569746  0.4861894195326124  0.9050528234801528
  0.9164655609030103  0.0862866566224789  0.0016202034910653
  0.5815586110217390  0.5847021430763589  0.6676763832924227
  0.8358677844060916  0.0043300614782155  0.3351523125634737
  0.1644588113542482  0.5013492178708733  0.6670500178689005
  0.6691699314651903  0.9198387793733463  0.4183105366205168
  1.0000869377305333  0.5025652672381856  0.3350900150100456
  0.2492861414404992  0.5834745089455310  0.5018246922326322
  0.8340664334518837  0.1673156036487784  0.5034434347443404
  0.2504782628394881  0.0888781840423009  0.5015715120986464
  0.4983559204920098  0.8420226064097690  0.3395180476773162
  0.5832299902229738  0.0860021043921383  0.3369992116120705
  0.0855364249336172  0.4190241971552601  0.3344349220206194
  0.0012023273937180  0.0044543162937356  0.3351111752327995
  1.0006432154573781  0.2526303392312728  0.5842695157511725
  0.9191781647500065  0.5862664169107673  0.1701284370327174
  1.0010462030941081  0.7537817895165302  0.0860949871913406
  0.8348635205574327  0.8370479217364932  0.3349096847922111
  0.8346489489830191  0.4181953380001295  0.5865196301166882
  0.8358415643243301  0.6710585920737623  0.8283235848280786
  0.1649712278132628  0.7508869086448813  0.4195817766236408
  1.0014305046591021  0.0036236895133058  0.6667764275318154
  0.0833653507349388  0.9218090990004884  0.0010775740538679
  0.0018673619900698  0.0034917341763030  0.5013014520843529
  0.0837594582430143  0.6705357737301293  0.0857177480818298
  0.0846321693892377  0.5878884646224131  1.0021835370238004
  0.9168226968715776  0.5029760945618191  0.9118979362015582
  0.1673871096594957  0.4190174119416304  0.5852115417265376
  1.0007935614474319  0.8381693785768900  0.0024262574134686
  1.0003186749879751  0.4188335581593836  0.7502647412278799
  0.8359346772496048  0.5016536736445348  0.3375449395724861
  0.0830457094765593  0.3337209032865824  0.9175038626445218
  0.0837356085660166  0.5863611573596290  0.1685061935944974
  0.8341541644168581  0.1676678246486178  0.0012840716637447
  1.0015285650549732  0.9202969464220043  0.5838371180873986
  0.0846371811567137  0.5030966104111803  0.0848975373728236
  1.0003719993438580  0.5870855283001311  0.9168265463738819
  0.0070190179120065  0.5036183121010223  1.0014558686172415
  0.1628240601113964  0.5006000288218027  0.8319264076053001
  0.7538721171569888  0.4992342406306354  0.2543799078796346
  0.4232775005667858  0.5936561521084867  0.1698223975361130
  0.0835132050886870  0.7532355275161580  0.3358040384743561
  0.6816886283837402  0.6742258739634411  0.9981957097325452
  0.6701742386369631  0.4987714603982336  0.3367057069945265
  0.0826618969825904  0.8388817692228319  0.0855565304980004
  0.0830584464699720  0.7545755507360806  0.1692723557247207
  1.0016134927585221  0.7519481033870188  0.4190597927147893
  1.0011399394233307  0.6696600258023109  0.3360334271324463
  1.0011357595522477  0.6692034116762402  0.5014042951864430
  0.3322066355549042  0.0046832360654961  0.3365970408122372
  0.0828624206176359  0.6695649271721257  0.7495274200259394
  0.5005128988635835  0.1693118812026243  0.3355043694977726
  0.9164698870017833  0.4993150363457449  0.0907754452942823
  0.7520158970640513  0.2500821299129514  1.0004625242141443
  0.0840787794089169  0.2534055063369705  0.5016333717243058
  0.0014874587665105  0.8377372881001272  0.1696198794067425
  1.0006165868226056  0.5856553757747692  0.5835368956567356
  1.0004644646163368  0.9202027708530369  0.4185643301345623
  0.7517064029950941  0.3333473876093544  0.5843857640297400
  0.8353017973936137  0.3348268917780302  0.5025082586356384
  0.0844646637204637  0.5850887656387398  0.5009110229745525
  0.4169323666757518  0.0852201080929681  0.8339629834701915
  0.4169810882967311  0.0849934125136997  0.0007819870275578
  0.5835478164116520  0.9188727615352320  0.0011934758697110
  0.5006937728942412  0.1673104631298486  0.8328366819302877
  0.5872909659538195  0.4091025206909651  0.1732538141309865
  0.0012017531864153  0.8370277551728313  0.8331549937463288
  0.7459514244878563  0.5791145305643060  0.0287417854493584
  0.8394010434062176  0.5854773953470339  0.0899516406445073
  0.2500092835363959  0.0042164547786726  0.9173710911972002
  0.9179263251339200  0.0033102975158401  0.9172593460875370
  0.9181793556081228  0.2498693037063344  0.0003405563898098
  0.5006578489829321  0.1672653777217251  0.1689235286518852
  0.7564541180878456  0.3298540340318318  0.0848834008555133
  0.7641477973675016  0.6854787750946556  0.9146302008695871
  0.7506459791032301  0.6727718567740900  0.7461737587170946
  0.5864772457672730  0.7545422113312924  1.0019745083918232
  1.0001910759847750  0.4191170549639043  0.5835953667004304
  0.6783562883856047  0.4846999269808494  0.0076611858380607
  0.7533619998277646  0.5013111763489642  0.9249779375024718
  0.6689235295106106  0.3307565832857840  0.8317066044735598
  1.0017928832537231  0.7535860173459014  0.7491092768094378
  0.6769499415067074  0.6774260741232753  0.1714056512355897
  0.5001195231028830  0.3355827736121305  0.3379118872692995
  0.7516063179022260  0.3323868477662429  0.7486112343131570
  0.7573225169667145  0.4093500254192238  0.0003737747094684
  0.6669750751863492  0.7581797846966655  0.7439414494596737
  0.7535252576088960  0.3300596717817177  0.2552400162456366
  0.7569371568175676  0.4085139926478692  0.1734511949876374
  0.6698249993263368  0.3330469559748455  0.3387570650669371
  0.0822931371497020  0.6699541614210111  0.9174770446907919
  0.5849164929828031  0.4184134328711250  0.5023886185405925
  0.4996524321337153  0.7536210610231959  0.9151800594767568
  0.7530556976999814  0.4160746763719365  0.3376224265271728
  0.6676853108738123  0.2499207218014987  0.5834464933707341
  0.0821170619424245  0.8389288467855858  0.9172137024884948
  0.5003852436811961  0.3356233249480580  0.5016002758030206
  0.8359905263390631  0.5001002976393608  0.1725296158906520
  0.1668028259886561  0.5849008907355294  0.4177885129305012
  0.5004735130567113  0.7590815914113143  0.0878856817581387
  0.3293304309679181  0.4996047410709968  0.8324484182867061
  0.0835840607645073  0.5851417299413434  0.3349382821536027
  1.0007566447748861  0.6696609976080381  0.6653267096883794
  0.1657013630289165  0.5852800284039965  0.2526551768531219
  0.0844135801715533  0.9210812353001224  0.6664221469733375
  0.2499040469867402  0.5010259341598811  0.5852219880839392
  0.9997401857492572  0.1693133433864345  0.8340003262059662
  0.2474687363776661  0.5005220873176291  0.7491465372112203
  0.1633902222955274  0.4179662559101002  0.9173170513545954
  0.0838986764436912  0.3364758903977088  0.5843640413887530
  0.4989666613641632  0.7535977492648845  0.5836245472890693
  0.2505378321304590  0.1689104505498319  0.0842928389229215
  0.2512728691210695  0.5028960611318373  0.2498666350861534
  0.9181857308836444  0.1682710355977308  0.5846138577966903
  0.1661353507315373  0.5838845047661028  0.5847087928996009
  0.2499768859227156  0.5015825098938205  0.4170348072269524
  0.6274401389297096  0.5831475423550428  0.0348571120908772
  0.0007598246670379  0.0034754112062486  0.8337916670928204
  0.0837936999784196  0.5027217699481006  0.2502730715749985
  0.1664392227641498  0.1691288347484720  0.6668543869633907
  0.2512745269468838  0.1684466600827843  0.9173993688138861
  0.8354060794490837  0.4180155174625175  0.4198321692321658
  0.3214679160625123  0.6023552951109308  0.0927786492548121
  0.4155420398070386  0.5849795812158970  0.5023548237030467
  1.0014366710797478  0.4194117923775891  0.4184395178384949
  0.1660498140130905  0.2492385855603810  0.9169126213006397
  0.4160850350511518  0.9191460742191974  1.0006740198429329
  0.0835789587600980  0.9204838460948533  0.3363443376526660
  0.7511807098053710  0.4181340334165723  0.5027823836950931
  0.8345773503031152  0.0847385033912989  0.7495187333098716
  0.8350467466404110  0.7529788662871206  0.5832096222154388
  0.7505940718829553  0.0841566360822212  0.0016226985901036
  0.7589310673946991  0.6778335371782651  0.0883341311418119
  0.2491679183798609  0.2498001027397125  1.0005120921764674
  1.0006103202712497  0.2514447774028303  0.7498244406989735
  0.9179045614575406  0.3337299454776273  0.9156299457643061
  0.8334442714965051  0.0851685867752869  0.9176431955815501
  0.2500271829400880  0.2531654587960869  0.5017391313664373
  0.0828680355213284  0.0865888527696662  0.8341016350381896
  0.2486412034051464  0.7524869681104813  0.5020980252692039
  0.0003662783040696  0.2505477928850222  0.0850738872295465
  0.1674738228798165  0.0052033272554162  0.5015446123693620
  0.0018134577751844  0.1693954579649759  0.1697726667394331
  0.0840403104305375  0.0868807444535267  0.6676905796606528
  1.0014423701628206  0.0865417063818726  0.2518080261093428
  1.0010377665383237  0.0042528550962836  0.0011954345466661
  0.0005409905431312  0.0041230937606443  0.1693910723424169
  1.0008136487393284  0.1690448118025415  0.0000344271547636
  0.9179960213360457  0.5860519647797003  0.3364189083954169
  0.0831090730980084  0.0870540139774083  0.0008526418169269
  1.0008606848083337  0.0865525821739390  0.4181628743642177
  0.9189495386815757  0.2499548473706146  0.1695765229149714
  1.0011366290285337  0.1691051295229247  0.6672624814651568
  0.9178024159753887  0.1687088499929995  0.4193974735866099
  0.0003795048678469  0.3332370034606905  1.0007635336028247
  0.2508201619245384  0.3372144708697912  0.4183922623656774
  0.0008762143511648  0.4192808482704611  0.2521810001854838
  0.0841170388376944  0.1687613251403233  0.0846029739216227
  0.0836650738478893  0.4185733970405278  0.1671454788929615
  1.0011918254617724  0.1698464352253246  0.5018594872327770
  0.0849898172054787  0.3360472118102512  0.4181746838438399
  0.0838335183085827  0.2530062262393684  0.1677508862340046
  0.0850750576606192  0.0866613952926514  0.1689814420839263
  0.0836445481081976  0.3353886309833419  0.0839670901363720
  0.0829891776004070  0.0051117860152963  0.0849209504836318
  0.0843856980719135  0.7522421761537476  0.5021453003873573
  0.0858384096811428  0.2536244701257429  0.3341387616352671
  0.7508212087771660  0.0024574207886736  0.5841457677182220
  0.7511206960857254  0.0847666202234850  0.1671400732096983
  0.0003744610053970  0.4181169791922326  0.0848579423379562
  0.0822755813732068  0.2515290250158491  0.8342332790495136
  0.0003235156979155  0.3346762005803664  0.1689028029180145
  0.2495410327061602  0.0046086529493824  0.7507716914186776
  0.7499209062875941  0.5033588693181544  0.7451631558373143
  0.5848305843063317  0.5014935951136414  0.4197460973537038
  0.9183312814394926  0.0037529989405517  0.2526457280363862
  0.4932052980007978  0.6902657970645980  0.1797076566404177
  0.9178028408751215  0.0032125118305871  0.4181182944595900
  0.3331762365020885  0.0875535305107679  0.4187569873558171
  0.9190643535533791  0.7547373110180275  0.8316748742871811
  1.0005368414402496  0.9206458235032801  0.2533511973920598
  0.7522040049755292  0.5841123591516496  0.3376434122824878
  0.8355153653742299  0.9203908706349089  0.4186168771240424
  0.2500439257949540  0.2500222201049223  0.6656018310726713
  0.8358620727516987  0.6697704941764341  0.1700440215681997
  0.4378216950276252  0.5848743196896711  0.9456233810634214
  0.6672103083641823  0.1683627244220258  0.3360355403634325
  0.1677807253674331  0.0863046481634351  0.0837789463774711
  0.6704288465331273  0.7567976605241369  0.0860736800943864
  0.4172332999580229  0.1694097048185499  0.4187972358623772
  0.4995191321013364  0.2515698605617172  0.5833425013639080
  0.5839551219010088  0.3343734066563734  0.5849320385318773
  0.5841407587907520  0.2513383849195183  0.5017728123066023
  0.5001646118499614  0.1675352901205475  0.6659724711656112
  0.4992140782467900  0.2493881925679584  0.7482493046362210
  0.4165528331927011  0.0027816355405131  0.7501275731398425
  0.3337054637282140  0.0859396783430282  0.0846195328270368
  0.5836452606127633  0.0845858277516849  0.8335187437369356
  0.5840706670758816  0.2493332525526321  0.8328434862855811
  0.4178861662769515  0.1679951510860985  0.0840966843595793
  0.4165701926991585  0.3331911576994285  0.0847690260149756
  0.5846795028497993  0.2498738778975272  0.1686651603593171
  0.5848328484105545  0.3355766650560572  0.4196954358778881
  0.4152514890520875  0.9205006543034850  0.5016758035187252
  0.4989449748493174  0.7552730838789490  0.7469789280658570
  0.3288936555253584  0.7549716717380427  0.7478817354777627
  0.3310324868132607  0.6694635890827494  0.6675141241204344
  0.5855522202725210  0.3308967912118758  0.9154279019712194
  0.4166725806494685  0.0848878898016760  0.6662555884525462
  0.4170114040249494  0.1665196443415116  0.7490145102199108
  0.5006782053360015  0.3331636671272628  0.6661910503448480
  0.6668195642632543  0.0022111729839640  0.1679405319381882
  0.8339137904446556  0.1678148369604584  0.3368443525512027
  0.6691417096375858  0.9202620782191596  0.2530965776309053
  0.1674912870712360  0.2519175181023386  0.0845365929463113
  0.2509402265579901  0.0868761209988861  0.8338219214655926
  0.2516526795131095  0.2529172558337457  0.1669239058729984
  0.3336862460423189  0.3348811689466560  0.1681218334909571
  0.3333832329946877  0.0861342367674216  0.5831954113398603
  0.4171189155725008  0.2507591323430913  0.1680066306231489
  0.2508041077682027  0.2529568873560523  0.3347542551294802
  0.6161872049237954  0.5782895845922356  0.1578694671987052
  0.5006195634563778  0.4195624400171381  0.4194117602849469
  0.4154087052333516  0.4182916328780235  0.6670056504976904
  0.4152372995111225  0.5002875337432938  0.7504378495846195
  0.4165468958993492  0.0035466960446890  0.5829615732259300
  0.5839538274311324  0.4095652916559975  0.8272837405564383
  0.4974901426283942  0.4878095905767338  0.9974357871216067
  0.5269562537537760  0.5653577331891168  0.0786096424290774
  0.3247784804385588  0.7591675428445963  0.9143946740739570
  0.4986726449544891  0.4079715722475237  0.9125516359353018
  0.5852130618069596  0.2497088868772654  1.0000652740999894
  0.5828662393468231  0.0852357855271287  0.6662698175173430
  0.5840160965853612  0.0837871016178279  0.0008377504242513