B  Cr Ni
 1.0000000000000000
    21.0739876954345213    0.0000000000000000    0.0000000000000000
     0.0000000000000000   21.0739876954345213    0.0000000000000000
     0.0000000000000000    0.0000000000000000   21.0739876954345213
 B   Cr  Ni 
  17 259 605
Direct
  0.9957297245913488  0.6812002300991489  0.2514591003899708
  0.5148288571259827  0.6629698557195012  0.2497511239430230
  0.8545158525809845  0.7689313965516111  0.3475413494576766
  0.8457394653692338  0.5968231319539309  0.1793067932177814
  0.6686570622290289  0.7504915637696969  0.1725947349190068
  0.8988579996587339  0.8282860808620010  0.3146316432785621
  0.7504592768167476  0.6156197513377348  0.2721651052851792
  1.0313435940281974  0.8567779685338929  0.2323513373070432
  0.5049606603110993  0.9136760346843212  0.3301215850133523
  0.8298055318134638  0.0023390854811676  0.4151621536955275
  0.5852465733701974  0.8356356671199006  0.1837285463314557
  0.5761365911076357  0.5986150557604003  0.2510738573902178
  0.8097206522597118  0.6527769717494363  0.2320366052031470
  0.6623434417910453  0.7446170942127073  0.3200449198728661
  0.0855120606659775  0.9170877804965588  0.4147542845418832
  0.7581444168781766  0.9127593675726827  0.2629999380824345
  0.9096131265127121  0.7575102304397944  0.0981742006772228
  0.5838863609419296  0.0031510664384059  0.2512480635034571
  0.4095440654958553  0.8334859626327522  0.4233671575783292
  0.5805813208013813  0.9192882353624467  0.8345156732017940
  0.4175848495219980  0.2503008350246447  0.5022000747312519
  0.5832044942557790  0.3346525699665609  0.0862233886202277
  0.4988011938080012  0.0865844489085311  0.9168900749257660
  0.5005907019614992  0.1693689600795333  0.5029740310542284
  0.4165878004864312  0.3325286372199210  0.0838832587890590
  0.5821171039719242  0.1703069788715056  0.5871557439115748
  0.5009536444771253  0.2505042693182203  0.2513255557734142
  0.4156675973253867  0.0871730068477988  0.1678819718676641
  0.5839782746779373  0.0849762806778299  0.1675977068781326
  0.5834518557315611  0.3345059559839253  0.5871001889097029
  0.4152340570557664  0.0869602918878462 -0.0005024845016142
  0.2496732723058323  0.4164919920920550  0.6694156595165517
  0.4985460118122360  0.9186294341758253  0.7521115719272964
  0.6640786744860507  0.4952714353427418  0.3377075224486511
  0.3343932431935506  0.9178994721445602  0.4213507799395969
  0.3331703721220657  0.9202775905526834  0.2520428890076752
  0.3336742061371260  0.9203651996185823  0.0810186220910944
  0.4139815587706168  0.0025285924637485  0.5883973979969912
  0.1690654390659881  0.5839021316361113  0.5857116805570514
  0.5838115148294483  0.4158677191785380  0.3356919548900245
  0.3343123564480489  0.3336878325565960  0.3356602251030893
  0.7524731693540938  0.5837993277522914  0.8366884871317971
  0.5823913435791884  0.7500912139059220  0.8340617098732096
  0.5825634704058157  0.5812195020753675  0.8356287175931199
  0.5009591725215510  0.7491520634763275  0.7528755692038044
  0.5007075646629586  0.4995548608855631  0.8340643561421672
  0.5829855752623159  0.6638611930908873  0.5878764618290349
  0.1733390575955250  0.8357610525521447  0.1602641294452269
  0.8094810226114353  0.8564180334930050  0.3325892574366809
  0.6813119086595402  0.6548688988425554  0.3442526116283581
  0.5807460703258375  0.0031969668191463  0.0796341419638233
  0.5847615243640252  0.4159500645516686  0.6676974866502451
  0.4174709807622462  0.5811127940505577  0.8351138282807805
  0.3355370431578154  0.4994078865253140  0.8335086901723785
  0.5841709076088244  0.5826547437616708  0.6664131392524033
  0.3340448304519253  0.4154990066722377  0.4191132166347291
  0.7285266249100065  0.7058157131334757  0.2480919962403944
  0.3348961389971008  0.7498150305190525  0.7514815796192605
  0.7498425839857497  0.5899560871723760  0.1684326699348382
  0.4157260097944617  0.4148511453444098  0.1666606963350378
  0.5825317650122054  0.4182732970469402  0.8351157019573930
  0.5020964660180400  0.2528729963801630  0.9188608870069933
  0.6635352619784801  0.0008423960628503  0.6689057075237544
  0.3339857619782182  0.6667289584424737  0.8325760859974338
  0.0857618169194751  0.9174478092156326  0.8329630467728122
  0.1699310853201697  0.7501020441472174  0.5845142040458094
  0.1687647703928582  0.4140189581356828  0.0822864475976210
  0.5821884717990646  0.0027039873832797  0.5884913089776259
  0.2510707171065982  0.7484751667042656  0.5045142530596489
  0.2545396536330916  0.0023584831836726  0.2513300574530427
  0.3341727870198846  0.7499568715274330  0.2509455577793311
  0.3337819982578801  0.0022460893104046 -0.0001807364708145
  0.1679900195068227  0.6678348734266611  0.8329026046631163
  0.5002807447485822  0.2524586514208854  0.7513297213770931
  0.4165429131369052  0.5828983402757179  0.6674822708225789
  0.2524231082913908  0.6649741354907085  0.9156153529503696
  0.0039816873763288 -0.0027026523762629  0.6657829855910802
  0.1688539515322001  0.7512449778633751  0.7519403065595476
  0.1701394103355960  0.6644158534292685  0.1638880069586617
  0.3343586233882410  0.8330220772285892  0.6680851019543054
  0.2501931199304779  0.6643326376874299  0.5872252199328811
  0.9210616271578838  0.8357677378679433  0.9166790689252664
  0.2532972734570343  0.7481266447859868  0.3348713161040554
  0.9208127200845575  0.7506461571904057 -0.0056518115918625
  0.1666415276454540  0.5831495205862079  0.7530451100529776
  0.8341948424529930  0.0876485739549388  0.9169664562499221
  0.1688742348119360  0.5808179009936082  0.4197088328037600
  0.1691667698258041  0.5807038236555090  0.0804442928136826
  0.2504542476280581  0.0018190671886081  0.5861498724073388
  0.4159503076746549  0.0871939611613022  0.3374563732787949
  0.7519740026352104  0.1666968923313688  0.0837288243720705
  0.4155000025860867  0.0019748254772063  0.7521899322718966
  0.3355333990615031  0.7495987879897376  0.0826876783757865
  0.4153738932233371  0.7505896983993858  0.1666149843244170
  0.0062393125286483  0.6568245159392631  0.3437772167259453
  0.1659662382816839  0.3325636937898027  0.8334673382450585
  0.4154157073640675  0.6638479928416136  0.4193999753157675
  0.0014880672190687  0.1681792028396058  0.5017129799757740
  0.6667362134792717  0.1687447539397556  0.6695969771810654
  0.9196233075899135  0.3341106803409506  0.0850292505360458
  0.5824737222235880  0.2521789003744669  0.5027448334751455
  0.0049817027352827  0.0043762966802009 -0.0008377097479234
  0.2515175510368267  0.9184335238731240  0.8331941180578708
  0.1690942310527674  0.0847387759517101  0.5852128882296675
  0.3334701767548445  0.1693107785194110  0.6702360457186589
  0.8426265335648114  0.6896742111096421  0.1485941452851760
  0.6674246481554837  0.4976714300097737  0.5049315076574619
  0.7425817101481237  0.7497574118300455 -0.0106070247743530
  0.7502391864395032  0.9172566945725517  0.6679295385145387
  0.8327699390381091  0.1672353809926209  0.6705517439151446
  0.8367922184940412  0.5799084817114115  0.4245973183263480
  0.7521226691724309  0.3324113278606116  0.4198040066526555
  0.3338582106518997  0.2509196352191024  0.2525514679608497
  0.2496802884983184  0.5836947201331829  0.6687787204515522
  0.3340503252383412  0.2507041007108530  0.0832314396825191
  0.4976673830293524  0.9197840641147584  0.0811772047222212
  0.7492655934596191  0.9188780167460442  0.5098919286214021
  0.5840507027577793  0.0057780803109293  0.4223790010262709
  0.0856137567630807  0.4150930212973886 -0.0003846723883886
  0.7503664250383388  0.4152922352002736  0.6687510380330720
  0.9190129059173190  0.8336786826414493  0.7522365877825393
  0.9250029464742564  0.6620759425432243  0.0793828836009579
  0.9195188968107704  0.4162749861685712  0.6711236841271148
  0.0015214022862319  0.2503315186460557  0.4188186484179247
  0.0016045974821530  0.2503172818777135  0.2514599652441474
  0.8348484818118301  0.4117060293397024  0.4226953501966785
  0.8335277869081062  0.2516777768492321  0.4195304600925756
  0.9178684243508759  0.1688868098625357  0.0833599082857392
  0.0855002454887222  0.0847909398516169  0.1678631485680482
  0.8333180099109901  0.2526554108970580  0.9175766785517099
  0.1675279810678038  0.4155946089022831  0.7514465445608500
  0.8354709434774413  0.0044366079506193  0.8310323016232444
  0.0927036617377950  0.8362093010508740  0.0790869108816334
  0.8348384028907888  0.0839078338840805  0.7493108101277169
  0.0021623058429731  0.7517432285093820  0.5842608725399320
  0.8353375936506684  0.0857060449411396  0.0822920427828055
  0.2513888482934269  0.4171362714475199  0.5016945643459936
  0.9179207136738319  0.0844588540902195  0.8329762917223469
  0.0019919224170958  0.1681017829374552  0.8343069869153409
  0.9185834953816412  0.4974567872055207  0.9150158090707352
  0.1684181221306613  0.2503920953695671  0.0824467152134260
  0.8354192860509019  0.5825255572971847  0.5887853009327464
  0.0873383034826037  0.0070478524026111  0.2494766910331823
  0.0842573497396992  0.5829893381793742  0.8326840390995058
  0.9182265631179567  0.2497227851609962  0.8338483270883950
  0.4162025626896260  0.8329687982011724  0.5871620888894123
  0.0023805880117264  0.6666130873715408  0.8337285684138779
  0.2517931881033995  0.4985785538540143  0.9157129478583155
  0.9185417522246032  0.5836374006348707  0.5041553519256116
  0.7554781426561420  0.7583919078326447  0.3427076473561966
  0.7482807116664445  0.0085290947273809  0.2470413657862467
  0.8502973919603797  0.9056101927840088  0.2415643732193197
  0.6598792679526693  0.9159443907050210  0.2506875949458425
  0.9204321444993145  0.0865492828767482  0.5032910032852853
  0.8367959107415199  0.9196687320742433  0.0799403334810303
  0.8342617027939500  0.6667951565393813  0.8352735768602727
  0.0024512850436380  0.7508250805922924  0.4159218197644262
  0.8339306725517428  0.7505446206764603  0.5879662395518711
  0.9080069178183673  0.6461637276119429  0.2471956943311829
  0.8241632474772187  0.6681324645098291  0.3339430754511761
  0.9389332417660297  0.7355151923085785  0.1860729181257295
  0.0054047173677712  0.5806465018541055  0.2508324563601173
  0.0020072671724995  0.0013298605153138  0.8333867747834773
  0.5831907400152954  0.4163167825146686  0.1673195667967847
  0.6685759219381513  0.4995452194415053  0.6687552593493318
  0.7505331080381198  0.0002705989959758  0.5886658228802912
  0.8340979541376174  0.4189152691642826  0.2516597957597516
  0.6653223060607742  0.6643313570283972 -0.0004269514025934
  0.7500979803882510  0.3347889822435398  0.0860541859595000
  0.5000784403736881  0.4973629389602083  0.0012827449572784
  0.7503716269868377  0.1678165959642365  0.7502751047001224
  0.7487417822564306  0.6647670682275642  0.0753643848392374
  0.7487780924482623  0.8350203377201251  0.5883971700652517
  0.0108426800601442  0.6598890535151791  0.1583131720717266
  0.9145589643131641  0.0848120503139469  0.3332925706510239
  0.9175817529147438  0.1673872059529525  0.2518694175770385
  0.8332626284831657  0.0873663423987622  0.2504781662191428
  0.5002551591439480  0.0847300960389850  0.7524134721727328
  0.5822848802952503  0.0858102293157862  0.8350957388933526
  0.7501789174725892  0.2500786629127656  0.5029738947490404
  0.1691819009465291  0.0866504610950347  0.4187281881191319
  0.5789209631322340  0.8385708283619500  0.0783724422273322
  0.5818313743040409  0.1714349606645545  0.4204446389200612
  0.7504890481975504  0.0040255528095094  0.9145807109967685
  0.7492194255771285  0.0866687223752986  0.5074027056229230
  0.1681065481603732  0.5804607880487289  0.2511150641561988
  0.7507568724968420  0.0866459473225564  0.1657677702224979
  0.7505309937114585  0.8360133099909610  0.7511994761076548
  0.7526284829347346  0.0857269376487760  0.0004729155675900
  0.5824732359805115  0.0033392365253833  0.9182363205017684
  0.7510441707369606  0.1687930009012996  0.9170893939532705
  0.5840792957746120  0.2533310991015914  0.0028090509526624
  0.7518564388383236  0.3345359325714867  0.5876783664561988
  0.7507920757376181  0.1719943028052585  0.4207666521357756
  0.7503271061982124  0.3355508536914468  0.7501373791929744
  0.0008035134382711  0.0027779999900058  0.5034343678302508
  0.7519467503954205  0.9204986214184050  0.8320370962530764
  0.6637933822487029  0.7527215081723060  0.9146905821145611
  0.8399522481959500  0.7538730331846960  0.2502576618864837
  0.7508079228294844  0.9228014521695641 -0.0053512814198793
  0.5804517634593284  0.9199822833724000  0.0006240883142577
  0.7503789025937284  0.6636676197481594  0.9159318411226168
  0.0859048921058301  0.0849997508193547  0.0012657554029155
  0.9184369666451382  0.5848205276335983  0.6690645632723544
  0.6648619853075599  0.7495440597665062  0.7542788224759462
  0.6661331838505860  0.3348447667937999  0.6703458134770444
  0.7508649918215563  0.6637688657900830  0.4252069946291096
  0.6660053046168717  0.7486760886807627  0.4226949138444429
  0.7502858467221707  0.5017744821351786  0.0868719624998618
  0.7509689443839285  0.3346320699890808  0.9165093807557869
  0.9197875952344399  0.4144502739946686  0.5036590736636967
  0.9408188183584610  0.7376500623134666  0.3167925692504169
  0.4156178848989238  0.3342164845196178  0.5860723376734362
  0.0843125592634908  0.2506043168504219  0.8330973708606867
  0.8336642285402371  0.4161096333146449  0.9176530423293281
  0.6693881818977822  0.2526864211538440  0.9179292635756764
  0.7517626378545000  0.5835364601816241  0.6689615665585181
  0.4988831252224918  0.4987259576885706  0.5028083865418719
  0.9168107279726805  0.8257665432974266  0.4139421492008727
  0.9207225530694185  0.4961360106807176  0.0796756813838834
  0.2515906082698787  0.1695414348914605  0.0830441748381811
  0.0011388387995551  0.5837851015234152  0.7529669482342661
  0.2510477798872439  0.1677826460662930  0.9158865133741509
  0.0847320325293129  0.2506570337032026  0.0003176986521236
  0.1680045590048288  0.9187353688635918  0.0847161665661784
  0.3341121520339072  0.1693653165646850  0.8337382631301210
  0.0880255660021475  0.5804166032797560 -0.0032570984597008
  0.4993342267921138  0.6671401170458942  0.0000920855923047
  0.0024216528096801  0.0068326853273966  0.1646515226113982
  0.4995712118742267  0.4160422442189010  0.4197140128172472
  0.0877361641403590  0.8352778206393628  0.9163001618302118
  0.2541388431363406  0.7505048776776563 -0.0008379223234727
  0.9204610173539000  0.9178492627867656  0.8337433887053771
  0.4168884352362485  0.2531199614577754  0.0003873740450801
  0.1672723333030025  0.3330390750238283  0.3348927269965264
  0.3334709611350729  0.4993563393777155  0.3345114431105092
  0.0829918878641588  0.1688155084747229  0.2518586939753820
  0.4168624980800700  0.0860924552347237  0.5026647700645021
  0.0870514398908060  0.4981101881157715  0.2517817037352960
  0.3345825809448481  0.5810440799570907  0.0812938173409879
  0.2516140499290340  0.1704215362095557  0.2511511750302618
  0.4156399620260778  0.8345266951762799  0.9149784043849851
  0.3332830847218933  0.0012255730081132  0.6675188768401579
 -0.0002408945975456  0.4158774489226050  0.7508482527864548
  0.1695018734449752  0.0033539916317775 -0.0005077191647513
  0.0843005395013814  0.4996174633340145  0.5860322396320439
  0.0934068113991338  0.6627286845630922  0.2501970492228022
  0.0842135318879707  0.3319507678899030  0.5862443106979995
  0.0027662642228235  0.4974698449510777  0.5057565421309690
  0.2506962929719993  0.1697242423261565  0.4201551541345316
  0.4172043466661929  0.1696097639817165  0.4210565616330255
  0.2496324684671485  0.2505698126228037  0.5019533623814671
  0.0864909597055211  0.4988624022294690  0.4200072643871658
  0.0830034030458464  0.2509628281044108  0.5027181959310427
  0.3340468152281996  0.2517412970635187  0.7514932453369758
  0.0010198822864273  0.9174475460256557  0.5861779705730719
  0.1679390074290580  0.3335223478220343  0.1668957187874408
  0.1669058595078166  0.2516604439590069  0.7525559102097170
  0.0001870479612171  0.5831130173812419  0.5852325982186688
  0.0034607895980306  0.4174358928668775  0.2520835053743637
  0.0036026204206814  0.8346294863485660  0.3351964167157706
  0.1676007404794510  0.0839877715607701  0.7512384829499492
  0.0019612066624300  0.3328385628766491  0.5024301518829410
  0.0852039911051324  0.9177823327374945  0.6659824722682058
  0.2496375976676842  0.4141253853609053  0.1666799170637068
  0.7486576075759734  0.0001862679058659  0.7490138857565274
  0.4156711388562988  0.9179752473517160  0.8321273369001234
  0.5820971635501075  0.0854353151356776 -0.0025348314749842
  0.3330251079758412  0.4981052363806299  0.0008519987069259
  0.3358500720478441  0.5798808370370671  0.2515284690840330
  0.3340468546355088  0.3325085846409368  0.8331586826626863
  0.5804475639144102  0.8315036849193804  0.5873838462218923
  0.3325483570556174  0.4976631431115148  0.5014978425865093
  0.8342638486260697  0.2508753479627608  0.2515097147291748
  0.0016289410784351  0.1676467954700981  0.6689789030894729
  0.5829520822177833  0.3360752331284422  0.4168122247584832
  0.6662005038451257  0.0020351054012574  0.8335431453343172
  0.7518022025018198  0.5809702435008665 -0.0007582207739654
  0.5795740645858328  0.6658558516249421  0.0782784884924338
  0.6656147377827401  0.8361819968525701  0.8341508376819046
  0.6673086764682276  0.5825871574849634  0.7522112256703150
  0.0843109750293066  0.6684648257354304  0.7500208094323759
  0.6652554251678281  0.0866627792525270  0.5873117750257320
  0.7526825866534587  0.5807981922822264  0.5055040599489192
  0.6666104450435201  0.5000307950209333  0.8346459727815425
  0.7512956735894620  0.5004387780522747  0.7514860204356404
  0.6661940611923719  0.5814670610251016  0.9177730871431632
  0.4996497869922161  0.8346754352265544  0.8345232641596978
  0.6665596724393030  0.6656128493556107  0.8351345466805583
  0.0021303539658552  0.5800960713000325  0.4233991331414602
  0.8342620073798978  0.5835896648913055  0.7516828557767969
  0.7516414578414236  0.4176007718501777  0.1675312199761143
  0.6645697733966615  0.7498402968618367  0.5886579572411335
  0.7473409223473024  0.7501531951464798  0.5080091243909590
  0.0883361919542413  0.5796009241279223  0.3366263678784643
  0.7495108212734580  0.7509304135487479  0.8352480797915973
  0.7480355924952289  0.8358344066355139  0.4295170207687267
  0.0029995685859833  0.4155462496244507  0.4200142946023041
  0.7456526487453132  0.4969099298798590  0.2526441978369662
  0.6668519233997914  0.5782234290853637  0.4259833326434117
  0.5812037341981416  0.8363066523399859  0.9163300489249925
  0.6654397909211371  0.4165287008416372  0.2509342389847515
  0.6663668274523087  0.0849340215433369  0.7513678531370972
  0.5858375172547714  0.6653646168123966  0.4210372001698925
  0.5813171392406291  0.5820415058577441  0.1613539250291861
  0.4974977654319357  0.8335372922211850  0.5039962090679900
  0.7507286278866354  0.8249189098163235  0.2371143114937582
  0.6712883870733986  0.8441753723921419  0.1518382716661408
  0.0841699912181816  0.4158002926212824  0.8331030078472257
  0.7533070651237289  0.8424548406126313  0.0737331939325556
  0.6633687296773603  0.7520046372012621  0.0763229229784118
  0.0045320581723196  0.7472190704382657  0.0780145118061341
  0.6663802209921460  0.9240359584469692  0.0774569541994461
  0.0875007419353267  0.4965810872070268  0.0814347010244280
  0.4997462803493259  0.7495407007073370  0.9161520309804014
  0.0026338672516307  0.4967405619628787 -0.0023110331141192
  0.7503598617174124  0.6663418239639199  0.7533144559940121
  0.0061438916820731  0.4953233928612124  0.1662603856261645
  0.7508268998285479  0.6661605404109204  0.5876778825602800
  0.9175472930510405  0.5796043803651266  0.3418600163383217
  0.6667223277333792  0.5820966297884137  0.2510375397582802
  0.4174807630052557  0.7494031313711342  0.6691322220271236
  0.0865768275890072  0.4145597691279287  0.1670694112347952
  0.7521127092528483  0.0024285140066448  0.0825348929445818
  0.0838737870228363  0.4995158240303497  0.7506393115261976
  0.0017678120571140  0.6679024306887643  0.6683589963242020
  0.7515046202124306  0.4989666719413739  0.9163941307902429
  0.4988999313520772  0.0016777480247910  0.6691791610532929
  0.5793076113184619  0.9185170062898517  0.5074860626495524
  0.7518809711103480  0.5683470565691893  0.3493506728702366
  0.0015431053041840  0.5003539734376390  0.6690281645642331
  0.6680804849307270  0.5817679978117358  0.5862980950921576
  0.6665979654204996  0.5796229879868443  0.0806870681849187
  0.0883007333038480  0.5778833346110248  0.1643682276846183
  0.6667763614748727  0.6661366833248875  0.5056642426124471
  0.8351201148768470  0.4996057812912245  0.6700070271446464
  0.5857620740903110  0.5820973551236137  0.3412548228069852
  0.8481997335788967  0.8237769611765179  0.1555605340229906
  0.6684847807698611  0.4977375826195211  0.0006331577393701
  0.6431421033741096  0.7935186190364139  0.2472022416770858
  0.8266301969110221  0.7563582451027144  0.0604515001550348
  0.6676165895276999  0.4169606752286186  0.0851225750943713
  0.6675632557620764  0.3346711826745978  0.8340956711895658
  0.5821659701563180  0.8335954179824626  0.7526878300803910
  0.6643261312351120  0.0893902794861893  0.4220024595252856
  0.0881796841923390  0.7508302929258508 -0.0018292090599714
  0.7415683505572033  0.0073185334358720  0.4268759955382879
  0.7502540766545364  0.2521387433183499  0.6691653928009397
  0.2517789187124168  0.0028558009911555  0.0829116870449445
  0.0298108687346013  0.7645076501522641  0.2461887534234777
  0.7507788444944131  0.2519181051367811  0.3353604191461842
  0.9188058210941850  0.6674794531685035  0.5867797629010505
  0.7510679492808030  0.2519431835422812  0.0013930527301628
  0.6671498633348547  0.1689229695259886  0.1664132670289743
  0.6673226218576366  0.2517371460301306  0.7515180441109477
 -0.0040982520567177  0.9174453068631764  0.4186639237006759
  0.6668104826121211  0.2517476719371393  0.4192323744528240
  0.2506029103057927  0.4157715695129809  0.3354272182257418
  0.7518756565768281  0.2517494632735022  0.1676615428786489
  0.7520141710858187  0.0857547854747787  0.3358606867487168
  0.0017031012332817  0.6670625698046607  0.5020357654519164
  0.7512873723664450  0.1685554026740569  0.2506321998933845
  0.6657752617566660  0.9199054072027391  0.9159410031942906
  0.7506154204396905  0.1686525123277682  0.5870654105055526
  0.0015044497259353  0.8327092540933845  0.5004641977023527
  0.6670412488344292  0.1691441740852180  0.8347017078543157
  0.6674740960796328  0.2516687314030524  0.0842722583934011
  0.0933202604614053  0.7498180178873640  0.1590842508651455
  0.7497297731102818  0.0864423396281929  0.8326479235409431
  0.6672074980469831  0.2516141110759377  0.5867661032391903
  0.0014550957507861  0.7512799543522769  0.7527470387655800
  0.0012816198602611  0.3330114895378872  0.6688064022545031
  0.0017090440039897  0.4154436272336835  0.5870899186312402
  0.8348241491168276  0.8335004869866841  0.6691399215481773
  0.9187883278854024  0.9159999439005361  0.5031689489036074
  0.8343394330278369  0.7512155464606128  0.9166390883639127
  0.9191180847519570  0.6664838063111074  0.9160130395041475
  0.6672593048491798  0.0862253625641941  0.9166107388945920
  0.6676417056491224  0.5001735135012253  0.1670303408627495
  0.0850077105571333  0.4155737348680444  0.5034259438465656
  0.4992764812612484  0.8328755138029906  0.6693501366134750
  0.0906141508978445  0.7472203160389308  0.3376966549954807
  0.6677527282302465  0.4170377856380089  0.9174024590854206
  0.6671388403778461  0.3330583743096051  0.5033216538955027
  0.0854743187454423  0.5834595632226028  0.5030024451577378
  0.9180635378292737  0.2490508006055457  0.6693865310176713
  0.0854536204091426  0.4983949855123754  0.9156905757105027
  0.0012383567192904  0.4990317127420322  0.8333548570589860
  0.8350912924406624  0.6650317325157091  0.5073289475358197
  0.6660135997300863  0.0875278998564530  0.2496045294442062
  0.6667629778421336  0.4147971195504419  0.4213400124428772
  0.7517267405252045  0.4129139752585638  0.5053615948938971
  0.0020963063241886  0.5824195801298389  0.9158746783393378
  0.0011682378496450  0.3326598552162831  0.8343263320251405
  0.9215258771629476  0.8427289608776553  0.0707718835163743
  0.2516259633234080  0.5807814219492584  0.1663159320544737
  0.6640453602024867  0.0124460797917574  0.3346690061938613
  0.7519373355193537  0.4930380454887842  0.4269899377219119
  0.6676664605854686  0.3339491903536615  0.1678447217947525
  0.0897570452194212  0.6649222863155101  0.0786113786280520
  0.7514864520659155  0.2514793226488727  0.8338328577409309
  0.7519824640547117  0.4166776464485636  0.0022513815999877
  0.9207710314607226  0.9230128603445645 -0.0043570507642868
  0.0870099176317246  0.6661944277286284  0.9153330534172941
  0.6671652336296567  0.3337975672066959  0.3349535568025954
  0.8298235918018882 -0.0060288185723765  0.3250352102188775
  0.0856044106243543  0.7490549852976095  0.5033460879397128
  0.0844238585161876  0.2506234065862460  0.1679757999677825
  0.0016190483907357  0.3333236288630813  0.3342867685254409
  0.9196048890846416  0.7496140985863966  0.5035756549417234
  0.6668907901534202  0.6660661323972878  0.6697953712731302
  0.9194013710425645  0.5801396488329965 -0.0013443121772649
  0.9183679916778952  0.5837641377759915  0.8338366251451457
  0.6635011687627830  0.9191930481389635  0.4334064635359445
  0.8349396939029597  0.6637762342999400 -0.0035738573691648
  0.6664531983776780  0.0015142685085853  0.1651178520297693
  0.7549264573284574  0.7574367066142812  0.1467768816215736
  0.8361371004272637  0.5848802668566171  0.0829514031820309
  0.9176196433866517  0.1691537048690903  0.4182986088542933
  0.6638887389403900  0.6618251340488990  0.1567046520701593
  0.8299076505821561  0.7479986241506169  0.4318451408697556
  0.0848977457859380  0.1676210503666676  0.4186736221298651
  0.9373960700348709  0.8358756743072348  0.2345607772766044
  0.0003568174332764  0.1675647346101154  0.3348607950828736
  0.6663937075506903  0.4189807111438721  0.7521998241753470
  0.9240806472779270  0.9206084818697227  0.1582646100571024
  0.0840966099772321  0.3326315400208594  0.9170555806244884
  0.9189829015459675  0.3327167367662099  0.5867726274674032
  0.8365057916514536  0.4154056806714209  0.5876259688559228
  0.0848376154630682  0.1677458442195552  0.9171080437922229
  0.0844029377305282  0.0847346455237182  0.8330415931589811
  0.8347929032816359  0.3332670026625696  0.6696982699170637
  0.8341457238519235  0.6682362312248800  0.6699044107937285
  0.0844483242400412  0.1666056253878323  0.7504836295115637
  0.0013366867889909  0.2497860621335687  0.7512501819388135
  0.8360809636687603  0.5006643541627079  0.1665641314040651
  0.8307947242880278  0.5654284799779832  0.2660683841235980
  0.0029145871053277  0.4996211297506030  0.3367248928625839
  0.9304804646711851  0.5752875435850393  0.1584824265035648
  0.9219503703036602  0.4996758522232785  0.2522281814535921
  0.1668841983824803  0.2501356103099499  0.9168104152005561
  0.4173264844219498  0.1687572681710435  0.2519479935751875
  0.4169138252167116  0.2509545052313593  0.3351639122774002
  0.2517170345826600  0.5812727346007058  0.3344588664840578
  0.1707232117301321  0.6635071463196566  0.3361975005339726
  0.5844631379846641  0.4156945676173043  0.0017854411432547
  0.0005067875371536  0.2496098716891193  0.5864114259571888
  0.8348563850167876  0.4165067528514585  0.7511329989519828
  0.9180840779468910  0.5004489635672414  0.7517190278921836
  0.8366504975992418  0.4908123907837014  0.3441101280461746
  0.0848827790157276  0.2496927327700667  0.6687881865565354
  0.9181868833232791  0.6680391299086991  0.7518052893512168
  0.8338370407286382  0.7517098668542087  0.7531381463852237
  0.9190273942261208  0.9159789908539504  0.6686014580858332
  0.8350549234657513  0.8351954294525855  0.8345108988915882
  0.0861981191528580  0.0026172186156134  0.5840743338305162
  0.0034340251583655  0.8346463490779746  0.8342530452304970
  0.9204054036526025 -0.0000037247529359  0.7497134700300150
  0.1684314857352011  0.0013396287685667  0.6681267727369322
  0.0022381102545046  0.0844501275991705  0.5859181675470203
  0.0857033755510040  0.0862849824471841  0.3335791913581690
  0.0839484954857094  0.0069283592127700  0.4187648092752891
  0.0005346766682124  0.0865547115449024  0.4187079896466320
  0.9180817085669341  0.0863483062722907 -0.0004298540719218
  0.9185773918103359  0.1671234871691500  0.7508494671914250
  0.0029994273830058  0.9170675252032395  0.7506944818450034
  0.9189820750664375  0.1671943034592211  0.5862547975698811
  0.9194282604033107  0.0032716690198471  0.9155726802615533
  0.0002768932683792  0.0858219286230217  0.2514890526156967
  0.0067616512430276  0.9221530845489869  0.0784084793641511
  0.0023458412390654  0.0865715952917657  0.0826831187088875
  0.0017232980018054  0.0839407282229701  0.7503441583695977
  0.9191588300005504  0.0844997183798379  0.6684066187366434
  0.8349867509171277  0.4991731818256949  0.8340499198537712
  0.9186024688852835  0.7522569927774978  0.8352960165451457
  0.8351635957923083  0.8410264831038212 -0.0084388154531193
  0.0881670285909213  0.9204631548789891 -0.0019990656257908
  0.0850545961136606  0.1687040814990297  0.0835783017194815
  0.8350091853397280  0.4172779236806848  0.0847366797911930
  0.9187421959456135  0.7509536998580190  0.6688256900487405
  0.0015520926544098  0.1689206024437917  0.0003084907101050
  0.8331495253638955  0.9135783920019807  0.4251421660865670
  0.3345237353863773  0.6663694720913891  0.6693754851784637
  0.4174999098385804  0.7497639052242653  0.8335971003716569
  0.4180380502513301  0.6651377938279903  0.7515660375257415
  0.4172086305038572  0.8332641934779341  0.7519687943011180
  0.2509898061675903  0.6667036328854131  0.7509426558146309