B  Cr Ni
 1.0000000000000000
    21.0519239149505069    0.0000000000000000    0.0000000000000000
     0.0000000000000000   21.0519239149505069    0.0000000000000000
     0.0000000000000000    0.0000000000000000   21.0519239149505069
 B   Cr  Ni 
  17 259 605
Direct
  0.5813955165391095  0.8261984149911212  1.0102617325681682
  0.5249402952300819  0.6449105606627147  0.0566773623338418
  0.7599665775440736  0.8371620213077272  0.1536653264206994
  0.7261884038738794  0.7739673776030606  0.1124917674215665
  0.6372134223339878  0.8598528612489187  0.0605460578495373
  0.6667220446069744  0.7401983521664187  0.1561390338368139
  0.8204376847310946  0.6829789538150215  0.0741521530993645
  0.4878169700114050  0.5851817485703147  1.0135522514063642
  0.6685761369218949  0.5925695389894560  0.1579892270195328
  0.5846986188701563  0.6805803871151251  0.0145791701337486
  0.8526982012293134  0.7430496468937482  0.0251266713219147
  0.4822772746815668  0.7726773017931080  0.1460466695394809
  1.0863928953096125  0.6702309337896332  0.1668207025771007
  0.9074966920046885  0.8378439012751954  0.1581714072770084
  0.4281982631707401  0.7375676788972633  0.0981683924925096
  0.7629561287411200  0.6481907761911045  0.0251391802653103
  0.3452710280177708  0.6778984000743200  0.2442722145081624
  0.1666425955531128  0.9198514920956001  0.7471671086891909
  0.5811292721276848  0.0890694219683054  0.1695918945170997
  0.7505219674219100  0.4188570094851974  0.5015873381351680
  0.7492523383165171  0.6692184500066665  0.4162924362053815
  0.7277803000810502  0.6747506595028891  0.1112577159666248
  0.4182217689539331  0.4208141527044268  0.5027344030968196
  0.3331193734057383  0.4175890173264518  0.2515239800741301
  0.8378991883433824  0.9197198565840609  0.9154947003258889
  0.8255705883572995  0.7753786257875890  0.1111052400897396
  0.6683524977643139  0.4958539941650532  0.8303676985929509
  0.4969715391776517  0.8406180847279686  0.8298000191366486
  0.9204251332074342  0.5815947711148769  0.8310419267130754
  0.0841099033118654  0.4179323372624183  0.1668220546902326
  0.5851691509714995  0.5808117932693404  0.0002868860296027
  0.5527944814318388  0.8391465477210872  0.1017099933625902
  0.6067038929554499  0.6631819917763287  0.1091402271124222
  0.0852010587561257  0.2500908279597283  0.1679647508965745
  0.7507283526893505  0.1695718063026497  0.2518145246516334
  0.0838254205845552  0.2505633785545304  0.8337464380893885
  0.0037616948189723  0.8380581814916485  0.3389602667366555
  0.7533428695043420  0.6680925866225031  0.7478629327975655
  0.7563159843703900  0.6611041846507769  0.9140960382417950
  0.5854911256236421  0.4133079662480639  0.9993171306524343
  0.0015668733650817  0.1693936146792844  0.8333617477742543
  0.0839177177462888  0.1677204302977711  0.0846643784011753
  0.1652065103611126  0.0033789459047275  0.5047431067170510
  0.7507515262967589  0.7507265857436083  0.6676607926677109
  0.3302497139549234  0.0066744947521113  0.9999842735690482
  0.8344388529368517  0.2508741326991105  0.9167568457004475
  0.7533420492474173  0.4150854950888788  0.3386786379596341
  1.0014462922299088  0.5833904839699988  0.2510187214194610
  0.8355306981249924  0.2523001856025289  0.4182362043466971
  0.2499121649098436  0.2523538850885954  0.6668143492652703
  0.4987939446736916  0.0050129835671790  0.8316882989706725
  0.4151639912627708  0.4160355450791178  0.1669512099801264
  0.9998996130223613  0.8350977949030586  0.4998308911593438
  0.2492719176045470  0.6663810257327539  0.0802073270812241
  0.3324954195528740  0.4973069967254434  0.8319298441622028
  0.4046884466732015  0.6685820197139309  0.9075498958727215
  0.6680102133270727  0.8354425111942402  0.6687510973142813
  0.8372180965920062  0.8341530666368132  0.8327624788186515
  0.9242997970498298  0.7531882788756133  0.3405804095221960
  0.9173714214208462  0.2515917930592245  0.5013143472482129
  0.4997401975977644  0.0865844051479332  0.5857112246692265
  0.0020762176443737  0.8359387078555193  0.8305586135852030
  0.3330511228488637  0.1708950271692535  0.5029891521709335
  0.5842362358852885  0.0878178020418775  0.8313631595946003
  0.4986617502948782  0.0074595114219420  0.1698881469365037
 -0.0000340995519480  0.5828461767455818  0.0812216126776763
  0.0042676697008133  0.7518955790282716  0.2548339284604949
  0.7543746072434033  0.1691036492718375  0.9170121013800066
  0.8359772032659267  0.2529496026878345  0.0850264129812068
  0.8351657774633197  0.5830646695978500  0.4214258428089546
  0.6687178297575620  0.3333523203004249  0.6663653346265367
  0.5820554326046746  0.0887181447065406  0.9995689247734015
  0.1653227000728136  0.1717273337961374  0.1678329037966842
  0.7536476675124644  0.7488612599803702  0.0123646699608447
  0.9205510097586431  0.7518883909369731  0.8321648441802764
  0.5849360631601375  0.4153371203139787  0.8297715367522538
  0.9186857542861734  0.7519511877194958  0.6648162632150324
  0.3316146203335936  0.9206848363810736  0.7487641388280494
  0.5006123720166555  0.5012886124675735  0.6695651374084914
  0.5809229261094578  0.9306328083444987  0.1681331117566593
  0.9163097027839299  0.5831642779700154  0.1635118780907996
  0.4235441139836069  0.6480686822808092  0.0679656733272291
  0.3337544940986425  0.0045348052076364  0.5050977927172491
  0.0840495958618527  0.0028670401085953  0.7485924715264192
  0.6703378748856017  0.8367885696794368  0.8374775623737647
  0.1658310012004153  0.0055051304331912  0.3358170577435300
  0.5008067231459037  0.7516800368241608  0.7539514830300169
  0.9182324221539777  0.0858611814493450  0.3356840722420467
  0.1635731571531185  0.0039110875815048  0.1674226781491613
  0.5832633935327211  0.2504206915231147  1.0014140967779641
  0.9230090678352036  0.6603566735115879  0.2524766209662769
  0.7503500765957160  0.3334598746865620  0.4209678070264579
  0.5018657838533388  0.2510651820739236  0.0827304429364555
  0.6691126385169915  0.4956288711683268  0.3375318811863460
  0.6690162274715108  0.0054021060495776  0.8307175456825253
  0.6671399231144983  0.5016164265776465  0.5009044652869737
  0.5814731505758689  0.9268544517770487  1.0033750775479202
  0.7477431447051980  0.9316209471112143  0.1714156881152533
  0.5000065343217898  0.2528280661464883  0.5861427891401552
  0.1661873864500182  0.3339127536565005  0.6669764518443183
  0.4112730874692196  0.0875696973616976  0.9992871305122909
  0.9203942864484914  0.4173572890644445  0.1665042799772262
  0.4173171985940249  0.4995592397196469  0.4195185704182475
  0.0089544862353630  0.8378964059959708  0.9964664327763422
  0.0854626080781149  0.6679804636122861  0.7483808740596288
  0.8344261932447821  0.9039304055468647  0.0969622250411384
  0.2499214700714323  0.4175818536342786  0.3353333996539978
  0.2508753731600943  0.3364994191666752  0.0832708585459967
  0.0838733944876091  0.6686575381932560  0.5836156994274100
  0.5001231922887195  0.5032772740101342  0.5024320417893022
  0.5017729690991706  0.6691997755873764  0.5006491364927583
  0.0835134555819543  0.7531121851799408  0.3362855980662431
  0.6421891350262228  0.7595928258326403  0.0626596475931350
  0.9182080856608585  0.7528900647144556  0.4991673032546822
  0.4185668164367107  0.5834863573759196  0.5022531626690180
  0.4942730108954422  0.6705628015652377  0.1543865414514911
  0.7538925064953396  0.4152799968765071  0.9989477157527257
  0.6603519109351476  0.8418502631782812  0.1608175482968607
  0.8367929454539000  0.4969854367613696  0.8299862859590513
  0.7538111632107320  0.9202755590340805  0.8331774212899885
  0.8356112812278227  0.0879182837501222  0.7484301633122565
  0.1688948941347806  0.5008796836739436  0.3365949324497948
  0.8378526801707920  0.8381144042062978  0.9993776026326103
  0.2508224477003648  0.8364806182926672  0.0847164083879246
  0.2453093023829110  0.8422324733192926  0.2527313148546727
  0.4173625251743876  0.3351898016913437  0.4196297396359123
  0.0841473330656475  0.0040067606584418  0.0847450514717373
  0.1659466810725245  0.3330090703921571  0.8329550114591039
  0.5846174659921983  0.1681388449227659  0.7501624202941765
  0.2469578892801622  0.6675961169566270  0.2530179360931510
  0.4171479656777820  0.3359182933595665  0.5850056766806588
  0.7525838252746236  0.7500183134481186  0.2046559346227802
  0.1666808005849679  0.5014806051748532  0.5003030751086200
  0.0846884322738518  0.2520141283972229  0.6664875238469277
  0.0030527388477115  0.7528323564826649  0.4204505580818597
  0.7535741064192202  0.9272538083037415  0.9900829478148637
  0.7522670138529869  0.1683948468026057  0.7496946501138890
  0.5011379903450234  0.5743355379042495  0.9113842969461982
  0.9186667359146254  0.4165503443180004  0.6654280923979243
  1.0028857803998508  0.5836738796176375  0.4194735305706386
  0.5830810093392775  0.7513419725613470  0.5021510313050903
  0.1655877538556415  0.4164447635848372  0.9154041028686357
  0.5803048646047854  0.9247743820298062  0.3404833523424677
  0.5836553200090472  0.3344845723231023  0.2517332946922679
  0.6661974501522135  0.0033930888366694  0.5023812684924286
  0.2478864481471318  0.1699419483040646  0.2537196223917283
  0.8348116228717295  0.3337486886819080  0.6650452755779501
  0.9188127915701468  0.3342721811793330  0.0848126256331621
  0.2490668882556165  0.1693095709420329  0.4187932329156944
  0.6699757953374776  0.0847031051076800  0.0823050505540114
  0.9192567157816190  0.3344315277609323  0.2509610763041590
  0.2491709104221144  0.2521914664971121  0.8337489831382804
  0.4962025617225283  0.7583389484199154  0.2547149789396818
  0.7511697057971476  0.0894448287605011  0.3378337622496740
  0.4162283849729063  0.2533100479386229  0.1677931910326683
  0.0863852744791821  0.6668172084941622  0.9143155143545396
  0.5779218133067353  0.0119786193819476  0.0821679565711269
  0.7510339859169350  0.2517864750165082  0.5023035869700181
  0.4148568648955991  0.4980730181786542  0.0813664414634271
  0.3342935457619954  0.8349973058938044  0.5018903155270948
  0.1670166552074087  0.2529756800302937  0.4183273886807129
  0.5831087149277083  0.5818970460180996  0.3321686954604894
  0.0838184106564444  0.2515773740238523  0.4999571258970235
  0.3307741478312916  0.0045476892669755  0.8311860512197493
  0.4893156885630964  0.7639488862485485  0.9063942495257408
  0.2497117672187145  0.6681187238630628  0.4197248264593054
  0.0011502669705949  0.9220466999059291  0.9150174227577370
  0.2508135544581180  0.4182622454225248  0.1676154010902443
  0.6561144182247641  0.7653562244996460  0.2620222390044607
  0.0000238572821112  0.4158369233193492  0.0837590572229765
  0.9209811613512725  0.5004565769060096  0.2510996588186103
  0.3325136776519224  0.2509458013955309  0.9150828135169408
  0.0018409431079171  0.0856483023100632  0.0855209027533496
  0.6671830009616553  0.6689426559324660  0.5013427739667542
  0.1667462784751716  0.4992982777190862  0.9992564254805760
  0.8369119943353943  0.0862839023924554  0.9157316483946166
  0.4157816773049552  0.3338342981452427  0.7481347338364559
  0.0838711451629873  0.0030241952561453  0.9157788165913300
  0.7512250679685243  0.9189037626404424  0.6690923292225676
  0.6690919884159306  0.4154657833105301  0.2525436657428260
  0.9999967221734744  0.0031741628454630  0.5019598797343372
  0.2498416023153139  0.0858730071657502  0.6666931315803871
  0.3293656672601059  0.8387462310854761  0.8306111741235311
  0.0878431461412790  0.7518399582275943  0.9978401468588265
  0.4176690818953940  0.5808011586200926  0.3393743025073730
  0.0846544588080898  0.2512637467100495  0.3353118507581441
  0.6630379473313777  0.8458954796796476  0.3423428762255207
  0.3301411528227295  0.8389831835419572  0.1684304574360283
  0.9182289321961057  0.4182967036856122  0.5013653105268945
  0.0832428945026439  0.2511007910109488  1.0000504537365260
  0.5844277995443975  0.2498275521911490  0.8313277334073007
  0.5811258331451051  0.0903852939726297  0.3380366059015591
  0.0841798645209481  0.5002768886683128  0.2513979392647873
  0.0016846217796218  0.0032443850304941  0.8325133730641173
  0.3333384322671794  0.6675017619192233  0.6678269872904355
  0.2487924980595678  0.8373711189054800  0.4206862583680023
  0.4112023860156402  0.7521645865119971  0.9978259061370491
  0.7500122380855454  0.1686759259647600  0.5824693855875102
  0.4173363374602004  0.8357960800759535  0.0898023926144539
  0.9200481792734282  0.0039940699824125  0.9161736181552015
  0.4979860046014026  0.4883211069177997  0.1732713833855642
  0.4143908686838271  0.1695438715704297  0.9163748183496964
  0.5825324729196650  0.9200328017076390  0.5031276688831291
  0.5922964797617399  0.6528358868226024  0.9110829632367313
  1.0010464299371389  0.0028037291509981  0.6657340913241661
  0.3325636448538703  0.4153922729700179  0.9140236755847362
  0.8350055812289005  0.2508821888505577  0.7485839464558786
  0.0843582399315717  0.4998717849648038  0.7483953234489520
  0.8334680975766594  0.9184804862146023  0.5846746788825212
  0.0844628459998572  0.0019589499292165  0.5844307768932359
  0.0016258066023599  0.9203480563561129  0.4192866027353939
  0.8324138779340446  0.9205800839978049  0.4183724059959878
  0.4164774219511685  0.7518767112364479  0.5033735994845959
  0.7393100666531642  0.8541625580026107  0.0613097145393631
  0.7499833795030438  0.3357667597828580  0.5821255732749133
  0.5179659475258830  0.7446199513580847  0.0575083792390311
  0.3339693800251670  0.0066028618069846  0.3374760064344227
  0.0884666797321395  0.7526106235417505  0.8317884511383161
  0.3314761882816921  0.0076060423771320  0.1678810448666388
  0.3326067356060465  0.5022710658500854  0.6678666386974271
  0.2499369687818336  0.5835705343212376  0.6664900697543993
  0.1695931403154700  0.8346015932779940  0.5024505142506012
  0.6647600515159878  0.0140280399489683  0.1723027457563787
  0.5797161990361056  0.7547604531489270  0.3352728407187774
  0.6665074509367052  0.1680796526918375  0.1684462244789032
  0.2502988030288488  0.7515712757683204  0.9990661499531988
  0.4148588135113159  0.7528703961040497  0.3335774455765985
  0.9183866777016865  0.1688805744071103  0.5829881821243788
  0.5747039844271645  0.7565509918692738  0.1741530093748712
  0.9189557513325035  0.4171146660002114  0.8310525356164996
  0.4107634592187887  0.0088589689651010  0.0830364814767512
  0.4944339382537428  0.6702684134156399  0.9648503761605614
  0.7503465549783497  0.2485740936012917  0.1707527705371154
  0.8368499036972095  0.0869549673908106  0.0857136724555124
  0.4994335589692625  0.9200071792323311  0.7497850543793816
  0.1659661982320275  0.9214947470227677  0.9165559065330845
  0.7519109300946035  0.8361277168541318  0.4174031263679796
  0.1678725846459036  0.2529452896306865  0.2530414988544923
  0.9194672772510364  0.0065615283346438  0.2562503053423638
  0.6646357203629734  0.9229010278946750  0.4210844816290382
  0.2507060773223309  0.7514587450772405  0.6658710061511445
  0.5849863465218376  0.4984878596366059  0.7476623569231398
  0.1674345884646694  0.2509389081800987  0.9164691527027428
  0.6702779805639346  0.6704549212963979  0.6685464024315063
  0.9186210141319109  0.3348119537352666  0.5849160014043111
  0.2497180736566018  0.5010819063100382  0.4188003280150142
  0.4972695494582068  0.3314495870947318  0.3383197830559093
  0.5842448121539959  0.1672004970206923  0.0835727557753166
  0.5640039213035292  0.6696045844212948  0.2545153303232417
  0.5002654059255045  0.9191525295983696  0.5844610293775910
  0.8344102190332365  0.5850553180154461  0.5846618393712826
  0.3316919738356129  0.1735696671828707  0.1690700530649963
  0.8344591066456990  0.4157311862169468  0.4182069753990498
  0.1652903227586268  0.1707148754149409  0.3361164299838351
  0.1663849165019302  0.5835280357306420  0.7472698283903305
  0.3292232017855551  0.8395012678244984  0.3434224945707403
  0.3302020592095761  0.7489771020712016  0.0832058493894353
  0.7631052585862976  0.6608125446680112  0.2618447838808738
  0.1677192529217427  0.7517736292198747  0.9153850428393444
  0.4998884414887146  0.3326539648705825  0.6670939509623797
  0.6681941134374871  0.3339887887197197  0.5042195531454563
  1.0004198080695144  0.8335286941929709  0.6657421450343183
  0.6674849268858275  0.1688952297983837  0.5022069870576101
  0.2501837049363009  0.0860709285180376  1.0007010507881384
  0.4999559189198106  0.2537915697841160  0.4197184505839791
  0.3330300726445902  0.4184182657404871  0.0832773175328227
  0.0850249472772539  0.5009276017778936  0.5824491522850996
  0.3318558577876722  0.2504098275822732  0.2509144729856176
  0.6691500252283664  0.9185760126334799  0.7517451565723455
  0.6695080799942928 -0.0002508818523733  0.6682315785483069
  0.3326719998809521  0.8375826763211460  0.0014497996997796
  0.4137141314374859  0.0880597450821451  0.3383605425817815
  0.0013571803044628  0.4164902005455314  0.9155683981635352
  0.6675642771639421  0.5682340229960890  0.2621300202815083
  0.4157765584358418  0.1682229844777302  0.7502541723113929
  0.5843031465826780  0.6686714060179413  0.7522723240774069
  0.0843778287047912  0.9203792370034990  0.1681403061803397
  0.1664899103602197  0.1692439619655103  1.0006711718312185
  0.2475786209187486  0.0878066172352254  0.1683777277455547
  0.1674612362300389  0.9215866850923151  0.4205963440193895
  0.9186817141049863  0.9188641324670170  0.8310450860283828
  0.0082238955424336  0.7520000620726128  0.9103371932672043
  0.7510347665119987  0.6683831103387068  0.5836961112529907
  0.0835274974116321  0.3337911579584335  0.9166859946099780
  0.7500396727559594  0.5849037191763535  0.5009336347971547
  0.9248551887460346  0.6656348818943106  0.9097446791554766
  0.0848046191911096  0.8378980242637901  0.2532379874051324
  0.0016394962113334  0.5002494087690269  0.3352982595220125
  0.0854535873426754  0.5815250506753464  0.9982405157432490
  0.0838651869743241  0.4991957144655242  0.0828811681398570
  0.8348765959993729  0.4187098162030122  0.5833660277610452
  0.9186793324029737  0.0869058865233124  0.8320641892803942
  0.2503285198705656  0.5849008131236768  0.3358870268567181
  0.1670231621326525  0.4169432581998080  0.0839555923622436
  1.0007875939008606  0.0856560932759404  0.4192322169224287
  0.2462640359248557  0.7525287727962163  0.3395395038212450
  0.9178910176949564  0.2510889751752275  0.6655701645192161
  0.1673238723746636  0.5847019458698308  0.5836271326483462
  0.9187350299306741  0.3336756846205506  0.7491249427415617
  0.2487588286567574  0.0855961440703440  0.8321275475032218
  0.9975827708978282  0.6662237565979782  0.1636188702749204
  0.0841632780265627  0.6666192451898454  0.2566615317956374
  0.4990972479036628  0.8348876875970230  0.5035345706894154
  0.1684934722759707  0.7530864993211570  0.2522303989455003
  0.1675779288918617  0.5845704867301069  0.4187689376595911
  1.0011359264962045  0.6678850550450135  0.5016919170752560
  0.7505591217058512  0.1702252183175464  0.4189776896552505
  0.0860409599498730  0.8376767792802330  0.4209454212608601
  0.7501938352873284  0.0866927726843012  0.5025044316276510
  0.0023101662975245  0.4984226391652152  0.9996178405587900
  0.5838406594012542  0.2514641789958664  0.1674897107114551
  0.1669897083451446  0.2518947909882188  0.5839066341644906
  0.1670314157663385  0.0862459179125164  0.4196302159549055
  0.0841991135915797  0.7516598113238346  0.6656218652709645
  0.8349815751961998  0.6682587648069251  0.1698031238127134
  0.6605649837456445  0.9281090068275166  0.2531267939238077
  0.4976235551395415  0.0890496515301004  0.2539445830492621
  0.4987048926313288  0.1711411461883084  0.1681388525713148
  0.8371249990479217  0.4148994858134988  0.9142363651230767
  0.4154821160174326  0.0866454753025455  0.8322714581502844
  0.1667963716826844  0.4175815458524995  0.4188315760763294
  0.1663615439458433  0.3350192986852677  0.1675224381528941
  0.0831892024033151  0.0860936072709503  0.8326133634416837
  0.7524417191587005  0.4149885430271236  0.1690851876048992
  0.3330113835969070  0.3346102017987715  0.6668010325417574
  0.0836435924344897  0.4168376046050826  0.8331930264161184
  0.0075239296334867  0.7503864752562884  0.0815489063520199
  0.2513773031826205  0.7514035116939798  0.1681810265035391
  0.2489310856206476  0.2534550723312134  0.1669145420477889
  0.8371749449675939  0.4139838664142035  0.0846530515760770
  0.2494150834873278  0.8366603357540291  0.7487492778962893
  0.1670842770461356  0.1704483974960830  0.6667387698886025
  0.9177206308573562  0.2508800017971057  1.0006440449568046
  0.0014842459016230  0.2515711313022795  0.0848635029880365
  0.9173064496608179  0.1685664855710616  0.9170111497983642
  0.0015537350964751  0.0858592887660389  0.9166135402661876
  0.0869755678000160  0.8375687958087134  0.9141757301153297
  0.3346833261391079  0.6681884196357807  0.3368395240312831
  1.0004266853408978  0.1692731453347541  0.5015120830056040
  0.2495272154779720  0.0044625609040358  0.0852293382172162
  0.0015130044197839  0.7513748132831476  0.7484953122457554
  0.1664558685550963  0.0873906136540217  0.2521551935484934
  0.3319659484859641  0.0867432783804909  0.4210039801177636
  0.4988465930407345  0.1712872250629574  0.3369308249109447
  0.0839497595345679  0.6680376274975494  0.4192670607366344
  0.8337935886322509  0.0021067980413434  0.5014440020143851
  0.4150215934599439  0.1708042749467454  0.0833802828080211
  0.8355300789281355  0.0051595953650571  0.1690085347560439
  0.1662089881061523  0.0030263529009273  0.6665150523841978
  0.3296410528550517  0.0899415203051077  0.0855662784410195
  0.6826218937444026  0.7421850728620877  0.9127490561647433
  0.2496006454094342  0.1696918634503670  0.5844432985107012
  0.0851016071351087  0.5007495815274629  0.4186767929151455
  0.5847872246770252  0.3333233982120523  0.0833002660650860
  0.1750788987300888  0.6675534791461386  0.1670482513790864
  0.0025026645709537  0.0046340680895069  0.1681704014793231
  0.2486158176009472  0.9231951358934432  0.3371605137441608
  0.2505195175084111  0.5828133871838972  0.1668459228075511
  0.4156839738916996  0.1703691548394612  0.4208459517864543
  0.5833384541563290  0.0866193391806690  0.5044719236973572
  0.3328642961837561  0.9194503281395399  0.5841516084329040
  0.6677986401534416  0.5013820458043277  0.6679938523571046
  0.0847750137348856  0.5845163716192152  0.5013302698797772
  0.1674320375211409  0.6674803794756040  0.3360541301720776
  0.2503265747709935  0.5013132183915365  0.5836520390212784
  0.2495432614815105  0.2524473443492805  0.9991667129774773
  0.8288957396964451  0.5855239162529466  0.0807552905149145
  1.0007049134456427  0.7522826575563325  0.5828747345754005
  0.2467346655077213  0.5818668112932051  0.8294129808353252
  0.7536520391112997  0.0077446524670557  0.9136748458457240
  0.1665530156210432  0.1696548980343798  0.8333658116193828
  0.6662906111315349  0.4167708121340358  0.4203658213293876
  0.6689679511680775  0.3322760037303180  0.9995544358721435
  0.1673947538151803  0.5829242078422755  0.2515577088394607
  0.7538065307666074  0.0035061799152203  0.7502187987503187
  0.0839654481855152  0.1688074634730969  0.9173899059768120
  0.2497462100879453  0.0044054455394448  0.4203695486252759
  0.3320330155119450  0.1701958426606306  0.3368312493668327
  0.6675506527199087  0.3318455060160841  0.8320489285754407
  0.2495410413372624  0.0030297376094487  0.5845728535984124
  0.4984120492773331  0.4126171423952379  0.2555305719274761
  0.6666810964037114  0.8354768568829855  0.4999998139532628
  0.2486327168962892  0.0029180803844162  0.7488704223524192
  0.7492561584229500  0.9255270060916989  0.3392365391392632
  0.1658586586344308  0.0032975720917207  0.8318988307735167
  0.7502439157474652  0.8352643720417905  0.5838449375722734
  0.8350986100594645  0.9182490809349666  0.7496204647204723
  0.1669197587543758  0.7516466139520293  0.4203264045775043
  0.6658953123861860  0.4195946892097154  0.5852809419433956
  0.5846812245883599  0.5859956869088144  0.5022006683640662
  0.2499567895718008  0.0863707246971081  0.5025843248292304
  0.1694657607317782  0.7519424680322427  0.0830353023784891
  0.0837376094296130  0.1685759741571027  0.2522052399739479
  0.1664325038436830  0.0865282429183438  0.0845146206851681
  0.5838613537729492  0.4134655720302893  0.3373218456444090
  0.0840199744312890  0.0852909793298686  0.5020460337015966
  0.0017783201587859  0.2506478974982305  0.9164879370087647
  0.4158340598140663  0.1702702359277612  0.2527384789140518
  0.0845382889635372  0.0043828657566069  0.2526476410298809
  0.0841936092768933  0.9194163000277665  0.5022613623334483
  0.0845199230740731  0.0034189500532533  0.4205454419729431
  1.0011987780283256  0.2518988531217304  0.5835172159420077
  0.0006978421980107  0.1694086352141230  0.1681415051572233
  0.7536357529829082  0.2506878900520812  1.0008840123002400
  0.0833936468186759  0.0854831401318676  0.6663540241013013
  0.4159998878866017  0.4999180787438299  0.7495382460570043
  0.0841955141590513  0.3339373536087942  0.5832919248828560
  0.0843723151760713  0.4177227173105912  0.6657589652776148
  0.0859039537192802  0.7591170599360832  0.1685553545660904
  0.9181161708021601  0.1691905887964337  0.7491484160552042
  1.0005921256180150  0.3343549896850613  0.5006247251029105
  0.4170299098014121  0.7517005832164895  0.6695318079179973
  0.4164922397689442  0.4150108282268370  0.8303746975431483
  0.8341210300562771  0.8343279403389546  0.6663418089151362
  0.8358358661837546  0.4159218369742654  0.7473631194781862
  0.2500233293309602  0.4187425750930135  0.5009376303521456
  0.4987142813213355  0.0888290311287868  0.4210781672407176
  0.0013110983241828  0.3332748560479001  1.0001715371899442
  0.6680007966756122  0.7531472402919087  0.7539011591376724
  0.0847170098483177  0.8353466067168436  0.7485511241620640
  0.0841619691078430  0.3343051186660639  0.0836569582284314
  0.1680764613489058  0.8372468260441226  0.8316395382102739
  0.2485824147633455  0.6684235224866879  0.9137807390619815
  0.1673301664394801  0.7514964034516881  0.7477516283288657
  0.7535323535327718  0.8341001777338317  0.7508806703657446
  0.3299407766256981  0.9230267722169027  0.9152978174943989
  0.4165400615117012  0.6680299995302498  0.4201620593157601
  0.2484335828284827  0.7536941945541390  0.8316622442996074
  0.2494123406780371  0.3346311772082124  0.9169610136077689
  0.3302463399165935  0.4959553614459871  0.9959965656019506
  0.7518765810422907  0.0854481196604332  0.6664882363729161
  0.9205122640200106  0.4978208761789564  0.9150954408994779
  0.1669635840376433  0.1700199962035717  0.5010677338473785
  0.0853844977251316  0.9212618721508475  1.0000671702702593
  0.4166404755567536  0.1692306199159097  0.5851709242908703
  0.4170657661085291  0.2531703119776473  0.5030498608136680
  0.9334416378575180  0.7513422870928274  0.9895148753794535
  0.3332413158051455  0.2526625875543166  0.5848856994409437
  0.4156113852607488  0.0871632200509581  0.5035445715777477
  0.4132739047198385  0.0079026526537289  0.2530943622803243
  0.4181268733861339  0.6681291909617521  0.5853127678099707
  0.5839361460758815  0.3351375570518745  0.5856107235135501
  0.5840315338940207  0.4171089155590424  0.6672244923325846
  0.4151822849755493  0.3332464032808050  0.2520062826994188
  0.2504539900333884  0.2523532170492099  0.5014087787406433
  0.2490885291850793  0.4161470661665348  0.8321614967410985
  0.6672633579187902  0.7517905358637715  0.5842445728424005
  0.3310484990972997  0.7525672267060859  0.7482560857853569
  0.4161807885222885  0.6680405972313612  0.7519152800500215
  0.4147098315036453  0.8374705971109859  0.7491078693760276
  0.4124546945486836  0.9247313317500582  0.3385721831857960
  0.4001146570587767  0.7487856338550789  0.1862649641154912
  0.4113040405920235  0.7538330649349385  0.8293229636612856
  0.7510539329883921  0.5018142986968696  0.5837963830024639
  0.2483392882561058  0.1708306821838268  0.0845472588376486
  0.4095911215205273  0.9270212680725698  0.1696258762502656
  0.5835504598298631  0.9243012252067222  0.8300087198122443
  0.4083538670860885  0.8420806044174474  0.2599400967898735
  0.3334447950260714  0.7513123391608479  0.4191236158693932
  0.6685737689381704  0.2506233227167930  0.7494315267428482
  0.3295363060847892  0.7544054818916498  0.9150316180434787
  0.7522950994830356  0.0876772293682033  0.1689090097452850
  0.8363211346086273  0.1688920784900187  0.8328391014771809
  0.7578195874398082  0.0037306303025235  0.0828842607010194
  0.4167570711679292  0.9198807108775875  0.6672452244142624
  1.0010251971771871  0.3354561787161047  0.3346961329923947
  0.4154075454713625  0.4165307934797390  0.3369217049095842
  0.9184671977097524  0.0023114936270098  0.7493108358774990
  0.3315054884517585  0.9206591357601628  0.0849935611374791
  0.4998655688698336  0.3342667116578878  0.1674840584382045
  0.7531760157036627  0.4917316880755161  0.9103116188254852
  1.0015707093773021  0.4172331152171768  0.5836533901157529
  0.6666795138975199  0.5849569003184684  0.4166099738377771
  0.5822837296513439  0.0049215403600099  0.9152146638495228
  0.5841816607001081  0.0017781075928890  0.5861880073763363
  0.9183862377336096  0.5847553632716755  0.6651025484793673
  0.4148429216247102  0.2514287428931535  0.3360877178577292
  0.4164634668716617  0.0862802877372145  0.6674472931387389
  0.0051002134348911  0.6675080729169103  0.8296237397809836
  0.2498723691777242  0.4981191490626272  0.0825546737004618
  0.7527326268568258  0.3331992960158914  0.9159811369101745
  0.6690171993660897  0.8348512828881663  0.9749338278044637
  0.6664255791819824  0.2519592124131544  0.2528446771161472
  0.5842905958580892  0.8360064539650536  0.7529543055196248
  0.9190441741072862  0.6678799039623228  0.7490870919183179
  0.0042825421071458  0.6654968532738311  0.9969128375420974
  0.0013264719522448  0.2517297153990071  0.4185620259090924