 B Cr Fe 
 1.0000000000000000
    20.0899999999999999    0.0000000000000000    0.0000000000000000
     0.0000000000000000   20.0899999999999999    0.0000000000000000
     0.0000000000000000    0.0000000000000000   20.0899999999999999
 B   Cr  Fe 
  14 206 480
Direct
  0.0750666592895102  0.0186036746725876  0.9203743870052363
  0.2658833006676760  0.0719606039678409  0.7233179807238591
  0.3733608581233080  0.9915184411460909  0.7938129558856070
  0.2074318569384718  0.2687239713288906  0.8610800230178857
  0.1420839283932159  0.0707032819011710  0.9060884474396992
  0.1477559983686804  0.2788472088276568  0.9190245309510189
  0.2926580955773140  0.0601532838656538  0.8861494957541532
  0.2202703347758294  0.0109553913981118  0.9132374867684649
  0.4176219771465616  0.9405471132328377  0.8490807465439086
  0.5583129043133426  0.0712373180589003  0.7816277424931333
  0.0896220351067124  0.0882465334267854  0.7169597376524340
  0.4966127936009662  0.1287395865049739  0.7827528624276556
  0.9692318226065788  0.1208632292000900  0.8482585724664828
  0.1269611532628452  0.1412559766346829  0.6593594851141529
  0.9991337710803676  0.5709454771436417  0.2877892013587148
  0.6446020214555369  0.6419828962367972  0.4976749562277681
  0.8593649183353421  0.2850706259588708  0.7128318017466201
  0.0715533026541864  0.0700844100611966  0.4955359747190036
  0.7147527682044605  0.8552963360427076  0.7122334133604007
  0.7150149521422573  0.7137997618523153  0.1440410391484732
  0.7857274166124681  0.5011113506093017  0.2164184658167809
  0.8581619614654710  0.4302813793902280  0.4285895444155454
  0.3610599407238295  0.3622548734138259  0.9312606232212203
  0.5737737774621001  0.1423000354091622  0.1446685757515074
  0.6451626280648060  0.3589376321352798  0.2163452971061918
  0.5736649601122206  0.5708831592996354  0.4291030941898368
  0.1004476110458867  0.1973681490871777  0.7460914814074718
  0.5017665930231635  0.5034261826284532  0.2147703633516669
  0.9982921698018618  0.2876773235127616  0.1459324664859043
  0.0722187137224245  0.3554869932356261  0.3589049363614730
  0.1427535955025095  0.4299221587016339  0.5695771274755989
  0.7165644540123577  0.7127794255775454  0.0003407528721489
  0.7166657368838933  0.4294117315379352  0.5692362419486798
  0.0089258136264434  0.0046155635384776  0.7151628389066135
  0.9968887617352228  0.2878675255556906  0.5667627959708377
  0.7853098984567576  0.2138298314316104  0.2161217649834444
  0.4311591702840952  0.7090355135212544  0.7117482139549984
  0.0019039840181141  0.7141421309537977  0.5682292737300257
  0.9989148070961335  0.5715185545585487  0.4273824530314226
  0.6457417344591465  0.3606313226742996  0.9282394665570801
  0.4317808738960280  0.2925432763110098  0.8592718460060553
  0.0708589420581873  0.2174295097977248  0.4967589989064192
  0.0726663923414596  0.3588072418278446  0.9292208136809254
  0.1429048610985352  0.4283690757371138  0.0017155900295261
  0.1485087012623677  0.0032490307210755  0.9947259161948939
  0.1427138088475685  0.7141393155513521  0.4276987047278941
  0.1436714786422454  0.2873355711658630  0.2873392733698716
  0.2114521214536772  0.0720343762439155  0.6357582467421217
  0.5705584892225397  0.8559390066158662  0.4278844780872402
  0.1425907303078854  0.5705289120431488  0.8585234479654944
  0.9929031308231009  0.2978234055053917  0.8589338943590681
  0.5021903004038233  0.3591923552992874  0.6409916272176395
  0.8579216740960072  0.8548559259928817  0.0007874651818092
  0.5701147559050417  0.8570854800910316  0.1422033992196801
  0.8581165424123465  0.5724347935107198  0.5676350983249107
  0.6456048882171418  0.5003115825492345  0.4997277001565325
  0.9301781073616426  0.7842950631954615  0.2142466264353755
  0.5713867211893680  0.4298152344102916  0.5694370920332219
  0.7154975699708781  0.4294339558975331  0.8567956413084912
  0.8582367810261264  0.7117933000446718  0.4277391226068273
  0.7174596122210273  0.5725277093954469  0.0004930355566746
  0.8573742929550605  0.0002880672545878  0.0007524876967928
  0.8571329662365926  0.4295897110651422  0.7132233407877844
  0.0705971630117362  0.7844968844332103  0.4965438348932683
  0.9281106835944585  0.5008643010922268  0.0724404241239198
  0.0007577002599277  0.8563987762101194  0.1442563018503012
  0.1443503174974740  0.1421748246067183  0.2885871802790754
  0.3607287628031123  0.6416225223574169  0.2153490558213436
  0.1473749771413289  0.9975368349960261  0.7181154321112438
  0.1421706579114672  0.1439449829235269  0.5586563328502138
  0.9289010954270962  0.5016945771096812  0.3581519538345001
  0.0010923867976750  0.7129797982797014  0.4287137924843658
  0.8582443730920394  0.2868953810528946  0.8582186742391086
  0.5741067071766585  0.5720779431657658  0.1459029853443796
  0.9258174512251255  0.2178038777479398  0.0764630243956951
  0.1431257306330046  0.0022264320682061  0.4263430386312091
  0.2153797744050745  0.2162827871708649  0.4990718870532402
  0.3667318391845630  0.2231580438340148  0.0815245007449163
  0.2864719340244463  0.9992956537662340  0.5728411877949766
  0.2929339229143001  0.0009848969657274  0.9918054441939113
  0.2141931881920933  0.0572903720717932  0.8181987534083339
  0.2138249022979415  0.2154246246276883  0.3565105577507238
  0.0709365169777786  0.5027835504784289  0.3576932107799815
  0.1432995854173349  0.1445604479248602  0.1438591198077526
  0.9298490016650999  0.6438656247554058  0.4980061502881521
  0.9353177857230347  0.2085411614841868  0.9209452927311220
  0.2897591305684677  0.4287067011996370  0.8560475303544378
  0.0008052285936549  0.7164749430146808  0.2846212683416750
  0.9999175942907068  0.8551646991279430  0.8559242126063843
  0.2854571862419212  0.2866423990253442  0.5701178868010294
  0.1431825433516477  0.5717275844013985  0.5683838385145834
  0.7863085071004705  0.3577625678439109  0.0715504835729359
  0.4295220249429340  0.2917688658758743  0.7098593591714398
  0.9283291913741882  0.0707944390512883  0.2150181842205736
  0.3613551808768490  0.3606510744466457  0.7832612125732049
  0.9977316708276855  0.4311674191122941  0.7112671637152571
  0.2838984586096210  0.1425631409404681  0.4280137754873550
  0.5727649298660179  0.5720351265552469  0.9995003315017237
  0.5020085412105028  0.7856355180808796  0.0725073762508042
  0.7847215986164805  0.6433284408381690  0.9286141946565882
  0.5737550144452307  0.8537125321278543  0.5696019532407431
  0.3581965371826697  0.3590160145985224  0.3585224391811290
  0.7158307615331164  0.4298881296544415  0.2866584914960421
  0.0008262645370379  0.7133712786896527  0.7128469251679570
  0.3578510487668985  0.5000428448596258  0.7847336730410549
  0.0650199662936043  0.3712153130299209  0.7805474205893111
  0.2148332680138470  0.3578179122034024  0.2180732460056381
  0.0000196028680435  0.7144312183136063  0.1447093887837995
  0.0729431436605225  0.9287836809631087  0.6407587067204289
  0.1433534751426070  0.2869148767633684  0.5681187441261727
  0.2149948561347050  0.5018442465380696  0.2163945869865088
  0.9989027439976599  0.4310352736980322  0.8579009511584528
  0.1507159928902341  0.1696497078944064  0.8667758595455540
  0.9265832345137991  0.3595498856812953  0.9286835081775031
  0.1401024481112184  0.8556877380980047  0.5693552942883455
  0.4305947364657112  0.5699994775512048  0.5690014391726385
  0.6447087532579145  0.7852679405222779  0.6415486897044461
  0.1435060741988976  0.5700231782935911  0.7113508593824829
  0.2113853708710733  0.9257389373208940  0.6401724192187075
  0.0702305344178898  0.7851111689880725  0.2134515704339064
  0.4316065503528937  0.5720922105212949  0.2864280439490828
  0.0012260443194887  0.1431549489103466  0.5670443518676354
  0.3557721085367836  0.1072379641562259  0.9515553539330681
  0.9980496296448403  0.1406619130418510  0.7135034882736055
  0.5015455027176001  0.9278602500795751  0.3568336563569999
  0.9996858519636435  0.9958262627624784  0.5662445526060012
  0.8585537082509280  0.0003516257565022  0.5695956387940112
  0.0722488545057565  0.0719906638017798  0.3555147749251375
  0.2876556285514247  0.4294321112188180  0.4279943732967040
  0.5734445448221748  0.2894619017387857  0.7121261565654188
  0.5030387923150568  0.6409707517710741  0.9304885921061801
  0.7894905205052185  0.0715147298286937  0.4999406187893214
  0.2127128232634727  0.7793474544640007  0.7833177610594011
  0.9954501004821261  0.9998305400094457  0.8568779001313591
  0.3592829432621146  0.2203163193533188  0.6370186368776660
  0.3491769057794555  0.0713887609106299  0.6461654656528372
  0.0689062583766373  0.9249435967973472  0.7827347958189317
  0.6442845950221872  0.0712937104171922  0.3571189886704264
  0.2115214705310146  0.2187450580961178  0.0801842034645698
  0.3574393870656318  0.9219929433014937  0.6389226632745830
  0.4327523250845003  0.2905990939788838  0.1481908871873477
  0.5033174548956091  0.7850989213532162  0.4982085757971109
  0.5013753223243593  0.9273208426962626  0.2139568432812278
  0.5695652995759679  0.8572811751627050  0.2858591423044710
  0.5705147201541617  0.9999456384337928  0.9994067371339891
  0.5003567587792258  0.9268478878818542  0.0712058314887145
  0.7152844250924328  0.5720103953884754  0.5677504447009064
  0.6430260634699176  0.7861035702353640  0.4970631889165315
  0.0782078520396547  0.0740894702345462  0.8134649839821878
  0.1434788743429294  0.1428510287630575  0.4252880800231566
  0.5768253089350608  0.2898223478510842  0.1459555853018781
  0.5017513347159165  0.5009042394160222  0.5002038299566942
  0.1435019069927946  0.2852411567582748  0.4275333337041661
  0.5013386526721209  0.5003969664300170  0.6393533751853163
  0.4321670849414102  0.8565666814220912  0.1440705579660237
  0.7173486284128242  0.9988670293275490  0.8568038424686747
  0.9297379622216018  0.2133473342822886  0.4992453240117181
  0.3591235772931215  0.5000858857361939  0.4992516185504838
  0.5727544205991808  0.2867583188479427  0.4292073809608950
  0.9293698061831750  0.3579992137529892  0.4984532019183294
  0.5731264009231464  0.7147678690525692  0.4290166787024183
  0.0726258637585381  0.9283138905320071  0.4977872247262653
  0.2848216979160573  0.1444685359421038  0.5707978555294158
  0.8573925364114712  0.1433857828992446  0.4294573406831330
  0.6438372375036810  0.2148666579203852  0.4998580436206702
  0.4310517617890426  0.8393590257413015  0.8556426754434124
  0.6453731624962941  0.4999322870584015  0.7849759100042181
  0.3434216078017193  0.0862341929918939  0.7912530207639924
  0.2781123136648675  0.1668285275977733  0.8528460625079898
  0.7151426703168290  0.1426540923096465  0.2867393192448662
  0.0677184739352885  0.9155499296905226  0.9300339252993286
  0.7154179101130353  0.1444521135592014  0.0002144815397910
  0.4694470415654597  0.0339395176078587  0.8115487459115218
  0.5022592693159074  0.3586894944806802  0.4989725573516505
  0.4377595721122484  0.1533606433041489  0.0108045465693578
  0.0705471370183660  0.7833197428476301  0.6405268525543030
  0.5040545873945542  0.7856030487240696  0.3572853336518376
  0.5022698713191045  0.7870400110778215  0.2138161310880810
  0.2128257610907394  0.5009093551089048  0.6394315570581601
  0.3552651637478911  0.0719881096871657  0.5007950834202178
  0.9270851134637507  0.3596656990092741  0.7833091162326529
  0.0714483476915227  0.6406174090595926  0.9286335609875050
  0.7164430185801480  0.5727411871105026  0.4285008667921464
  0.7870802087158228  0.5015331823359680  0.5001103962144167
  0.4987841242489739  0.9175296306999947  0.7827892155378539
  0.0633362269142199  0.2265246903849306  0.9397719850431184
  0.7144604168381016  0.9999645100094042  0.1429520703928538
  0.8581820528732760  0.7139616942542497  0.2858612114959961
  0.7861898230344702  0.6428056576639950  0.4991522273602179
  0.6435941895517596  0.6434137431115541  0.3590090400887477
  0.9310861350158730  0.6450752457041803  0.3562851099374363
  0.9322717228788867  0.0704791342734758  0.6381373037915379
  0.7872409170804424  0.6448616172629587  0.3580968880716991
  0.0018949940874069  0.8573342655395496  0.4276826438683519
  0.1397595960550422  0.8531656081084662  0.7106312475421230
  0.8566755695973263  0.5720439848224068  0.8576230125900660
  0.1443126319223108  0.9970038448891473  0.5672701451025072
  0.7842155516544038  0.6440521375365208  0.0719411633254301
  0.9992758157196322  0.2859167458119719  0.4280837544219319
  0.3581302660293866  0.7854819098640117  0.3560891307978720
  0.8585480043211324  0.1434707083677853  0.5695207092055804
  0.4318151715874502  0.7112421508505435  0.0017948655642486
  0.2151674561534472  0.0716965383740762  0.3561551631413044
  0.0712728611472239  0.6428968204071337  0.4970770091234465
  0.4301051267824186  0.5717009534368612  0.1447301057986551
  0.7157522255608045  0.7127509534321752  0.8560624117402080
  0.7144658503869379  0.7127910095872673  0.4283296494623543
  0.8581960282249321  0.0002751555525142  0.2852411419291447
  0.4321835146606750  0.4300561461091918  0.5682405639246985
  0.6445110807856461  0.2138183966413457  0.9291279820811360
  0.9238449206613049  0.0707010752452393  0.9323863538640790
  0.2155325094761046  0.9295860737323716  0.2123793992203958
  0.3593831474327043  0.0713088176569351  0.2155703646729588
  0.5018986682004316  0.6412200712643703  0.7827395383335732
  0.2059778962219251  0.2155349998646466  0.6417493774240707
  0.5023440191475109  0.5020169037852528  0.3579923124323299
  0.2870945304058939  0.7104997056326843  0.0016423050843833
  0.4307212631262752  0.9982426438225801  0.2856820601923141
  0.7881247342061903  0.0697837394821626  0.7839149523906538
  0.3595833512971252  0.5011372193993866  0.0739007897622485
  0.9319722924293928  0.2145763352972596  0.6419631379193896
  0.1433919520983852  0.8574770475626597  0.2845758246248309
  0.2821645623674854  0.8474723804335026  0.7076350308453159
  0.1428893196846775  0.7132004464594369  0.1439207514992707
  0.3571096068529683  0.2151566908938149  0.4991311920232431
  0.4304178870039599  0.4299033991834339  0.4283141165356793
  0.4287035813726892  0.1427784405505607  0.4290679324876280
  0.1413908338563711  0.7126635022893586  0.5682604131913350
  0.2131504184396514  0.6392217776372499  0.7845760163865277
  0.2867776224125081  0.5696731592062424  0.8568709249876347
  0.2133370888641284  0.6410190817868592  0.6400630435676998
  0.2151043806178928  0.0710098818661971  0.4974477053956991
  0.4310399320661594  0.7144921395620972  0.4270972352270472
  0.3594489288002390  0.9285067462241411  0.2139366717416689
  0.3587745617713051  0.7752945536259142  0.7817233625231985
  0.0709173851981347  0.6420301675724178  0.0731955242568386
  0.2147257375382737  0.7793944123160506  0.9298076432695535
  0.1435417548057260  0.8574456611885920  0.1423974727148624
  0.0704161910843839  0.0636897452992366  0.6259004259890152
  0.2874353782954549  0.0008823150801922  0.1412720659949593
  0.2152977503987219  0.7855188833389806  0.2142905802299006
  0.1433108779339125  0.8570753894318436  0.4268367486817073
  0.0003392363141615  0.5721477482774003  0.5685696432057811
  0.8571400358316249  0.7138117190471929  0.1435986834920168
  0.2135377149091007  0.7848795654993064  0.4977683510498918
  0.2148444788768309  0.9277172066122807  0.4978629141216855
  0.9289230522933652  0.6418452463699360  0.7845444730330680
  0.1435925407958592  0.4313870455952335  0.7110139347300617
  0.2866669333558322  0.8445306502627028  0.8558110335726187
  0.2864780672112557  0.4298149837756598  0.2871825014381177
  0.4320964763130775  0.1443498204266951  0.1465365148299717
  0.6443480420923940  0.2142655133420535  0.2153401255177500
  0.5020271243817780  0.0707112513741153  0.2152374237860983
  0.2932578793693235  0.2945609015668039  0.0109406889659084
  0.1426795459897597  0.2895804172323149  0.1480231021797059
  0.2154876312465864  0.3585125076128408  0.7857875219580478
  0.1430817117810795  0.4300075556589169  0.1466845619060108
  0.0002090261287946  0.5712017668805328  0.8577270588314386
  0.4301845448642571  0.9996222536775793  0.1438395858855434
  0.3598772512623445  0.0739828764683605  0.0758664471713244
  0.2874364742566012  0.2888992792954332  0.1479882244266512
  0.2146044187784064  0.6401669333761401  0.9292121383478107
  0.2858132292541326  0.5693940255808028  0.7120357555470725
  0.9992577520639446  0.5715505630026848  0.1440866275044722
  0.3578551330728435  0.2147304215431146  0.3581304959305536
  0.2929947460290273  0.1640013146687870  0.7081753804332970
  0.1421442248798260  0.7110404893325630  0.8566162932945864
  0.4264641166976194  0.9998089046821209  0.5719762621611976
  0.9987001421858874  0.4298055516059297  0.5687125766909051
  0.6445072954449316  0.9262974905584077  0.7842699881720191
  0.2904268597140334  0.2934667251940661  0.7070072965405505
  0.4939399908936765  0.9343985423250640  0.9222709247803570
  0.2937018348177283  0.1620980241893200  0.0236714293051961
  0.3623728737425296  0.3621388201084422  0.0773896420092818
  0.2869112026092139  0.9997891774983758  0.4276998625182490
  0.3605732695551662  0.2248123677846194  0.9340022846857192
  0.9316321639296344  0.9288729498315891  0.6415901133582123
  0.4308739556979240  0.4310750544995833  0.7117827857882457
  0.2867409004127247  0.4308502769048404  0.5686558883737743
  0.3575332206650207  0.7805914632756843  0.6389886919950390
  0.4286684130016795  0.9993328616098984  0.4290846803021199
  0.6435972949404839  0.0709978110634642  0.5001682671922514
  0.5695523682156488  0.9965131517643754  0.7154977992053311
  0.4340201147421997  0.8465117888898772  0.7061125183820127
  0.4287504667243228  0.1508055692087482  0.8582556556794400
  0.5706105568859218  0.1429527803645418  0.8564588522345703
  0.6446654643511814  0.0720360284502540  0.9290216993879640
  0.2142955487063123  0.7858267184888954  0.3563622237886406
  0.2876130487216685  0.7140761704896248  0.2853927779806434
  0.9990526280200260  0.4290782294535149  0.0007589754181936
  0.2879656947314124  0.7126133204287701  0.1443816701978699
  0.2141459435766079  0.4997701936935086  0.4983529826351089
  0.5004959197170783  0.0707632328870983  0.3573651737322642
  0.2874236792298230  0.4312019135252577  0.1468276537027214
  0.2877863359160552  0.5709222943851348  0.1449033831797792
  0.1424576796618064  0.5714737561239537  0.4273724884171846
  0.1425401005085904  0.4295090192043782  0.2878381578928920
  0.4307465264867892  0.5711523955284059  0.4280073272360266
  0.5033215839670924  0.6414353874088232  0.0733529351258064
  0.2147616432295554  0.4980087647970547  0.9285265059081079
  0.1431262596230780  0.5715830965603362  0.2864572846969369
  0.2873751646935734  0.5697287378543439  0.0016602674788199
  0.6443626634421912  0.6435246849935039  0.2151495736959705
  0.5754336205894029  0.2882688372594490  0.0006633340779248
  0.3596912622609598  0.3601772281718750  0.2173914339065938
  0.3590451192544891  0.5000737006219338  0.9290735741145930
  0.3595370932754934  0.6428013462014044  0.3567988355728091
  0.1424083247202128  0.7113285800122251  0.0009202303591792
  0.2860258401789545  0.5703176134703780  0.5691766451883907
  0.5029947247756898  0.7816297620453052  0.9297040581827127
  0.5030687535211376  0.0720600088333714  0.0738336239845523
  0.1429268565311448  0.7145252408548336  0.2852043329537372
  0.2866334890378811  0.2875473830620378  0.2873922494721610
  0.2869090774207446  0.0001158196333983  0.2848184723047623
  0.9290880191414083  0.6436648853860932  0.2156635735239496
  0.2157263047191084  0.3609232719923534  0.6377477617620827
  0.0672465386651882  0.3603842602652182  0.6387708408022148
  0.3910234502928708  0.0245654902454615  0.8937809564506444
  0.3573997218516710  0.9274522818718766  0.4990434998707888
  0.2148800859921981  0.6427459187282684  0.2151709602069623
  0.2854179583184560  0.7121425898056952  0.5686789321524247
  0.2860917701085576  0.7092664899519442  0.8564203020010195
  0.4305700773675610  0.8563039481624691  0.2863450032682742
  0.2884829504775196  0.1459573519293883  0.1485123298711324
  0.3632093584416807  0.2240113790105253  0.7836407124972019
  0.3588676598623293  0.6405419572286790  0.9295615208250176
  0.3591099715336064  0.7789755009783085  0.9307411936186234
  0.4258470472342726  0.1458064941420169  0.7137080049703279
  0.2873323916748969  0.8566510783726768  0.1431837838844170
  0.2873327608614687  0.8573115236474609  0.2849300185258724
  0.3585287951028795  0.9287292987549057  0.3562952953853708
  0.1424484264080216  0.4296831415598495  0.8567128242917111
  0.4268124355778244  0.1420476798276759  0.5727842887050842
  0.2845127984669223  0.7098841512379759  0.7112615243723940
  0.2149499750171122  0.3589402195001493  0.4981897897426815
  0.4300326849000295  0.8541983418326257  0.5685973262634029
  0.3599663578639948  0.2167473983212256  0.2174659157841758
  0.3605331427711165  0.7830817162595634  0.0727371745881804
  0.8562949843307582  0.1397033522849936  0.8560610396443099
  0.6436076468590767  0.9278895813775169  0.9281183595584886
  0.5001752624315257  0.2170836834798610  0.6424494987461213
  0.6431466698630756  0.9267818225254069  0.6418480930662998
  0.4308036015203655  0.4308412690308907  0.8566067953211400
  0.2174976306164886  0.9115954034392333  0.9309769361846858
  0.4314320859512966  0.7135991016773424  0.1443289999348582
  0.4313782540618184  0.5706888770732125  0.8564909624718839
  0.0000347619809788  0.2864738922121389  0.2873325570282604
  0.0004174665095871  0.4293873819263897  0.4270882901530382
  0.0708596908109119  0.6436797220844611  0.3563641428620646
  0.9286842704598560  0.7844698187048704  0.9288175141379044
  0.2872085601365585  0.5717034200054197  0.2861920180309871
  0.0043956851335999  0.2817722109898673  0.7202020576768510
  0.5728080721680412  0.1424112956677774  0.4288063625350250
  0.4306963061543101  0.2886117084905297  0.5686578566102527
  0.4333213150278887  0.2913617637465143  0.0039446890355248
  0.9282219956452639  0.5011448951175995  0.6404390495216242
  0.5731483732978740  0.1459970650037838  0.7139658565981669
  0.5029353032511862  0.5009843317783275  0.9291503533682091
  0.2137483872055906  0.2156784231235648  0.2169870925689114
  0.5036622477577537  0.5024807981613160  0.0737657916987683
  0.5733399761683362  0.4308496850094194  0.2872652455738921
  0.2865969897652747  0.1432833501911232  0.2860569057899212
  0.4998150066502514  0.2273286804302668  0.7839116558662184
  0.5018392272307247  0.2147896757132157  0.3580852402254995
  0.4300852199986460  0.1429862463318873  0.2865015042233734
  0.4306684789799605  0.2878561919217850  0.2881271473546031
  0.6450098589669460  0.3590727905741230  0.6408613977160872
  0.6427835152815135  0.9276536564390513  0.3571770469586601
  0.3588071489276313  0.5001114960320969  0.6399836053232342
  0.3581207019640416  0.6401659662977945  0.6404392775408666
  0.2864415299747896  0.4300756820588943  0.7128305560093936
  0.4305373884713565  0.5696693175444002  0.7123825180396383
  0.2119154089296814  0.9138234241601745  0.7815484398154795
  0.5022948517347421  0.5004302476817614  0.7842741071745689
  0.0033044293851574  0.0032885560484662  0.9963324828159995
  0.0687132222782870  0.3602557211511507  0.0756183903955546
  0.6450008393564066  0.3588183484228620  0.7846623717751309
  0.3589265563385139  0.5007471560936428  0.3572404846848784
  0.5727751375380636  0.7143914327384580  0.2861159902646205
  0.1433021837979874  0.2906870586479746  0.0158011005202637
  0.2272429656187688  0.1037010444130970  0.9465466510220537
  0.5018138772297012  0.6410235544703118  0.6402747062641868
  0.2173536356391959  0.0766658868677385  0.0709169467429518
  0.3594657384886764  0.6419325838226899  0.0730911662917969
  0.0012642540262138  0.1430326482079405  0.4266667927904799
  0.5741134415342356  0.4302894269715237  0.8563073570020824
  0.2871496005043253  0.7139535998334191  0.4266630584960271
  0.2150386765327428  0.3582138106625788  0.3583699770248820
  0.5725185431069010  0.2872021356734936  0.5705127049910823
  0.5022726699321932  0.6430047358842577  0.3573772611120872
  0.5732100260151317  0.5722231306011741  0.2871918619096009
  0.3579580870408974  0.7842456884461041  0.4981618251967185
  0.5036895677564233  0.7803942958677808  0.6386767255978001
  0.6449825983501762  0.6417096969673506  0.6406319962748981
  0.9291752278450649  0.9272522215022547  0.4973438619984616
  0.4986818980910179  0.0740092786198585  0.9339669065797593
  0.4319624614024344  0.7082426531013252  0.8566797972419241
  0.4310967080170139  0.7150744015454920  0.2860457751157576
  0.6451751356687545  0.5013569540255250  0.2164784371050064
  0.5024483033173079  0.3581088146890489  0.3582260708965897
  0.7144581465509628  0.8563364827997244  0.9999107369234285
  0.7153928178108500  0.1434059848903909  0.1439308768271562
  0.6425491006843264  0.9286785440023247  0.0708116601717210
  0.5723289094868852  0.9989057455560696  0.1431847518012266
  0.5725206975464924  0.9994215677777581  0.2862472553655880
  0.6444452167886828  0.0712920087028257  0.2144501717562007
  0.5721202980774104  0.9996272804771626  0.4282715268929100
  0.6438768090218103  0.2156232407351048  0.6417407224308954
  0.5708187248237542  0.9995416639441053  0.5718942409181226
  0.1427967734814710  0.8525611863238711  0.0021097791362772
  0.7872299526057485  0.9272890740652081  0.9293333881012877
  0.4235681184864072  0.9942156870098999  0.7057272334029500
  0.0725789631960250  0.9289775332917832  0.0695086047504638
  0.1828398952534579  0.1256036727867517  0.7431945592841361
  0.5735649368794187  0.4303591011083560  0.7123305473527809
  0.8576254017221174  0.9976295745140978  0.7101539721132062
  0.7153968629818943  0.0001084757687260  0.4284916384875671
  0.0722851866243460  0.9284260050425794  0.3556219137403450
  0.5037698347185239  0.2160574289559524  0.2160535578831604
  0.2152546369500124  0.9287786363921406  0.3563586458114164
  0.4302384167417992  0.8560987193965791  0.4272432370769018
  0.4997158224744130  0.0709184289851812  0.5003008054390325
  0.3580459337375838  0.0708500266148438  0.3567639760625017
  0.0721196211159260  0.2150060852461690  0.2166366814611828
  0.2878221993773458  0.8506818660360312  0.0033775475403818
  0.5703661033507552  0.8580597742834065  0.9982835197283341
  0.6454558887278106  0.4998256540076580  0.6402100577086686
  0.5008700748252605  0.9251196473774456  0.6407166691440245
  0.0716628507683986  0.5001262828711197  0.4990867249304162
  0.7857313554131324  0.3588026244539252  0.2165262103590170
  0.0004054597058920  0.8561221766041182  0.7115333880650478
  0.5770529971249313  0.9997393738634648  0.8559362217579879
  0.8580597931002040  0.2853463455713066  0.4290796566337203
  0.6442797802867757  0.3582119275731779  0.4993768067188188
  0.2850776224673298  0.8545994593752501  0.5688470233926081
  0.5709601226885922  0.1431084858291045  0.5721567360095416
  0.2171545488277326  0.2333224194353001  0.7720256445632575
  0.9295210192137737  0.9283245364802943  0.7833002199741433
  0.3589649963368649  0.9270874279692267  0.0711198096798756
  0.5736682592178376  0.1452309219530226  0.0009628053395313
  0.5044642801500389  0.3604351790345826  0.0745608170192316
  0.6447564338733356  0.5020979182537126  0.0722180317749370
  0.4323249561843281  0.4315849830337858  0.0023566529918750
  0.2170446795071631  0.9294711993320198  0.0682665575942334
  0.3596496237479767  0.3617120412454990  0.6381347090820265
  0.6447673882205959  0.3584289151226041  0.3583342370480610
  0.7879657892494226  0.2135717760269658  0.4996595971649326
  0.5003667648198282  0.2146823820793267  0.5000924142656938
  0.6436325082184531  0.0715507698134411  0.0712085392454593
  0.2143185632152702  0.6419448526871074  0.4980919504283348
  0.4978250278041574  0.0711519301729173  0.6445683276795389
  0.0726658731702197  0.9290896314401578  0.2132306096786711
  0.6454469112150555  0.5016773279681991  0.9287687947809459
  0.2151442000351046  0.7831922992189330  0.0729799820160653
  0.9986866409966967  0.8543197631571203  0.0021601516607138
  0.5061430040695410  0.2202198257361284  0.0779134877747834
  0.7159206124029450  0.4295605345867696  0.4286364002556123
  0.3598100868815425  0.5015722845222822  0.2167926472375632
  0.1356034860299943  0.1505404335442921  0.0023582904398844
  0.5035783418772778  0.3595348709845217  0.2168462542302721
  0.0699918637336414  0.7824067486037856  0.7836276900888820
  0.7861083814501681  0.5014812869352953  0.0723149737679159
  0.5712310909519354  0.8554744135662413  0.8570830587089929
  0.3597478141828797  0.7854451444376913  0.2142827056927004
  0.6444527610840325  0.2143262532731953  0.3579741262512217
  0.5747900909106477  0.2889084910961043  0.8578781910679955
  0.6548368778211677  0.0706604684335179  0.7854928235405363
  0.5026238929330542  0.2188038807432515  0.9296040738008187
  0.7168418966468871  0.1437843224929838  0.8577327235544243
  0.9943485891103051  0.2902483726462678  0.0037738473925302
  0.6441468796122702  0.7839490059510513  0.9285720767958693
  0.9298608742270972  0.7853761053983015  0.4978499685142787
  0.0713215202124425  0.5009699281374079  0.6399678622469667
  0.7861727071274571  0.9287159819924447  0.2140873843495867
  0.7163520522930803  0.2861766197839280  0.5701950073716106
  0.7164118589570818  0.9980112331969284  0.7123105600267341
  0.6428458955275798  0.9282640292633723  0.2143486363213634
  0.9297885609714466  0.3555537454096230  0.6437920789345342
  0.2144137722580291  0.6429084116427625  0.3567811283035792
  0.9285012243102650  0.9271310953957458  0.9303330441054865
  0.5747465247709391  0.4305479432937360  0.0010049807077569
  0.5021333445278298  0.6426031872327227  0.2151623878265578
  0.5747823455724621  0.4310805654591163  0.1456567667899437
  0.0715211615295785  0.6411725048776871  0.6405582304725627
  0.6450634076605544  0.5008852950758999  0.3576554721029662
  0.5726913846650690  0.4301222655124739  0.4286114054633558
  0.7869528020729888  0.6425749378912469  0.6404359204518690