Cr  N Ni 
 1.0000000000000000
    21.1207957439842318    0.0000000000000000    0.0000000000000000
     0.0000000000000000   21.1207957439842318    0.0000000000000000
     0.0000000000000000    0.0000000000000000   21.1207957439842318
 Cr  N   Ni 
 259  17 605
Direct
  0.8409659973612914  0.0852600426528879  0.7487411577149188
  0.5849835918494962  0.1718383793857812  0.7486641897209315
  0.1652648618174575  0.0846232058723089  0.4146238469030214
  0.6671668949234416  0.0864805373942909  0.5810985149019762
  0.7492909639178131  0.1788197692148117  0.7481444078020181
  0.2450543048836437  0.1700940344075762  0.7451554293105012
  0.9964822431687915  0.2513335405407738  0.2519992324401342
  0.5806314944117984  0.4987960825888952  0.2503235073399128
  0.9977197146930791  0.2510066924013894  0.4162522142547014
  0.3325270534293766  0.1684374293664272  0.4960911673976415
  0.0823899549478243  0.3348109298771019  0.2515471297125295
  0.5012605210228245  0.4184282326724422  0.0826112634796861
  0.3347007473424705  0.4151818329855002  0.2503594062085729
  0.6667420351076014  0.3345374350473445  0.1672846813842747
  0.2487320916102295  0.4179605418114517  0.6645318342285597
  0.5829308493355487  0.4168471722999581  0.4993130351247654
  0.5850715239528660  0.0862718048785121  0.8303653267347806
  0.4183575574295832  0.0836539685792285  0.8293471403397168
  0.4985679038928810  0.2528830757581051  0.5805740844712659
  0.0792844628843423  0.1688521588380333  0.9209369634604104
  0.2516582128714774  0.4990061243823747  0.9165316074558666
  0.4170384405850425  0.2517850367269601  0.0038032669785008
  0.1668154570878813  0.4178268953450632  0.0830443770178029
  0.5003140396966160  0.0830420781628631  0.2483125639865438
  0.1673342788320540  0.4900873464536686  0.1662665312871835
  0.1666573672230485  0.4988281057951618  0.9999706060115779
  0.4180975916570512  0.0928910048449529  0.6641408609374873
  0.6771646199984707  0.0842468507174099  0.9196477582096653
  0.5832029531263627  0.2520837649110450  0.0033016063982805
  0.3247863874478686  0.0824780921821761  0.9200636544318369
  0.4993244521717234  0.7453006350373800  0.5822399031695643
  0.2475363305195730  0.2526952722030422  0.6628138514132702
  0.5829368815627173  0.5823276183287660  0.8326160833077955
  0.5833606254971775  0.0840170282023812  0.1686603435451107
  0.4168208699120071  0.3334060435625443  0.2494300718575135
  0.4999529736696608  0.9137271308787743  0.9187105054226569
  0.3329405160781651  0.0029364328219125  0.6664777088416973
  0.1716255312231865  0.0827721985918727  0.0850709503121696
  0.7491380013586939  0.9988163666863935  0.2496881695990654
  0.2497722219970842  0.0825966414655461  0.0020921043288687
  0.5838020250916032  0.0829824679337367  0.0085158959478028
  0.5110935434762653  0.0003963826063209  0.6639406441623323
  0.4991829811896762  0.4999110857502656  0.6656708372323523
  0.4991216105068210  0.3328146471112810  0.6647721328614803
  0.5848412979790476  0.2530002911871135  0.8337768098005647
  0.7497033390973057  0.9978665313617473  0.9193584563130500
  0.1655277534918040  0.2513910160357914  0.0840305432159303
  0.7489800850185182  0.0003811868992617  0.4153109704239879
  0.4214601925768112  0.9119528963637500  0.6663329489088627
  0.3349699730545345  0.5824026661487038  0.9168696202743485
  0.4984146679571608  0.7497527335513736  0.2493289898566746
  0.1547512987952455  0.0015691638695267  0.6651501844044236
  0.4996246833364718  0.7467992065733716  0.4144642979936779
  0.5831066275507174  0.9136669766160144  0.6638025232773186
  0.6638717576423933  0.5822054826653554  0.2510758690556371
  0.5825458174381560  0.7469817921480817  0.8348400847032827
  0.5813630408831599  0.6669004549821786  0.0839157010706923
  0.5842576272396222  0.9139160270129225  0.8355622291863001
  0.4164781975725355  0.8317095924841713  0.4147554175928116
  0.6635105072270433  0.9156048275387538  0.5804997090891312
  0.5829681082374017  0.9151897372777927  0.1676284596909212
  0.3349847731749888  0.4990321633057659  0.9983728504024564
  0.7480034473061932  0.4178710703560494  0.1678362215463917
  0.5829560391795980  0.4177291246627188  0.0013154412405213
  0.5081794231523868  0.9153770289703080  0.5813056494962090
  0.4163576434791454  0.7488438328152934  0.8352539113053441
  0.1670657147156661  0.5817763358790641  0.0757443507558294
  0.0785998608355328  0.5817756972284965  0.1634894462457623
  0.2513531383131442  0.7461655712602784  0.8367941823592172
  0.5010827772617927  0.3342020014592029  0.8339264919098330
  0.3326671499863082  0.0858415545934432  0.4143327316144969
  0.5000749791571862  0.4179079324456503  0.2505253605085834
  0.2507372095568154  0.6653446417961287  0.4153872163264597
  0.1680167657079090  0.8332794240308319  0.3329799076044569
  0.1647522994685305  0.8328997632093943  0.6634320774445855
  0.4169039593506770  0.1726933631974209  0.9190292389285385
  0.3327587025870355  0.1666654406630227  0.3336659445091242
  0.2504076527155851  0.9998723428640672  0.5743098338253561
  0.2468938242864682  0.0805785230469458  0.8353037849096796
  0.3319363404825689  0.0802218721224633  0.7541648546578407
  0.2463265298533682  0.2631901688682483  0.8348683477006587
  0.4141294409535298  0.9150889727260850  0.1686828470840526
  0.1653907189198805  0.8321240639567078  0.8405376729202727
  0.9994804040520834  0.9156560705502392  0.2521605703099665
  0.5011551580602182  0.0849369617523871  0.4130952687534585
  0.5834543732536368  0.2510999685861757  0.3316724629854250
  0.0814474315625581  0.2525773818868702  0.0019397565731460
  0.4184114908364388  0.0007186511417022  0.7579165138609506
  0.3279466803430294  0.9161293330483414  0.5760662476446146
  0.1626231940229351  0.9224467076733889  0.7535165074287603
  0.0932297996191308  0.7476765835220256  0.6630447534209361
  0.4139427034321807  0.0830075203773153  0.0090290252169249
  0.4222119548811105  0.1686386563278567  0.7496436780443989
  0.2458530192122972  0.0008130144400186  0.7551667209088281
  0.4994477483500033  0.6672528345844533  0.0014470092436912
  0.2512187971596543  0.4983085922756671  0.4155673494169466
  0.4176408346617845  0.9923937330751104  0.9190490914382577
  0.1666491735160885  0.5804141323579295  0.5817668636884029
  0.3342508224551966  0.4163970063492843  0.7501596666703044
  0.4163291111677561  0.9157622798725680  0.4879154822756199
  0.2499436329693005  0.6627280249471112  0.5815316167938410
  0.2495089921397840  0.0006519578989118  0.2503574927153178
  0.6657811487778081  0.7500843574407954  0.2499326813024429
  0.4157378897291004  0.9163903652255728  0.3339808397629033
  0.2496386157140660  0.5822027541571536  0.8345201687801425
  0.2506877700463400  0.4161057439371137  0.1669266029340168
  0.4987184959810039  0.6657939787044876  0.6659521405555503
  0.0821925408938831  0.9142043554238362  0.0011101200265777
  0.0819637223439574  0.4984070503611821  0.4181747090740845
  0.2496336924646151  0.3344387477399309  0.9193920883184860
  0.0825987044098589  0.6709918457004038  0.2508163863951753
  0.7484894141223726  0.6652678691399958  0.7497525710751818
  0.5018098457387223  0.0833170574050256  0.9196125309612322
  0.3338371294748406  0.1707883664826069  0.8378969780912215
  0.2503517164720022  0.8324771837349884  0.0842312362159196
  0.2443531944175191  0.9139476362212724  0.6640087907997235
  0.2581599371698120  0.5824708434254279  0.1658996550498013
  0.2486715603403974  0.9986354804245857  0.9194936919752492
  0.5825098249522881  0.4165503279138400  0.8329068122664330
  0.4160355435945940  0.5840006530356940  0.1668383870110219
  0.5811937905167637  0.6669585909655117  0.4155608200727322
  0.2464500122258131  0.7447449236029383  0.6638375350380992
  0.1685822922094696  0.5834929803680848  0.2568386189817504
  0.5001788778475834  0.5002249759401677  0.0017263216529784
  0.4170833985179971  0.2505522122918525  0.3329232980871050
  0.3341961326023794  0.5811831040730069  0.7504019024885418
  0.4172623151682109  0.0049733925784578  0.5771447902835960
  0.3318122793559753  0.4982889168105143  0.6668812982549738
  0.1643290512736961  0.3343411357513812  0.8333269193226556
  0.2495123212810334  0.1691862292614937  0.9255729965671419
  0.3333918671992990  0.3348617473529063  0.1683769407842117
  0.0835506907842266  0.5806257822940865  0.4971233209088199
  0.0802746019724769  0.0002854944277498  0.7494735732038460
  0.7481739678713550  0.6646396109193081  0.9182799094020627
  0.0811183632043154  0.2527821656758176  0.8344437270306656
  0.8318969120583578  0.4168696698038417  0.9167923225673057
  0.9977184283695676  0.4966472970885159  0.9987512024866951
  0.1649613054165417  0.6657321685862378  0.0026592174104612
  0.9979561296150994  0.4174566572764113  0.9176278427652738
  0.0800883162494403  0.1702059818070476  0.7498363392521998
  0.8303930851594408  0.5003191835740837  0.0006353905490810
  0.9941098665215701  0.5815589621872816  0.2531287855608720
  0.4169085578193407  0.5809711337046273  0.4985987091300205
  0.4170319696977781  0.5829749277074379  0.3324864917843303
  0.5809644870530707  0.4990498896372495  0.4158943091201694
  0.2502926022498637  0.4984966900748425  0.7508105847424338
  0.9989658273995935  0.8343647018748216  0.4974104131168473
  0.6664364173702819  0.3333664385915697  0.3325024355225379
  0.0808501750460428  0.1761146487647461  0.0836735981055834
  0.9991202913262804  0.1675619926078081  0.4982323418896545
  0.8325250429786368  0.5827372730838349  0.0840276838653985
  0.9141617604470976  0.4171486145356403  0.4992848038336984
  0.8309516209086010  0.6645648381900026  0.1667732250671825
  0.8321490913981849  0.1679867576005037  0.4980612385932018
  0.1645911438084189  0.2519268530473869  0.2514825275794396
  0.8341518050247065  0.9237031219242618  0.9188884340625736
  0.7488394322501811  0.3356666598481927  0.0860759137079915
  0.7485404612283253  0.4988457363110390  0.5833678045020713
  0.7504826139726559  0.3357729887718419  0.9173398488577723
  0.1647036926514679  0.2518209712024183  0.4165128024367339
  0.9153643303836571  0.4182880506988790  0.1671726027174171
  0.9994796019165819  0.7495448370924223  0.0828684619204695
  0.9142289880733392  0.2513614324929936  0.1697611644159589
  0.7493730559347241  0.4997326699210547  0.0850944894022805
  0.0814209447089078  0.0004556045302141  0.5778476718878806
  0.2462522301949379  0.0934237163039007  0.6639010443570519
  0.9158389986535774  0.0002923167562937  0.7483743920531336
  0.0789724975738818  0.1695651333350982  0.5794078596009821
  0.8311532712449030  0.8324142376335405  0.6547966452846584
  0.9146712499226015  0.4166315849158515  0.3347117071218725
  0.8324587559891382  0.5829223405132076  0.2497515886600503
  0.8330758441507093  0.4175954547510220  0.7496068384690033
  0.8314973987510142  0.7475508246268201  0.5800533518573910
  0.0824573075225918  0.9139052794132756  0.1692677692210475
  0.9921639887532996  0.0830701670533403  0.0849025453368775
  0.9150099954728801  0.0830828063358893  0.3350187033271150
  0.9993893993525937  0.9158509079008649  0.4153346072361060
  0.0000207304644176  0.9997349143245049  0.4971013105828970
  0.9993632240582093  0.9180402446689619  0.5776477731296813
  0.8322031164546945  0.6643957858493016  0.0031074544145350
  0.6647346688015454  0.5826875521469569  0.7516141846638393
  0.8311607512832712  0.7496512979137300  0.2509225401036526
  0.0001099760005438  0.7486761147587333  0.5744290694954561
  0.9252374219466618  0.8319700935865547  0.7505723704381000
  0.6662540254380563  0.4177845108521411  0.5810108900380421
  0.0837741704318294  0.0837532900966460  0.1740221408640738
  0.0809817277839768  0.0836769511722593  0.9967333025222905
  0.3323973604878463  0.1676306527104003  0.1680103597332757
  0.7494827420017494  0.0016337836660164  0.7476638491282930
  0.0807554847676602  0.6661267742483895  0.0828934227059032
  0.6651232704880384  0.2521747684339987  0.7504151167262443
  0.6675139416633644  0.0846781782080851  0.4149000504578472
  0.9978948708775245  0.7465809946550120  0.7537025255102611
  0.1535588373244657  0.1707814590494751  0.8348728141723882
  0.9139600812498867  0.2524363836866901  0.0010727942156147
  0.5008384347546420  0.4986784676702770  0.4972316546182749
  0.3334415020321854  0.4166412528157762  0.4162677773100040
  0.6664206075280291  0.3353984142175605  0.4983624955569015
  0.3330991249488873  0.1684072180277431  0.6603651012826884
  0.1665483733645381  0.7442317349073535  0.7520279544657318
  0.7487049466670620  0.6643442799645823  0.0844447720674702
  0.9995721060554500  0.7473125937195424  0.9186785019378928
  0.8317617006558827  0.9162601988373256  0.5811222347414833
  0.4191845003133581  0.2531957971713356  0.6619999291578867
  0.9974196318969702  0.4961991972668945  0.1668545983600358
  0.6650258373491379  0.4194139121407007  0.0834327773894187
  0.9142362891797592  0.5817859009271740  0.4997614166077841
  0.7515539861907674  0.1686341945511546  0.9180083813085644
  0.1670112480526859  0.6710448431059162  0.1633306593967259
  0.9148582690564888  0.7490275502780676  0.3338701630085534
  0.9976035144301785  0.8354199668335912  0.6638260051807776
  0.6648702423108338  0.4983840195562718  0.0009019582232031
  0.0813777850155013  0.4988287697345769  0.7499742692617989
  0.7495286415036894  0.4998879567968664  0.4154849609490814
  0.7489450420258021  0.6660481739106713  0.4149925233853364
  0.9973338116363604  0.3352419002664255  0.6656209557788542
  0.6667436344317350  0.5801265778353456  0.5821510843354086
  0.9146978901066013  0.5815974435831684  0.8342564479119610
  0.7501986749742625  0.2519186651614233  0.6641502396482926
  0.8335181737483824  0.2504521555715000  0.2508376399034928
  0.7491992043491453  0.0850223199708331  0.6570339397136463
  0.9154016083059402  0.9993813405089551  0.4168461259935607
  0.5002591291066885  0.2507912577089678  0.0846495853987580
  0.6600066035666093  0.0867228950155860  0.7497302730009290
  0.7502816675507374  0.1679338614274795  0.0863286088527907
  0.9165832862016633  0.2526329726011015  0.8334171769296247
  0.9164545024329659  0.2529919684496700  0.6652367326114168
  0.5839717089184514  0.2518824904770816  0.4982815611912846
  0.6655908122512691  0.4164279631604134  0.7498930711301112
  0.9160690140873123  0.9144912628858511  0.1696348408498262
  0.4995575527473201  0.8320750570002736  0.0023653451616362
  0.8326954884687225  0.9991073413340827  0.0033329124846038
  0.6565480190054959  0.9151995380690083  0.7497324188899001
  0.8326517541070673  0.8325565454237610  0.0085561572968270
  0.0823300280861248  0.5003901307722615  0.5811120392331982
  0.2500702993379609  0.5824645038255657  0.4993319539221676
  0.7503395921075972  0.0839519298404744  0.8385215615497347
  0.8358420045390588  0.9203695848422700  0.7502208032233679
  0.9980350879245682  0.3351073712249291  0.4991435751570246
  0.8303870539316269  0.8314130639086138  0.5000560647136082
  0.9169471352406451  0.0831691678203094  0.1684176338095131
  0.7503681212789871  0.9155850628193232  0.1685416265925871
  0.8342539111977911  0.8304334327755885  0.8338661450620022
  0.2493537944260671  0.8313627967807671  0.4139835721562978
  0.4182607026403445  0.7441629061905625  0.6657600372945824
  0.1659523680146320  0.7454428034015318  0.5796205849750147
  0.5842454526769749  0.9152775587216547  0.3335512350145277
  0.7469204180557010  0.9161306276456380  0.6559133566520391
  0.9156259564867154  0.6647030836637331  0.0838527073503492
  0.7438173040644031  0.8305496087446513  0.9186632159281539
  0.9153508625538480  0.0836697325596125  0.0021571061634167
  0.9993001102977220  0.6575631325979409  0.6654900754035925
  0.9961711970682565  0.6673385722475711  0.3356569015193673
  0.5836314463066148  0.9147912907645855  0.0024266624484831
  0.8319359085031385  0.7386275979588132  0.7501481530130961
  0.6654113619592241  0.8324110212339475  0.3323461473646837
  0.0821869765160458  0.5793921841605020  0.8343686980852294
  0.6646184139311127  0.7451415754635242  0.5802042755388497
  0.7455090883429015  0.8257689352564607  0.7477408672653370
  0.3320341194750424  0.9098591098460040  0.6680166479952087
  0.5899125349080812  0.0834256096577313  0.9198243588911824
  0.4134186854118801  0.0821573604388399  0.9198444757005793
  0.1698610002543808  0.5808593738598825  0.1656165444858517
  0.7504788377669692  0.0906951588903268  0.7472997429109445
  0.7446905313204977  0.9141459050239070  0.7466736083298885
  0.1650653464626245  0.8333422650740359  0.7523626970781261
  0.8329261523739803  0.8332957934277038  0.9218421887888539
  0.0823395701398672  0.0848919488388106  0.0855722706858192
  0.2427347502430527  0.0047860899680091  0.6641039791661244
  0.0027724368257681  0.7461703561842563  0.6638997524508593
  0.4192845291163609  0.9131097418494686  0.5754262213943345
  0.8365833872024260  0.8280223232793493  0.7435689860448779
  0.0802480523924351  0.5819653461901986  0.2536315386839816
  0.2425724135048560  0.1721897185642904  0.8370922248416137
  0.3346239357943100  0.1711951537841827  0.7485027651414412
  0.4233351897627269  0.0040228684124177  0.6687501429908249
  0.7485298875484070  0.7487345343465711  0.3326224945595394
  0.6654464957022860  0.6638468437993036  0.4979955718830771
  0.1664935599810612  0.9158058684228663  0.4139331023021898
  0.8314299574727112  0.4173724506849918  0.0841510385959172
  0.9988033116445598  0.7494465835169325  0.4168508613991049
  0.5823330456751848  0.6666149124676528  0.2499253713411118
  0.7488257586801631  0.6658960019414740  0.2504715826917733
  0.6654325816788328  0.6655794643869929  0.1677396545589204
  0.0821841932785782  0.7495296713983073  0.1666503541259249
  0.6654315654860916  0.6639609719888072  0.6657533873236793
  0.1680880122349551  0.6674288058024108  0.3350172399253480
  0.6651041415167628  0.6660085174811893  0.3324073565658966
  0.5812884935584764  0.6655096644203540  0.9174447085248902
  0.7473850468973705  0.7463460567922586  0.6629899316807270
  0.7470521384074095  0.7475603932256777  0.4982627388130176
  0.6655715360891020  0.4999277564281751  0.4979709219869757
  0.8305113731085466  0.6646355272792247  0.4985627648832164
  0.3340179614009849  0.4166370537858474  0.0842118378123557
  0.6643045857480361  0.5829695856737960  0.9170850491976307
  0.4996050824562626  0.9973505673689506  0.0040840329104029
  0.6651408938090410  0.7488118835911416  0.0842875361140001
  0.2500968145065028  0.3333991848573829  0.4159041280561855
  0.8312395657918129  0.4996676577100649  0.8331124400205886
  0.5828496414878079  0.9984882008585702  0.0858834175083048
  0.8313477444332734  0.6637706050744885  0.6639666396496804
  0.2488484208020259  0.2506536218636621  0.3333527004054621
  0.7479466270274490  0.5835070745624391  0.3329270908950064
  0.4998334057217703  0.9986968747299131  0.1677394578688875
  0.0836095886828705  0.7491978049053308  0.4977761556541949
  0.5830802231883737  0.1673325529632196  0.2495383517433400
  0.6659421104509704  0.4997585350208181  0.6668297629112279
  0.5828583111223266  0.9990019864057672  0.2494540151407471
  0.7480255287398552  0.5823640046792807  0.6664053532997999
  0.6680783939532355  0.0829153888617931  0.0855291073491037
  0.9157998075151749  0.9162399814371227  0.0031833969946499
  0.5832254757318914  0.4167374759064475  0.3333843027143513
  0.4179677643606043  0.6663870370407534  0.9168666562094644
  0.4992937056768572  0.7493201549120514  0.0848258191832935
  0.9988223820413756  0.9188690286170660  0.7487781102585715
  0.2479965716351976  0.9169033146990698  0.8366794604030290
  0.4994909197460764  0.5830019432741465  0.4154027701349762
  0.5817688200357277  0.7489192934925099  0.0017976717684641
  0.9993159283862302  0.9169305092801667  0.9194506620812002
  0.4993926483053324  0.6659326649641860  0.1675579073900144
  0.3344334684459906  0.4991557947452378  0.3333358593841032
  0.4159860287178953  0.6658860358768490  0.2495432425809210
  0.3341636318710762  0.7490255954679200  0.9179365179401867
  0.5830655222456729  0.3350468512404841  0.7486876007742077
  0.8311370634774988  0.9164412667288745  0.4163293393735868
  0.5819929388365086  0.8325875357322698  0.0859149061623578
  0.4172609438258005  0.7495668990855292  0.0011887878994097
  0.1659452335872626  0.3334210616234112  0.3343751527774712
  0.4994331522895706  0.6658687708437209  0.3316595434453313
  0.4989040849511650  0.5000854278048043  0.3330184284414942
  0.4991764523332676  0.5003869839607890  0.1670327165238610
  0.5819998094778207  0.6648364041633442  0.7500570883493590
  0.5827254792152361  0.4996115693315534  0.5828942025293798
  0.5824159431163496  0.5815682110368371  0.4985808753076520
  0.5824479838674134  0.5837591115481469  0.1674051418684205
  0.5824694075344116  0.4992209885401606  0.7492256480333677
  0.6652685558262645  0.5003443315492900  0.3330202881233565
  0.4994697774941596  0.5821340688214524  0.7500332782403002
  0.3336938187206043  0.5816925183001772  0.4161682277673611
  0.1655634165084688  0.9989241308393593  0.0018698881184214
  0.1653398134457968  0.1679971258794316  0.0011347914485012
  0.5829313351046802  0.5818438766174875  0.6662006557463936
  0.5822862294387287  0.5830887062034964  0.3329050995991968
  0.0796325359569348  0.0850140806362600  0.8345816904085593
  0.4990060795124567  0.5826771939375651  0.2498028858903145
  0.5822039848504257  0.5831192673856268  0.0009585069208566
  0.4989705648526800  0.5812120343833849  0.5823513156637655
  0.5822158512497639  0.4995825933623872  0.9169569331686169
  0.9978721516212028  0.4989543868008734  0.8339341902749176
  0.9209788203749056  0.8322216773421279  0.9185765719729239
  0.9963498872471703  0.2521153333356498  0.0848037714112154
  0.7499510257429479  0.2512696474470930  0.1675459162391615
  0.7495081179709568  0.2514656417536191  0.4983041998868794
  0.7501513843791811  0.1671549307170860  0.2499147901145345
  0.8346324146302015  0.1697668562638267  0.8343792515801749
  0.6660365037951899  0.1668385313333171  0.3318053061796259
  0.6669644693344040  0.2512390799916162  0.0847693346103444
  0.7493424876585311  0.1675674047493888  0.4156902370582807
  0.6674609784522438  0.2520725965806407  0.9190368456256001
  0.5839038348453731  0.1681947187923691  0.4150437013140662
  0.5009764484996131  0.2518675035065925  0.9195554435862823
  0.7503581277056994  0.1701114951487286  0.5811148628866682
  0.6669684973182495  0.1671562558113697  0.1672960445570889
  0.7523922138497255  0.0841743279899733  0.0030564488860360
  0.0828531990375211  0.9156254039285894  0.3332359953023037
  0.6648018937794681  0.5004824982136734  0.1680317266626898
  0.1658479210794653  0.7474306495920219  0.9179091453341079
  0.8334375942052363  0.1667736682008213  0.1684059445054306
  0.6685406397100904  0.1685524586814005  0.0034832931676737
  0.9987291879554586  0.0002143661071474  0.3333219969005086
  0.6652527433127230  0.6655248534775915  0.0013218246010294
  0.6682723443472908  0.9983322290723284  0.0041972118044074
  0.5824539401867916  0.7487974738012881  0.1679847861292506
  0.8318348907837055  0.7440297006313774  0.9183463394532011
  0.4994306134774587  0.9165900442015232  0.2503881012976277
  0.8325525093998131  0.9160548157975026  0.2504388277079753
  0.5825788061349797  0.7490187189344433  0.3316857223903487
  0.9157403187239511  0.8318731174377684  0.2511066112779644
  0.5012712044179254  0.4991505747930223  0.8331210186220958
  0.0807139413771839  0.3350390293626579  0.9179111248805001
  0.4163419399119120  0.5001440746584802  0.0838393827732710
  0.2494949272030881  0.9149942317749581  0.1679613903578465
  0.4990043036630772  0.5837387943026461  0.0832521586444779
  0.3327380869321888  0.9145384511185811  0.9183473488731108
  0.1657817195856859  0.1693786572895759  0.1685350058042474
  0.9148268987999597  0.9157581602621633  0.4980403558911546
  0.9978855656906239  0.1687706083877540  0.1690512197590768
  0.9970602639221279  0.4982672504980910  0.3346321731822002
  0.9982961987035249  0.8323399936258778  0.3338484270964541
  0.7496218998770141  0.3337483246344315  0.7497735249874992
  0.9157907172534545  0.5813050233793948  0.9995400969334155
  0.6663784494642963  0.3346646883749075  0.8337791919741885
  0.1657694912555459  0.9152890787936070  0.0843270874431595
  0.8324650962513138  0.3339799465420797  0.8331932380953448
  0.9989370155362999  0.8326484683924400  0.1685741834442308
  0.9991620991641962  0.0846078945376057  0.5803352271895690
  0.6669782883283991  0.3347496978549084  0.6657407245734949
  0.7471313743040774  0.5822424065529692  0.0000419216630560
  0.1658801861851069  0.6636405429754235  0.8356190216609016
  0.6657774983700009  0.1704019012086590  0.6633378322639496
  0.6656885027126922  0.4164778264290659  0.9174736535388925
  0.6658551832716058  0.4168759883389087  0.4158955578448459
  0.7493509178697207  0.4170477796178241  0.8327035464459434
  0.4180968818160885  0.8247653232905986  0.5807142217357383
  0.6657555530949062  0.5826687081573078  0.0836297209659550
  0.9986797330949219  0.9983326800211993  0.1695439704133319
  0.8328027426185171  0.3348148831113259  0.6666120865656325
  0.6679903035175517  0.1705820875429471  0.8353335172157462
  0.7486595462335558  0.5005170331240029  0.2506104162291351
  0.6666926216250457  0.3342549445571664  0.0019349162207172
  0.7492179261426788  0.2503679768445436  0.3327779285284592
  0.7489369154682195  0.4166606787694453  0.0011556141771018
  0.6670087785733009  0.2531367847678982  0.5810831437854098
  0.5832721950428112  0.3346445392215476  0.0848186366336045
  0.8326533366050427  0.9996124794731515  0.3329388599433942
  0.0812133364291929  0.9950558690372517  0.0855699197144958
  0.2488230217119131  0.9985224402903605  0.0856385544444569
  0.7493564932939720  0.3341079883531746  0.2502193478312594
  0.0823315483803766  0.8316904458896249  0.2513473712547583
  0.7480506318440684  0.4176255141561160  0.3331793660021729
  0.8319363905228772  0.3344197630577145  0.0008955403120292
  0.9974687569401717  0.4164386758984795  0.4173057823215766
  0.4999277711233974  0.8327243960499360  0.3323675460365176
  0.5839073791276471  0.1701191241782392  0.5800352869945998
  0.7453773757082158  0.8297363681378307  0.5792605833194675
  0.3334744523891674  0.2512072593106017  0.0853886867541381
  0.9178711930353516  0.9180753465864332  0.8337753522975525
  0.9146630952109100  0.4995939887861289  0.5818537000856806
  0.7500613754695836  0.0835028095986518  0.1681135593896964
  0.8310732849626316  0.4999596407114968  0.4985699941637928
  0.7508771774300355  0.9993199212646319  0.0870620815828804
  0.8331892125864466  0.2518797620656623  0.9182852361437156
  0.9979003167973870  0.3342150842695859  0.3341767897010981
  0.9137692277335310  0.4174487809968054  0.0001992549752692
  0.8325834659671661  0.3347819922801354  0.1680123051307095
  0.9978542248774349  0.4989057135268188  0.4987787033464531
  0.9147029862546240  0.3340261758864765  0.4166707489884341
  0.9987535941549751  0.5004079774251374  0.6660190160801067
  0.9152930993404100  0.3341809140262342  0.2509693103595286
  0.9975798854617304  0.3336869068759308  0.1680535832336101
  0.4997042224739990  0.4170697215722335  0.5825861581656242
  0.4997303699952054  0.4167170550485053  0.7493201804791388
  0.5833296765514436  0.4174429121322179  0.6655971107412623
  0.2493679088883132  0.2527914838798731  0.0025820524870729
  0.4996687707014549  0.2507124889844803  0.2497653438822649
  0.1616992255107503  0.0013259899809436  0.8368607595384819
  0.6664308652496224  0.2508844325946443  0.4146838300822041
  0.5005329539979585  0.1671981684784150  0.3317063508941178
  0.0790736594909862  0.9173898432376995  0.8355708607661914
  0.1671464242050284  0.4981591681713283  0.4982265435031537
  0.4169325351011640  0.4988500289452955  0.5823693603180862
  0.6658658891551840  0.9159014720813018  0.2498939326610257
  0.3328625607598471  0.4177248522841850  0.5822967938058520
  0.4999075380935536  0.5829679170131115  0.9173165724290047
  0.2511637151036385  0.6643543845054252  0.9166086473310083
  0.3341260941956115  0.6666505939008054  0.9994481329442445
  0.2518458365246510  0.4986565953529981  0.2508994990970346
  0.6628376543499455  0.0013373381103417  0.6634588240560289
  0.3330177676017644  0.1692235788620238  0.0043452040099388
  0.4165444290545444  0.1674035990653160  0.0858469694548902
  0.3327142348665554  0.2591006425438779  0.7483145415920521
  0.9978084380232232  0.6661790666145238  0.1668542547623338
  0.5009309421067152  0.3339452569677333  0.0017098559957068
  0.2485343609149444  0.1683440659757467  0.0852071378241129
  0.5002439031494331  0.7493713985739995  0.9175394258023047
  0.5010340191603534  0.8303311938417266  0.4963721895485757
  0.4993762044941922  0.9155460102207157  0.0854668707262825
  0.1641514733185186  0.1686830069712650  0.4973638121176905
  0.4173081833370714  0.4173176362959006  0.4982059263830605
  0.2501053022605746  0.4168657709135792  0.4979588556364816
  0.3339229938070826  0.6667316912450392  0.1669869761454275
  0.3337759022417546  0.2531717749655434  0.9199093242968204
  0.3341533894255421  0.4166727071732466  0.9170401878890939
  0.4177986147916684  0.3346807951993143  0.0849274597325528
  0.0822699493735112  0.6641340182948333  0.9177553046068577
  0.5011779576620664  0.2507710082476459  0.4148518582353436
  0.4165824940900287  0.4159602695030857  0.3325711638675448
  0.0827209138719449  0.5803904998171010  0.6661930871065914
  0.3334999664350906  0.4989366881390763  0.8333665625879525
  0.1661516478965906  0.7501361584969327  0.0825073741676667
  0.2498471309550061  0.3345506753570481  0.0847130433194518
  0.0834826965668497  0.6624255759721400  0.5797859953812788
  0.3323854526998093  0.9161602624736653  0.2509338160903021
  0.5005524186709234  0.8308853766034425  0.8339877813356580
  0.0833234548985695  0.0840686489632820  0.3332132642266165
  0.0823333609683486  0.8325607064390481  0.0843804023701087
  0.6654003831424905  0.8322701932439670  0.0026182139219014