Cr N  Ni
 1.0000000000000000
    21.1207997425174128    0.0000000000000000    0.0000000000000000
     0.0000000000000000   21.1207997425174128    0.0000000000000000
     0.0000000000000000    0.0000000000000000   21.1207997425174128
 Cr  N   Ni 
 259  17 605
Direct
  0.8349373376523116  0.8283551744736812  0.8303954427967293
  0.0016800159214651  0.1659397845966636  0.8349383231409278
  0.2473800740015694  0.4258212382204001  0.8350898029584147
  0.4136340368627631  0.4249850508222956  0.6666345821476353
  0.5069042762888819  0.4168689235273786  0.2500189958082129
  0.4153977760976522  0.5105977984669454  0.2484931812802681
  0.7492978566373153  0.2478256853434159  0.8352440209963843
 -0.0009486980109408 -0.0004236223124793  0.1668908260377385
  0.4159137836763783  0.3360707828150359  0.9292786423401558
  0.1643515704227166  0.5829772048558862  0.0828023529545169
  0.3312669495891730  0.5038780835812070  0.0021065525532886
  0.7521252881752837  0.2454993579821653  0.6654773319116541
  0.4175475489141103  0.1662721694777952  0.9302962965411936
  0.4157477456753149  0.4290063283208894  0.8348468539912862
  0.2482411379705818  0.3318513895499861  0.2488415883962717
  0.4130985154453621  0.3343941660019367  0.5712686743722863
  0.1666418673409601  0.0828516193072880  0.4150417146510191
  0.8332323156962421  0.1665465560295719  0.3336419091346778
  0.4151108774518098  0.4199245867064545  0.4991606304295951
  0.3244561581811473  0.3325284376288564  0.3337529905494194
  0.2501288948743388 -0.0003279933921593  0.4157648800568201
  0.0000905722196263  0.1668008764010183  0.1672155428662827
  0.9162233839925193  0.3330889580054960  0.2498158240959049
  0.4152914534653211  0.3311505859951021  0.2438772902099045
  0.8317273766934117  0.1659917007501908  0.6650292010790781
  0.9274523013755953  0.9202030890457539  0.8326833078785930
  0.6767670018251605  0.3323951612761948  0.6651377309243496
  0.4153402986870418  0.3351574329658366  0.7502394212367463
  0.9162356212204036  0.5015701949794639  0.2497016819101010
  0.3315082950562513  0.0826466377679169  0.5833227329967787
  0.3334407631986911  0.9155577751394814  0.0854373059288839
  0.0836132420578004  0.7498188163853963  0.3313199897725281
  0.4982202801871666  0.8305811696203634  0.3327297240111414
  0.9164953104638327  0.7499540443446622  0.6665556038462747
  0.1663804740332946 -0.0000477942263519  0.6655985627769827
  0.9157897770673152  0.2386386976489258  0.6653404637207291
  0.4158583389045463  0.6671491179913487  0.5816780436179672
 -0.0016416777470539  0.7485761160521011  0.9222417793065955
  0.3288568898045015  0.1576376349280268  0.8336670941632452
  0.8274167220006604  0.5012568257976187  0.6670871438951530
  0.4142269158863288  0.7487973285066500  0.5012360717838684
  0.9187250054037467  0.5022624623979227  0.4170348385625471
  0.8337551815811334  0.4157931964606103  0.9176481298192535
  0.6659557805879819  0.1672701243868900  0.0029831430098281
  0.1645392665404533  0.7503909064350480  0.0846588168920193
  0.3318302151321748  0.5830316999650120  0.2500693073156732
  0.9155048534341786  0.3325802746393256  0.9178829254993115
  0.5050106590333735  0.3340141467218101  0.3326988840865269
  0.4141687485618133  0.0817971038161546  0.1654917624383011
  0.5825778690949279  0.2512573480394097  0.3346529510729748
  0.1654188826694196  0.0821574344409229  0.5827256791877712
  0.8341822347283678  0.3344309200637852  0.0011849796805941
  0.1651479073234481  0.9166295681826929  0.2505430508158809
  0.3321496120698255  0.3354195639337253  0.8355691696308681
  0.6660994513449575  0.6683146022319693  0.3338566999555583
  0.4994781507941233  0.1653229455519455  0.0012985240854267
  0.7523301547467757  0.3330679594331545  0.5804513581375650
  0.4179640888138886  0.2500458073256373  0.8338996051186734
  0.0798322299730964  0.4190787191686607  0.8371275609463410
  0.8323557233421776  0.5833989781934805  0.7491548584535828
  0.0825954806950814  0.0833422414773959  0.3323044613469783
  0.7488054722198563 -0.0021138293503241  0.4161419514034027
  0.2454878883267453  0.4198364492651555  0.4988306332200391
  0.8334991009665350  0.1662466599178849  0.8343811018754451
  0.2480401272932346 -0.0019832106126255  0.9182807039251449
  0.6651621495680555  0.0818051212828567  0.7490607762227680
  0.7498031675650969  0.8312283694992236  0.0851232248581531
  0.3309880303254664  0.7489695056397994  0.9164830856616336
  0.0815560158219569  0.5871748838741060  0.8362179786829518
  0.2481276146026166  0.6663705901170415  0.7497358951414423
  0.0892289278683062  0.7497343696042654  0.8355287489692068
  0.6642653107428268  0.8308935284785908  0.6654031265552810
  0.7498636561945573  0.9157853558036341  0.4996360987212342
  0.1671389902439978  0.8339801460162041  0.6658253171167235
  0.8315565742172302  0.0077606336622861  0.8354820025003966
  0.6665540515119071  0.9111059026588184  0.9192765670908499
  0.1641554818490160  0.5008836893709192  0.6667908347137562
  0.4977380686352957  0.7484434732681267  0.9168600187667847
  0.7499250125302666  0.5029797876888943  0.5820525726334326
  0.7494160583685916  0.9134898614080158  0.8322558333193902
  0.8321782398953051  0.6686804851426673  0.4984752841191823
  0.1646488438344516  0.7508165750227418  0.2513055969567699
  0.2478077297326732  0.8340513432939182  0.5839486915922375
  0.2478987199293299  0.6659259449990302  0.4154043980070405
  0.5736041367497255  0.9149305519983123  0.8326780585423114
  0.2492705665966530  0.6683696292235844  0.9182697645885637
  0.0828881729818007  0.6654251524499580  0.9196632578154346
  0.7494893257996404  0.7510296113735074  0.4998602536158538
  0.5005170055217627  0.5106452317098743  0.6662894922029777
  0.6650003455904270  0.9158591628404468  0.7400057917322145
  0.6671969623452697  0.4170436423426868  0.0835856632582877
  0.6651698627152051  0.7490090747277309  0.7462035553564559
  0.1665470549462355 -0.0011522065033691  0.1671421942069224
  0.5833093438764346  0.7483552519763486  0.1667783815414128
  0.7504918074132233  0.4183824913338379  0.8371395180865510
  0.7546849979243958  0.0009795924388415  0.9194857356649933
  0.1648033245365007  0.2501860381775275  0.0853077459292118
  0.3309201350141205  0.0808336344471150  0.7491352894360456
  0.2478741910389005  0.1668553089373324  0.2480674248942875
  0.2441705237212556  0.3358368817518979  0.7459983052459982
  0.3304992579861485  0.3350072631207173  0.0022636181378017
  0.9174989490220458 -0.0002484587277376  0.4158636115706467
  0.9159886883357369  0.4151826133342186  0.6644169981003195
  0.8338348599983094  0.9145688553875555  0.2503571612675406
  0.2493583476551111  0.2495007828078336  0.3322777000874786
  0.2475081488858552  0.4174758807241401  0.1660122250472301
  0.0817320720567349  0.2484389059086189  0.3322157746157638
  0.4102215904346099 -0.0011277045839542  0.4155477588078317
 -0.0005495385229606  0.2503269878776467  0.9183594978273815
  0.7501303849003176  0.0819958903870328  0.1607390277355011
  0.1646115995622163  0.5024008749802662  0.0025718433704006
  0.8315395525814796  0.9166554880356883  0.9216330800775908
  0.4160388545115108  0.2416569743025560  0.3334902329521359
  0.3313813521002428  0.0827246991014883  0.4154498010585412
  0.3334905855252062  0.0814513617262331  0.0854665870137729
  0.3317603772317277  0.7509145614235039  0.0844811194993446
 -0.0000002212045779  0.0841960661474370  0.5810739755476858
  0.0832450135635259  0.5832448191455833  0.6649198982030040
  0.7500110978704414  0.3334256592560007  0.2482921425217423
  0.7505855437212957  0.4178388622444628  0.1682320456116209
  0.6651129290006424 -0.0021401675438240  0.0111561398367901
  0.8339120047133839  0.1664561705645003  0.0006663358324500
  0.5844789807142440  0.4194905415931384  0.0026224022106179
  0.2493287001153096  0.8328080109447202  0.4149080911904350
 -0.0008807250879972  0.2495811675928864  0.0850978257116306
  0.2403499927657803  0.2465558208590541  0.8346080972358122
  0.8337950747594097  0.0831301820232369  0.9196695336717062
  0.4996824082514738  0.1660795596535806  0.5008199175109376
  0.0832651865214492  0.9171382501380748  0.3321116337676266
  0.9170159429436151  0.3312767120112255  0.5754342317975668
  0.8339097922238857  0.9183438500313775  0.7410986580396828
  0.4156190004542251  0.6669937875544018  0.7493982173832874
  0.2460621688575706  0.4206163482762634  0.6661218947903489
  0.5836561291182774  0.5034279209278086  0.4159624211685993
  0.8228106849653264  0.3330776553095916  0.6658085084356811
  0.7492094798227412  0.1723626483818618  0.2496057787547162
  0.5833800597365927  0.1645581154406395  0.5813464609595240
  0.8335072155690501  0.6675499984154664  0.1674677718919013
  0.9185117981484074  0.8336444370166927  0.5842035115570321
  0.6600870844779444  0.0828575553876923  0.2495912815885005
  0.8323401969629154  0.3345219921018796  0.1674961349396168
  0.4965936494158505 -0.0020512785928811  0.5039639244933406
  0.5811355157532250 -0.0012207632908499  0.5832074451487443
  0.0004589966499579  0.9162538498780280  0.2505722417571170
  0.9172604953476697  0.8340088345436586  0.4161456387609351
  0.1659825035962893  0.3323624730107611  0.6674837514007531
  0.4161564808576364  0.2506840492216906  0.1640710009650382
  0.3323575121875690  0.9151487202268436  0.7495947448006367
  0.4994581235742910  0.6667747889749253  0.3338510874373154
  0.6666542473778171  0.0040574549077674  0.8309792099412263
  0.0010500088633616  0.9193181578433353  0.7481315380226160
  0.5025758451832210  0.2494208390834136  0.7503674974831754
  0.5011071092999023  0.4200864548443057  0.0828544964228830
  0.3311691153373096 -0.0009766340643020  0.4999430922806303
  0.7525868666606896  0.7500168287887291  0.8322349550374918
  0.4134694835502797  0.9146838366126929  0.1671584123879461
  0.0024988270657618  0.7503308636454603  0.7434161608547176
  0.4156277942117129  0.4195757350660946  0.1584056981911250
  0.9180116981705609  0.3315919519614631  0.4162219962586807
  0.4144922712893189  0.0739117676841715  0.8328704509439624
  0.4994112277594784  0.1673810017823974  0.6661123212422957
  0.2458551418733151  0.2487418766718060  0.6655117096287535
  0.1661485457549024 -0.0016313962478234  0.8354154691325282
  0.8314977550354318  0.1643463644113515  0.4969992827059598
  0.0831056106740197  0.9165838798139853  0.4998818015240432
  0.5006353893196622  0.5848975144479368  0.0831996153575858
  0.4993832570178395  0.6659173542267411  0.1651949491718028
  0.5099502269646738  0.3342084351416497  0.8334582342411389
  0.5868784667139538 -0.0018901342994972  0.4159323539255619
  0.1669069338226759 -0.0010962671965351  0.0006759388214946
  0.4172394764024047  0.4201922997833165  0.3364661179270298
  0.2459220778987956  0.5003307180898265  0.7502460141941601
  0.4151801191405404  0.5029975912187874  0.7512908964744058
  0.5845748357705006  0.4196949750578493  0.8364585066373710
  0.7494864981783609  0.5836651151548524  0.1672337529352451
  0.5006264642509974  0.5042235677740613  0.0023418346939404
  0.5061519586552886  0.1693069421938314  0.8312141438129768
  0.5827348537443526  0.6687751776659160  0.9185593073758520
  0.4170532794296696  0.2436080089686820  0.6663810341511651
  0.5000636842604738  0.5849538782212210  0.4173183433740353
  0.5834881737777325  0.3333679843549821  0.4152767770740615
  0.5828705532992524  0.7493954395575879  0.3324024180506844
  0.8339930211565969  0.0005467376312194  0.6640293735024501
  0.1654533787285787  0.0806369473175467  0.9184420863009377
  0.0796167627888668  0.4173808279735602  0.0024880630570972
  0.0001279685917200  0.0006426844549319  0.8340266582557865
  0.0040425916565223  0.3326595779098123  0.6657679440885099
  0.5821595552985168  0.7490946528531417  0.5001481368942361
  0.0812395180344666  0.4168286641691771  0.3321958377700304
  0.0833399324792145  0.0820385414466823  0.0012960542191492
  0.8344939514845208  0.7511097747805578  0.9192514178247526
  0.8338328394433097  0.8340929243914115  0.6653567531430499
  0.0007675070783394  0.1663787808435114  0.3323951070490191
  0.9184863477071499  0.0003714099550783  0.0854032798109508
  0.3313877691309591  0.5847009969694098  0.4163207348824776
  0.6667310546770506  0.5855775510408830  0.7503535115080312
  0.1667350145462292  0.6669470015848490  0.4979585783338323
  0.1660034488376656  0.5013238728144939  0.4968426883339216
  0.8336967625780869  0.7494794061386965  0.7472508334884503
  0.9171885634954076  0.6686636614636946  0.5816717497768744
  0.0013709034645297  0.9174458241599083  0.5802063600509789
  0.4971332312202657  0.8307242822226425  0.6664438872963016
  0.9111998602500868  0.7509646608083768  0.8328570494416965
 -0.0006325745381283  0.5003148882352660  0.4968709502591305
  0.3306890369031427  0.8316902825375030  0.3330681710685568
  0.5834034576159323  0.0822820552907733  0.1670321859476366
 -0.0011138923534899  0.6677152284093991 -0.0000498337315571
  0.9160497820922828  0.5915637352664386  0.6631376182596944
  0.9138842760753469  0.4999566501839510  0.9189417167066239
  0.6684061839646708  0.6667863162228752  0.1668631310256052
  0.0835994769582651  0.8325191758836110  0.0854625946257395
  0.5820292491540762  0.7488511443829415  0.0012497231429530
  0.2457578877455842  0.3354407172609823  0.9269265167698569
  0.7500510640006662 -0.0007499648219838  0.0850351228112281
  0.4993641091131393  0.5854607433081800  0.9184095259641510
  0.5745401149008045 -0.0028836688021331  0.9170427176874685
  0.5845859238673344  0.5019363679838412  0.2495446722552866
  0.2509135730565926  0.8328476818724244  0.9172347513301855
  0.9158227971052624  0.5000831437602233  0.0847385383875654
  0.4144191422660999  0.9149334574856384  0.8327279905478900
  0.4984389096343643 -0.0033975875291731  0.0021376761735770
  0.9168062422755009  0.6668656163721908  0.2502889093493613
  0.7497436366133410  0.0807905008781240  0.3397460784796253
  0.1660213981875742  0.5835427663128216  0.4164391428748744
  0.5840475967807477  0.2497419682488284  0.1652365291599318
  0.8383383466387326  0.0833043697258359  0.2505662223964959
 -0.0004285877279320  0.3321790791178575  0.4978952273002885
  0.5911134109462478  0.4227747505980693  0.6659167454520347
  0.7493737249989155  0.4992256678995625  0.9173695883903117
  0.4978305602441687 -0.0013081453432049  0.6636181562871933
  0.9174621027556940  0.5005960837813157  0.5736630297571786
  0.7495174544821268  0.6687878147591343  0.5796872412119123
  0.3206387046519525  0.3353588524985785  0.6660919441019244
  0.0816128733145641  0.4171232471019511  0.1670231260678977
 -0.0024114743852516  0.6665411132965278  0.1677725780347661
  0.9168114830773338  0.6678427607562391  0.4154368024542038
  0.0009545287364295  0.1642517049153877  0.4981368346784627
  0.1648580405277540  0.5832369263450234  0.2491376197331012
 -0.0008685741085375  0.6604297952014510  0.8360260904005971
  0.7505921021026649  0.8319597867421412  0.9196626356325888
  0.5012458180957522  0.3323902273603788  0.6678398798692639
  0.7485684717849607  0.8330193786206036  0.4171497492084233
  0.6654702415059323  0.9135823285834428  0.2492713321412797
  0.4979325712669814  0.9137191952285015  0.2497361972535818
 -0.0012299718441828  0.5840831137575128  0.4162001898379070
 -0.0031373126481237  0.5834843125457155  0.2498523460966639
  0.6657451117063913  0.0914015877914246  0.9195376327789990
  0.6665085917789051  0.2495634839374377  0.0825234859271367
  0.2459330259864272  0.2485831232352743  0.4990784652185757
  0.9181390076811313  0.8341024837134700  0.0851602438489360
  0.9169066298763709  0.3325283091029529  0.7554131112053631
  0.6695201678322513  0.5862528951006402  0.0847951131997633
  0.0077918761747031  0.5012332861590640  0.6654137320836093
  0.9160900387738986  0.5009973630026631  0.7529034723738972
  0.4988465758718132 -0.0009353632064666  0.3260621085878552
  0.2477241228745442  0.6665253769796841  0.5819607261248668
  0.9154686590216534  0.6658996879968413  0.9190848548932363
 -0.0002104517572620  0.6686109754950014  0.4980631011246420
  0.4992755045865668  0.1677648862220181  0.3321012950507445
  0.4223298700106162  0.3408721465290434  0.8403773066022068
  0.5905453061398663  0.3334519612000326  0.6625560317816078
  0.6603906174161902  0.9128394251230822  0.8284741823121513
  0.3278338517214768  0.2458133435194111  0.8361640800851222
  0.7494186515763701  0.0818154156989075  0.2501821820024680
  0.4988863924432551 -0.0011605108626025  0.4148947399188438
  1.0010188734381791  0.7503284066815034  0.8325378479286347
  0.8388372973667791  0.9190027416837685  0.8316729948531992
  0.9134142444023530  0.3263453239803491  0.6656903098697281
  0.4148388977399741  0.3296776873976858  0.3365264237918004
  0.4169769102637015  0.4222952201777583  0.2466651089719489
  0.2417984579081060  0.3374648029013638  0.8373747762959139
  0.6639771738979839  0.0024015705032901  0.9224458462891465
  0.5026606647738127  0.4238647624282423  0.6639508666659316
  0.9178875176280854  0.5036121561421567  0.6630628972891606
  0.4099399950789639  0.3331331262391679  0.6602671548152625
  0.4194839263501607  0.1602830327610282  0.8402864375142722
  0.6656578553075430  0.9132676262057969  0.0849024613793379
  0.6654239447324557 -0.0024274636731719  0.1656265918988039
  0.8337967594410874 -0.0001348515962791  0.0030148174292806
  0.6676472851277033  0.5848554433567572  0.5810831600866663
  0.8325392823373701  0.5011445250472716  0.4976298450326808
  0.7504434480237414  0.0845359366796110  0.0037731070222782
  0.8329747711066395  0.6667011299499350  0.8332075475549118
  0.4968422207697116  0.8304238540146168  0.8328794181755642
  0.8327172501826545  0.5012774227400173  0.8340959905519291
  0.0002336085273936  0.5840371236373580  0.7499651647618901
  0.8320647410507146  0.5851576570173904  0.5807271958368101
  0.9147860976500866  0.5831602630739715  0.8347773810874328
  0.8317917510527458  0.6675564962351229  0.6644434774339671
  0.7500405636812500  0.5848102536656040  0.4981876156878858
  0.8339691675595856  0.6677780518414476  0.3340792623017911
  0.5807103098839054  0.9138088549222593  0.0017948339651754
  0.8337671978950123  0.4162607523699908  0.4155616497598844
  0.5815401065085538  0.1668183604560873  0.9187280253500427
  0.9155020893856124  0.7508440934881085  0.0028895226275189
  0.5819806703167522  0.1673981485706111  0.2488305069061081
  0.9164733528496857  0.7507578094481170  0.1670254605271373
  0.6667680039138070  0.1654186849889032  0.4984452060142572
  0.8335347788530544  0.7516488348607027  0.4163331782343855
  0.5021397688919320  0.3333313877668844  0.4979099940434698
  0.9150863606484607  0.5861963451306470  0.4989423135629421
  0.4151338011623741  0.1643191516835877  0.7479518729931984
  0.8340220073236984  0.5004264766240883  0.3333426247592589
  0.5818936864722254  0.0823827059563205  0.6645789343352670
  0.8336791198419852  0.5843454738342164  0.2506075105897227
  0.4981232976755454  0.0829670561463489  0.5822923469902141
  0.5819996324419431  0.1661872114501558  0.0847167085303328
  0.5808646706316191  0.0826976362285428  0.8329844399905815
  0.8310499200857895  0.4169570161040242  0.7518133173820244
  0.5008036936980198  0.2508170026877174  0.9198726025420809
  0.5833477684102222  0.2496880513917926  0.0017006098909531
  0.1663147043179485  0.6668085663913129  0.8344087830954359
  0.3304874340182787  0.1665860909109928  0.3319345689009610
  0.3276589705761236  0.4169713411250728  0.2483208481176795
  0.5844645735994839  0.3339876997244682  0.0839929821257257
  0.6664980717315072  0.3334897503564774  0.3329525834411839
  0.5846030523556366  0.1654690304564277  0.7482606095425678
  0.3307827829212012  0.3328945721200044  0.1643635131686904
  0.4164770394029312  0.2507485054341531  0.0040066153876360
  0.2476987501055015  0.4171054337042975  0.3317660746863217
  0.7493912400457980 -0.0065503391428673  0.2495082821387472
  0.4986896818089748  0.7491184314195753  0.4166260401215516
  0.4164734475876692  0.1651852635508627  0.0832236694857542
  0.3316327901856294  0.6655698504243498  0.3331934263208327
  0.5828782655808321  0.0829008153139552  0.3325045993478659
  0.3313082369466432  0.0802458522263792  0.9192860466043474
  0.4989789351193498  0.2485339967434783  0.4179933001004949
  0.5819361293876486  0.1664071788785935  0.4160015502878739
  0.3313668845270246 -0.0009804763197683  0.6658340020123932
  0.2482498026122809  0.5849774745859663  0.8339285067220372
  0.0840935086556394  0.8347422977249350  0.7485592196174262
  0.3305191223745869  0.5025846332341329  0.1659938895758820
  0.3310463163758859  0.6664393098056921  0.6663878808149580
  0.3304423598841225  0.1653841881905404  0.6655891529599411
  0.1666099319149447  0.8325207278886326  0.0015066384470153
  0.3295419177710403  0.2486369902208578  0.7457598687701976
  0.2484840243164724 -0.0005687470047802  0.2487825832626100
  0.4151956012977417  0.0828896999286961  0.6652167497942709
  0.2488840428800232  0.8323120499778223  0.0849975518044556
  0.5002525214529876  0.2499233524247187  0.5804555389039775
  0.2493077960175548 -0.0014529671669040  0.0844733964284468
  0.2473480128475398  0.1637827730380370  0.9191731412459905
  0.1658810313700579  0.8326156824617681  0.1677346138429724
  0.3321197677833513  0.2501202877604792  0.9251220717326013
  0.2483563953502834  0.0828278089472091  0.3320506555661402
  0.3311005271895231  0.1647273289454239  0.0035611773546922
  0.4157574820552072 -0.0026040418965069  0.9182367945496871
  0.4167647085409515  0.3348081782838044  0.0831527053954415
  0.5834101846732307  0.6670390745055421  0.2497418621574168
  0.5018775984976099  0.3342101309194660  0.1650650545371628
  0.3314797621975942 -0.0001225075594885  0.3320418379514932
  0.9172165236874700  0.8339388715709621  0.9189958427254490
  0.5836805429138697  0.5867186843852450  0.8348113936852449
  0.0008550681380521  0.8384337348939529  0.8327649568343247
  0.5835223675984302  0.5844789680926682  0.4984020325956093
  0.6674867417950844  0.6679939901434611  0.8336141119544682
  0.4985362525138177  0.6670141351734409  0.8342819433607752
  0.6659176984466419  0.0822387591709564  0.5813252616152128
  0.7494347026276479  0.8332690029148708  0.5826055749655580
  0.6681886936692352  0.4171432535540457  0.2504533100929287
  0.8329851239899426  0.6666896891809617  0.0010903091544361
 -0.0006402996032804  0.7504601977287503  0.0840593818208040
  0.5806898795613078  0.8319291153276687  0.5833378512904703
  0.8341194495092671  0.9157166567195053  0.0846233675917673
  0.7499174383865417  0.3334521018927044  0.0840011440484888
  0.4995190751234945  0.7485186653478961  0.0845527200067376
  0.5855203536131178  0.5034312548957086  0.7515290247567847
  0.5852344260266202  0.5027527126586456  0.5819345167106186
  0.4151827961728469  0.5853537609654098  0.8340302704506658
  0.4160700014968509  0.1671989559560353  0.2469961880737439
  0.1672893587159294  0.7499959622786094  0.9183848143717587
  0.1662195828548158  0.8333783037946655  0.3331778180215832
  0.3325993240760747  0.9152424426020611  0.2496379354797788
  0.9160466570535287  0.6659868418174897  0.7492068820065962
  0.5858555842051721  0.2494690471517756  0.8352206523355792
 -0.0006846657696842  0.6670347288934051  0.3325940782786292
  0.2469247423304052  0.2486879044434681  0.0028026595246502
  0.3312300255094878  0.6684772376385003  0.0010604147186834
  0.3308056894042804  0.4186442558907804  0.0836591386947806
  0.4159845438511507  0.5031477979706949  0.9200500544331944
  0.4140452041710547  0.0820047426730277  0.5007646080208861
  0.4156050953219665 -0.0021244598083142  0.0856049678157752
  0.2492705235892877  0.9155519894028116  0.8333553349510148
  0.4153202314937305  0.0795665130513249  0.0023173422789861
  0.1660709449361921  0.9165264591624182  0.9176462886447780
  0.2490812441418759  0.0825545263433326  0.1662599054310207
  0.3317896759009211 -0.0009380436569150  0.1671380837346293
 -0.0010824345951317  0.4162060914637631  0.4154393484904054
  0.9177347032176894  0.0033132269255864  0.7472342348124206
  0.8339734296705038  0.0815734119193262  0.4159830710821660
  0.8348418884894001 -0.0017564615249440  0.1668090682310602
  0.6669688636030848  0.5026599728587099  0.8353088192700493
  0.8347214007720849  0.0835764843109932  0.0841276345067374
  0.6687216181249129  0.5036948341166050  0.6659630213079794
  0.7489407018608135  0.5022894934706337  0.7514965905223022
  0.6675313428621751  0.5010585011970327  0.4974842713821351
  0.7495417351495516  0.5860247739240242  0.6656994880265745
  0.8327725876565655  0.5824515980899618  0.9181198162789600
  0.8336980494945477 -0.0024537335208710  0.3340412027540312
  0.5814906219918162  0.7481634452953757  0.8331332633867873
  0.9169952981177560  0.0825713082933010  0.3334447623042521
  0.7495162998570137  0.5015902735387908  0.4146569987851334
  0.9178293825711180  0.0006644035942339  0.5819219253870449
  0.6657251671110643  0.2504374501708753  0.2498128674936630
  0.9178175131614368  0.0840297869955544  0.0015706872522565
  0.7511602673667911  0.2495214773356631  0.0008015599420665
  0.6673226415007919  0.5854453685877251  0.9178181323969279
  0.6669871543174465  0.5009808477947082  0.3333998389847827
  0.4141241849629963  0.7482228385770937  0.8326802833535953
  0.7502298401509394  0.5850838404507449  0.3337280996360315
  0.3311773456867056 -0.0023557705570253  0.8332379043067188
  0.7508360495110342  0.6684903356112925  0.9168897667786493
  0.8332920393870559  0.4172988586032216  0.2511832009201549
  0.6676650811113083  0.6678896828392046  0.0005894311265898
  0.6670287873413758  0.5010742629074029  0.1668325038178304
  0.0001545647588354  0.0833042419343906  0.0850030078601950
  0.7496084775708135  0.6692210588978137  0.4169302219606664
  0.7505853903972997  0.7502966702069896  0.0017931775508372
  0.7499376803492082  0.5846720464643376  0.8341564979358634
  0.7491419278066284  0.5009203776029367  0.2500980487517523
  0.5813390236160693  0.8311648104430737  0.0848828273205198
  0.6645638058831916  0.0843993985681192  0.0845003186734415
  0.6666789394835254  0.5852798509042177  0.4157725446027766
  0.9180128814331143  0.0016493570927377  0.9189919232906840
  0.4132122332012018  0.9149029766222799  0.5006820949598808
  0.1647763464683728  0.1650175778071030  0.0021255776443670
  0.4149672768267790  0.7481160303846177  0.1672132550610521
  0.4141430343300634  0.9145999959944193  0.3319505171477093
  0.4148779383738705  0.1657685419535882  0.5821112951884116
  0.4991672207671662  0.0820618996228003  0.7481030962722736
  0.4991705924455842  0.0812295431334693  0.9190847725787391
  0.2485282047256186  0.7490826448795060  0.3325175211553124
  0.5826959606623946 -0.0020527861513215  0.2489471109739288
  0.5850911023561857  0.4184211509024202  0.1653846563880099
  0.4155049304418020  0.5857339043823275  0.1651951762612510
  0.0824745781716925  0.7495733407749560  0.1677090347076534
  0.1652838623695647  0.6661249472556605  0.3324397283381569
  0.0018402404439101  0.8346464538162737  0.6647569369678108
  0.0007363652374003  0.7507340245242496  0.5825565182758476
  0.7500080864150107  0.2508547620934421  0.1662454062611311
  0.1657245577230759  0.9161586548055923  0.0848239836787107
  0.1664785598815056 -0.0004413998651768  0.3325640484872671
  0.1667933627635460 -0.0001288702547361  0.4988606905558250
  0.2490111320320144  0.0823536920423888  0.4994415127950614
  0.2486966026686073 -0.0002670537827306  0.5831376389628070
  0.2478487023888916  0.0817690151381532  0.6658269439669209
  0.6675965334496076  0.4168008774298229  0.4154906949673957
  0.9176076432330168  0.1669022116744138  0.0842342890136922
  0.9161198491853384  0.2494023138511614  0.0011762330769698
  0.9162884017616573  0.4168832879701487  0.3336265005213709
  0.7504322161191261  0.5842199611155370  0.0009700099925694
  0.8335030133416456  0.1672910029256995  0.1671430570604619
  0.9162126787228347  0.2497747506168719  0.1672882763799361
  0.7501954769088218  0.2506061803253824  0.3336542536644135
  0.9174701602718401  0.1648105740521653  0.4162830994899804
  0.8340067608789677  0.2505658654825154  0.2507097876058709
  0.9166132659100058  0.2498472229635330  0.3332379883070529
  0.6665345842318434  0.3335836867288537  0.1662792011740898
  0.4998028721258493  0.5020920093909929  0.4987672860126980
  0.4991761915056305  0.5848626001174684  0.5814727027407832
  0.0004611184429720 -0.0004616977782430  0.0024874197626748
  0.5833958547144130  0.5851759744760939  0.3329866855719450
  0.3320543045354246 -0.0025097404883968  0.0019767858371497
  0.1651332458607248  0.1647239347218194  0.6648837193137446
  0.4157420246620064  0.4214347608612200  0.0033259481753563
  0.4155948857979347  0.5042439716594640  0.0835381754432497
  0.2493229680088232  0.9160354528188295  0.4991797270538021
  0.4983820376647444  0.6668099261772543  0.0012743640568760
  0.0815603278334761  0.3337162479071952  0.0847978926463172
  0.2477634643332804  0.1653874376548289  0.0847344296824951
  0.1655221575844129  0.1666348328937931  0.1666498161430815
  0.3325041143141955  0.0844211812129385  0.2486142514748568
  0.2479931148445862  0.2499458874450497  0.1661495384391424
  0.0008825328742601  0.0832354197613578  0.9180779196107505
  0.1655793764563696  0.1663513209638759  0.3323877528627123
  0.1662594884282537  0.1652179823159469  0.4986023849311300
  0.2480824046133610  0.1658446120408652  0.4157803227828737
  0.0824695742233435  0.3324588379790736  0.5811590078307869
  0.3285530796892682  0.2494963256991065  0.5808089368249159
  0.3299303251595456  0.1651526897952188  0.4999949538991727
  0.0832020071389241  0.1652179766546134  0.5817423772716117
  0.1628342355949762  0.2479337589186852  0.7492941046468764
  0.9159110177504423  0.4171478261123254  0.8339991896925431
  0.0002890934669426  0.2478691468637264  0.7515444119635228
  0.8324374394343517  0.3324186210745548  0.8347089333370792
  0.8338400021046508  0.7508624134709631  0.0847929516917477
  0.7496433319031999  0.0856498322732785  0.8330866020580089