Cr N  Ni
 1.0000000000000000
    21.0579309731141286    0.0000000000000000    0.0000000000000000
     0.0000000000000000   21.0579309731141286    0.0000000000000000
     0.0000000000000000    0.0000000000000000   21.0579309731141286
 Cr  N   Ni 
 259  17 605
Direct
  0.9204203186757622  0.9180047158469804 -0.0007249582555608
  0.5002374943069264  0.0858282234201523  0.0840730184758432
  0.5813314420930114  0.0849156054778469  0.0030434448958280
  0.7510506958241192 -0.0083613591258325  0.9182025108920852
  0.9174391064266131  0.6681100091550554  0.5934708294015233
  0.5848850452967852  0.0012184948380044  0.5839943579605242
  0.5018381245191640  0.3373409399492237  0.5031831414442869
  0.3338305240861852  0.1691257194535416  0.3353059582252229
  0.3353393522836450  0.6752142560491857  0.5011141687143583
  0.9205762497111478  0.9184939883586851  0.1690134668781853
  0.3346334254547669  0.7506322654924896  0.5853547258093138
  0.5028464674930815  0.1688963291697770  0.6668175345472641
  0.4177037640683224  0.1686824480902498  0.4258539879184884
  0.6656099860944066  0.2531389739661580  0.2498219120518478
  0.4186866463784753  0.2533966564824218  0.1692529985432312
  0.3330673365298747  0.9165222767350627  0.5849446603650709
  0.4173631975731411  0.8348120949318226  0.7513684239415099
  0.5836077292968499  0.8328077543626817  0.9179951965621829
  0.5826335746305914  0.0006374114160275  0.7493239682315675
  0.6672818965032987  0.6693674989894685  0.5005960537968377
  0.2514680130534359  0.4943749117541860  0.5868927902523725
  0.4163697632218062  0.7490638443738018  0.1686892499992278
  0.2483961214914134  0.6755713808970158  0.5857220113679676
  0.4999789398916062  0.4196644676493956  0.0841026679957076
  0.1681889687333008  0.8351014051740087  0.0032248793258499
  0.3334360427934390  0.9176196941992467  0.2518878999124954
  0.3348476877385564  0.5010667778872152  0.3368064335577529
  0.2486695902387666  0.7507766704971229  0.5012326903394342
  0.1684222785934827  0.7522832985753732  0.2524680047066406
  0.4176801274158468  0.6690888914517867  0.7512231911106145
  0.5034355739249503  0.5838108804413170  0.5861214235718066
  0.5008224536784077  0.1691173521426296  0.8330713699740362
  0.2515691670824172  0.4184001355804111  0.6696669612080453
  0.6642080355084653  0.0884065277482170  0.2510504862907861
  0.5835170521412076  0.7511347059495964  0.1668675279344961
  0.5837241341209800  0.3354449136008590  0.7502698886202426
  0.4172622214196067  0.7489881461764937  0.0003499960918958
  0.4197208471118277  0.4196667673674132  0.5023477796203022
  0.7569977120480006 -0.0024695092492714  0.2526674079638391
  0.1672047231079322  0.5014063737493560  0.0015127003061495
  0.8325762661019795  0.6684346583362528  0.6678177448524726
  0.4190776879435665  0.4176565698727523  0.6707153827548439
  0.0028677389667857  0.9169806814196669  0.9184029514420849
  0.4998204349385147  0.5005620060003420  0.1672677763206119
  0.8418516736230878  0.2521380896392122  0.9177394319148833
  0.3343677896742488  0.0839579981780720  0.5873502633154811
  0.0012888134413871  0.6707223694549573  0.0046556126146438
  0.7512455338247718  0.8325314415671096  0.7512295105067236
  0.1680079881543125  0.8352587009938222  0.3345486033567591
  0.1664306268623582  0.4165151426195450  0.7533451366520477
  0.2491151378706437  0.5839184226200778  0.6759680180617135
  0.5021170742074288  0.5012546810432843  0.5013768988656032
  0.0846568009695223  0.3338726222703422  0.9181830283672313
  0.3370222651583288  0.5839256884343624  0.4101986360681710
  0.1686044279240469  0.5853126213997796  0.0841775745440442
  0.4174682285232660  0.3356683380211697  0.7505477857407606
  0.2510084655710718  0.7507092873179735  0.6679067233077360
  0.4193987100404605  0.7514837271501746  0.6686731586427130
  0.3334524589596084  0.3361684423098122  0.1663495780236604
  0.4171184068028606  0.8335684877059965  0.4194727172349025
  0.1684133648489120  0.4996590914995733  0.8349350969813603
  0.3358385188168329  0.4955728725336305  0.5006843807401986
  0.2490589885910975  0.7509759643743614  0.0018766528906881
  0.2506359898550778  0.2515421798381902  0.8338594274840008
  0.3342680328336480  0.6687521564379192  0.1679067959073527
  0.6678478615030610  0.2522807549260964  0.5870497690108707
  0.3358399093403893  0.5008261693433104  0.8349648655168114
  0.3354304286114185  0.4173542157636828  0.9184157290707005
  0.2513026558752129  0.4173619993983478  0.5019123384551087
  0.4184289433326536  0.2603337552672370  0.3349651606642461
  0.2510248570309311  0.2582208281038887  0.3367519658998124
  0.2509903106457929  0.2544361959064313 -0.0004228574258978
  0.0869115562181772  0.5012979840796914  0.5861819135891522
  0.3339791553374872  0.3334261015562007  0.3343474524684661
  0.0857739512916736  0.5016482237682270  0.4162336679381338
  0.0003012141911147  0.5795359681958517  0.9164860284792287
  0.9127991939100927  0.6693470537192135  0.9152923411226755
  0.2495390059977118  0.6682220860951814  0.9168588471567505
  0.5846985128709281  0.3356080629444317  0.9181292812151655
  0.5849252223034469  0.5024973847705247  0.7516180935312962
  0.2444051460397539  0.0858979100059776  0.8332533663230652
  0.3348000758340368  0.0849649502037593  0.7431555852332594
  0.1666223871048174  0.1695359030892277  0.5022101620816478
  0.4159682156340994  0.1702179623128799  0.2455436444876084
  0.4204855105284926  0.0888656400191330  0.0008976554307488
  0.3332716610740296  0.1778064813557503  0.8345429723238507
  0.4177607132340997  0.2543065545553621  0.0000782533480418
  0.3344527947047241  0.0001838814872623  0.6672142079227309
  0.3341467247029012  0.9172521156566145  0.7501383391343668
  0.4074916687844659  0.0007088329055070  0.2500988175576479
  0.2500615689528436  0.9175001539783882  0.8330867028381451
  0.1688831381360377  0.0022086448878346  0.3348663148988911
  0.5007750392349650  0.9161124011119708  0.4183027696710321
  0.3319242952213415  0.9144114939117876  0.0851522712115461
  0.8324599154228073  0.5849263061440133  0.2537851772876041
  0.2495003933503397  0.0843322110834845  0.1668124089778183
  0.9175496741394648  0.3354266134922554  0.7502793328084256
  0.7529858497216210  0.7510383614209241  0.5019610160863619
  0.7524237629938377  0.0868493293809299  0.1607846544605775
  0.5834901483244175 -0.0005908311819656  0.2514286735812308
  0.9195730421724592  0.2425930809203713  0.3352048093891132
  0.9161853183818862  0.5079184947116816  0.4173772152965864
  0.7499711152604572  0.1681457039532856  0.9191911081230502
  0.0920753181876046  0.5022713774639168  0.0854232523975975
  0.8332451095600149  0.0013953271084028  0.6688367802419557
  0.9194167125739086  0.1675413222222731  0.7499308724486178
  0.0855129499194743  0.9185666635437861  0.1687447191480176
  0.8347696419076578  0.0855879526559969  0.4196306440948653
  0.8358950130046758  0.9184209609335684  0.4189929884397275
  0.0834267127625869  0.5836041532464665  0.6703041116284643
  0.7506182699241752  0.2524916716481428  0.8284154166418067
  0.9184183700801454  0.3348224668900870  0.0869886360494244
  0.9192901551642673  0.9180489120399619  0.8334441044431289
  0.0006996487895447  0.0008209488156082  0.5025406293213310
  0.9176296404656968  0.9179573883222757  0.6679458853874097
  0.6669634899659870  0.4194998793283229  0.5855988138443898
  0.9171001780048151  0.1682783775586646  0.4198789634506133
  0.4159914573615159  0.6681940729905854  0.9184761576442163
  0.5852884430528434  0.3364536648133731  0.2512492978774861
  0.0010714340366196  0.1677435628763563  0.8337389273856489
  0.5840539370510571  0.6674255206554378  0.9181604569845617
  0.6602215826154185  0.2524740908161687  0.9170263788259143
  0.6689220209912314  0.0859058220483311  0.4198846510637847
  0.9182340988775212  0.7598899208311433  0.5014064162141058
  0.4180526530007153  0.4205891033994041  0.1671245756238101
  0.8363280000951033  0.8357590899105366 -0.0002105557231044
  0.3376401512522823  0.5855020794171720  0.5887091111129206
  0.9198718281017084  0.1665713293589728  0.0848754841433667
 -0.0001724889922418  0.0027750425700325  0.3348409839309702
  0.3347151775315293  0.2528748550781410  0.9183487462942832
  0.0019478430356017  0.8351773703176105  0.3341418574926740
  0.6678168660498754  0.9158693441539383  0.4211801884717254
  0.9130538514889909  0.5010187603728169  0.0859734482824494
  0.5845011870044847  0.7503645578328257  0.6689957643304625
  0.7499209158706779  0.5835085925082513  0.1681158960948564
  0.4170421177912759 -0.0008900914488328  0.4202496388374385
  0.0004649746364398  0.5856146689827252  0.2522909754235995
  0.2501388450337753  0.0790240592081059  0.3358680728853867
  0.5829125219425388  0.5838440099551331  0.3353405168793394
  0.9152553479062697  0.3347012814440116  0.5848831405497836
  0.0033840568953309  0.7591113269788310  0.9169492564477398
  0.4149509603307969 -0.0005978291706810  0.0870740304308019
  0.6667156622420622  0.5854130259143308  0.5857240134774032
  0.2489766779552033  0.0845488921801597  0.0008785407660984
  0.9170424294148652  0.2510080620126803  0.5040953169054621
  0.0005813092026267  0.6686368125753971  0.6685528364916064
  0.8325193858085800  0.6672028971689651  0.3326068264100458
  0.6596575815806592  0.0848845395407887  0.9173997278118845
  0.9180938878005143  0.7512767285397228  0.1690316908982983
  0.4181274486386998  0.9148176127115439  0.8310646530606282
  0.4166854761927124  0.4190935418169568 -0.0002714004325626
  0.5016229255368426  0.9163354058564125  0.7505985823246841
  0.9174300773676753  0.4204908777919311  0.3320630513112255
  0.7499405802299194  0.4168807113122910  0.3338390943122142
  0.5827180335083342  0.5028872174897859  0.9177609956644247
  0.7498836202113551  0.0845951918538341  0.0090667455672512
  0.6673656130646698  0.4186304251132842  0.4187608079475898
  0.7509965623215610  0.4187484438253206  0.8333134030014584
  0.3348212648637968  0.3345761564563497  0.0007259523502574
  0.7515297596184963  0.0830128393812152  0.6684114176124095
  0.4996554169321093  0.9103541409248644  0.2518831039377025
  0.0829665228615125  0.2535066021243694 -0.0005441198530102
  0.8405772132728768  0.7520334895359685  0.0864149898111921
  0.7503668444414757  0.3446809659120521  0.9177256729592249
  0.6662492977234573  0.4204541883952186  0.0846244670400021
  0.4189997131562525  0.4999347607671161  0.4150678199636925
  0.7507336947836147  0.9160475281878523  0.0009861751094612
  0.7525804550725465  0.7538041561221858 -0.0041566784971498
  0.5846971081437523  0.8335336552105005  0.7510301031397008
  0.7497187628142509  0.7534527953277651  0.3358993243753077
  0.7517925843153748  0.0022149907436335  0.5863484497406513
  0.6676238104070901  0.7503209788851726  0.4195296300000550
  0.7497688632170519  0.5849233163059544  0.3340607848813730
  0.7504076140154170  0.7524778892169900  0.1739608256649851
  0.5095883112627203  0.1688352345780072  0.3363293203866964
  0.5001292449115871 -0.0000074189962681  0.3441013128134607
  0.7505623795043526  0.1687487286391740  0.0840160517226463
  0.7509116296901340  0.5048245804132355  0.0860751619980815
  0.5019923197436077  0.6687845318705017  0.5009997992693024
  0.6675551572117222  0.6683017162226291  0.6694157116968024
  0.7496463222920466  0.6600140661997962  0.0858857893562135
  0.7513736018522004  0.5855035644631194  0.0013233370795346
  0.5816176672935428  0.5827831392461945  0.1683730149430522
  0.8331565923057230  0.5003289357414715  0.8341661931451881
  0.5849970377072338  0.9174337000422322  0.5027044953780777
  0.5057182199354899 -0.0007655000052942 -0.0006632457981557
  0.5019050138687663  0.1687139261180456  0.5026180810210477
  0.4988980261782349  0.9168594593890799  0.0836474546773674
  0.7508510303251653  0.0008127316735017  0.7512032231445306
  0.6596262390541510  0.7494262116978285  0.0847396938851578
  0.7498573455213386  0.1689841837268426  0.4186446336990758
  0.7509651687928505  0.5835750139175223  0.8344986575901722
  0.7515571100188650  0.0861836243579531  0.3415440966196213
  0.3329965486036427  0.0870489672443412  0.9227673428703589
  0.7499984184491940  0.0846335328220006  0.8276704306667887
  0.8269764219296508  0.3323899935097964  0.3337010594546827
  0.1696334481141739  0.5848785249115324  0.2523028447880063
  0.0017252929410130  0.5025511951209812  0.1757858099502318
  0.2506500974828197  0.8335465585333630  0.0848626020595298
 -0.0003630880794955  0.5009729486254955  0.8347311380651458
  0.0023108505600691  0.5919380867059854  0.0845496683791379
  0.0853048416163352  0.3361302866643278  0.7529911502611023
  0.0913952842259337  0.6686100968838375  0.9170461489432982
  0.6673199475420711  0.3355406890670657  0.5030809749797817
  0.8328597060904741  0.7527532822299353  0.7511695936047008
  0.1680697747122628  0.6694596895232825  0.8340111862377323
  0.8334605999716055  0.5024457342048066  0.0025151167077323
  0.3345052573450329  0.0003405136443631  0.3365233796326943
  0.2515084725757971  0.2548148626099844  0.1668074911129409
  0.3279262425083986  0.0003255514554704  0.0010524047330509
  0.1567947147761799  0.5845498523414214  0.5861647584384488
  0.0854364640580144  0.8359741345252939  0.7506892860809532
  0.9164119774278161  0.5031686810962762  0.5861486881979547
  0.1585615736126791  0.1684125717183243  0.3359396509510804
  0.0015507276317309  0.8357537925590049  0.5018703835335486
  0.8286381836956156  0.6674782045860176  0.5012025983782212
  0.2451842950613840  0.5866660910462858  0.4974435037078135
  0.0021940007038362  0.7533722307723605  0.2531395047798760
  0.8329062580457199  0.5030194725342777  0.1685643294060110
  0.4171892676852851  0.7516055892427799  0.3348714074569021
  0.0844545918795330  0.3351128410341827  0.4178160124659136
  0.6682274184487771  0.8319796031267827  0.3368396571834574
  0.1681423759376679  0.0014766807135201  0.0011939541392762
  0.0062877186155290  0.6681844834686026  0.5014570204234509
  0.8399389519331828  0.0854002315594703  0.9173291197074516
  0.9186346866303118  0.5836760352034435  0.6678137635260731
  0.0014905301252886  0.6675075064578728  0.3328557670083011
  0.1690535735715599  0.4177955069711364  0.2514140121201774
  0.0849183412552114  0.6676989812509017  0.0868888231922165
  0.9168072624701221  0.3309549607214556  0.4248006888692490
  0.0839255852066470  0.0026075098570446  0.5850684677105843
  0.0837282754879180  0.0839684704180485  0.1671045620127231
  0.2503539666876415  0.9175825552832605  0.5028759193189417
  0.0852815707110682  0.3340280544932140  0.5861778318878754
  0.3344661296542492  0.1678479173251684  0.6677875869849123
  0.2481998010615504  0.7505482982466635  0.8360237665720445
  0.0016462042667315  0.6695440905724750  0.8264924801054393
  0.9180596412854575  0.8337045795502067  0.5842204993017629
  0.1658338241640604  0.0852407439754450  0.5851090816819368
  0.2507929344056313  0.2526836244348251  0.5030853588274905
  0.9172725168450517  0.4187583056481974  0.5105747729618243
  0.4239566411440408  0.0858460379196510  0.8309942551639982
  0.0834156947075002  0.2521286857517193  0.3351818287310810
  0.0850193969143605  0.0000426456862542  0.7515196594387317
  0.7525769916407826  0.8408127346970575  0.0837204969957539
  0.0014235024375851  0.8352379851831130  0.0022300938576743
  0.0845384563248251  0.8354187946931261  0.4165746828369852
  0.0856411077897186  0.1665334367376947  0.5852718029677465
  0.0081528643382195  0.3329024946053306  0.3348584054094664
  0.2506953966731137  0.1688739559072044  0.4287675732976983
  0.7495212500331253  0.2514487771473144  0.6677859454188062
  0.7510515267779816  0.2522902428518732  0.0084147775460508
  0.3355799389968663  0.5028030861755465  0.1685506095347357
  0.0006116103409709  0.1688696368228754  0.6691430259234490
  0.0839354038046888  0.2524914559217021  0.1661952350886811
  0.1680350471366996  0.1692742807093765  0.8344332719424107
  0.9165609407478913  0.3350439455265281  0.9182518941228854
  0.1652594808923391  0.1688206282142308  0.6657375879013774
  0.0037126092955359  0.3337193404037985  0.1673497133227491
  1.0025504171034867  0.5028671047962511  0.0861179314388605
  0.6701353890216114 -0.0027725828572440  0.2509035198241124
  0.9172051978571739  0.3305179469523405  0.3327866305516357
  0.7553594821004759  0.0881126290199416  0.2504536365120589
  0.3362439169529011  0.5852521618481967  0.4987598357157207
  1.0019710983920691  0.6695049983640101  0.9158853681532901
  0.7499422130380891  0.0792353239296466  0.9184471359462946
  0.9159401644098678  0.4209983180389718  0.4221223783427572
  0.2464377465678461  0.5842451116967274  0.5879518917054305
  0.9177504021039711  0.6704515466974992  0.5029324180875431
  0.2456185088309777  0.1690767197099202  0.3371956940931905
  0.4944872212462789 -0.0004590858339267  0.2548478302221933
  0.4156660667054434  0.0010326399573917 -0.0018994718007207
  0.7497910527190974  0.7503405291348915  0.0849387485023581
  0.4226173716319908  0.1703749068185939  0.3356935922811950
  0.7511035252591720  0.2570529745563213  0.9181124647132031
  0.3341910442484437  0.0873994127906210  0.8333555723502569
  0.2505208158167221  0.8331539096266098  0.5847196121314866
  0.0019333480213100  0.2501580816910413  0.4218286943496888
  0.5824658439831467  0.8335626130687999  0.0840050017794012
  0.5835169856862307  0.6675733011284209  0.2515839915693348
  0.3364620983574141  0.4175168109195848  0.5869342118047712
  0.0852922522626202  0.4190668839671441  0.3339669154237216
  0.5842454921915009  0.6683570461119442  0.4175673934689006
  0.6648795775224585  0.6663911087998626  0.1690648841831016
  0.7480240372008633  0.6684022218732593  0.2513564864485022
  0.8331659875896651  0.7520502429886672  0.4172554564089317
  0.0856304813439167  0.3344186144028432  0.2503855171930383
  0.0023228371768377  0.4177141775036678  0.2509646972932185
  0.7501991003170188  0.6682600258157737  0.5854683500127286
  0.0019253604691883  0.2513571804040672  0.0838763897423706
  0.1671299542907588  0.4172259633184469  0.5857190744989137
  0.0864677160764541  0.4187420450140908  0.1692268084408060
  0.7505031042354121  0.6677868984714513  0.4167257150366139
  0.5847397909401331  0.0843961072556567  0.5027698562504777
  0.7497858913676255  0.5852176165208799  0.6686895278763428
  0.4994605984517151  0.2533690579824829  0.0846978487970733
  0.6665728890747836  0.5018046805714782  0.5019296642010278
  0.5833955604192717  0.2540026879624385  0.0013812708946247
  0.6673780769658815  0.5851286179410901  0.7527695107686558
  0.4162029577767111  0.8328724470886656  0.2515661811386705
  0.6663839872081461  0.5024098883699124  0.6687708194083231
  0.5019882001761992  0.2544580292469043  0.2510689760924741
  0.6676752469084948  0.5841715740387016  0.9172701885583422
  0.5844008018881983  0.1702625097522757  0.2502905892804539
  0.6661734971475227  0.6670800894318926 -0.0000138661973217
  0.5018210670352308  0.4188678848128599  0.7524893701055620
  0.1669660217836894  0.4987539411629488  0.6711719130128700
  0.5016472532290478  0.8321679369193176  0.8342799627223152
  0.6667609216883634  0.5857623392098029  0.4173318276208175
  0.1673877290410279  0.1685433804714445  0.1662945023331438
  0.0023646232371162  0.9184538479059144  0.0852434303576249
  0.7506916641160967  0.5026276866246383  0.7516235648553757
  0.0845998846526374  0.0017652982400538  0.2515961306590312
  0.1664305455137271  0.7529558135091419  0.4171245767279975
  0.2499111469824838  0.1696223287356931  0.0835710673636323
  0.5850729450904943  0.0843639424845586  0.3379188997471484
  0.5014640593649837  0.2526506963775050  0.5851059370349007
  0.6688155980057764  0.0013643887634143  0.5026065492203445
  0.0850016450170460  0.7517936391896187  0.1699615833749377
  0.5850395422058080  0.1694717367989970  0.4213700336473900
  0.5018126638915387  0.0859747070613143  0.9174301738025281
  0.5026050897131736  0.9170374890184824  0.5845800209323418
  0.4190422597918924  0.2521771632402185  0.8334687994827191
  0.6648963851084788  0.1692089569994375  0.3353199294531387
  0.5824613991315432  0.0847881054589023  0.8326569543375724
  0.5019725778486446 -0.0003455164722026  0.6666971266213370
  0.3339949067283811  0.1703331752650841  0.0019139287505758
  0.0852100609013158  0.8359509142116051  0.2527566366883446
  0.5019218196185099  0.0849593823495505  0.7485839427485179
  0.5841339614674534  0.4195714753620821  0.6687740923574598
  0.8320316030661419  0.5844737688079588  0.5858573201916146
  0.1663967734789878  0.0845392344624265  0.2503261220231654
  0.8335198783135001  0.8356276585852621  0.6684222235072662
  0.7514140691354209  0.9183004372294690  0.5018154043498332
  0.6670993418226322  0.5017381575576572  0.8350896229281167
  0.6677105864050228  0.0839904154409571  0.5859099790129543
  0.7512192566629913  0.5008756847645057  0.9175435946228154
  0.1676743649127040  0.6684154850060193  0.0015569930195287
  0.1651100705638198  0.6697085036633735  0.5001201127088275
  0.6680653898506880  0.0001221606371051  0.6679169716405505
  0.7509461486501815  0.6682045980773643  0.7516048365357265
  0.6654499040662546  0.9170637790390587  0.9171538186226101
  0.8327733435546122  0.4182027176513846  0.2506034037439491
  0.6657434625013974 -0.0002155964663574  0.8327459911562852
  0.8365732163044451  0.9178265237661105  0.2515547290333488
  0.5839688302363476  0.5015338128695003  0.2513292121822737
  0.5843464855768207  0.9157252717297583  0.3379273416111171
  0.7495315036522893  0.2514076846793511  0.5042330316520158
  0.6676181919769784  0.9180153289769777  0.5852281366299636
  0.5014926250367228  0.4191782904726078  0.5864001521561517
  0.5833044351399487  0.5018420017289131  0.0842685235228749
  0.2511913007137754  0.5001707342531213  0.7528061008737835
  0.7510167444768429  0.1680862343955277  0.7505664784015801
  0.6651092964320486  0.1687882002656652  0.0025036141594061
  0.5837673841842439  0.2537926404586724  0.1681468365344347
  0.7515220958146812 -0.0011735814868601  0.0834610956902294
  0.8354517161757027  0.3358794854922916  0.0030750813937199
  0.6661743729279748  0.2531817169035200  0.0841701999408110
  0.0867124966150987  0.5023596966208150  0.2519938486200587
  0.0855598224575436  0.6685150398561398  0.2518091907198227
  0.7497925616421898  0.2524811586115231  0.1652292481960830
  0.3337612374933492  0.5853745040040079  0.9167065371284467
  0.6673550984333434  0.2520067792834422  0.4203778423215638
  0.7500911012932593  0.1748173879358600  0.2503045628430920
  0.2503708280228992  0.5845451735877883  0.0005158599944171
  0.6684298889696096  0.1679214513378715  0.5038521538705020
  0.8334357453331135  0.2508219485632454  0.5870471880468962
  0.8371524012630903  0.9184246731178184  0.0845613867716338
  0.5845510213860439  0.1688235582963843  0.5853655257940681
  0.1665801508138344  0.2523247919018952  0.2504660564452296
  0.0019723029611088  0.4176384654076029  0.5859483545437928
  0.6669555956723985  0.8344948054488540  0.8344366442403939
  0.7512583746036381  0.8369236862230937  0.9176293000023591
  0.5831489318268781  0.1685998278496462  0.7496702456012112
  0.1660710163067650  0.2537202898784277  0.4200006054560050
  0.5011745695674636  0.2525749004878696  0.7501200791228549
  0.9206215097315362  0.0001530927812314  0.0842261802370845
  0.0011917618661924  0.7521131238923543  0.0863273396229876
  0.9201416009023805  0.0845377790109901  0.1665033566210123
  0.5841254918701256  0.2525952382410794  0.6676131346923563
  0.9181577530672359  0.0859702545399232  0.3368264071885335
  0.0855394330503879  0.5857908529051108  0.0001968214898076
  0.6665080325943903  0.5015939325194435  0.3343581649453120
  0.1676547634209971  0.7523700121574034  0.7508400862928978
  0.7487377462427680  0.5021275868853231  0.4176705752941734
  0.9174741397329944  0.7526491815094922  0.8320436437387343
  0.4999953285763045  0.3364601264319016  0.0009569691328324
  0.0027603632182915  0.1681358583616147  0.1664411426591908
  0.7495679391381666  0.3353702792103822  0.5861774876051596
  0.2509763835944426  0.6682615683301411  0.0849729932598908
  0.7484360953398562  0.5023016231540581  0.5853090875690068
  0.7484971645368587  0.4189393106945968  0.5026446523672555
  0.8326163002182850  0.5020898071031542  0.5026872885116574
  0.6672563323369474  0.3362640230709630  0.6686013376962535
  0.0004579200534255  0.3352075405526735  0.8347193035729790
  0.6669419592344479  0.2521879673923940  0.7500143096206094
  0.7493196843823100  0.4194384401561577  0.6683371379527484
  0.6658527117834314  0.3367916989267868  0.8331263446366346
  0.6658456093923407  0.4199652428117538  0.9177013890476440
  0.6664716316522548  0.4195037455984127  0.7517285212608918
  0.7504432103436501  0.3358872342505172  0.7506531980064012
  0.2518089190855962  0.5010883482589003  0.9168338747733686
  0.1684498062797603  0.5838499875335933  0.9173184326816848
  0.9179721127651045  0.4180086712557502  0.6672195683350878
  0.1657746461062188  0.6691057587354958  0.6703936541768565
  0.5851323765586938  0.3353022455825397  0.4196792232779152
  0.6661236209800656  0.0839855124654988  0.7498444106456383
  0.8335931303772323  0.4187989010532650  0.0856049410637157
  0.8320124546171372  0.3337757721905305  0.5040294266414974
  0.5832555669390128  0.2530926582500896  0.8327301383062147
  0.7507739544989068  0.1676220171491956  0.5866185397386432
  0.6656051433763537  0.1685234435669042  0.8325451233835305
  0.5826178778146343  0.1688810040441746  0.9175587884887204
  0.9173094825059166  0.6700336399648135  0.0866623129398226
  0.8351238272967675  0.3359750237006622  0.8326910547286500
  0.6658821298841553  0.3376111640101805  0.0018386139528942
  0.7495560392542672  0.3367705052029368  0.0848581253081471
  0.0012474077680665  0.5014085297906681 -0.0025074206406749
  0.7497220477925803  0.4189263276171753  0.1671018588123363
  0.2506556621502680  0.5843721857024363  0.8346750403569708
  0.1677851494029872  0.4181369021292381  0.9175643834359291
  0.7491381214113239  0.3343381626372933  0.2496164445185443
  0.6662342626728699  0.3359552902414330  0.1670379621260475
  0.7490228255566264  0.3338768179361516  0.4194838319182830
  0.0016761866457885  0.8352278847796238  0.1690722420510329
  0.0854950204823211  0.0012565093478797  0.9178228338015496
  0.0857021212372215  0.8359296060333397  0.9177403954148976
  0.4182735776844447  0.4184955609980308  0.8343559143238197
  0.4171738298680230  0.5019683843619084  0.9176497950799094
  0.3335697753606340  0.6684965937084016  0.0007920016381439
  0.4191137943100190  0.5850677696612135  0.6697133676471916
  0.3345428444848563  0.2521328966353412  0.7493219942969702
  0.4191086919456958  0.2520827312265084  0.6675343727025649
  0.5014587303743614  0.1702462120410825  0.0012318418947366
  0.5015866438439632  0.2530982100856639  0.9171020388514541
  0.3348378014489963  0.4191534381158838  0.0835292978633893
  0.1671634328262903  0.0854086955981147  0.9180653724378041
  0.3350271577111884  0.5844996179059758  0.2524566876208859
  0.5830938125286486  0.4191682078750145  0.1673856724662950
  0.3341135111215098  0.4168502727052415  0.4173920751444963
  0.8418510758780463  0.0851046031625398  0.2507135281293578
  0.3348513120662538  0.2529782631992225  0.5855035879878604
  0.9191033760112600  0.2522519919558475  0.8327574445454652
  0.0002972262958518  0.3347030744415780  0.0013581367911237
  0.8335919478006451  0.3352284442882850  0.6684748298710450
  0.8368182331930265  0.5870508044063610  0.0854614619937397
  0.8360770932311182  0.2511031296431342  0.0849338190822781
  0.0002583605130961  0.4182071464294140  0.9179325794337141
  0.8335972775616015  0.3342303156806177  0.1664556892648418
  0.6680314491615119  0.3350851694443126  0.3351012855461382
  0.9182750273136100  0.3338756962650484  0.2450675305797033
  0.1663386547499573  0.3348883447311746  0.3347079148323967
  0.0833651104719791  0.2518150979908991  0.8344437892383536
  0.9160971618522330  0.5019127287698216  0.2519544537703184
  0.8271492554086616  0.4176586040636577  0.4183184373240970
  0.1675662914017254  0.2521065204494704  0.0838312288949898
  0.0059357264278248  0.4187345976123851  0.4192762033079552
  0.9182230752559752  0.5811807790115657  0.5035622115327301
  0.9184738451668277  0.0846865054140727  0.5027760292677472
  0.8328686085355516  0.4187691169741893  0.5865692785840975
  0.0033626675009136  0.2498792481602903  0.2496806305260429
  0.9172265657270168  0.4180821321243702  0.0017887113306813
  0.3342388714056885  0.5018410697538767 -0.0003435928180323
  0.9172438128896049  0.5851508777782133  0.3338201467961435
  0.9192929999227544  0.1679414834737847  0.9171378709832205
  0.0013674489400403  0.2523204004796096  0.7511071408543721
  0.5852023651027758  0.8327932975713790  0.5846265744124580
  0.7498947002165963  0.9175106481912196  0.8324202210715484
  0.9177080898941373  0.4179020524205136  0.8345291466761929
  0.0019103392038455  0.4139142691222858  0.0847822563783032
  0.8350052466620118  0.6687131030562082  0.0006721725863540
  0.9169939936288403  0.4185288869903946  0.1687413641206387
  0.0024920404522940  0.0847369653446046  0.9167845528741191
  0.7485518191524780  0.5013220800144123  0.2518325415741419
  0.0017395226497122  0.0005457515858264  0.8342691913072992
  0.0847679222454558  0.0850150290975461  0.8334896791813934
  0.9173966158199173  0.5864919650358567  0.1701827872140479
  0.8314754583046163  0.5014913645487842  0.3339435046803866
  0.8320206338385830  0.5848866790535913  0.4170925550296772
  0.0021152487707393  0.5023521873052738  0.3333171229799858
  0.0012448774166095  0.1684406133834346  0.0010668925125421
  0.0834263732986562  0.2521607821836720  0.6685633351507539
  0.7518812701855287  0.8348229477484003  0.4196726738344213
  0.6671426228806768  0.8340938425164541  0.6683222207801210
  0.0856990395359920  0.3346196380781102  0.0840657749747162
  0.7506797313752304  0.7517515324402697  0.8345827532756360
  0.1668671544732370  0.4994628307545616  0.5011039380943074