Cr  N Ni 
 1.0000000000000000
    21.1208046318997766    0.0000000000000000    0.0000000000000000
     0.0000000000000000   21.1208046318997766    0.0000000000000000
     0.0000000000000000    0.0000000000000000   21.1208046318997766
 Cr  N   Ni 
 259  17 605
Direct
  0.0825319549282658  0.9174069878085368  0.0066767637914745
  0.5821091763795816  0.2513823486092229  0.1663453928026239
  0.6631583123292674  0.2525905966934044  0.0831919786534484
  0.4229626739880030  0.0019167988911485  0.7475581440692490
  0.5812024009286756  0.0846226447440749  0.4998846661137076
  0.8306288044991291  0.0786715319019256  0.2523235960211778
  0.4153225296538006  0.0011398479093597  0.0852886727115791
  0.4994965845382345  0.0908529268070756  0.2509469793520004
  0.4169913797105865  0.0016075548976827  0.9189805446700198
  0.4162711021126084  0.8299679547921476  0.9171587123040106
  0.2489426283079116  0.9172031818967958  0.9999727288096775
  0.2516251340617316  0.9168688685690369  0.8403285679879764
  0.4990151360476945  0.1681141966667194  0.8323067819185040
  0.5818506599458727  0.2510047534641941  0.6657503843412894
  0.4147485460086433  0.0840460222941298  0.4992272394460773
  0.2514206300403516  0.9171459467363382  0.6590184046687315
  0.6632344564695503  0.0857132328463340  0.7477778259849799
  0.7406425833166379  0.1678450564217494  0.2506670475723591
  0.3339395836704713  0.9176662735304690  0.5838154251494951
  0.4171485165541420  0.8321830694230493  0.4177276292358038
  0.7478314237983038  0.9186434426111739  0.8224994100846196
  0.1723406726291679  0.9170065408182494  0.4180928373238811
  0.7493842030083528  0.5005312314519994  0.4169801353981382
  0.4978907047114581  0.9111523838385744  0.2477885851041372
  0.3339017858075446  0.6648431058816470  0.8335086652174972
  0.4182456038809745  0.7484078502227608  0.6654129271371979
  0.3328438520373678  0.0845788349085364  0.2505462091350272
  0.1664411453701701  0.6665064433837066  0.8339163326513368
  0.4967142635750395  0.5003998034725159  0.9987264906831231
  0.5802851751082370  0.4182326626132330  0.1669846401357551
  0.1725932998654661  0.9180075360890779  0.9169325130453148
  0.1700701234965675  0.7495928439803374  0.4171596648477681
  0.0758427483671280  0.8313992279521409  0.7496008529770868
  0.4971619988108317  0.7467966221235591  0.5862393882281053
  0.5819270723702957  0.2525683766863346  0.4988780809084108
  0.6602486560975456  0.7438314896465180  0.4159893683516788
  0.2492746895887165  0.5817109939253791  0.6670311247481726
  0.4980407206634663  0.5817299130929336  0.2502807406186188
  0.1712834467905153  0.4180378396309422  0.9155265050358907
  0.4159198830697440  0.4984076994619923  0.9164445873653072
  0.4978654182354424  0.9171736422621927  0.5840784502390511
  0.6651478579937350  0.9216702952537696  0.4200936501449302
  0.7496856480780405  0.0015349085691048  0.0816894622618589
  0.5710644942112088  0.8325272148301912  0.4180075238110768
  0.5818665124268250  0.9153435251153472  0.0048072401721607
  0.8303024399072072  0.9178487734234715  0.4206910511110993
  0.4985165450894701  0.7491626993334658  0.2475834762657000
  0.5805438059925446  0.5804486767767868  0.1664800188002707
  0.2515908475846687  0.7486976569967894  0.3336495833235281
  0.6636727662234936  0.3331041910160947  0.8319033363318836
  0.2522790373617047  0.7473461940227683  0.6639833939915123
  0.4146132891097434  0.2520734544244421  0.4975699161399136
  0.1683672948459794  0.7466071461659731  0.5837758876905114
  0.4988654055154479  0.3335699520271558  0.0014415955269777
  0.0834942244104426  0.8304828544768451  0.2513628608441622
  0.3343441790586935  0.6639585579804820  0.4994888473751892
  0.6653009004205650  0.9172504727182067  0.5837533751220189
  0.1592099809997888  0.9178621673732734  0.7496945241802563
  0.4139682047411137  0.8313929652237113  0.0831559978856932
  0.0798438988992749  0.9194618679933475  0.8258963340896880
  0.2527818328103890  0.8264552866378281  0.7474253203195719
  0.2494934105307203  0.6648719461027897  0.0842689957817589
  0.5811914371021041  0.2502194727133443  0.9998445081806681
  0.7494508393779400  0.0011626372858276  0.7482625772886384
  0.8315861642084529  0.1684214326484550  0.8320302758514581
  0.0897808331483941  0.5001544691888481  0.4171342285923861
  0.3334736355306709  0.3335543296527657  0.6657973889179849
  0.5810820757662692  0.5819230519232899  0.4996877470438036
  0.3336269394724710  0.0003417447104243  0.1664006636992894
  0.5886044895429362  0.0012127329397448  0.2508984276625059
  0.4160423106967394  0.5812604256296643  0.6677401741945531
  0.4142421735595989  0.6646388012512945  0.0839124375880301
  0.4995334751198069  0.1676569012653087  0.3338427802717073
  0.3325930273881955  0.5821535070244993  0.2507788553884658
  0.1684598108609733  0.5804963136872930  0.5834165802749749
  0.0840162956118139  0.5007285304960510  0.2504170192680608
  0.0839519980720614  0.5831517755603628  0.1678547564769497
  0.3333360152818046  0.4167624751651069  0.0827211940794317
  0.3331161289229352  0.5829874485184549  0.0828052072406597
  0.9930091150193505  0.4162307995884255  0.9166188754259911
  0.2507538227706418  0.5824474423261786  0.3331511776447664
  0.3321058223037188  0.2512614461927238  0.0811053276063776
  0.3309981059918511  0.3326137910201228  0.0001212512489117
  0.4993553791156989  0.2513074554025972  0.2511240170501558
  0.2497028718720274  0.1687909474639330  0.7495716761467464
  0.4157771992165116  0.3339712324374804  0.4173058843389852
  0.3323493428341165  0.3334071725962030  0.8339241090903419
  0.3330905204345658  0.4998226127353568  0.8330518959668116
  0.4142333124930587  0.3339213805335035  0.2497527937513329
  0.1660589477810484  0.1674109008152868  0.1673128153729313
  0.4993232195030381  0.1682929686047700  0.0005138518219582
  0.5813797203142211  0.3333148255362391  0.4177801958220407
  0.4158247383604671  0.5821106989272442  0.4985346348083641
  0.2501820263696828  0.3327540041252030  0.2494247928530740
  0.3326421226572626  0.9164976703970126  0.2490948148954056
  0.3334950119304583  0.2508794556499880  0.9175722658791129
  0.3329431802203854  0.9997758341893157  0.3331261001386882
  0.7487580980348516  0.4164394460680493  0.3343207073308926
  0.6639489446747034  0.0842824874104950  0.9161406402776683
  0.3317423452800329  0.8318877072325486  0.1652361241481093
  0.8313259224214796  0.2525410467886393  0.0833447389617654
  0.4982893836319184  0.0004514925849801  0.1586057311354003
  0.0000537668169387  0.5002552108646394  0.1677003228467225
  0.1672897792948690  0.6647047094919311  0.9992555672243562
  0.9148096353412153  0.3335722355863516  0.0824808473551006
  0.9152961509505656  0.3316578140018726  0.2479929406589355
  0.8309893789905763  0.5793038911165386  0.0821692438041683
  0.9156365484332400  0.5006872292096693  0.0842664056225150
  0.8318883995028602  0.3266238225914840  0.8321078652674242
  0.7477214235525104  0.4177880228116199  0.1660265911254720
  0.9981148896002674  0.4165977130219067  0.7478594555431420
  0.8330381045645550  0.3318814578145440  0.0016834940096457
  0.9998246148230159  0.4183848146918282  0.0853340294180913
  0.0835395050446277  0.4164923944667994  0.0062990593320756
  0.9169937453775566  0.3331421569132735  0.4176187757974300
  0.5810062877438165  0.9157831028557493  0.8277127964305820
  0.8320663317030491  0.2518514413067329  0.7488695827232033
  0.9210580577959427  0.1666482371509820  0.2507635117951594
  0.6650415460487942  0.9172307076340752  0.7489061055476256
  0.8322148601002902  0.2582108170612963  0.2496071323660358
  0.9917185683570311  0.9188081684269132  0.9148034017749562
  0.8326119527578043  0.0023213662991056  0.5023568676521809
  0.8312803328188023  0.0861184626731278  0.7466657149839302
  0.8329219274277292  0.0863262307088059  0.4186147633942437
  0.8329989538039481  0.2512012532066962  0.4177468324642266
  0.8319540858332898  0.4969937851903057  0.3339808432490933
  0.9142930558388752  0.0044674448855151  0.7459485172212030
  0.8319073055791857  0.9171502008900834  0.7478969455961505
  0.9146839587809368  0.7461877406942186  0.8310870462938930
  0.4978364966891153  0.8309652123456770  0.8316165907771381
  0.7484450983005131  0.0855357929351680  0.5006196598837231
  0.8310665942949355  0.6645933026443950  0.5024108033886586
  0.8325479576333548  0.7473629649323804  0.7484081967490823
  0.8254162330596392  0.7475617586998956  0.0840012500866992
  0.9984435675917191  0.7477147574087093  0.5835299182107609
  0.6616808166048493  0.6657307521424870  0.3321762277253011
  0.0004904904263591  0.6637792870230124  0.1679675798916724
  0.9155797862641408  0.9157871446745982  0.5003551407022401
  0.8321944036086741  0.5059732431843883  0.8326080491154588
  0.9149767007655909  0.0070150813344031  0.2506821455503325
  0.9153122603254906  0.9171937490211143  0.3437239862056907
  0.9141056758709960  0.9172981487281353  0.1683836152922699
  0.9156831000464271  0.7466567407347199  0.1711162136752669
  0.9148707659570914  0.7459129057490413  0.9933677580480880
  0.9158113872402724  0.0092299769675162  0.0826697046343991
  0.6648377805506326  0.5000768552203176  0.8326471179569362
  0.0003602809318717  0.6658576057057515  0.5009335953343440
  0.6629684516621415  0.4998066723393857  0.1660444840253714
  0.8323295835433215  0.5011684355912487  0.0002985029484990
  0.6630515929147677  0.5812939899591544  0.0830090961504501
  0.8309635076864973  0.4170253159631159  0.9237570087500504
  0.7479238910613437  0.4157721609377840  0.6663672295353033
  0.9997338597637411  0.5894128352886833  0.4163956214287352
  0.9220796913732471  0.4149124132155726  0.8325635073036409
  0.9162586268861039  0.1660741051807214  0.5845736398264155
  0.9096660390443226  0.4993136668582844  0.4171645018486567
  0.0002928173874648  0.0859884777851503  0.9150968877798995
  0.8313939630336900  0.1684491104724375  0.1601274937677029
  0.8319620447909609  0.4990914747541658  0.5000984022977931
  0.7478245324699704  0.6595510519053035  0.4164004931705103
  0.6653024189017873  0.4983685416276942  0.3342619123212143
  0.5013109844833580  0.3320048124884439  0.8320381122195399
  0.5826080389266011  0.0849826907955985  0.6664065086725927
  0.4982858039093955  0.4169183701312252  0.5830561118659220
  0.5817914936255590  0.2516879044229253  0.8334351766334670
  0.5821416453631649  0.0079161128384516  0.9165626696581486
  0.7472256480144602  0.3341379703398030  0.5847906738496570
  0.7472916115792070  0.1672201978632347  0.5824652922382380
  0.6651335380670788  0.0842257911210978  0.2497647355263181
  0.4970805268218212  0.7481846529201565  0.4167087622017447
  0.7480371888439232  0.5819938636452557  0.6665229536018151
  0.7477479256859176  0.5826515973464382  0.4994331125021944
  0.5819569410080503  0.4994871321208586  0.7494584921993319
  0.0048669714831217  0.9165490853504699  0.0838840103418840
  0.7468981390619203  0.0062987751767022  0.9145035678106125
  0.6655615496368181  0.3358730293278930  0.3348563303727440
  0.7406309334319490  0.4154829010850264  0.8337856027578557
  0.6631412408812236  0.5015057472532990  0.0012253352972112
  0.8412053884343607  0.9171341688611724  0.9136613731485805
  0.5815572225787592  0.6647884053797798  0.7492555771476104
  0.7467479085229700  0.7482417483455733  0.6659354438793437
  0.7482069398880891  0.8264605358140098  0.9144376548006182
  0.6663154489079196  0.9147759513756848  0.9140511134610630
  0.6648962596092498  0.7471239053583378  0.5866736520746297
  0.8305135087478184  0.7480281006092226  0.2487931779925157
  0.7494627907142569  0.8375212168217903  0.4197358818801080
  0.4145050646802392  0.4162131851077709  0.4989618053493385
  0.5812396956779894  0.8333319676979778  0.2474421807038900
  0.4154843091995499  0.6649715905130397  0.9154480417343924
  0.7483163042415223  0.9178355715877926  0.1666942644216618
  0.9150698749849924  0.8269697829764047  0.2496331642282885
  0.6649775895599617  0.0840963407432156  0.0822887186392359
  0.2517084546417725  0.4994309201311923  0.7498284795934169
  0.5817566997735408  0.7476750073320166  0.9999967288305908
  0.0840300335764567  0.9160037247197319  0.3259165121760237
  0.7482439545813663  0.7473628321234753  0.1678426545728273
  0.8332450661564991  0.4144921762670933  0.7439625048100563
  0.4155707931881573  0.4159185646302250  0.6669643498419736
  0.9148531310368112  0.0855625301562781  0.6662472827645046
  0.0841713410333235  0.4991040048280131  0.5815636654852547
  0.7474603648183936  0.6654695993940183  0.9154918813599053
  0.2501077728728567  0.2498358893407090  0.0016294614619364
  0.4089394596955350  0.0016237480436550  0.2497275724399512
  0.0847680896335716  0.8248060319323403  0.4176666416184880
  0.0822938496903069  0.9170724570673761  0.5056764966065459
  0.8238197123378739  0.9173916675294936  0.0838371783221114
  0.0815506544840269  0.6663163692369721  0.7485986353742221
  0.0815410229837734  0.0844179176080992  0.8322511040359335
  0.0838860882030254  0.1676300129883141  0.5840706830051752
  0.2484629366441170  0.0060095776438964  0.7488176148247102
  0.8358700381050304  0.7468257209968163  0.4172006207884473
  0.1660295043993722  0.7398815197189477  0.7499738438738435
  0.8324252717631593  0.1681916414991194  0.3413520257810477
  0.9165386297351281  0.3329781147750969  0.5849955197674956
  0.9176354044774100  0.3313373414023537  0.7485559744637021
  0.7452865757070549  0.3355803013605862  0.4173259480285811
  0.2487241899425812  0.0017033335324247  0.9164619707682861
  0.0858007882432171  0.0051207394496408  0.4187199352164521
  0.4985511918812707  0.9169749428661447  0.4173439380591332
  0.9998204470315958  0.4983654415099729  0.3266789127672656
  0.2481154407809568  0.2503972355808964  0.4992173866366594
  0.0845084315899193  0.3253903144477664  0.9173974631064763
  0.3333998205642855  0.0864560535393390  0.5813245914809189
  0.1665131269420408  0.0859599261944967  0.2487426917277792
  0.0010620892883012  0.6663445379161365  0.3341135950634677
  0.0832070639481839  0.1677412278631041  0.4166923124545138
  0.1657972038762875  0.4183071959611264  0.0835898465037649
  0.0041569269691191  0.7457828925373640  0.0841002056772816
  0.1665644183949969  0.3333735743775719  0.6664857093074505
  0.1661333396144952  0.8333510394386799  0.1682292031318536
  0.0001622634803636  0.1676958410474644  0.1669149423246061
  0.0005750077133620  0.2518398755728649  0.4174565889779763
  0.0809579071698513  0.8275540841237711  0.9171020076482117
  0.9161400840151022  0.1689065245266836  0.4167883609183881
  0.0829655073985065  0.0087046517103448  0.9164475488973829
  0.0835656439977528  0.2516321234055835  0.0010528088471306
  0.1672812153299735  0.3325334104394297  0.4996984975202836
  0.0827684231215183  0.5060429668718002  0.9167780513793227
  0.9161145411415056  0.9175378173784379  0.9920740046107868
  0.0020648516330781  0.2486957320085827  0.9172158636858050
  0.2498959299154727  0.1685717710040598  0.5819472797552228
  0.1666004131915542  0.0017068073600619  0.5002136025077764
  0.1676859518255059  0.2497155985643470  0.9159936353992035
  0.1675166388665037  0.9167262020258329  0.2495780287546210
  0.9994365914676763  0.4082060298454196  0.4170019883212928
  0.4186710435343529  0.1702201300577312  0.7498988270247834
  0.3323209216722626  0.2515520477788860  0.2506329488034988
  0.0856079129008223  0.3337198308634056  0.2482154494771398
  0.9171849526089142  0.5823832037510212  0.6654841203763738
  0.8309447861214131  0.1686340365052406  0.0000727286282802
  0.0003522823957490  0.4993835455714103  0.5069921203009842
  0.0066805742512890  0.9168503017005087  0.2502407223294183
  0.0829288328384087  0.4998983589757027  0.7496919989566363
  0.0818185096739007  0.9174458197888443  0.6649215302560673
  0.0822497833983775  0.0017795410831976  0.0822372197125843
  0.9994702997812144  0.7458561139436776  0.4179637630416009
  0.2513165634386680  0.0843148669611601  0.0009359050654707
  0.0814730468947661  0.4168407314981524  0.8248313394601484
  0.9934403188572152  0.9167152139374035  0.4184090484067939
  0.1632627614285181  0.8276776704738772  0.7497384792898518
  0.3373498192435408  0.0036506254154586  0.7502615223173643
  0.8311324834626492  0.1684192299272719  0.2501766277544686
  0.8311578138548344  0.4165723563077586  0.8337681881471558
  0.2512097267604955  0.9167707038278867  0.7493943411718361
  0.0832061958338651  0.9150076241693614  0.4161839077058961
  0.9148726391065367  0.7462930816594604  0.0816450132850522
  0.7491295923957982  0.7474628005088494  0.4178012468748935
  0.7543997786062118  0.9161346229166838  0.9135714114955124
  0.4996571680056545  0.0010922162072658  0.2494202756467755
  0.9152590027935538  0.9172396179818956  0.2565539294655529
  0.9143825251953199  0.9208517426972537  0.0799978857073502
  0.5789833598336904  0.9177634131382463  0.9164478784323598
  0.0816095458917393  0.9177320932931591  0.9161045747367506
  0.0002312509551139  0.4985566255253045  0.4168372702252204
  0.6591102791181198  0.8344170867835422  0.4153260068739965
  0.0822782357266491  0.4164113840211797  0.9155856300536037
  0.7471915544403955  0.4988962460380593  0.0824338376064759
  0.7470854452245019  0.5819651566798558  0.9996163617677514
  0.7467066190751046  0.5823177927270731  0.8333454579815638
  0.0848965074983429  0.5836375745416584  0.3333879435423017
  0.9999435324553463  0.4155746856360557  0.2485932889118324
  0.7463946819864633  0.3321891929647247  0.9182672758620234
  0.5816736157920208  0.4991878565331584  0.9169438079064274
  0.8310289706709606  0.5803510619857076  0.2503902585537073
  0.9163798351402453  0.4159344625516493  0.6652181733988584
  0.7466007610080214  0.6629009541620701  0.2490193814023484
  0.7469333132688253  0.5803252217207809  0.1660084834794119
  0.9150330198610147  0.7473881574580210  0.3336294305676960
  0.6631817798886083  0.4177586454864816  0.0830573157028032
  0.7482624876020518  0.4998316854665162  0.5839186937466110
  0.1671328560067522  0.5001845466061737  0.1672137297954267
  0.5793523785735010  0.6647710156797618  0.4166435556329970
  0.9164950326914494  0.4171652335751097  0.0008000711687740
  0.4978199116360671  0.9159874103928207  0.7494482215387880
  0.6637672304638018  0.5805676774829848  0.2497393813508079
  0.9155311916570817  0.7474733885370048  0.5007433509629207
  0.7477756725786262  0.5811693900286325  0.3331514486622803
  0.0823235450629013  0.8317412096053756  0.5827744389940400
  0.6629214114644416  0.6646690849195988  0.5010311775525295
  0.4994854090285329  0.1687690818176373  0.1677373346583663
  0.0828928622956027  0.3328359872931869  0.7490381320563630
  0.4986728872633742  0.1685706577224255  0.4996505227322407
  0.6649974167125530  0.7473092988746073  0.7481286444646886
  0.5812925901799738  0.0011640858537113  0.4186490359124953
  0.7485286397962768  0.8331695516512770  0.5848643278896454
  0.6651141842080537  0.2514159974781268  0.4180878176648613
  0.5818682450711515  0.6663293458841458  0.9168253978517762
  0.4988562311336617  0.0007597502714165  0.5008218088394893
  0.1676578235604493  0.5835085920557339  0.0833929077334044
  0.4164600895865553  0.9168334597662007  0.4998876877654834
  0.5811681940800242  0.1693502450007437  0.7487620165931838
  0.6638412218079707  0.3356344990118718  0.1668189768076163
  0.4153232119122025  0.9148565414925851  0.1647640672137409
  0.3329454959781172  0.8330500410844793  0.3332009153006234
  0.4977952006859843  0.6654269750661729  0.0000558375555073
  0.1667634383645911  0.0030645446276185  0.0012239354439647
  0.6651422960849735  0.7475109863054851  0.0835772637751363
  0.4151395186631102  0.7477518140159873  0.0000188330448718
  0.4175871816434793  0.9162600292765141  0.6639640209685120
  0.4168566510479007  0.7485010514337896  0.5006098716418538
  0.3341542334486340  0.9167983192797995  0.9185754337651579
  0.4158329179101013  0.6635749975438885  0.5835398392625629
  0.9989319551262633  0.6647904604083100  0.8316736737222641
  0.4163875781551802  0.8324373221588171  0.5827557209130343
  0.4925990795066023  0.9157755967905901  0.9188001183114203
  0.4154714661529504  0.4984840888247061  0.7503218512336405
  0.5810076942793839  0.1676566520827158  0.9165990094276030
  0.5829450736427382  0.0852734906747388  0.1658369010278344
  0.1661122295145515  0.1675022003225765  0.3325482306718203
  0.0001446893253114  0.6651325084177347  0.9992351431887777
  0.9153448271945067  0.8297772229926551  0.9144971929106575
  0.2497075904805480  0.1669116878906350  0.0839098302646358
  0.9988701241294917  0.7465218998635335  0.9154132239708990
  0.4989203193528178  0.4992191182510172  0.8329258347256672
  0.9159809546029140  0.5817807827405463  0.1686032499290966
  0.2509656170729539  0.4993160939209565  0.9158056241343262
  0.4148272659320471  0.8323740116268172  0.2486072517475097
  0.2495327726447061  0.0011582295682290  0.0833632052610144
  0.7474627341608682  0.4996461311807427  0.7490809053167462
  0.3341920529424936  0.6644803479822770  0.6658995387067649
  0.3330707715949351  0.0841074986060434  0.0829581697140196
  0.3333690253790079  0.8323771001326166  0.0003986435339831
  0.5817642253976635  0.1680830036488780  0.4183071719800703
  0.4150320930265768  0.9164153416553289  0.0015227835835165
  0.4986524638441006  0.0014842623625972  0.3381356796200543
  0.2501391307696805  0.9167055576921146  0.1661511441537304
  0.3332515648216788  0.5828297887482244  0.9158921767038128
  0.4159715815856482  0.9148722034000001  0.3336634670117968
  0.4153615552899059  0.0007972066269657  0.4171425870634389
  0.1665241735706256  0.0010098591734321  0.1668468082698940
  0.4977896572222014  0.8307798670284893  0.0004593185298562
  0.9148494397007741  0.5836558361806868  0.5012765731010131
  0.0837189826208440  0.8315176285212209  0.0837019035421674
  0.5816684783050118  0.8283040856703072  0.9160674041211366
  0.9999532704231620  0.5835338322879084  0.9157759336860142
  0.6650543053170609  0.0014957287614510  0.6656250625696932
  0.6633212391384226  0.3332696667293785  0.0010078949738269
  0.7470557879643882  0.1682091638676223  0.9162076532723612
  0.5810944547149421  0.8326187261037344  0.5849337733839430
  0.7469193189695718  0.2501275547648341  0.8333177026978539
  0.5813240591578165  0.8315159678019272  0.7480770602426783
  0.7471762407434596  0.3350159014132592  0.0824716881484757
  0.5811354487249499  0.7484285019064415  0.6661239771399012
  0.9983627900698169  0.5015695054663394  0.8320312088492442
  0.0851239877480152  0.7482673384050298  0.3339255358338151
  0.4980064118274771  0.8324751560460419  0.5028526200404986
  0.9151819960550902  0.6649903418926767  0.2502965716194718
  0.5812638062245761  0.9171314991613930  0.6658186530715690
  0.0843612322394348  0.6653999962989544  0.5830327132510796
  0.5811058686462344  0.7480723269251854  0.8320404179151020
  0.6642161818035595  0.2507599106816445  0.5824068213840000
  0.9993353150095229  0.5834513653796914  0.2513554152767958
  0.6639817796500507  0.8322788609469257  0.3269386806449092
  0.4160197661041580  0.7477962548400378  0.8336331989795726
  0.8314137526190815  0.4988009411723711  0.1661544240480926
  0.5815288700843044  0.5825114780811196  0.8329421663059985
  0.0842282615505547  0.7478711524753394  0.5013195634462182
  0.5808645189634470  0.6643179748782858  0.5837927444173011
  0.0833701420754833  0.5833680215848650  0.8315765170283287
  0.6642613601289801  0.6641182336360100  0.6665586297593667
  0.8325301704150782  0.4141313167803057  0.4188697589793264
  0.0823965809983168  0.7476444624394154  0.6646714929310494
  0.6648929040917136  0.4169544604597562  0.5829391101589766
  0.4984687638374953  0.5819434854493447  0.7507888023332809
  0.7481326283068684  0.2508342947938998  0.6649420131666738
  0.4982962907803587  0.7482125193882572  0.9166663830398161
  0.8313638214092233  0.6646586904035032  0.6661114965433681
  0.6648136850788915  0.1678605609245001  0.1654410753662832
  0.8312830863678513  0.6647208399001285  0.8313285814567984
  0.8327389848173870  0.1689622142537292  0.5008154488676784
  0.0837478265250987  0.4174628794434883  0.1669155745411710
  0.6636775804488770  0.0853650946750694  0.5827383337162484
  0.9984537715800126  0.0037272252705874  0.9986993677924227
  0.6648245402722293  0.6660117861738408  0.8320569468197099
  0.9152847814521580  0.4999738764713652  0.5834711670134080
  0.6658932733900004  0.8304620052566751  0.0005176254227269
  0.4986579870169905  0.2514668500784416  0.9165458868740849
  0.8314719219304408  0.5815728199719057  0.5838961456730867
  0.7467322857274017  0.1682430818361775  0.0825790728019319
  0.6644173799980323  0.4997738143222669  0.6660487371563417
  0.6648676155599632  0.3341094669635314  0.5006286882286012
  0.0838263854022597  0.1678429649111700  0.9163504818856515
  0.7476196565324014  0.2526127692609677  0.3346759832515628
  0.6642724928608920  0.2526738920007756  0.2501719283355662
  0.7470330520142108  0.3350170072152748  0.2492213531322915
  0.7478547859721937  0.0854140732168720  0.9995059667822941
  0.7467928195164041  0.0839449566635668  0.3360213790519856
  0.1670693743566639  0.1675135705280039  0.6661317426151325
  0.9144046512380153  0.6583609608165965  0.0838244863372828
  0.6636646120878025  0.6638215860876414  0.1661784377532834
  0.9154976962123692  0.4992251602711690  0.2499092695849122
  0.9151683751202293  0.5833298629765535  0.3327413291307483
  0.0004509045250688  0.4155897716724152  0.5840121843705487
  0.9989090701381157  0.0855405601456860  0.7477257940715091
  0.9155326704805361  0.4999014678016336  0.7477240075368330
  0.9157820234727680  0.4145915260168190  0.5019630762452207
  0.9968168124970433  0.0026765391719726  0.8301728919372126
  0.8326418947713233  0.3318682496179347  0.6652310954492665
  0.9979209687074724  0.9180952809807322  0.7471006208308750
  0.8312129925251307  0.5824645201119740  0.7480006811581381
  0.7477919305202775  0.6637219779953916  0.0835876044619718
  0.7476094929389503  0.2500441163655699  0.0003839674664579
  0.8300221865232338  0.6645844424224071  0.9990870415953039
  0.9999338159579730  0.5833507534001368  0.5830350712293817
  0.4984605869383347  0.7469125097422126  0.7494025776835445
  0.4160648088621255  0.1692157930180035  0.0829832107710244
  0.1671993935523806  0.2500332943664345  0.7486354569054127
  0.3321072753263671  0.7497971475822987  0.2494099904026801
  0.1667828147135907  0.6646500791159908  0.6650737833290405
  0.2513216618266520  0.8316441454717800  0.5822980669849919
  0.1670776576418095  0.2504961458604782  0.5835750313343930
  0.2496762670905090  0.1679408274712355  0.4164894083382687
  0.3348597859452769  0.8313476803205651  0.8350681535168327
  0.2509381390691656  0.6652086033488314  0.2505685242709838
  0.1688932982213317  0.6665080632756364  0.3338306851202714
  0.3332464661947285  0.6652614002115870  0.3333380380947938
  0.1685782816266486  0.6657487512833038  0.5004512300858281
  0.2509237674911810  0.7484160338965736  0.5003000378514160
  0.2512293456785103  0.6641824265367375  0.5828064493191636
  0.1658181441718016  0.0020694284541939  0.6650269017576665
  0.4993862820964879  0.1684835397100835  0.6650578852828520
  0.4986205434678060  0.2511332576994312  0.5821543938604320
  0.1665861972960461  0.0852128698421970  0.7487205919943242
  0.2490063801885659  0.3328677289576795  0.4168682618497406
  0.3331105877918368  0.2509104616771085  0.7502451136347124
  0.4171782918909415  0.0860358374770848  0.8335667164483189
  0.3340923937862670  0.0848185279226174  0.9176979126227728
  0.7468393665447400  0.0839770782181068  0.1652306741914928
  0.7468180514707542  0.2520735547595626  0.1652423366424201
  0.1664513216249326  0.1678884504556155  0.5001311768671087
  0.9153837349287968  0.4141853731887021  0.3320077005945563
  0.9166319462976737  0.2489385825761817  0.9997552659415820
  0.9168922481097079  0.2511913951543863  0.1655547866436532
  0.9995081777915541  0.1674737459277355  0.6658620413429802
  0.7482653429689112  0.1683162678898034  0.4184673669219862
  0.9999823220059763  0.1676875369966754  0.3344104564065926
  0.7488934501212975  0.2513593252071863  0.5010853542167307
  0.8322390962212574  0.2504408050701802  0.5831244673088076
  0.9166604419388572  0.2504784469286131  0.5011536005783130
  0.9163934046952436  0.0851496494671547  0.1660827369479178
  0.4984148512405931  0.0012076456297042  0.0022921253308242
  0.1673229903765132  0.4991090505042627  0.3322790868635304
  0.4976871847023838  0.9147967378018392  0.0824486410810381
  0.9147494051865457  0.9175372630429613  0.8293786520352271
  0.7491196358862258  0.8321203376771384  0.7475512720561917
  0.7479004116919638  0.6636931556120490  0.5846870780868988
  0.8315978845942271  0.7466333323350475  0.9139056495868272
  0.6636001390511220  0.5820098210208553  0.4158860302482247
  0.9154784480917886  0.0869460493541243  0.8310847676977613
  0.7477822861540685  0.8317588351154310  0.0830650432706892
  0.6633405289252039  0.8329835978732100  0.5062430795906085
  0.6644553190885065  0.0009822482648340  0.5020106220345156
  0.0838560442546447  0.3324419477382834  0.4165299686453763
  0.8309984308742006  0.8327294332008416  0.3347726920003397
  0.5817334473507412  0.0011462562438025  0.5831701113490726
  0.9180183087121532  0.2521848840144261  0.3334643476524551
  0.8327709190693730  0.8318113883932731  0.5024114563383727
  0.6646902525329613  0.8328624059877286  0.6662475876396560
  0.7476204894842945  0.0856962199563938  0.6660279477735672
  0.5814216208080601  0.0008592780127089  0.7480455638659542
  0.9152963686082849  0.5828129570553299  0.8321624518885390
  0.8313409221295053  0.2501786154426255  0.9176138037392305
  0.6646664261755227  0.5819091940279746  0.5836591968071601
  0.6637356712967252  0.5828656140134518  0.9166035946533423
  0.7482546387827552  0.6647988596952341  0.7482022177999205
  0.9993598522469470  0.6655198346443240  0.6655664886161152
  0.7468427903237109  0.3323787526910896  0.7482213980451794