Cr Ni 
 1.0000000000000000
    21.0638317787174500    0.0000000000000000    0.0000000000000000
     0.0000000000000000   21.0638317787174500    0.0000000000000000
     0.0000000000000000    0.0000000000000000   21.0638317787174500
 Cr  Ni 
 173 691
Direct
  0.9174913195536936  0.4172584690799405  0.1670429938441426
  0.7502712343910544  0.3345832801557728  0.9164924856911374
  0.1690062960176606  0.8343017119768518  0.6668565028170723
  0.0843959301368954  0.1677275656778863  0.0854902958089281
  0.5836275825007444  0.5024256225626295  0.0848865689146485
  0.1678466966996698  0.2520499561758951  0.2508995661794383
  0.1677563342450170  0.3333878921645905  0.5019490150310804
  0.2523622723770917  0.7510034047170119  0.5022617628834700
  0.5839840729614861  0.2514573742425369  0.0009108134765473
  0.5019343085741379  0.5021264708866388  0.5025205270209737
  0.8349115995211740  0.0008757918232695  0.0016370376355557
  0.3343301204146472  0.7506194560544120  0.0839746984618771
  0.5843960817319470  0.0844248242084376  0.0013411303129842
  0.6677851767135111  0.4167795436917995  0.5847876377463719
  0.5014896778409769  0.3342264593711128  0.5020377709406205
  0.1685539400732033  0.0008063835297115  0.0010469841132240
  0.6687854902083661  0.1680594692737954  0.1675554097278171
  0.5022375246417269  0.0840815717700080  0.7509899287924402
  0.5012842352482241  0.1667610468959422  0.3348603546793131
  0.6671511235754607  0.0839612909717489  0.2509396736018913
  0.7515821955563308  0.0007837988631031  0.5846869165964983
  0.5840259339332202  0.7505371686269016  0.3347389227845653
  0.5843486423847682  0.5012030675226155  0.7494903117778149
  0.3337186972589989  0.5836862645461777  0.5850816430389187
  0.1672799501609563  0.9179364489258866  0.0841055850855066
  0.3343680163272267  0.7504564730619082  0.5840934585776202
  0.2510505038308261  0.8346570000734299  0.9176357929096430
  0.2522439879392164  0.4182390053133697  0.1672065766922525
  0.9180135406797399  0.9177997128564966  0.5020744769063941
  0.0854711148458513  0.0020211906772046  0.2523136858540955
  0.8353070733731158  0.0845519640540517  0.7508287103676290
  0.0853630085490658  0.0856931137168930  0.3339197022483731
  0.6685570348344504  0.6682032160791480  0.6686742721690209
  0.9179131204831862  0.5023777798902360  0.4164934236768574
  0.5841609821251856  0.9184759994334128  0.5023832822588821
  0.0848999768092132  0.8336199637508198  0.4184730407327354
  0.3354541834794857  0.9178661829424116  0.2523710258630072
  0.5016322315883412  0.7522105601202798  0.0849828689538799
  0.5018827976399101  0.5031188143257097  0.3347299135533006
  0.5023479863084427  0.1670706958769792  0.5022330238362510
  0.1668030984383234  0.0843300608271940  0.2523465382935138
  0.3340069184794254  0.2519889557674693  0.7508098913547998
  0.8350701962733528  0.5861184885258707  0.5838988485676141
  0.1677576211921233  0.5019667984497096  0.6686740798749398
  0.6678356815005954  0.8347452638687126  0.6685321321567352
  0.6675241762380982  0.0012246607069360  0.0004492995827690
  0.8348000094055110  0.2500208028602958  0.7517373811900356
  0.0853929567575671  0.4173874689423552  0.3349571318850519
  0.0012177054139747  0.8342827338118777  0.6672255168077135
  0.0847167690425214  0.0013273438243827  0.5845916499219691
  0.1673038796020641  0.0018045087798189  0.8344835987331122
  0.5859686188844861  0.6678364795425458  0.7492832251574032
  0.4173429628783277  0.8356861911407328  0.7499923923316090
  0.2513449701306102  0.4170124003796912  0.8343440127160446
  0.6679602822604556  0.8344351006400228  0.1683832186944573
  0.0003254747835339  0.8343376004168539  0.8358577834387290
  0.0845578088045905  0.7514728094875078  0.0035186805403215
  0.2525027386729738  0.9174907983248626  0.3339745836756474
  0.6688354506840112  0.6682453728204345  0.5008359435920425
  0.9182888214871724  0.8359405744479159  0.0852697271058202
  0.8350943038874168  0.4179019267384246  0.7530959993405291
  0.7504659107858849  0.3345679190937731  0.0854153199367698
  0.4191787247214008  0.5853069270171406  0.8343425720557313
  0.8350121982530050  0.9180469292368240  0.7511957526945056
  0.3355645294747451  0.0008920497890264  0.0016384728144432
  0.3339752745876939  0.3344144437085397  0.3343959245068440
  0.9176942726834032  0.1668504688329273  0.9178870766070159
  0.4181679224371960  0.8346343170582933  0.9183175327327794
  0.8344543130440810  0.5858157457629368  0.7519924262866772
  0.2516963780154404  0.7524235923357766  0.8344385645258485
  0.2512602207472175  0.1681573414148551  0.0854928138095951
  0.8354559145289012  0.0841465958586447  0.2508083755233978
  0.5008809499689686  0.4173192454782205  0.0845959168484087
  0.0848306698946882  0.5850057141984797  0.5021357650286354
  0.5019130129312054  0.5839666923804342  0.2528414646481465
  0.9177505949533111  0.0848537164367904  0.6687270732730418
  0.1670340827464277  0.6684524460184964  0.3344322176139506
  0.8360369928836566  0.7518479412158362  0.2526273527360940
  0.5848064070698199  0.8351141075892746  0.9185576300438424
  0.5025979288787805  0.3344112855492559  0.3333082682900920
  0.9190602646577877  0.3341521832862578  0.9186344602108590
  0.9184816496701318  0.3341234833353234  0.4174518617549451
  0.3341822601381488  0.7512569949630860  0.2523566975548407
  0.7513913085961178  0.8347956690689216  0.9173919966019066
  0.3342199185290765  0.3348205516774617  0.0003066018827956
  0.0852243807523470  0.3358517475588400  0.9183238000457350
  0.9176358911841892  0.3351799118533011  0.5850825973642716
  0.7507530284627638  0.1669493241339635  0.9176615772473286
  0.6680250714955037  0.7523483506414476  0.0840729666163121
  0.5012919782863579  0.7514102928454925  0.5841611196868913
  0.3345943397398714  0.5025672495207194  0.0013021730597303
  0.9175750549220281  0.5849954504672740  0.1675124529726098
  0.2520200173999254  0.0851044960905638  0.6686317352313798
  0.6679927356373145  0.8354799636948794  0.5010586823354559
  0.6677972877683370  0.4170850166958988  0.4189163075482474
  0.4179227011239305  0.6680982421258626  0.4183626655624912
  0.0011419642360540  0.4170829409550633  0.5841492107251833
  0.9176897021859753  0.7521258346531936  0.8346375773426306
  0.8358396051787436  0.4176758241312186  0.2500114032868789
  0.4185595928862044  0.1677294916739270  0.0856895839432606
  0.9174614216940066  0.5842887922658420  0.5010006314904160
  0.5849615160563632  0.8350259355183121  0.7496611627361046
  0.0848011879245938  0.0013789610606614  0.4174772932672546
  0.9180238773255329  0.7508436096414400  0.3340273746355072
  0.8347439258596057  0.2517108049213257  0.2513700357027738
  0.7500702021964947  0.1672637876985316  0.0858972594947285
  0.6676545869505457  0.0845658748057124  0.4182710921891345
  0.6692254926268033  0.3345333372780446  0.6685411612561357
  0.0013145332244863  0.6669293815555243  0.6674050545040793
  0.0006679607507036  0.3343327051893527  0.3341097361556860
  0.5013372844412496  0.3341202937227281  0.0014118929272687
  0.8345958468270855  0.6683583559084358  0.0010934225598886
  0.0850206299832498  0.4190566388379074  0.1667602363418029
  0.6678472694586932  0.5850998775727032  0.2518383830281520
  0.0845398602411782  0.1685928433670442  0.7509453415922340
  0.5833649152063909  0.5017972621518939  0.9174097100552977
  0.1675905863550234  0.8343566855156944  0.3348115352535769
  0.3349735401068066  0.2527829415878464  0.5838029285497375
  0.7502252832755570  0.5852231455271625  0.1678781287294983
  0.7520226235865441  0.2506941249631069  0.3340430928839405
  0.5022202984596220  0.2517952815123503  0.7516435157472408
  0.2519853514981778  0.2509399305760277  0.1680484184518003
  0.5841798681652132  0.1682481010717156  0.5844609427381532
  0.3345991809562952  0.9174880258810676  0.7515057322803227
  0.0023862181144932  0.4180008605797433  0.7524215885129721
  0.1673730914957311  0.3348891656460701  0.6688659783620311
  0.4182356751762423  0.0012292529179431  0.4183973452116895
  0.1670075366546943  0.3341917389655658  0.0004564140264104
  0.2520025090164716  0.5854520554085788  0.8350694219066441
  0.5015424678773640  0.3353505263727431  0.1665721726313381
  0.7503793088575884  0.5015619475129228  0.4177382925349231
  0.9175802300912597  0.9175250968757777  0.3344530125580115
  0.0851023160102117  0.0005730474567502  0.7524434499843007
  0.5017974760794243  0.5832141032373729  0.0838246871347793
  0.3339330486530280  0.3336638560098878  0.5025849097608248
  0.5011086788692752  0.8344445588048830  0.1676079675677247
  0.4183388563890874  0.1677721352242526  0.9170286423389074
  0.5847602431645222  0.4182234516052080  0.3344158035043246
  0.2523887876898711  0.6682056676812246  0.0851104118416512
  0.0008029814384596  0.1680917918595453  0.3347872312136154
  0.3352342967107892  0.0841899599188497  0.2516063119047823
  0.2524279682438711  0.1675668764268012  0.9170719850011188
  0.7506270309980538  0.1679835329690056  0.5845488352570321
  0.1669678314804083  0.5017785716637916  0.3342685994401568
  0.5007071963304587  0.5015628143132052  0.6686954635193535
  0.3340332319504419  0.5021886357194658  0.3337956523954338
  0.5015196566953481  0.5849384010028982  0.9164471469936709
  0.0838635468951189  0.5836713757979589  0.8354558237587651
  0.8339637311649658  0.7516243288576915  0.0848944059965781
  0.9172069350244441  0.0854429410578503  0.5022409592830814
  0.9175658154993799  0.5850563911712318  0.3356661867954323
  0.0844812982163266  0.5017045727196459  0.0851473793050691
  0.3342487317359898  0.5834738514310400  0.2529302301138432
  0.1674093871409167  0.2522354353585320  0.4185934893309030
  0.0849364698233904  0.5022418666663254  0.9175151427105459
  0.0841787986192803  0.0847789724517198  0.0011511212915922
  0.0848006682474949  0.1688048396891435  0.5846812808241242
  0.9186063241510120  0.9184270487797959  0.1670701735126873
  0.0846876881968462  0.5842833613014858  0.6677296376991874
  0.3337681842171883  0.0834105641177046  0.7504914736485058
  0.2523363458051845  0.0856315510817978  0.5023236580575574
  0.4183051987241376  0.4172908497857855  0.8341532166837139
  0.6687908664792567  0.3345010938563120  0.8345509866059069
  0.0831503879914453  0.7528173021847379  0.8355842679783215
  0.9171824231484611  0.2507932642958838  0.1673987510971010
  0.0852378176196835  0.6682722147232549  0.0852660765753818
  0.7509053995219058  0.9188088211113264  0.3345517682582602
  0.2518953146103388  0.9175782345433949  0.5011194473419135
  0.7512735038158279  0.5021649517951358  0.0854779167892087
  0.7515009494115490  0.5027748169227321  0.9175313290272453
  0.5839569861245786  0.9179247412205362  0.3348194133942737
  0.6673827755792332  0.0022185389513542  0.8341831408260633
  0.8360206331384262  0.4170279510266111  0.5839790693636758
  0.9176370509449292  0.7515700469465204  0.5017168820368545
  0.7530773000273338  0.5012242526090129  0.7507923797080499
  0.4176718153581568  0.9176230062473122  0.1679701698499435
  0.5015659971379046  0.8346208029619536  0.3351210641943689
  0.0007538391342294  0.2514045561744794  0.2506624755466199
  0.5007430504137270  0.6684588058535178  0.5014069648938891
  0.0009366638363815  0.2511901124491890  0.4179169304703603
  0.7509367128774453  0.9175964348080025  0.0009147472504725
  0.7505439777123363  0.4182053088955187  0.0008524696044705
  0.5848887619179894  0.7523633201758222  0.8337922571413622
  0.5012622925999165  0.0852180729807547  0.2517698723227502
  0.4180335142078830  0.6675210145568574  0.2515825268473674
  0.1683816494898647  0.6677811359007634  0.5013114870955292
  0.7509328145655720  0.1673216824245382  0.4170896772850642
  0.7509787622018714  0.4181584618847410  0.3349993495308788
  0.8346763160760106  0.6682725127887064  0.1683648801202751
  0.5848506843423480  0.8345226933548335  0.0849068988568258
  0.5016644900787921  0.9172230869468888  0.2516004874724954
  0.7508142420496132  0.0011575048673218  0.9179749924640868
  0.0015174524310822  0.6689472899555349  0.8349717017917516
  0.7518495649943673  0.2513725759490577  0.6681814092547098
  0.7513955613202772  0.1670219783067339  0.2509437131260995
  0.7514938975740045  0.0847548532525366  0.6677164517866282
  0.0851001813969430  0.9183211011022725  0.1681115271063739
  0.0019867155982213  0.0848975118354991  0.7512212191738471
  0.0018947504552969  0.0844857971339658  0.5847314015524838
  0.8348920781252902  0.3343352508963514  0.8355799661566697
  0.6677047204097099  0.0017343187118171  0.1688113710748983
  0.5848495381100234  0.4183809536731259  0.8342151605711511
  0.6680975350395670  0.2509952624954485  0.9180912514150813
  0.9176188132192651  0.2515653843112426  0.6688587024185819
  0.8340338280416562  0.4181388872721672  0.0842490546477622
  0.4186638013448446  0.3350910707564896  0.4179608745307681
  0.5852444110282548  0.8345079570616944  0.5843239791896868
  0.0012342981686536  0.2510276470011307  0.5845873142838700
  0.1675071134933288  0.5020300350704887  0.0010848481920119
  0.5845303900305807  0.0847883143317842  0.3347922534485070
  0.7509873661526070  0.2512869272515852  0.0010324794167525
  0.9173255325190124  0.3353249732902632  0.7516289965691432
  0.5014675440897354  0.4181746363652201  0.9172777351177119
  0.7514061720096525  0.6685752821003155  0.5847877159811417
  0.9178334573754040  0.1679469022103346  0.0853433126274538
  0.5010166759373100  0.0017897657504243  0.6683854599997522
  0.5845503250149636  0.9171728684861834  0.1677675009508381
  0.5847713656134915  0.4174054089374817  0.6677047113292270
  0.5008027069454760  0.3344086784918044  0.8341467809647565
  0.7511599374819297  0.4184820314621361  0.1672931284358468
  0.0004931334549129  0.3352198062414083  0.6684572896594786
  0.8345484927190296  0.9180770481137029  0.5844253790794698
  0.7513593080940550  0.4182401258433067  0.8348087041871293
  0.4180646149116252  0.7504615162049592  0.3345953232702014
  0.5018131995137726  0.7521849481853564  0.2515668876604568
  0.8354077273686523  0.7515177846023670  0.4170212828686852
  0.7521257383167645  0.3346628660682570  0.7516550991546569
  0.7511759593772551  0.2510264752980183  0.5016118735427065
  0.0847914196077405  0.0847330831221839  0.8346650612991565
  0.6682296118703525  0.1677937547806609  0.5016170500891802
  0.9178674509193018  0.1672666891925965  0.5848483825954610
  0.2508070526673139  0.3348945827624726  0.4179323188102899
  0.9174705176736743  0.2510964161482910  0.0003013214375390
  0.4186281304689469  0.5847106735838835  0.0016172953834304
  0.4174550989382078  0.0847155572687039  0.1683675676289440
  0.6677393138787517  0.8343825898612469  0.0007476660915493
  0.5850437144668273  0.0850389352877187  0.5011787816611998
  0.9176194104189773  0.4176698324136194  0.0000962263632699
  0.8340581752097160  0.1678155248214818  0.5016771554696161
  0.5838490993159718  0.1680497741985847  0.7511266062339674
  0.5842870299472400  0.4182066213281545  0.1677195402798791
  0.1680564144718632  0.5010595994162321  0.1673709128116815
  0.6682579936400714  0.3346112272860863  0.0005009345145998
  0.7510490034897457  0.5018735897784875  0.2510084871315010
  0.5845713835784957  0.4176409669762146  0.5015087433124151
  0.6679483426557912  0.4184332668734846  0.0839358669235855
  0.7516534500634640  0.5845563530298745  0.5021536225999710
  0.6685517210455703  0.5004576297461791  0.6678016992069665
  0.5013502190813475  0.6684368454477599  0.6681407508018048
  0.7507983106087506  0.9177415496004050  0.5018451148753346
  0.6675895679672031  0.5848468034229897  0.7508923328165427
  0.7515665993416607  0.6679457420780067  0.7505940108952799
  0.1684701497914161  0.7509894586439654  0.0845533272071224
  0.1676686903000441  0.5849186135171857  0.4176694650486838
  0.5019113768709882  0.9179313858190599  0.5842626538922233
  0.5847544239265888  0.0850863389708250  0.6678726411642528
  0.0018427450109248  0.3346231822713277  0.0009062225285328
  0.5845152612848407  0.4181158717449848  0.0012332345843839
  0.4182241681773572  0.6683040130509491  0.0849913225980317
  0.5017058944335349  0.5021444522680801  0.1678925657096937
  0.5844648230221091  0.5016123188278701  0.2512821526137938
  0.4184447513790578  0.5846336800099443  0.1685490613767106
  0.5841938787682938  0.3342511969263195  0.9173666583364213
  0.0021329409429649  0.2507116660023541  0.7517966769400456
  0.8342841449174750  0.0843676049033772  0.0837763876230412
  0.5841656467051404  0.3344135459596913  0.4178554345569251
  0.5842791565554374  0.2512288743635390  0.1677205208044668
  0.8349859613894728  0.0010997618332918  0.1684014117600515
  0.6683182511073257  0.0847401024732688  0.5839826505381279
  0.6677695473242533  0.7515608520386009  0.5848667118050644
  0.7512906789867110  0.8351641067290625  0.4171975289565887
  0.5015473512168146  0.5843088056775118  0.4186287915212267
  0.5010722883562645  0.8345622617866262  0.5015115698500705
  0.5015497841967141  0.0848040034813211  0.4183031267226145
  0.7510735204005352  0.0848128273123931  0.5018254766510390
  0.8350064556277591  0.6675297967110639  0.5009715547065393
  0.6686037628535700  0.1676915773566899  0.8349493712585037
  0.6679084510823903  0.5013158761211274  0.8346850438601647
  0.4182012733343130  0.5845966206417322  0.6671625686627506
  0.2510277562224931  0.5839696749140152  0.6677098003818766
  0.8349950918683589  0.8348061200930132  0.8346490858025820
  0.6678963108221290  0.0845441535219854  0.9186954253944078
  0.5017082054158298  0.9176152130186322  0.4181835659341200
  0.5845902464948467  0.9176505789746778  0.8343209665167897
  0.5843928263140370  0.0009765725232569  0.2519267315489107
  0.5841500917211406  0.3345126438345245  0.0846420355291436
  0.8341325845539175  0.9177635606963426  0.9181845103064701
  0.9179564085369988  0.4177132720226335  0.3347302242124407
  0.4179396429907967  0.4181377591984480  0.0009289722870693
  0.3344962300435628  0.4180817249382989  0.2524773538056266
  0.7505710064713148  0.9177074519273101  0.1677571509587731
  0.8341624168440618  0.0846478055822983  0.9185235826183201
  0.7507385928153681  0.6684360256518721  0.4181690629082228
  0.7521414737352808  0.4179360722315388  0.6682368938781812
  0.9179614433308370  0.6678532031212364  0.5847460233048907
  0.0005786962649670  0.5017937026287949  0.5010474368120755
  0.8347200437113274  0.2507993755277348  0.5843983480341532
  0.5012648891666820  0.8339480204154400  0.0013424011461313
  0.5849174387480632  0.6684074877931578  0.4185431442488250
  0.5011956156239077  0.0013479415013962  0.5010601937822875
  0.8355336570415470  0.5008847231586123  0.6677975293498820
  0.0851974950642425  0.3350863127216981  0.0849642540681447
  0.0011380037338334  0.5848772652692347  0.0848340311042107
  0.8345918297695530  0.0012455750128977  0.3348262827687539
  0.6670836782060696  0.6679520968349120  0.8339836936475228
  0.9180723736072506  0.5016518154320426  0.2507874678893863
  0.5011914992864873  0.2514990961854220  0.4181194109933242
  0.0844056222264273  0.3351909123316000  0.2510477707614765
  0.9177943277954568  0.4176670129194318  0.8353061505724749
  0.5842969092538621  0.1679249575326156  0.0845255491721254
  0.8349537271028230  0.6676783141574413  0.3343337899125153
  0.5847604927208327  0.5846048852217106  0.3351919998171282
  0.7502560906496479  0.5845242456128698  0.3343960470283834
  0.5849071164755522  0.1680570087047607  0.2515031706993336
  0.7524561274756419  0.5007719624527197  0.5850099450896321
  0.7521159100207254  0.4178550928672850  0.5015472851288799
  0.4175540263729893  0.8340718515376713  0.2512282542038472
  0.2515067605131170  0.5015785760724842  0.7522527366793869
  0.8348470272028059  0.3348314742215358  0.5008538451896450
  0.6682656014892925  0.2509975037998477  0.2510241706844381
  0.5844937242614008  0.2509905177265706  0.5013909962919590
  0.0014023852980871  0.5011322447629597  0.3342908540383165
  0.3345226611477636  0.4183637951689206  0.9175528503679560
  0.4176701926916696  0.3344074036970071  0.7508556811258618
  0.4173534771673812  0.7506383780913825  0.5019563009925967
  0.6680030527501831  0.5005906717384083  0.3345440559356070
  0.6680242209842938  0.6684587293833396  0.3345908815907855
  0.5013212154887666  0.4175890743827179  0.2519150251157165
  0.4182227009726637  0.8341152465224924  0.0853895062313562
  0.5018917036203956  0.0849353998985544  0.5841384470544683
  0.8348343061596477  0.5845161867610071  0.2508590521813207
  0.6680009219495998  0.9178153424399227  0.7513324843250918
  0.2510099937652022  0.0009692164426132  0.7511087918557169
  0.6676184717103038  0.6683502699915794  0.0013188792615040
  0.0011311411746975  0.9183955414200237  0.4179223411170940
  0.2513313366498612  0.4169522107960234  0.5014168639649998
  0.5853901381924487  0.7513755055311524  0.5018541214901288
  0.5011186140618661  0.2514454874699931  0.2513571241219318
  0.7512181639848309  0.5844917525952251  0.8343311153533767
  0.5013916030066392  0.3339221548969596  0.6689011855744944
  0.5016583146472019  0.9171478667377863  0.9179117242197081
  0.7510814108430218  0.0840931111087510  0.0012707731846038
  0.5850721925328825  0.7514382622721490  0.6676962403367900
  0.0852472130929738  0.7506291616859736  0.1672042204320441
  0.1674807108371696  0.1679242113617355  0.6680209986216723
  0.5016265719539276  0.9170889287423355  0.7512725571755304
  0.0020476186986479  0.5851224202781288  0.9183497377748785
  0.9171474676906152  0.7520320306728230  0.1675700293448710
  0.7519342699670850  0.5841325165487493  0.6677611874162120
  0.2508191783925776  0.7508866247783860  0.3345146823019777
  0.8347211686204428  0.5846310465329676  0.4182651918369042
  0.8350390968988097  0.9180405852072139  0.4179991354549487
  0.7509173397097433  0.0012023562615188  0.0841744690288574
  0.0018455872414056  0.9181412253294285  0.5845379529974676
  0.1682257839350427  0.9178331838237068  0.4186174944574528
  0.6677702044717589  0.9177353064253443  0.5846844965018622
  0.0016379298234634  0.7513476314493510  0.5846338713411126
  0.9185600652513239  0.7513758062571900  0.6681169785096089
  0.5849848059432404  0.0017511784131627  0.9180944815585154
  0.0010977049666088  0.0847557388882967  0.9182211517030708
  0.8341381660310000  0.5846966608783202  0.0847016239272652
  0.8344968230649218  0.8341039907409947  0.0019870489330141
  0.0017272735879582  0.9170305835196619  0.7509122261942403
  0.0012356620117226  0.9180437402274793  0.2522507377633337
  0.8348356031973333  0.8356494251231719  0.6686729545698523
  0.6682987782000119  0.2510897181238588  0.4174040159711475
  0.0003380489337202  0.6678386008182157  0.3345753926779422
  0.6679332629636371  0.5014786089529597  0.1681107721392685
  0.9178810207789188  0.6686594249019616  0.9176379462086796
  0.2521054997643642  0.9178765356927485  0.1685327321472946
  0.8346253194494165  0.7516359672467356  0.5843148803920836
  0.9179432643072403  0.6673396350087686  0.4176493216315892
  0.0012083485378670  0.7511697799706710  0.0850170065252583
  0.5019528861090492  0.5844772519572882  0.7509552304744004
  0.8341027252658196  0.5848366488670637  0.9183154344574934
  0.9177921109314807  0.5013271719358260  0.7509600315434786
  0.0010576623205211  0.5011814584366032  0.6681501233431121
  0.8347004728139015  0.8351600369906600  0.1685705157194619
  0.0011645798105125  0.8352979083383144  0.3350044375936511
  0.8342620427450055  0.5016703178361720  0.3340718999589810
  0.0008728846752750  0.0016996054574012  0.5013492388091932
  0.7520635092656978  0.7516038968861787  0.3340852959023414
  0.1673384879697911  0.5844424142921989  0.5848710174384505
  0.0846647330702719  0.5850388983900342  0.0020072424187456
  0.9177080792331082  0.6678486064315236  0.2512335336369205
  0.9174486814757524  0.5845891732781758  0.6677925548171012
  0.7510960828457928  0.7516589292043779  0.0011999113448395
  0.9178503615224944  0.3345724183134304  0.2506369059526381
  0.8349509850323356  0.3348622398189878  0.6685655862759158
  0.2515184914713420  0.2510817432806278  0.8347474679038102
  0.3346831983152731  0.0014405907556777  0.6679077109861495
  0.6682252437085844  0.2516544124621079  0.7513866046553402
  0.1680746488900147  0.1676585854052433  0.8344787847465742
  0.3350222976185324  0.1680407224561662  0.6684758848750538
  0.3350160556660490  0.0852439144817852  0.0840908625295610
  0.6687899190443154  0.3347372392607727  0.1672619149018854
  0.4176256260688190  0.3349639903256109  0.9178968632548830
  0.6677985071086782  0.7524861994089479  0.2519567681705793
  0.5844496644050361  0.5846081314624730  0.0010587072604418
  0.5846725487279105  0.6682434954540661  0.2513846662100169
  0.0018041658702589  0.5017901252524957  0.0014449335280811
  0.5848136851127578  0.5842673264909721  0.8340967234355026
  0.5851857629934828  0.5008464086875590  0.4185887430967057
  0.1680256188395451  0.0842848581610447  0.4184020408016809
  0.0842946446223587  0.2518098177689584  0.6678380270218325
  0.9175783581414623  0.0007919763536993  0.0849061610221779
  0.1677259638396971  0.2517405422411929  0.5847806082728867
  0.6678138826072821  0.7522979569378542  0.9172234236263909
  0.5847398722257866  0.2510879371720757  0.8341373961530553
  0.3343295661584634  0.1671712201214208  0.3338495036753071
  0.5850873085355619  0.9177120807433613  0.6680578985162590
  0.5846701530668796  0.5007855602470316  0.5850606381113450
  0.5848054856277385  0.3346833322519058  0.7510750723159464
  0.6679491812670791  0.2512694946506986  0.0840460675553905
  0.7517751164679823  0.2512025027317604  0.8348783252254595
  0.7513811866833193  0.0011761466480995  0.2516015804467179
  0.9178173899532863  0.4179384526488180  0.6684304227343514
  0.6682962909692770  0.5856360118342334  0.5846710965401618
  0.0008057825073241  0.3345775917125934  0.8353040242888851
  0.6680989405978569  0.4174859739452073  0.7513469856078580
  0.6677658188911858  0.5016386631372129  0.0010752962176660
  0.7515304416639778  0.6686185714552064  0.0848874937666935
  0.5006133042505082  0.1675404212981675  0.8338038898808406
  0.7511818601957858  0.6685083679246980  0.2510956684658785
  0.8347276373978556  0.4187992782150971  0.4172163518250552
  0.6678748196706602  0.4175934421957355  0.2513850550950987
  0.5013667512421189  0.6677036891358499  0.3346795647920958
  0.6691947871219397  0.5005912573427235  0.5014557984782337
  0.7518512925297085  0.6683941797624700  0.9183677919239708
  0.5851076995605317  0.5846117135909575  0.5020015674581156
  0.5009929107552497  0.0846394697909972  0.0840710738870834
  0.3345437879610986  0.4176147336641792  0.5840698665678548
  0.9172232674701436  0.2514175204605555  0.3341410702844958
  0.3349027727118566  0.8340471728778079  0.0008344827313623
  0.7524120338512679  0.1678511551123331  0.7513627471970264
  0.3339854743631058  0.9180568700835707  0.5838103241874742
  0.9179487738464671  0.8351608455474135  0.2514090848395938
  0.0010999373352546  0.7513091091411666  0.4180941719892423
  0.1673795586200087  0.3343949729045922  0.3343043738306687
  0.5842336178325973  0.1676146367702924  0.9180876180417582
  0.8351279497638303  0.9181981463173313  0.2518256557608314
  0.1678080782405320  0.9184172510235589  0.5842904987910185
  0.2509174701451188  0.3348497148492978  0.5848764862142641
  0.5849805890907053  0.0015294967002693  0.0842407423351481
  0.8350287056784512  0.1681636272805617  0.8353566054075792
  0.7510462712436431  0.0842311165106961  0.1680235078881917
  0.0847115757911662  0.0844026195588630  0.5015051364381240
  0.7518392166079632  0.3343491366234467  0.2513787334381698
  0.0851964253829147  0.0009075916182817  0.9182388451964055
  0.8348882674796657  0.1676026211030813  0.6676173894115083
  0.8343787366784342  0.5014639946399230  0.1681534144720559
  0.9178197755358702  0.2515698327196156  0.8355421779684818
  0.2520958984826904  0.7509555163455095  0.1681273965700169
  0.1685915989726499  0.2510593896848042  0.0846981746371812
  0.7506353734361400  0.5845780610525954  0.0014300298264940
  0.0012845027490857  0.7512370618852868  0.9184718181266976
  0.6674748944303260  0.9180877701217207  0.4183630020803932
  0.7508904268813810  0.8347580792943186  0.5846358784941242
  0.9173794966314257  0.9180148221021416  0.0016877216116134
  0.0008905308087608  0.7515154693396778  0.2519349509467969
  0.9186429107149805  0.6682171462499105  0.7514096130665295
  0.9175475743750763  0.0009392429136058  0.4183137223144356
  0.6672339066006144  0.8354107546083919  0.3349889541174532
  0.8343246894994971  0.1675068929029081  0.3338948411562605
  0.7515549940470975  0.0845623004736988  0.8347671825002648
  0.6678940353026503  0.0011174791178656  0.3349497155040058
  0.7508518322554353  0.9182766333782532  0.8345584427064806
  0.0012871030410166  0.0843451511693323  0.4181964759602604
  0.7510891717929860  0.9182822662852297  0.6681630033625815
  0.0852664793215278  0.0018550751636898  0.0844937725287137
  0.7515997949085060  0.2510776163159855  0.1681119749302809
  0.5018866329514110  0.6684707408450679  0.8337139686325925
  0.8344460172763131  0.6679926984893928  0.8347646893757975
  0.5009794156124896  0.0847501451679185  0.9182244258895839
  0.5021943206124682  0.7520488884344971  0.7508693737310126
  0.0853407816239112  0.0845743510988494  0.1684275547646505
  0.5848578943853096  0.9178728858336779  0.0010736803086028
  0.0014770477417842  0.2510227911710728  0.9185950287936820
  0.6675572540441541  0.9180612869110675  0.9173826499547010
  0.7508255816481232  0.7515340145066106  0.1678368483593789
  0.6687287130109359  0.0018192264758208  0.6675152337716959
  0.9179521266488763  0.0010502428260836  0.2520206607098311
  0.9177544084335313  0.9178648042824461  0.8344032908065380
  0.7510102648462474  0.3346112409211835  0.4173419714491278
  0.6676520561744277  0.5837628905356763  0.9175557790789085
  0.5849468604052247  0.3346281745610307  0.5848271806804116
  0.3347265174380526  0.8347403242401387  0.6678207774738528