Cr  N Ni 
 1.0000000000000000
    21.1223178012212571    0.0000000000000000    0.0000000000000000
     0.0000000000000000   21.1223178012212571    0.0000000000000000
     0.0000000000000000    0.0000000000000000   21.1223178012212571
 Cr  N   Ni 
 259  35 605
Direct
  0.0001185779364390  0.9249201973714821  0.9144151349014560
  0.4145560979771514  0.2513520893711850  0.8324811863399525
  0.6667412667354577  0.9178047906804708  0.5750888889247864
  0.4960729930114238  0.6571373685428454  0.8324684961959607
  0.4960187428126224  0.8326365975338861  0.9997723247879453
  0.5703574072298386  0.7464785117415242  0.0001104635303739
  0.4115958345787749  0.7471173491109148  0.1674999012326907
  0.5779048829118916  0.7474795952520338  0.1666840443312274
  0.5775396056699499  0.8318646621562249  0.2508775292789872
  0.4127161684643835  0.2523656624836549  0.9977485489292502
  0.3324945456004513  0.6592040565653405  0.4996135390425288
  0.4971209463197345  0.8333267458812691  0.5003357078724312
  0.7504125886570355  0.4981704564794223  0.0847286405292526
  0.5762216631155036  0.7479323660281098  0.6652617023517855
  0.2473834706637096  0.2513082687044472  0.8335305201419759
  0.5794990853924800  0.5812488765095779  0.4976586486366481
  0.3311260838332146  0.0852197192465018  0.7492363465205869
  0.6601825359911020  0.1702397745403890  0.9968048525333580
  0.3291467538557467  0.0006950420538073  0.5011620451191526
  0.7450073896127840  0.8330445853320962  0.9104541255609632
  0.6691672724254770  0.1759411085109447  0.1666614339315721
  0.7499956907859919  0.2540028890929974  0.1661829617148546
  0.5811037559512208  0.5827206626735384  0.6649877828855447
  0.5798718518609394  0.4986581997074431  0.0855846508145622
  0.2410010681432958  0.7487569100831811  0.4998525600745748
  0.5818343665421608  0.0879122669089195  0.3366559312181135
  0.4124452170223717  0.9191286241482609  0.6648257938106936
  0.2486091993801670  0.4987022658915234  0.7482957920360620
  0.6684154373692394  0.9969115048520086  0.1661010660730427
  0.1683514852566971  0.0018387451259157  0.3325219154503467
  0.6669361927413990  0.0863969025579696  0.2518145495392605
  0.3304534657086833  0.0043549828060324  0.8317606372993047
  0.6676756208328283  0.0110764668629518  0.6666739328273101
  0.4135285438944562  0.2505273194141296  0.4993437547632038
  0.5812660243404546  0.1693402861368466  0.5829962536714725
  0.7467832760585471  0.4909098539613300  0.5852277256528509
  0.7602312766141488  0.0884730686268896  0.1672550143332124
  0.8374141241276126  0.9194230719469993  0.2542645340449300
  0.5762103334727654  0.9188873190641865  0.6648510656493610
  0.2471339535572908  0.2513420169761943  0.1666435327970373
  0.1665021099533193  0.0032748854115536  0.1671191782056941
  0.8320780023450070  0.3334289652361321  0.6666308104479740
  0.7496705927834663  0.1699587478968751  0.5822195175811303
  0.1661592034182248  0.0851570998095950  0.0835314021318462
  0.8340614552174269  0.2523848107772262  0.4177688540350271
  0.6658463065426972  0.0839304442557720  0.7485597313827923
  0.8327161723818974  0.3266603913158538  0.5010754250296350
  0.4135876116777030  0.4228438449372602  0.6667021889113903
  0.2457456177679029  0.4996976587876880  0.9165481839392903
  0.5815783613592709  0.4145581404001556  0.4981499007096140
  0.4149776568934788  0.4159584207812930  0.4979771286246796
  0.5801490655455259  0.4152096544822376  0.6680805290257492
  0.6644415010208876  0.0013275429097533  0.9966515453965635
  0.2488735144663718  0.1688698621966235  0.4168935517853311
  0.4989931779338242  0.6645914246499994  0.4987978073301619
  0.5764181598307689  0.9096171921648164  0.1658673548177961
  0.2468535839595382  0.2502967272253743  0.9998331897669673
  0.3307302674176945  0.1693980083131080  0.6658082192325128
  0.5806131305091916  0.1667016133274386  0.7471850330344416
  0.4933140122635816  0.9151482765574346  0.0814225870226927
  0.5804691385995155  0.3339638139579794  0.0834062520241004
  0.0827988316063548  0.2519345697803759  0.8329079871165647
  0.3306089126153159  0.3341406327552470  0.3332294305632955
  0.4139401024940824  0.2521493016003235  0.1665153081443298
  0.5792376953230328  0.1687357387337087  0.9212661035258708
  0.4991246701836781  0.4973740516819161  0.3315585821123834
  0.6640552595388892  0.1768249297086035  0.3354336122707387
  0.7586045532890827  0.0880661927065182  0.3370696569822718
  0.7505353312312416  0.8374948012373583  0.4151822289941512
  0.1669561930546586  0.7478691565227722  0.0858798849282365
  0.2463100898425477  0.4988028330749062  0.0849376685893889
  0.0000162616791766  0.0870328741838934  0.0842510341343267
  0.6646350348203732  0.2517338481760240  0.4178118147288750
  0.5040214983384239  0.3344625059187200  0.6669360385043810
  0.4114287357405317  0.1706016924341491  0.2476548965395970
  0.2488783459336560  0.4166637268147194  0.6670350409370883
  0.4140073130488546  0.2448073934110461  0.6659111101992389
  0.3254720816568790  0.3343346858368587  0.6659085835224058
  0.0813806151988010  0.4175087324468568  0.9999228444905013
  0.3300296516106936  0.6634316438028660  0.0026566869952204
  0.4131445139933878  0.4179049647187498  0.1654242217967030
  0.5806709108599835  0.4163767894471909  0.8346913140210058
  0.3321961633585678  0.5819990728746206  0.2445662871281973
  0.2474183444043143  0.4165152707292274  0.4988148095808164
  0.3328775905980623  0.5815909856265614  0.4216529534532099
  0.9996525608136642  0.7466669142314696  0.0794262781802176
  0.3323471573821716  0.5817670366627207  0.5819770835148338
  0.3227627900310229  0.8347395928711744  0.8301792002783991
  0.1729282321709787  0.9188162298089304  0.0829019864845344
  0.4143836381889314  0.4984421643345349  0.7484172277532956
  0.3322962133715177  0.7489456249590778  0.5890762536924182
  0.0012669607415499  0.0019417265157658  0.4975367125570652
  0.3309382202310261  0.0008567730231922  0.3321755376559904
  0.3305629045269675  0.0861949977755554  0.0819031827546716
  0.1693389856222038  0.8344567159657099  0.8314979019610873
  0.0946580990937412  0.8342144097183366  0.9146171738243418
  0.4138193405241038  0.3333615449098553  0.7584517930473146
  0.4953771095232669  0.0842925163569277  0.7472129691871749
  0.7497066088866120  0.4979435026896540  0.7488227143639753
  0.8231353231921781  0.0023765994709871  0.6655182590860742
  0.1650518913502953  0.4142692265674200  0.2505418512809373
  0.1670472512225947  0.2511804427466741  0.5817459495965371
  0.4957992109481560  0.1742940348880000  0.3328147712377575
  0.4127028712125221  0.4983096695018002  0.0845194927224851
  0.5803302501579091  0.2622904386533090  0.1663141705843848
  0.0913240971985181  0.8335992425495010  0.7477311327273981
  0.4124585016816650  0.4190573346970426  0.0008784822039986
  0.1667206740353389  0.5792491045678750  0.0836014851422179
  0.4967056697546233  0.0865042806015296  0.4245840685532280
  0.5802293603348917  0.0853778934271074  0.1642524021151600
  0.1660925931288481  0.6628449801681422  0.6642401766819481
  0.4119003940063484  0.0014877606859980  0.9164408640535466
  0.4930553124681640  0.9962076798309704  0.3320418854580177
  0.1645541686155479  0.4985982357782107  0.3328494572194150
  0.7505009991769451  0.0799227736144970  0.9958693600532137
  0.7517334726765290  0.4976151422863632  0.9140280657951623
  0.4884836825179059  0.1703904401430896  0.1649438040687466
  0.0864438465459543  0.5800036928447271  0.3343803235150763
  0.3315218426156593  0.6631774070374108  0.8319207971835770
  0.0006530293667781  0.4980632798746061  0.8314831432061245
  0.3305116803485749  0.6708250617561928  0.3326617364735602
  0.6652768592442961  0.9984416182691761  0.3396247487672063
  0.4965592047745919  0.3347301305415414  0.8337913868742355
  0.4050798308626431  0.0858397351779568  0.3319279973338296
  0.4964866620139060  0.0016781269235015  0.5084728081043907
  0.5800443970882609  0.7486686692325889  0.8328791579868088
  0.7561231910646971  0.9177784538677458  0.6644872404683160
  0.4952426889323382  0.7476857570941926  0.9245975880874308
  0.1653562496309475  0.5807636026979031  0.5835970996559917
  0.4889752027657279  0.9988149869394574  0.1635571573488105
  0.6648577607110836  0.7447133897736110  0.0933449410863431
  0.8327991595069509  0.5053120237810420  0.3326852027733197
  0.9179908084674773  0.0057191091851466  0.0815688663712233
  0.0019126909407989  0.4997767553176918  0.5020828849476866
  0.0012909561559855  0.9180063675430350  0.5701173146253726
  0.9998864280704367  0.8261771081332467  0.6568664602372576
  0.8381535190987306  0.1696004919407813  0.9978001613745815
  0.0021495109989837  0.4969741013964795  0.9990027098531478
  0.8330508955628654  0.4154549879600962  0.4163082541446159
  0.8348222534655959  0.5036252337478320  0.4994764720320228
  0.0015605555366778  0.7489827105640209  0.5808480000293429
  0.9184692960764154  0.5784107137487289  0.3337485312253861
  0.7478717210293397  0.7426059297923998  0.1690821628942437
  0.7481678447142648  0.7466760571388279  0.3264168529212582
  0.8407844129796289  0.6620030049261234  0.9990022880533070
  0.5803260234810645  0.3382593859251229  0.9142148164830917
  0.0833906711745609  0.3326332229164614  0.7493366783234513
  0.0026032442722307  0.1779949775662777  0.6658633007392303
  0.1663344616973578  0.0874007215732626  0.7497460108491476
  0.9997728532929731  0.1710943951543826  0.8336385890318939
  0.9185979518463046  0.8342287864050650  0.9149667011591780
  0.9102214174473958  0.9131911133976077  0.6635028047827858
  0.3306009697727583  0.6654294116169287  0.1676896154398672
  0.3318881073827452  0.4939220865645798  0.3326953387331257
  0.4993726806193916  0.6657926717467307  0.3321827606223122
  0.1670122749142561  0.1696990178944499  0.9997480919578903
  0.5790294344585341  0.4971038543243134  0.9158975942414879
  0.9177003982576012  0.1697358545126082  0.2515531315078692
  0.4046098888542715  0.7451828077711777  0.8329165130305818
  0.0849962018164767  0.1683925605540895  0.4163243213970306
  0.4119833780040959  0.9152264456138167  0.1651267836644850
  0.0830110944142763  0.4986786308717666  0.9160494280074427
  0.0908205977670281  0.7495115012156691  0.1678731825361381
  0.8338796486201925  0.7440771081420074  0.9140666479983148
  0.9094341267893407  0.9182435923963946  0.1700576762956943
  0.0010942028883028  0.1685270269130087  0.9983819497336471
  0.9998047035129464  0.0104598345839527  0.1660200045360006
  0.0001296813004343  0.0024449553272958  0.3335845182656304
  0.0015038086456795  0.3326637183883333  0.1661491720597989
  0.9166467446833210  0.7478655924128924  0.3377416245171919
  0.0028828514358954  0.3332820781443231  0.4998567352496525
  0.8331401409123101  0.3330620020763033  0.1659297329814799
  0.1676555073403015  0.0032744628655956  0.8325813361635285
  0.7516058911266564  0.3352761431994201  0.9156511219494577
  0.0829310364585417  0.4149397295469570  0.6674799353578873
  0.8336842204879997  0.4159867428058580  0.2406000474086432
  0.8337584849174768  0.8314161972879612  0.6640212765098105
  0.7509277491329336  0.7460844659328474  0.9994882413486493
  0.1672509262740644  0.0014465282112060  0.4983657178709229
  0.1647667379042575  0.5804799000053760  0.2513708957918923
  0.4960266037468066  0.9085888053626235  0.4173014677434018
  0.1747029810398988  0.7465320940996344  0.9142135373908841
  0.3308799179533259  0.7483914455626590  0.4110299524422960
  0.3304583638643531  0.8373774743758929  0.5008705722281557
  0.1677575058646529  0.5808988846606578  0.9155302849449453
  0.4978862827714021  0.8366247243142129  0.8312607298539082
  0.9999817978096871  0.4144987270633692  0.2489244420751039
  0.9189075963357943  0.4140335659873292  0.6667510852910069
  0.5795622270495084  0.1701415080747380  0.0728323981505510
  0.9116449895524170  0.8337493972148741  0.7473090042977891
  0.6667103859699026  0.2529141957910502  0.7489085932627737
  0.9204162731643175  0.4154765599624999  0.9993561195533764
  0.1664171425159450  0.3340954110983245  0.3325815218946059
  0.9181533487844405  0.8318662052261468  0.4172282452702331
  0.0832784434927267  0.0082856090834098  0.0819137455618810
  0.7509136342797605  0.5797320046937312  0.8327212707769903
  0.6647753756305458  0.6558933363891011  0.8336902590996740
  0.0917243825004619  0.0858139156785048  0.6643991525988405
  0.9135530211616887  0.0921749604968372  0.6656630845361724
  0.1659605895759194  0.1680529219243572  0.6666196866924227
  0.2489259380846284  0.3337582118644218  0.7496440402565068
  0.7499509769241457  0.2590212749706145  0.9971687905380718
  0.6642154450147663  0.7488749905256689  0.5707086417326470
  0.6635535243121925  0.6565440186512435  0.6672855814400727
  0.9960279015129311  0.9219751511393794  0.0817295018260223
  0.0016529726688729  0.6570165268853000  0.1698289541339441
  0.7558730962893553  0.7487376066778396  0.6649673984848142
  0.7485814581041840  0.8319780534749139  0.0861572530780550
  0.7502304860006511  0.8330385201339167  0.2608378541335907
  0.9973480168688836  0.7451542867315974  0.9165871183246388
  0.6636707470643448  0.4978708041321279  0.3316380387631195
  0.8382015273687633  0.8333209515526664  0.0048558970619174
  0.7479361414988540  0.5800647338206993  0.4948188852625720
  0.5815813264593185  0.3347830434964512  0.2513342957065418
  0.4123277015670893  0.4993106940350334  0.9187302850946525
  0.0016414705632400  0.9203622135709937  0.7515110458468978
  0.7501281383040790  0.4200926363333089  0.9997800941470277
  0.8344627139165687  0.3278899189189635  0.3343181253488753
  0.7496898570075190  0.6630838348997178  0.0924510750678294
  0.0004935672926749  0.3331385614760477  0.3322184825607156
  0.6635315524456022  0.7493481551548582  0.7454362909190969
  0.8378062839697960  0.5782532582249921  0.5826498399446770
  0.6589168013590316  0.5822608201894288  0.5830384015809528
  0.7474571449977928  0.6586213914253167  0.4153262418598626
  0.2487215676629723  0.8329675573898481  0.2509415004856784
  0.9998206477876882  0.0037347679053412  0.6641725017125494
  0.7491145305840455  0.5803644669914767  0.6727496685860376
  0.9250872990302079  0.4141307122638017  0.3333029401355647
  0.8333672568934315  0.1698187375222358  0.8323996463646013
  0.0854924339396501  0.6559710824667545  0.9162727439284335
  0.7517186855329617  0.6602135557696652  0.9114727354119356
  0.7499962497601864  0.5669967870202471  0.9991782782799857
  0.7505020102617546  0.7480251112233389  0.5034246794929144
  0.0888829123634101  0.9194851506835761  0.1704917599358125
  0.0839301038587985  0.1689564634235358  0.2507439766014025
  0.5779399862431881  0.9998993939596090  0.9162616048812200
  0.9191722346801423  0.5792609630978974  0.0001418979614174
  0.8339968020605518  0.0034477426576991  0.4973544874856635
  0.9998417821733488  0.9183436846017666  0.2611310577084469
  0.8412024068583116  0.8321888464047578  0.1699930480511408
  0.8327283519561237  0.1707103750068198  0.1656190555866451
  0.6634766316665284  0.7469313350207596  0.9168246540090100
  0.6596767871125709  0.8374138525421724  0.0004708530099502
  0.9191461348957416  0.5816633461529509  0.1671607624262236
  0.0005819448484926  0.7394934084401983  0.7477269539172030
  0.5790437417161166  0.9204906304324822  0.8321826833871918
  0.6660826013349691  0.9191601892902339  0.7539327268603367
  0.6663150972840179  0.0002535115283596  0.5020080406960750
  0.0845613627489414  0.7487641249726040  0.3356170598203104
  0.3311959917858694  0.9164971993838642  0.0831667306167957
  0.9128373815364327  0.7472826875712970  0.1690700921893947
  0.8334014620688908  0.4156438700904922  0.5915912944835037
  0.0915215552464433  0.9178481415390656  0.6650933446589518
  0.7555081372452125  0.9208890344271743  0.1671060882731605
  0.6620144157146383  0.6575308405474271  0.0010554140632313
  0.7557717285181198  0.7444453412229762  0.8338921844232446
  0.8405998630076534  0.7464362990446424  0.4147240006580262
  0.0840405872406750  0.6648133538304795  0.7466651026107640
  0.0013897377853979  0.5807006054394714  0.5814676250749099
  0.6714597658672697  0.0886302181842532  0.3425720083344054
  0.5812543794851677  0.1680205357878172  0.8340172352040593
  0.6722888318243010  0.0872587169873580  0.1617649086775257
  0.0855688146776853  0.9183208240133850  0.0800564325012471
  0.8324450953371204  0.4149115877763920  0.5042426844145609
  0.5778599968136716  0.1753015044237774  0.1625488544345415
  0.6586631634173771  0.7474394348081694  0.0058723211018916
  0.4928452914082452  0.7452354795903755  0.8335048415997494
  0.0873482313907687  0.7439499311900637  0.9175973392907846
  0.0018347962794959  0.7462652310217921  0.1682275252020915
  0.6686113302556482  0.7471624164828629  0.8308196190917475
  0.4958504945879257  0.9965123501211529  0.4215036666288180
  0.8321807583575060  0.8353732517702734  0.9138142456234742
  0.6696220681521503  0.9959054497911978  0.2537108659459012
  0.4148193039662444  0.3340869502547349  0.6679392899293465
  0.0026541192852068  0.9150409950303353  0.6590286345369215
  0.7488138044236462  0.5796783169541281  0.5839147834736507
  0.0016035027784439  0.8282260897915747  0.7468265859453022
  0.3320806725390552  0.5824312699203567  0.3333772617283270
  0.7504818237860120  0.8319598234732254  0.1741258236860055
  0.7523015768226419  0.6551738477688409  0.0027911481697707
  0.7494946728631559  0.1692865362845365  0.9962091918271809
  0.7481476367527665  0.7484753474741577  0.4148963630563218
  0.6657351755414026  0.9213883018673041  0.6645292068090107
  0.8336691577628724  0.4164716280564329  0.3277119834925017
  0.5769965416472138  0.9963998612307547  0.1643633658559638
  0.0066336842490769  0.8365904986865685  0.9191056036585384
  0.4086108794435410  0.8367007604928389  0.8317122871672217
  0.0034393169936781  0.0922407860187928  0.6656595617165033
  0.7486674878084520  0.8391675507615832  0.9989522149146833
  0.9096765299950982  0.0032259702011023  0.6662293753909234
  0.3306184669934127  0.7486683830181331  0.5004055221001906
  0.6661832975939798  0.7468496690327224  0.6570727294931786
  0.4931947995960618  0.0859073415258064  0.3327915549689560
  0.9983677760403191  0.9206663311041651  0.1726506360752559
  0.9161481533042086  0.7469194697244776  0.6627278983532250
  0.1677943013951353  0.7475117086102506  0.7478218170723521
  0.8344443558479432  0.5798689017856765  0.7495053407385674
  0.0009285402807571  0.6651850539116015  0.6629777405120690
  0.6627931815308781  0.9188100657560296  0.9139653442196656
  0.5791745842813074  0.9999467009073884  0.0760640301108123
  0.0843056312062535  0.6637075181285707  0.2521474370061864
  0.6634420871188054  0.8316386768496629  0.3341811570635732
  0.4113791796075616  0.9999148375823523  0.2490450541199243
  0.7508411469354417  0.8328210182928337  0.7488416476031764
  0.6632280722204008  0.5769690698189631  0.9167697785290045
  0.0839944841902788  0.6646603581293495  0.4167432209797867
  0.8349821724413671  0.0036851067935706  0.9977990019370833
  0.6642620934667306  0.9099087672187944  0.2523876190631332
  0.6654582688219970  0.8339260754956963  0.6642877361369991
  0.6604476618936387  0.8321372134905310  0.1684419055636682
  0.0854364875647391  0.7474770220323743  0.6639955078229156
  0.8354376912514593  0.6636101780466536  0.1690002579667211
  0.6634610635190503  0.5787182489236574  0.7506358109160529
  0.6635575283354779  0.5787895873766619  0.0852145574633162
  0.0848283750623976  0.8335493721616749  0.2525671472323527
  0.6624119950387245  0.4971308135891144  0.0006812510618803
  0.6616818867040505  0.7472671604831089  0.2499940276728791
  0.7484429907186677  0.3324175770265946  0.4166844172702910
  0.9180837605509148  0.6625189896369512  0.2525473555816684
  0.7495515435451687  0.3333029486264694  0.2501542244379821
  0.9173836667218369  0.9179407090384840  0.3372844369253298
  0.7485136149645256  0.5791965362595252  0.1672825357161875
  0.8359562063934095  0.7458413813757094  0.2538161369577411
  0.5814143852870122  0.4160216027199746  0.3329870459432552
  0.0864884037314304  0.9202196692168938  0.9929271972037585
  0.0014975045535636  0.8308920407927988  0.4980414624589606
  0.7508572582854429  0.8336319543739110  0.5796290632979999
  0.6645249464538481  0.4159768322252014  0.2493761326554810
  0.6624672146710355  0.4977067787027271  0.4986836014986369
  0.1661636234057601  0.1697900343295376  0.8329797058019913
  0.8327572704696492  0.0030542553087014  0.8326185577237865
  0.6631629117447611  0.0838345510236868  0.9155142962887444
  0.0841955204832794  0.6627249837773892  0.0841584495273572
  0.9179366119012121  0.9211426107718038  0.9992083885405375
  0.9181937987522221  0.0871689033264305  0.9975462527938582
  0.0864622389509447  0.7464037183949415  0.0058351207813991
  0.8356574049310626  0.0878760612576276  0.2523813648939789
  0.4976060503623246  0.8341776529278501  0.6651786812421735
  0.7505466946646546  0.6678177836553095  0.5813323806674419
  0.8354001166110665  0.0028246008489079  0.3370535156426425
  0.8349817413542008  0.1713469246140197  0.3346183564256544
  0.0838668249774461  0.5811001645680246  0.8311700284971798
  0.8332245023136712  0.0874519362048561  0.5812508234831365
  0.0015723430216893  0.0858005757375874  0.5759008291062476
  0.9175218421621951  0.0865862196372428  0.4981037482050720
  0.9161041123811439  0.0032565705441374  0.7544771791002391
  0.9168403888311033  0.0875021966177585  0.8331189803382584
  0.0005193052575389  0.4150188074238688  0.9147218187056952
  0.5808062069845165  0.3343687191078449  0.7510366631933141
  0.6641510162195124  0.4163810369558024  0.7504966982871034
  0.9181820085268614  0.7457278862814710  0.8318395842136104
  0.6657452336881610  0.3362102976082023  0.8334142636682920
  0.9156082576283679  0.0020866856828230  0.5756659521484648
  0.9178214855054931  0.7471982730163378  0.4984583675400290
  0.7500500943925118  0.4165322290451240  0.8323067251098200
  0.1664765044479716  0.8330975205216639  0.4983854262267022
  0.8327673883815903  0.0881184282142255  0.7504755341801808
  0.8343041972660862  0.0861518142140754  0.9141943166681589
  0.9177248215065088  0.0042533726515379  0.9144281357303242
  0.0017263902177439  0.0873358781845655  0.7547372961930585
  0.9177977813851019  0.2513140756806374  0.9993887684416989
  0.8347071913943679  0.0872797791568048  0.4188627709910258
  0.6650797099986406  0.8340541934981534  0.4983335935256760
  0.1656155931856084  0.7488670000229269  0.2516251105942722
  0.0859651907459687  0.8294220556599197  0.0838461352747177
  0.2486632336253470  0.7474812653027373  0.0015665839899297
  0.9155888578539918  0.0883081386008222  0.1678545755008268
  0.9225567524169280  0.4154066045141419  0.5003066838127762
  0.0856036556093558  0.0025047127304142  0.7497760082172605
  0.7493109214179158  0.6624002909298229  0.2504091356965557
  0.6631433971534932  0.6639816110834572  0.3312374156226672
  0.8347516613297429  0.6626346401149004  0.4985316981497591
  0.6625819266740451  0.6626529122809689  0.4982288613264063
  0.9181359794217832  0.8318669449789914  0.2556223900005940
  0.0859852828869105  0.7458980497116270  0.8279648017135509
  0.1695496584661205  0.9192886513177236  0.9144873864142646
  0.6652506372513505  0.9166574868750534  0.4179071324009164
  0.7481114600927147  0.9192979559884707  0.8321255084833286
  0.6628670646246250  0.4979745888736579  0.6673498561554183
  0.8343653093263459  0.4152771956987645  0.7488379892781036
  0.6656640615979778  0.4976322739529492  0.8329731295969294
  0.9998289314124146  0.0043942795384903  0.9993970880781431
  0.0858082513889142  0.8327480039635832  0.5798105357607422
  0.8380720944296959  0.4971072241533179  0.0001761123794719
  0.6634950122151009  0.3333231135742632  0.5004313955103031
  0.6626163849252265  0.4153694045172863  0.5839030517105150
  0.7478625812062912  0.3336371889407880  0.5849691965620994
  0.6632724245906696  0.4161474202338542  0.4155493566958967
  0.6634365853777316  0.3341805275646359  0.6674819986205111
  0.2491081188577092  0.1683933298460037  0.7500177131239523
  0.9999849549416148  0.2515380650093961  0.9161919792374751
  0.0859443056609106  0.2520421284158018  0.6659611651081148
  0.0836066736118066  0.1709641221474241  0.7508607500587123
  0.9995204110631810  0.2517366045485814  0.7503979708126759
  0.0845055467931440  0.2512943733423739  0.4984196359846109
  0.0852365926507395  0.1697145255358422  0.5809122176997570
  0.0839979500226522  0.2508548335363879  0.3331751238495475
  0.0021747845537229  0.1692202632177603  0.4976608367218169
  0.9190507161987161  0.2518864527892549  0.3337692392240001
  0.0019227665734772  0.1686854606530911  0.3336333627707457
  0.8344078427897365  0.8325792798487993  0.8266443662042569
  0.0826459417592756  0.3327219908931814  0.0829872361060135
  0.0854743154191709  0.0039026148385475  0.9148592836079600
  0.0005857239370008  0.0874701152652090  0.9150528112112639
  0.0018366962884241  0.0021940303385959  0.8325213746588455
  0.6633824777726320  0.5797737633067040  0.2506168316083347
  0.0868462443491234  0.9193304263272949  0.8320128146369300
  0.9174410963098675  0.3312305574799631  0.2477369148539348
  0.6646374650758059  0.1679389823335165  0.6667553439873164
  0.7445612909720362  0.4158409447689102  0.3330685533610440
  0.6653029758409227  0.1712550357767288  0.5021140465328939
  0.6642989923418133  0.2511170273832987  0.5845637812129656
  0.5785668386291368  0.6627375505047624  0.0856618477837262
  0.0000660950693423  0.6626494724043870  0.0005560568029242
  0.9165783248739722  0.0047337832421549  0.2530892787886353
  0.7508891207226190  0.9181090721713583  0.4979350983943875
  0.0010161644628159  0.7475480578408548  0.4162725832193940
  0.0845070657912305  0.7481521994729855  0.4995732085480962
  0.0017803233926386  0.6643093425941734  0.3347676974840029
  0.0841754074431679  0.8328827577319896  0.4163040540875677
  0.9996481663419771  0.8334831729271833  0.0063323222261912
  0.7479465628816651  0.4150580732554931  0.6689257437628988
  0.4971494077727320  0.7480646263936565  0.7444659374655889
  0.0848438335239358  0.0034875236177662  0.2519854087446596
  0.6620820812359119  0.5806131067053272  0.4147770507647691
  0.0017907766061588  0.9185037085049166  0.4164141861762922
  0.7485920849019578  0.4989606712573513  0.2494867803182731
  0.7505552827705648  0.3355718820820075  0.0815703216325315
  0.0015743215746419  0.8319426344975303  0.3360814398912094
  0.7493906906100773  0.3335957549014743  0.7495949555483113
  0.7489941181757535  0.1692490119320340  0.7493896005715488
  0.1675762102212254  0.0858375801273062  0.2511643278654585
  0.6687721369998784  0.1697932872843757  0.8320393908528244
  0.8333193091625261  0.3349794927268833  0.8325915789381417
  0.7506732564295174  0.1698640326845428  0.9091199499169635
  0.2491770137503151  0.0023642317112407  0.0828403611589081
  0.5805294226162679  0.2556154642570275  0.9978841882251623
  0.2490329037697255  0.0853449941822614  0.1653762026870685
  0.6641323739469588  0.4166919673069419  0.0827936567085322
  0.8347337909192359  0.4165087307280382  0.0836693941855109
  0.6662005184293568  0.3355244936265082  0.1652416111461878
  0.1684439842503851  0.0040368301797529  0.9997602437469336
  0.0855713075681205  0.0847141867218421  0.4972891147942595
  0.0833674803083645  0.4149912803379189  0.1665930727924764
  0.0015120330550433  0.4988425275951593  0.3333371230962764
  0.7480079735655968  0.2523936474046361  0.5011312196740647
  0.9186795857428556  0.4979821395149101  0.5842067688310183
  0.0832490022108614  0.4975806048899614  0.4172173922679392
  0.0014663294630837  0.3333354673721564  0.8325907435765006
  0.4960367142036670  0.2517788640196608  0.4173623574610237
  0.5804909898916345  0.3335247847201354  0.4166331013584726
  0.3311025168769140  0.4169955676967300  0.5815170220917653
  0.4976511977019822  0.3337023588911681  0.4999059511120104
  0.1665424774080532  0.2514549533055905  0.7497438344207106
  0.7491865229527591  0.0861703673601375  0.8319168761448237
  0.4206489942156559  0.5819869358547597  0.3321994939321652
  0.1652225954365968  0.6640821891743849  0.5004164792395283
  0.2469343378376632  0.6643784831026694  0.4167907289762526
  0.4191610306154158  0.7489097429770226  0.4984106126880178
  0.1657406719286465  0.7495228634945879  0.4158169444496713
  0.3301907506803733  0.8319022947896558  0.3324945530577273
  0.3310191355072615  0.7487261334030094  0.2501811236008759
  0.1663293605797892  0.7480524495470956  0.5830937691478921
  0.4162128644274988  0.6637319361676025  0.5825252262025756
  0.4979432539968746  0.7494891124419003  0.4155639585800950
  0.3317481665231314  0.6626379475229185  0.6640366340087784
  0.4146137404398014  0.7481816466309683  0.6643292844928272
  0.4131038534212714  0.6636577136955994  0.7478514545749223
  0.4145698920831209  0.8338874059252740  0.5835963921412413
  0.2479923743911796  0.7483867455573250  0.1678069229298640
  0.2501525009159802  0.7470243930135949  0.8302062715535112
  0.3301328674681469  0.5803273829274846  0.9172679925350653
  0.2486274641157309  0.4987350767711783  0.5822004666936409
  0.8352605029836822  0.9206572354077640  0.0830030306470801
  0.8352951944224144  0.8335298835657701  0.3344115329813906
  0.8339590778014331  0.9172618566357040  0.4169457822173510
  0.0834533009392174  0.3339928703018540  0.4158055636526088
  0.9182618099622386  0.0023716775117682  0.4173245735942914
  0.8341803957692672  0.8324643344179955  0.4971854142067789
  0.8324390083082541  0.9173869806260324  0.5786132791334120
  0.0007862923884420  0.4994664153978555  0.1669871361296651
  0.9184293203630908  0.6625915695948226  0.9155785426088661
  0.7500143197371810  0.0885398436915089  0.6654888506116815
  0.4134126819523575  0.1682145887975216  0.5820664622664649
  0.5815947720382353  0.0021937774225860  0.5823065497125136
  0.5813787102825789  0.0866708872104850  0.5032646827951800
  0.4970078438374985  0.0021603220319179  0.6644321163448651