Cr Ni
 1.0000000000000000
    38.5641754923361333    0.0000000000000000    0.0000000000000000
     0.0000000000000000   38.5641754923361333    0.0000000000000000
     0.0000000000000000    0.0000000000000000   38.5641754923361333
 Cr  Ni 
 216 469
Direct
  0.8210650932414978  0.3761209003259356  0.5189644961269150
  0.4157031133985493  0.8566452556635421  0.6164912563696240
  0.4458396976193332  0.6268669511622990  0.4923679336319252
  0.8146196803774295  0.4209546874760802  0.5614811566598042
  0.2742989333770237  0.8733096331652512  0.5165989208115347
  0.8753695757313459  0.7178105353559842  0.4975335767621207
  0.7976428365930291  0.8085784013950523  0.4858667073541084
  0.1942300252774323  0.1085221791363491  0.4705218262931313
  0.1909203069512574  0.4030419454591370  0.5253436742853099
  0.4908572695894002  0.0623176748818659  0.5667636924891409
  0.2441218624483540  0.1343776726902895  0.5303354511520902
  0.1399052361407027  0.9169231120570701  0.5817556099570426
  0.7461521436478010  0.7469431687568765  0.5732189730250542
  0.7011917606268948  0.2806719824111871  0.4454386852689018
  0.6667134611232436  0.6427601865348956  0.5598244920425953
  0.8508512787277008  0.8961480088378627  0.5316499856640083
  0.6026396999715282  0.0543849834822156  0.5601754916384425
  0.4957444946222394  0.6684456655415589  0.5078813554876669
  0.9708925138689889  0.4969173944153190  0.4751901525714979
  0.2925125086506206  0.5727377675471507  0.5062593533573730
  0.3024156979512420  0.1608844241443859  0.4916458641664780
  0.9120651190065266  0.9925641114533954  0.5379989933362562
  0.7231064153343117  0.9349006602085752  0.6497494015953461
  0.4357140206901248  0.9205782189291258  0.4968686900107743
  0.3310635785953681  0.7380661686449729  0.4999081835257492
  0.8021309253377307  0.2004632013669312  0.4961526502845907
  0.3906377827252792  0.3017194302189934  0.5029545653223965
  0.8648926718179597  0.4269779658292428  0.5217215731803382
  0.4895991924457003  0.9373618980135486  0.5648952386133942
  0.7615927055516960  0.8812916369539565  0.5665409349183052
  0.7654974874191051  0.7072486254651075  0.5210312985269129
  0.1348367360253156  0.9753300222131072  0.5551566366320251
  0.6911183059786221  0.5851569402797858  0.5840457498796154
  0.1965527515710769  0.4608780379056555  0.4996975675397943
  0.1571015782170399  0.7680199066156121  0.5192295038443105
  0.2008065665151230  0.0860508977938528  0.5340772739734267
  0.2363394011232923  0.5585123228595368  0.4442894701353473
  0.8216976757503860  0.2080690509061598  0.5572136895302183
  0.2929954142840932  0.7146443268637906  0.5406773723488097
  0.3295650932286494  0.9101435700549052  0.5217549533999256
  0.2378247848593466  0.7210513525315185  0.5179995305411497
  0.2371089273081545  0.9657359334491273  0.5340938664934979
  0.4422897429952568  0.8325961060470766  0.5768192886713506
  0.9056254541002381  0.9261710914235720  0.6343895666725821
  0.2131318160206261  0.8144141838256196  0.6093449641216470
  0.4966797478438911  0.5013058988105923  0.4344558786871147
  0.6583286692680348  0.3952720658087617  0.5181774504457913
  0.5813346151291190  0.2297198603970594  0.5215742909609323
  0.7145271201427361  0.0772302216446352  0.5410367144830650
  0.9813151038613735  0.7400291216331826  0.4718801592692946
  0.0686709025551004  0.2595025858099077  0.5203064807695921
  0.7023296889300890  0.3918398962012446  0.4721874157539303
  0.7576414239391407  1.0033928334543090  0.5231046997275348
  0.4361671562059479  0.2303437526481015  0.4297522977927409
  0.0653987114837192  0.3234694228621995  0.5022869753738104
  0.3384422579158872  0.2671120459820656  0.4940683785075082
  0.3417479868768325  0.5115551648394197  0.4299409581974180
  0.0705672655822219  0.9910927899778905  0.4704481676611642
  0.8147998600134365  0.9261038584576743  0.5726985670702736
  0.6877904224798653  0.7415364905090899  0.6011484964119143
  0.3711211140350378  0.4987734414310236  0.5490725702066656
  0.1829417042052328  0.5814337961177268  0.4701435062712230
  0.3575506042299404  0.7125576820507227  0.5591215224441124
  0.9536450217694520  0.3106046083691281  0.5224920032504764
  0.2793365219413489  0.2927714172243266  0.4676490441258713
  0.1884260679304986  0.1518813177582668  0.5138575494529259
  0.5446932676338386  0.4920314450975648  0.5527873678972719
  0.1335535124645053  0.4212476930326715  0.4974148930301097
  0.7514042852699477  0.9923144589676881  0.5898972097090894
  0.0343665456045169  0.0906184862641992  0.5374762499599737
  0.6425569000220469  0.9937645251169712  0.6080323390306361
  0.5576137036408917  0.0657901926747813  0.4430329510859994
  0.0188200307479434  0.8915732592006647  0.5499731841793183
  0.5283249296956934  0.7016359004211126  0.5607524798747863
  0.6172114123205086  0.1400689545750823  0.4920692229196948
  0.9843894002005278  0.1905335659652725  0.5537688805634233
  0.6891348082792413  0.8031928723349467  0.5002995066534638
  0.8057660037809978  0.8887883306082208  0.6222361102938655
  0.1220544988821818  0.9591837405680783  0.4979835466592620
  0.0166675082111574  0.1368116600295961  0.5719226898330829
  0.4387636223851342  0.4068861087957600  0.4299146846845646
  0.1369893001580746  0.6527282846655417  0.4910481606679211
  0.2496398878358703  0.6641722512832954  0.5302568587691378
  0.8249402353974845  0.8537372558788611  0.5783255752730174
  0.7148566623089864  0.6746877108220701  0.5092870321433017
  0.5976311960790729  0.4909112051147794  0.5170128722411633
  0.9262475738049026  0.6440421543083136  0.4806172828752638
  0.8122418769684988  0.4399039947181543  0.4981049316926706
  0.7623980713006568  0.5280182716909638  0.5620560806861364
  0.8673978754939057  0.8981651312624459  0.5898092856658469
  0.2722818809813283  0.9146228560998232  0.5593655268051272
  0.1446455719221834  0.1425188620532080  0.4509111902911793
  0.8096665467961089  0.5089894606696168  0.4783755273704726
  0.4801785354737029  0.5094871660987683  0.5206802792271663
  0.3871876115531817  0.9375029504849896  0.5350863448747887
  0.6930762143898589  0.2721529457488313  0.5528129725473143
  0.4092734531660072  0.1287467942131670  0.4806926578456268
  0.7024881757478079  0.4387442147395487  0.5082909723077972
  0.8058085854223275  0.9818694196143849  0.5523068382033451
  0.3346159149155381  0.9156848969462548  0.5783103526120978
  0.4444104891191347  0.3392000030189122  0.5115960660899322
  0.5431621839621668  0.6357901024699121  0.5232696478471905
  0.2965137227874256  0.0585630571894522  0.4608160809360057
  0.7191733273066643  0.4844085794349778  0.5570566370773422
  0.1331093763071179  0.2903541476739715  0.5867699350290971
  0.2810944768856279  0.9403981569352954  0.4996701900073037
  0.7325981690819423  0.3211132196011400  0.5554338904204709
  0.6027535690145064  0.2728169492981765  0.4700453897738312
  0.8100502801995534  0.5502464279859408  0.5183563436589143
  0.3982684396259624  0.6064124700334953  0.5376521280560278
  0.8846430002221416  0.4705458677622297  0.5614825755133329
  0.9391989648375901  0.6359152006432891  0.5448502553510962
  0.4314439820123413  0.3890140274766024  0.5523464289899385
  0.0269485390579137  0.4134002663421559  0.5230480892418535
  0.3001158275047319  0.4094727931899312  0.5012151069256112
  0.2254120431979306  0.1835879157508191  0.5684887669568077
  0.6620307309491087  0.2883723417718033  0.4847783992073250
  0.1447211829918465  0.1045440020948389  0.5134401472098075
  0.7119924598554145  0.9066586521706276  0.5907612995971601
  0.7667699527769580  0.9344905755277589  0.6093537720965010
  0.6055716012505596  0.8070074889552873  0.5747508186677828
  0.9462410187768909  0.1889325176396089  0.5956259617346619
  0.7665161268600126  0.1748525880733965  0.5441632220563151
  0.4187279970676047  0.4869479491607914  0.5128868406044027
  0.4364239988350667  0.7890356247605939  0.5344107015412948
  0.8113157096846333  0.5771461225535729  0.4584627545782600
  0.0838354700835404  0.5176717891414526  0.5077011377611068
  0.9272094793533898  0.1161445020826098  0.4970684914347766
  0.6647068719895505  0.8020623139024976  0.5959495485822619
  0.9332127030555231  0.7742194527079210  0.4497122998824116
  0.1731049696056561  0.2764518077591122  0.4923737196526036
  0.5351221042156098  0.8156670091161264  0.5017314924926226
  0.0720754855762297  0.7254192055201292  0.5696913973856147
  0.2279491467952543  0.2524235235416518  0.4649733735534979
  0.3120239375631890  0.5129886142389181  0.5182528329516320
  0.3023666840993726  0.9708678148064490  0.5569404368620187
  0.1079437672069196  0.7705995013472584  0.5695771429337640
  0.0586649281536691  0.3594923242232147  0.5468889715741508
  0.8131768945802789  0.6255691317914116  0.5032177496725215
  0.4563424028602888  0.0974387377404854  0.5056573965598823
  0.5605101283559594  0.7546355463924186  0.5697598526280608
  0.5856851323313815  1.0006461121852768  0.5828975168978220
  0.1821644490686423  0.0502983909454670  0.4915647755756595
  0.7724073832479821  0.6454787152408045  0.5377483404983445
  0.4876812693109639  0.3774502878942726  0.4567136236464121
  0.0887653427473323  0.4080298151020770  0.5468434393320500
  0.0760008057758675  0.5146512556647778  0.4514490662774791
  0.6060633698112455  0.0769820218892054  0.5024138555844564
  0.1393619111571975  0.7190544227051257  0.4751231961958572
  0.1330777807771481  0.5894110421219316  0.5087871124949380
  0.9857124300549465  0.8642395948734559  0.6047854368823440
  0.7151103166479218  0.2091421590538238  0.5660571067503487
  0.6456124714432628  0.8258965805677155  0.5373045467606978
  0.9607615956038853  0.3290733789700069  0.4652360031900772
  0.8766844923911603  0.7853058568419398  0.4905306037010235
  0.0211431634967944  0.0284849668731873  0.5596043321236704
  0.2378229457182519  0.5993377673083932  0.4909708956117015
  0.0368868788202801  0.7618275110130200  0.4734671079665000
  0.6464498882204175  0.5264379694468944  0.5242872260630834
  0.3315523138055691  0.7688137801421800  0.5507721314451636
  0.3695736285578296  0.9693318675404858  0.5780755934825660
  0.5799455168314831  0.5967576025068915  0.5442481541721207
  0.5858073919186602  0.7890991351820241  0.5236532974531148
  0.8788359253169674  0.1181235446891693  0.5307598707209535
  0.9612639139021673  0.9203072259871060  0.5168776928097809
  0.9199845935980205  0.5286918741997572  0.5062978189492321
  0.2366791806855081  0.8420876526726343  0.5590970511203296
  0.0455944022965825  0.8597212020951585  0.6205168014858845
  0.0931467851386444  0.1574051697552232  0.4817848615688272
  0.1803876623165939  0.4070267388069692  0.4643716748457480
  0.4076074224647741  0.1889987158484411  0.5316377069368401
  0.3776053918703879  0.7172742742588966  0.4804288533616396
  0.8590926870967502  0.3765981496263215  0.4758522407699228
  0.5538802827007888  0.6445376759609094  0.5825631886016966
  0.5443977602237328  0.9059064718307214  0.5380090701650765
  0.4518674894131504  0.7580379581271826  0.5901397447112887
  0.5851240888377667  0.0161613356181614  0.5192175348076452
  0.3868605851236221  0.3753445521511692  0.4243874472118552
  0.8406322532617788  0.8106846304634113  0.5332930143971388
  0.3958663164022794  0.4435832716531952  0.5602709426210857
  1.0068885328020749  0.1834563481904586  0.6160442027748819
  0.9036663759231444  0.2331838577953935  0.4674649991411141
  0.5987354901183121  0.3830541471960042  0.4936515709559097
  0.6491850299437355  0.5858950480822021  0.5137059011536209
  0.6164966220585876  0.1690249426220524  0.5402255055335594
  0.4402232765373271  0.9018390417904630  0.5600325275317928
  0.5190511696172918  0.2090373927898184  0.5085511007791607
  0.7519401171389991  0.9441403327677986  0.5465578749618082
  0.3959397288578941  1.0029251556828449  0.5169490234954621
  0.4469428250810242  0.5170038614620168  0.4628011997895983
  0.2464491064060135  0.0156220059500727  0.5767796719312811
  0.6979986493097616  0.1031765915101438  0.5852115210950031
  0.2589760711886487  0.9605614829263737  0.5983625361672748
  0.6504647276683964  0.4165581487547184  0.4512762744133000
  0.5630261242981913  0.6896542572664284  0.5136050806616941
  0.3564674393574345  0.8606767924820412  0.5981071258168659
  0.4908363498662844  0.3217109947891296  0.4746187326028666
  0.6091424299716887  0.6515154339341181  0.5386778092089620
  0.8747596116309029  0.6538508303075384  0.5138391114948699
  0.9573255014681251  0.7925894175464664  0.5713397566996888
  0.3849479121677823  0.8782099569386549  0.5467075697452102
  0.7186004869845501  0.0969839814342935  0.4757827664588639
  0.5800128334824997  0.1926402244647066  0.4791776781465167
  0.0731548410932295  0.9232822394948759  0.5582288290054420
  0.7689827319514959  0.0463665837787664  0.5671742038386614
  0.4016451101426758  0.2469937245951886  0.5163782707075070
  0.0362506313211618  0.7166446450423787  0.4368549038981842
  0.0594394265994178  0.8642481531278905  0.5189690837087639
  0.1842425872489114  0.8618104709581875  0.5941498877011134
  0.3307588341580256  0.3247806459129686  0.4765666640938531
  0.5124009760850898  0.1597652018108116  0.4773028095749884
  0.2777818721122174  0.3522291718578108  0.5086045120897464
  0.8480427035356384  0.0263270610779907  0.6454502854970721
  0.9068175254325606  0.3405242480234027  0.4994656468717831
  0.6332874379960248  0.5894887386780313  0.5689456204903752
  0.3034499804787156  0.1185851467392882  0.4438036053741085
  0.7551863584559916  0.4292137991083365  0.4766341950927858
  0.5941145411730310  0.3926901992508941  0.4335526033096694
  0.6603835995962897  0.0509443831782056  0.5863833746305481
  0.0790846266434261  0.4498958232221447  0.4704858969640401
  0.3826972423902939  0.8186174493388404  0.5582656104454976
  0.0784307946922901  0.5787478749713518  0.4330608055706456
  0.3232430728287301  0.8098233527206339  0.5939141656290375
  0.5079023000096472  0.0799367619445217  0.4754909807245652
  0.4770997564071489  0.7301210662662900  0.5023594276817730
  0.3565996128100213  0.1559738104518455  0.4548977146026591
  0.5453300584054805  0.9690194348696606  0.5188677126675950
  0.4425501162957797  0.9687942889708805  0.5404526595442269
  0.2888225343557027  0.2311463867135268  0.4892618958680745
  0.7268795054324060  0.6350305405348444  0.5809474036561173
  0.2874678077779836  0.7031097755834422  0.4750454320278003
  0.5889186250395425  0.8499079283317984  0.5128657609337307
  1.0019999096214702  0.3493243735297904  0.5307942656459933
  0.4513587060672358  0.2220042153311746  0.4940779801259674
  0.4344152119778760  0.9592089630444182  0.6001338054525284
  0.0335583698378257  0.4732437044243297  0.5018900614966134
  0.3552158352784376  0.1416902974596697  0.5176591617127068
  0.8504086401140508  0.1999517808504958  0.4574159684246647
  0.1426886075037417  0.5192956127770019  0.5267136563230262
  0.8989113153635682  0.2807220991996199  0.5108560390172286
  0.4980212185535938  0.5521635330029220  0.4739422630612241
  0.2969736104295504  0.4683460264732431  0.4766778506909043
  0.7052917553897325  0.6128879973909375  0.5223088813084716
  0.2703687689702359  0.1925077614730470  0.4456367996521750
  0.2282762938145289  0.7697911213602735  0.5653859321261864
  0.4942809245983396  0.4373148100657164  0.4378893974522462
  0.9567434425741748  0.8643749646306559  0.5445445302909139
  0.1029932254450941  0.7888926087005212  0.4867699548597519
  0.7083114145988550  0.6921933347369681  0.5679716325988649
  0.3390813336236350  0.9743065179300795  0.5085578772618642
  0.2459678686707401  0.5304162268827911  0.5027277287959455
  0.2415433227162496  0.1899625967303126  0.4996566590132944
  0.7594225498734263  0.5967367925216316  0.4877849143566180
  0.4768305455554648  0.2214987671869930  0.5503163355621516
  0.1475998075911545  0.3996898503159241  0.5669669297170450
  0.4320816703160922  0.6882049464008693  0.4981191328958866
  0.5909330530975777  0.5376184582282227  0.5603780639069806
  0.5406699665847647  0.3606796488063846  0.4262816426799825
  0.7525484855092702  0.5363251412531831  0.5028440621118667
  0.6530452342356075  0.8676315096476473  0.5869860325335186
  0.0934179410166777  0.7476960747911774  0.4422722668588285
  0.0528638512566336  0.7939263989742719  0.5240397238575832
  0.1987339199861911  0.7479918739137826  0.4788925039659491
  0.0571637011197867  0.1847921079406819  0.5784607713624557
  0.8818163160359014  0.7379966242965037  0.4334169063484092
  0.4959417860972398  0.5991953276117195  0.5169707920855642
  0.6363227227521403  0.2238257521697355  0.4910419938794991
  0.1839062569370913  0.9128974153708369  0.6300115211061639
  0.0788527282760417  0.7340884365135720  0.5068432637110698
  0.6555614148675314  0.2178754259040812  0.5492991300857578
  0.1108399971705668  0.6201081575362901  0.5531142863136365
  0.7509734451021598  0.5855074065135502  0.5456844548275351
  0.4907893786342714  0.9515571911421002  0.5042332017983583
  0.9617430911861095  0.5876941443242134  0.5127714077339135
  0.5541460478542424  0.8946119825169239  0.6002828129155371
  0.4514308891754703  0.1680416697774138  0.4623217432269392
  0.3522420373867455  0.0230397535948466  0.5569895613629732
  0.0233905573286430  0.5940684679751187  0.4675631683527600
  0.4422347788580068  0.7980397911452186  0.6342928917023801
  0.6234674555771309  0.7459383669754037  0.5910482052519217
  0.9879678083530934  0.7854866717780696  0.5162889162494493
  0.8805185966155062  0.3693057276467686  0.5423855873379428
  0.3636771715058696  0.4067542497636427  0.5246232642419169
  0.1873970110041251  0.5659497565312280  0.5287502300424335
  0.6084800169742990  0.3252589688070949  0.5114302353435579
  0.2951067591630628  0.0306328367983506  0.5349285043009566
  0.5104904641885836  0.4373289731100097  0.5523201033600701
  0.1872569294126923  0.7208959067553341  0.5566653854241743
  0.2299488189144231  0.3053965128490812  0.5045035064581490
  0.9724957357303313  0.4360604002886144  0.4944740402867495
  0.0667101261798456  0.9290590231646058  0.4914635386976802
  0.9833929149651094  0.2411916048413235  0.6011185799496700
  0.9859125677433301  0.9690116675076803  0.6200531282979997
  0.1922934137821913  0.2206357936277186  0.5090709778458377
  0.9857675664558894  0.0773713215991435  0.5785834114273910
  0.1269572764496941  0.0190289519609950  0.4780667045532262
  0.0261149608343648  0.0668451351650546  0.4836869648779133
  0.2479185045731316  0.0822327511188757  0.4923543014268661
  0.6031740778875956  0.6163066674943934  0.4865130619086515
  0.6294524383661809  0.2711879056704427  0.5328573101185379
  0.0535979717414320  0.6244323473637365  0.5308858675508751
  1.0097346685535573  0.8301917805782570  0.5591388746476962
  0.6515869079983668  0.5305240811032319  0.5827229345158168
  0.9638821611934366  0.2996766854585267  0.5838642550901927
  0.6676726380376128  0.1117866652444221  0.5121330252219577
  0.9561107860927471  0.2022547733263496  0.4960116940367561
  0.8066764691672010  0.2664159177346645  0.5400329544685908
  0.4348148095146417  0.6566164986831180  0.5494296474320064
  0.5784335098923707  0.1132005235598377  0.5448614840617563
  0.8219889721451324  0.6872223166820316  0.4836586635553626
  0.4394628861496802  0.2826226958762494  0.4700307412894771
  0.8834329869948053  0.6836989343102795  0.5684090704163168
  0.0859717642028010  0.6883505160759222  0.4631297682891786
  0.6706874295745925  0.7071333576580234  0.4788106539148118
  0.5185798231441300  0.2702805625841756  0.5511304199250853
  0.6726452646016505  0.1740523663777976  0.5020394477553612
  0.0235303916830897  0.5321103632687910  0.4846074444887433
  0.3360583213397849  0.6739542373445040  0.4894137880953623
  0.8320471970390493  0.0331688103564095  0.5866826001571418
  0.8578841476254743  0.5915533160272808  0.5259403091763865
  0.1536733154003064  0.2340970785406695  0.6036616155896580
  0.7588941221442599  0.2306910042670969  0.5248863831914425
  0.2806522707115228  0.8062288209668699  0.5423999288566930
  0.0144588778624942  0.2917061732823419  0.5459451278428747
  0.2767531096962587  0.2484770979734571  0.4238762484615962
  0.3540485605874543  0.5591526537221528  0.5327236050406627
  0.2880741147879282  0.6371176613323088  0.4899618917285861
  0.9818134884818115  0.4066083671685193  0.5639870080307564
  0.5485851708392143  0.5863589014720613  0.4806283906268117
  0.3157617605823589  0.3960253586625447  0.5668328311147965
  0.7994691702469404  0.8612505725748392  0.5215233389659908
  0.9655536016141267  0.2505326974019296  0.5409083337054511
  0.3586525082490413  0.4699462023396137  0.4965534617105634
  1.0111443891876903  0.2376720055168422  0.5036167816822510
  0.1994212775164481  0.1757155813944369  0.4563784700168549
  0.4547770548820063  0.0287608334503696  0.5260892184355220
  0.0367717864347306  0.6828930801187554  0.5042242996938918
  0.5553245026276268  0.7969701041493678  0.6135034360081438
  0.8607613542882749  0.4381219900673846  0.4573484386055940
  0.1592308399419445  0.4580203063758528  0.5447677334754374
  0.6060995675972499  0.3764334590147437  0.5562254849971894
  0.1868702573963874  0.6403513099159770  0.4548994021873193
  0.1307538257864924  0.0350882521983278  0.5356352622549627
  0.0978416292576203  0.8701138657050521  0.5765999640126465
  0.7663693806642505  0.6581859293042763  0.4745531454391090
  0.0741492836135104  0.9804419211492000  0.5333086999552011
  0.7823591306524710  0.8044355415735749  0.5598152814815517
  0.6429277001381174  0.9949963103674534  0.5473328815839966
  0.1106207158537809  0.8268798710078614  0.5328157530225738
  0.1629653939406609  0.1909060277411303  0.5573109639382274
  0.8980384347603531  0.7923674129798939  0.5525166914435685
  0.7711194624366406  0.8370392054691160  0.6120251166271481
  0.4355748521982178  0.3442750912353661  0.4497848154928478
  0.9277863274423576  0.5185248533471430  0.5661663156420264
  0.8682759759562129  0.5300183111589982  0.5431412717921350
  0.6997901709574272  0.8584502556097864  0.5450805988218278
  0.3039128343843118  0.5543941487499470  0.5686474493068299
  0.6488156589312035  0.4705357158514598  0.4846082262173769
  0.2897896114811988  0.5284251257334268  0.4601502079708616
  0.2189729613181832  0.4500359051700399  0.5640824922861821
  0.6985673863130248  0.9161614423442513  0.5300781464779049
  0.2351511381505070  0.0254387533372805  0.5151932463057350
  0.4632344340148541  0.1626192509516461  0.5216834614962584
  0.1172346135277597  0.2480260500142631  0.4842042545710417
  0.9222532108788468  0.4153298895918007  0.5457442868749450
  0.0698221380144460  0.1390460724023209  0.5356189180040274
  0.7079745785187989  0.3335340549567808  0.4901574732115316
  0.3938465701205777  0.9130550496703203  0.5994620257164535
  0.2480476490441624  0.1389764795022655  0.4678266984582052
  0.9230856190052064  0.2497852915327869  0.5829780179519142
  0.0725591230960867  0.0385794873488374  0.5143265972359514
  0.8915447613058932  0.7956432653729090  0.4083655140407537
  0.5255239940372999  0.0109631821739973  0.5577996534740495
  0.2862242282706273  1.0006684062376443  0.4823874285832268
  0.9697357128844245  0.5605219474877167  0.4594187221724461
  0.4768411095999884  0.8485354862391896  0.6377677076341189
  0.5945500193003771  0.3324532329994559  0.4513418183859143
  0.9089896361356995  0.2245068615386068  0.5277809488848350
  0.1236178533355321  0.3629781751036888  0.5139385459091832
  0.0728093577078549  0.3888914000408030  0.4880874799362410
  0.9112549705682661  0.1360456528966965  0.5958917321871458
  0.3315968960576519  0.2195445344558571  0.4500605059981477
  0.6025851336526841  0.9375077023172210  0.6059635000885032
  0.1930409312127104  0.7017465076569039  0.4371904771438237
  0.1275856720084897  0.1418855692121277  0.5543570938924612
  0.8103795314080136  0.7551124391736227  0.5226773859354064
  0.5408239311892657  0.4067050303840014  0.4704554025589350
  0.1008951710802149  0.4650845201656893  0.5272574898951065
  0.3069475437062070  0.0947369429084031  0.5104722542029995
  0.3207400104026706  0.6610790476422436  0.5529888447223361
  0.0967673996391235  0.2000910204867324  0.5313415071436912
  0.1331917364399426  0.4826654015076627  0.4779026043761010
  0.2080619256228554  0.6624714355083851  0.5737974853748643
  0.9652707311911102  0.0292100758046071  0.5366910800650486
  0.0396711697902884  0.4018702398569695  0.5882273361200491
  0.5601331416487674  0.1156254678191172  0.4844548877032108
  0.9092231455249203  0.5845474681549349  0.4885614720639965
  0.5066647210825125  0.0179810202567425  0.4955678019890293
  0.7121173044848048  0.7979630309600567  0.5571291151676245
  0.4932268231382751  0.2134012140963647  0.4506249505361245
  0.4256650217655907  0.0715473523066839  0.5564975874310191
  0.5175467774634597  0.5931507470242218  0.5789242085590135
  0.1832463992172934  0.8117005609560765  0.5515353156109599
  0.3487156566977717  0.2049330419270856  0.5080315196806692
  0.5458590082345941  0.3471674892953582  0.4889469175069335
  0.7533755500141492  0.4882230946266944  0.4598727725202067
  0.0636748587915219  0.2161011710231973  0.4739251774038478
  0.7119020055849539  0.8465460608312200  0.6017931775783524
  0.2250844310560425  0.7946447939490990  0.5120704108070555
  0.3406218129859313  0.4493305787780129  0.4399870720088420
  0.3512429878087450  0.2911639304328112  0.5492326440365076
  0.3303842859187498  0.8467202778889230  0.5379991915241352
  0.4254527726965954  0.7555732826149674  0.4793470306484239
  0.1291629376036929  0.5455541662103910  0.4644096986548624
  0.7995227898116171  0.2307228551417765  0.4331952193266547
  0.9921360685109494  0.4671860887039285  0.5448755120739704
  0.4982994954814871  0.2636981946975956  0.4907787742344162
  0.8497618275195030  0.3092821570608090  0.4845577119001965
  0.6451654020136406  0.8837946244090529  0.5205997100445715
  0.7374883165233852  0.2841863314007371  0.5085493955228860
  0.8997291480514065  0.8370544797757219  0.4552040396444352
  0.7542642810459966  0.3132146493507790  0.4549314032739851
  0.7462217401521690  0.2423771442527728  0.4646976160278308
  0.4357995839642845  0.3957589920348482  0.4909674012489928
  0.0352975345441920  0.5174038933140324  0.5475020681121078
  0.1342374300093110  0.5618367080541257  0.5699053137820975
  0.9649792277098107  0.9196452444985729  0.5823409262770463
  0.4688330582570360  0.7080583786533766  0.5554383921187155
  0.3790817617456945  0.7738409190036355  0.5148782321030904
  0.5413383173414275  0.3004501825159444  0.4438800139271126
  0.2413171513039785  0.4284328702593955  0.4743227830311169
  0.5452296063802500  0.9539022641062762  0.5820456827305480
  0.1946912749075740  0.9644829741788963  0.5779062835467877
  0.3844204194882093  0.2541669900644357  0.4563942003347147
  0.3209167814456997  0.4539017984626546  0.5404161465850328
  0.8513291392228743  0.8509086468369104  0.4884800539571844
  0.4789647275394529  0.7889484102545379  0.4897471735838856
  0.0302749986410840  0.2356397140794547  0.5622410944111587
  0.0229173490897523  0.9161989539230901  0.6084383134078190
  0.6676908268180912  0.3288626697087624  0.5347169208940983
  0.3347515590396694  0.3504864056301763  0.5296222863277107
  0.2811770367296074  0.3430660478202665  0.5695463411382252
  0.7607440867110832  0.3719243661078820  0.4976133337794458
  0.4052513692703368  0.0635165104642210  0.4965586334322388
  0.9276995837770774  0.7081284786639931  0.4599261929126572
  0.8055045170778172  0.5846673640031431  0.5666982597247897
  0.8639584578425457  0.6119830411887837  0.4651104759007688
  0.5414517855665648  0.5099957501316414  0.4924558015657381
  0.0655867158796680  0.8176579961107435  0.5782388414117419
  0.5887663030767948  0.6957853010738457  0.5815836882554398
  0.7734790234466768  0.3683980699913680  0.5606382258060829
  0.3949338551474307  0.4832075185487960  0.4492703655997458
  0.0346105841057635  0.9708057130692769  0.5805000594337394
  0.9078715047169390  0.9275142472145075  0.5520339201137596
  0.9254280476709683  0.0757854975665628  0.5596832137848199
  0.0189897436747304  1.0067415218880673  0.5034435480309377
  0.1726288663456444  0.7672720492091626  0.5974766209848004
  0.9778243305708255  0.6826368042016889  0.4838083503491739
  0.8367237014087614  0.6365976016535506  0.5637456698868714
  0.7493711450244070  0.5757552937706767  0.6050648364648196
  0.8617053309340809  0.7437860579543552  0.5508307556770136
  0.1437036181411770  0.1895525683829993  0.4935930397846950
  0.9261333042620559  0.9711415123172135  0.5987649647381599
  0.7722443777029052  0.1346198273711608  0.4932587288108873
  0.6374083156178346  0.1071116397051277  0.5636466765619467
  0.1700820898948063  0.9300365714064242  0.5263836165463477
  0.4141160977058536  0.5450837852864111  0.5529652696255222
  0.2441949963110325  0.5645852985331367  0.5508109699629210
  0.6571778788154777  0.0523760782907735  0.5261251495128069
  0.3193166112767526  0.1756737364808300  0.4108349353190222
  0.3922872076762267  0.3414129286007358  0.5502681885296580
  0.5551066268008116  0.6476818016842054  0.4628618899844332
  0.6144541416504791  0.4325655214067993  0.5310312186811086
  1.0101790789401934  0.2986185756627020  0.4876764065166345
  0.9771651158013774  0.5268673069201771  0.5271127918775722
  0.4144451206275923  0.7280480350087551  0.5346553854585002
  0.8163183941681595  0.1464841140931477  0.5341922434402132
  0.0167811796454460  0.3617088211129426  0.4744110179593729
  0.0816247234231379  0.6296061437639826  0.4773302827795624
  0.9853543846442818  0.1464282110701334  0.5061502992224322
  0.1138270717909219  0.8984462780056259  0.5178657367322546
  0.8743712121094291  0.0862197931901262  0.5962090358706099
  0.6981899218446044  0.4264202878822793  0.5666264473658479
  0.0182359609064169  0.9473827856301520  0.5244450561329794
  0.0939487650548088  0.0841581687770714  0.5547784102223638
  0.7562143302100885  0.4234147788943935  0.5393928321314352
  0.9758572348834582  0.0844086034954414  0.5175407385663492