Cr Ni
 1.0000000000000000
    38.5534304433658974    0.0000000000000000    0.0000000000000000
     0.0000000000000000   38.5534304433658974    0.0000000000000000
     0.0000000000000000    0.0000000000000000   38.5534304433658974
 Cr  Ni 
 247 455
Direct
  0.2539100282947793  0.8256998631932904  0.5117700762322599
  0.7726267216745809  0.8028142315691592  0.5783008867067427
  0.4495686215920758  0.5776781497331207  0.4472323334404901
  0.3971467077474826  0.9391500118709990  0.5373697636007346
  0.6547871108829464  0.3926450214849361  0.5122653537669039
  0.3316939446960682  0.3463347864583916  0.4142993762191518
  0.0245289602829792  0.3687022797147327  0.4842563069782572
  0.9890445908671837  0.1385379645341798  0.5076301391480647
  0.2391023547883603  0.0347263806227862  0.4492978932108095
  0.1297907980174589  0.2904297333063164  0.5871797200892532
  0.1925409617781442  0.9225868752420876  0.5359433170960155
  0.9346167338042953  0.8027253237842996  0.5123628792271732
  0.0285143599214011  0.4142650613520807  0.5309245043591957
  0.9217955921034056  0.0912370570954371  0.5549003288536206
  0.4565516900137511  0.5592448096134952  0.5117155327789460
  0.9153008377678831  0.2549223477849366  0.4214646044319286
  0.9942098628785346  0.2875786381608736  0.4891683128352044
  0.1341321298727586  0.4991504870063568  0.4226146946696249
  0.2257204232360624  0.3290843967185156  0.4451854764671129
  0.4441711447131774  0.4409664851353047  0.5322250531662792
  0.3512202944453170  0.0229946314281646  0.5590083254011792
  0.9766280797230414  0.5783850785652641  0.4078952072078614
  0.8189670976760451  0.8073463897170999  0.5381438329785627
  0.0220922932818533  0.0296302938507171  0.6146071573936597
  0.8767432889615853  0.3679607732377340  0.5418164341877012
  0.9560039268050321  0.2326389354805566  0.4687502594896543
  0.8753116489801480  0.0839378291938709  0.4834769899939427
  0.0223470407270573  0.4281694280012120  0.4623355246621790
  0.9774936153085352  0.0748182018187940  0.5159962938236085
  0.4294373813281709  0.8204737903738843  0.5185713857763834
  0.4971047513134166  0.9554143134372074  0.6170988855882881
  0.2407687949446249  0.9142821604610045  0.4971053082769093
  0.0692446905346356  0.2768582308005915  0.4611130510453461
  0.9279386887422513  0.7258930357101966  0.4120140905368666
  0.2249387462360939  0.3078003496678178  0.5036883590036272
  0.8580205370217796  0.5439999828498199  0.4854972126748103
  0.3067625447592595  0.2362894156805621  0.5468457785157338
  0.9070020289594907  0.9322442860407476  0.5582257915262254
  0.5486402069749565  0.9436930752185603  0.4753976698604641
  0.2167017329109825  0.1817474897707889  0.5789303106963208
  0.2029511159515537  0.5082415004848079  0.5524000973069247
  0.6586792599519447  0.6739167525113117  0.4457675353146924
  0.0851020453416497  0.4635048447611743  0.4680733441485345
  0.8099964636106153  0.3413234067789960  0.4715438299879081
  0.4819370049271253  0.5011275017010280  0.5279740574468220
  0.6904436259059418  0.5551151473969212  0.4768655964033474
  0.4002771661887713  0.6678742506314497  0.4632274326458729
  0.2442949178909414  0.4332342734546960  0.4718431421118662
  0.5023066294278996  0.1707007819540380  0.5623293927192721
  0.4952068989965581  0.4644223612148328  0.4913157635219602
  0.2394733327730727  0.5598465212227902  0.5459490237058274
  0.4206623528493505  0.0715590597051094  0.5580481686053348
  0.0388845964221981  0.8462794757104949  0.5360081292225650
  0.6087059356128457  0.6289016934725273  0.4334961793051014
  0.6409606334592293  0.6992929524245083  0.5522384880972748
  0.4541720933869400  0.2840181681997349  0.5287099614139164
  0.6712881089916340  0.9147326987869688  0.5210132912504901
  0.7031204767179133  0.3886703438562523  0.4730564469321337
  0.2862543511856955  0.2924090346411737  0.5305496614151299
  0.8576885089494793  0.2573752370287483  0.5432440884418813
  1.0064038527507584  0.3068840436352335  0.5427914034356567
  0.1774073365858055  0.3418980075374192  0.4791186255472764
  0.1322700710254703  0.1294778156929150  0.6124432560262857
  0.1386450714819737  0.5384816428479418  0.4654855858586020
  0.4462638912603394  0.6225317262061074  0.4912137981693028
  0.5232817767284451  0.1167524915873142  0.5810624307595486
  0.6707766735086126  0.9586793353231706  0.5649470005477584
  0.4477042766679502  0.6960940474188313  0.4786334950514301
  0.0478334511254231  0.8071647820487751  0.4869038771575647
  0.9814043994063826  0.7008043197809564  0.4300255645996404
  0.5655602021257277  0.1653348714224398  0.5874592942962313
  0.3028574604820451  0.4012038077618335  0.5019989676473595
  0.3988534461108588  0.5485341209649618  0.4316914528705632
  0.9747201403240215  0.4258532888161662  0.5050571104807201
  0.6144677452302217  0.7599137310909794  0.5365239204376763
  0.6458118364963679  1.0080724167274799  0.5929082047930788
  0.4998968633653839  0.3404670542229938  0.5287017429015131
  0.7557210217021098  0.4859271252357871  0.4599091807463546
  0.2793145055391730  0.1861660554592032  0.4429497289360616
  0.5580347151372835  0.3327249802689127  0.5516676439431389
  0.4064340680884631  0.1315066506392378  0.4823039249179444
  0.4761662640366998  0.2283013766160613  0.5455996323240321
  0.4530473904509268  0.5164793080381429  0.4662561044205314
  0.9259005931108981  0.6636368407040524  0.4232716874274766
  0.0521790663268597  0.6273942300223544  0.5275219813316634
  0.3325227667996444  0.2796137006046855  0.4952076438108241
  0.0473415189413366  0.7817869379123256  0.4356236346698745
  0.9133619402268426  0.9363133264507589  0.4901927123184429
  0.1340903414518715  0.0284843927791470  0.5950426934019880
  0.4048614698033587  0.1245039835398435  0.5422404357270508
  0.8243973388682705  0.6595311405389301  0.3817104055702625
  0.2834974239687304  0.2394185930295902  0.4864073783337852
  0.6577034251036441  0.6047532833885767  0.4588138136753849
  0.2140450216101359  0.8316166183037459  0.4010305608487616
  0.2380228639922017  0.7210682475217155  0.5039709294969353
  0.1826001826220616  0.0327167692626095  0.5520397561795383
  0.9721210910508905  0.5132821938734422  0.4178437796868334
  0.0768955411854004  0.9839165571038644  0.4715019846341447
  0.4104593196993545  0.8693970307583511  0.5547437177904819
  0.5608779644586214  0.8826467389913781  0.4892694165329793
  0.0155878877277157  0.8879184943466166  0.5722028095525801
  0.4997677675229135  0.2527628024813837  0.4931509190962758
  0.8417970422852286  0.2223868333211333  0.4880110037858914
  0.3041802932116423  0.1816362164529689  0.5051291040762947
  0.7724692838302507  0.6732208220449515  0.4126555585089371
  0.6744955228890058  0.7496343454474634  0.5466648769688225
  0.5780458723081577  0.8648725078383136  0.5536291169085120
  0.7571888771655462  0.0394971556594505  0.5727862312110108
  0.6623374739587713  0.3328730681571064  0.5315167125804436
  0.2403007179088971  0.1947073906176804  0.4839877167704089
  0.0114525114070039  0.1442692515186735  0.5705682090062100
  0.0617311514709597  0.5807439909229604  0.4891992689313360
  0.4918558033166986  0.6505468823978795  0.5590557338976825
  0.3965478937036376  0.1981582520019398  0.4718552853974883
  0.1503274039212244  0.2333497024531244  0.6036352906976937
  0.0917630501466065  0.6780390984054121  0.5286393331249639
  0.2643026083047731  0.7767828443897070  0.4748517427786157
  0.3808104574262405  0.7757478642238934  0.5139450474234453
  0.2918516926235368  0.0248356166205640  0.5374809924181785
  0.3455558368641070  0.3994487637947490  0.4686033888966845
  0.0252822178647713  0.8808806224519291  0.4874075284872092
  0.3462503942941291  0.1646141962418687  0.4661879458028059
  0.7923790836136133  0.2457533386355857  0.5255069929708984
  0.8048928431723674  0.8707353161583896  0.5261037891941891
  0.4809366080750871  0.4003336722706895  0.5070861693287014
  0.8482307644609652  0.9161556329980841  0.5834766175861715
  0.7655538153658291  0.5680650958019675  0.3882678174777060
  0.2618950258563425  0.1910344587277751  0.5408578397272100
  0.5040475008963289  0.9495408395763800  0.5249262473580901
  0.3002178884805552  0.4643252982371970  0.4809741602438257
  0.3457116795014568  0.5169229252915165  0.4256086177014217
  0.6501659942468816  0.4137942957499570  0.4464759609933589
  0.5816541247229936  0.5476237296936146  0.5010356520749074
  0.3171430220637713  0.8181048173284886  0.5356170982756209
  0.7340864069868535  0.2670763284888033  0.5018694675903919
  0.3806423530312239  0.3125723813758466  0.4426217102178627
  0.9898931645293095  0.7577779423727506  0.4223329689408243
  0.5401210681381802  0.7041563300813446  0.4847106420561316
  0.2970028743503615  0.5969294915686411  0.4491052979142304
  0.4893150573758045  0.3090990346474030  0.4795779707453330
  0.0748703839665655  0.4103808697385304  0.4900826276546110
  0.5830306843370275  0.1074549658552780  0.6034647370486182
  0.3925931416117028  0.9624951003246504  0.4736574196921969
  0.6445136016386757  0.1008313554159171  0.6213663836681278
  0.0173191719635628  0.2509206017142985  0.4506597523418960
  0.7655472100998323  0.4797879058675896  0.5207305631582757
  0.7779107085716156  0.0188738374662727  0.6211036462482534
  0.5520137502639231  0.5365693757286737  0.4351761559412038
  0.7742982706398601  0.4683431231076964  0.5797565716403210
  0.0895487868167863  0.2443991077574092  0.5805603964844371
  0.3429126547104047  0.5634645222133389  0.4690822754744248
  0.7904220500642507  0.1383275009186586  0.6059561706360884
  0.4956112744138326  0.7329687842122884  0.4983030109733391
  0.1453045331120028  0.1235007631925572  0.5065245144214929
  0.3148803932116841  0.1196220719476708  0.4219588604751603
  0.8517199826572066  0.1319158010018724  0.6316503431360393
  0.1308336296016838  1.0025378397894198  0.5425488316768029
  0.2051543684895728  0.7668387428326114  0.4301561575201753
  0.7402488078335673  0.2076046691097539  0.5213092331859138
  0.8158795170235472  0.3785007076729963  0.5173805012083844
  0.8644077489118821  0.3802769255070653  0.4777501963084961
  0.4352357293044191  0.0611582961859930  0.6226666561013112
  0.9811250060689179  0.4839461629342635  0.4832419148561640
  0.9306692424549983  0.6033286927203918  0.4359851392036378
  0.5992509205956107  0.2182049875175478  0.5847077905421157
  0.4777914925417599  0.0642887250830334  0.5818476295393167
  0.9163458927562577  0.2457949220407057  0.5692162261642948
  0.5658733772156066  0.1612364278804044  0.5318405157275865
  0.3169695003378929  0.8155413094661423  0.4822737354468564
  0.7536374829252138  0.0851280319976928  0.6107819618214537
  0.0848131451761787  0.5197639373949885  0.5088579287707007
  0.1903167150366508  0.1094457488000963  0.4695489215723208
  0.0726507669820821  0.3496587586274989  0.4470314415384797
  0.3286552955204524  0.2219332025659051  0.4500799198153708
  0.2879294490703413  0.0118154993912711  0.4799935004152233
  0.6315665971017046  0.8703949049077637  0.5176692391511528
  0.2963399022529373  0.7119860709991277  0.4689000264112221
  0.0278435170144064  0.4871612241307032  0.4430798730866147
  0.7642166418804680  0.6630401966924430  0.4817277521624272
  0.3917732584543376  0.6021387115164433  0.4724340332121890
  0.2967294008165975  0.7100220026941338  0.5352453461796168
  0.2802983627631028  0.9069619076393559  0.4525485094651533
  0.9834195581397484  0.3643176418671125  0.5260393104092070
  0.0263807320877537  0.9852061038662349  0.5684668554351447
  0.0502930793686842  0.1928020233735821  0.5738979385073866
  0.3497592820138397  0.2256033132069367  0.5080078142245207
  0.9848400152856429  0.9804509652402194  0.6110459904231325
  0.0801131726540615  0.5213556617072903  0.4531223653986937
  0.3905567980361359  0.8998846913479415  0.4906697576818575
  0.8619741401019027  0.4245827190016537  0.5247736167673411
  0.6990340482699086  0.2138406011227931  0.5584519710138204
  0.5152137966115719  0.1281898277237385  0.5162237304135440
  0.2716132225864045  0.7654929366138225  0.5318093837168439
  0.5460845448061417  0.7641236896207448  0.5160058200428050
  0.8029104386745819  0.9114972022011001  0.6346365790392843
  0.9330575433945169  0.1109861234985347  0.4946941963257366
  0.7213207327820278  0.1477089249096901  0.5270616018109118
  0.0730683603876934  0.0286875050356657  0.5762166828521286
  0.3718286707403793  0.9691736980016946  0.5781245806537620
  0.7846999563949076  0.7619685177362613  0.5278104330650280
  0.2518436645433905  0.7327661782070282  0.4385031424841773
  0.1032619392082372  0.8145051767766222  0.4442600147418284
  0.5020014238834134  0.7614483336590480  0.5539558571170735
  0.5033500323983576  0.6046836628733760  0.5159301066939938
  0.4522763747138982  0.6475150552235230  0.4300036614631939
  0.8803169389682552  0.9410584400387746  0.6283685380545435
  0.5142936447484810  0.2810325415737991  0.5519326469033189
  0.6613876174703432  0.2077517358425992  0.6064229774200559
  0.9694257463902123  0.4533385248895445  0.4356782209635274
  0.1573449664963331  0.8541922020950665  0.4557644475665178
  0.7498041902052182  0.5469002032197658  0.4395832630242131
  0.4417449291263262  0.3429986252714341  0.5119782694567702
  0.9796790378087522  0.0939860669972167  0.5697516041827712
  0.6434663680871621  0.0712336014639991  0.5687594498540783
  0.9415643440077139  0.1714959081155768  0.4793594134399895
  0.1819577944046601  0.4098421206236020  0.4652092345414765
  0.6490543876855019  0.3536380899216678  0.4679988587710924
  0.6533103682558210  0.2920999668289174  0.4830980778510938
  0.3246775801126233  0.7571704340892813  0.5004841682806304
  0.8299809438948480  0.7585346560835717  0.4798182312190039
  0.4641579131215554  0.1225715882309771  0.5618322259390011
  0.5496927356183794  0.2838701438008483  0.5056705056896272
  0.4989915286072362  0.9119200661158158  0.4713218390119119
  0.7134498147489475  0.8028375612734795  0.5587740542290335
  0.0366375670386391  0.1079659997281244  0.5304781481248693
  0.9131749425694429  0.3622303504238595  0.4437725943468927
  0.9134532211028685  0.3762746612465805  0.3836364333837741
  0.8088277806401700  0.4644393944852017  0.4324351449686916
  0.9771866098928215  0.8484635077967297  0.5219257938106625
  0.2408565632120626  0.2499156320925098  0.5243101519862697
  0.2447081094306225  0.5598281117433478  0.4460912831656971
  0.8604756371703438  0.3912839248538189  0.4149467443383164
  0.9161841477062532  0.5414248384052589  0.4445251310053196
  0.5471466646119661  0.3425555786491595  0.4879625397198226
  0.9084543820480481  0.8272895778711988  0.4594945604589137
  0.3341185405942937  0.6067941722592525  0.5111850190326193
  0.3464794558097040  0.9823980402054028  0.5085453479852772
  0.5997602737052534  0.4915760435665796  0.5157254276417300
  0.1931379067283303  0.6385197635954166  0.4583402183392087
  0.4918020405332655  0.6641018473227108  0.4964512787099539
  0.9210888260734325  0.4823501770061632  0.4626807237672401
  0.0394837157967277  0.4698595071635652  0.5070234325205352
  0.4913180846852124  0.3677976605438863  0.4621626293002493
  0.8193835492864355  0.6573783708153804  0.4442626703708370
  0.3465033272523486  0.6350620487614376  0.4556776999629881
  0.6904987768296016  0.7510672672334238  0.4624219547593256
  0.8056795225909547  0.9271769497855917  0.5106239772165986
  0.4114400361015270  0.2357173275824195  0.5258135455196435
  0.6473227816101550  0.0270936891571990  0.5256998336163063
  0.3035326384926445  0.0812230755576422  0.5160474854946260
  0.0252630666593475  0.9981309917721864  0.5062358133574519
  0.5380713879959846  0.2221802983528747  0.5640332950354331
  0.6000735577841947  0.3789598764086595  0.5568561905571537
  0.5108393108448173  1.0087988296461106  0.5585601858557516
  0.9707817360700335  0.9507026632638802  0.5564953415288968
  0.3452935326580954  0.4556854620294524  0.4438611623943557
  0.3762426761749382  0.6503310835331857  0.5168898545709195
  0.3452653817118542  0.0398363479786180  0.4915653082186264
  0.2462900070063709  0.6715750546124231  0.4653461093926167
  0.7015054972652323  0.7013721167273032  0.5014433320999157
  0.1568444419508268  0.8010270361100807  0.4037790672019054
  0.4398428490429702  0.1794763615924037  0.5439848905719111
  0.9820348985488702  0.6406584288396862  0.4466072863536240
  0.4199379299005204  0.4929540781718265  0.5126080402618529
  0.4158087177297922  0.3974442351318768  0.4892277969373520
  0.3116708732546465  0.9712465032633730  0.5581541297838083
  0.8178146884717697  0.9701198652980085  0.6699656612813600
  0.8641324266956335  0.9014426867346881  0.5271589129943183
  0.1359183607985644  0.4127043999313181  0.5073353015551016
  0.3819610009803446  0.1786717906708110  0.5255273865860404
  0.5740147176223168  0.2231926476495905  0.5149428693441986
  0.6041669165029899  0.6498946867342599  0.5442095917526816
  0.9751731877407579  0.6935719776534569  0.4910644400055524
  0.9160017969574756  0.8719723542550897  0.5075592847477327
  0.4440904476311088  0.7636534192048409  0.5338350926638076
  0.9005236429816498  0.7477138433350680  0.5141502443283875
  0.3310365950882726  0.3411025321905492  0.5315600067181701
  0.6568056471331355  0.6551901212165192  0.5064593239345538
  0.2177726099108282  0.3481782969105682  0.5480351395825869
  0.4536783219806799  0.6006940627592340  0.5569417301026642
  0.6116741393867928  0.6079153016458729  0.4984183754207895
  0.6297650447554383  0.7326799478033054  0.4396684714769625
  0.5518567143271680  0.6481301221258480  0.4564375360792065
  0.6405457269174607  0.7773804251643134  0.4856716024017502
  0.3525359612713986  0.0990644819962488  0.4705212211205672
  0.2517926550883871  0.0872858818873616  0.4158582982689337
  0.6602288286194054  0.9730770150234705  0.5001246611153392
  0.1940284994277488  0.5794862947716668  0.4758358739062464
  0.4872871417257214  0.8510546884968553  0.4733958336962686
  0.5849160236116727  0.8054788199255024  0.4599307573548100
  0.5866906698474892  0.7454297685744259  0.4782602450440682
  0.5821538592716516  0.7084950894920801  0.5290613852248173
  0.8272973160000261  0.2020288947526901  0.5478141783349377
  0.0659813089139174  0.7397308970221226  0.5054154693864451
  0.5456495849592526  0.4617262240879160  0.4499182673472251
  0.9942407865690119  0.6362526714878062  0.5111190783317073
  0.6561717091866692  0.4935784687398492  0.5382051101551081
  0.5963754275877002  0.3784313870540957  0.4964108682116586
  0.6512224099411011  0.9582346283155064  0.4420940470077706
  0.5532707345901611  0.4475128820678342  0.5115356312975086
  0.0740565918121911  0.4102317596810545  0.4277888699798654
  0.6190116135177924  0.3223249539360475  0.5736757008473912
  0.2897079070071078  0.9534658116772525  0.4971577886036068
  0.0416931246411400  0.6449322389802191  0.4647559317592412
  0.8064742866150706  0.5383597667053313  0.5263074138579044
  0.1415585521325927  0.2462536411925551  0.5423962883319914
  0.0235002814014676  0.0464812938845801  0.5469464212534324
  0.3274951440884220  0.2832194499717881  0.4324972079244739
  0.7493106718766596  0.8937207289022208  0.5012557439274771
  0.6517389754748116  0.8108685069708917  0.5378353872735995
  0.2552373015017413  0.6648385057795715  0.5325345728501240
  0.9231593541157048  0.8383130482666352  0.5608123223165370
  0.2644684718967319  0.7993179451902530  0.4192570653750199
  0.6235120164128196  0.1589324949973025  0.6076431418447910
  0.1186179127044616  0.3014554796945085  0.5270763594066232
  0.8123556250188346  0.4192465770102955  0.5670309984987948
  0.8825509526977758  0.1925481001541150  0.5717428389137780
  0.2288165864056077  0.3764625057579886  0.4885840938145218
  0.7148567558178479  0.4819126986090153  0.5581903103343963
  0.0977058972834597  0.3579722425480366  0.5083335718072756
  0.7705445015466955  0.2052133999736372  0.5829777373952291
  0.0714049209837990  0.1346811282275685  0.5930440867681993
  0.5662803942136490  0.0939783364305137  0.5447020173710251
  0.1789096278603078  0.5646340475607317  0.5322443505710335
  0.0527863409710270  0.3156974788433896  0.5017567565798319
  0.1985112513703224  0.2381963400416192  0.5659355973208745
  0.3504051374004899  0.5512409776627584  0.5309346594573056
  0.6714801944995821  0.1595229502472797  0.5667161991327166
  0.9446182000371688  0.3112085379554999  0.5203510493992921
  0.1442925540980679  0.4750812822630133  0.4851665349881610
  0.3534696326291094  0.6925740993804066  0.4301913901258582
  0.4255629673987804  0.7616691718863280  0.4765043645668781
  0.2480703029461692  0.1328779555275606  0.5206861826142881
  0.6023493049342595  0.0514252663186640  0.6144877676979799
  0.1877086509280260  0.4684689144643675  0.4446579451569526
  0.8086741661153933  0.7053521818203242  0.4971172491003900
  0.1052727893347814  0.7902007929364852  0.5078448341705929
  0.2349234209016685  0.9739500185622443  0.4729860239208642
  0.2436207610318197  0.9681955226774682  0.5368477600719409
  0.9230342599947023  0.3017059514184195  0.4623483641685962
  0.9121600922521437  0.3144337257905933  0.4005007849098552
  0.7211175580430308  0.6947489127107956  0.4417759693873633
  0.9709725039688494  0.3379516320575485  0.4701098072102592
  0.6025469843333099  0.6711681876008262  0.4809161378222743
  0.6474025494973162  0.5162013445062510  0.4730436631075923
  0.6038475366304766  0.9828375593195225  0.4803508681087431
  0.5161182052549315  0.8780997409917397  0.5284195701068274
  0.6124551745389112  0.4338851913980800  0.5330907801872026
  0.6049622612225148  0.3150379298624779  0.5138661791808287
  0.6074218420211906  0.5653234419971224  0.4486351746654504
  0.7567356448361482  0.3095101841347004  0.4572969443659864
  0.7067722318866798  0.3263274526327364  0.4918853080797917
  0.9622252098453158  0.8630324999690081  0.4647405082362293
  0.5932114413236561  0.4982697401701335  0.4557091748284505
  0.1590138480761515  0.6227324148225086  0.5095770501794957
  0.3707753578565742  0.7362825654914413  0.4677915261063207
  0.5044263644807230  0.5537764451793882  0.4727949433172061
  0.2787443178646279  0.3633765885510382  0.4509166796498222
  0.1563633836294274  0.1868974667797609  0.5561269611114384
  0.8634475477690677  0.5012476542688266  0.4406181384632268
  0.6858724446873897  0.2739132561937671  0.5435427239430300
  0.2740524867395455  0.3469206727268296  0.5108083689316664
  0.0659174956136446  0.2149264225734318  0.4781922347031741
  0.8795062664529653  0.6507652675535749  0.4679166260502816
  0.7045918195324190  0.4960943574713685  0.4963416470291949
  0.7667357472102926  0.4182942751208113  0.5301446509666030
  0.6561687634128579  0.0450931505037204  0.6448087230725175
  0.3377261847139719  0.9242907528798864  0.5183331259369031
  0.7039700071659988  0.0668223999587217  0.5401504765111064
  0.7548015969481962  0.1036947187170088  0.5514483407841330
  0.1928973575709235  0.5189922986698339  0.4894049230722745
  0.0256673493562356  0.5302149220381149  0.4894512200883934
  0.1949981339974740  0.9733994370789959  0.5745218362346552
  0.6992272863797642  0.0494601483047844  0.6014198488712394
  0.8394117978993189  0.1397524183159312  0.5686807985625785
  0.7830256019316721  0.1593024819655239  0.5437033066708611
  0.1832624979694089  0.9304997306512370  0.4696074188757066
  0.1985963396810562  0.8687584229339612  0.5016334826106558
  0.1524727338879385  0.9717153175438515  0.6168726533931338
  0.8610080207518023  0.9597694516204278  0.5179596766846913
  1.0067064191824364  0.9241105568835578  0.6259129727853471
  0.9167122342645352  0.5322794243013946  0.5058595733033754
  0.1797893120274804  0.2973397943725203  0.5486237041510492
  0.6679828408488507  0.1140158039935794  0.5226278753014774
  0.8015170988603021  0.8198972357466936  0.4796026047358953
  0.4640326187687284  0.1560849729364285  0.4937752796669982
  0.1239676264404924  0.7297439138227141  0.5281552564152436
  0.9217922659425599  0.0473419712653276  0.5121466866510467
  0.8555296468531055  0.8560709237118590  0.4855971160700490
  0.9712980306849903  0.9089004672820289  0.5080100166354763
  0.4532367131524160  0.9201958570276545  0.5597889949320872
  0.7251252190080663  0.7588200316037327  0.5154850683127508
  0.2379639929685292  0.2912216002559059  0.5699146356084913
  0.0271650569591574  0.2505598108210217  0.5639259431208580
  0.0967500420875401  0.0774602658692892  0.6137042311160575
  0.7840542375593810  0.1906226208012486  0.4817315276599213
  0.1842145153569676  0.9838706129539907  0.5100529791083586
  0.9098466975769062  0.0261993664529472  0.6351731304995830
  0.8631692623972229  0.0694299917695560  0.5398698927080483
  0.8145038886162090  0.0725687076970924  0.6343452178668012
  0.9880719425691802  0.1966664706495609  0.5482274587572031
  0.1003539610398770  0.6308193270296533  0.4854490157338891
  0.7097404119930749  0.9915543418259442  0.6203160269177734
  0.8351898117208982  0.3197483382196816  0.5387556666150697
  0.8152191079517022  0.9669970245339435  0.6099893370031589
  0.4702422831812745  1.0090838783338012  0.6052470080161461
  0.9164497340426714  0.9869906528487304  0.5306355780534024
  0.2713290056360864  0.8473881662818952  0.4596495255380007
  0.7338631648218227  0.1556874154683237  0.5863199786071405
  0.6739651497786595  0.1764914660708146  0.5055567700335066
  0.2795956047302388  0.6091343502962343  0.5488570974055269
  0.9270919962082058  0.9837275700607749  0.5922843247162989
  0.7323234006787069  0.5949628700633928  0.4840495441684979
  0.0321694000743619  0.6104053762282086  0.4136509773981211
  0.0781639038631813  0.8961998903359192  0.5413829260343849
  0.6809705095385581  0.2355959502934501  0.4933665730630412
  0.7268308101704558  0.3199400769160639  0.5521857417323316
  0.6152355054897981  0.0807080881135765  0.5115145586332853
  0.4871320494720351  0.8226908265464163  0.5373705967201214
  0.3756468368330477  0.8162918866005081  0.5576416885220092
  0.7598460930446218  0.9584962970360454  0.6484026257318692
  0.6946804696654489  0.8081806981795383  0.4972596540542398
  0.5055406467114109  0.6805132015737868  0.4355062629773199
  0.4326633731697128  0.9612319958873043  0.6019142126215217
  0.1193541581561075  0.2470291392907117  0.4852949190682173
  0.5232841188033072  0.5486404879196958  0.5343402870170533
  0.2540554492454630  0.0766266727854455  0.5519076771803847
  0.8171521275345164  0.0999709717577371  0.5177340825164708
  0.5895002994210198  0.0329087455906827  0.5559998471811877
  0.8249989987336811  0.4780920152900013  0.5426459722875113
  0.8731055355720433  0.4838086901872115  0.5019526896229729
  0.3964859560179107  0.5966607239553242  0.5336548055315816
  0.1893646135523618  0.2212768738603541  0.5070653065919204
  0.1921363877414659  0.0634330561395727  0.4226932697744385
  0.9696006678198378  0.5442757148749200  0.4680124876092154
  0.0442023506775361  0.1692982487600927  0.5173636283293020
  1.0069125270215886  0.5911931326656783  0.4695711302200987
  0.0321569516678331  0.0610716193157516  0.4848419380438158
  0.2796136915918967  0.9208495374603234  0.5536396656071026
  0.0252549349773348  0.9343730347047299  0.5270969883198753
  0.0802142128395066  0.0311981394215693  0.5143627668288637
  0.2245452240598030  0.2611887105181894  0.4628775289601071
  0.5615252500050396  0.9243915113837474  0.5366518838329207
  0.9476891616898613  0.7579689442981669  0.4677650963084629
  0.0144430235397680  0.8452737250695194  0.4351305609046178
  0.4525434466510365  0.9797394299035089  0.5455315722992302
  0.8075266479652827  0.0840666578979810  0.5754585342845698
  0.2951726629018742  0.1276848361304033  0.4785424239332460
  0.4350013864081457  0.3403173087745501  0.4518502133785552
  0.4538156111810105  0.8780462076947013  0.5145146981325528
  0.3997029849082989  0.5452311990687964  0.4923853854559103
  0.7527929949314239  0.9704752551247839  0.5809827565890461
  0.7025671785809063  1.0079607372356145  0.5572502222499096
  0.1832718396338272  0.1321976458992218  0.5731405097721033
  0.9359982714370406  0.6436192654691351  0.4888298846061118
  0.7692963382729018  0.3662991017349615  0.5612764751751611
  0.8100205211597686  0.9761197330938207  0.5510966012416191
  0.9429940950535370  0.1511354588013275  0.5459081770792482
  0.8787170670697377  0.3219939420816992  0.4967316000306474
  0.2067760726407762  0.4620389283451374  0.5055361289432392
  0.3982739388691054  0.4888598229641726  0.4519819083440884
  0.8601794509297539  0.3291302823518763  0.4350002212094122
  0.2348628716238377  0.0252385261182362  0.5138848180601110
  0.7101115049920169  0.5889071879301256  0.4237242231189642
  0.8483037935588732  0.0159823393329479  0.6442045369476522
  0.8879520440992068  0.7594777981364556  0.4561295888304046
  0.6963825149361327  0.1072705264634583  0.5841011710186451
  0.2407010851223440  0.0208949148595076  0.5780817343779273
  0.7465541025231912  0.2609546820761195  0.5654276435555571
  0.7296796561645511  0.4231258361205287  0.5749857109203356
  0.7562015676626394  0.4238851171165123  0.4736416267435417
  0.1869460899980048  0.0468190883512663  0.4842285325020507
  0.4933399741468566  0.4313211975776975  0.4417763141836494
  0.1460894634241263  0.0846867456301101  0.5722501939380585
  0.9137381093700898  0.4252434859359622  0.4869000340839480
  0.9721991999824351  0.0127089135830078  0.5395875814547498
  0.5942269270634146  0.8179372206174144  0.5170320318954178
  0.7094058236870316  0.3778148319100177  0.5363170283081599
  0.4121511090818024  0.0168447748473784  0.5830334852236724
  0.8678257149865041  0.9784535089477140  0.5772713694926579
  0.7536389153683170  0.8270978721234745  0.5172483599510964
  0.0373697722571229  0.0850779246340950  0.5925090657274771
  0.1208117756034216  0.3137531084204281  0.4681539872464747
  0.6103429279714309  0.9262237518810866  0.4999914573604359
  0.3080902313445443  0.5043735892282412  0.5287379541470800
  0.5007936625250909  0.5008661505561920  0.4321236290070665
  0.3718756597068224  0.7960740085618478  0.4534440707609692