C  Cr Ni
 1.0000000000000000
    21.1200000000000010    0.0000000000000000    0.0000000000000000
     0.0000000000000000   21.1200000000000010    0.0000000000000000
     0.0000000000000000    0.0000000000000000   21.1200000000000010
 C   Cr  Ni 
  17 259 605
Direct
  0.4965120398153549  0.0027361029214552  0.9128295219588777
  0.4112840341405533  0.4999758786969556  0.6728386377094304
  0.5016293248090572  0.4069789686106445  0.4879942629186895
  0.5888853020119831  0.0014941827652826  0.0051687031992018
  0.4144674287826361  0.6759632177919269  0.8409344887860910
  0.5942436159472574  0.4982451793098767  0.4907944284869940
  0.4082604615832648  0.5961751528220633  0.5788205918552298
  0.4101910356012125  0.4077708977981506  0.5795497482062912
  0.5923275933432882  0.5904929549154418  0.5866914520807330
  0.4150972482638001  0.5862842078775429  0.7580270309035594
  0.3168997104786317  0.5005638730482197  0.5816119858521265
  0.4094298370861955  0.3185261256930508  0.6779646728965374
  0.5059212034666977  0.4105959806257747  0.6737796881464750
  0.4949234870295119  0.9130694535780676  0.0058269423354357
  0.6677214361788285  0.6662137362366394  0.9177117814146678
  0.4078871851865485  0.5009328726796856  0.4864525508529032
  0.5018697530517366  0.5938393115856453  0.4902024167765140
  0.3269605487592490  0.9164347461213695  0.9185352944585997
  0.7504327309765657  0.4985439490077638  0.9176836813864714
  0.5875251941833807  0.0002999310228241  0.9145573724429685
  0.1634837553711413 -0.0006148922374534  0.4997329048551200
  0.9167200108365137  0.4971955308051297  0.9167538322013410
  0.5906433350710514  0.4092264659247584  0.4969256941261896
  0.3316339883996760  0.2488131086006532  0.7509484876461097
  0.4151174822045723  0.4163708010943424  0.1666579334094016
 -0.0015761761585987  0.6661926134518859  0.6670063340641406
  0.5000862608867203  0.3312910119145013  0.0014565913520209
  0.4126727111714690  0.2442312710200811  0.4980495222338313
  0.4141813058976264  0.2484097605054431  0.1651945981015817
  0.4126726113291543 -0.0003697546428425  0.7498710931681520
  0.4144103244153944  0.2469298249890033  0.8366841181285108
  0.9156778951943011  0.0002765549557722  0.9163549288594230
  0.9141457744376874  0.5841223607843744  0.5003628135839138
  0.3291664483929987  0.9167252294192291  0.5824905319420963
  0.0805021477553158  0.0843554559708197  0.6658476484389468
  0.4983516663690137  0.9161644641925638  0.7499341553399248
  0.8327631102255846  0.2496316485328117  0.5832600000555382
  0.8350177776397089  0.3327471384659071  0.3327062205504707
  0.7525995485697564  0.1652136837065580  0.2508974226880243
  0.5847218795211195  0.2491508453371005  0.1667936824846886
  0.4136662019797442  0.5856349150109883  0.8461971263169847
  0.6687302027475838  0.3307982811352871  0.0022535440178509
  0.3289078678936369  0.3304838333993049  0.8377569853680235
  0.1626151218635802  0.2485015624521995  0.7494816929724384
  0.4142830869549610  0.4964490956741965  0.7618932357445906
  0.7503965111343310  0.9179534359275298  0.6679101821366480
  0.8340007411299774  0.3331305561928185 -0.0004756992673209
  0.2458252433284400  0.6691828519582421  0.4142649339273508
  0.9186775633757207  0.6661834018656780  0.0828357814170986
  0.5864506140712005  0.5860534555166098  0.3278084484057003
  0.3307669449524562  0.0833406462388364  0.4140074608744269
  0.7510975985367498  0.8334870974489882  0.2502506469236912
  0.0812190538081793  0.5825525896696205  0.1649115373259352
  0.7508141700343756  0.6672747364849999  0.2498809425904580
  0.2467996077698055  0.3325748795101669  0.2497367785539267
  0.4124085071534039  0.2454817936235535  0.3309750527506511
  0.4994893236571317  0.6831377736520811  0.4967270990177444
  0.3304029642956855  0.3313625334346818  0.0009578851349858
  0.2470466544706393  0.4986689853387820  0.9186101517871208
  0.5860328283026152  0.4969099466036918  0.5839566324564188
  0.6673927630168708  0.1638298934362289  0.6665447499740261
  0.8341700837862445  0.3326775215510706  0.1677494899020458
  0.7527588148461378  0.5005034918933764  0.4135516030089772
  0.9155879392609648  0.8343880516621183  0.0822327205618938
  0.8342114754769886  0.0006774405117608  0.1672145089867533
  0.3208607183734818  0.5005549896329693  0.6726758036501821
  0.3272046207144707  0.4988319947053528  0.8396284341082365
 -0.0002626349910666  0.5009392080823369  0.6669901009474544
  0.2449872662382849  0.6700644369237948  0.7506452266369527
  0.5853637505502348  0.9148844529183504  0.1701856352117477
  0.6676826360257505  0.9182667720767681  0.4148809383474739
  0.4124694475902523  0.5897244447193637  0.4917273923291538
  0.7508606212868117  0.0818955994776107  0.4992029451913622
 -0.0026378626094898  0.0839503598795411  0.2485949523998877
  0.8338051771949031  0.8341148824207932  0.5006361105016932
  0.3294466977815714  0.4997382606736837  0.1687742169036698
 -0.0019905066890834  0.6658927939292911  0.0005903835833679
  0.3282313805733037  0.5852130578946622  0.9219904272497813
  0.5831887033795580 -0.0008899857335534  0.5825912935248525
 -0.0019296197175632  0.8350790443746422  0.6657034269099453
  0.6686136317934998  0.6665560980849164  0.0077377572181726
 -0.0020598721554963  0.2500654194357252  0.4172177427368248
  0.2471311445071367  0.5006704096218833  0.2472974745899965
  0.0813033123708163  0.7511416313421145  0.5006846510658013
  0.8349165194198421  0.6654396929874663  0.6678927851349119
  0.4137195677671989  0.0807044201786570  0.3325983071182549
  0.7572992822247033  0.6673744377992029  0.9160521970524232
  0.7525828724293622  0.8342372173666139  0.0840698777940873
  0.9167129694652218  0.0002965810583593  0.7491250318582781
  0.6681376926908742  0.3311239369828825  0.6678105554601775
  0.1640659536051793  0.2487450003851320  0.0845752262670220
  0.1625063896506355 -0.0006073683052704  0.3332666952416246
 -0.0006085515319482  0.8339518240741616  0.3325564478191221
  0.2463327428897057  0.8351046589129760  0.2484056341349026
 -0.0011909918218479  0.3329279081441531  0.6666098512805024
  0.1621740644253749  0.7508556142341771  0.0848973596577481
 -0.0013479153021582  0.9163472525498706  0.4172254837996583
  0.9137369418295924  0.9170417982295852 -0.0009128473804989
  0.8349495580495097  0.6672770646683852  0.4983052518072065
  0.0801119340099590  0.4995984141158608  0.7496390739159688
  0.7518210095414785  0.3323399835689200  0.2492017611024833
  0.3214122028219691  0.3314402665653688  0.6677563437397632
  0.5831438862848712  0.8347296757518130  0.2500231328307320
  0.5012252184469349  0.1630974510092104  0.6665227189563354
  0.6690378550074720  0.7517063451557794  0.4147481596623105
  0.4985602085897964  0.0824539689391303  0.4149414173136812
  0.4119090953098099  0.4121412415649571  0.4915058525802662
  0.3281986723012075  0.1624705577201861  0.6654057614013399
  0.6697269852305027  0.3297789095546488  0.4965251458685076
  0.0821079297201148  0.9180453433586820  0.4983885557946248
  0.4058058897087738  0.0011511729411851  0.9167325618809743
  0.1636160326769769 -0.0001006474090052  0.1664788194601187
  0.8342012331383387  0.5013999830988437  0.1660375285546970
  0.2469763335851269  0.8345457800493317  0.4150240924137000
  0.9142980142595485  0.4158660935149982  0.3326557262072334
  0.3300769384792445  0.2491124713745391  0.9178084350919415
  0.5006595422503576  0.3174831565910650  0.4960111430717575
  0.5848362540056599  0.7532125738477358  0.3303801585097106
  0.4135440226268429  0.5885523018735762  0.3287790141167919
  0.8344303844993494  0.0831381870937449  0.9173885936241940
  0.5005728155365075  0.5003110068055617  0.4931739439730491
  0.6707530930368978  0.3317743112976417  0.3297010774652731
  0.4986220257081634  0.8255472465332742  0.0049222363170911
  0.5820784174022915  0.4983102498234813  0.0853767461847636
  0.4998333295125901  0.6671311820754248  0.1684834082647728
  0.7547136775308604  0.8350868953753255  0.9177025797265448
  0.7501352149035476  0.0004252341334031  0.7473099103611773
  0.5001617062196254  0.8379996220052803  0.6676499483613737
  0.4137063764293202  0.4130624986984022  0.3280811920024448
  0.5853433231037252  0.0003480743185101  0.7481575043234322
  0.1641396208298529  0.6680359726856461  0.8346530053791598
  0.4135286354871264  0.0825616261521672  0.1667657348189314
  0.2467831700631381  0.8360164110908654  0.5820756648720166
  0.5847594059087793  0.0012812285400293  0.0949813139823786
  0.1646166149171842  0.8358544922580976  0.8343876572544886
  0.5010743249902120  0.3218769656945377  0.6687257194518764
  0.4128842488710567  0.0025382035558483  0.0884850161091003
  0.6697897961366572  0.7529583459876860  0.7498482590045873
  0.6700372597652673  0.7533982025056252  0.5839842411005468
  0.5855720469658960  0.4149646322010760  0.8375123327361259
  0.4985125171574626  0.0924956118007034  0.9167060228642858
  0.5852030593224472  0.2449783448101179  0.3287334757261164
  0.5004401666169096  0.5874360460850954  0.5836333666787917
  0.2464954705405442  0.9173552348150437  0.1672121122135140
  0.6672681486745291  0.2497495908183374  0.0860421144122909
  0.8349518433861042 -0.0006207008500697  0.3330798329694601
  0.2456827424733715  0.5840227210799854  0.0022342364426384
  0.0816815169284230  0.7504376909217398  0.1639585162323994
  0.4137782237975324  0.7541343091685054  0.3285757707613738
  0.2459235730153547  0.6664102128051219  0.2473899053229822
  0.6809803830055419  0.5832722766149980  0.5845474324457685
  0.2475680394099121  0.5833201452890069  0.1650448118831698
  0.3307015012542471  0.1650520405842649  0.4973185816911180
  0.4992727379101611  0.4134811941203004  0.3980034448255510
  0.5834741984089392  0.9181429697361873  0.6653852327296645
  0.4150997317397872  0.8333930257674039  0.2502035095708599
  0.3196998521507877  0.5909300619992798  0.5835131160661101
  0.4986942494115230  0.8349046940722604  0.4976405007754788
  0.6668326548586035  0.3311484918497374  0.1672539702952840
  0.6693388303245088  0.0849301650582200  0.0872589707625015
  0.7495916990827486  0.2509499436812643  0.0020495257413762
  0.6664962638915651 -0.0006030537302301  0.3335780731092715
  0.3275629869071328  0.8332654983118438  0.0029016915439500
  0.3298133970990695  0.2497708279944718  0.0836518687789743
  0.4979652927686218  0.0022641885709630  0.0034238207388271
  0.5064950892248973  0.5836699197682751  0.7538442273652851
  0.8336207882734978  0.7509913118502327  0.2489226553764028
  0.0808784474101724  0.4151266029610703  0.1648534418462024
  0.4126954413235436  0.5891327427339960  0.6681565944020296
  0.3229170945760799  0.5848592431553243  0.7536980761183705
  0.2463511076814185  0.0820657891284383  0.8321021998554491
  0.5775120203060151  0.6696482027855348  0.9200900284939461
  0.3287302304688743  0.6685010834878351  0.0033518074079414
  0.4137034478034885  0.6758898932988681  0.7495033503437275
  0.3242802091617297  0.6713268494384509  0.6694268969387979
  0.4984471533236798  0.1646094568571947  0.0023363187492974
  0.3304396338081064  0.0829814944508676  0.9180865789147861
  0.4981102874015654 -0.0013414585141801  0.8227599226916704
  0.4104578855225705  0.5013854566015579  0.5808292638548149
  0.4134531078474815  0.7633586030775839  0.8351599884836959
  0.3252821891717931  0.5006279385114683  0.3280105572853897
  0.3303062617387940  0.7508410388265279  0.0849684292010353
  0.9173007790946290  0.9156272697387391  0.3339146940662255
  0.4141542003975095 -0.0002955748434124  0.5810179573898002
  0.3292286551247248  0.9160155241772582  0.4150169462048735
  0.2444731015608197  0.7540429898992496  0.6672515472223658
  0.5826736372620573  0.1658265759892530  0.2514777702329571
  0.7522136490315199  0.7507760597508795  0.6664798681709967
  0.5839959167056317  0.8356755068120957  0.9176374350202018
  0.6673873927458976  0.0816317436876398  0.4156288953465321
  0.4987613272427142  0.9155125086533803  0.4158592974747453
  0.5850426543578779  0.5847566587772010  0.6753657027735835
  0.6672962451289373 -0.0000995037578605  0.6663185442922579
  0.2464773948323165  0.8349498267710342  0.9195446887925914
  0.2488179308354495  0.3309173819541235  0.0839076101465556
  0.2442991646016320  0.4999641078643746  0.7534144026379609
  0.8335677272562615  0.2500098111621138  0.7488776389975277
  0.0791146492461469  0.9176674096254418  0.3340238001449919
  0.9160292855529893  0.7534582091177079  0.3315757891228676
  0.9150428577212658  0.4166466708234482  0.5010632882579605
  0.7505607554978697  0.2479622023134627  0.4992878008542689
  0.0811528387444078  0.9175101676878147 -0.0012950332603799
  0.5861692827901023  0.2479008906424918  0.4971888564208284
  0.2451416217964727  0.0017151800533246  0.7491276588058324
  0.0816793551202926  0.3308203134417166  0.9176625556464627
  0.1647266682194467  0.0023990304244846  0.8329511200378079
  0.9143380972777095  0.1656990280707377  0.9173251493420955
  0.9153175797081085  0.3329081098880980  0.9172053987165066
  0.7513551694599522  0.4988179717152040  0.7515286526343122
  0.5945799065010994  0.4155693596819236  0.6675558938636482
  0.9174227854629945  0.1649827375774106  0.2501452274626736
  0.2461135156620773  0.0007132134889919  0.5816072102559066
  0.0814897350137014  0.4996758189679423  0.9186302094155445
  0.5021611067887608  0.4129826297336533  0.5808316073461409
  0.8338476284789078  0.3329852884615815  0.6680899763487982
  0.3189960302094719  0.5001019698757428  0.4916174303303671
  0.8337472701603338  0.0005664386662244  0.5004091104592329
  0.0795709941080781  0.7508848889492798  0.6678597027187450
  0.4983834302451434  0.4148066097913385  0.2497295794430942
  0.9151821230338123  0.4150166629336321 -0.0011525120960284
  0.3205336830724348  0.4099933493088777  0.5819397656763038
  0.9169210933587090  0.8340820901983433  0.5841415911726497
  0.9159112781189860  0.5843154663096329  0.6680923089435865
  0.0830441965907893  0.5837768157268791  0.4990334559584553
  0.0822935885903319  0.9182714090518557  0.1660756281412155
 -0.0018965273164275  0.0825748709877264  0.0819969094750893
  0.1616062404015381  0.3298175689826846  0.6665734291803695
  0.7511415296181274  0.4994408731166519  0.0854081241978750
 -0.0011452872283541  0.6669529907643880  0.8367433308416161
  0.0810334386468401  0.2478547757676593  0.3331442119059806
 -0.0017312539252459  0.8341299285055611  0.8340900718639250
  0.6686687171898880  0.0851125414642536  0.9149423833633750
  0.7515439379899279  0.9177338550381214  0.8337402323787294
  0.9167366331162931  0.4161678939450021  0.8355757233141882
  0.0804171207313622  0.0839627948901445 -0.0008789418520089
  0.1626410275238932  0.1666861967045749  0.3322625446561024
  0.2451124129614997  0.0005168576150806  0.0867868382221627
  0.2479204137179350  0.3308355446953470  0.9185201391854039
  0.2460283041203302  0.1659258902931345  0.0850748593054584
  0.9169370167960430  0.2491536306768578  0.4996922291031745
  0.8347802412032064  0.4150331340372233  0.5831996083043194
  0.3311283128847141  0.1648816644552511  0.3326987864944174
  0.1630992638863060  0.1673314160260997  0.1654257359445731
  0.5869716785419601  0.9104390748175277  0.0036513516195506
 -0.0014495789837395  0.2499249807599645  0.2503917556159506
  0.9170566847931765  0.9166213001297960  0.6663302025618292
  0.7520588508555548  0.5005600724789504  0.2480528982090893
  0.9146430403999346  0.0830670053356182 -0.0000898270928170
  0.3301641446668745  0.4996867903705954  0.0013813538840056
  0.8327428576163769  0.5817671821160103  0.0834538414718577
  0.4988494477117511  0.9117550176796294  0.9146337084076580
  0.0806857381299798  0.2492578461250571  0.1665542933763830
  0.1622275290762550  0.5820834800459678  0.0842280965101585
  0.2452152843957980  0.3304648941099664  0.4149246674012745
  0.0801386050934555  0.5831898005216335  0.3315477866411801
  0.5026411390972314  0.6676928616710034  0.0040705777359145
 -0.0018439560007432  0.0829957648177262  0.4176253388542441
  0.9167666577107076  0.5843857093512576  0.3306802894324701
 -0.0005377914792853  0.5834638597436879  0.2500965849908158
  0.5837643488117698  0.2474126881453511  0.8346964825012061
  0.0804495113609929  0.7518863191793713  0.3323298326290668
  0.8337841601524386  0.8329797411588203  0.0016054193176331
  0.5010475889623780  0.4983764253910084  0.0025840349802945
  0.5900727502656872  0.5869582047714598  0.4971857365935525
  0.5032531234519239  0.4163896867724783  0.7644613258905527
  0.3294669138181915  0.9172170243116428  0.7483638594224904
  0.5030497779473156  0.5021644033752048  0.6688436848303380
  0.7506443555251484  0.2483701849464690  0.8332013340574328
  0.0812454286336322  0.4153470224168281  0.3327346811318588
  0.0811205589329194  0.1651838895584639  0.9168183444171993
 -0.0013850935762760  0.2497538543913966  0.7508205466343705
  0.8337153793867098  0.9185814326874983  0.9162760153781564
 -0.0003073866836878  0.0821882102801537  0.5843422010231317
  0.4148201370977816  0.4103983790225863  0.6687261486703724
  0.5025822645180372  0.5838319943062952  0.9231073240562487
 -0.0015562080795826  0.7505231742539787  0.9168084910033057
  0.8334315063869222  0.5838206884568495  0.5836205776624713
  0.7516388015658524  0.0837283373918335  0.1691289161650223
  0.7524919650181487 -0.0000139911627876  0.2515772967086914
  0.6682440845535569  0.0829696190967511  0.2512118946120028
  0.0818425470594084  0.5006296595804565  0.5829877001793696
  0.6690371363917632  0.2479110854271561  0.2492911913678128
  0.8340840466603693  0.1659249974411155  0.1676451664921321
  0.9172492118623725  0.6671139886962972  0.4155935256194949
 -0.0007517311525201  0.9176543361019386  0.2491183167633434
  0.7510664398438777  0.8347554659656812  0.4165797334461895
  0.6796329636404813  0.4999590878330353  0.4991187090828320
  0.8332647721337327  0.4992111951790191  0.8350140968301301
  0.8338947991340495  0.6678756650507729  0.3318124625087087
 -0.0007322929041449  0.6671352459364137  0.1660111167150840
  0.6680772969350516  0.2478652471831386  0.5825475766713204
  0.7524184252685486  0.7496186128776826  0.0019305105202200
  0.2463909881067854  0.1650488689346738  0.5821243418987815
  0.2463679196595618  0.7528579424082512  0.4979956615207476
  0.8341721755515723  0.7494890344598110  0.0842985238917955
  0.3300454903835380  0.3303112802720561  0.3305471076330236
  0.2443735038193919  0.8360536410291263  0.7511315940973607
  0.0807172202945731  0.7509522826635471  0.8340356344017890
  0.0817890879313662  0.4147673932209015 -0.0005007485163789
  0.7513073707894968  0.5818718846552353  0.8349975971050874
  0.9176967302459338  0.8340398528217481  0.2504748647747554
  0.6668580234564077 -0.0001909333368342  0.4984937367297494
  0.8343646330230517  0.5837980851023473  0.2491961284403212
  0.8334345717940728  0.0828109265262034  0.7489621143070111
  0.7516802720382605  0.9172514590610252  0.3333861351157590
  0.7508072208585277  0.1669073467016626  0.0845120333257358
  0.9175237988735567  0.6676175963630114  0.2502461600301388
  0.6680265991780665  0.1643179529772520  0.3325688634388976
  0.4984327747737380  0.0000310169018919  0.6664349268748999
  0.9175467949284879  0.6673798656619937  0.7509090390813542
  0.8344425032747180  0.4993887571427212  0.6682869276030746
  0.4144393198301419  0.3303731008006241  0.2481375507865550
 -0.0020296011102592  0.8344122941168078 -0.0001734584600195
  0.9162368448671606  0.0830467220101107  0.5002883158735599
  0.8348517735885507  0.7504066534824181  0.5841943613976363
  0.8341413644034941  0.8337395442825897  0.3327981925621196
  0.4151059880397417  0.6666710516032297  0.0842145932068525
  0.3294602154344307 -0.0003954757529848  0.8320298136165650
  0.4996521601696102  0.7549069998956872  0.7496133098694776
  0.5857278760030039  0.7542118605694452  0.6672005154277835
  0.2455561845159909 -0.0001161976470477  0.2503067860810817
  0.2459945866585942  0.2483341194882038  0.3320123795323323
  0.5006771329011531  0.6708689419511804  0.6695435571889296
  0.9168229661015741  0.2489737962169276  0.3334047085109009
  0.6694878617140467  0.0004099921290964  0.1694826950864837
  0.9162557074039073  0.0832078547228836  0.1663481450481865
  0.1631915386215088  0.4156502231669659  0.2489311565499896
  0.5836014824731293  0.1652403196230990  0.4142791798386647
  0.1613289814091379  0.4128899736338300  0.5828171395289146
  0.5828856108898769 -0.0008722154134927  0.4164789049543579
  0.7515145718378374  0.9169293071118427  0.0011194480714626
  0.3298590393038180  0.0826081048181885  0.7487253247671636
  0.4988569855871380  0.8335571848088782  0.1692805810998797
  0.1639162567811389  0.9167347641130703  0.5830341010390495
  0.1636406491281794  0.8343145117754790  0.4990343626514450
  0.2464370394219261  0.9167199669567296  0.3325489115357544
  0.2455035558719210  0.7501333375737306  0.0019827281011114
  0.1628382300595319  0.7513291838184845  0.2489401365262241
  0.4994800024293136  0.7515192414101637  0.2490718631966691
  0.2459926886586007  0.7509350408273314  0.1667809351740660
  0.2467381363745093  0.7516149812455936  0.3313377681455912
  0.1627736756389257  0.5850001135097386  0.4130757526352917
  0.1632071678935013  0.7510358591295558  0.4150113605475813
  0.1620511557025028  0.7523595378811023  0.5827659940174720
  0.4979555080823089  0.0826957018989658  0.2499096904143591
  0.3299535388943749  0.6676443507661822  0.1663811053404708
  0.3296019016301802  0.2468671397892141  0.4141858143579748
  0.4157406372926780  0.1650683564368461  0.4147738995232449
  0.2457916389347665  0.4146991335592363  0.3306999799378423
  0.4148711024341215  0.1625444910483400  0.5794839394663318
  0.4992724542847203  0.0832872941198174  0.7483565425530677
  0.6694526112676240  0.8343987354993330  0.8335792087404752
  0.5826257311057781  0.9167755063750280  0.4987958198387485
  0.7524578226451831  0.6692511256115364  0.5831373250789478
  0.8341822430336814  0.6657849776408766  0.0015159060703765
  0.5849252019385623  0.8350414859870351  0.7494759030705508
  0.7513160804514483  0.0014523388725037  0.0861215930515205
  0.8338379014636769  0.6662739548258431  0.8332292507746236
  0.6749029836757797  0.0011757523855609  0.0013150206560279
  0.4985089853656020  0.9170055367259050  0.2492677721487928
  0.7518214221310020  0.6676889210103431  0.7501202434912062
  0.8335589353664201  0.8332474782684918  0.1665190039821400
  0.7538272746510465  0.5861847245751515  0.4972737951304624
  0.7506766483674941  0.1671790182014324  0.9172593272432605
  0.6676324827146719  0.9162459457576756  0.7503495779105079
  0.6683843188339681  0.1671939843080872  0.0014318846613114
  0.4140892989957011  0.9180271595470439  0.6651923808509331
  0.5829398595346780  0.6670838724324881  0.0857821449430855
  0.5007138787031986  0.8347211902563846  0.8324527548429742
  0.3279822548065450  0.2458583491334971  0.5823997890241224
  0.9159078073967535  0.5821447684800327 -0.0001760689526107
 -0.0005368424933782  0.9174543000886743  0.5822596550533047
  0.9172403020026244  0.8336648786283896  0.7493373524196970
  0.7501876755893188  0.0831349516772090  0.6659715984172386
  0.4127509431490025  0.9169279501722507  0.1681282299660052
  0.8342640655292075  0.8346520743342412  0.6668058266993014
  0.4998798734702768  0.6706105797958246  0.3288679728740297
  0.7515175007310948  0.9180177316597313  0.4993292231865888
  0.5849654059734254  0.7516472407554915  0.0034031379100128
  0.9150725983495899  0.7505269681164675  0.4999994692874682
  0.6669144628872479  0.0825140429659333  0.5824819326435240
  0.4145155313885852  0.0822711583423458  0.6652126353224559
  0.5847011053549458  0.8330203619543639  0.0872967109576946
  0.2467213541426773  0.2476619843590793  0.8333254206235645
  0.8342298819634356  0.7512528516650527  0.9171506461937947
  0.3301149384638955  0.0001781418311983  0.6649564938341448
  0.3298866330931157  0.1663206515126037  0.8336785715650463
  0.8345426620675503  0.2494120598963109  0.2499001612205384
  0.4142889103331859  0.5005533803195095  0.4003078071167041
  0.5848895203245625  0.6716142057535706  0.7503836731172082
  0.7535351233805532  0.5839592223871337  0.6698353531106755
  0.5834868299082098 -0.0005758034057632  0.2497217453727381
  0.9159349153315572  0.9169983923292556  0.5003786566002183
  0.8336718614470019  0.1659038192531256  0.4999641603518137
  0.6671361170948030  0.5779733643269984  0.9193443289982474
  0.4156535445689566  0.4151031857722570  0.0019445236353003
  0.6689753229318973  0.7554795621004433  0.9178223329836976
  0.7516286658688096  0.6685232619104688  0.4153961885193084
  0.7518189318088888  0.8348705331236007  0.7494820741567836
  0.9160145936349251  0.1663950373451578  0.5829238489599770
  0.9160264512254833  0.3335562007555619  0.4169780625382278
  0.7523641157735695  0.7513598659386118  0.8333782366951226
 -0.0015561503716612  0.1655710179379443  0.4999170498292921
  0.8344526148818950  0.1657767601768387  0.3331443444722322
  0.6700787811694238  0.6692986762948456  0.6679418243159030
  0.8348913636393800  0.5824326311418849  0.7524003735177008
  0.5846933683187470  0.5825660394295356  0.0048515617581610
  0.7503370794173686  0.5837878565972869  0.1670502359804273
  0.9164887350417349  0.1658329684472126  0.4169770201793659
  0.6690264367302829  0.8332195369815656  0.1689860844607852
  0.8331568592129645  0.0819964708340154  0.4169205985499133
  0.8329410041526175  0.0823038013013166  0.5831092442389048
  0.6672269806083382  0.2484681964699047  0.7506501610708196
  0.8344232769702753  0.9171140373647517  0.4165571312352060
  0.1631578910459609  0.0840835795798379  0.7489871548729654
  0.7512795938808466  0.0819219520707591  0.3336655932755859
  0.6684380412915779  0.6675701558503017  0.1672438335069348
  0.9162554809196589  0.1672980210525578  0.7491675244558642
  0.6679374616496420  0.7511394733149888  0.2495639288858402
  0.9164073208574702  0.2490268817313105  0.1672736953553827
  0.6680349246198177  0.8345585063669647  0.3328312725270662
  0.6681440429203560  0.6684567468807493  0.3314313543863416
  0.7518305402132193  0.9167958166815112  0.1683043123106154
  0.9165910994258338  0.2500643763146979  0.6662363544258264
  0.4129544568450024  0.1660490204858385  0.9184420106433376
  0.1631330088370109  0.2485134644016002  0.4151595990716578
  0.1615945541713745  0.5008322131747688  0.4954894182941563
  0.1621175536322084  0.6699100894922674  0.6674935809165660
  0.0816018312174221  0.4164772471498959  0.4994112320342906
  0.0812700119258571  0.4152352020554673  0.6669816268683765
  0.3271330230688473  0.7545144179956930  0.7511492691875536
  0.0807283678382368  0.5847307803891773  0.6680855209916096
  0.1639234211424437  0.4982977829871841  0.0013443130945542
  0.1610311380778395  0.5868543238695386  0.5824460990311402
  0.1608930690286978  0.4998613739591060  0.6703586324451164
  0.1631512015775425  0.3308608287677570  0.8349818782321804
  0.1629980327065601  0.1660450091320281  0.6665304466593932
  0.2471910426940294  0.1661504076823706  0.7495065475183872
  0.1640490310539411  0.0829445873396995  0.9170787668022559
  0.3288853482586214  0.7527388335342623  0.9201825972796974
  0.9163591393171818  0.0003903812917248  0.4173600675615463
  0.6675647335193097  0.1647533153060869  0.4982396941067371
  0.8346117411887678  0.5005951849316416  0.3314498377843088
  0.8332264138585896  0.1663132215645572  0.8328891678306654
  0.8330748918918591  0.4161928467757705  0.0839936546032624
  0.7505354192712669  0.4151487877461608  0.0019160125776269
  0.0806022413455139  0.9166037485293530  0.6667306767055184
  0.0802366521628161  0.8338005654714543  0.7511570038037008
  0.0816865494246245  0.0007123202545864  0.7499216575408869
 -0.0013435423139931  0.9171698888676733  0.9166039654028543
  0.0814054939896674  0.8341374130610787  0.9168221878532886
  0.0817068838600348  0.9172337637574608  0.8339476739507207
  0.2466427505012075  0.1654958838537250  0.4152701689371959
  0.9170549346034794  0.5824976380022139  0.8349823237266800
  0.0799047226701194  0.1658413445518449  0.5830119815568623
  0.3305074799736630  0.0820418145234690  0.5814994915911472
  0.4144452967496400  0.1646929058494284  0.7510302110671092
  0.4144460005170745  0.2487766298090023  0.0012633440306166
  0.6680863387469248  0.4143968409712931  0.7536681492785902
  0.2480605528648986  0.4991921860891331  0.0841719208588553
  0.1634274208590301  0.4151706624187511  0.9179718932531047
  0.1634787876263221  0.4989162536657545  0.1666087343661269
  0.1627822154231933  0.6668201840527198  0.1666495372091746
 -0.0012301419371038  0.8334601414506313  0.4998634779300942
  0.5845278085925838  0.5846297919115536  0.8363120310263089
 -0.0015202754291680  0.9174727339192099  0.0826514560526072
  0.1637750265410816  0.3323700127962288  0.1672665750026257
 -0.0013936802825466 -0.0002484274618716  0.1656050560119121
  0.2457187961535270  0.2476653132808107  0.0009246845943449
  0.0809021851641730  0.0011991643093334  0.4163572465855785
  0.2466300098137095 -0.0002793885379523  0.4154112387841309
  0.1632562221282868  0.0835546541376332  0.0834903876528246
  0.9163689204639716  0.6663109615326450  0.9175616832087478
 -0.0015599065805232  0.7504251716316702  0.7512942696955270
  0.0813697233241014  0.6673917316644632  0.9177171315755407
  0.0808955683266610  0.8343458382245650  0.2488083691346183
  0.0803802091661490  0.8347172444584929  0.0827238384864698
 -0.0009318773619879  0.8341378124013591  0.1658938147059064
  0.9161395740430688  0.8330959704074525  0.4171603637956143
  0.1627600085155718  0.9169136840577956  0.2499951181882866
  0.2460519045929492  0.0831207318998550  0.1674300972989352
  0.0816363431842579  0.8333298478918552  0.4169079890350252
  0.9156004043481126  0.7499166590957794  0.0002147962938561
 -0.0017076880146070  0.0002232164905045 -0.0002045862079232
  0.6698328951254461  0.6699358781134149  0.4983620836272601
  0.7518185074591780  0.8345359172517677  0.5830508538161961
  0.4141909947583005  0.9165918584692277  0.3327534484561936