 C Cr Ni 
 1.0000000000000000
    21.1200000000000010    0.0000000000000000    0.0000000000000000
     0.0000000000000000   21.1200000000000010    0.0000000000000000
     0.0000000000000000    0.0000000000000000   21.1200000000000010
 C   Cr  Ni 
  17 259 605
Direct
  0.7450185209472323  0.0018054706693994  0.0081675246914171
  0.5803884740782944  0.2517447608438955  0.7528387325051930
  0.8330453143749142  0.0913667119785493  0.8227503545117696
  0.8348027926239262  0.1828599906208312  0.9202197330274831
  0.7436549600552870  0.9056505588266892  0.9118597882315590
  0.6528124339396932  0.9077686640565339  0.0078233949847781
  0.9267471201329252  0.9979792655482571  0.8230395153146741
  0.9258818309916630  0.0898403860231183  0.9194555294887626
  0.9289182673602876  0.9064719134404283  0.9164124755180565
  0.8369700621026319  0.9069049637290016  0.0087784376967479
  0.2497420451962910  0.2494285238107542  0.7510243012849833
  0.5817524287191355  0.1629819032839483  0.6650298319567594
  0.6459742695250880  0.0990075691547467  0.8178562575572371
  0.8351886597797046  0.9982005135584257  0.9155483088293096
  0.6499281072830049  0.0001405131837660  0.9130393669286428
  0.3288569664631399  0.9995913554869174  0.7515447257585214
  0.7410742015640555  0.0944734617871507  0.9169510689701589
  0.6659422737352617  0.2515603693253007  0.4167222120003540
  0.4904478045701078  0.0017973830321749  0.0067993370283302
  0.7458118628159317  0.9112681194903938  0.0037069943052387
  0.7477097214600338  0.1686979802146842  0.2508751476933436
  0.7479388757502496  0.0013725090295632  0.2507756532919733
  0.8360391670389362  0.0001780769865008  0.0066942636114761
  0.3298422769147579  0.5003685288301863  0.8341328824047720
  0.9976605620594897  0.0833493048984129  0.4152635907260753
  0.4975274633910462  0.6670159604802747  0.5000872079810506
  0.5808579784145800  0.8299375594466409  0.0869626471417694
  0.0831160136448545  0.1679422384936018  0.2511130912643018
  0.4139326653356706  0.8325164645505450  0.5828275369355976
  0.5817050411539261  0.0840359094996065  0.3355750112961726
  0.6556919808784782  0.9115974277645980  0.9165776313699983
  0.2479283104041046  0.3369672849718417  0.9181841947441910
  0.8321481069631076  0.6648045938726486  0.3353968233856056
  0.8321629404749337  0.8290109434573623  0.6643256466247005
  0.8328483096765482  0.9967109210081458  0.6633600476219562
  0.7484047389701648  0.8302045010753754  0.2529329663779960
  0.7485062504807789  0.7442087281939381  0.0031469563123997
  0.4955002559919958  0.8300207511898171  0.8321349150624961
  0.2468101637166360  0.4162525100232345  0.6642341826677010
  0.8313004503345564  0.5833382873942217  0.4160097171213128
  0.7495541417956608  0.6654923786182885  0.5805892924010201
  0.5817975195043676  0.7488653492018426  0.4995747230727060
  0.4979086741648480  0.5826601104393743  0.4168266954340395
  0.6645007363727458  0.5832081323721717  0.0849770306995594
  0.6652569520843897  0.5836006603227476  0.9169835871233432
  0.1633234822371105  0.0004939206876381  0.4978762284187367
  0.7416108197243148  0.0872439944883172  0.8256107306894356
  0.4957239170950491  0.4996252708561019  0.4989006152482492
  0.7503090314003653  0.3390079948261789  0.7471086031977772
  0.0843118307642512  0.8312570244182298  0.0873247587823039
  0.8315957101405781  0.8319497401284863  0.3328120736078833
  0.9189180454063695  0.7460966542505626  0.1720444200993371
  0.9991727505923743  0.5005999663295185  0.8340703764715329
  0.7476391505171339  0.7466846952017976  0.1715104953872676
  0.9985911827242998  0.9172114093924063  0.4159688420484002
  0.9161828031086843  0.7493277533679158  0.4975062043831315
  0.0849029801891673  0.8272514458228203  0.9185028840605416
  0.9148415088514191  0.5823551194904676  0.6631797649014686
  0.9991878425471266  0.6662430826721242  0.0013091153264681
  0.0008177378738728  0.7460982530273191  0.7465479071138806
  0.8335483896856005  0.5833770308932421  0.5805747181881528
  0.1652907838598694  0.5004187983807309  0.3342075490864446
  0.0846444788298642  0.0855193082292837  0.1703474940214848
  0.9177001405797887  0.7485215828012376  0.6626215843358383
  0.9243784700778348  0.9990970381722187  0.9144736311514212
  0.9260804627974001  0.9139081112514732  0.0063526450876208
  0.6642705969543562  0.4198426281839967  0.0871417673459683
  0.4966031893034607  0.6650155523800728  0.0016804369346962
  0.6652187210273173  0.4185116573977077  0.9178617806727835
  0.6669946350374566  0.1847660954853783  0.8340532073199374
  0.4151148679907820  0.5831609491608819  0.6667568044730803
  0.8311563412458091  0.2509381503764704  0.2495164476521355
  0.3311132025494032  0.0834267819422313  0.5806684668253367
  0.2497518905822176  0.1666544948204576  0.4172207741645594
  0.7475390422824092  0.9986935367686660  0.0971085543277896
  0.7457956966976258  0.0909244993166898  0.0068332583094134
  0.4980521181975213  0.4998547232259651  0.6677859383273339
  0.9194509602344209  0.0853542019827410  0.0105094286805538
  0.6662810964614547  0.5007909505870168  0.6652626351951956
  0.5798781276294352  0.6659011910213694  0.4182468381084019
  0.0019758909779817  0.1698915765547011  0.6612924501891224
  0.0833052561211299  0.6648022017113577  0.5807931151598151
  0.0012430722212800  0.1712211528904997  0.0059916913934881
  0.0858363255307358  0.9990482264911345  0.5782451000545666
  0.0813949307683337  0.1674670018417342  0.5794587643332803
  0.0141968226222420  0.0844923418323392  0.9199291185426476
  0.1653867544164838  0.5015339246059675  0.4990171387788015
  0.9173980645516846  0.0842112629504154  0.1693953463962065
  0.9159987437061825  0.8322717655594819  0.5812605873153520
  0.1657902154638177  0.5816642433689937  0.9187442376038367
  0.1655948666390621  0.5807767197076565  0.7500604096171594
  0.1660871748068249  0.0003243707120706  0.3334527143884458
  0.3308069931413759  0.7482086094314576  0.4167665908776340
  0.3314678207596201  0.2512349697854604  0.0842517186545349
  0.2457801384278929  0.0852056015302548  0.8369292115790086
  0.1662177529580665  0.2516057742639625  0.0847939252592301
  0.9150619108697235  0.9993040095666927  0.4154442988390147
  0.9241345273965970  0.1784038947900226  0.9198419272926965
  0.9237114916226906  0.0882023824225365  0.8276155438238950
  0.0820757058815872  0.3354470338822393  0.5809846508414694
  0.9991138350013034  0.6663985607989272  0.1701237188560356
  0.9192321025624219  0.9993747861207122  0.7339625181099316
  0.0834290418464081  0.5825027094659502  0.3337154470482282
  0.4975394495330864  0.5842779235275939  0.2509671397682710
  0.9165404097688395  0.9174109885725100  0.4975941928479359
  0.7474533687906910  0.7483254021920481  0.4987093067072679
  0.9984528087953450  0.5009981619622947  0.4980527046608397
  0.2484061595623497  0.7485665156403113  0.4978833690649557
  0.1597389478343127  0.2532379436505673  0.7488947538705860
  0.0819573350839390  0.4184177080663949  0.0035670103688382
  0.3301899717118210  0.9998265972431658  0.6596453714494664
  0.1644815798397436  0.3371449843218668  0.6649117504594521
  0.9192858542471711  0.7443032153580073  0.0037629760667420
  0.4144405326476468  0.6663868638327972  0.2494892651832170
  0.2487134959368937  0.3368444561692721  0.5832078196563618
  0.9175008134687234  0.7463700632348520  0.8297320579058217
  0.8312980254182759  0.9143760022999070  0.0970655856633256
  0.3324758280492391  0.0004171974549736  0.3328562095711159
  0.3312567914364727  0.2505188176490457  0.2517945679704803
  0.0831901529824900  0.1679895777646206  0.4143523867698828
  0.5827746138441315  0.4188186670933303  0.3336486990842589
  0.8326528461242463  0.8264066110466023  0.8282287588896819
  0.2481496620126134  0.9158231448208553  0.4974386128947269
  0.3326500505574250  0.0894493370853815  0.7507284010738731
  0.0803929977680163  0.4219054308490380  0.8332614891068220
  0.4136615975269919  0.4173714746646032  0.4978818444823790
  0.0820036366219114  0.5004147753771041  0.7493102543485005
  0.0172886212415045  0.9142601203509960  0.9179679311181622
  0.3317750794849733  0.4994186442287137  0.1677954865455380
  0.3312801544943888  0.4189215458530254  0.0860335016028206
  0.4150233096212961  0.4999250015605025  0.4165936409114805
  0.2484892136342473  0.2517591725834494  0.8416264190509603
  0.4974282767809719  0.3331356842221032  0.4982875733825745
  0.0005827010923783  0.9159159781689515  0.2513475306508685
  0.0831156098797497  0.5810426256509210  0.8323615686757931
  0.1650120725063924  0.3328334879067066  0.3333761341148601
  0.2475371091835739  0.2520332174400332  0.6602409170634113
  0.1596321834677890  0.0849337169630516  0.7481165651014766
  0.4132455179575933  0.0007670138588781  0.0854109648037876
  0.0828502455084218  0.2516116273800664  0.1698743121993902
  0.2476168391518391  0.7480637201339260  0.6659626560558923
  0.0001454017660439  0.7492692497300011  0.4168157569492604
  0.4902031780291635  0.9953055976437808  0.8325077852229341
  0.1658243425950354  0.1673944661632027  0.4987856037696713
  0.9164206477322013  0.3362655681531099  0.5807415329322737
  0.0175834947781203  0.0008948185636346  0.8311482707698941
  0.4978577095789425  0.9994638340674868  0.4973109068746699
  0.6674027576118664  0.2545739229811374  0.5814205383807113
  0.4967630693051794  0.4185626923511632  0.9173658332261777
  0.4974904346002159  0.4996265186308620  0.8346208225699188
  0.6653712948023758  0.5825283683085445  0.7487938487922110
  0.6657407524251038  0.5017572118205654  0.1675984512796823
  0.2471251974016069  0.8333095552746077  0.2498412014832220
  0.3305081417345379  0.7485790620991988  0.0834577115881625
  0.4977394298018993  0.4998538642263566  0.9999015561775584
  0.9157699664392502  0.4187261322856202  0.8332768031471937
  0.6636233933265080  0.8331297801996673  0.3334884757247369
  0.5790507026994923  0.8320698722062506  0.5807357949944392
  0.4978790628562625  0.7482264973403822  0.2505811416755576
  0.6631144653625484  0.9147950337029731  0.0967777113490184
  0.6642980342409911  0.8279824428464768  0.1718801674986225
  0.4135469825244271  0.6648678847738082  0.9172359146606311
  0.3295862802331239  0.9101647392862136  0.7487399425215449
  0.2494260120355647  0.8307162158190955  0.9181131746942240
  0.4979622652498710  0.2514016350377167  0.4163684916665047
  0.4134349583708947  0.2509606361605845  0.6646358203775774
  0.4950776146210286  0.9981965416591470  0.6633215374904193
  0.2502932517778936  0.0837842465136727  0.1694019275603206
  0.2485023770546080  0.9153028609570659  0.0018995710186122
  0.0864345490512471  0.7470981446801557  0.8314540597766427
  0.0839586892585512  0.9166288668306596  0.4976336600417556
  0.9996724343699031  0.7480560071318919  0.2503561004911846
  0.1669277019531226  0.7478013967627191  0.4165870069861897
  0.2494745261419244  0.9155584384662110  0.1697325742275670
  0.1673674735542524  0.8325496219304017  0.1688281049625580
  0.4129621169100310  0.6658375302868721  0.7490847213248467
  0.3306668767936036  0.7479313270664010  0.7498988905439529
  0.7470963109897031  0.9146138274095263  0.8220113010686531
  0.1667585596813549  0.8300746187904198  0.8331565335184601
  0.4971230050716532  0.8308374104038465  0.4993126499364172
  0.5782713607292248  0.9151359057976297  0.1682024486085147
  0.9143353486035318  0.2523632528824142  0.3350323034478686
  0.6555060125301290  0.0002980467394548  0.0047829831873734
  0.5783432605340083  0.2543729362647092  0.0026179742194801
  0.5780259711891648  0.0849992135285087  0.1702266281643483
  0.5790496397008947  0.2524906157851114  0.1688586650599249
  0.5809883117641317  0.3417105687673099  0.7497752276443473
  0.5813990779598907  0.9155293309873770  0.3343431516397046
  0.5789071187656941  0.2543122014659192  0.8414229407536401
  0.6642924272206514  0.9953750613633354  0.6618908091206419
  0.6615178255136838  0.0030685593514262  0.8226547712051309
  0.5811385947987454  0.2534069543539608  0.6624842137287478
  0.4134883227817351  0.3371690753962719  0.9191867384924839
  0.4121943998585265  0.1690167640423764  0.0856895713139530
  0.6650424048256603  0.0803832469594289  0.5808061575106197
  0.3320195539195746  0.4988095741775260  0.4987642588742626
  0.5833214339661982  0.1609078819141592  0.7561151757156196
  0.4962381914560438  0.1691227849501362  0.4962285705671666
  0.5808335862619394  0.6640403054570880  0.9168761570033660
  0.4148593501274499  0.1682695816189453  0.4175848007678745
  0.4142501901367702  0.9998493990337126  0.2525043781173814
  0.6534447143835390  0.0895027058769660  0.9135607962270230
  0.2387121953602645  0.0046783757033839  0.7515718478314627
  0.4935976826964326  0.8288117462791789  0.0020412385968249
  0.5808782914444881  0.6662251967096781  0.5803574415927061
  0.5824112171447076  0.6647750896692308  0.7504055798794285
  0.4140148915706310  0.7472897597195038  0.6680181022603664
  0.6643789034327827  0.9152880306016647  0.5808565935441971
  0.6642356591885059  0.9148480932531642  0.4139017259694215
  0.4146749174185495  0.8317543968516499  0.2513123351812127
  0.3301940860225006  0.9163707500676032  0.5813180352229231
  0.4986792159152366  0.3322355978078437  0.1694939428170766
  0.0850196273532564  0.9984792653661273  0.7446636631338702
  0.4979305733831376  0.5003651265295753  0.1673152028674750
  0.7440793967926524  0.0003648809552671  0.9153599041860078
  0.8317033215151683  0.5836580766966076  0.2545627323075368
  0.8334842388587325  0.4192428359584355  0.0856251248301695
  0.9995418823464752  0.3354136242463244  0.6634685206649117
  0.7473823390457222  0.3346970962854228  0.4164102962046356
  0.8318624679460322  0.9115155978771302  0.7453629146696025
  0.9175833321167880  0.1703503064932723  0.0859213901530577
  0.6646194730729869  0.4186731986617279  0.5818466648631597
  0.1646043247259784  0.7467590672883546  0.7476748344133132
  0.8353330100466684  0.9082331951499097  0.9166034403893030
  0.4129236685084439  0.6654806038038198  0.5843502078625702
  0.9140913327188586  0.4171654459533121  0.3334495420069145
  0.9137944680718337  0.3347735038845358  0.4152379105301377
  0.9985403730373531  0.4997347081268957  0.1687203117952551
  0.6642439272272928  0.4994941883918159  0.3337550203899964
  0.0835815189060539  0.2547741068594345  0.8330169455585510
  0.3308742440658513  0.4178177267944641  0.2515357220954498
  0.9996057440871944  0.5001986173643658  0.0013161295901393
  0.7488646443521549  0.2527777490044802  0.1715138903656422
  0.0852848282345881  0.0007486814540839  0.0888787834610298
  0.7476410324211878  0.2575249355442539  0.0068819679440430
  0.0829922281498466  0.2513974337608578  0.3329233341912349
  0.8331859471997696  0.0901256115178107  0.9145284470708172
  0.1663878496461276  0.1695344463437512  0.0035149176583907
  0.0829141550675775  0.3339694518649398  0.4128179304824778
  0.1655951105176598  0.4998697217433400  0.1671227277150012
  0.9150946237885393  0.0830036880127428  0.3344465515990562
  0.0828977079351128  0.0874932147392481  0.8331667742338001
  0.6660866404141765  0.4993684829235990  0.4999543158384781
  0.4140972830927790  0.4174816436958875  0.3329561882965248
  0.7489483673099087  0.5014864439167315  0.7489400122579296
  0.9186859596662980  0.9112300271882479  0.6617738697628295
  0.3394238284744063  0.2511809508452399  0.7505328233574349
  0.4159555491821054  0.6637351171091548  0.4177546045777056
  0.3331776722432022  0.4990573697255337  0.3335712853810854
  0.1670705058881280  0.6668541302724328  0.1687763206461692
  0.2467789331336380  0.5812860737491194  0.6667294842084535
  0.2485691985534487  0.5828581265403041  0.0010062130618874
  0.0831179484379918  0.3340022051391651  0.2513883404649586
  0.3309118080723857  0.7483729634175784  0.9183833930386116
  0.4992666700718397  0.2515556377720579  0.2508065901470121
  0.4156221575342995  0.4196125671607828  0.6665095055953614
  0.8333928287662826  0.5834789292082060  0.0851509943637841
  0.3319107173570438  0.9158247151210503  0.4158934618460144
  0.2496749984602955  0.7479455475831495  0.0017200316080821
  0.2473357394972100  0.6650504651163454  0.2491800054078985
  0.4135067191454446  0.1684571404960022  0.9202587249907426
  0.8338724544125530  0.8162480439475660  0.0029759208822631
  0.2466345658507759  0.1565756326940276  0.7513036306535018
  0.6621734334966585  0.9136621464952502  0.7472096421668432
  0.0015331741003717  0.8306061759952694  0.6612973414885701
  0.9191266163601978  0.3392048682927540  0.9176451706065494
  0.6650640497689876  0.0831164470820200  0.4148300199521721
  0.8341224707717833  0.0859108939885548  0.7338430418144272
  0.8335832216944963  0.9987354405785528  0.8241881179602674
  0.8332520923294722  0.0003419402814442  0.4981812075706729
  0.8334940387220739  0.1813716550573317  0.8283892792508849
  0.8322014805393020  0.1678555947004631  0.4980139263347170
  0.8325002041306073  0.4173940551163922  0.2523264863323666
  0.9156769631352986  0.5810938378672090  0.8328736427289375
  0.9190089315145050  0.9084669167444878  0.8261914788085813
  0.6623904261612736  0.7453243782541901  0.7477123679799040
  0.0818991592142159  0.5012498702274871  0.5805190537176595
  0.1660738610216800  0.5822970046099668  0.4158689217841953
  0.1660546771937527  0.5817591051635170  0.5821396655304368
  0.2486754012742758  0.4993531546884775  0.5827147925181513
  0.2487864174627691  0.5819046750938103  0.4988692522751813
  0.0815278578608558  0.4184640347541399  0.6638174670331043
  0.3310714176605267  0.9987797548897079  0.4988334348476840
  0.1660543341677798  0.8306590759420817  0.6645705066734199
  0.1654323681840631  0.4178447017108723  0.4164082546454175
  0.2487305493142039  0.6657294428469879  0.4161388223557729
  0.1660094658449835  0.3336342540057455  0.1686488528850053
  0.4139088529800963  0.7488323320491415  0.5001608907653601
  0.2463788220397153  0.9153012041298553  0.8342576724323225
  0.9154123597397025  0.3371777950899847  0.0868317562549829
  0.0000865183349613  0.6638676653861056  0.8322281809624070
  0.1673087025238822  0.9999757563557535  0.0050321966970917
  0.2487155424694079  0.4176391082856819  0.0024596737484195
  0.4971850730616373  0.0842340903605443  0.2517622654324713
  0.3316117773669215  0.4184384666003263  0.7495295973019466
  0.2473459296061220  0.9998922812950531  0.5801905273053374
  0.1673629389425901  0.9160434224579900  0.0867727851330588
  0.1640944890202565  0.4184646192029978  0.5801066680542319
  0.1659687392770999  0.6656709692371608  0.4991576814656575
  0.1660765140651326  0.6657490585803897  0.3333201686785802
  0.1656093368417539  0.6641545831162181  0.6655004681020109
  0.2480293569045910  0.4995272263876522  0.7498138930648404
  0.2476871467715569  0.5821123712449712  0.8343049667362901
  0.2477087938516555  0.5000306619831060  0.0852331336922592
  0.3311034213494256  0.5820133578568606  0.0847816124054607
  0.2492343418047978  0.4176756332396950  0.8347484143726688
  0.1652923744794781  0.5828132769805652  0.0852187907913011
  0.0819900739033343  0.2527785814120587  0.6629573677359698
  0.2481418374459281  0.5002072752518466  0.2503659844962972
  0.3321951173947104  0.3353794113132301  0.8354476224350390
  0.8317336204294916  0.9148820837101475  0.5809785470547729
  0.3313603875681027  0.7493245727972284  0.2499400535224459
  0.3308629192762867  0.0839207640895300  0.0855293385791693
  0.2494034889252053  0.9998289063550175  0.2517463851437917
  0.1660710355118261  0.9175629788439741  0.2514350667526619
  0.3311610195011180  0.8324999503351397  0.1683212456409635
  0.1660639460885880  0.9167594438633183  0.4155714179272785
  0.1661129875073137  0.7481811949871514  0.5816580745419716
  0.2488599489170970  0.2505723282081137  0.3343655291745038
  0.3320206710411023  0.0836628166723030  0.2514851380275285
  0.2482293422387619  0.0832349882686403  0.4981549332181707
  0.3320261986945592  0.9163055120899544  0.2516112309002907
  0.4978573551085724  0.9159886891211848  0.4162268518252601
  0.2489208118911347  0.5000802655300445  0.4158296948793274
  0.5818880936009735  0.4195821051613973  0.8348053923907921
  0.2487056680126197  0.8328127313599994  0.0848557944530685
  0.3315395721753861  0.5824341411849563  0.2501770580735066
  0.4140455556381126  0.9989122602208526  0.9188671284531439
  0.4133822684219853  0.0845168634184207  0.1686325495567031
  0.5820040162700449  0.0827804062190794  0.4976100737339215
  0.0827599859008523  0.5827955401614222  0.4983298527948468
  0.4115477206238198  0.0852281751061959  0.0036776169564933
  0.8320071951241524  0.5013241691185796  0.1686291450544265
  0.2477304037449371  0.6649053867637568  0.5828378596018613
  0.2480836360632394  0.9156695070130391  0.6646732001200343
  0.1664824015187963  0.6647146797988773  0.8332353559413757
  0.1671820434435314  0.7472877618128589  0.9188525290794662
  0.2485046613650214  0.6648630876174894  0.0847563769455262
  0.2479055320531832  0.7476832591210280  0.8329749557044827
  0.3302139057343894  0.4164588042554870  0.4157867702336736
  0.4136376271515660  0.9158097553716448  0.1693543675088628
  0.4134514548860402  0.4190156196817850  0.8346383870150710
  0.4144897309814053  0.0835786649721387  0.8357617770166222
  0.9991884111019667  0.4167813397897260  0.4153051375621497
  0.3312844612708301  0.3351578414440378  0.0019107880297268
  0.4147121275782680  0.2512356756454742  0.3339691764256920
  0.5628904195210109  0.0798035696375067  0.8364968127772210
  0.1655665249927208  0.5818951280269982  0.2502601064995273
  0.2477104162091810  0.4180775573964073  0.4987280923468738
  0.5807327260240179  0.6648081518170269  0.0840663609364871
  0.9991321410537488  0.1687270529282405  0.1695938658942180
  0.3310006442870808  0.5821009470754706  0.7493905641972353
  0.3322881820811098  0.4180445099550773  0.5830773529632146
  0.4142096192343147  0.5006981873512610  0.7503938096908204
  0.4141465606160424  0.5832965523726235  0.3328807032506885
  0.3314734423815910  0.5822744429393364  0.9175700842061889
  0.4143807057414039  0.4999329408212902  0.5829035410872292
  0.4137197671664815  0.2517581390391144  0.1686714281928468
  0.3315444538140840  0.5000203786867471  0.6666732835790986
  0.4142741218217721  0.5004723954857746  0.9178083721063764
  0.3321062968438323  0.5829672522089026  0.4167324854848958
  0.4141011211496999  0.3351548794772398  0.0858922651910058
  0.3315705232566931  0.4182363445157883  0.9186039003432388
  0.2488833778598829  0.5824658992836700  0.3328676404889611
  0.2472802631136602  0.1685721766854694  0.9191412370145863
  0.5809298861885133  0.5826460453714892  0.3340285210538511
  0.1648049327207530  0.4179919871708951  0.0854554186773983
  0.4136327965367980  0.5825307695657106  0.5010802420105125
  0.3310181653004168  0.5818412084390721  0.5835932666839907
  0.9159414423768465  0.5014010010618021  0.0857105278747874
  0.2490803329192869  0.7485840725926745  0.3332772919809919
  0.3304202876478640  0.9997087074267141  0.0023014664955230
  0.3315805705184214  0.2524041390610507  0.9194966389332969
  0.1644804378131787  0.2538968922945788  0.9187668083141480
  0.4952859228328106  0.0855589068298413  0.0867175236490246
  0.3318864335199256  0.1682350149135083  0.1682092916008252
  0.4974487287694806  0.5820668478416132  0.0840672564965856
  0.3314167816491431  0.3337077115231675  0.3329310038168425
  0.2500140212057096  0.2515048611292313  0.1676890855664948
  0.4969379289845460  0.6659554728433561  0.3341192861241469
  0.4962764967029967  0.3366791906831550  0.8358314640064644
  0.9158190043044082  0.5013188967508919  0.7492882477103801
  0.5821859885368346  0.5010030273824190  0.9181917305565662
  0.9998893048703045  0.1678746655542414  0.4970918148940369
  0.0023684019917273  0.2566946367735826  0.9182906465107531
  0.9155311115546846  0.5824344232220841  0.3345683376449607
  0.8335648288877170  0.7464787038796229  0.7467102506077783
  0.4146160396633702  0.5824284692119217  0.8338041349098266
  0.3320995507780074  0.1678069439384395  0.3337165664448354
  0.1663470442812236  0.7488381659139796  0.0853823570144989
  0.4135526844088790  0.8315272047388337  0.0845695716002337
  0.2492093646496764  0.7493744565643967  0.1676999908331671
  0.4146040238239599  0.0843374631260261  0.3344560681963720
  0.1663305136013181  0.7486474962166692  0.2506199905447430
  0.1653920356656895  0.5000175789241205  0.0016124127500981
  0.4147736533239374  0.4998456420297450  0.0851986955285910
  0.0828360026360628  0.6650244643035079  0.0859566386019940
  0.3312361022012684  0.6650258789516111  0.0008440961053267
  0.2482910708655811  0.5824385752213834  0.1677084460362874
  0.3309710392565349  0.6661984708388559  0.1676740198511497
  0.0835041544990559  0.6642282403635565  0.9167307585347688
  0.4948286787454488  0.2537980782720904  0.9202353312297259
  0.4953674646437426  0.7468276512876370  0.9171379566573438
  0.4164886476791291  0.9972165090992047  0.7478329932951367
  0.1646910467018631  0.3340367561568525  0.4987366051695541
  0.2490040317683287  0.6651337234809805  0.9174047482591901
  0.1661993678353424  0.4993768941645533  0.8346377166497894
  0.3321047749667137  0.2515593097661933  0.5823460498178302
  0.2482246620108075  0.2509650224085504  0.4996259196570291
  0.4143911916549582  0.1666185986181764  0.7497886469163643
  0.4157835117662950  0.5005480401778918  0.2497489560568654
  0.2481576927955819  0.5001241126192149  0.9186255539423975
  0.3318915671976191  0.3348734228436481  0.4995785120078899
  0.8320225364132510  0.3361827952641421  0.1688223091776525
  0.3320385219199150  0.3351944500301027  0.6656976723449224
  0.3306056619678077  0.4998328788218386  0.0020639030639717
  0.3313664209600802  0.2509018637792317  0.4169524668103268
  0.4129385988660066  0.7474047926385107  0.0009424371624091
  0.4148393914940767  0.5829726499990311  0.1671527358889184
  0.5816228413717391  0.4187301379562903  0.6655382078482203
  0.1662285068247650  0.9153934843098458  0.7474238242408613
  0.9987246262604182  0.2509071713831629  0.2516123356538945
  0.2497084917869392  0.1675576820997525  0.2506782611717605
  0.4968482988667478  0.2521503205209707  0.5813476217176645
  0.0832270216812029  0.0840631300943003  0.6613327137768873
  0.1651973126947651  0.0846503333618272  0.5801088809005617
  0.1664928063100509  0.2498810979408599  0.2506759875511831
  0.2471640296498264  0.8310217482259346  0.7491143807540170
  0.4982160990957338  0.5828183413274267  0.7499769610694820
  0.3311248312388629  0.7485079187950825  0.5832650120262198
  0.1648967185235558  0.4182699106911180  0.7497251534008061
  0.3293000403910269  0.8307080801638944  0.8337060672957436
  0.2487492420471127  0.2526979648318922  0.0015184052399952
  0.4974166611449798  0.0001227820104789  0.3339368346328654
  0.8333781654145727  0.4194565046611675  0.7478642337538054
  0.2466003810249179  0.0841084056378395  0.6636986380791946
  0.0006657093580391  0.0837474009849377  0.5793290489334477
  0.9159174829465283  0.0834914084117548  0.4985596829046509
  0.8319385243351493  0.7477613834137512  0.5799978282893364
  0.8343361570667631  0.0833298510451363  0.5810706490712662
  0.3312855609282742  0.8317028355967813  0.4992361938408169
  0.4136821103683873  0.8322596739942250  0.4169654636574452
  0.4940481090041146  0.9155903937016985  0.0875636336342436
  0.4146838565206250  0.9155611221586203  0.3339673149968534
  0.2458035594196096  0.9994807320557171  0.9194087397621936
  0.4972524496966922  0.8305418054163280  0.6650348858172648
  0.4139997457805811  0.9161079464622273  0.4990945070252177
  0.4132739098125192  0.8310316708851433  0.7487056874878437
  0.0035631229253580  0.0860429974137184  0.7440626300349839
  0.4136750790153341  0.9139906587415679  0.6642602315519845
  0.3312111932169082  0.9164020100329811  0.0855199069252344
  0.4135167888463385  0.2525905684218649  0.8370749705271152
  0.4119507510028263  0.8304002804061439  0.9171208012791264
  0.4136464537880888  0.9155072480422349  0.0015345247807976
  0.4137847367397713  0.6651637624878159  0.0837921042779813
  0.4966643696290335  0.9156643369876463  0.2514676819528386
  0.5816763969121912  0.5009818652850240  0.0846685242922091
  0.1637348740710997  0.1695248324400843  0.8361918973930496
  0.5793867178080121  0.0004063656420492  0.2524815316474158
  0.6631095451352849  0.1685444632525175  0.1690833299501155
  0.1659972089672459  0.9997143158480389  0.6625089934597687
  0.2495052333150559  0.9163431082404265  0.3336214019936983
  0.5818423364767347  0.9995682822909371  0.4160866412564010
  0.0832409436912779  0.8324523751881653  0.2516476056397756
  0.4138564850256001  0.0823898760954810  0.6626260037813245
  0.3323094089003110  0.1679993867790751  0.8371468460266330
  0.4141049899366261  0.9986082270592660  0.5807001884296404
  0.7485640207106907  0.5007783854260406  0.9178950210880820
  0.4977107645600173  0.0836564567295140  0.4164722761259758
  0.4933373394890652  0.0818641415563255  0.7484867075493182
  0.6679043887958699  0.0824896375195639  0.7344010893708808
  0.2487429284029091  0.0002286701922772  0.4158613641509796
  0.1654777442167017  0.0843458094080064  0.4154462795939635
  0.5792589066955398  0.1694605156635302  0.0863175841928657
  0.1670735821780952  0.0005554746797247  0.1693433212124422
  0.4950037957689417  0.1700310419585200  0.0035525171437672
  0.3320663061322378  0.0001302937931329  0.1691041390209830
  0.2492123909419595  0.1687431498348226  0.0855073175795686
  0.1666714849300694  0.9146858719236441  0.5805239238521057
  0.6665861596301501  0.4186993011450721  0.7490883580415070
  0.4147473057277328  0.5819436035663759  0.0009654306185404
  0.4964170874773551  0.7481872133706510  0.5838408974782140
  0.5805566945041084  0.3384558108762039  0.9200407263387725
  0.6643254854273297  0.2513812192886448  0.2505827224944950
  0.7508479487095135  0.2549795580189514  0.6623037916469799
  0.2479573145637839  0.0848310469875993  0.0022633186009034
  0.2491865474357454  0.0000504531236228  0.0864800771930165