 C Cr Ni 
 1.0000000000000000
    21.1200000000000010    0.0000000000000000    0.0000000000000000
     0.0000000000000000   21.1200000000000010    0.0000000000000000
     0.0000000000000000    0.0000000000000000   21.1200000000000010
 C   Cr  Ni 
  17 259 605
Direct
  0.2553557187142552  0.6719600026669980  0.0068236124513140
  0.2490513828781611  0.4192378163545378  0.0942456643533253
  0.1636013891201452  0.5802903874138319  0.6646572931684617
  0.1612157361686186  0.5768885333693385  0.0055145293314679
  0.2536662810689827  0.3318816244818239  0.0031704944556719
  0.0712783566143211  0.6705161183160917  0.0038408099086979
  0.2518905623133667  0.2426640447332896  0.9113933825606974
  0.1696749855547503  0.7624477403758372  0.6704084294131029
  0.3422359027051361  0.5834373282079314  0.8276537479584222
  0.0710422407911050  0.6732020660695140  0.6660931526901155
  0.1585593135488662  0.2451057711334517  0.0033481936196836
  0.1627516241114988  0.6725543979904948  0.9114742808026371
  0.2564556592535709  0.5827855459091275  0.5743626458076726
  0.2518669102808460  0.5785086708841001  0.9139626083409625
  0.2543057641898483  0.4926610667595118  0.6658388261231472
  0.0710730677758487  0.5783570595547776  0.7542555597865378
  0.1642527485572738  0.6732024742322016  0.5731346729513819
  0.3398408637519827  0.4149129837904659  0.9160522848292856
  0.1628675953300591  0.6715817609907840  0.6662137894936344
  0.0807891594821614  0.8347570290089100  0.2516130132305369
  0.8290885830212669  0.4983627682195501  0.6678272768003378
  0.2476179708357850  0.4962070469558826  0.4119563722661934
  0.8296157902275543  0.2490108555579163  0.2501616602320098
  0.8302087803870285  0.4975344862050319  0.8340919593316006
  0.9129209003956169  0.5836939682800129  0.1685616959035329
  0.8321604877768987  0.6676208891189611  0.4983853963827793
  0.2536458467359831  0.6705630926988216  0.9146507494240207
  0.9111847010695212  0.5803211904296958  0.0020424175691272
  0.2493757383142268  0.6697360785138327  0.4118430029777094
  0.4182647210316381  0.9984264524348948  0.5821218119463655
  0.0739271089387739  0.6701855064465310  0.7569109206396011
  0.2502438431826076  0.2433448479606240  0.0017707235247084
  0.0785472624135253  0.3303778619239224  0.7485636078213334
  0.9107353555042831  0.5805620601127557  0.8348395069179908
  0.9813467272300203  0.5821797387752722  0.7521468103873161
  0.1628011835719860  0.5805368293022166  0.7545000081030302
  0.9949122762618435  0.4123420353854668  0.5808881041938045
  0.9145937808087778  0.5842343976977533  0.3341765326852082
  0.8298757785930382  0.7509150723321220  0.0844842370542895
  0.9135214851569801  0.2481608428386466  0.6661723734092633
  0.8315154701907095  0.8351626468571556  0.6662062138691573
  0.6628166463230353  0.3328130892665840  0.0019071543367241
  0.9967849175065380  0.0019915966812017  0.4981698521851936
  0.0739625815189788  0.5819378292878504  0.6633214124868115
  0.9119547951337328  0.4137384485498158  0.8332453874632884
  0.8303718349725898  0.3319691899215019  0.4991699092813820
  0.2511748958729964  0.5815705497702301  0.8242650361703042
  0.7465239063930039  0.2482094530887318  0.6654213452584915
  0.3359222647842084  0.8374849271493127  0.8324010341635785
  0.3441469196070311  0.6678044582433788  0.0008910221182969
  0.2511553448152029  0.5079462183780776  0.0924469778251712
  0.5007122755366501  0.3318929224899716  0.6631854528099683
  0.5010064305513696  0.3321284708971635  0.8322905669930711
  0.6660342316909056  0.5007320048465768  0.1686778739976716
  0.4172134161545065  0.7515836132251075  0.3336888415968979
  0.5840115684886146  0.9990255276636465  0.2507387135603319
  0.6671645612351741  0.3296950772694980  0.8312851296672706
  0.5833897011386782  0.1656960497153784  0.0825411456415820
  0.9118379810476804  0.3291517625043616  0.7489263958334630
  0.9146779295330735  0.0828164660518572  0.0022879739729078
  0.4187736905948931  0.3306046537574164  0.5817070856642034
  0.4196146275396906  0.5000561130407597  0.4138753474949232
  0.2533287301583340  0.4208281234781188  0.0040347415730602
  0.4204831570905875  0.6716622751278413  0.5812742896924508
  0.7480616396577554  0.0002688409513071  0.9171246572777197
  0.4160782392451165  0.0001512743335563  0.7491527490859892
  0.3337803215525486  0.8353201345892403  0.4984264623554515
  0.7488666795265331  0.0811847682655384  0.4982590496733790
  0.6645031432930903  0.9987876898961461  0.3318209185420524
  0.6649998027324193  0.1647841099243329  0.3329785811802486
  0.1627694147054261  0.6675782459587347  0.1717118541217834
  0.7459534215539304  0.0833821124790938  0.8334746029784477
  0.0767808648163727  0.8359314997375294  0.5784332348143320
  0.3336762981637262  0.9151459253873866  0.0834778692822467
  0.3338499389401611  0.8345801791565204  0.3317896504592732
  0.3340001791345589  0.8371733598722652  0.0021382637351937
  0.4993524652764582  0.1646822130405495  0.6633256821281268
  0.3364249930831284  0.6735527988771131  0.8320611536876460
  0.4144678350948538  0.8326397453271585  0.2504764331018270
  0.9136215288749260  0.2493164487474741  0.8325122895047687
  0.0800649024963316  0.1656187141413146  0.5819951945512005
  0.6640759503740975  0.2493558371911642  0.4169085278022206
  0.3342852221037732  0.0811384022114206  0.2513327601631714
  0.2475972779257939  0.0014854663184916  0.4173229882336817
  0.8290356150398036  0.2481970025038552  0.0828588000408604
  0.2489453246162383  0.0821674117372636  0.4992635794418874
  0.9126373274833730  0.4141675427154207  0.3330022806565643
  0.2489700382635041  0.0799818617104631  0.6645580167461549
  0.1604291070955397  0.2473284266227355  0.9129875286495158
  0.9954306636711822  0.3323663994210275  0.4997863439198834
  0.4184193052255095  0.6697830153043588  0.4130820676256233
  0.9139599990047160  0.9186474060836146  0.6650308281700379
  0.8320012330231220  0.6688293299295983  0.6659521051775594
  0.1639912993143554  0.7631915299625395  0.5792032874705089
  0.2494221446328236  0.3289427070194536  0.0931306395120119
  0.9963554539081337  0.2484881218897315  0.2514637170161038
  0.4176358902119605  0.3319847112515883  0.4159832411221387
  0.5840052834590669  0.0814380218146862  0.4999001010734502
  0.3390055466719372  0.4981593866854214  0.0031106233782453
  0.4994678251098383  0.1636367778773934  0.8320186344342677
  0.1653109006474918  0.6702303895144306  0.8214404979599610
  0.1649985368233322  0.3299692054008644  0.4968916446412580
  0.5000718384156957  0.5003274712950865  0.3352357013507234
  0.5007484588565323  0.6687337480977875  0.1674291998492722
  0.6661360779068756  0.4164491799156010  0.5826031132352956
  0.6647885031693542  0.9194246339814455  0.9168902551946295
  0.3444646903485967  0.3339263467455862  0.0017313812182331
  0.1641942988348477  0.5822164188921494  0.5746282174704364
  0.8306661722730587  0.9174615369556322  0.4162798589790658
  0.2532134394059581  0.5830482124133862  0.6660567735044286
  0.5835369820143319  0.2488158975612111  0.4986775624358260
  0.1644800796977725  0.8358859372380633  0.3331289241999350
  0.9948364448017417  0.3310909356185690  0.1698071760345620
  0.4987578197881694  0.1645712246936710  0.3352106450690185
  0.1644004647965925  0.8372189891909928  0.0014078085858861
  0.0790878568016203  0.7606925206694864  0.0007407308549397
  0.0767027147066643  0.7632630886107988  0.6666457510877016
  0.0729497890234135  0.6706069391512125  0.9129420019755266
  0.9829030777452668  0.6670603996389750  0.0022791087891856
  0.9914498152106829  0.8375007397227199  0.6673685425412712
  0.6656605092903491  0.2487758685681453  0.5817660191655022
  0.7473454572440119  0.8342720666367183  0.7514316847110613
  0.8314014435232873  0.9156799860843148  0.2512341509805252
  0.9927373075366476  0.8389253678512810  0.8339302976596829
  0.4155921859386177  0.1635667185156911  0.2489535075425039
  0.0784887997681581  0.5836249466589437  0.1706623849194014
  0.7456607117911731  0.9192213512953028  0.8364281226252467
  0.9122418895402254  0.7515197226551832  0.4977196295937450
  0.0739569302099450  0.6703463104959255  0.5759756447634121
  0.0719707225087335  0.5794058065405343  0.0021779394298348
  0.5827225147706668  0.9990581135084570  0.9174030003871623
  0.1579982150231417  0.4170352648307775  0.0887381275416061
  0.7481638875278066  0.2484761703587106  0.1665629089414381
  0.9943797936500438  0.4141087269827773  0.0878162545617326
  0.5000104388498127  0.9162393759293720  0.5828158069359628
  0.9086054750494719  0.7526741257210402  0.8359091427359557
  0.6657175084704476  0.1642616295487339  0.8331714380841496
  0.0800619288671702  0.1651698980088904  0.7469403840605139
  0.5843052023833283  0.4167505360504224  0.4995565537035955
  0.9977793349181187  0.1660069647248909  0.5000964328831584
  0.4191407296479572  0.7529007044375082  0.0008143509840108
  0.2480251419701679  0.1653039031975698  0.4155614009790747
  0.4997565434813980  0.3328974870602638  0.3351453466477992
  0.7461976971672645  0.0821486246899430  0.6637457392528893
  0.0804052591766872  0.9999547891561701  0.9187628592826865
  0.9126478297753511  0.4149024095739839  0.4998901938409626
  0.5814799863268096  0.4146356593435712  0.0006318804435122
  0.3337959157193798  0.1624427251322939  0.1696345516921538
  0.8300965710961309  0.0009826446230463  0.4991526594204182
  0.5815702274845610  0.9984718612515682  0.0834323662638944
  0.1632133289627455  0.0806318205720618  0.0858729758860179
  0.2520443030762934  0.5790583630369083  0.0038281432977103
  0.1616475920687539  0.5804192777635430  0.0966106463808633
  0.8305585327744737  0.0814898885015654  0.4179674494387752
  0.3356643960612451  0.0809826661466060  0.9169189877826850
  0.4174191202667388  0.2463634437413397  0.0026285096429112
  0.8301715887008713  0.7511607869481561  0.9168037918139543
  0.5854870354223102  0.6688048538109630  0.7498047282554625
  0.2505076325580599  0.0005362339733659  0.7485116525734149
  0.4995546385133133  0.6686999067148761  0.3351175370275991
  0.4184263456113033  0.1654775129449808  0.4154413917556308
  0.6652239626656410  0.7504066078582275  0.9174441558229800
  0.3430107487395522  0.2475276626056703  0.9151595848117987
  0.2530531350632425  0.3342805101929404  0.9137970357679996
  0.3350899958095688  0.3312398680893973  0.4977469728334973
  0.9963599829004824  0.1675495392601946  0.1693125263892763
  0.9145763061735460  0.0834937408203536  0.8341605658443747
  0.7497046052463417  0.4161958308742408  0.4999028589209500
  0.2498868551259409  0.4040688222124946  0.6632060252367732
  0.9944303440607790  0.5830973128665220  0.4140553649714259
  0.2499225459648057  0.4148684343554151  0.3328033362949596
  0.3340698202554661  0.5856278423306496  0.2535003106436063
  0.2514761343663811  0.4162275898973085  0.1832075822397171
  0.2546364151096087  0.6723753220457180  0.5800434364499325
  0.9948739163401956  0.0010539458386747  0.0024759856682650
  0.1614037024270844  0.3380860263104793  0.0009883343574091
  0.1619118153931636  0.4108263029516803  0.9144534777339305
  0.8306429754605550  0.4987150064885160  0.4991862564478043
  0.9978220191870126  0.0005581695798154  0.3329951233224109
  0.3348907147979098  0.3309043638044579  0.1706047694722226
  0.5833721562339396  0.1660370923142704  0.2524105514791756
  0.1638216312846341  0.9176053357525018  0.5784303898121851
  0.3340959775280469  0.0807029946908574  0.7475519521288361
  0.8292843254946378  0.4145362058005185  0.9149329021059929
  0.7463373751084477  0.7508743660293644  0.8347776523033893
  0.5829013382660220  0.5840515076231594  0.4997740044683416
  0.1643922448968857  0.7582085532682998  0.7593656385714158
  0.6665326719661709  0.5837749801312581  0.5813132782031899
  0.1619273807708368  0.0801221577524014  0.9163086494643238
  0.7465610051363978  0.7508181641094425  0.3336150998429541
  0.4991172713137759  0.9171162076526300  0.0846050352609396
  0.7472514322048392  0.7513372009976741  0.1659840510083498
  0.3358739100950037  0.4160230522172408  0.2517619835706582
  0.1646546173051983  0.8372433183402737  0.4957516295600014
  0.5836009712294997  0.8333761553562408  0.7500237645022884
  0.5854379466501676  0.5009896599110187  0.4164939531041831
  0.6667504193756382  0.6689577009919544  0.3342351963482046
  0.6677639495719788  0.7505885288479135  0.7505805102979497
  0.4173210663560844  0.9977137614809662  0.4175604198116211
  0.3404178199499582  0.4165865389572354  0.0901105285638190
  0.2479787040148003  0.7519278065867963  0.1702240837405764
  0.9131828094280106  0.2484314659138911  0.0026887798252944
  0.4993021993936464  0.7511236687709132  0.5823735307738765
  0.6645128845763985  0.4988018949094297  0.0010155648094117
  0.1649494268248564  0.2487670197843495  0.0928404553298995
  0.7465834063693466  0.5838869248647517  0.1667869258257450
  0.3344228471012686  0.2474799799827316  0.7468473048091300
  0.4181903083452914  0.1654405220566357  0.5835477029332659
  0.2485879070869721  0.4930604682498088  0.5757531110642219
  0.7472000668033187  0.5863800760851695  0.3340450299803288
  0.8298523659814052  0.0822870666166618  0.0845328198620774
  0.7464516588329698  0.3308379380010508  0.7497889810891454
  0.0792328613416056  0.4142665566992154  0.3346196147753369
  0.5033398183860319  0.8349052347543841  0.8327622040939479
  0.6663346094449135  0.7514857844919965  0.5824796963596695
  0.4991231600527257  0.9179268834009864  0.4154043269709446
  0.5831129871672410  0.8331956544993054  0.2502404720177137
  0.5817449608804010  0.0009049834976455  0.7494393509629470
  0.5025801637790951  0.3319308018460655  0.1691795728210596
  0.6644545580709588  0.2480598875920238  0.2515682818621229
  0.4146511039051883  0.9998087966754456  0.2497292567353399
  0.5828129005619996  0.5013554005491964  0.2525615569033084
  0.7488761448792174  0.4157806971496796  0.3326596807128427
  0.4202011667446408  0.3330062480718091  0.9144241016592294
  0.5004166211592316  0.3316610422275297  0.0018692567203341
  0.6672360605214511  0.7500928873687022  0.0852606395519277
  0.7502525113317183  0.9996046855681268  0.0845196936145475
  0.9132412925092047  0.8344306885861680  0.2509542819942807
  0.5828464826362733  0.8348292373576588  0.4164818726391246
  0.7477782798869599  0.7529179884432305  0.4998065170635564
  0.5038450095056284  0.5848406118251219  0.9177163635531280
  0.1614447355603256  0.4861774820871902  0.0016982823572285
  0.5014326005001368  0.5847542352555851  0.0857673237236416
  0.3353987957646960  0.8372313378720597  0.6652750669486817
  0.5834472156233005  0.3323577680100226  0.0844256489787424
  0.7445716077992772  0.2480145694913990  0.8339293785544263
  0.5846622369790893  0.5002982116410609  0.7484803050564532
  0.6646584001355176  0.1642791927111204  0.0025025277794282
  0.8310586872395710  0.4998773607488163  0.0009318449750442
  0.2502019737021589  0.1514276075947824  0.9143609025215474
  0.6664699605187877  0.6678939650609308  0.1666568176005345
  0.8305260677707568  0.0815775598607029  0.2502419551411526
  0.1653251069173556  0.0807012247757590  0.2511715411814497
  0.5020062064161024  0.4140679454969440  0.9142434544225549
  0.7480426115848585  0.4995818199067354  0.7489018964836490
  0.1646425924594571  0.2483104616521499  0.4174673774433904
  0.8290587566290191  0.4172879307004533  0.2524669653425232
  0.5828307432802472  0.8345834040261538  0.5816327175107694
  0.1628649169449170  0.7636694126791940  0.9152037966522251
  0.5824840790231115  0.3328690784475516  0.2508804838142263
  0.0790730223812214  0.4887569342609766  0.7489745967572284
  0.0787785373476820  0.5841096952085583  0.3346570527651967
  0.4199249645624909  0.5834422340470726  0.0022978248372470
  0.3421526134869892  0.5818637767407879  0.9190953715193066
  0.1628885398711080  0.6684875908385054  0.0026332475506507
  0.9949420076581457  0.7537681014609289  0.0869637914731661
  0.7481792853980080  0.8343718039410838  0.5818787310431522
  0.1619935442682604  0.5804549636169891  0.9142431637948732
  0.9138666563747772  0.9185992630945139  0.8344166858921375
  0.4205244301321778  0.4986813639895082  0.5816253253731526
  0.5827027028950608  0.6667317835167765  0.9189356226610189
  0.2485579660557553  0.4929701263863431  0.7553463069780965
  0.7485144799935036  0.0817558546782359  0.1666947418443548
  0.9972398193969818  0.9997681055077048  0.1680336458960585
  0.1606275605317277  0.4908297502065839  0.6653530916201850
  0.4233226155489425  0.4976388151341317  0.7468057291800088
  0.1637838265534545  0.2470655845252075  0.2535152836625529
  0.2502505612003398  0.2451158466040778  0.3359028077977282
  0.2482783437684807  0.0812151230410373  0.8300058758845149
  0.2505703391878218  0.2459897620398150  0.8224421182276797
  0.2499784388092844  0.2496965193872298  0.6656717483668125
  0.2482607391930146  0.9174155738745750  0.1677337141872713
  0.0799226320690456  0.0004722411144190  0.7497344218200622
  0.9112455052720563  0.7543198901070356  0.6654865917132874
  0.7479457911111660  0.4158696850769489  0.1683397284260635
  0.6659862455910214  0.0817635753857737  0.5835388367020490
  0.1643511270789638  0.7522347685900427  0.0860270569574860
  0.0777260582553160  0.5821309097831826  0.4965674352276040
  0.9943022390179945  0.5820705364054016  0.5802061981263753
  0.9951648081874108  0.4959925171798271  0.6651068307099378
  0.7480312227265170  0.9173505691578454  0.4986140874542788
  0.9954808276229871  0.4976015242243000  0.4983364372925734
  0.9965512623123788  0.2482789766208720  0.5821930197938701
  0.9916301308225540  0.5815067243474263  0.9173876096053484
  0.9959422257980023  0.3299956024264086  0.6657781806412740
  0.8293655800241214  0.3301033640557571  0.8330218239961719
  0.0793097407673057  0.4134767959823701  0.4980758423283440
  0.0809043826683443  0.8356231826031667  0.0865194170360721
  0.0788399694215741  0.4116442710007843  0.6636710233136447
  0.9932524953736618  0.4132648402587543  0.9169199190927029
  0.9953783579228306  0.3299189114154479  0.8323357183590886
  0.9944034165136713  0.4121218284587994  0.7482754118796971
  0.3325156395942671  0.9993413020355705  0.1669816293595630
  0.4182675917512692  0.9171446697075408  0.6660796341459515
  0.0749494591088714  0.5795975748703329  0.8405401765018112
  0.1649441989798724  0.3299805030141707  0.3342562224315348
  0.3327722416881632  0.7521239193539904  0.4152510719915973
  0.9931555436214512  0.4974367661491583  0.0026741241879813
  0.9115508501914292  0.7533769140688537  0.0019171104670701
  0.9971494507601241  0.9180936445040948  0.0856121993137902
  0.9112443941064654  0.6671150163914651  0.0873340396413678
  0.9969943475137792  0.7515301549932815  0.2507017384048796
  0.1626618070279236  0.5841952330711835  0.2531073352215431
  0.9954301837445603  0.7517009356258370  0.4150368949680813
  0.0777131769345244  0.6671507026291059  0.4139844550315640
  0.9927284540049058  0.4951263820291926  0.8335287694925791
  0.9958518121467174  0.9188266476972972  0.5811087178748510
  0.0787052186903090  0.7539311309897342  0.4955425511972641
  0.9088704436364640  0.6697317965620041  0.7521094804422273
  0.2522670573471951  0.8378584735808058  0.7500426078546769
  0.9898824391212059  0.6696868591728312  0.8350276317263287
  0.1642382281499341  0.8407362011514349  0.8334433338141291
  0.1651447985507527  0.7538353205829040  0.4137648184459598
  0.9946596975416722  0.4989860998692804  0.1706120016662205
  0.4994503390817772  0.0816222438620089  0.2505494386231759
  0.5819907959604265  0.0815758244987857  0.3333846474329777
  0.4997253181508284  0.0809530916456320  0.4167348276331145
  0.6645609992701430  0.9162933259834204  0.4151872090768405
  0.4998772818752272  0.0818166740527225  0.5817636866109024
  0.5000602652330340  0.9997138876236681  0.6655757837321039
  0.3319491012757630  0.7507598370442964  0.2511212817601452
  0.5005546160405467  0.7511460173637156  0.2507466004380697
  0.5821610486184206  0.9166941458727850  0.1672489134395553
  0.1639618008024691  0.6682940270873422  0.4869518746739745
  0.2493661218875645  0.5842228567884645  0.3352758603504127
  0.3358033688769348  0.4993724031930233  0.4968875131983828
  0.0785347713912365  0.3315043090146070  0.0878191478280879
  0.1635430119192187  0.3314587986078931  0.1729786924638068
  0.4171601661178823  0.7520827512632304  0.4974201250362107
  0.4190676273147703  0.5846880050934388  0.1699462968739457
  0.0757469494388683  0.7572688076005339  0.8347880519362584
  0.0797886546819779  0.3313264106322316  0.4159416056561664
  0.9953942458927632  0.4150341936530920  0.4164173319671420
  0.0758882332095086  0.4981333756821097  0.0884973450377824
  0.9925222351341060  0.7543550835856875  0.9174237378904987
  0.4999198232596776  0.8343947834651418  0.1677743903099076
  0.5818707999657632  0.0827762167321381  0.8329525018458684
  0.4996908550327456  0.0818579594540049  0.7489309675512669
  0.5824427879782114  0.0817219689009833  0.1676103634338913
  0.3342282229774827  0.9178318686614972  0.5815184720275935
  0.4176300886417628  0.8350370789759415  0.9169837030515421
  0.9949915688869092  0.4151240924247870  0.2524227568764382
  0.9953502690587417  0.6675905808486775  0.3328990353477208
  0.0784708778541610  0.4978564641439829  0.4145605242099357
  0.1631784722475378  0.4987904448994381  0.3336381979433896
  0.0786701233452158  0.4970347625414079  0.5800486954152680
  0.9954192385465078  0.4992864023152941  0.3333505351475152
  0.2487998360542856  0.6656657933743423  0.0933285056132103
  0.0805359530997760  0.7522059083442995  0.1693512551721185
  0.1649788496565779  0.9174685642635761  0.0858071785757004
  0.3343782752124437  0.9174231073526095  0.9168470352104751
  0.9962385208670671  0.3316928197156703  0.3334107849930700
  0.2499105266089500  0.3309023598724312  0.7487407076338339
  0.3359076011258697  0.3306616649258348  0.6639924838496418
  0.4197551154776639  0.5009286028068655  0.0876224771857681
  0.1634342561766750  0.4105338518975628  0.7497268698386693
  0.2486872103410068  0.5020412289404906  0.2544691996371515
  0.0752775311857309  0.4134849718147575  0.0027885725000564
  0.3352555371991762  0.1627200124518600  0.8296345247289850
  0.1617286319037892  0.4990654576299879  0.1743454944640755
  0.9134037034207000  0.9188981929771003  0.0024158200060000
  0.2493964465510203  0.5851534500286099  0.1738939854598741
  0.0778564367669629  0.3311503356592881  0.9166855589916956
  0.2492133933042478  0.7591669603627461  0.9999275535850313
  0.1640747756058472  0.4122692274589341  0.5791987627883857
  0.9973720946544904  0.9175918341548276  0.2511186849069040
  0.1636677390581461  0.3300356209691122  0.6648315503245563
  0.2500118594319954  0.4140763638983392  0.4958726521801016
  0.9131014735799017  0.0826439281825981  0.1684096631268718
  0.4180212570777558  0.8347957808908379  0.5821376667392923
  0.0764666006587502  0.8390991220936754  0.7520615591011546
  0.4220481551503815  0.4980067659787737  0.9158936005526527
  0.6661226766421345  0.6680329677019691  0.4998278625968556
  0.4177105985436758  0.1647337624765948  0.7476638027804491
  0.4207291960333782  0.4155290461635802  0.8297000091795799
  0.4183027225774562  0.2478462646772226  0.6649826907417176
  0.4181463149894599  0.5849708936598254  0.3334643189792830
  0.4189105882981001  0.2471881184436738  0.8304435442391469
  0.5019213207655151  0.5002494399961852  0.0010135544553437
  0.1626226749534476  0.5815827476034741  0.4134855568239599
  0.9942293342933852  0.6681248535555457  0.4964970271021511
  0.4163495857354951  0.8348263637820036  0.4153358870161661
  0.2507347183708431  0.7536620241970821  0.4967114632145174
  0.3349796957987676  0.9188561761614195  0.7492840644028715
  0.2569470254567900  0.7533992646902888  0.6651743735978288
  0.4179076966573980  0.8354657092121942  0.7503479633288433
  0.3361092411808213  0.7538125683281970  0.9162486527267109
  0.0809145930266130  0.1650438130860943  0.2508359543530600
  0.9969761585990119  0.9187910933222524  0.4152688934268776
  0.0795095730149986  0.2482438237026169  0.1697993635636282
  0.0804894965360663  0.0828058165048182  0.1684427686002526
  0.9971604150321859  0.0825554569143715  0.2498143214322676
  0.9971979184494342  0.0830063377327983  0.4168342715698022
  0.0806009305339394  0.0005774074352442  0.2504561158888932
  0.0803128835587704  0.0830685619493673  0.3330083258315841
  0.9137666408400587  0.0007501287368005  0.4156516833773931
  0.9971363998071467  0.0835126896066521  0.5821935709176318
  0.0808655997986813  0.9181563110837810  0.3330102331961670
  0.8291475276591086  0.8363467991843765  0.8346812352914564
  0.0797686180102452  0.9190755162766612  0.4968286324882272
  0.0804529642834397  0.0821086633556948  0.8319961746977774
  0.1652063321143132  0.2482843116711147  0.5815387415897093
  0.0801633043510430  0.0001113826084632  0.0853460503789174
  0.9969209779179560  0.0831890484736950  0.7493523825651447
  0.9141831056828341  0.0827286136124056  0.3333581884385279
  0.0798798243886104  0.9183824270982629  0.0021165936189553
  0.0808309896499440  0.0826435675015915  0.6656179453711121
  0.9965174692008707  0.0825479300383608  0.0856878152414724
  0.9946053312899190  0.2491865040937208  0.0871232925444640
  0.9971874681025845  0.1660962393500228  0.3328558968690655
  0.0799978522453933  0.2478828477287078  0.6650135694378720
  0.0803575438841615  0.0835005657485405  0.4994634226943648
  0.7476894224937201  0.4987029970467098  0.9172421444641783
  0.0813524296192405  0.2475088360239326  0.3339157793686439
  0.0796840437964127  0.2475636224385543  0.8308759736988055
  0.9968957816347892  0.1652419046919912  0.8325527942937805
  0.1636486385509705  0.3295234298521033  0.8311883629099852
  0.0791541314332723  0.0815159737566514  0.0023365463268172
  0.9964298810512330  0.2476284123247013  0.7487351109260805
  0.9935864479471120  0.3319878948388628  0.0021481442027517
  0.1636866054059449  0.6673869661963854  0.3344515982377293
  0.0797235726326191  0.3310657651974687  0.2526377674949412
  0.9967573201098973  0.2487154411414528  0.4171526222137017
  0.0794402698227891  0.1651056744750599  0.0865330377577224
  0.0780360525841728  0.4993183414262037  0.2534532310298451
  0.1643898560790249  0.9171345587906803  0.2514228604453430
  0.3323017601264249  0.9174005496235113  0.2503354464337480
  0.4161275878630920  0.9170511375735472  0.1676598579826190
  0.9099315751518334  0.6667033236847748  0.9168993051410866
  0.3331421063522157  0.9176967688536897  0.4161539774964845
  0.5818773905111314  0.0821235425453238  0.6653175659665630
  0.2479216928013877  0.6684599260428732  0.2528801448086986
  0.5003628185893682  0.9998652955315793  0.8329111177385434
  0.5014602597976787  0.4159450008241021  0.5810008341573858
  0.5014885112907219  0.0818563469403344  0.0845225407027236
  0.3349510933450689  0.6679588759773167  0.4963062992380761
  0.2528800994930134  0.7559380536582101  0.8326684610140157
  0.2513424388764919  0.9191495810592991  0.6652944948441624
  0.2516646676819471  0.8375444793613008  0.9165353773314661
  0.3334699141615319  0.9995454983929404  0.0013372982966673
  0.5833301961608628  0.8339774905115777  0.9175667538249889
  0.8303740325841068  0.8346284880035565  0.1673228521779086
  0.8307059379434774  0.8340232948044000  0.3329628126819612
  0.5037756202785330  0.5837364990556436  0.7474163713468462
  0.9139919117968461  0.9179370017706405  0.3329542763177097
  0.5013141856278595  0.8339923567311894  0.6658578876974048
  0.5021719706834185  0.7516243932779066  0.7496161516463679
  0.6641768126464800  0.0015472963373407  0.8323021955530601
  0.2524468955210351  0.6709201877511716  0.7480088046170943
  0.5014355555266234  0.4165393414777460  0.0867649155919399
  0.5013693607409092  0.5859658053910854  0.2517867710092109
  0.1638195215343260  0.9211142244128593  0.7502987125736170
  0.3356054904238668  0.5019179798052985  0.1725062427628748
  0.9934338656398636  0.7534561936460991  0.5802486161152859
  0.2512358366676398  0.8368034903714160  0.5808108304346452
  0.4171835911886910  0.0810332974259851  0.3339961048407447
  0.3347826355895722  0.2470422980935836  0.2520664893066096
  0.2498735626214392  0.2471895568503308  0.4980275106495023
  0.4173732767735750  0.9995661765499265  0.9175133103919533
  0.3331899970142619  0.9998198663079011  0.3343679972852834
  0.3337116291824001  0.0818736528498509  0.0856847685125801
  0.4160373465985422  0.9170958081577693  0.3323562579654475
  0.2484105706373981  0.8347893572888284  0.0853429151095107
  0.5011573099092241  0.4162813776033960  0.2525078341620568
  0.3384747158774497  0.4945476160314002  0.8289344207725170
  0.3363039195074605  0.7539903808330116  0.7491974740375157
  0.5828524669749917  0.7508925189342300  0.0011252429831495
  0.1632070561065936  0.4971610788698044  0.4956985693100738
  0.2492250250930955  0.9988937313236789  0.0851389649538730
  0.2489160860182170  0.9183284389042646  0.3336381779683797
  0.1647738301509615  0.9189638667011663  0.4154085330408669
  0.2497329977118294  0.8359491319870784  0.4151791112684544
  0.2484289683947708  0.8350507653241962  0.2511105896542624
  0.2499339042637506  0.9180273455218815  0.4979834516234888
  0.4183060180842827  0.2476704190719924  0.1687819614754660
  0.3339201075023621  0.6683433579225557  0.3335865205569424
  0.5000871109928832  0.2480160433507806  0.9165159383098880
  0.4199682761316094  0.3319899246490403  0.0875304575027641
  0.4166416114251722  0.1642584658527015  0.0858409005980466
  0.4188115105613400  0.3314194637323947  0.2517633871420287
  0.4197907352651724  0.4167121526972181  0.1714958006305110
  0.3339208721866544  0.3317878915823355  0.3342461807333693
  0.8307514986402867  0.4159278656062271  0.4158226192656884
  0.8309639629772910  0.2487180485747066  0.4173110649901918
  0.7484230618535991  0.8337728212859187  0.0835285690176880
  0.6646014385749967  0.8351540513964525  0.4990363686015536
  0.6655573567726479  0.8342568749585918  0.1664854942681298