 C Cr Ni 
 1.0000000000000000
    21.1200000000000010    0.0000000000000000    0.0000000000000000
     0.0000000000000000   21.1200000000000010    0.0000000000000000
     0.0000000000000000    0.0000000000000000   21.1200000000000010
 C   Cr  Ni 
  17 259 605
Direct
  0.7471862332184847  0.6656140672768974  0.6664354730552071
  0.2480619165788260  0.4190733525225381  0.0861540433808961
  0.1678614216893319  0.2497314270125299  0.8343032785088176
  0.0801544400727150  0.2523391964837610  0.5786757303368516
  0.4182266921592531  0.2490591427900975  0.9179371359241012
  0.0837320831197890  0.9970543148135310  0.3374269818075525
  0.3369940758238853  0.2504914591430852  0.6638277427444619
  0.1654844569564202  0.4297246773061528  0.8372025757344549
  0.1684539932931989  0.1625199277900858  0.9241689334791858
  0.1660749225724453  0.3382273686196702  0.7426144854927803
  0.9932183363500197  0.9878245103709543  0.7460429800469202
  0.9935659548075231  0.0802055759467128  0.8398128882423602
  0.0880714082087013  0.0789343804640404  0.7467739188278014
  0.6695785928016319  0.5798611566188010  0.8353634975206545
  0.5796558585243111  0.6693162376760388  0.8354231407276277
  0.9921629923179259  0.1711969638944304  0.7449284337489612
  0.9942565438776464  0.0873424784319215  0.3358793970949301
  0.8299498014476698  0.1672825970596956  0.3327391512743481
  0.6666489181623813  0.3342397655396859  0.3343630885151025
  0.4974426451477813  0.8351732931522305  0.8344391708739257
  0.7480313306048196  0.9173484129201963  0.1670572569415193
  0.7483453084488757  0.0837924306171598  0.1675213664126981
  0.8299520383652005  0.7499809525691746  0.9201244289500832
  0.4909947875880980  0.6694407648088020  0.8341481785610968
  0.7488749389356203  0.2500760510801515  0.1680013528647807
  0.5833860553713295  0.5001132458663531  0.0867667752060007
  0.5829493202171869  0.9161481581862024  0.4983195192758341
  0.9133599490853471  0.9988558305526775  0.2496575366247886
  0.7482100800447212  0.7498971447255364  0.3336016778051815
  0.4988706937379070  0.6667867583312616  0.4994122585568557
  0.7492036986818452  0.7484812535888140  0.1672862182339228
  0.5811041575189742  0.7492387685187647  0.1661456784473855
  0.6653425700811814  0.5008936986954852  0.3328687428154659
  0.7575922554356678  0.5819834334250850  0.8350940488528096
  0.6579727690391050  0.6670337092418517  0.6661808973219783
  0.6621643589893255  0.6685001449450027  0.4993308977391065
  0.6649754867800118  0.4992857996784716  0.4997891929714199
  0.7490643646864142  0.5835806467197864  0.1680817095093860
  0.1664233509465849  0.9139948878069044  0.2499926814845421
  0.7489131832666256  0.3330401088771898  0.0850419541762130
  0.7457010473040383  0.4162159181164655  0.6652530846584114
  0.9164372430816689  0.4157535713717601  0.8353318710655664
  0.7459806671537370  0.1668717494321731  0.5818908369473522
  0.7469758579186090  0.5000148680629988  0.5819389060438669
  0.6639183582195582  0.8347323079376892  0.6661694416405748
  0.6660616048263069  0.8322940149537155  0.3323420403409145
  0.5791557506963835  0.6673968013332864  0.7448942368460746
  0.5819675191476237  0.6689879492494596  0.9253441078820424
  0.1652885870319356  0.2527022190508988  0.9232664183906546
  0.8304129880071639  0.6669504988861553  0.1662157963772321
  0.8323571795739184  0.7530811987721076  0.7519669604860643
  0.4982005335104834  0.8334898886925559  0.3316238230961511
  0.6647112436100789  0.8337529742356088  0.8339824103902611
  0.0863482781628503  0.8324740247847997  0.7507838881282574
  0.7491993151508959  0.7522610796732677  0.0004657657107673
  0.9123215618607879  0.9989222951252309  0.0840244145288755
  0.9136005532319871  0.8321215081285533  0.0844429201928734
  0.9988855124527972  0.7496880015509340  0.9191395590775319
  0.9158710271127714  0.5850987502158533  0.6665773527344330
  0.9983195988196208  0.6676850062450770  0.3321049358625324
  0.8297208868209890  0.5855595425145194  0.2493235623385429
  0.9146284190376364  0.5860335846647118  0.8349663036181705
  0.9127236872668842  0.5858020709481525  0.4977537838989153
  0.6647779636307528  0.0010505048446498  0.6670968923074031
  0.5005598046276557  0.0835395045633966  0.2498123913264098
  0.3362813940896711  0.5025777867953879  0.6635558305362691
  0.6664816201110234  0.8356023918548601  0.0025483287200846
  0.6651526997006959  0.1661946711165715  0.0015131464111806
  0.6656495590099233  0.1649636050655528  0.3330465504933665
  0.7483654997069218  0.4165164491646383  0.8358881010945926
  0.9036047941160661  0.9969209504906429  0.7500379577097310
  0.9145644692845486  0.3358490528504291  0.0840004015666244
  0.5813130605831608  0.4147839253472956  0.6651835044293533
  0.7476690082208458  0.3333449310753386  0.4142953682735322
  0.5008680330699388  0.0809970339552675  0.9187202202542695
  0.8297756392304855  0.2501220525927464  0.2489946660403109
  0.9090961644266176  0.0835878874327991  0.4997610581655202
  0.5813119504287866  0.0823142007283244  0.1673560633035891
  0.7474419967095501  0.0837239112728039  0.8344344221048366
  0.4166650495548090  0.0837715392742805  0.1702057347561012
  0.9894069064191869  0.2515410336694884  0.5818968837122155
  0.5006902420144580  0.5837376320057490  0.2495940215408996
  0.9958486878048195  0.9898302943817961  0.8378336496151034
  0.1667929379959213  0.6686087757152144  0.4983502797506015
  0.1655346735532327  0.5003899892059545  0.3328423706852647
  0.1685689679334062  0.1614728118700309  0.8335421495083468
  0.9978325033947170  0.5015453809927523  0.1693949405594135
  0.0818388310797484  0.9106653085987186  0.4986541635972817
  0.4174876182659176  0.4188988677903906  0.0023347793153708
  0.0852174705869433  0.0809289174750461  0.8385557570717226
  0.3347692107954538  0.9959112921472132  0.8339775090098801
  0.9980104791728519  0.9952448302176009  0.6561685403170032
  0.1657111364114138  0.9973202684436190  0.0051859455199779
  0.1651323472436601  0.3390640471431131  0.8333377975701118
  0.3285679345130510  0.2518499952421920  0.9195939132716928
  0.1653310538009427  0.4188123988173407  0.2524153407046254
  0.1713907573644864  0.9986295194061996  0.4981492692859568
  0.5813822196336249  0.1667222408152526  0.7505002252469898
  0.1625275273901302  0.4208947720632089  0.9262865563654250
  0.4152867809185266  0.2493859417013742  0.1689925493029782
  0.3344763553215409  0.9998901979956356  0.4977727433598145
  0.1674046654146530  0.0732174129892266  0.9204730737915766
  0.6677635160829068  0.4905827832823923  0.8347771737003296
  0.9969351437996860  0.8322157831268704  0.6615263985171436
  0.1659029172183632  0.6672099781141007  0.6651624534695597
  0.0837309666231385  0.9952559348160146  0.4284893718767160
  0.3338884121904403  0.5836107434824502  0.4156794052790231
  0.5025634363727738  0.2486353133897152  0.2525968252635879
  0.4999810725849714  0.0824159546970523  0.7511526268607882
  0.4186154448498461  0.2495124980592101  0.4978136933478733
  0.9091189244085262  0.8313095840416473  0.7513543273084230
  0.2510429332860462  0.0825846332948496  0.6635169844655791
  0.2518068674614983  0.9142654957760532  0.8361868806864021
  0.0830726950977985  0.1697648413758487  0.7481019727014303
  0.4154429049646521  0.6683010840047265  0.0855396304872267
  0.0844776045874786  0.9954843000777504  0.5762693483621449
  0.0829181381098694  0.0775179263004693  0.6562339972346539
  0.0844572002798094  0.9878708795106345  0.7469125228366009
  0.2496821437674500  0.4199826221886626  0.9959554419080676
  0.9980744145359234  0.5859475434421162  0.2501415363726329
  0.0746630499347465  0.3375121221484881  0.7482258150452199
  0.4157086246584659  0.2477293116104774  0.3325346921299921
  0.9959871954262205  0.3356580658762424  0.8362713664264453
  0.2580590173689906  0.3392803723736981  0.7484803507818056
  0.9144779879407283  0.6659811440950106  0.0841478827420564
  0.9975752364357432  0.0813884922237965  0.9281139829559003
  0.0811922704241516  0.9981326582733224  0.2466679800893348
  0.9984002192127822  0.4201517352083251  0.2492367556912262
  0.9965447430924091  0.6674515309271998  0.4984930793511618
  0.2491043128566446  0.3299614866455753  0.0864641911172618
  0.6651780821329569  0.6684352158208899  0.3329238578630268
  0.0846204316710588  0.0867804448199901  0.3324854912030999
  0.6690033484980937  0.6695792441293580  0.8351115680909236
  0.0811982129936875  0.2526519444973890  0.4883253817700969
  0.4983347237228244  0.8341772432091238  0.0032304424958312
  0.9950658656906687  0.1709377476959731  0.8363697213288414
  0.8303743360249126  0.8346254703733406  0.3325155029417698
  0.1770099321330511  0.0793848983449557  0.7479487646658126
  0.9972037128665757  0.0791999450226425  0.7490675169262629
  0.1679957475779155  0.3379773637843723  0.6534756119010283
  0.9970642905189849  0.0814146607035890  0.2449535295681266
  0.9977515761150393  0.2503794852046058  0.2491933742349803
  0.5821376199231653  0.9994098817713352  0.9182788625674549
  0.7444082598448863  0.9157688991679962  0.4998226134287541
  0.1664032709100330  0.2509967637477258  0.2506350351396697
  0.9128780130873979  0.4188144373965196  0.4969777477542140
  0.9154955586456488  0.4173528478313385  0.0042285744378879
  0.9032600729253362  0.1664775904040644  0.7496897812061193
  0.4185853816213632  0.1613874605820181  0.7510735846140900
  0.4977587440285872  0.7528863284563083  0.7489850970912778
  0.5005696265594656  0.5835249709897407  0.4158794917089586
  0.4157539043103946  0.7494412034031526  0.6660899315391809
  0.5817357380121440  0.3342493479101214  0.7513054073803921
  0.4174997383227651  0.4173465641680182  0.4965236274841245
  0.5011986878472858  0.1657128730017366  0.3336357377413248
  0.6657041332789755  0.5012924066630340  0.1665113774518532
  0.4988600364592422  0.5010180211790625  0.0025492239805549
  0.2487528302309434  0.5867011813746839  0.0018837929147752
  0.4166946802569747  0.9173444460827090  0.4978894422538148
  0.5832583734684982  0.1668927354031257  0.5815643020482680
  0.4179611554213707  0.2498930580815961  0.0079876395171692
  0.5836241528503162  0.3331744755984449  0.0849631823975520
  0.4177282923501477  0.5018637392086507  0.4154564791040734
  0.1697244708277505  0.9112364999323223  0.4168365635635892
  0.3340008819876765  0.5828007615068955  0.5827481053818276
  0.6655352725830377  0.3316036277543666  0.0023429187320892
  0.2520660598091009  0.9975394558863923  0.0856562492891063
  0.3336023834812927  0.1623975806104750  0.8327954285685791
  0.2500338050024127  0.1664812881189691  0.0857164011706996
  0.1665309115890628  0.6678196382582661  0.3334842607898191
  0.5819322217126683  0.7503692880046280  0.4997570723690840
  0.9968750179739442  0.8982978588114666  0.7469916112181545
  0.3324214944103078  0.8309871214920007  0.0027118265857036
  0.0856885559256629  0.9130484521597773  0.6608831946609964
  0.3342472955177248  0.3335559844871746  0.3331519660857812
  0.1733657036931355  0.9968564830594125  0.3355872129253518
  0.1670533538992674  0.7490760096340081  0.4161808132713817
  0.4996278440672094  0.4171523472182029  0.7513009427328071
  0.9993928848190461  0.7553070534367102  0.7487720997707112
  0.5829155169669521  0.6687055339587741  0.0847124762431729
  0.2513858037109517  0.9136006312702633  0.6649028561407153
  0.5002720857950862  0.0004568064966979  0.6649517957719112
  0.3352634212339786  0.7494931081044336  0.4164768091299855
  0.4172774555824979  0.9171912209410494  0.6657468563161627
  0.1649191837553582  0.8317081990861828  0.0029080159054998
  0.3319643981378237  0.7510077784579862  0.9193250720357764
  0.1685622410245568  0.8315862732778466  0.4971799922333963
  0.4154211059054827  0.9176830878045267  0.8354194122694526
  0.3334792502624977  0.7505269479054189  0.7499506046257912
  0.4991577265258579  0.9153063585886144  0.2504587332826947
  0.5788439538244223  0.7595950866452921  0.8331842011398540
  0.2519725640700101  0.9988898183576476  0.4163575894075229
  0.3347910962225806  0.3412360339386141  0.6645417811126779
  0.2509609953498138  0.5867890642286075  0.8338796431945357
  0.4155414467806778  0.7483507880809855  0.1668767636446853
  0.9977015245210282  0.7485971912696106  0.4148879248022161
  0.2492567586066948  0.7495509221976805  0.1683423910998898
  0.5811655988380012  0.9160040669243210  0.1691703330113675
  0.5003711585487119  0.5006950099493512  0.1674846378346399
  0.4163681747722950  0.5834299295315712  0.6650699022514088
  0.3332574786526985  0.9151180496447250  0.2490088116331759
  0.4167917950340729  0.5853057949952190  0.0037459951128883
  0.9971423606821860  0.4186623512182093  0.4172855037684359
  0.5830289313359374  0.3340323394686863  0.9190961453377520
  0.5798156300471298  0.5790674411720589  0.8353569918760685
  0.6645464922995954  0.4968545760859712  0.6655150670757571
  0.4973362065142814  0.4983714079246752  0.6656667081614325
  0.1649369044026974  0.5047798696174570  0.6639481360004177
  0.4979496091026784  0.3314120905002593  0.1709672982254705
  0.3333194401655343  0.6671819821070727  0.8355923078810756
  0.2499129811450390  0.6665489706695090  0.2519579051732327
  0.0821059796461188  0.5865896841182459  0.6655839492885964
  0.6639263112465914  0.8347415808299309  0.4995209984637192
  0.9096173114443808  0.1661470554776678  0.5817162465170165
  0.9121265589955682  0.2495850391226494  0.4978399987819885
  0.8312665852887098  0.4192653142701417  0.4172562176310339
  0.8292120803883571  0.3358900848556104  0.6660527629165479
  0.9955897026511425  0.3353967915591466  0.0030521272689194
  0.8333537776424198  0.6652897736311215  0.4986513654516785
  0.8299684856846861  0.2514557455355281  0.9190180001143738
  0.9163957055772420  0.5840905999633653  0.0030524869558917
  0.8279397407607851  0.9986787413885612  0.6654074270121597
  0.8302271485579559  0.7505761639904527  0.5805718810103195
  0.0828336969873228  0.8329950780852724  0.2513054644786458
  0.6652784143082550  0.2500082594776285  0.5831570490728959
  0.9117920514768044  0.4175303385078583  0.6659319400399074
  0.6646242361841788  0.3327955167744878  0.4976303279982773
  0.2550025974333960  0.4209758391055776  0.8353608866222041
  0.8302536959239715  0.4174913599718315  0.2498905825576528
  0.6652750818117633  0.4995972036155618  0.0042183436225695
  0.0801594975845955  0.1672896670503815  0.0848600116882900
  0.4996878404823544  0.2493034220776767  0.4137468407153894
  0.6657564659959452  0.0001126055392741  0.0020886023116822
  0.9104871509212066  0.9145692648002387  0.4989101588432364
  0.8291045897695816  0.0833550064427330  0.9196150086274142
  0.0825521697305079  0.9076889983772390  0.3342780379430654
  0.7470764455439075  0.9154217187422176  0.0009314137183987
  0.4171042527897629  0.4179230516048037  0.3327424237813422
  0.5822990445963018  0.9992184789927504  0.4148180963321674
  0.1707477402324920  0.2515972800605258  0.5808603421561748
  0.0762931526376083  0.1668920361375872  0.9198046294402061
  0.0814649851862984  0.1615288852576045  0.5820590981971069
  0.9960873613159762  0.2513742269795575  0.4195035468185060
  0.0755909604383270  0.2522788829892726  0.8351246696822393
  0.9959130210196572  0.1636206003323055  0.6546966802787839
  0.0812150747190421  0.3377163805897078  0.4165315211837747
  0.2508835123868985  0.1667864868887537  0.4157154938518285
  0.4201879514743402  0.4190617188932604  0.6656288861187265
  0.1654112540427349  0.5172977501398861  0.8362288613738224
  0.1653671107828136  0.1654591382110471  0.0135481311606337
  0.3332802490112632  0.9980096818532791  0.0049417321315414
  0.3338666465389921  0.5828183719569885  0.2491738163154119
  0.2499624528331514  0.3353136800102707  0.4151092681443320
  0.4167424430545636  0.0848968892686465  0.3295150044721196
  0.4996723654069636  0.0825620238300356  0.0855664748702498
  0.0798954323642621  0.3427911868677307  0.5812376666336103
  0.2606924503349391  0.1636351099272362  0.9184650170951674
  0.0822009602816808  0.5861995116587305  0.4980068203112851
  0.0814415573181412  0.6662362808257428  0.0847796171229682
  0.0829496546808888  0.8306299574120176  0.0840564527936935
  0.4142396577204058  0.1680936907140827  0.2487877563408393
  0.3335381366271943  0.5049398674980022  0.1706375640005921
  0.9929778542019310  0.9961177501669136  0.3347161752088411
  0.0815338898527198  0.4191648458812551  0.4958776356228917
  0.9129010679094304  0.9137532348162434  0.3325002819162056
  0.9031007429555109  0.0819640719223163  0.8343762906384112
  0.1668040942191969  0.2482544806207100  0.7453042794194393
  0.9978554771303298  0.9139312611991151  0.9201428187494991
  0.8297912784799509  0.5857700905694250  0.4175607026617100
  0.1660409001138950  0.6664612711846734  0.8339781985422822
  0.1657260044302234  0.4280379512352067  0.7465440473787662
  0.0791193210732068  0.3355718129751117  0.0855731473788134
  0.2500744753313139  0.4196593684393352  0.4965328802095337
  0.3354431181094782  0.2500841247647411  0.5735267769377940
  0.0828099456946315  0.9975518578391805  0.0848807918074863
  0.9983120196224173  0.7498516083425121  0.5826958632351076
  0.1654573780189054  0.5847675499249853  0.2517016548206051
  0.2499046153678924  0.5843443699247072  0.3333315527754057
  0.2500466315051721  0.5032574173128209  0.5806074753662188
  0.1658782446350200  0.5853557892725545  0.5811578491931438
  0.0818630443559198  0.5848700466822190  0.3330147952997337
  0.1659240781018665  0.4190692464440234  0.4155367609877266
  0.3336612351731110  0.0831631451342301  0.4144157880581661
  0.2480198004984605  0.5850505712815428  0.1694008534593435
  0.0832755479765799  0.7504226979030262  0.6658317038627759
  0.1697555980857476  0.9137392387789603  0.7488048289867804
  0.2510999592598726  0.8320195928097485  0.7499390212420678
  0.1669229838644340  0.7490545059521967  0.5817371097044709
  0.1678011047722491  0.8323609363163875  0.8345912434463130
  0.2518256840284471  0.0832170126207692  0.4981349386972865
  0.1684609507164185  0.8318200997821762  0.6652660656168643
  0.4151541215381612  0.8338833514575738  0.9186611932001255
  0.2491781152757362  0.3346708267110580  0.2518474848970159
  0.3346265938855209  0.0814652139994216  0.5814463382733727
  0.2502533837495399  0.5852797969936153  0.4979766216993913
  0.3338024924888320  0.4185063404640156  0.4152646706705527
  0.2490726923355073  0.0840108022310529  0.3331602142725720
  0.2504996429237341  0.6669521677446608  0.4155163839608715
  0.2499959288870055  0.2513637009404963  0.4973850881066795
  0.2485026461783959  0.7499760823179428  0.0021000209281675
  0.0820570011335952  0.6677201249697509  0.5820566246016423
  0.1658380993799352  0.5863970452575972  0.7475275969321233
  0.1652859513728904  0.5024917561775375  0.4969973183375788
  0.3329815356177216  0.3343079200182180  0.0028899450385715
  0.2497526584519696  0.5020607646595032  0.4158625532779341
  0.3351468137881906  0.4220165570011268  0.7500112730242485
  0.0791441208886203  0.4187368471931434  0.0029134202552864
  0.1648693663099930  0.5860577123209121  0.0854267457421869
  0.0809080283597871  0.5027289215904581  0.0859418523908598
  0.3331662973542950  0.5860604971137159  0.9197294170234637
  0.1644497361328791  0.5013669496751340  0.1694657228501805
  0.2532566728335439  0.8308798144484186  0.4162679886120774
  0.5827554892192278  0.5009326351315736  0.4159326054372199
  0.4166227588189796  0.9985807389899741  0.0859936018195129
  0.1651159999630919  0.8315165346176264  0.1675958954747246
  0.1645694792068552  0.5047276637754586  0.0020059947526439
  0.0810969692672772  0.2515551843905996  0.1681061989793361
  0.1657971131178744  0.7492534138700504  0.2501632260619657
  0.1600489091222951  0.4192753611393735  0.0845338151406371
  0.1648649946177653  0.3341357924727209  0.0032576942619218
  0.3322239341568147  0.1673571368403068  0.3327611310137597
  0.5827241859989273  0.0835702429754923  0.6665565533734072
  0.4992254995337215  0.9169162469967775  0.5818591192329485
  0.5007814744521694  0.3339363897321547  0.0032758435956619
  0.5009941464403955  0.1675412075983011  0.1677374750382119
  0.7476985890994516  0.1663400498677812  0.2503301193241436
  0.1671148575687134  0.9152171246205275  0.9204059021894483
  0.4169694095963807  0.2494743731830050  0.8307703450324641
  0.4166379119597953  0.0819581416404727  0.4980749239046708
  0.4183384644449129  0.0816995008128886  0.6655514167197331
  0.5009883474588592  0.1653474446421628  0.6662446195205117
  0.2521733656483977  0.9954300868331976  0.7487073977925749
  0.3320756122861674  0.0833988740827447  0.2502264636685038
  0.4159402035121801  0.9153955160159035  0.0022464992844892
  0.3334330280605812  0.1661610200258502  0.0054402765190862
  0.4985411036307203  0.6678674296416202  0.0033869752644250
  0.1658215179286992  0.9142448416058351  0.0855826706977589
  0.1677139243792005  0.0829014785589880  0.4174081605895425
  0.4165166831590962  0.7489782213383216  0.3331548400563230
  0.4997975402904505  0.4167709665572076  0.0860849422840821
  0.5826971109825584  0.2498056198147443  0.8345412623841046
  0.9979413708201320  0.9147008100734400  0.0849423535135171
  0.3342607209574846  0.6661242201315596  0.3331222320178848
  0.1688603070766786  0.8303159874573908  0.3336930653051001
  0.0795623724565176  0.3357035416043472  0.9198972555276428
  0.2487724566647308  0.5023791313759610  0.2515018450772801
  0.6665608101907329  0.6686839392025579  0.0024897994839297
  0.1641667785841241  0.3341593420452817  0.1691946711428765
  0.3330109885798770  0.9146241451466798  0.0848907476042114
  0.2477540796262518  0.2505809649531597  0.1685329893060355
  0.2499822772394582  0.9977104967709598  0.2499996954455735
  0.0822119584551535  0.1668529558729719  0.4163164569931818
  0.4999130244000622  0.4179245653375221  0.9192592863822951
  0.3321488318681597  0.6678875288744003  0.0021161826331933
  0.3314819436398471  0.1665510188235074  0.1677205607827809
  0.2518559292178296  0.9964600981920640  0.9201222055828492
  0.1684284615829495  0.1655323409918704  0.6631868806593170
  0.5832933864412602  0.2492854330574271  0.4977347742606619
  0.3338379797403189  0.2503832554835286  0.4164570122446722
  0.4167960012916805  0.5838248839265113  0.4984945070767214
  0.2527141436782018  0.9975222835325628  0.5816992989863577
  0.4164789201864599  0.6665901350775686  0.5817271425441835
  0.4173076292337423  0.4994403848955983  0.5795782634638924
  0.3337413826130555  0.9149701056528117  0.7495522623427052
  0.2511045264906357  0.5045866007147959  0.7486665743578726
  0.4986361325643535  0.5828153216104566  0.7493227358935274
  0.3337263294478915  0.9980057049215293  0.6655886897856285
  0.4161096353901710  0.5025865023857029  0.9190257120547979
  0.4986088493908206  0.4999854587883505  0.8352176349325300
  0.3337520001941960  0.0800935119363332  0.7489370959858710
  0.2488128657829281  0.2497433422089086  0.6642243587058007
  0.9967262057758217  0.8297387831877980  0.4990099497653025
  0.6661175353336277  0.1656934949192536  0.1673463659606077
  0.5838267112754117  0.2508116380909833  0.1680170271688653
  0.5840285874196620  0.2497584799725174  0.3342044011464253
  0.4996458393758458  0.3327890751852926  0.4976514300342572
  0.5827653746137382  0.1658074550863027  0.0852128527244217
  0.3346566218649049  0.9159823250143225  0.4160260022831979
  0.4999244630201317  0.1662390038411234  0.4976599989172100
  0.5005076635824663  0.2493799740493309  0.5807304215761497
  0.0810497682599922  0.8297374657176096  0.4165605862889969
  0.2519266459403674  0.8314083057324572  0.5821254956470278
  0.9967655845064849  0.0814290664640666  0.4234953372209131
  0.2497065567023980  0.4185549422720389  0.1730951079009591
  0.5005256575788898  0.2493368844039087  0.7507371553277650
  0.4233873750730739  0.2487578049826828  0.6662733829129741
  0.0799784630656400  0.5054092765243685  0.7492388317287700
  0.0836339534030368  0.0837289125395597  0.5000380703582096
  0.2492327667492883  0.5060531480571692  0.0856330650905866
  0.3339774154034117  0.5029000981981151  0.0025304215159666
  0.0798901300517760  0.5045472271310967  0.9188968469092340
  0.3321725732692659  0.7493747517402163  0.0849341049124076
  0.3330256628726756  0.5849467218888668  0.0855633984270215
  0.4990662627911181  0.5842855161791204  0.9204388754913322
  0.3374307312281937  0.4188068928034014  0.0866952293101436
  0.2496683217429184  0.9145819670462633  0.1673793695471353
  0.2504713792046164  0.8314208516496623  0.2502833526637476
  0.4164881419865101  0.9996239126392332  0.4146652259809846
  0.3325769479054628  0.9993421983427724  0.3318436047411621
  0.2499396506609085  0.5849544966773416  0.6653691616940177
  0.4160702814538678  0.5024302412881243  0.7507724185487998
  0.0798827894872025  0.5878370335814148  0.8335883333721715
  0.1646689872369910  0.5879132745675383  0.9209400262579928
  0.2500895422995922  0.5058052490317926  0.9198884290373933
  0.3337503572388001  0.5854393044789586  0.7493563287058537
  0.3323918429204616  0.6662517776687771  0.1678464024076160
  0.1648924987916197  0.6680773314290163  0.0028945165860082
  0.4164777977365319  0.3363207215291156  0.7501980454774007
  0.4176878994165797  0.5010395183309301  0.2508097299398787
  0.2510250435989783  0.0804378638646618  0.0045961338632692
  0.3347263673476050  0.3361586731956682  0.8347201243546458
  0.2518995033816079  0.9129786877535208  0.3326823453084950
  0.3330096363683260  0.7484914423235580  0.2492960506438661
  0.4161744611281778  0.5849246086212985  0.8347830698323913
  0.3339482164087711  0.0784634566083763  0.9196290431753499
  0.3342935321918475  0.5015756720155353  0.4978361995276541
  0.3334305175774009  0.5019589749211376  0.3333551729078493
  0.3344576083487697  0.4193473354387607  0.5800484183764909
  0.4174637720407264  0.3354741294244749  0.5798183984907085
  0.4168100343913355  0.3338131595959239  0.4147499269450680
  0.2529231438929000  0.3376610190379909  0.5789354259567242
  0.4165913574149579  0.4182581739530086  0.8348628395032127
  0.5002335428424440  0.3335659799253636  0.8341385082156121
  0.2523971361165643  0.1649197673699533  0.7490062553902314
  0.4163354571668275  0.9995862394963869  0.2500146668574814
  0.3347173859832124  0.6662622655831630  0.4984303253766729
  0.4976839894350797  0.6669814782400659  0.6651828693652359
  0.5007788478815759  0.4170420122995306  0.2500203321379588
  0.5824845827955727  0.4167672166002154  0.0031423844841407
  0.5004407046981275  0.5843429989033809  0.0857338237799219
  0.9975909611568540  0.6674688684898757  0.0018227703617083
  0.7479848711397027  0.4172738058061413  0.1679035077942400
  0.4999984092416883  0.5019031370114150  0.3330903822344237
  0.4996621904650688  0.4171532675255609  0.4155734625181468
  0.6655545173634704  0.5843175718876061  0.2499320354299915
  0.5830569850444600  0.5836589947210400  0.3331300169842674
  0.4996367056004387  0.5008720579744741  0.4985238435826773
  0.5834713854289213  0.5010429723195619  0.2495633941269236
  0.5822524141520095  0.6676123939057645  0.4157412664801670
  0.4995316570631106  0.3335020986427770  0.6658670335791961
  0.7473094098261648  0.6674970140516774  0.2508299906026425
  0.7463327979640224  0.6674194313770835  0.4168903630037075
  0.1658966908532603  0.5854364656263005  0.4155757367605139
  0.5836846079826942  0.3336800776973047  0.4152392134888979
  0.6655644772811277  0.4173340834223237  0.4155202698445695
  0.7478512516736405  0.9990880283945579  0.2491989566304640
  0.9976400830280909  0.7498261061223257  0.2505127652855026
  0.6649177507546730  0.9992247053801110  0.3327619260112993
  0.6649949758919900  0.1665658838809294  0.4998042390732881
  0.7471672644278846  0.9982020594818437  0.4157469692048234
  0.9106866498126467  0.9133215912772059  0.6634350431854499
  0.6660964013530123  0.2501517495541409  0.2507489759622848
  0.6648667221177946  0.0005702744496848  0.8346797530734014
  0.7475385818012108  0.1667909199685957  0.9186455711606399
  0.6651329613064768  0.4166970726603090  0.9209028527399632
  0.4150163119227323  0.7524063731556724  0.8344198632906726
  0.9952432453388012  0.5029216037358653  0.8342230440605722
  0.6640496934385846  0.9988770243644478  0.4986156039792555
  0.8311719313374504  0.3350975725691527  0.8349024708630431
  0.3333612981002125  0.4183578331623691  0.2510193105786442
  0.3340791625557817  0.6669970722875261  0.6654694763621747
  0.4165619656695356  0.0803674844790984  0.8351761530867895
  0.3345202072315317  0.7499212822809271  0.5829475769619767
  0.1684476050306599  0.9951388177952191  0.8337754648405996
  0.9148645324500030  0.3345920730133126  0.2506094622334187
  0.6638997191915668  0.9169935435983163  0.5833086076702942
  0.6644694641218598  0.0837768145298894  0.7502870368337577
  0.4990761984900879  0.9996367651248463  0.1682358183572007
  0.1657821311909805  0.0828856095792919  0.2495710045356359
  0.4156354704754269  0.9160560139420039  0.3322348784920682
  0.3357724744867404  0.8324339395550545  0.4991475774948609
  0.1657584961932850  0.9978484079162833  0.1675966028637608
  0.4163901607729954  0.8321252063734088  0.2497981311215501
  0.4167183581031103  0.9986189814414329  0.5821962255695401
  0.0816596532595836  0.9140838531942955  0.0031984421824603
  0.4166827641566067  0.8339671628827388  0.5821550857903927
  0.2499173324430001  0.8319350542110792  0.9186731548870952
  0.0829490749310735  0.8318785733102547  0.9191143867232022
  0.4164406709890741  0.9988816656639604  0.7493359102903487
  0.1695481339301983  0.9134455450410744  0.5796703406153723
  0.4161427922875378  0.0815376238132694  0.0029787733652669
  0.2524508165518836  0.0782029796961336  0.8346465328267024
  0.8292481415622921  0.2527076562405547  0.7508272653976427
  0.0820834813023940  0.9959601388554588  0.9204267506708513
  0.9974257055552939  0.2519608900837761  0.0855498661860394
  0.0754231555665760  0.4198100507031065  0.8342741164101354
  0.9121786098054850  0.2518258268955280  0.8354811332437334