 C Cr Ni 
 1.0000000000000000
    21.1200000000000010    0.0000000000000000    0.0000000000000000
     0.0000000000000000   21.1200000000000010    0.0000000000000000
     0.0000000000000000    0.0000000000000000   21.1200000000000010
 C   Cr  Ni 
  17 259 605
Direct
  0.4986699166002706  0.6600289695640577  0.5864670342352255
  0.0759008585647867  0.5025547011324023  0.3328990957862095
  0.2379592222476523  0.3369473074534053  0.3403838682038596
  0.4188375554925172  0.3332222150518467  0.1558376348369248
  0.2372793620231011  0.2419758869784464  0.2463706085516300
  0.3188985198784374  0.7471337153192681  0.4957944346393053
  0.3294680886945194  0.2408152319056190  0.3430651279675997
  0.5910312930664319  0.7545171404044438  0.5890360796913298
  0.4161392631674014  0.4259728370060022  0.2489383538053631
  0.4215357350650962  0.2381318357957087  0.2486026079799035
  0.4096493332662520  0.8414637016075770  0.4949548599807131
  0.4151871099432635  0.4182180794363934  0.5860213054207367
  0.4217964317849920  0.3347544190456009  0.3444467230955934
  0.4092143360826891  0.7512209203182229  0.5911015322203216
  0.5017766117722594  0.7521266815851714  0.4933355452179505
  0.5141382666341413  0.3326763519880906  0.2498235866825179
  0.3278300856152845  0.3346458112844175  0.2479410754485420
  0.1635635997399349  0.7490992981613114  0.5869136728911069
  0.4126318731908574  0.8416804515050216  0.5873441187801397
  0.5005701544560877  0.6622878809760967  0.4942471996327982
  0.4127718983737460  0.7473537298360629  0.3266832210529018
  0.5819655760178484  0.9185628241736788  0.8329815688996542
  0.4154731407106629  0.9204057474884940  0.3297076784724407
  0.4105744612719007  0.7509921901437613  0.4992717977512128
  0.4145418485785688  0.7508223795817730  0.0001872927837314
  0.2467587630079315  0.9194496689058320  0.3314075090442278
  0.4153080745624710  0.6648753825118257  0.2480203569467353
  0.4987428268766971  0.4977454941418585  0.8346638641247998
  0.3310164432704107  0.8325690267228357  0.9980709274221685
  0.3297056242132061  0.8335035503983689  0.8338329726280769
  0.2447552512337142  0.3344457759174659  0.4304481584185548
  0.8326686313926456  0.4990770517803622  0.8332468060332214
  0.3290504009114142  0.4160856743234288  0.7518450458239933
  0.5013641677684677  0.5719937654285996  0.5862441998884091
  0.0803298723070105  0.5821447253001081  0.6688163322431108
  0.1496856953668556  0.3356768006603750  0.3338582337451281
  0.3252591628655285  0.4243979309416416  0.2475931594183728
  0.4164288732499449  0.5145295817941570  0.2488475274486243
  0.9148486284654944  0.2495948578555886  0.3315328929095236
  0.5810847082972989  0.9995656994525854  0.7545096650621225
  0.5834172924616617  0.9175757021353932  0.9997020720901461
  0.4985086271407145  0.2488186497725201  0.9151872389499213
  0.9844976607857545  0.5017580850059716  0.3304965108012422
  0.4154789195506636  0.2491610651505147  0.6679694503307201
  0.4164737632394748  0.3285132024585091  0.5810610359900403
  0.4081074607427992  0.6601906263258397  0.5863944609145406
  0.4175664552999712  0.4251574818189441  0.3391028099824146
  0.3208417001562413  0.8372616884259747  0.4989135087552912
  0.6668596117708033  0.0827797227704336  0.9148543361004313
  0.4995136214180598  0.0002502352347763  0.8329911159171411
  0.4979407457681743  0.9196607619093757  0.5889793080113401
  0.3293283145103016  0.6581446189970908  0.5007421950286609
  0.5862233945424443  0.1636436600657474  0.4196533775247955
  0.3289422676684453  0.0027035388160265  0.6691268341279417
  0.4999391922111879  0.9994179657387200  0.1649000939740343
  0.5844334538449918  0.1646296939437898  0.5852309453055220
  0.5812281000162558  0.9967030343163195  0.5848658945524216
  0.6665533550705897  0.9175628545168917  0.2474410148410874
  0.5839111473514851  0.9178461241983803  0.3314963586833095
  0.4170964034573040  0.4231635590561469  0.4949765493293558
  0.7495161799534019  0.0818478975240808  0.1640518219359138
  0.5878056805282769  0.3331453096239120  0.4193340708136936
  0.5015978647057764  0.0809776099173799  0.4183810948144874
  0.4993074390634464  0.4140362307123115  0.7543844023402428
  0.1630330855586077  0.8366106802176623  0.4994444429276212
  0.2457149187953052  0.1525248832320567  0.2484647910816377
  0.3307832588460300  0.0014619984051376  0.8330826889327511
  0.3338784552736626  0.7510394130031152  0.0818133349373313
  0.3297550213763133  0.7505849018097046  0.7540882290743096
  0.2474307027524271  0.5830240295184302  0.8350952879239805
  0.3242009740515007  0.4168166264595718  0.5834168144316094
  0.3312438868729558  0.6679613526433604  0.9986584460395311
  0.9131367454649967  0.5868783642898633  0.3333358802497415
  0.2294337669567665  0.7502277768330028  0.5009918383414309
  0.2463838126696386  0.7499789746110617  0.3284134794867283
  0.1668286759854757  0.7506980398951040  0.0832483902681330
  0.1625795628576044  0.7500296832459672  0.7518022625539975
  0.5066444147757482  0.4244879140599253  0.2476982578395879
  0.4177370963285442  0.4241504559438989  0.1587143425044941
  0.2479800470268758  0.7510570349411344  0.1647977887019039
  0.8333359321429988  0.3328816431831550  0.8311529988232663
  0.5015586249287959  0.6681426644547871  0.1645497523164561
  0.4157132971826223  0.3325176682205152  0.0672140043298036
  0.3299538194248178  0.2479755519324370  0.9162606676748777
  0.3288133659836994  0.4164996653120719  0.9174449543228737
  0.4996599884351529  0.1657944841252617  0.9964672385089438
  0.4206072342736761  0.3327502559945566  0.2490441972320208
  0.4164888433010172  0.3338896192335996  0.4346476246994124
  0.4154021946448613  0.8346667412335500  0.9176991900964653
  0.1626559339426996  0.9193768515490465  0.7506455270428360
  0.4994696698218760  0.5844460517695524  0.9158995276521312
  0.2465179212232498  0.4188982389299630  0.1620168894108423
  0.1660730553921921  0.5025896542778565  0.3319365125243693
  0.3294442963670531  0.3329874517105837  0.5040577434611547
  0.9137577196407934  0.3320093886888226  0.0811503251171943
  0.1609472635630695  0.9996063222637634  0.5004351354350822
  0.3297790948278526  0.0029472078703548  0.5016405418915518
  0.0854163501774104  0.7517256000146343  0.5021244119795072
  0.4148872773210405  0.4187877253973388  0.9982307971498742
  0.2400461467473429  0.2459540176269165  0.3377732564361122
  0.3290828632357242  0.2439061771214637  0.2503797320835560
  0.3266003985557804  0.3338551561478545  0.1577887645712384
  0.4139276159110604  0.1683309693727141  0.7503887392915136
  0.3308745898433939  0.9989065334055192  0.1640342880342111
  0.5016329538062481  0.9991835528919338  0.5012857406706190
  0.4143800535635973  0.9148678215097984  0.9984571677781822
  0.1641701958746375  0.9184152672665888  0.0827491314562974
  0.4164685739972002  0.1501871541493758  0.2477139267221040
  0.2474546779238544  0.0816209284762057  0.9978493375398850
  0.5111881971012459  0.3341479247297818  0.3402528425412085
  0.2464096802927414  0.2475128260216088  0.1563370504234111
  0.2455811259860276  0.5824713301564985  0.6718836452459653
  0.4997761912033366  0.8330643342981101  0.1666178955818709
  0.2472408076761040  0.0823301424395206  0.6681657800510424
  0.5049567686395948  0.3320041870145867  0.5029226159958069
  0.8336482808865920  0.4170069575635734  0.5849567789673042
  0.0800925119464876  0.2503804736019826  0.6688168975664451
  0.7501465164396283  0.2492744501034775  0.5024077096209622
  0.6666980584782085  0.0815202224412565  0.0819301460807997
  0.9151137262593834  0.0810830321143224  0.6675614888775210
  0.8320769740595580  0.1656893446355828  0.5016972250092159
  0.8309426101239061  0.8349870124542675  0.9988170472430202
  0.9970035084125856  0.7535375935409603  0.0818141533087885
  0.8316930181352055  0.6693060148507654  0.1648677091645744
  0.2467785685899510  0.5004869963404311  0.9175019763348243
  0.6710560799826648  0.8370491202580814  0.4988765609287458
  0.9161675749431973  0.2506719216713620  0.8337848936854625
  0.9161337832585070  0.0814632629925217  0.8334977420055273
  0.6663636995330808  0.6671598570039591  0.8344292549033417
  0.7502280681272696  0.0010724848642816  0.7520712158784396
  0.8329754134472521  0.0006236271570396  0.9988233303138613
  0.8325545029789072  0.8347963055379823  0.8328576016194711
  0.6704414458700003  0.4172441766614922  0.4174242251488712
  0.9173093762645700  0.8330224551936510  0.7509103767387612
  0.7528618988811865  0.8348619518535373  0.7535182494561382
  0.7494503459557607  0.9168636280451109  0.3309744676349583
  0.8329250959030748  0.0829653242211576  0.7509333610806108
  0.7510156383653653  0.6661004192915653  0.7539079433342990
  0.9153761947476665  0.9166882617098996  0.3320288362228798
  0.5860724168423448  0.5814305767328354  0.6711501782039232
  0.7472516427968254  0.9177233830875761  0.1647622540975664
  0.9134774343782054  0.5012160389131217  0.0821595008763676
  0.5037637515655792  0.5019204408966005  0.3331828200825324
  0.3299464455637727  0.3337128351662788  0.3397057524859057
  0.7486862605822061  0.9158098235000591  0.5013562624082640
  0.9952585033300428  0.3339249588299206  0.5031248770278954
  0.4152550936845805  0.2425724991343088  0.1586680806625773
  0.9138985987164343  0.9977145648726198  0.2498246736411460
  0.5880057721829676  0.4194500354555747  0.1608109178157717
  0.8315535896229096  0.6684611047933264  0.0001032385444971
  0.6687761895995555  0.4155011262371729  0.9177627228856401
  0.9147961711001262  0.9159287627159495  0.5005024121050744
  0.9979164050495811  0.7508600940369454  0.2486000679428111
  0.0795592706196999  0.5869021768588011  0.1642397314541262
  0.9137378815812660  0.5853437318722616  0.9993273133281825
  0.5812352965322943  0.1673689652461025  0.7511056342871525
  0.6695945400463280  0.5847114790479747  0.5860168032857164
  0.9989876796818166  0.7505704935023992  0.4171551891382519
  0.9137629837180973  0.4142507549914811  0.3342271167592353
  0.8330139436649254  0.7513775652503369  0.2484210865196520
  0.7487446005507085  0.6692539802657970  0.0815233486095280
  0.9154289840767934  0.5841575351332147  0.8349789654386065
  0.7506980351068615  0.5016602882064984  0.0822982368461424
  0.5837096219618128  0.8448231577360741  0.5845952070805066
  0.5011826984097156  0.8425677665726600  0.4983517707376803
  0.6665787734511328  0.9171609771172301  0.0836723840922421
  0.5890800181405836  0.5014938360227591  0.4166937554650287
  0.6644652367079507  0.7524145918405829  0.0803930032567543
  0.3318783871854385  0.7501912907158929  0.2476996612728415
  0.8334582665642658  0.0833191505141268  0.4178722326648616
  0.4139778325508694  0.6650307906107202  0.7554159180285533
  0.6676263199997468  0.5835899984358733  0.9154608863374308
  0.5842896320975118  0.7505726737738047  0.6780398108194206
  0.4994471130074148  0.7505353802906940  0.5846228735375594
  0.7523185004119715  0.6658571192171827  0.5848942206423827
  0.5843237109767313  0.8365947677279483  0.4119217070510508
  0.5875174344479647  0.9185191976084407  0.4981592967444533
  0.5909068958691545  0.7537609107504637  0.4979140214207785
  0.5832344972260129  0.7516522160598483  0.8338209424732682
  0.5039252571110682  0.5030621403771270  0.1620564371405403
  0.8311320086834829  0.7497109369442602  0.4158673282962023
  0.7494612348555864  0.2491996857428479  0.8328259156945154
  0.6689287533460961  0.4158728892444240  0.5850949283797844
  0.5891847369390728  0.6623375606953270  0.5864039024046113
  0.7534911693787633  0.6677455030479612  0.4150315299011725
  0.7503386799271209  0.4988574293912535  0.7526312723401648
  0.8361114145297688  0.5002675504551888  0.3318086097789640
  0.6687719869040547  0.5858500755415950  0.2487301828428515
  0.5001884919180090  0.4163399427938602  0.9162393725449616
  0.3208643761032737  0.7501429881060846  0.5877211961698370
  0.5848874486874452  0.5020398813095196  0.0810704375896480
  0.8311421747885271  0.5008646198751480  0.1651419842371933
  0.6671044114775193  0.0836846975490015  0.4178289892349087
  0.7503475637814178  0.0828322762483231  0.6714849119590304
  0.5052570391406078  0.4179117013354509  0.5843801195379404
  0.4982079123445795  0.3335613265597706  0.8336272465504583
  0.6016605462018874  0.3350852577896016  0.2478145391583761
  0.6661780812846305  0.0015525081172327  0.1654509405225738
  0.5095914367114528  0.3353459065976905  0.1598537186765244
  0.8333687024136380  0.3311031893217976  0.0005044042004197
  0.7496262485802178  0.1679805495336131  0.7513170645285897
  0.7502868078705325  0.1640598434224784  0.2487383930396347
  0.9149800851450648  0.5834947848305240  0.6683273270420178
  0.9956578960283259  0.0820224430757108  0.4178881179170060
  0.9154467378553313  0.1672852479559869  0.2513476130617995
  0.6679963448708308  0.2475600781794550  0.0806928510346987
  0.4192276553485860  0.2440925900005779  0.3392021911283813
  0.7502845924663940  0.2499958308639191  0.6701639570361744
  0.5839699293922260  0.7501947630921958  0.9995665860745873
  0.2457269891186101  0.5027418397810823  0.0794596844157130
  0.0798294588886542  0.6683607491952848  0.9169038621936217
  0.9156453217074078  0.0837666348279430  0.5010006685384354
  0.2472888432107445  0.4186350058792824  0.9953320708710411
  0.7505293682956939  0.0838288533956253  0.8318861442154492
  0.9144475154552751  0.3323041601936108  0.2469861385829380
  0.8306775796835779  0.7501372036778735  0.5845767503508228
  0.1641623370278753  0.3340347779325001  0.6689566518967619
  0.0798463445657194  0.9972438281209753  0.2493898708912846
  0.2436089709297920  0.0809780630428170  0.3344366624834514
  0.7521880306960100  0.8360962424353192  0.5847181068730641
  0.0789685568608016  0.6690995078050858  0.4172653665419112
  0.0807633402572877  0.1645121525649524  0.0799655246707765
  0.0802638831202614  0.9995465300739172  0.5838756522760060
  0.7500781779500679  0.3333297819579376  0.7511531961058903
  0.0803582296221554  0.8317434698177970  0.4165366047779804
  0.0805462248417664  0.9982118066749255  0.4187844364241171
  0.2461567153767929  0.2493146626923542  0.6669992076994832
  0.0803732819520584  0.1675362176727406  0.7496422504116954
  0.9978422628662672  0.3334001633550926  0.9992184245382879
  0.9976971995008498  0.2501819246325787  0.7500731279059385
  0.8357430583703186  0.2477798834096176  0.7491518955220776
  0.0808528727297468  0.1663259480227965  0.9159775827051249
  0.9962009736718015  0.5008317432558781  0.5029082296412803
  0.0786714946350714  0.4154491940028769  0.9970349837983666
  0.8335575848478542  0.1635494336761878  0.9989847205609970
  0.1625052697899905  0.2485358985269699  0.0809421158260147
  0.5864640782941741  0.6665572012141410  0.4150483004004717
  0.9957884530073350  0.1655199153286120  0.3315772324302362
  0.3302014003758009  0.2473268736494542  0.4325139634648722
  0.4153482779723068  0.0816539990113054  0.9978332941562673
  0.1485925764565212  0.2475703617094815  0.2476157155939912
  0.9975059649137474  0.3317626662493919  0.8333281876217232
  0.9985205204626252  0.7497927718597164  0.5829190823748159
  0.7494610544707662  0.2479435115460721  0.3333327538052986
  0.1646225893265626  0.3324925444183512  0.8337727551829848
  0.0756145483331220  0.4132518284238790  0.3338589608136067
  0.9125836457623466  0.5005176687338403  0.2455979650527223
  0.2452948994259288  0.4264605564002838  0.3344041530377375
  0.4129500540870259  0.5081872484044848  0.5871792193221880
  0.0779480003500730  0.5864411858031345  0.9979424064056049
  0.0816722600965195  0.9972779157767799  0.0818393289679677
  0.8319887048438409  0.3315824600919433  0.1655530157741448
  0.1611547051401783  0.1640520868942485  0.5023914514634651
  0.9983160575242952  0.4167335292687366  0.9176633769199002
  0.6680719365376240  0.3341194154231837  0.9967479150319412
  0.1641860300923106  0.9178221600440182  0.9157023660858824
  0.9959512463579054  0.7514400155597367  0.7510309682997828
  0.0820314243696953  0.9995495907460358  0.7498848102024024
  0.2476619398792640  0.0826849380074597  0.8335237460155076
  0.6684574760149187  0.4194449625287713  0.2487648722798993
  0.9986426903161663  0.5831984936485666  0.9171430319127329
  0.3289198604108340  0.5838413850659799  0.2475530232945458
  0.9947526843985818  0.1661888006343775  0.5009275183537927
  0.9972927925457898  0.9167994520550162  0.0822889186486929
  0.2390757479336767  0.3338344768868086  0.2483133914257089
  0.0802364174241050  0.6686448221999973  0.2464215122259222
  0.9157890825460663  0.0826620780272515  0.1662795537256292
  0.1636754242165204  0.7492828971704215  0.9167396475027885
  0.0796976467778387  0.1639589589660777  0.2488081426244318
  0.0814836559687942  0.9977094326645459  0.9161065523037830
  0.9977385799254769  0.6683519883205294  0.5022817711287849
  0.0784779901075318  0.4179512370668771  0.1623819445260919
  0.2447244442483194  0.4203208663674623  0.5013334600119773
  0.9993283951461394  0.8334495737410745  0.0003929463437660
  0.0805037320923633  0.4151842091571791  0.6689326225631059
  0.9977402068202403  0.8329818603660235  0.8329003876562580
  0.6683540993336697  0.9186717246183973  0.4139649962772955
  0.8327443622657070  0.6676136111112462  0.5008331737294889
  0.5832280035252539  0.6676033774941570  0.9158577902232538
  0.7506237763466623  0.5831742387310881  0.6693022650560234
  0.6691708556911296  0.7508886423877892  0.4142463825490888
  0.6681672904367630  0.4992646009961100  0.6687229335462170
  0.7519054236953535  0.5844314369108428  0.3317501888408775
  0.5865703174906487  0.5847169804125135  0.3320776568907631
  0.0774241649702429  0.3331893717067786  0.4212167844386540
  0.3266557065721720  0.5815846728324671  0.5871903333936253
  0.6699074556441363  0.5004871540800238  0.5014011112706160
  0.7510721034991010  0.5841388678097118  0.5004432858389646
  0.7511145773889006  0.0007289233960139  0.5843834336246002
  0.0812709519471686  0.3330436831580388  0.7514717325910565
  0.5043017492554533  0.5016450972527277  0.4990945539627870
  0.7514635715963849  0.4163990353010191  0.9990684477138650
  0.8328777462299888  0.6688432373509536  0.3313322869965533
  0.9974885652976734  0.5831034489516783  0.7509226562525513
  0.8319344441475055  0.9173937328492183  0.0818626566810259
  0.9152539544080563  0.5004511655243923  0.5849599530299938
  0.1636104467337662  0.4159247141493250  0.7519784049925395
  0.6687994385618949  0.7515329112183232  0.7532770735921025
  0.7504789208404690  0.7502378894031103  0.4993722474968497
  0.7504439661012833  0.4992664375367717  0.5855300022996410
  0.9158860694892913  0.6665367894759420  0.7508868233426849
  0.6697533274954605  0.6668282028756146  0.4987030680288553
  0.6658016305972427  0.7512705392127454  0.9157925819179579
  0.7507979751870083  0.7506812390745226  0.3314880410734445
  0.6695775933235634  0.5848421942539200  0.4154997978472878
  0.7494830384795339  0.6674989645823264  0.9162781014355121
  0.5837269949228502  0.9996114198059197  0.2484971140232831
  0.9984837037208724  0.4163081311681566  0.7516291899680543
  0.7506104590837765  0.7506320122532166  0.8343339931122387
  0.6664255342697148  0.7509430252200729  0.2486791261098153
  0.7491043152182486  0.8342803067518183  0.2485692843570881
  0.2471705430426543  0.9160837947692158  0.9987126681963224
  0.2468677676493049  0.6674655960251051  0.2470068082049895
  0.7504988451387424  0.6690392399145055  0.2478828283142272
  0.9973639910618137  0.1650512004929261  0.6679218243452715
  0.8315124424241747  0.5852523079267798  0.0826077230396993
  0.5820287870874559  0.8346301429452994  0.0825451638482282
  0.8326659858252284  0.4158741031685739  0.4170593508859770
  0.0775458639869495  0.4173180107764675  0.5026487154378556
  0.7494125951173539  0.9172936875155462  0.9994789450065803
  0.6675230600437337  0.4996811536639053  0.8348152435159472
  0.0805057756696684  0.4155051205760171  0.8346136365191567
  0.7508201337362631  0.5828454144030375  0.8345884953922569
  0.9971459595438786  0.4172185922172212  0.5852118866609830
  0.7497943953325731  0.1647475892668036  0.0812364854431836
  0.6670256802475314  0.3326918173391906  0.8339224114062235
  0.6684166981457591  0.2456944129333095  0.2490720300661479
  0.6653976144163074  0.0007476377137752  0.8334756225501542
  0.6683239211904847  0.5832798824865375  0.7529490033936275
  0.7496652957898075  0.4165380066098641  0.1642092774062927
  0.9955988734669441  0.5849744331656754  0.4179721999124993
  0.6694625228291504  0.3318583654449624  0.1606539076189054
  0.0802131113009129  0.4994104702267071  0.7512287435194007
  0.9150343921403408  0.8338342797028790  0.9170339636151812
  0.5060826057754978  0.4199675421603534  0.4184092765663228
  0.2472730499176418  0.8334747590313525  0.9161771855404066
  0.6678188208673783  0.0003437888782113  0.5012523569421051
  0.2444852084876649  0.6661533504876441  0.4148476736140474
  0.0815934494437414  0.8334817144362523  0.5847631826911988
  0.4139281102554267  0.5819256927283020  0.6731725602435732
  0.9977228479480604  0.7512269586747332  0.9168791990898677
  0.9983016458554707  0.9164064285826204  0.9165764347917414
  0.0808710222146028  0.9166475825500499  0.6680037722858639
  0.3280463668565342  0.9199716650691291  0.5852479949132984
  0.3289217193196247  0.9191191804721143  0.4142409838635727
  0.0804185394731171  0.8329247740500845  0.7506306368727499
  0.4122994772896846  0.9190931869873524  0.6702921396613351
  0.2458144050963070  0.8340905994935589  0.7517191561471634
  0.7495767958489112  0.2476811477857485  0.1648495065137340
  0.9979669794242080  0.8330371771217576  0.6672429794434958
  0.4991029507093622  0.9167864800447946  0.0819369799479441
  0.5831649306321550  0.9184824812862519  0.6713862326243183
  0.4969828871636790  0.9173325652383028  0.7517711320930373
  0.4140642910910679  0.9176833870788882  0.8338664470507724
  0.5850638411164036  0.0005908205194448  0.4158611869701657
  0.4991228699535287  0.8339258262673033  0.9993677274098036
  0.5831456009519538  0.9174768727933638  0.1652068514737656
  0.5836987636863951  0.0821631817104689  0.1641252558889220
  0.7493991657545709  0.0829696916791427  0.9987056929356727
  0.9155178078646037  0.9995616870393240  0.9170915648248199
  0.6677609463039814  0.0822120591049934  0.2489419634395761
  0.6680358167040107  0.1650188108183415  0.3339128657768719
  0.6679197338664095  0.0001187092008430  0.3321527247336651
  0.4989862449239321  0.8345542417985492  0.8343923099978651
  0.7501037227491172  0.5844464776828794  0.9992458689216908
  0.6689548361660359  0.5023927551722466  0.1638515238754068
  0.3301114646392472  0.6672234311837935  0.8344198604171187
  0.5826592185757820  0.8349996570453303  0.7529836064442784
  0.0773945956768447  0.5894982944894196  0.3318288301885541
  0.4128698616598443  0.8346662826191454  0.7536225432385959
  0.6674052140046792  0.2498103890892132  0.9163235572171714
  0.6688090760321010  0.9193879941960791  0.5876546595039106
  0.6677186199357763  0.5850552231016557  0.0813270546399109
  0.6656306545975127  0.8344894836489960  0.1654362345872662
  0.8330615986224196  0.5842166391267672  0.9166347687940662
  0.8333020705774660  0.0827618900469615  0.2497342380080963
  0.6664611041449613  0.0003830812065813  0.6698240966138780
  0.8331569094114847  0.0826256780749569  0.5849802113321962
  0.7503880174634626  0.1658617010388797  0.9161217962155502
  0.6661658681889243  0.0834714589165558  0.7514176348862525
  0.6671050633637935  0.9172996765146987  0.7519099275729160
  0.3303750425783452  0.7503761184513150  0.9162045842039348
  0.7500162922959455  0.0835867562230751  0.3336050665894288
  0.0795898034727266  0.9159084367754108  0.5007063228799762
  0.9978268344874900  0.5006723767213459  0.6683573026267894
  0.5829568809914952  0.1664735811993816  0.9162126884339983
  0.5823373624541501  0.9998673069507524  0.0813450050314926
  0.7474092620998152  0.3319603187197592  0.2486264029715584
  0.8325053519618437  0.5013002801400047  0.0000927785523167
  0.0780352981680940  0.5016980024007514  0.2434298015898067
  0.6680107016407898  0.1649666776483856  0.5027745533044327
  0.6672570433903751  0.2484808913540556  0.5859936556578770
  0.7503549167449710  0.1657480120079169  0.5860387713162205
  0.8316001355339325  0.3325883012631320  0.5020121389656053
  0.6672684118342568  0.1639880832761571  0.1644880396401790
  0.6657501930834895  0.1656425133879317  0.6689747076873137
  0.8339224955247659  0.1654088416511157  0.6670023751155539
  0.6654056215175648  0.1662264441643138  0.8330495540490306
  0.7514854570947774  0.3319588377175548  0.9160858382206992
  0.8331179542634277  0.0826924162712657  0.9155729512897536
  0.9961607489436037  0.5012403920124272  0.1634538385853524
  0.6692924792487595  0.4172102307972108  0.0798127161044466
  0.0800488456692613  0.5844938745490292  0.8349858701521169
  0.5878542919500197  0.4998763308646715  0.5851464150994745
  0.6663522266151131  0.0821038503648800  0.5862567764745764
  0.2468279364871832  0.5851100618657220  0.1625932808682654
  0.5835835292399940  0.3327117424866344  0.9158865752331011
  0.7507860943432652  0.4999119635501553  0.9162998080654979
  0.8320006686864516  0.5854947623130211  0.2475455201917612
  0.9953861589210251  0.4161353773072859  0.4185268228582716
  0.1633300848343052  0.1643480399506239  0.9984005681077488
  0.9150277248923676  0.7508840319983033  0.3324447182323513
  0.7511596825542867  0.8348529543339984  0.4150592982805212
  0.9147821600910958  0.6690427480754870  0.4174712785124907
  0.8327070625331263  0.8342755999360555  0.3323131571737775
  0.9975834755685237  0.5832327676670441  0.5855884778198110
  0.8330866945061089  0.8342036151799577  0.6687218147446253
  0.9151356176988529  0.6672594927445572  0.5848542460278715
  0.3300691139451304  0.1620610529165145  0.1630739493051316
  0.8337474253083083  0.7506387090015856  0.7519086409936050
  0.9968685907182833  0.2478537549037238  0.0811385745584167
  0.9990788460133423  0.1646418518974719  0.9987630824484134
  0.7521765263799379  0.7507656874813246  0.6708420022951316
  0.8320367687938921  0.9998990929513756  0.1660905977902770
  0.4155969251871143  0.9983563600002485  0.0811157800109817
  0.9975676672760747  0.5005497411962322  0.8342111093474260
  0.5023760651386611  0.1632858986496200  0.5025788145775341
  0.5845710233540206  0.0816197330411781  0.5025684547891173
  0.5859336497298815  0.2478778661461534  0.5027837830256884
  0.4997395494014533  0.1661897530768796  0.6685330946590485
  0.5849814404509440  0.3337597653323639  0.5854533641492089
  0.6667595876597420  0.2495443674471816  0.7504718865807858
  0.5828884313411908  0.2491863655180568  0.6683507132394763
  0.4985856585031289  0.1674398438625829  0.8334988049711157
  0.5018062658277792  0.2478686623962168  0.5858348309405729
  0.0803106541247659  0.8328190739070905  0.2484431013320948
  0.5848965145171419  0.0826149810700859  0.3341503809922303
  0.9979703146510422  0.9161740256381883  0.4169901853553435
  0.9975147087198899  0.8335578985656655  0.3323981343562639
  0.2472020213010414  0.0006550545648530  0.7515327968315585
  0.8324277289490423  0.1649835512530871  0.1664697701837962
  0.7485438893974270  0.7515195336064364  0.9988478549663478
  0.9141072965466112  0.8343383246450358  0.0822430441870562
  0.9151626129393449  0.9160183921099584  0.9990381034330501
  0.8313766411658509  0.8341736464831384  0.1663900332278962
  0.9150508596910925  0.9167140129620088  0.1659800730982379
  0.9138146880169158  0.6692235099601941  0.0816569798635738
  0.9995627209528732  0.9997341285828766  0.8329350500533187
  0.9159718513035555  0.6677717273555793  0.9173462569923078
  0.1621767179125215  0.0828427533575120  0.5844626467883777
  0.9150585209762455  0.7508526261152642  0.5007615522879942
  0.7504976936124763  0.0005758950128813  0.2492114906122818
  0.9146638998734290  0.8334001358087314  0.4165711372173472
  0.8332922538882469  0.9170687758330209  0.5839334017688403
  0.9145432910313914  0.8327314396718982  0.5834914815052198
  0.8321635606743137  0.8337979006407217  0.4996230842637643
  0.9161186409214954  0.9158752426992252  0.8340801862245432
  0.0792965778598990  0.0806873537117539  0.1652081179471280
  0.9979895262988822  0.9993401530642027  0.6674360597372633
  0.9134638490614346  0.4159043793037390  0.1640667239977508
  0.9149768835386355  0.2484908684232366  0.9989684083788521
  0.0783486570152233  0.2488444719025045  0.5022731798590185
  0.9964492959201664  0.3328208971663941  0.1626068386186443
  0.9156888489800387  0.3348569714268914  0.7494767166817669
  0.1634437695185103  0.2484574413243652  0.9159633827167479
  0.6666353333154061  0.6674037974652609  0.9979875350973852
  0.5831124865105807  0.8347167886309130  0.2487146917734792
  0.7508974682604077  0.3326005116416029  0.4184836019780120
  0.5838593043391805  0.6657955859506587  0.7544162157256966
  0.6679565867640436  0.8343611417921729  0.3315421277994349
  0.2466661116517533  0.1631773906762457  0.0797923921348764
  0.3304800648679670  0.1664910731329053  0.6679316869073566
  0.3300570283512738  0.2491794141505290  0.7499103584114012
  0.4986587319193120  0.0844418385110111  0.7508096089719122
  0.4149328572788362  0.0837123551830767  0.8327285726949123
  0.2472664596341733  0.1662239132703500  0.7501617023864290
  0.4986910031658823  0.2498251128633158  0.7508419526122119
  0.4142264830450543  0.1652325120691343  0.9151582707285792
  0.1637675747843509  0.0822349392472949  0.9159487645753522
  0.4156843541041060  0.1635901630900748  0.0785108559983450
  0.0769147440850523  0.2476818582011119  0.3363263208072916
  0.9139538989988382  0.4165328111646858  0.9996507300422627
  0.8309623054600304  0.3318931744884758  0.3319404196528136
  0.7515527386602388  0.5014359447310960  0.2485512530747745
  0.6681138348247229  0.3330994755969575  0.5025031761229892
  0.7505496920674553  0.3331692152369184  0.5853446404485736
  0.8322721122515282  0.4165121846001864  0.0822029506903175