B  Cr Ni
 1.0000000000000000
    38.8074927883120822    0.0000000000000000    0.0000000000000000
     0.0000000000000000   38.8074927883120822    0.0000000000000000
     0.0000000000000000    0.0000000000000000   38.8074927883120822
 B   Cr  Ni 
  80 215 458
Direct
  0.0037003517830579  0.6834208754694103  0.4992935980612991
  0.5226376477574837  0.7479325341215277  0.5003738566481326
  0.1139797167712971  0.1570823767071655  0.5170114158308586
  0.0043243761037698  0.1556640022182915  0.5407000028523523
  0.3712475704100426  0.2491343151136624  0.4458254038234413
  0.4284039782940287  0.3347056875721074  0.4264275855596951
  0.5773533366299595  0.6845841412814061  0.4831557870778138
  0.5758937540001691  0.3359033146277518  0.5426635302278889
  0.0598520429412440  0.5811995442320174  0.4836800844423190
  0.5083405415277336  0.4608833001955040  0.5358539340392481
  0.1000110862202527  0.7914016397753040  0.4695321621631435
  0.8814658020330490  0.7116258750310592  0.5427411171799970
  0.3251785419338211  0.0125741306702616  0.5143546352718922
  0.6067427899021440  0.9937643187318341  0.5028102988603286
  0.4765486624979709  0.1083632166914140  0.4197773199175733
  0.7822263139063101  0.7943692526413780  0.5238217233429454
  0.9652092628115436  0.2861772395243526  0.4985103867035774
  0.2896846283426205  0.1313774337307951  0.4342787145363885
  0.6456684741777589  0.2815484918107847  0.5784097587574891
  0.5920521303207853  0.5036692087991442  0.4407247473290575
  0.5868655985856289  0.3716340250022045  0.4694811613947014
  0.7524781098326219  0.4902208979712707  0.5190799154389373
  0.8702136819535092  0.4050075131903155  0.5240511062668328
  0.0421814930836529  0.1306016322133855  0.4449708102766383
  0.4589641051926276  0.9797647870646358  0.5011304544185523
  0.4358999943948973  0.5140206039115249  0.5107238175290466
  0.1191812580405620  0.5451100552785775  0.4460993300703714
  0.3816426554786514  0.0186712590020037  0.4416153416370962
  0.1757710901935094  0.7093970734988605  0.5659332788480423
  0.6721167134560529  0.4823054919818923  0.4709847679738909
  0.1420071655468715  0.0309996916825254  0.4666545646000508
  0.9828192552339313  0.5941907259866487  0.5602110603520134
  0.6280213268370183  0.9897733586216760  0.4651071533550700
  0.9896954869799474  0.4049703255864109  0.4178526263636863
  0.8452043552070905  0.4999904058917618  0.5490176100087339
  0.7408229153271112  0.6079971273754281  0.5613888499519674
  0.3013664471375509  0.7004062096464361  0.4386804664114195
  0.9996498970847151  0.5075667519480813  0.5016802114952150
  0.1273144194838758  0.8505025040864458  0.5182648596223828
  0.9379711635982648  0.4437702637153527  0.4756238749494593
  0.7253272535270144  0.8913650724863302  0.5681824303527780
  0.2403350187900335  0.5066725412217473  0.4378202113979475
  0.0178970699013849  0.1078880101377522  0.4728903647213375
  0.5026017099736817  0.6514746187069840  0.4758415860305639
  0.8502549315476199  0.0051340627202025  0.5687526748487358
  0.6180163718111861  0.8989776548455188  0.5786169263534447
  0.6836728993560586  0.5331968861130092  0.5418380447576661
  0.1713661855815431  0.6211436626412606  0.4473199638613136
  0.4894458600585736  0.9467270769208501  0.4971107968375948
  0.0298420009802871  0.3836845893077524  0.4021846923142796
  0.5236749556081156  0.2003835523502705  0.4810386828715477
  0.5171717074758724  0.3799413746521386  0.5008855089702168
  0.9055244213584518  0.5944043680315583  0.4944594272521961
  0.6336880388301854  0.8452225323649852  0.5227567616492349
  0.9482246625256209  0.2662594524748035  0.4112891436227943
  0.7313383227043493  0.8955006628612093  0.4808564946639125
  0.6356705391885634  0.1784336219593556  0.4988821716380292
  0.4557994263231634  0.3977574784571785  0.5361985598976142
  0.6329430555446450  0.0471404310122577  0.5280913958314625
  0.7095159498192493  0.4019523151072981  0.5137089299362380
  0.5779760174766991  0.0518200379414019  0.4233840058559902
  0.0185763589727109  0.3043592110645321  0.4287620187355182
  0.3135458356371324  0.9346685437248075  0.4633984380914533
  0.0539842848931231  0.9824928803555798  0.4479435846065686
  0.0827100460091740  0.1780206189471852  0.4936906896313057
  0.5229338141839734  0.9448799273188017  0.5311020691216634
  0.8776588065354262  0.9313053363885839  0.5972051818797802
  0.7668416159894320  0.3916343524260427  0.5212151985198862
  0.4701295573583724  0.7142834838546941  0.5583837326745360
  0.9929212637546817  0.0643075910059471  0.5404343127117567
  0.1937659476305972  0.6558102238834219  0.5189800779500966
  0.0108800247662590  0.4297251996352503  0.5025968508789063
  0.2368006485131553  0.7313944207220988  0.5088391329395333
  0.8051962992550658  0.0664350396570436  0.5901574299197144
  0.2029664856621790  0.2888564734486030  0.4648832501700073
  0.6310228096163661  0.2532591773602995  0.6111009269567688
  0.5558741438749589  0.7682345090975680  0.5264389365848425
  1.0019964115427076  0.6364441294404632  0.4213857078478568
  0.2638155344450257  0.6544182317394296  0.5371688942667608
  0.0133594766350129  0.6381772093275281  0.4960099783880292
  0.3333826257561395  0.0480874875199890  0.4273233394664682
  0.3332350461150838  0.3373890865932060  0.4192423888261857
  0.2425707739148230  0.4547009486975053  0.4559298001445489
  0.1384097643841675  0.5573806480137552  0.3921469028105045
  0.1875135084714727  0.5245200637851684  0.4187495923609014
  0.1712650484975243  0.5638281285186854  0.4564427967919168
  0.1367372045820472  0.4947060118822798  0.4636923638730929
  0.3057371426323130  0.3970428537228545  0.5050936849892886
  0.3259447188326552  0.2789899099114879  0.4345810795850160
  0.8943323531141778  0.4823004072091129  0.5535826802441702
  0.1802728429975091  0.4185781024454569  0.3899165496869778
  0.9987161332216703  0.8942406369177098  0.4616664764021071
  0.1264342391862788  0.6007373510384413  0.4262784667710953
  0.3234607068507029  0.1969332342608087  0.5065902480484236
  0.3857887496781090  0.3700784256748696  0.4172397857802081
  0.5305478688542493  0.1261916399168239  0.4268359752492212
  0.6442571891762042  0.2282029945262859  0.5629748529351557
  0.6686566920234136  0.1649585131748378  0.5730733208794772
  0.2199891805418450  0.8608486101879009  0.4354111850358873
  0.9442763297957165  0.8064256511022591  0.4734029427752600
  0.0974763118748663  0.7492074639351243  0.5026664212065117
  0.2633704128545269  0.2988752806552747  0.4668152171273949
  0.7945649269129050  0.2817848879620500  0.4806980578288881
  0.3962804695165397  0.4812953300224900  0.4375645752929554
  0.4432291672695282  0.1375143361696088  0.5071561435365984
  0.4323744059836645  0.8750198135366759  0.4473890592404535
  0.3798579680723096  0.9026541976325229  0.4237564629754313
  0.6780329530853371  0.3201647979072219  0.6002026331562311
  0.0858397885033724  0.5277388577189035  0.4913558585493119
  0.2036617873761040  0.4352928766358545  0.4954884981419035
  0.2186133901028164  0.2815659107388606  0.4088545912525281
  0.1882643048394847  0.3993703437103795  0.4525777593593178
  0.5743214727762614  0.7432576861310680  0.4773542876908313
  0.5254172431310011  0.7668363756949450  0.4479615129799011
  0.5159549498979470  0.9922985105497841  0.5015468602855614
  0.7827421213069495  0.3360493771576918  0.5290186340732280
  0.9196254891915854  0.2875133086790180  0.4581275689306755
  0.7927982407982140  0.3612224921316023  0.4773348258183480
  0.5618347507886957  0.6056654667438491  0.5276603891987419
  0.5788522950877403  0.5460716672520982  0.5462492032983720
  0.5566053050252787  0.6362519646607167  0.4628804827201201
  0.3810724455493865  0.3080801348262622  0.4499329133344331
  0.4514259241032482  0.3086405549801967  0.4716979949389128
  0.6017470902929246  0.6535025984581384  0.5246943525649100
  0.5556754280684720  0.5742596220456985  0.4747186664929353
  0.3367285646402197  0.9867703959685444  0.4493031300798074
  0.5884602890874564  0.2713664450789858  0.5805588392847606
  0.8163263049663932  0.1096475882979579  0.4635398098537118
  0.3430529798248217  0.0984518308923263  0.4740024092945657
  0.2770877504690854  0.8935585869399527  0.4460215811986705
  0.2274019048370957  0.9885361255633295  0.4079002439800493
  0.0375063835895261  0.9872645836564659  0.5026965434935921
  0.5070106741679488  0.2929311538241715  0.4947801850851889
  0.2778845524943681  0.8317691692117242  0.4627195746729585
  0.5348099824278355  0.3006035376324440  0.4401811332541707
  0.4726707763259550  0.2463421342235497  0.4947913279360183
  0.5351035713107386  0.1911196199525689  0.4224060760203134
  0.5793464114866769  0.2034168891894708  0.4798798947307019
  0.2229587203241272  0.6083746675341744  0.4624522863108529
  0.2332084275458544  0.1020282317200206  0.4338210804714379
  0.6378499840402885  0.1281991478245937  0.4614994082606883
  0.5479161450644195  0.0930588710802510  0.4988510739884026
  0.3445800428477067  0.5596036383285033  0.4586175633836625
  0.4362044763903776  0.9281467244747140  0.4972333870388447
  0.1278061325625185  0.1523701235204544  0.4638928471140561
  0.6656584907664259  0.0216230431062236  0.4325867360519989
  0.3362452543735078  0.6155156280699824  0.5024108706223550
  0.2233911897970272  0.8834007618383524  0.4871576644651749
  0.2157134283940443  0.7991041046247513  0.4470409053825927
  0.0786078000564851  0.1221495432315313  0.4875426274909867
  0.9783777335068238  0.1897383261402428  0.5037281906913246
  0.2576027526602971  0.7715133870251956  0.4692513048219751
  0.0278074051846906  0.1588776581578438  0.4891719943114178
  0.3021578290031073  0.6501215523985938  0.4143147563768533
  0.9882819528932382  0.0093843046933423  0.5463431486638771
  0.8828235150025361  0.1559908779487731  0.5297984550976382
  0.8917624687153463  0.9695098965796916  0.5586299359067733
  0.2546297662063282  0.6676522710176883  0.4445770400128439
  0.6086204204187425  0.0392410445435702  0.4693850257685298
  0.6115690562116401  0.7525323268492277  0.5381048967259037
  0.5046400701638155  0.6076519712190698  0.5067336773566979
  0.2689596607510402  0.8478160269810701  0.4008580244964776
  0.6599511148291460  0.4295447072355332  0.4911121384518128
  0.6137214696586654  0.5399474752029423  0.5070558479549379
  0.8639327448306215  0.6809950969349157  0.5862452797119864
  0.3695738041309644  0.9334450775326996  0.4693650903758380
  0.7961714562052504  0.2196289442419879  0.4986420154739740
  0.0767257005711167  0.4642189932750738  0.3937556163894281
  0.5290984535616710  0.0764463326872416  0.4068959112577216
  0.6875531654987428  0.2607866272890010  0.6170744649950777
  0.5019834016600702  0.4720811358344393  0.4769250403408404
  0.7402472052905875  0.9971783235448022  0.5871707951294109
  0.2568861580847573  0.9295919625916452  0.4887438295732053
  0.2655918797481550  0.1805460974347153  0.4344236265721925
  0.0887008928730224  0.3889206924795179  0.4721235413911407
  0.1628073442483533  0.3156659064395642  0.4958637972373187
  1.0018386628680671  0.3572564780873834  0.4411033021590771
  0.1375206418911233  0.2056791804734945  0.5003069693673677
  0.0288892622423051  0.4199709132156064  0.4526195433924085
  0.6399252091194657  0.8482962542278003  0.5795804508899880
  0.0166406730784500  0.4836366444677972  0.4290191625339641
  0.6895767940203057  0.8532582471547044  0.5427162385993723
  0.2349373066512298  0.0340704130190588  0.5146711754968752
  0.0871325374736027  0.9515533315863225  0.4801254741234954
  0.1551680746766832  0.7754917886862106  0.4550224415878292
  0.1702294894514758  0.1514448149328538  0.5162207979170977
  0.3816835910299349  0.0789929248138053  0.4356425164580661
  0.5367199168361174  0.6616294762809083  0.5167782327173828
  0.5692646083296806  0.3901312540595964  0.5193064549971266
  0.5025355114452341  0.6033876950996088  0.4464449318208881
  0.5046436263021129  0.5435297852078335  0.4645903477730551
  0.8457152609319745  0.2717530814350734  0.5007717315916920
  0.9399570377827768  0.3201117070419698  0.5308040062765581
  0.7373747859954302  0.1006895401875903  0.5493043827963794
  0.5855594151714704  0.3806208612470310  0.5741882958503525
  0.7430494025414273  0.2494895515087638  0.4689585217204987
  0.3212700204149415  0.6615405721907466  0.5431342443672063
  0.4251993873935903  0.2284633516023213  0.4253862413586439
  0.7613115491462366  0.3714922676234735  0.5729691684328216
  0.9184391567285071  0.5419280381613925  0.5004921972291073
  0.8577501945240488  0.6647074431317869  0.5244252118109043
  0.8671297197552760  0.5575928254574543  0.4774450686039946
  0.6584187506984261  0.1315679692717935  0.5199352071672051
  0.7461763917406223  0.2299734262934397  0.5304188788139019
  0.3101124745881921  0.5131471338953474  0.5174202364749901
  0.1086078936931543  0.3242323812141776  0.4682816051430757
  0.0635454815202627  0.1516384340050642  0.5428380724077595
  0.0288509527561242  0.1035969595317387  0.5268358374749568
  0.2060793770627417  0.5132484237862609  0.5366439432351393
  0.0891130756169767  1.0026550220288144  0.5340656864126341
  0.2369724671691493  0.5531588970138488  0.4759021902325283
  0.0311498172073109  0.3740098842307786  0.4960081578781101
  0.6546969888299742  0.4898479308672647  0.5233750996776717
  0.1035827344401611  0.4734692675630369  0.5091449400542212
  0.4910463343561304  0.3553043641774969  0.4559813075547914
  0.6731848052688847  0.4344457965713276  0.5450553545327855
  0.3904117519538116  0.1450354020161146  0.4839089350672845
  0.0699555707441772  0.7197817648688843  0.5579139308564760
  0.1230512005084230  0.9173684595024425  0.4446697146903618
  0.0893462171154689  0.9418644676943858  0.5385850395155566
  0.7317091951710617  0.7650203361026285  0.5214604189703301
  0.8911376691558325  0.8758757947422297  0.4983975287419865
  0.1246799287336489  0.6469200501711184  0.4719583028138699
  0.9678277155902358  0.5105840080688943  0.4111823460522078
  0.8122017939360242  0.2134718847594009  0.5578339095117422
  0.2167861671261604  0.7498790884977363  0.5633656311557856
  0.2043541711489821  0.7326840767389520  0.4597081909326974
  0.1446518855937754  0.5283464661888174  0.5084611037461789
  0.0408355272900966  0.0399042753132887  0.5445301772842240
  0.0467152536761336  0.7678804484342509  0.5382248139501504
  0.0149692878764690  0.8766887411958703  0.5815736571117912
  0.6565644828049952  0.6429440311449238  0.5629660909179229
  0.6778714093502627  0.7422578364343425  0.5054358626607639
  0.9580406898876636  0.4262753546548223  0.5258089059124753
  0.7826300367994946  0.0044158696579411  0.5227210538276312
  0.6857162869455092  0.1584114825291432  0.4748073722188205
  0.8560484595417491  0.0955262487897949  0.5845242665234359
  0.7568084819023202  0.9490724572079029  0.4852104009577708
  0.7035338194174782  0.9168486802383526  0.5271070351365641
  0.7661092645005377  0.2057926864290937  0.5972064431768971
  0.8418887219388215  0.8473294331248142  0.4833835703861010
  0.7963057404427808  0.1087615645829191  0.5557708073385086
  0.7889990393791964  0.8836325207526767  0.4724385817617507
  0.9460500122107484  0.3388903896590631  0.4735545380162305
  0.0043797816529077  0.3205590453632614  0.4842663427852679
  0.6036186871668131  0.9367388389083918  0.4891969484181219
  0.6424363927022311  0.8993415160458250  0.5288879129657764
  0.5409547232733520  0.9315042850427132  0.4787262526135141
  0.3551320786848696  0.2526107730881919  0.5011522395595915
  0.5256744887497071  0.7021556948544019  0.4677229643254053
  0.3872602023685755  0.3012332932866877  0.5141196904669676
  0.0886880595097503  0.0134340548030001  0.4714021040337609
  0.0054124060210674  0.2621561785996036  0.3914631823551584
  0.3326236150341458  0.8808754796705984  0.4682406181944265
  0.8175077782834740  0.4551734147727752  0.4785182304551637
  0.3310058089832379  0.9382517166506092  0.4076536037326443
  0.5654993194368075  0.7131235836815900  0.5270802606627083
  0.7712426656581056  0.7914887830288688  0.5855545464961431
  0.6320005201534741  0.6978757348513339  0.5560683083694865
  0.9262288072586161  0.9635037465522172  0.4904293322760496
  0.7359597854449308  0.7057115469637171  0.5372268459601052
  0.9174229440960706  0.8445230917783890  0.5779909920867337
  0.4567000351731864  0.0792277847085062  0.5120892062269871
  0.8100819650865652  0.9424797050722162  0.5029243336900481
  0.8340088306987762  0.9475258312685707  0.5674286562606820
  0.0147357854674605  0.0559372466605393  0.4894585421454849
  0.4196740539305415  0.7533855468452463  0.4723441694442033
  0.3828262449074022  0.9696994145996894  0.4127494302333445
  0.9715822599248394  0.3991620054405894  0.4744194646923677
  0.9363917271855453  0.9094216989747766  0.5076435515313774
  0.2414377432535928  0.8236155601634834  0.5056232398347809
  0.7606978965164775  0.8925149158448102  0.5245102249592944
  0.8134967434298069  0.6263784351796864  0.5054590810872661
  0.9874541575043262  0.1557393946853180  0.4433933562178770
  0.1402731272410060  0.7939230475139090  0.5140799635755146
  0.4116624763947999  0.5541652598888086  0.5442305974040170
  0.0408902956863925  0.8587747779310950  0.4857931536476811
  0.5621993372051014  0.9075470596137056  0.5355123554339868
  0.3705870522198214  0.5027668143391538  0.5377228888309236
  0.6816242718291031  0.5867586945581825  0.5746114903221422
  0.7768131163416003  0.6289586126376573  0.6056048290360858
  0.9419692561342815  0.7900851085831102  0.5386968209892187
  0.9600650233757472  0.5871566098825147  0.4842237224156893
  0.5849075474037820  0.8561066590438375  0.5583139624704878
  0.7231690053505626  0.5670412349415400  0.5323803754391476
  0.9644161258545921  0.3178947329544076  0.4122887940909212
  0.9385184018658694  0.6994409678708519  0.4472542926056927
  0.8936834167997102  0.3447343352473641  0.4402438829383548
  0.2834228094622425  0.1398983073233118  0.4940310036922881
  0.1330454674022675  0.1064454768048913  0.5168758427974138
  0.6533770092477931  0.9572174837380470  0.5055282264245656
  0.4160747774043384  0.8106327234752807  0.5169602673992264
  0.9469537048204996  0.7367339878006384  0.5515057025984722
  0.5463898876193447  0.3384214336176434  0.4882100126626944
  0.3915241543304572  0.4482111679905312  0.5533926061334077
  0.8082651955381547  0.3576545941490054  0.4055165364337009
  0.4813128535171186  0.2656963519878461  0.4343102767269265
  0.9134914573252362  0.1107455111293153  0.4897762075346880
  0.0884773504867222  0.6884499041755056  0.4529510515951978
  0.3947083902328425  0.4181408473946293  0.4538743283165427
  0.4138024109090331  0.2588451517021947  0.4755760122529473
  0.1742865986609625  0.9575070703884959  0.3993029409203495
  0.5311723648274650  0.8045178419710353  0.4968849186722598
  0.7123643043953470  0.5669106186172650  0.4711083795505288
  0.6740670197507067  0.7474014719487815  0.5621157986406978
  0.9935191103300679  0.7254979729934352  0.4653568394460685
  0.7976991618559932  0.2352950628680475  0.4360903168765788
  0.8359605093827456  0.7241095959141166  0.5128870805645287
  0.8952516085397341  0.2300106881567344  0.4700871496169961
  0.7529267858672072  0.3747300087479229  0.4316144018945991
  0.8118655455872101  0.4087649597387428  0.4411476194798752
  0.6611162795966428  0.5901689351816428  0.4455225894858798
  0.8645210102684789  0.4963569867362619  0.4973461920473110
  0.9188491147642506  0.4888186882814231  0.4603552957837033
  0.6577282347152869  0.5311177971143536  0.4656015170956975
  0.6310627367683421  0.7726547935414414  0.4827820018624164
  0.7584932360180798  0.6028076110329036  0.4945023172717884
  0.9093642414726824  0.4064250378277275  0.4545514200428763
  0.8428208582225128  0.4470777444416948  0.5366867826920555
  0.9530930534661153  0.2131241669121676  0.4355940508298242
  0.7051102873292840  0.4553344902363423  0.4441440101078701
  0.9500749996214212  0.2390597273054101  0.4907477213112131
  0.7617018533965895  0.4158607983731031  0.4749803721811268
  0.6090608634001420  0.0877420596026411  0.5124804048919416
  0.8715592944386703  0.3664967881108285  0.5550301066944411
  0.1137639246423454  0.5835364874308003  0.4853840720903099
  0.0147878772368818  0.2151633029320270  0.4582632842072401
  0.9549600574409717  0.6918442796829215  0.5062933087241637
  0.7084044196321209  0.5125376963612932  0.4970305556035991
  0.6171643102815106  0.6619805836127454  0.4590299741818269
  0.5853490418205872  0.1558951228238644  0.4384872821053345
  0.1295623247344958  0.4972317505944646  0.4051151841172375
  0.0484538927917286  0.7699907020164196  0.4724813811268331
  0.5822749465040621  0.0953032782303323  0.4526095940006560
  0.6568976472347329  0.0748561756143232  0.4767645656432086
  0.9394235921373036  0.7472101423008290  0.4901761223347795
  0.5361551086088759  0.8702318155739827  0.4819058249289831
  0.0630241613930260  0.8237441110660990  0.4479130702067861
  0.8562604440173012  0.3850805299304336  0.4792122151415094
  0.6346071051422599  0.8330007675231069  0.4711658197801242
  0.7890101784690932  0.8175510332579947  0.4739653321345194
  0.4228568990667169  0.3632382807817510  0.4670680483939714
  0.8491992021329059  0.9077955162152470  0.4646980433052044
  0.3375906437630534  0.3889709664127122  0.4540255884469358
  0.9703425866042953  0.6461073904478077  0.4621117891888047
  0.7606044703956435  0.4836682346779885  0.4650218962270776
  0.6061070909316901  0.5556051098489608  0.4402311155959681
  0.6285905005994546  0.0726750948033656  0.4175445518196948
  0.1668465231859232  0.6169384798778198  0.4991458984674629
  0.9546428200357530  0.4433821202063633  0.4245935289879417
  0.6634632561248306  0.6361023084381667  0.4875820197772299
  0.2781491233602101  0.9571410818251764  0.4337943011813413
  0.4713067513333247  0.0245468001278081  0.4786674974477420
  0.1974325656377338  0.5019259014269516  0.4769168247515099
  0.2045148614094078  0.3672373018853389  0.5051483639198145
  0.2717868781219368  0.2464237087110239  0.4240939766929141
  0.3980762196678899  0.5922099690654320  0.4698007162397572
  0.6361870110191197  0.1894653190919298  0.4472583594958058
  0.5407926468014106  0.4014219873980855  0.4619117882081904
  0.5899416346607614  0.2696759320000966  0.4711141866410238
  0.7043335469070557  0.9825165986532536  0.4665719478028790
  0.2464453227454726  0.2474674807490379  0.5284344210402410
  0.6261698994250029  0.2791670071117101  0.5272458765764010
  0.6099912748898393  0.3387377545226845  0.5051349815976329
  0.6491727458409848  0.3752068974312995  0.5939534431267872
  0.0736168486067039  0.5080707197849766  0.4368091940869712
  0.0184768374853364  0.6021016484815604  0.4574777648844964
  0.4477118933897978  0.0651698406523975  0.4048353889842179
  0.4023126265401182  0.0277860711350725  0.5219293486771431
  0.0816099983424174  0.5290221645294887  0.3799103587019250
  0.0288578718107037  0.6674751472726274  0.4558330486635777
  0.0731840957352306  0.5686950144665786  0.4343281278986579
  0.8941964615451706  0.9017410520945821  0.5576635600626494
  0.3977357115922669  0.5340451035763244  0.4855704927762139
  0.5431634547733667  0.4959360310593462  0.5432629893260373
  0.4846196912067057  0.5080203638913261  0.5188222025064515
  0.4727753225628531  0.4024472365351181  0.4860302511927343
  0.2954411710305478  0.2549561428776199  0.4876111198836408
  0.5809055571902031  0.8027760526002033  0.4571757554761705
  0.6361927698598406  0.1397867489297555  0.4034385128955172
  0.4809592101005110  0.3486804254060583  0.5177585324540271
  0.1844680941299300  0.9437171271765358  0.4658725873030622
  0.6967134430375634  0.3744242208546462  0.5547620291613732
  0.3526187408616981  0.8243340081681787  0.4894282601401142
  0.4938262835789372  0.0272560040757342  0.4247225173392708
  0.5704486884085427  0.0333934468827197  0.5188720919604038
  0.3634428802951387  0.7202497708873110  0.4681155929084646
  0.9838277503936713  0.4642345515088531  0.4754339417426689
  0.9176446896686435  0.3803671610963001  0.5129441457002830
  0.0967150926070626  0.8883302414412533  0.4945554322330112
  0.6660980336556109  0.9563973236368745  0.5661381359673104
  0.7104401638357372  0.0501960500150751  0.4677952359349671
  0.5664799402656950  0.9729476995471036  0.5283950054762213
  0.1823783952372280  0.8289771813678918  0.4868465748346097
  0.4462180645857475  0.4497881473359968  0.4616362887740375
  0.2009138015270867  0.7720644844438271  0.5057006438517194
  0.2928465606758194  0.5911424510040960  0.4378153424435134
  0.3166743114454422  0.7746373899900862  0.4890449410761112
  0.7414867419867560  0.1873987082850943  0.4867051487501182
  0.2774001704683449  0.6295007896150298  0.4884265848111469
  0.4503377058210481  0.5114797782295188  0.4593698863868356
  0.4969813646722129  0.4325919964762104  0.4324624937385998
  0.2802961052906086  0.7175648129175688  0.4831050821829768
  0.3503653055715621  0.6214841086426769  0.4426455027898357
  0.8361155330431230  0.3187132438420038  0.5422471669827265
  0.0185360299630637  0.5927598081080028  0.5189375456391024
  0.5069313330648276  0.4102898854243889  0.5394782977222043
  0.8602206366710814  0.8454660505012943  0.5525041338590991
  0.9753962607881275  0.1079629844399642  0.5629198103226998
  0.9918830820042590  0.7757514859201442  0.5049520104127495
  0.1919554473886392  0.7095460368013796  0.5159238499456398
  0.9077759779910630  0.0977950694947102  0.5474185413348746
  0.2673554509857303  0.7067048529941119  0.5466777830881244
  0.6862686912713675  0.2642661726620800  0.4983774230251000
  0.8550830954684213  0.2699838373825492  0.4406589327625085
  0.0421918419528739  0.4797011018298863  0.4879326504611304
  0.1809046039774742  0.0042611129218361  0.4447120482499110
  0.7410765968923785  0.8288635260632108  0.5113383758167599
  0.8835538152050938  0.0528882586237240  0.5012212992730833
  0.5545705913291907  0.4654125401008205  0.4444320888065826
  0.3214019022048175  0.8136161132101580  0.4269829194057554
  0.1211787151129603  0.2655481885751206  0.4858750469915006
  0.3143149463657621  0.7502992207051363  0.4362835209548144
  0.3701903773743407  0.7806380167289195  0.4493548015451226
  0.4243712697619484  0.6985378506349946  0.4866010959956735
  0.8439009441174440  0.2017921126995010  0.4596291652782444
  0.4252871810610019  0.8138436372518167  0.4595666546678260
  0.9734836200454340  0.1274473226437962  0.5020610078525203
  0.9191250277324300  0.5478096420161959  0.4383797369488370
  0.0730077226761450  0.2254436832370992  0.4790910801641438
  0.7483841013466392  0.3154168150390398  0.4548646654258187
  0.1815110967282367  0.0306754718735521  0.5553922474344548
  0.5997092981737769  0.4210107700268150  0.4711285313031821
  0.2112695951891352  0.1984807432428612  0.5205051770003440
  0.7206887831207508  0.9412945181698130  0.5886142457006642
  0.9247386153525409  0.1728208234605167  0.4810519560076372
  0.0984568329759182  0.6847115080633870  0.5155960600601205
  0.1827625668820422  0.1912699368879400  0.4637350225263662
  0.6198769161648875  0.5956884991758110  0.5501420458911452
  0.9144147483217295  0.6448410872745756  0.4975051532077526
  0.0178836394849820  0.5447388055540723  0.4105272780689347
  0.6866523891287449  0.8661629428019220  0.4849937795511175
  0.2069670351082837  0.9282784894364827  0.5281319588566017
  0.2257433833817537  0.9242289742871065  0.4252897351242271
  0.2662260272284883  0.7874868681536081  0.4110703335209900
  0.1918898413550987  0.0899122736045654  0.5337794284687319
  0.7466288162076055  0.2632120704775967  0.5837107367610491
  0.4502222192375956  0.5723101645674293  0.4365215980937408
  0.6113077447552596  0.6018202245348960  0.4850769986048961
  0.4835155387888081  0.7060606481021591  0.5099334510000501
  0.6179804032791799  0.4795449154341151  0.4748283465190015
  0.4076428467527096  0.6502284999502927  0.4458525197028392
  0.4500973961401375  0.6264575148972188  0.4857197265799182
  0.6377023136410161  0.3664858982280126  0.4541602307548869
  0.6742637173900650  0.3611271251272907  0.4971181642721574
  0.4575560620003770  0.6319399453706760  0.4132063136676961
  0.8686595049735029  0.1453871332860570  0.4697530238118546
  0.1442995530766878  0.9772101411387070  0.5515492759100868
  0.2377839354532693  0.9859590119679572  0.4707088999227318
  0.5709742795977463  0.9851953043121497  0.4642174073951149
  0.2963818082321813  0.9747848365616856  0.4944514802057530
  0.9456844644286937  0.3763331206341879  0.4196788156792788
  0.9784389849931440  0.5467746956557585  0.5287872899023798
  0.2498807720000474  0.9767988103693435  0.5351180189650687
  0.6506669103248606  0.4224993593129694  0.4334471140382047
  0.5216556548189500  0.7021117487783973  0.5671637668160613
  0.3575266872686743  0.0791968531220644  0.5385107807189820
  0.1250361702152588  0.9758594384417837  0.4329696861299724
  0.6913664550769867  0.9243688749510206  0.4664278432375733
  0.4375779655142493  0.7476758923561949  0.5311468209279669
  0.2946572505072009  0.5695287015875907  0.4981239505323837
  0.5916296212192819  0.8092814032381518  0.5172836088921146
  0.2544783161628307  0.4988068198044992  0.4971742995629674
  0.6064837319505795  0.9443749217243974  0.5624622135498188
  0.8739740488344993  0.9378677329425670  0.5112717518137276
  0.9507095197887311  0.9578042037505244  0.5495747000720765
  0.2276266658000881  0.6181823312929899  0.5238179924888995
  0.3021444573380574  0.4627452428547886  0.4744584342653171
  0.3507222481220873  0.4974486787619384  0.4761396852463810
  0.5226895474908507  0.8567897213161083  0.5391527317810121
  0.5506583704615419  0.4487159378632819  0.5034487654015629
  0.1210295770316800  0.8377184119452137  0.4682723036012391
  0.7119651095992573  0.4862706255709972  0.5517953353067813
  0.1710808955866205  0.8956038529009270  0.4092395675702871
  0.5610610849111599  0.5120165112400664  0.4866165674542869
  0.5336300609226783  0.2438230792145541  0.4582861987873835
  0.2877586638941380  0.4179655013979465  0.4315295259836037