 C Cr Ni 
 1.0000000000000000
    21.1200000000000010    0.0000000000000000    0.0000000000000000
     0.0000000000000000   21.1200000000000010    0.0000000000000000
     0.0000000000000000    0.0000000000000000   21.1200000000000010
 C   Cr  Ni 
 173 259 605
Direct
  0.6628182493876345  0.5008139258725467  0.4205123735165781
  0.4979531889017673  0.2552489650578698  0.3262793483050586
  0.9177154253571143  0.4989691888469889  0.9983064602509002
  0.6666592946886959  0.2550612647191891  0.0095773704539997
  0.2437751640360329  0.3218819558788459  0.8562049011976182
  0.1438463984312458  0.9156994126163555  0.4827854951538416
  0.4001090803390697  0.0161678064108331  0.8492505089127118
  0.4850552603267480  0.9976598975892974  0.2452699297001531
  0.1551192756016266  0.0032732106298731  0.0891660689446062
  0.3381608005285099  0.0875783752782438  0.9999800804120604
  0.0660962356346437  0.5907158366506682  0.0757989246334398
  0.4097656611815507  0.8326831974662513  0.0090071319205976
  0.4894518062793421  0.7499261141572634  0.5038475828604437
  0.6589203549455072  0.9214352922187312  0.8309645060298396
  0.0969727006194902  0.0119885579161490  0.8115791420963567
  0.3229103398515474  0.4922397633906421  0.0770032003211449
  0.4018918281046874  0.1604622067930792  0.3216637178899606
  0.9177299639652995  0.0838853276096874  0.7439810852828186
  0.0930782410815109  0.1418560028412404  0.0054176326006265
  0.9824075374748713  0.4213891920180570  0.6435481984305076
  0.6508072610397779  0.7501203305152206  0.6775485364360710
  0.7489811274512236  0.5870735686094701  0.0813214606841961
  0.1639831627872011  0.2505090695163322  0.3163101728102603
  0.1767488351899225  0.0130162000176524  0.2752280490212527
  0.3057517751106172  0.8552511781617010  0.5728557982105876
  0.2528708929692994  0.0718734259011089  0.8963520044945494
  0.6710880522093748  0.4956235121662280  0.9228762156195532
  0.4941775552370465  0.8391767085632568  0.4144357516791229
  0.7512412256600524  0.8317188740088485  0.8367887311827324
  0.1412173962511203  0.0982397670220753  0.4978243096016456
  0.5755231969592655  0.2541696394865844  0.5740120571513698
  0.2332203393167914  0.5940924712153688  0.0515450756053395
  0.7509847518179180  0.4154727429304179  0.2425988294629648
  0.5784615590154909  0.9981712189389977  0.3340243119479213
  0.1642732428405805  0.3391113997672321  0.4054156085632253
  0.7449689190606885  0.8374332942396633  0.6672694139718275
  0.5749604539976648  0.1657932225325068  0.6675059967750934
  0.0646687409495177  0.0495299013297297  0.3958464056752952
  0.1345063111897199  0.8980526068938282  0.8644203296006210
  0.3185737236771030  0.9169942899488042  0.8449594308562560
  0.2402096435433478  0.0945937009644538  0.0858937542732553
  0.4992642019669656  0.5799306354891972  0.3273110659371911
  0.8277497068221742  0.4915622586887692  0.7240172644626326
  0.9220374365460050  0.0777038621588544  0.0880152838862084
  0.7391364745992270  0.0783732630883497  0.0872852540636489
  0.4196076667009286  0.5891804513267577  0.0814170530219312
  0.8213107414338447  0.0821229052452808  0.5004540482105795
  0.6683572823806152  0.1604895008374571  0.5725794353270435
  0.5079164367202023  0.1029884918933504  0.8467629714708945
  0.0623689840525950  0.3406985366010068  0.3121684420929927
  0.0649736840997948  0.4350924069390658  0.3936155402753694
  0.2447119271797641  0.9967571912463532  0.5389196091378118
  0.0145274700922193  0.8356236094568400  0.5832520173436935
  0.7332239748812285  0.6436056915465955  0.6842147989140023
  0.9781516107971511  0.7332458006279713  0.0059336878214022
  0.5744430410546757  0.2497974853668476  0.9154414759882082
  0.0779947567518237  0.9031261284052935  0.7305599391038623
  0.2207352484873664  0.9159716587517260  0.7441876256770638
  0.2422825330479983  0.3352389410184663  0.1679176133823650
  0.6834941246827320  0.4926144067736633  0.7356356816648971
  0.3071384843656303  0.0926748323460006  0.6526517247990011
  0.1769884857810810  0.4380665995816053  0.3069491832286541
  0.6594847384038519  0.4137569685790496  0.3328738109786710
  0.8336350076198432  0.7445385264349398  0.6738488544082287
  0.0720982429114670  0.2457273386319754  0.4090374124878976
  0.4081656119050214  0.4919212767816598  0.3555240576484965
  0.1612257398160812  0.7852825087992981  0.6552670724762214
  0.9878671523192527  0.2409414170092373  0.1615767135232666
  0.6562193555560885  0.3237317818847810  0.2420803785921110
  0.0078859589091440  0.8200913816096106  0.3938945286664518
  0.8354631084501410  0.8375928482725197  0.5617357478770387
  0.9936416582348353  0.9143149670934054  0.0117132333980960
  0.8288445262586482  0.0748072129622985  0.9930887973548630
  0.4104605441220827  0.8269067282964390  0.8385237190393766
  0.2596291392241268  0.9171749542354061  0.1017346658978869
  0.9178891891965154  0.5558199413833836  0.5969550376736780
  0.9036378021731766  0.5883598610454097  0.2702148982956974
  0.2378426247374743  0.4865808548398542  0.1851420444712963
  0.4989595316638970  0.7523091064653725  0.8414501417869303
  0.0115250106825303  0.4035629305493913  0.9980291079450530
  0.4295667655994321  0.5128603084607902  0.6451017470764665
  0.9234146590893914  0.7235390438950240  0.3921861563319230
  0.1640855043784606  0.7414411569261219  0.0036018283618494
  0.8310159165055098  0.4991360564997028  0.0876631661629469
  0.4964040492543210  0.9190491274079413  0.6612564365420031
  0.5898627086341786  0.8424741122306515  0.5115467105695776
  0.4864126586991449  0.5713043009920251  0.8429593424201276
  0.2081996950501325  0.1936841394384426  0.6562510432535347
  0.3264436372685745  0.5909897105600014  0.1683362271147861
  0.4778444288103055  0.5674581419024599  0.4955894131557019
  0.3367997086177789  0.5777416156106657  0.4955955500892025
  0.4908049990508500  0.3463389179624461  0.9191706250689173
  0.3909391394099899  0.2425045846008139  0.9231779875664465
  0.4694215627881387  0.6558550755561326  0.5861295538743181
  0.1680504986753169  0.4271475258053010  0.4892117581341694
  0.0623151255479211  0.6835794662838781  0.3463226624968483
  0.3164673702939098  0.7330351230299317  0.8473838410006616
  0.0583050962703914  0.3587751282422765  0.1468584287598395
  0.8263175812493185  0.1603961651383762  0.2498699818715622
  0.2426597350795591  0.5895389853064997  0.7709280017579443
  0.3330714435321074  0.4004696909035447  0.9815626132580619
  0.3319042548494354  0.7465139540161951  0.6586277042792280
  0.3477497605037874  0.3413252853670817  0.2592640235623355
  0.6553442888410173  0.8327003640288557  0.9230209794865369
  0.0945256459508474  0.4003783255272724  0.1029053944798302
  0.3194326851928399  0.0087683505442692  0.7504549571594318
  0.5019328788085593  0.0063197012306347  0.7544213590524389
  0.5909008148162127  0.5964661457325902  0.7361542888838885
  0.0123370071329504  0.4751173554029199  0.2573298228302088
  0.6676159310102141  0.2598747099343361  0.6572342822198352
  0.9121013497937818  0.9955288332987089  0.8347779510481239
  0.6676822240756886  0.2551243169629837  0.8327304118977605
  0.9217750073152826  0.7367652220429326  0.5757821752304539
  0.1628232648145537  0.1960189287235544  0.8986356701081022
  0.3252632379525071  0.3314075613395204  0.5779565129291891
  0.0216885516793653  0.0082517869351576  0.9264594925367226
  0.5831570136550221  0.7481991618995589  0.4146864959501591
  0.0998526480123473  0.3346760839491377  0.8669498429469836
  0.7369740479135026  0.0803436881133328  0.4105598256550950
  0.6728982750193380  0.5848452614242581  0.8342457397452596
  0.1861211921352498  0.4244861252229019  0.9785830395687704
  0.2451090104296573  0.4095704335349207  0.7456490802494637
  0.4064890295252214  0.9184392556967883  0.7486429959315197
  0.2559590395743719  0.9298389382245894  0.4127622430561670
  0.4196719466941586  0.4960141909178185  0.1708561972143358
  0.1765026057669736  0.6484686170690841  0.9182954894957183
  0.9970829281554798  0.9181966299803906  0.4891106281530903
  0.9992653219796934  0.6607323592730205  0.7544188187252729
  0.8394103977463916  0.2599397360717210  0.0110731954550957
  0.8269711674081875  0.8298642548057391  0.2592989927292745
  0.8948510906349992  0.9051146883299173  0.4036161973051048
  0.1472199965488180  0.7226344708831878  0.8166421571983032
  0.9994945084400481  0.2487303293546211  0.8339250052234178
  0.7751635927085417  0.6827035233671666  0.3269221825020719
  0.7465744916335174  0.4005733230328843  0.6066735240142243
  0.7533015706918158  0.5045895446411776  0.3327488405468884
  0.8235690053112561  0.9202573208192270  0.1666375699351040
  0.1043135403278366  0.2646138178837875  0.7577418206373234
  0.4959879519391597  0.7502113376602536  0.3235647109222671
  0.7421958193892425  0.7433085871996105  0.5846103017968667
  0.9882590181772344  0.1671742763721932  0.5790849755784099
  0.2471414332125904  0.1809049395492710  0.5163789740711454
  0.1715268003234581  0.8347397397831456  0.2478186477205492
  0.0026986253422654  0.8329917373908630  0.9080950688723513
  0.7499494648298419  0.3218728628504887  0.3351576286454330
  0.6590048484912602  0.1599831086997340  0.9177842455577492
  0.0669491820947957  0.3412550907226028  0.5092174269210886
  0.4223616096146165  0.4242172488698968  0.7408482386890347
  0.7371047782467293  0.4042836830162570  0.0682183528374230
  0.7537093812909913  0.7653983125382584  0.4207505779405880
  0.3394028789915122  0.2432834148881889  0.1666081914187047
  0.8344970050078105  0.8266111773702192  0.0739418634794814
  0.4769716147987614  0.6724276755894140  0.7602066853760915
  0.1621854820861875  0.0697391588620561  0.6649031009408573
  0.4127294218430300  0.0882477617582018  0.5754750334064443
  0.8953122042004955  0.3186159012123048  0.6771997347705997
  0.9086693987985943  0.6437571538062526  0.1377349938073896
  0.0921110876129499  0.2351659577460394  0.5904566886116664
  0.3727717029172601  0.9970025509443622  0.5034005533933432
  0.4285594305925047  0.5000073639747177  0.9820969831495183
  0.9188510545701519  0.3934688936386741  0.0924984593722954
  0.3184526964333227  0.5149174231299908  0.9007947097927941
  0.6598631488316677  0.9887191482789097  0.5814491545590496
  0.1529946900958040  0.3963680044237606  0.6534356700775331
  0.7553643813386800  0.1611986193319433  0.8326575220760636
  0.3338083345512125  0.0609665301339639  0.1879848951915574
  0.6514171945931096  0.6574795835861430  0.5840536139938658
  0.0774214868294813  0.9226292983420648  0.2511049644248605
  0.8258473162888501  0.7392742840147694  0.1733734602262046
  0.2470499295506002  0.0744016178885890  0.4160320733700292
  0.7609581238228433  0.2573507356854010  0.7445956191872710
  0.9211741562949444  0.6120502312389543  0.9027266838115118
  0.4176206874853635  0.4428529701000137  0.4047283583021327
  0.1686411433018253  0.7358491603730167  0.5790248160090337
  0.0703929176520012  0.9621712212452839  0.4399829507379227
  0.2429546544746973  0.0041322827346651  0.0791768278355639
  0.1620838198500161  0.3247867049647003  0.8050818585468492
  0.9846596533861975  0.9079619642593152  0.4030982440045345
  0.1557902644292344  0.5929418214230221  0.0965124427084527
  0.0702707842935904  0.5938866423604442  0.3399245879453446
  0.2388082950334324  0.5068333805372358  0.2687388232792147
  0.8388229417421468  0.8325384542334793  0.8344567961772781
  0.0715023274572063  0.7695713415496593  0.3334230696052775
  0.3104389312572731  0.7627820346192700  0.5730096459332197
  0.3207667885568160  0.9804715993814521  0.1530632484942610
  0.8990239767495076  0.9018083381596863  0.4950672371091860
  0.4074132378316015  0.7363666948160856  0.8299391056959640
  0.1434845588218481  0.0564752925034449  0.5765064537617831
  0.2950737126672525  0.0015198636099503  0.4605280252675966
  0.2499777567381230  0.0883565461277686  0.9943225611132361
  0.1284405654763789  0.0731284775036897  0.7492169540131549
  0.2345928365429276  0.0906383253721597  0.5046977418643864
  0.2632105053000126  0.6777303973383201  0.9111939401508836
  0.2373706302679947  0.0339810302495129  0.6221397447100557
  0.1522608249850972  0.0909646550353401  0.0683289748724021
  0.8208495975976442  0.9185608938425643  0.2537035849036898
  0.0924164771128115  0.8349680826071062  0.9222824077478545
  0.1870185635281215  0.0307547465671614  0.8402897658154094
  0.9897016042709922  0.8236669459973740  0.4909143919714468
  0.7574578148193611  0.4411165214685865  0.6841379782177022
  0.1423343168121542  0.9397657327010128  0.7836586563728135
  0.0724242363450408  0.3380624978778752  0.4065295926186415
  0.9143838454192751  0.9239978612911175  0.1705078176136609
  0.9833962840733029  0.2407773893370363  0.4102606601271304
  0.1023188073095021  0.3286282420321304  0.5940176753945691
  0.2321826165723564  0.0092075116778765  0.7429570226877196
  0.3533405621849021  0.4050335129496482  0.0758644225877133
  0.5877373309180376  0.5840853635183333  0.3291300456159796
  0.6646007284365095  0.5859566387948304  0.9230738489165473
  0.5087254629499270  0.5850975233791689  0.0837185740518775
  0.6622110089154651  0.4950080545633488  0.8333012230414001
  0.5052185779729076  0.5854173712916115  0.9286057313708765
  0.6772303981651121  0.5828852322004470  0.7463880279342670
  0.6465125932994409  0.6623521449618481  0.6733694428347615
  0.8295460636350093  0.3241089932537169  0.4945581454195416
  0.5855551653434178  0.7509085761757855  0.3261972743151229
  0.5770728495393908  0.5794828321245017  0.5034052664169493
  0.0029455181374686  0.4915187187733178  0.3477390994379320
  0.5762517414717163  0.2502032317713889  0.4862072876615122
  0.0789044989714609  0.5039327112539413  0.0919365140653378
  0.8386280625474634  0.4141432336926409  0.2544491075662874
  0.5753061012176970  0.0877294051997051  0.3295632340362879
  0.5789750343896184  0.2556660838117445  0.8253760010675064
  0.4930354556927504  0.0079553479463745  0.8425694522131125
  0.4238951367142619  0.3364910968466884  0.7430289939101704
  0.4988772678748323  0.7478130464296321  0.2372347935139416
  0.1793640111680483  0.6418771376867795  0.8309465950865951
  0.7460342054801926  0.7497992168800887  0.0020188210314457
  0.4102295143230047  0.5835541020039159  0.3356592183512125
  0.8166517334430736  0.7414149779605723  0.2599306239924733
  0.8313297064753259  0.7300511503283714  0.3980027265886131
  0.8261609331767799  0.5819642865485285  0.5769706917885534
  0.8264546878585873  0.1702265381296227  0.4933630796699706
  0.4141394081733766  0.1685898471773003  0.4158132659960332
  0.1597259959566991  0.7414752808020941  0.9134691876525192
  0.0010299414377906  0.7435898082904590  0.9175630085708378
  0.9902549335830060  0.6610012353688550  0.8453872801371323
  0.0019021468719429  0.2556137304605141  0.5802966980986592
  0.1569267605089038  0.3310840506176254  0.1433015958186128
  0.0063160465712429  0.7345998837098057  0.4182412325550396
  0.1576499372210518  0.6745657128607458  0.3366670330963211
  0.1262346089027035  0.1565513773764776  0.6520273902482703
  0.9129243314933543  0.6504227542959001  0.5825036668462429
  0.0895223916203634  0.6645756820849559  0.7581772177118653
  0.1661553730150689  0.8252695348070778  0.3373511439251651
  0.0051827978802852  0.4166338542244616  0.0874552577235001
  0.2449336915366011  0.4118445607874784  0.8324750995741951
  0.2519515599675639  0.1673802884885709  0.9153204904780737
  0.2579469046621708  0.4307457572910737  0.0310406386958316
  0.1567113064094008  0.8687716974374620  0.6914919516686487
  0.8397762684542869  0.6634746588368201  0.8471614547897564
  0.9995858987566877  0.8284922427875209  0.0018120677853394
  0.0078962683326102  0.7444960189461269  0.5838460773375526
  0.3357977840678901  0.1805483206843179  0.9848518326027371
  0.0778885598071905  0.1507372891956834  0.5590502947620746
  0.1591669384553840  0.3380388560374456  0.4955963082065011
  0.9871981530527946  0.0772240605182838  0.5750118661008229
  0.9097693096102385  0.2506327004934933  0.8345569625140031
  0.9187257080295689  0.4941660447839763  0.0870987360716624
  0.1019290011121564  0.9798092901752627  0.8986947497980553
  0.9168588223538645  0.4106045861047166  0.9994030218052250
  0.3268313421130634  0.0619820273507211  0.5630464073500859
  0.9735723491410807  0.3299251013292193  0.1538988525882478
  0.4897826790718425  0.9971814608433520  0.3328846595297441
  0.9812909181943160  0.0827679824357707  0.4074978008692652
  0.1632501035964526  0.0887272594812341  0.9258927868931005
  0.1687518279306257  0.9108842018926903  0.3972469905941446
  0.3099441865915382  0.0064119426606317  0.8393643541092801
  0.3361952824386196  0.2464060453262628  0.2543901343488256
  0.4136532399395677  0.0877413417104527  0.6645435673816129
  0.4091946310162298  0.0073866181939960  0.7571846551661593
  0.3078137603122969  0.6517859859358611  0.8147649679366173
  0.0731010658489547  0.8876641276994447  0.5282184974389154
  0.2640215384700626  0.0051702057722555  0.2505440729069728
  0.9729959820509716  0.9173434651846375  0.5764994814136079
  0.1641765654460365  0.2468511240713136  0.0810674400340536
  0.0782991649135702  0.0112045611863842  0.2433356517896148
  0.2543270329723371  0.3615443293518372  0.9419131391613248
  0.3307326012148651  0.0813249508135728  0.0892437876247195
  0.3378636145230531  0.0995246648876504  0.2673387995462974
  0.0872279389990180  0.4271161848200123  0.3049302069894148
  0.7503179989664275  0.4932352306490497  0.5790390004995144
  0.2445276055056525  0.4184995972920622  0.6585190467034762
  0.9151546113242106  0.6885242943485578  0.9422489205869564
  0.0736946889592166  0.2496616485757950  0.3191745214220799
  0.1702813769477406  0.2848439209427078  0.9183124596945565
  0.2291436162088437  0.1181165778611002  0.7029092744826025
  0.9319630476093728  0.4692939352429198  0.5749522194831288
  0.1647211870686601  0.9237138086255259  0.2681067743317428
  0.2488682708136938  0.8274744901430434  0.0898368570085133
  0.9904387504193454  0.5091756581205025  0.6620999572225023
  0.9878280968528113  0.3315846349886181  0.6630080444439944
  0.2500766418193117  0.1799401399823946  0.0759079508802908
  0.8402765920476700  0.5886164149731336  0.0823309908714789
  0.1715190188963202  0.6533086100551471  0.0052735470454207
  0.4100808992773824  0.5293563977144178  0.4411570380870030
  0.8322298249674663  0.8334953835594412  0.6626319739734919
  0.1802050087447070  0.2405437150454393  0.5840950058860523
  0.1644738684466287  0.8300252086289643  0.0115404348835285
  0.3356665050861005  0.0960004698115903  0.7431298559970363
  0.0652231778558413  0.0667392005571758  0.6540670535995678
  0.0016643178557928  0.4953051545957927  0.8302976683815051
  0.4863481363797296  0.1713453704428138  0.6634519411677029
  0.6540512624708955  0.7494914253308441  0.5860894206058231
  0.1676029821931953  0.8264481314369001  0.4998197497605829
  0.5800562871332936  0.2561476240305872  0.6632695553115847
  0.7500816914567949  0.1628955775981616  0.9213998862431788
  0.3301422288129180  0.7461530805260084  0.4136352010998702
  0.9155309614824766  0.0862062895977961  0.9986351302794657
  0.3331936263079430  0.7478258096678007  0.2512188822417841
  0.6616273353684770  0.5026213161294527  0.3320655253769855
  0.4042421370485535  0.5045539000450401  0.5597454084860674
  0.1635874363025261  0.7469925399367999  0.0924891792440871
  0.3391446018281942  0.4965597807110065  0.9868863243519510
  0.4221120596114504  0.5144217883316778  0.8928178301137314
  0.1598938991168407  0.3400796896351884  0.3163951789705342
  0.3426178775733809  0.0837551361702930  0.9113160061476320
  0.9798164016738981  0.5872742748728621  0.0933851150456406
  0.0827501822821717  0.5828308260748585  0.5044698583206825
  0.9146770259465768  0.8155194855848699  0.4072968529831960
  0.9195509937578404  0.7357301217113781  0.6679654039646253
  0.1662319203223917  0.9371827763884443  0.5743068581505629
  0.9935219312620399  0.6714931074821048  0.1644842820480582
  0.2309419130247312  0.9130230421908163  0.8410411630386315
  0.4186384675343084  0.4977516300862332  0.0794539867376886
  0.8489508484076463  0.2589433052717902  0.7409425036280554
  0.2421614761877378  0.6647882652170377  0.5814743406364030
  0.3959446238948697  0.0041288267967186  0.2414495504321130
  0.8258973542766769  0.9938181628176694  0.4957273912562683
  0.3221218392984050  0.9429222314523932  0.5682085126584395
  0.9942052450089853  0.9203608007152759  0.9228338505838004
  0.5015662486435063  0.9950980138199365  0.0075655219303823
  0.3299549216784380  0.5030635554106901  0.1681976558757292
  0.4947029466459329  0.7480050886385891  0.4138670704277799
  0.8298426936205097  0.9996377807741208  0.6693434728378554
  0.2421093047227448  0.9046080834709308  0.5006322420979361
  0.5020960487155927  0.8318658500878413  0.0070635260112864
  0.4965277278908888  0.9983715712736226  0.1583985633588476
  0.4948417767295212  0.0076117103503825  0.6660145024370056
  0.0713173361607642  0.1567546191660137  0.4160256250851896
  0.5693343094019758  0.1604231796905167  0.9086902192211176
  0.5002595457774398  0.5848074793152996  0.7463823868539939
  0.6647950333148326  0.2488248516228485  0.5714427995496553
  0.4187225915665729  0.5887535800423458  0.9937602819431869
  0.5826090211086338  0.1681223823928925  0.7558166765621084
  0.3213630076690971  0.7493860277040749  0.7503363665617020
  0.3175977957972973  0.9195293547866560  0.7531390127183933
  0.4979802060360064  0.0952840001135593  0.7500130029781156
  0.6699874161576364  0.2563667749623917  0.7451541075383162
  0.4953073257489457  0.9178822225049412  0.7516788298937986
  0.9136613708148366  0.0836430416664703  0.8322470829316319
  0.7401823202409120  0.0761021803440202  0.9976857755586116
  0.5769366018191641  0.1643466879306409  0.5773848757561302
  0.2275001413960650  0.2347595799808589  0.8349832793322253
  0.4942901002489953  0.1638933213138762  0.3307501218161846
  0.7457584632852502  0.8334373662564569  0.5791553824688171
  0.6576104386041891  0.8377105378291789  0.6686846112263751
  0.9750475714757831  0.6680152636643867  0.3306715470287643
  0.6652703696970157  0.1653889988948451  0.6654421495829664
  0.9084069352889831  0.1665306925658134  0.0824526304162453
  0.4260698051323218  0.4105513509444312  0.9948048252689713
  0.3380262536401541  0.3317086365489458  0.1682477529495257
  0.4159337550746190  0.5868734234141242  0.1691969996782820
  0.9892103803434996  0.3916561501295975  0.2513902510929157
  0.8523164068327238  0.5032027820610983  0.6400717120893011
  0.1595225224975893  0.4268942942084376  0.4011233881149686
  0.1555998887960985  0.0888705014570061  0.4080620732990007
  0.1604716013217233  0.2520090643994214  0.4069931937852873
  0.6626527497195787  0.4106769279177876  0.5741106496425817
  0.4999191868115350  0.6618073552905348  0.4965275118614195
  0.6659707771181856  0.1644488593676307  0.8288360804408457
  0.6627849809263090  0.2498670964258766  0.9202539488310363
  0.6662101082317502  0.0837542591042114  0.7456784859666521
  0.5815966861313151  0.1630340887314828  0.0855180017206029
  0.7549027806301342  0.2448371144505601  0.6576789766122424
  0.5847276642491107  0.2440117405017373  0.3329429907644820
  0.5800832394526080  0.7512983713504328  0.5037115090867335
  0.7437861813648128  0.8358674620170893  0.9233455542417792
  0.4940150265882588  0.8377577337090837  0.3262168616913254
  0.6620087252742377  0.1628520810381584  0.0063096339127635
  0.8217717209534626  0.8295663959576539  0.1664125220508545
  0.6548316957053907  0.9008862453054013  0.5750772234522029
  0.8290718819421588  0.1653112830365401  0.9995114484444010
  0.7432155712407793  0.7428992941655403  0.6737897478759415
  0.7470782749697482  0.3256785688402264  0.2446599153825319
  0.7518340875155035  0.4961947997619326  0.4219277879456044
  0.4159771763658205  0.4226442624509403  0.6507945753418173
  0.6600907408377298  0.4144745257884770  0.2441866438537476
  0.4118252434195792  0.4191644685111932  0.4961388528276452
  0.4943220915420563  0.6698445373262847  0.6712611379461756
  0.5796604550873589  0.3329295811345325  0.0834507216177520
  0.7476011553977832  0.6607514961323252  0.4146281377441606
  0.8232453362432234  0.9164972179502113  0.0797362245281927
  0.7467557456402306  0.5916682066239918  0.3320851277166880
  0.4185742901404649  0.8264253138764781  0.0957082185503390
  0.5829922293887398  0.8379950533277435  0.4173741003043174
  0.4243546212995203  0.0835759422957502  0.0090509033310673
  0.7413670945933980  0.6534745502175665  0.5909427709871132
  0.8316172158659865  0.7445794271287257  0.5809828092391949
  0.5809791935623964  0.7501363296822007  0.0049838202153568
  0.6621035149158677  0.0721310070054065  0.9202314018082342
  0.4977219411925206  0.4927630166312477  0.3328208599346715
  0.6598463255361922  0.3253884541607784  0.3318577716445644
  0.8270593397137421  0.0792949112605312  0.7434370989117455
  0.4948457441744000  0.5687762058949065  0.5860712113217735
  0.4195019903453666  0.5113684075477948  0.7376394596370723
  0.8984333949488136  0.4115962794852302  0.6729169100445040
  0.4936627829109940  0.8365933200707433  0.5026898561084849
  0.4049761803965554  0.4057084676904190  0.3188496150184733
  0.3285376926644339  0.5844062551936199  0.0757276208345013
  0.0968528731735461  0.4299992431637217  0.0093625871603057
  0.4111738617414737  0.4982664332676303  0.2591447289405004
  0.4078005303193141  0.9191693439491294  0.8412204692045077
  0.0064860317131964  0.3362808238991016  0.8377798721545189
  0.7562427592299059  0.2512587943360073  0.8334595810302090
  0.4046885905710647  0.3361261648377301  0.9139446593162404
  0.9163602177589446  0.9941910873767041  0.7445217053338884
  0.6616821463804790  0.8326863699513041  0.1660107768155745
  0.3290571747292360  0.4215580833498039  0.5764335584059989
  0.5023053368947260  0.4133662025571715  0.0840139771804974
  0.3218807898036480  0.8262403565063160  0.8394332818934140
  0.6636927372026296  0.6722824375669418  0.8410805160102617
  0.5776365863602229  0.9972728223821369  0.2436840976535022
  0.6591201487940646  0.6661869621854974  0.1666456820928495
  0.8289803455695648  0.4094550899255587  0.0811312507024928
  0.7429726734050732  0.4976746700549798  0.0820556684775754
  0.7501668776379204  0.4132598434299768  0.3339312243284575
  0.6613132188597184  0.8344187649606398  0.8346349809733361
  0.8285031442269046  0.0772969239770914  0.0837581549731490
  0.6634356478488456  0.4115367314095998  0.4209903882420529
  0.7428328030053609  0.2355494759245490  0.3308280556128206
  0.5815735625194096  0.5824376557945958  0.8300221495090216
  0.5852760337875262  0.5850626843896876  0.0034943416283530
  0.5808741787210945  0.4993797605251040  0.2484729298570888
  0.5830775595629152  0.5829872105262689  0.1662402610584587
  0.5749034992439447  0.4161135805257185  0.3313966545115167
  0.4999204446493148  0.5824426435650041  0.2422770939581962
  0.5020561248369632  0.3292416829623551  0.0045929105412226
  0.5819070915108002  0.5000958393402437  0.0861719081666438
  0.5033297676626756  0.4867076326994113  0.4976729362624723
  0.0818148413027631  0.5762281942955381  0.8310284086228630
  0.5795027084484899  0.3388038959561712  0.9176024694268475
  0.5099820267117392  0.4995886686401671  0.0046738361259492
  0.5001797249703210  0.6639377032692595  0.8449841575479623
  0.5086940594233602  0.4924318405398618  0.8194696298349622
  0.0860188825278816  0.5731192456681250  0.9930645706220291
  0.4183073483213916  0.7462016542061344  0.0066826861973460
  0.8980580496800787  0.7744504243492565  0.0118831455167441
  0.5886516296693527  0.4099632181787218  0.6615158423988149
  0.0770532501742071  0.7456932170026372  0.0023661615194621
  0.9938940571142582  0.7518220477164288  0.2428333258203855
  0.4062027377820797  0.5949636304651316  0.6556058410686757
  0.0717466725732423  0.6737295929350687  0.2533971969092188
  0.0786082998895887  0.7516141081731013  0.1686124586668859
  0.9247954853712117  0.5666595493811331  0.3499126606976698
  0.9861727058446637  0.8368076443584117  0.3116080158660756
  0.1571037540497118  0.6597092547401822  0.6622805009995175
  0.3344213756931428  0.9995048869907796  0.3347718489892946
  0.4205828404587851  0.9987717583979953  0.5811210248183483
  0.4134268325567382  0.0835087137408267  0.4890541142815610
  0.5002900979693212  0.4301518534689013  0.9105678603133027
  0.5838455528023050  0.4153324832274524  0.8306014718219441
  0.5831125130576940  0.6674836428150737  0.9225376591991332
  0.7397107412444160  0.9977535228316420  0.2476459825413016
  0.5044568160545033  0.2433105758739664  0.2414067053796247
  0.4997394760409661  0.3374258500157845  0.8291638714768388
  0.5038883275707678  0.3309898548177954  0.1630050251209737
  0.7392760073580100  0.1607728157408746  0.2480881880944058
  0.6587112616444619  0.9972040290024163  0.1676189910526302
  0.0831752955992917  0.0845303756956819  0.1632206941399387
  0.5791778312371062  0.4155197366699726  0.1669284473802833
  0.4999181444395270  0.4131714115829673  0.4153942912131838
  0.5797272324215347  0.3314121417030831  0.4131161251175113
  0.4962226386804444  0.4148238758492138  0.5778760327064885
  0.5788248092023055  0.3391988549903697  0.5761445130972330
  0.5815969410577061  0.4116210946743503  0.4942189990051672
  0.5004673738247029  0.6650322471451688  0.1660170876977672
  0.5826357854239047  0.7492013796117464  0.1659512837181087
  0.4970513855094513  0.6651980460232999  0.3298283999655512
  0.0819496418576210  0.4922684421919696  0.9119857502388382
  0.6612713561353194  0.5844968037369532  0.0841796712109362
  0.5768323037612816  0.4994683249165865  0.4166170665738952
  0.5900269701559627  0.4992717269817033  0.7431625686720169
  0.5112231881790762  0.4897473905020102  0.6659540438635823
  0.4984402780286384  0.4180003453546189  0.2485275747236911
  0.0767736245384016  0.4994870363761898  0.5775396324119811
  0.8260846991721321  0.9894145240527260  0.9971500020923221