Cr H  Ni
 1.0000000000000000
    21.0842751750327366    0.0000000000000000    0.0000000000000000
     0.0000000000000000   21.0842751750327366    0.0000000000000000
     0.0000000000000000    0.0000000000000000   21.0842751750327366
 Cr  H   Ni 
 259  69 605
Direct
  0.6650019115544892  0.6692751892146418  0.8333487701348830
  0.5805884711061088  0.7517641831974530  0.6654124681012278
  0.4979941555493590  0.8299282902161487  0.1690001552663903
  0.5823063206385083  0.3349520086482093  0.5856175888745920
  0.5811620459320671  0.9172993425304278  0.8358067608016527
  0.8304028701733757  0.1660043900069093  0.8351499276747292
  0.3298055087472926  0.7474760936654120  0.0860853641585989
  0.5802770370574047  0.9200308633699616  0.0020077424126686
  0.5834394484216199  0.0005094676108355  0.2485877001536902
  0.4965314058110389  0.8351794192633458  0.6685096028086435
  0.7473816327363361  0.0006420304350997  0.4181454726309445
  0.3304271508112822  0.0021043236961604  0.1667679300849143
  0.4117687087868642  0.9166353935252913  0.6636097209349469
  0.0790569689153308  0.0869271466816757  0.3337809066641599
  0.2454278723661473  0.2522714765490694  0.8359354637501575
  0.5832817196626828  0.7517083110997288  0.5001750035158636
  0.4137761652499908  0.7514549529860286  0.6642502556648910
  0.4975150072085457  0.6665993802272889  0.1680546101429016
  0.6652289554903145  0.8344518884375929  0.1669415356471509
  0.1636785257519780  0.0006894887273974  0.8360144662837276
  0.6614498754183430  0.7546414014708505  0.5851054102615501
  0.0810980382940779  0.0002888827676354  0.9172431246126846
  0.4123287951281668  0.7483800620263215  0.4980451420597859
  0.2451172431002600  0.0839132948155534  0.0020105312109733
  0.6644091914429120  0.7497150524364637  0.0840200400423514
  0.5817089901174093  0.5821644819027161  0.5012457488729787
  0.1629242247808299  0.0815425030948675  0.5839957408686820
  0.1628507450520701  0.5003456741091008  0.6675954869833997
  0.5800530719535119  0.5836386764203139  0.8315059837464244
  0.5809822377734942  0.6669175632368485  0.0842686302239585
  0.9149494339925489  0.2520361675217347  0.1652580496260682
  0.5833726916142237  0.4176899068715337  0.8363277313298318
  0.5825139875389006  0.6676507342900496  0.2501493549020242
  0.5805237977719004  0.2519097718501307  0.8340085684247409
  0.0806874772856456  0.2500743820977195  0.3373282521181324
  0.7497334099750413  0.9182410295236467  0.8363042744593411
  0.4162291556006292  0.1669325672762055  0.7535944284308276
  0.7466204089716031  0.1678492478633003  0.0837273713815873
 -0.0025392005067433  0.1712181788365708  0.6666836997559178
  0.9128227898809800  0.4216362639467032  0.3351577733764549
 -0.0041767875597035  0.1666285965017217  0.8345449886214996
  0.7466693014325296  0.2513339266010242  0.3326357623718170
  0.3292334616251971  0.5846040762631314  0.5839274942443576
  0.0774698981555213 -0.0006308056102592  0.4190740746965755
  0.4969914868730968  0.4184487893228894  0.5845873269685957
  0.4126493723645316  0.5018668450654615  0.7499793277043121
  0.4955397091207085  0.2525123218706496  0.4191628150296100
  0.4121178957078167  0.3353954846120007  0.7500809600632629
  0.4954461121227886  0.0836788048109311  0.7524402658250946
  0.2454795032020219  0.5845631713903398  0.1675167119118459
  0.6636317978034455  0.9187697668989766  0.4159454516494623
 -0.0040291036604222  0.5845291264672460  0.4186436541224694
  0.6657494154274233  0.1659923157847913  0.6711358285628696
  0.6684027128142450  0.4173137904842538  0.4176649009473335
  0.5837365373921579  0.2521424223119403  0.1653257784981673
  0.9140258699728263  0.3334500834384108  0.2466518034900256
  0.7464625112782837  0.8395305352889747  0.5842818240588593
 -0.0040308166756661  0.4169058049508054  0.7502906779949197
  0.8324148033605409  0.0842116008097222  0.2498819806063398
  0.5815448738032548  0.4999338757559941  0.0830860166727634
  0.5815196220993315  0.0851339841789390  0.3339337247390438
 -0.0047587388771061  0.1695169875998440  0.1665372075780553
  0.4958636284818554  0.3347203777846942 -0.0003584136769526
  0.5807024955610237  0.2522227064179714  0.0008400539342501
 -0.0035330977001385  0.3351052143773657  0.1669924120514381
  0.7464831622175220  0.3299046814118610  0.7496800973328674
  0.4934430179136488  0.3365298104677748  0.3362888785293832
  0.0828096011703035  0.5008387628452481  0.0839668390169897
  0.3288995202542536  0.5005382772906752  0.1668765330893956
  0.4983902947013695  0.0823246814352154  0.9179909632688361
  0.9140603268247252  0.0011665389308177  0.9197452499476162
  0.0785054291951064  0.5838355666610854  0.1673118269556392
  0.4964095043793079  0.9167791060508087  0.4153201371754161
  0.7495841150603393  0.2528477353375524  0.5054113352540368
  0.6612771199070033  0.3339944991399383  0.1663347441161120
  0.7486815718890941  0.6668053594996374  0.2500198110056373
  0.1631674212772724  0.4172042158228215  0.9169893564416502
  0.5802874403817411  0.0007428488473748  0.5855020957522907
 -0.0038662849313578  0.8332452729664330  0.0012041784560850
  0.6633036306128514  0.2511522265885421  0.4188930714440426
  0.1641894759656760  0.5833405327891367  0.9160165045542876
  0.5844912946376440  0.4196377195407237  0.3325409255868825
 -0.0052180516138489  0.0859284881628241  0.2504559964174880
  0.4963609657586331  0.0850310868244323  0.0839363367553198
  0.6676255559022447  0.3324059502342175  0.3340489765570741
  0.6637682263119767  0.7504239464556229  0.9179912012014868
  0.4121657803062145  0.9184123019713564  0.8399201241741945
 -0.0036276515978321  0.3357890312900693  0.8347650636226517
  0.0796915254094355  0.6704534558406765  0.5848845420472722
  0.9150709592680811  0.3331538831566653  0.9184149577539422
  0.6653622582687186  0.5841924134677539  0.4169484782564586
 -0.0029073532575969  0.5839171036880559  0.9176272048593187
  0.9123040611572885  0.0838139428735058  0.8351695901766090
  0.0791185508540424  0.6674672262887406  0.9162257330535550
  0.0778623021294169  0.6658009485978128  0.2514584573116522
  0.4143193018314467  0.6661349286849474  0.9179011390571215
  0.4141999882698895  0.9188408286575966  0.4973700756972959
  0.4144235459042069  0.0829221424008153  0.4978476806399660
  0.4130535623153921  0.7480021620108736  0.3347123987798361
  0.1626024338097215  0.8341974058614835  0.6646610602941183
  0.6643071099141077  0.0874895803696496  0.0837134845540412
  0.4149841783125143  0.8342810774981512  0.0838916117730846
  0.1600848740502435  0.6671864304206890  0.6678921509255784
  0.6658714176325468  0.1693392585602588  0.3351318306868822
  0.9110467896160079  0.7495958221703408  0.3357880816027575
  0.1632192547138938  0.0845423329624604  0.0843545230933202
  0.0788379840065274  0.6664451853660521  0.0836642572424794
  0.9119886244161439  0.9171231738339278  0.3312795644675443
  0.6655559399136085  0.5009001546207007  0.6680841651630810
  0.7468953658009813  0.3333574905909138  0.5852503787522509
  0.6664214064689926  0.5012304168453243  0.0001465748270937
 -0.0044030945631273  0.9161749652598935  0.2507331847292846
  0.7459590305634185  0.1670242042611677  0.9184709843157683
  0.7470615201730582  0.3337547570262336  0.9178292809545594
  0.6635175658318162  0.6697778142663524  0.0021231656622829
  0.8301744004499229  0.5000961920263837  0.3343220418231154
  0.4948079761825548  0.7486440397733972  0.9154011843916586
  0.9159278370700360  0.6693426081105207  0.5846072065367672
  0.6625807670098838  0.1665558060165471  0.4978479024323684
  0.7476753040960205  0.5842557609009049  0.1670872667616073
  0.6665245771620143  0.7511668669489554  0.7510804527803681
  0.1629308455774208  0.3366932916359349  0.6635325057185982
  0.2456681510692575  0.6678128808027876  0.5825518120848040
  0.6641309851303072  0.9183979365729511  0.5840309145598165
  0.3319463027619470  0.8346553119926003  0.6655374435933803
  0.4128326800810496  0.5840393539037310  0.8340931077681359
  0.4143061369066079 -0.0018721244037356  0.4172071866262753
  0.9129699713167051  0.0845507437993973  0.3325703512177073
  0.9116361653568066  0.7496717153662175  0.5010709318407162
  0.5816629166782097  0.5010731375449718  0.2504915639853147
  0.8318737045751829  0.7509601048271407  0.9178009813861198
 -0.0028612817587202 -0.0005032831541527  0.4978312147596791
  0.1629859085039097  0.0050846843073955  0.1676945646789616
  0.0797823029604973  0.9165491182382188  0.4992129566197971
  0.4954086150245673  0.6651187283235225  0.0016639380056660
  0.0785573623563941  0.7501372217405797  0.8345217282008994
  0.3303805073285177  0.4233872782189299  0.2484675517273275
  0.9104975907045465  0.9201789212180992  0.8376505812758269
  0.2451685666773884  0.2520263224678975  0.0006086077441092
 -0.0028815936208160 -0.0043188495594931  0.6643631640063494
 -0.0051158926865008  0.8324961019598558  0.4980958402293397
  0.0814078521879141  0.9194826341677346  0.8374503650647174
  0.3291068420333021  0.5832419359539459  0.9176198565036040
  0.4150777440789807  0.6677709500128737  0.4180541768167902
  0.9125585699321292  0.9178548645534768  0.6668577988784108
  0.0800884663275550  0.9177115280094381  0.6655945023381586
  0.7465421690656362  0.6666069267318474  0.5847798360633725
  0.4979069526309168  0.5831560787886414  0.5825582716367480
  0.1618394082243063  0.8336739188857447  0.4978431858698727
  0.0780134303524188  0.2525689490662467  0.1662842117854037
  0.8318188058582939  0.5006120920120698  0.6653717920289196
  0.8308101144027512  0.6684185052806126  0.6713308387008347
  0.5820042630319684  0.5824313312835631  0.3342132971852636
  0.2465056748416849  0.9169870097036138  0.0027169646381084
  0.8315450127846804  0.7497236635413068  0.0840075968416469
  0.2456953886283428  0.4178905217769952  0.8336049397709533
  0.4942670684312533  0.4184256334589557  0.4205002561887358
  0.3302029203042376  0.4181778979639067  0.0840735344843045
  0.1629572410237879  0.0003025682769059  0.6672276845489133
  0.7470172447823638  0.6692194654198913  0.7508575788444147
  0.1637656176382824  0.2510182041583398  0.9167321781758820
  0.0790419345132877  0.9134530776403669  0.3326513360742298
  0.4142134217033682  0.6632549618464314  0.7510134171173352
  0.5832676865976331  0.7499670150639535  0.3321257807454897
  0.3275184088065110  0.1678054636720831  0.6639763093846598
  0.4959521636825051  0.3381898235944739  0.5027567114160676
  0.4126872761033937  0.1662533106761699  0.2538927241757056
  0.4140651008921086  0.5001008767634990  0.2493054267605276
  0.7472186015121606  0.0003392564925337  0.5860679347148482
  0.4157690554186093  0.5847014160148897  0.3348228587140192
  0.6616918662940273  0.6690201449412186  0.6706726787916719
  0.9138480520212746  0.5023860273660035  0.9174357530222562
  0.8314714540690337  0.9167376650350622  0.2490532720557632
  0.7476605018729644  0.5839292879781377  0.0003844381622522
  0.4984642110046857  0.0820800334159940  0.5835791305048887
  0.6672733128751759  0.8320242878142062 -0.0001318702198082
  0.1629804645730427  0.2505704553639607  0.5808344890300249
  0.2441822987912162  0.0835139951142680  0.8350199390042103
  0.3315901902392407  0.3368733203941814  0.3366921868132565
 -0.0039982679654413  0.5834549438121084  0.7504830886434380
  0.0757514772968176  0.2507623113910425  0.6663452467075194
  0.2482585000977613  0.1696265195150271  0.2491316623039349
  0.6643174181227961  0.9157667717241735  0.2474648339982713
  0.2459221918800896  0.2517365839585670  0.1665091877882387
  0.3299567582867750  0.0009221870570420  0.6628676776407579
  0.3280241797475208  0.5005853810314349  0.0007419834317309
  0.3292066971311323  0.4191310985485344  0.5854010873363127
  0.2461487476170992  0.1646435201090304  0.4181484613432805
  0.5778801612554000  0.1666009196487816  0.5826769117335771
  0.7434685095357909  0.5044775980392251  0.7504299382770497
  0.8297993509253354  0.6668578455040316  0.3337748369337012
  0.4104405666384562  0.2508568184250648  0.5012471360439320
  0.6649105197014999  0.0854961456894055  0.9180153453171541
  0.4971217851137944  0.0822457911392659  0.4174723382446944
  0.2461817281780203  0.5005060486156517  0.4186145658180183
  0.4154906880959476  0.9168070561092186  0.3349948638558944
  0.3285195278100163  0.2514940611942427  0.5849184341670168
  0.2503857031795023  0.2505025799475312  0.6648771982767840
  0.1609369813959757  0.4185011210493179  0.2523551230555662
  0.4127289758804339  0.3358159408612442  0.9185996530345210
  0.4946171203556312  0.0055091088060653  0.1630678213693798
  0.0797088303321026  0.3355883290207208  0.4204157671129345
  0.2449950310931365 -0.0006724017621541  0.5845608904399250
  0.2464769804684124  0.5833474337852472  0.8342412276621644
 -0.0025833685911615  0.7491248668294080  0.7509924027611873
  0.9135424441409513  0.0004036631415217  0.0832110696527619
  0.9178222501063675  0.5009200754352080  0.7514049327707677
  0.0798171831685940  0.2515556616628438  0.5015368013444202
 -0.0038731154834348  0.1674487582817036  0.4999148110554244
  0.2480029145625782  0.5836638538287616  0.0000690019085049
  0.9132355614195434  0.5014706634360619  0.5850890439621749
  0.4134502131512287  0.1678668609905678  0.0795857604480051
  0.3293548471161646  0.0819190607576782  0.5825611834791032
  0.1621714478851468  0.3357668509172668  0.3347372319968988
  0.9145021550772318  0.5827044392057005  0.1688979591341035
  0.2450609709879851 -0.0001563789367055  0.4172478017207298
  0.8306341604181128  0.4176356250730512  0.0830488712711322
  0.7453160300131852  0.5025752086735114  0.9199435652105408
  0.0807349385535384  0.4207376975513402  0.3350591025538803
  0.8295172009361490  0.0036392846690803  0.8350656663545448
  0.2471399781282911  0.3391016834257986  0.4204917146666280
  0.4106195736303123  0.1710002668771756  0.9177992465298651
  0.4118151218390841 -0.0028448052030933  0.9171439976408365
  0.5803710211637512  0.0012926843164248  0.4145558741045598
  0.9163824872226409  0.3341608582243439  0.7528243893484505
 -0.0025233021188489  0.5014406723753029  0.1692309778885049
  0.8297883018936930  0.6686472047462958  0.4987355792740819
  0.7464715260358904  0.8351063566631574  0.4161570834273186
  0.2462982605366750  0.6660862816127606  0.2497043333463217
  0.8295697993643497  0.8358101621813095  0.5001592670919560
 -0.0042634399014068  0.3341546132909945 -0.0017010604399894
  0.4974451766454540  0.4992413850114212  0.0012088114447420
  0.3284307062951319  0.9183522424871514  0.9174647524172237
  0.9147853648017857  0.0008684575219630  0.4165962678966795
  0.8315233937663820  0.8367770008586184  0.6687233943523008
  0.7485802905246821  0.5840035034602353  0.5013802499817827
  0.0794001398026853  0.5846836698031740  0.4979318104720510
  0.6638972823159083  0.3330336101520157  0.6677693294618706
  0.8315129457027192  0.0828158481619696  0.5844086381533414
  0.1631301056512992  0.8356059264187391  0.0013031373438706
  0.1614055549741929  0.4183652164005924  0.0839588131630232
  0.9134947080564257  0.2511001665976933 -0.0008002758469144
  0.3335012718001684  0.7500923052542462  0.9200019798963225
  0.9129010054911185  0.3336645616140897  0.5840919987257431
  0.6647910602110473  0.0877689780316461  0.7520705670506748
  0.0797719915841699  0.7473703588371122  0.3324293532026608
  0.9141422692046082  0.4168281430005624  0.1677143045634881
  0.8311792118448463  0.9176392094497313  0.9183794981189989
  0.9132180674829835  0.3351937687559024  0.4201341607841402
  0.9162804969621233  0.1689684053295026  0.2512474775310585
  0.8314213988652237  0.2505472971460689  0.5850707437296376
  0.1622956020206615  0.7486175528244339  0.0870735135541063
 -0.0025174095724140  0.1675700284521507  0.0010953126592263
  0.6639556057878316 -0.0001734363617533  0.1700115263447699
  0.2461816475240931  0.6668390334025071  0.4186303147411176
  0.2463479049201311  0.8297913357436220  0.2513154244310847
  0.4127752843961226  0.0018477902154511  0.0844176411353825
  0.0778844547267323  0.6670422527472545  0.4171579550888215
  0.3291084733428388  0.9161334111373434  0.5824148318914811
  0.7514807283201168  0.1637690941512160  0.5010519402889289
  0.5799500572577353  0.3336585796057321  0.3329843626598815
  0.2464405473327864  0.9216623582185712  0.2514499495671142
  0.8275930004239093  0.1718614211050682  0.2504517829013861
  0.5783079930365818  0.7519752822072223  0.7537354843333250
  0.1627846291886808  0.2504173635621442  0.6675636784693540
  0.6608464100273375  0.6678858647636278  0.5828819196437821
  0.8310997793183736  0.6691726228331125  0.5844183243110559
  0.9961657182041805  0.0835369550326092  0.6675280785520991
  0.0779994438328294  0.8332663977030603  0.1677243916917618
  0.7472357401518674  0.7527743395258732  0.5839438869188496
  0.4954372777794604  0.7528190088719980  0.0039564296328708
  0.5780574383783184  0.1679948586542466  0.6714987751008646
  0.5805215593076277  0.5843055880556240  0.9207215744889061
  0.4124276657958445  0.1696763928669613  0.1664477902547898
  0.4964650991911397  0.4222366969543087  0.3323154267041801
  0.3263297114673804  0.5840360308550698  0.3345434579650228
  0.4110212391973104  0.0842254043488632  0.9182765110246702
  0.2434009790462489  0.7506358204985136  0.9153723351736324
  0.3294864532508836  0.0013010310628954  0.7538322929610349
  0.4137593338855588 -0.0815888161721121  0.7512594136528220
  0.4966123418566292  0.9178330586527322  0.1675962486122724
  0.9123809284321530  0.3339938479825714  0.3334669090691972
  0.7476665440071297  0.4174460303879399  0.7525711663965510
  0.7476781654626240  0.0015891825100828  0.3285135531016830
  0.4095450151419451  0.8337539358931267  0.1721491424315467
  0.3262799798705727  0.8365521116800821  0.0856355964006503
  0.1593237306370097  0.1682045529796687  0.2508972461080218
  0.0785957391394161  0.9183143796144544  0.0844507108080932
  0.9943937292794840  0.5000805855034783  0.0810414382236215
  0.2494309491469958  0.6677826830496351  0.6703450985277315
  0.0771992379133515  0.3354024021802134  0.3331781967726712
  0.4925016147202744  0.4179826481437899  0.8335378614528485
  0.9126141673923172  0.5852248416547291  0.0789584979204045
  0.4968428362158052  0.2478397613035998  0.3313469445140684
  0.3297595331106962  0.3340118046650520  0.2469126856945333
  0.8307398062534505  0.5002569095775594  0.7527577935292925
  0.3272525080573313  0.7510456157388743  0.8302574822592899
  0.6640657404935953  0.9971803623756302  0.7517691303267026
  0.1620644786004744  0.9133746225968583  0.1679255372325715
  0.4123928221348583  0.7525135084724199  0.7524151486930583
  0.3254460928238379  0.9150749708927288  0.3337276460770849
  0.5788728602904892  0.4172839169951331  0.7465896260494173
  0.4975285819489190  0.8344235992131185  0.5787889380496338
  0.0800751296690812  0.0000474223724976  0.3314485980294119
 -0.0033782924628801  0.0020548553625004  0.7540865735742117
  0.6657745304597948 -0.0019356894202446  0.0807764178330025
  0.9124952478190761  0.7491964083655142  0.2455340547328081
 -0.0039217912920545  0.8379590170950990  0.7522880134081998
  0.6649711380528250  0.1658978322855251  0.5840773805187613
  0.1626414302477591  0.3350745695975932  0.7533721599702733
  0.2470546328381917  0.3344897639284075  0.3332621947524309
  0.2467919212821172  0.2524260425867484  0.4183258082288956
  0.4942418341490261  0.0016529243726227  0.2517868473678107
  0.4133713705838462  0.2571422933466003  0.2501352390850955
  0.3273323595077050  0.1678269375729229  0.7528406188169271
  0.4149613239848826  0.1684657355246913  0.6651121100709153
  0.7503287180927894  0.3343479984083018  0.1655457457732914
  0.5809113078182062  0.4183744439786917  0.4192849099074658
  0.1638588578717796  0.8342219085660217  0.7548911602318528
  0.5788637354749544  0.8324606932152212  0.0005446428661006
  0.7505113549410312  0.2504426253499511  0.4183865643440678
  0.3295095793706018  0.0840599419432338  0.3336636172160085
  0.4976837159206602  0.2504090485443803  0.5053441854322995
  0.1620864515034396  0.1668552097525098  0.7514202723654242
  0.1620935821935945  0.7467303046782625 -0.0016374058942212
  0.4935079923335384  0.2533762358059317  0.1660239286932110
  0.5003879918198203  0.1716062650404491  0.9175008989146912
  0.0787807915889874  0.5812898876808033  0.5863748771918960
  0.0791244679592061  0.5016700136099133  0.4179376069465073
 -0.0040643172917066  0.5009456026729460  0.5007479919383612
  0.0792749890717267  0.5851343452501642  0.3353142800843114
  0.0792475149871782  0.5836427797064201  0.6688451430274708
 -0.0042803636123201  0.6690275368665983  0.5009007100351829
  0.9140846402374992  0.5844163951457930  0.8341247984638469
  0.1625272994852121  0.4191355051738855  0.7502880740100549
  0.0809683959069872  0.5018180936391351  0.9168792107004041
 -0.0032500318637286  0.7492959960552015  0.0837431862330727
  0.9130205113972165  0.5842792506156533 -0.0032357000874703
  0.0783431698012846  0.7498154890772095  0.0007605224177011
 -0.0041451989767776  0.6657885378978660  0.1674038500967402
  0.1631820015624907  0.5020029563306118  0.4998913517434586
  0.0795890543848827  0.4183098014660784  0.5008901029829275
 -0.0039489385104408  0.8359854155711880  0.6669208782821119
  0.0792939793097920  0.5019147168123379  0.2507310399759096
  0.5796483999153146  0.1670889477624321  0.7540292959198187
  0.5808693867377357  0.1680340864429376  0.0832561759654917
  0.0787381102694706  0.8316864337903708  0.2522346800066203
  0.5797668330151767  0.0017123177148909  0.0847412186026938
  0.0783530796377919  0.8327297303925316  0.4158984814666275
  0.4142520096962606  0.0823611281206333  0.6656054600663508
  0.1618727128940265  0.8351134942052031  0.8367984203240789
  0.5795671091599395  0.0829231816582311  0.6689781078400859
  0.0787922417082197  0.7467757410027391  0.1677134413968023
  0.4973364892725481  0.9183442795272958  0.9178722691975014
  0.0792216724454518  0.4182709076207031  0.8348287859787368
  0.5804395426449825  0.0844045363222644  0.0009091542110430
  0.0808260582367181  0.5839489993649798 -0.0001792259503010
  0.4965482318954476  0.0014265547572823  0.0008336199923435
  0.0781845243835091  0.9185572058890199  0.1684497901212341
  0.7483504469099838  0.0013651871332483  0.7518282405147182
  0.0797951309767888  0.8320014382421702  0.0827071515409802
  0.4126486379597196  0.2524082439647890 -0.0001143651684389
  0.4976129030810836  0.1667695274137168  0.1663875500703209
  0.4139081232561446  0.8330722128318173  0.5809278337332566
  0.3296763042194801  0.5835118618424765  0.7507868608668545
  0.4977913118488340  0.9177115300128503  0.7525626663165684
  0.3301027073872783  0.8353718073902396  0.8356566913536071
  0.4970443695691699  0.1681688553275304  0.8343295706303133
  0.2463566870671545  0.8353837011750863  0.9184746530971392
  0.5811517702389150  0.0852769191341832  0.1671015282018764
  0.4123891419651183  0.3354692275623458  0.5846226713569177
  0.2459868051753506  0.8340792332816382  0.5827949073782341
  0.6641952492202960  0.2514186745455750  0.5851671288423761
  0.4952445954275480  0.4175349841059244  0.7499841938895329
  0.5793291061526020  0.0008741499300734  0.7523916661855162
  0.5806142492780834  0.0825730706377607  0.4999728481245819
  0.4964841090911057  0.9189007451311965  0.5826188806104443
  0.4128985596275775  0.2526878305452702  0.6671855626384114
  0.2440022920832404  0.9164860535000597  0.3351624593260992
  0.3297860228503718  0.9157323252902296  0.4183164995794623
  0.3302924672138907  0.8331947582898289  0.4988943012461940
  0.4977742635876908  0.7497311508976586  0.5822727851038753
 -0.0054226680788864  0.8330860119695328  0.1673861487154478
 -0.0047964192890780  0.9148357694806952  0.4147665952270245
  0.0794883678489296  0.8340545405515757  0.5830427615408149
  0.0781103578475654  0.3342312007208351  0.7508931965699182
 -0.0035156993245747  0.7487714544159471  0.2511967918859153
  0.9116309395154455  0.4992159826760263  0.0835588237792451
 -0.0049337228464214  0.5837613462049215  0.2519484170443176
 -0.0025675694714100  0.5011196953342004 -0.0022251571621635
  0.1619212287123931  0.9160388208332916  0.4158423727964604
 -0.0032367067765467  0.0846324616311227  0.9183037933003253
 -0.0031093805345902  0.0834324580803198  0.5816522892341476
 -0.0042337390178931  0.3341606407446469  0.6672095870448893
 -0.0043292602365348  0.7499199529248036  0.4164151863845733
 -0.0033449645275413  0.7525745890900073  0.5844707628948174
 -0.0027944254059412  0.6679063292448414  0.6679261429550565
  0.1621069854742838  0.7502468561661688  0.7508165726334537
 -0.0038661603605806  0.0009305111949839  0.8378244368242590
  0.3284776505846133  0.9166408055768350  0.7504521865673095
 -0.0029696210796393  0.6669996361729050 -0.0004435715650700
  0.7474566124150342  0.4188559042182927  0.1656988773399478
  0.1628465417354281  0.9188248441493768  0.7506513581128178
  0.0791247584000265  0.3344978582158363  0.5834218634170943
  0.0799342662879032  0.0843309491400108  0.0014457134980778
  0.1628045348475804  0.1662812898219516  0.6641779357602594
  0.0788782217445270  0.2506503240626140  0.8347001772551360
  0.9128794416170842  0.4183474907565498  0.8353634821441220
  0.0800384199205430  0.3347451123623524  0.0826163973401934
 -0.0040005992045907  0.2513099395461907  0.4182657508051186
  0.0786780084851906  0.3346220620149519  0.2490332664534972
 -0.0033664569097299  0.4162714080698644  0.0830188907048563
  0.0796536559223788  0.1680450567798500  0.4186671364662333
  0.0803082367081510  0.4181096006623189 -0.0008613413506628
  0.0790646339625956  0.1671694641625217  0.5830709246646083
 -0.0044136287141215  0.3349468598931625  0.3349683937730679
 -0.0039841729055738  0.2507112628710767  0.7522288253669227
 -0.0041927572846726  0.3347765587562040  0.5006236560708683
  0.0779771537690278  0.1673211894289906  0.7508020066139330
  0.0790976649388913  0.4178467283089284  0.6667849269640359
 -0.0036936962498227  0.2514052729691618  0.5830087470956612
 -0.0032082766331534  0.9191352982226534  0.7527046564467791
  0.3290781096034222  0.5850927678212512  0.4187931107800666
  0.4133423866474029  0.5838802278842434  0.6669925013166964
  0.0799846744943849  0.4995164527696445  0.5844128196484316
  0.1624285097939523  0.5846694495850273  0.2512148255720889
  0.2460315377341029  0.5830497375388021  0.6672278115573043
  0.1642787809812093  0.8296321169018976  0.1690053829642860
  0.1627262725103298  0.5835217300615684  0.7501871266284554
  0.1628964820440002  0.5851827840895850  0.4176131057823874
  0.1624627064454666  0.5021782945513837  0.3349125474016896
  0.2455762694644236  0.5845256855688661  0.5012021642415025
  0.0798682217842698  0.8354501684777295  0.7513446300286242
  0.1629600585153084  0.5006150712093973  0.8340027019931765
  0.2455239679771243  0.5014355199454151  0.2502047285897882
  0.0793172432833500  0.5841168058936985  0.8340708486643893
  0.3300039084379855  0.5829289912558944  0.0843150722734090
  0.1630051499113730  0.6647890135158022  0.0008739819437970
  0.9135854278660323  0.1668173525522556  0.4172059403278401
  0.2462601851957816  0.4185160985480504  0.6667257573259535
  0.0792530154030558  0.5006111237212264  0.7509164520614389
 -0.0025100831026462  0.2493474646599351  0.9165696188008802
  0.1640451534923592  0.9171385169243279  0.9194199309176404
  0.1624517112528858  0.1691139844970672  0.1658996345621485
  0.4984182223876936  0.3361144251922118  0.1661346309856685
  0.3298994899615674  0.8305198661120864  0.3348991373834203
  0.4971202100205521  0.2518231053935801  0.0813354186594413
 -0.0038345889376973  0.4180524733047735  0.9169619504887342
  0.5826605081998365  0.2494629318281371  0.3349791089759783
  0.1625380971806629  0.8311746424224344  0.3338018248009713
  0.4134207328697476  0.1672478277190105  0.4182851962854102
 -0.0050029650085461  0.5849039112997646  0.5833103971686759
  0.4972997188256471  0.2518849686346684  0.5862819778983308
 -0.0028462477557190  0.7510026774479391  0.9171750737215012
  0.9131047192562027  0.9173984882103577  0.1668916993056044
 -0.0038926954163083  0.6667783618844111  0.8342045415351786
  0.4126924338570171  0.8340871991831149  0.9185785392914677
  0.8305418337311578  0.2503632161753730  0.9169061009465331
  0.0812842178354956  0.0002320644766701  0.7517942381262542
  0.8307504925594719  0.0002951456500987  0.6675276457867597
  0.9142016929864207 -0.0001122402081942  0.5829839483620398
  0.0796315552202439  0.1692078017574479  0.0832483671178463
  0.0793901806631551  0.0833690325541109  0.5001283305601157
  0.8317307965819689  0.9178308802834494  0.0830710298522498
  0.1620456238171386  0.2527525880230555  0.2507256150689436
  0.9136440320813195  0.0011353592582363  0.2494517101075966
  0.9127407125306339  0.5852822825986784  0.5015784195172938
 -0.0051898464875177  0.0004401004945977  0.3330471113501738
  0.2455298251366496  0.4998939551631075  0.9164401864208082
  0.0783663700446607  0.0018948140465184  0.2492441311445512
  0.0775617887312000  0.1689820915605337  0.2502518120817453
 -0.0021992514698352  0.2513995828604118  0.2518933461713566
 -0.0033559739931061  0.0847543188960502  0.4161336291705626
  0.0797098111636124 -0.0008658030856934  0.5824611459929179
  0.1625398434566481  0.0846872863875165  0.2503923051487958
 -0.0030708387990801  0.0851873561551364  0.7522110518151447
  0.1628079897933363  0.6661361056858082  0.3345067861154272
  0.2465709294402710  0.0019206150241957  0.0849637701370905
  0.3293809056756444  0.7493442705199660  0.4171449873838073
  0.3292580576888585  0.1681184736857812  0.3352015409460946
  0.1628469634136554  0.9165969727392208  0.5828116412337011
  0.4991588258988183  0.5841976717623881  0.4180713359355163
  0.4121248987078051  0.3363790012651431  0.4195434748032140
  0.3285727268549656  0.3360109186703519  0.1642754306940677
  0.4132681437920976  0.7478875469444525  0.1681399283938779
  0.4114476422413367  0.0852262888624860  0.1673154250186552
  0.4971140205316044  0.7493313361632421  0.0872193410779992