Cr H  Ni
 1.0000000000000000
    21.0845210955175801    0.0000000000000000    0.0000000000000000
     0.0000000000000000   21.0845210955175801    0.0000000000000000
     0.0000000000000000    0.0000000000000000   21.0845210955175801
 Cr  H   Ni 
 259  69 605
Direct
 -0.0033701181926307 -0.0023513476916466  0.0007457261654841
  0.8324839235823350  0.2507447923347423  0.0833028099047756
  0.4144182238464898  0.2505791407973993  0.1670483289154753
  0.4936866096168452  0.0822376446510114  0.0850303565112026
  0.4942097992729822  0.9170837840249523  0.0867537493227470
  0.5807254547144978  0.0020373266592515  0.5849559909800750
  0.4971789096035992  0.1715610889104788  0.6694878221784248
  0.4968970561307979  0.0846727259012982  0.7540071565577203
  0.4974150540680435  0.4160248158983851  0.2503035959188872
  0.6616017609597294  0.0010992226565401  0.3345425827058836
  0.4127524116380851  0.0847047659975636  0.8346918985441831
  0.4961982449921284  0.0013182121101552  0.5014736137986974
  0.7477597511942462  0.0858978307686004  0.4979638264160868
  0.3309505455371676  0.8359029373654798  0.6661594431996278
  0.4130345216486122  0.0824431637157609  0.5001782854439276
  0.4998729612770683  0.8352802461006957  0.5005657986164735
  0.3293491126542782  0.9186856320694046  0.4170475203249858
  0.4961558396802270  0.9185520812434035  0.7507979631154890
  0.1659201262757759  0.9181592963816481  0.0854221265317184
  0.4938953497918193  0.7518806852818650  0.2498762493262373
  0.5775515520770764  0.1675866027452050  0.7496629785112811
  0.5786634919357094  0.8340901270609126  0.4174692316880423
  0.5807039760781465  0.4195380124292681  0.5039388483366504
  0.3289542170688991  0.0022347746611339  0.3336473323786250
  0.5823433240668148 -0.0001156637579636  0.9165048242921907
  0.4951957072656363  0.9174309185116525  0.2508293821530997
  0.5799990789737710  0.0005987482019279  0.4163444041130458
  0.4116689102616313  0.0014333322160962  0.9172610210048228
  0.6622650935883151  0.7513063464552077  0.4215748331562723
  0.4978750428265906  0.3352308883583067  0.6683396165427193
  0.5793406170993224  0.1680624017053207  0.9185437997234087
  0.6640369170122351  0.9166588142416036  0.2496415341033084
  0.4952436012159181  0.0847734325041693  0.2515074391716067
  0.0829505976930835  0.6688795834860247  0.5841004210363990
  0.4976273619964074  0.3346387835162227  0.0004025025077002
  0.2480664073263213  0.6640404403404827  0.2514466521569116
 -0.0093065320843730  0.5858239825573303  0.7548886582858580
  0.2479537886363021  0.5825545155064480  0.0016021074427570
  0.4946824090961988  0.8343772498575928  0.1689219290194230
  0.5793205254769020  0.6689457342182612  0.0854757425559317
  0.5789413707607021  0.5835291612255554  0.8326953431621740
  0.5787796995219473  0.7512277057133023  0.6661514613890260
  0.7457229687199334  0.9175137296692373  0.4970397620188363
  0.4953511743919264  0.6676083538551203  0.5013921869576827
  0.4134616294424642  0.5826279717704117  0.0016798331011818
  0.6628053981254534  0.7535710529609061  0.2480067162058928
  0.3304286300481271  0.5003685014953032  0.1672821718826366
  0.6602181150113988  0.0019709539618355  0.1670490578601873
  0.4136148732650578  0.7514141592016548  0.1692862926185436
  0.5773887153600895  0.3342609221733301  0.9196378812703931
  0.4974395872539187  0.6640898676421660  0.0047011066267825
  0.1640072137794917  0.4178771891380250  0.7505463554336238
  0.8274301681219626  0.8366998025515344  0.6691779567179752
  0.4930599051576650  0.5846770906161420  0.2543513738591289
  0.1634426045200356  0.4155781959388574  0.9200931535678003
  0.4118933671136758  0.8356476389677926  0.9143089902122244
  0.4161376715051088  0.4996501115399184  0.5821434143997166
  0.3303637600029153  0.6659371684597728  0.8339258709920956
  0.3306382739419603  0.6662904471477306  0.6634431075652703
  0.4138450030468403  0.6686246634907069  0.5831815581693004
  0.2494038417858472  0.6695526496966533  0.4199528048449547
  0.2483717294790735  0.6684194158641085  0.5830931199254838
  0.2478637383156537  0.7517873357414538  0.0004481932040095
  0.0797522876887431  0.6658593327435393  0.2499447131025843
  0.2478576099281751  0.8379154799141174  0.2523427543701497
  0.8274757565618922  0.8364588538705280  0.8357717880946829
  0.2494556238959166  0.2492787872792038  0.3323512750757557
  0.3314285392347792  0.4169975770742033  0.0847697195215306
 -0.0042728388966269  0.2510423634608510  0.5850453030157340
  0.4114727725298333  0.7504382096278119  0.0034530505186750
  0.9152346478998941  0.0851816296680740  0.8377620742890293
  0.1627544549965706  0.3362046200665897  0.6678950089636890
  0.9119467793620730  0.4985567925357965  0.5835542340853679
  0.1631540105513873  0.9203038768834697  0.4167774289817483
  0.1660074300584829  0.7485424787705892  0.7505250767785633
  0.9147830574549970  0.4167940425392967  0.8343843425944181
  0.3291262725329872  0.7506464447159916  0.4184581148481146
  0.3320375643090833  0.5013763825892595  0.3349605119553365
  0.7470212163529748  0.0873972891262583  0.8347539763243133
  0.4114539194312760  0.4989518393529595  0.7507432719934618
  0.4979311399278977  0.6658176557475550  0.8290335324073994
  0.9152826942041508  0.0859681736542833  0.6640927497118425
  0.2460928747582649  0.1707722406299979  0.4169120933717449
  0.4952059740904972  0.2504891585718445  0.2495619498317817
  0.3305515722039842  0.2514993465992398  0.5860379980735745
  0.3319739606545136  0.4150669287438810  0.5827762954063682
  0.4131466781614427  0.0831826265657686 -0.0002088049750402
  0.3305562495616947  0.1725435330673122  0.0009786060796440
  0.3321751105287612  0.4176576231231449  0.9184512450137989
  0.1633625206772527  0.3361071738974825  0.0011207435647204
  0.4136728236965065  0.2530404341631098  0.8342582522321332
  0.4134225280498087  0.3344558027272880  0.4169927049761972
  0.5822853855330764  0.0831113743601586  0.6671266195748438
  0.2480164057181393  0.2513353605144855  0.1676307662153473
  0.2466893876920359  0.0845513369281209  0.5005504551624463
  0.8324383196515323  0.4997077121576038  0.6680693929424252
  0.3310445011311642  0.0000782672410529  0.0006305510084929
  0.7447642862325178  0.6735929236346059  0.9194684170143804
  0.2479346617537243  0.4972717191171835  0.7527148774848724
  0.9137830790201399  0.4177976487589762  0.3368118521054717
  0.3308105794779637  0.6672908918761317  0.5006456833843683
  0.9129711762452560  0.1686785616535567  0.0848516307284072
  0.9152639330362304  0.2524145967413538  0.8342351211864760
  0.1643525772260268  0.4168451403329149  0.0832948442384644
  0.7470058908314628  0.5863166774448797  0.6632851615603585
  0.6634652391719759  0.2509881725463300  0.7514846182478336
  0.3315209928114452  0.4190923698060681  0.7511298227960712
 -0.0017130067322716  0.6683783353397970  0.1682508136224533
  0.8312001180381726  0.0830067191583285  0.2518149870031306
  0.1633441633334840  0.8356471743186269  0.3350034293843894
  0.8307371590553122  0.4172984190271413  0.0827610838151007
  0.8288591584623612  0.9193223735284117  0.7525459771653855
  0.1629685983822848  0.9148254389615273  0.9176554846618540
  0.4996948487491822  0.1683116928629643  0.4989248713720479
  0.2443663010120842  0.3285920759212438  0.4154600559045623
  0.3300975242387530  0.8314053088529506  0.1684386751063959
  0.5804225897812414  0.2486671713604618  0.1649062033171693
  0.9143961018191232  0.4989675295054104  0.4169773032783192
  0.2509401796900350  0.5842094914345822  0.6639588997519040
 -0.0029118229818053  0.4182738579029528  0.4175832592328865
  0.0845048097888474  0.5019111062438353  0.2504956697491427
  0.4128883110255668  0.1694563716812418  0.4152391015051538
  0.9171669819392493  0.5802902150586665  0.3367751381538873
  0.8313152264776228  0.6674608478884507  0.1640711053484386
  0.4127124799488325  0.0031071385595757  0.0842317576870320
  0.7459937347899467  0.2512774821715053  0.8348728664074071
  0.8297909056800721  0.3339175204494965  0.6676317521118008
  0.9117831028761778  0.3352316010468053  0.2504305217931840
  0.6620949279071839  0.0052803208274284  0.6677104448368233
  0.4130342431469761  0.5000740599611706  0.4153027506604665
  0.8292871782451625  0.2500476165279106  0.4180409092732516
  0.8284800261037931  0.4182517202512770  0.2510137816175094
  0.7521751778170704  0.4986391916795189  0.7521778942840003
  0.0809207336662707  0.3331258362608213  0.4202886923398709
  0.4119224747865656  0.5836027753559466  0.3365009647039481
  0.7460669979889416  0.5819064847107233  0.1665953103899072
  0.8278707090344926  0.2515501516804658  0.2507992154306895
 -0.0022620275326787  0.7506274120718672  0.4174008299209210
  0.8259847503047191  0.8362242230758669  0.4994482384684968
  0.7474025725559101  0.9155707903096152  0.1673933585049284
  0.8301873349093577  0.0009831820491448  0.3300572307445324
  0.9136935106344883  0.7499355897637897  0.0003944014494508
  0.8289211237217634 -0.0030687564786305 -0.0006335144491001
 -0.0025571251767700  0.8343452844564286  0.6678250400278174
  0.7454951964785428  0.9175462078776813  0.0002073478593144
  0.8276704083458402  0.6660320627072195  0.6663148456975189
  0.7486860208681160  0.7522089934947050  0.3351799968978980
  0.0820902249832834  0.6683206258075296  0.9192241922253209
  0.5797947130420239  0.4170956892923008  0.1663718933405086
 -0.0020041828370055  0.5854991946359495  0.0841872949150231
  0.8305184737028161  0.6681619505557639  0.5005735215000714
  0.6635447264799256  0.5847598791088376  0.4172425047716561
  0.9134868857440650  0.4181254974253682  0.0025271510889701
  0.7459493048706616  0.9176529351711155  0.8327755157703567
  0.7441159844345466  0.7505835274163126  0.0000298664878344
  0.8291558571908629  0.9170718266912072  0.9168624668952803
  0.9127593520462975  0.5843729506904990  0.0007701236982067
  0.7464655401408109  0.6710248180908120  0.7504086103622492
  0.4969314779401366  0.5003163233817642  0.0007290999249890
  0.7464663886380954  0.1700917175359523  0.7523165306966471
  0.9144633904068483  0.1686721439736895  0.5840158483279979
  0.5759327087484614  0.5011958153420707  0.7507324006764594
  0.5778171226674609  0.5001532388468372  0.9177727285419320
  0.7502255227712329  0.1688478746439741  0.5837050983590439
  0.5798576337132617  0.1688000930304147  0.4156265507716331
  0.5769006343195762  0.4128916392640664  0.3302431736599588
  0.6629996906542037  0.1664011468228297  0.1664829457839967
  0.8330712035083834  0.0006100536045568  0.1695190038591014
  0.7499138655746431  0.9158385133155498  0.6725111165426501
  0.7475891083600601  0.1667542413097829  0.4171571875973910
  0.7468951976752304  0.0871545191060506  0.1676459572101579
  0.6613707644928556  0.2495485210017709  0.0851208278135549
  0.6621223225334686  0.4172089210263265  0.0847280248196147
  0.9172844352806334  0.0019019564114644  0.4178411524388813
  0.5801428653160471  0.3302786496573282  0.4146187721845614
  0.5803755921378628  0.2493729657090684  0.3341610388232053
 -0.0028211938288756  0.1684094126003089  0.3343070033655268
  0.7476069556573401  0.3333168852595487  0.9178511542187515
  0.7475665992500246  0.1694652063123947  0.9129567354745454
  0.6640226269616076  0.9187483398535649  0.9185356583799790
  0.6621161165206064  0.7493686162520786  0.7492376782259458
  0.6618199642592244  0.7514944855325653  0.5851116455573668
  0.7408452653228322  0.5842950748867954  0.3371068901856631
  0.4977695900476348  0.8353685767969712  0.8321018995863323
  0.8265472316133989  0.0863746432821651  0.7514792516408576
  0.6635241425098650  0.0006581739271737 -0.0002961455494517
  0.4134037584711994  0.8349961620024841  0.5870553723930764
  0.6615265623379993  0.7503877314706001  0.9173347852457084
  0.8299979546098651  0.0863153307334387  0.4177692076278760
  0.7452462378876867  0.5019968307764363  0.4173258763861870
  0.6624024243910633  0.8360789361673149  0.1684735942444709
  0.6633451301610795  0.5830615652765619  0.0866597756991428
  0.8295447998047280  0.9184116494052069  0.2506662375721831
  0.6638542462882526  0.0840889072196785  0.0852273475535036
  0.5786920912169217  0.5881798755582386  0.3363007431343207
  0.6631616885719712  0.4172009525337064  0.5837746687028014
  0.1635880229469889  0.8366071594742864  0.4990707269159919
  0.5793692604161087  0.3336988511739534  0.7495655355271376
  0.7453953987928482  0.4994411315572511  0.5806501331041306
  0.1611632762369678  0.2509475329260158  0.4189698490895072
  0.2460801920669842  0.0018249163095138  0.0835546803844651
  0.1620806988511090  0.5015573244991790  0.3350119178198379
  0.3318974756571088  0.8345836408176770  0.8329828149389218
  0.9103747585953255  0.6662533026596036  0.7520319958483231
 -0.0040036730613210  0.3350576726275998  0.0007004089513229
  0.0816709745345693  0.1700240244886490  0.9183794673814057
  0.1651435361069589  0.8348424357817793  0.6638168110517155
  0.0794484896669401  0.2554850604549017  0.1667637403982473
  0.1632045973023274  0.1691429551436489  0.0004689256447491
  0.0807599108735483  0.5875579553618538  0.8372561089962134
  0.1638504151995856  0.2541741906862628  0.5855423753424474
  0.1656803138453564  0.3328821351702216  0.3331141556341251
  0.1648509946396622  0.5823607089124408  0.0836213371614133
  0.5790946713676072  0.5833120663093153  0.6679312610169263
  0.7469965609067983  0.4961443143891504  0.9179355747257344
  0.0799125668985980  0.5841221223426012  0.6643169309126263
  0.5789390224636703  0.2483084867958501  0.4989096916723501
  0.0810659669964374  0.7489621323292773  0.0008311999528763
  0.0808384575910549  0.5002871315450456  0.4177089234789682
  0.0806797757085454  0.1694324365555721  0.7539425451362942
  0.2470135417695785  0.2567696049090978  0.8341989821850806
 -0.0027216712329434  0.0855652914699892  0.9168028078460992
  0.2457319166782158  0.0024319447311507  0.2519437140811974
 -0.0039202646793687  0.2523701448409179  0.7519172971930140
 -0.0012494258746224  0.0847754348639457  0.2495628812686718
 -0.0019067571801117  0.2517583074492713  0.4176078423706266
  0.0788336041531875  0.0011619843794031  0.4170491106168240
  0.9131976937431797  0.9172960072794540  0.1685637198847542
  0.1660299163604523  0.1694583160301106  0.6698717516461261
  0.1633163331801217  0.1700629023296230  0.3343463290937819
 -0.0038939857751908  0.9175854807474998  0.9202987986173865
  0.0803887759383396  0.3335913152877754  0.2458453140554966
  0.4142092927511568 -0.0005836875731839  0.5828158071538428
  0.1632493293741606  0.0898911755471152  0.9194276909733164
 -0.0013041251154966  0.7492417948505053  0.2492381175411814
  0.9146812964890485  0.0853123621787561  0.5006755662245066
  0.9136785024294289  0.6697112268421678  0.9196109539109554
  0.1637510615038524  0.0013639457269133  0.3341901821784046
  0.1653773637971062  0.5836920387473914  0.7526881314469498
  0.8331622123932970  0.5850937004893626  0.7535679988123216
  0.3295841416127581  0.1690574445507058  0.6682914616954025
  0.9137425256644650  0.5854668483702107  0.8368967322186583
  0.9087358724929441  0.6697335091421572  0.5829693771642610
  0.2465502153477615  0.0820360149207946  0.8332559693743905
 -0.0028718295895009  0.8308325127783662  0.8342369349480206
 -0.0009897858937541  0.7519882114346553  0.7507614085740768
  0.0809774562856770  0.0045715704940802  0.7468762449814905
 -0.0011398684763838  0.9192679899102872  0.4179013942694843
  0.2475598396613985  0.0028235898920210  0.5834389039612053
  0.0804304927205639  0.8352998292022922  0.0865513203452440
  0.0800148003359736  0.5005289877078506  0.5848311625912317
 -0.0031298814760816  0.7547356803448090  0.5847699244915697
 -0.0042907101652082  0.4168294469356502  0.7519885579752192
  0.8302806868062363  0.3329653665954594  0.4998915689179592
 -0.0021823606965925  0.5023250573632805  0.1634521644043664
  0.0798190273219274  0.0814022218787042  0.1675449675713569
 -0.0025600286098144  0.9177071038405457  0.5860136822180463
  0.2474140866491163  0.3307900166299840  0.2505044295011873
  0.1642583020461073  0.0008539294225170  0.0053002747518500
  0.0823561037605956  0.9146554817244424  0.7497543056464235
  0.9153807553472925  0.4213088638729667  0.2483374925207860
  0.3274048256868903  0.0859488773030029  0.0007180567059331
  0.7457455118407823  0.5845347702907314  0.7503878909404782
  0.0812934574325246  0.0008926473728422  0.8369235416911983
  0.4121015905651581  0.0880717225613659  0.5876629482332120
  0.8282782660722995  0.6683445949330503  0.2549134209297863
  0.4951298841891526  0.0841716284295384  0.6673491060759950
  0.1645587101630635  1.0021138920537902  0.9172020342732077
  0.4967628894544139  0.9161059464204618 -0.0036821337724340
  0.4994563034566575  0.7526471231779981 -0.0000010377600654
 -0.0857783193612220  0.0858354590172278  0.7510693624091147
 -0.0911182880584007  0.7525922768977408  0.2507830797739808
  0.5002663573948077  0.0857618071152030 -0.0026059724758359
  0.1660108415573349  0.8374626165609541  0.7533114054436765
  0.6677757065941630  0.4161327927846704  0.3337565429628167
  0.5797917481121865  0.4181378096227718  0.4170201769568488
  0.0803482459949444  0.4974097474200004  0.8372006945750925
  0.4136427247442692  0.0812939566341678  0.4122422850026217
  0.2473453057766945  0.4200395522584142  0.4188030788244919
  0.1661884697066943  0.6717927262511937  0.0847797113860983
  0.4131689641181085  0.7474024021045100  0.9136492949696582
  0.5818805877307246  0.5848845161541579  0.2481174945108703
  0.0783486567235217  0.1677943092343367  0.6656657964308501
  0.3297456366900927  0.9223479125869051  0.1682593266636074
  0.5801312045365649  0.3341341011507668  0.5024026373860810
 -0.0069908933121834  0.5834932688154761  0.6657702769474610
  0.7463684548686131  0.5847138615699583  0.9183937011543806
  0.7467395542205497  0.1685897737563849  0.0032854767275087
  0.5799667776727010  0.5006163828925729  0.3337280063540503
  0.7454373537150750  0.9188742264084093  0.5848221386978737
 -0.0035981240620605  0.6674289876847783  0.5828041624102084
  0.7462490241674767  0.0014034126367569  0.1671240699193466
  0.1651641675962165  0.5828443999863443  0.6658858684772033
  0.8289526385822691  0.5843933787466762  0.3349510115039572
  0.3271620981824244  0.5024652891073396  0.5823321572919712
  0.6636014656530449  0.4993747705062607  0.7505989144382914
  0.9957669177214480  0.0876480750835724  0.0052249734402886
  0.2476610927090867  0.7513490260645018  0.2522321381935386
  0.6623967337019812  0.5845570754542382 -0.0027086772058181
  0.0785352448626877  0.3341772958106414  0.3338300886008548
  0.1623954773103592  0.1652013841498932  0.5819803374819937
  0.4969385921039056  0.6669638632365033  0.9169522154088986
  0.7428954023685382  0.6710286533928973  0.1673524487522355
  0.2481084664023144  0.4217783674621599  0.2496892466622413
  0.0853200010544658  0.7543846808956823  0.2517357852992555
  0.8294726586701436 -0.0010383022930058  0.4182007556856794
  0.0804612021375423  0.1680840396951412  0.1662261791769041
  0.9955593156974794  0.5020123814416440  0.2523889503384848
  0.2517059918541084  0.5854491373559093  0.7519931137867052
  0.4958961562604600  0.5834223661126187  0.1646476664559862
  0.6614014543886024  0.7514734169541277  0.3351404013397372
  0.4122228102434771  0.1700034896806487  0.5024950708191392
  0.6648628552155668  0.3326040108909335  0.2501607219645279
  0.0783341506460053  0.5839766258085510  0.7509032139647875
  0.8298959214102530  0.0017020289376836  0.5848146972044947
  0.0801103197245585  0.8367757384659849 -0.0016932307266930
  0.6602030065761393  0.1691249729851593  0.5830750114188819
  0.9167606619360552  0.8357165607618615  0.4997151572373372
  0.2513167333064051  0.9170286087978474  0.9163216426382761
  0.2474519581684759  0.1688310428210797  0.8342604914708112
  0.9108484730652660  0.7545683151256809  0.7515704559501329
  0.4101348730722823  0.8351758861605250  0.4969641833380241
  0.9137778052701430  0.6718473867169088  0.3365091227621755
  0.6600742696602846  0.9158297594574426  0.6678122824199889
  0.9966363389109965  0.9199124350142047  0.8308109330455401
  0.8311651500643715  0.0875370986184878 -0.0001874275105873
  0.7455385851631677  0.4994506535826093  0.6666266177644963
 -0.0839836636959303  0.2476599878593206  0.2507620968234363
  0.0796137717735016  0.4993370276075658  0.7510682530551033
  0.7457444678726398  0.7542278759689135  0.1671145544676506
 -0.0031890841761133  0.3348141970372767  0.8349900180154988
  0.6629440853188473  0.9185218230755600  0.0844360974769227
  0.6608423021555343  0.6680269287806486  0.0023975586423990
  0.4136322652451449  0.9190476124709941  0.5007912089602131
  0.0798723115477929  0.3353276068661916  0.9185162730088493
  0.0793403075374719  0.2518614608101992  0.5021096326551793
  0.6616295793672440  0.5831748454877240  0.9152191414531704
  0.7463896713061201  0.5841434841044454  0.5008446490869751
  0.6618846811454233  0.5002655033674023  0.6668186028962069
  0.6619144806157468  0.5844039964880972  0.7504984775442466
  0.8309835557341794  0.5848427252545478  0.9182165503375769
  0.7466447035676677  0.4158267516334582  0.8352669481467498
  0.6623775716850248  0.5838984437157289  0.5837897244140723
  0.9133203227196349  0.5000335315592318  0.7523622154490502
  0.7477659782643991  0.1686259629713596  0.0851395512487506
  0.6614671262108293  0.1684677843949697  0.8354695933918955
  0.6626128182225990  0.6678866385770389  0.8332765315669487
  0.8315958284899644  0.1703030638156144 -0.0002452234477452
 -0.0033940894925842  0.3346254248538709  0.6682887614649531
  0.5787476549966410  0.1667951422100019  0.2498726350558481
  0.7462731227915027  0.6685364380400173  0.5826348042957711
  0.6622339196357212  0.2514109791124224  0.9173250228973515
  0.0804449116577022  0.4157452265225212  0.8344856888855234
  0.7463895322096541  0.0029465946041810  0.7516552876270536
  0.8308254117066034  0.3339993363048114  0.8345081729372258
  0.6634094862442308  0.1678758104663134  0.6688667215172187
  0.7454366010539069  0.8346109473471125  0.4165940463907654
  0.7466675825010520  0.0018808412121015  0.9154207542611760
  0.5788819345528482  0.6702534558721119  0.2504166401345014
  0.5800962914764355  0.8344323818744473  0.7506504234395687
 -0.0038959605367918  0.4185411595089912  0.5838777574327150
  0.8271944326127342  0.7515289033074666  0.7508104649892836
  0.6635009671215799  0.1680150340505245  0.4986350859011039
  0.0790046300402401  0.4176989347755276  0.6674844555244699
  0.0809622588281600  0.5009313302529368  0.0831698200531755
  0.9138710063805365  0.5006475296768358  0.9190430771322975
  0.6635222091405949  0.2517260036486996  0.5841164075194597
  0.8300082559014740  0.0862962940489053  0.5838417436168053
  0.5778048141205804  0.1683901831119362  0.5852244355785682
  0.7482509915551896  0.2499639547813285  0.3341040262335350
  0.7473958931393092  0.2501591454263258  0.5012337848929255
  0.5794472125708956  0.0842427043190905  0.3334443763296729
  0.0809202228455397  0.4182041534969124  0.3339907761456156
  0.7466980073983467  0.0846815309122734  0.3334186146285560
  0.5788413489063785  0.9182028662074772  0.1682573990801343
  0.6621415372439606  0.6683221121988516  0.3347387716402528
  0.7476164673481611  0.8346978158663517  0.2516949753113116
  0.0797605004594809  0.3350057598970245  0.7514294517288835
 -0.0037172312596409  0.3343518849098164  0.5011690231160304
  0.9138256087851246  0.1655557440191950  0.2508116440386974
  0.7447061795308394  0.6684756217602629  0.2520818715738696
  0.9132737193598066  0.3337236879554634  0.5845760389291561
  0.7460523202040095  0.7520433389784239  0.5010146206428739
  0.7459774295513562  0.8338517083613158  0.5838513025136597
  0.5775894530473653  0.7523558683738721  0.3340317407010433
  0.6629681153538171  0.8344500526457022  0.0008104282749351
  0.7452580202648778  0.7515633189764521  0.8349543466258740
  0.7450775983717196  0.6686828596479134  0.4187060576522826
 -0.0024860830966890  0.6678198272624561  0.0013408529875011
  0.8299387953176663  0.7513865272097463  0.0827782034846285
  0.8277291598389260  0.7522462416938063  0.2502932789178041
  0.9140322316212057  0.7507293433693699  0.1657492095351367
  0.8292269071296335  0.7517842348450348  0.9188947481803305
  0.9131662793856007 -0.0002547181802214  0.9174330753559379
 -0.0033857626497167  0.2522046559930817  0.0838432491324576
  0.9108014636538332  0.5840924697006817  0.6659361502656724
  0.8297786328157136  0.3337467063155720  0.3349551036858938
  0.7471589522112223  0.1671371859562831  0.2508571557461508
  0.7455006939996512  0.0013927589766706  0.2522570875776135
  0.6626184174411816  0.4153473289723654  0.7515131087107874
  0.7455116467294075  0.9178644090756393  0.3334532903091483
  0.6635669875686075  0.0850046903723350  0.5818746648212062
  0.1650055030113802  0.7534488964919620  0.0841190702701205
  0.6625218417662680  0.2479048769493807  0.2496987059288757
  0.8305050846632739  0.1690342685771581  0.6676654422716620
  0.6628799670613348  0.0849811281310571  0.9173898255584310
  0.6620435701540630  0.6676802295215355  0.5014032618645318
  0.6631485827759724  0.3342481699078543  0.6680588964129981
  0.0819097540145196  0.5846493993447562  0.0015292464882888
  0.6627447382424748  0.5014833883283568  0.5006214671345366
  0.7465998995339246  0.4998586517551667  0.0842564363757831
  0.7459582906634482  0.5011871645831981  0.2505465388024389
  0.7453756560454121  0.6685578208744503  0.0833309960044717
  0.5808517041939704  0.5844085994584446  0.1651229644536453
  0.7469206229330424  0.3331840766395788  0.7513018161991889
  0.8297082547406348  0.5846859692610938  0.0833305491906706
  0.4967477886033144  0.0009363156056973  0.3334900926678015
 -0.0027755537399090  0.7505410296164822  0.0842095771569694
  0.6633832521614048  0.5007198690173063  0.3328618059276838
  0.6623378359165467  0.4166324289685880  0.9172568749027308
  0.7464083100143084  0.5841156538112531  0.0017343626778769
  0.2470639359263963  0.1707306475765971  0.9185861649306841
  0.7471979828520070  0.3340677764179525  0.5838210406683516
  0.9139864478617190  0.3353405870149978  0.9180791634780956
  0.6648773525821614  0.5850747195155731  0.2510642239036874
  0.6617863095430903  0.9178491037374391  0.4169545296242764
  0.7468046289031308  0.4167150580556976  0.5005999985781593
  0.7461620055035902  0.2525698004333842  0.0006413318737203
 -0.0000480851811547  0.5010876740335360  0.3351036607150447
  0.9135459126466799  0.6676274012888359  0.0828969721566176
 -0.0045598525441555  0.5823242755249641  0.5818239475881800
 -0.0031360760370674  0.0018873209798831  0.6667149291096708
  0.5801638780234272  0.5000285712242055  0.0847201347467897
  0.4961995290630335  0.5844962971212794  0.4170904682659433
  0.0817888505216874  0.5837616046345485  0.1671812565917447
  0.1637339918314481  0.4984232973723796  0.6673420074486004
  0.6620696553296345  0.3343843628624130  0.8353942200373455
  0.1638402843999178  0.5845487640040573  0.4178662748863487
  0.0805249065262406  0.2527167839130238  0.8342590033005992
 -0.0019230112388311  0.5853410078830364  0.2499563399131681
  0.6621409600764274  0.8347543556602097  0.5002191961590288
 -0.0029528731298003  0.1702445919280127  0.0009287780123398
  0.7467693392135494  0.5843324137079901  0.8350737729406724
  0.8278283479271348  0.6679321548888950  0.3374864357536841
  0.7462281494197045  0.0867299759095091  0.6679306576254360
  0.9146149986914048  0.6664342142836863  0.2498368834148794
  0.1649064637305031  0.4999736960516792  0.8360280801834356
  0.8291026720440140  0.5836803747456834  0.2497634843685750
  0.5798109916567067  0.9185732126398748  0.5002667370236934
 -0.0042962939091985  0.1690780576601111  0.6682951140321656
  0.7466322205843460  0.8351682708369145  0.0837670596281458
  0.9138712565615981  0.0840255908786070  0.0007967146631064
  0.6622519735233278  0.8356231092271699  0.3333806262215313
 -0.0030573212157265  0.2521243244363295  0.9177081751089636
  0.0807967713573150  0.5840112469077188  0.5014486269553992
  0.8309986835278840  0.4994630849879186  0.8363245843579776
  0.7460203896522161  0.7513066108275003  0.6663789932691179
 -0.0013482090551021  0.0858376287819201  0.7510555690532243
  0.0802400448505885  0.1687673558840538  0.0827114754542716
 -0.0042335287858598  0.1681845522892657  0.1674230364449729
  0.0810428544483309  0.8346088272608536  0.5840151655447595
  0.8294426403867295  0.5830883183099903  0.4193689598774507
  0.5802811745745617  0.9178046648414392  0.8335794287146050
  0.8293008208016805  0.5004171327677659  0.3347594417572836
  0.6632156408233817  0.0027530118442049  0.8340019122584846
  0.9146797510446472  0.0849238697061391  0.3346543365723321
  0.2457306691829796  0.0857751167590834  0.3347347861239140
 -0.0036619062561614  0.5022608353973190  0.0018408682824739
  0.5796877195189526  0.8352817614670406  0.0857498735128862
  0.8294698587397855  0.6683279878534891  0.0012926906125505
  0.6626210189595908  0.0847477489462653  0.4173064579553684
 -0.0046098179411592  0.5012235475211897  0.8359840101408487
 -0.0011123722750828  0.6675629691232636  0.3350191352975614
 -0.0048959149968352  0.4995877046539662  0.6678261639782669
  0.9116688282301398  0.7524869194984550  0.6666415203249378
  0.9136898871522134  0.8360199483057860  0.2509768884973346
  0.2469821172486320  0.5023357962775324  0.4167131888610392
 -0.0030144984885262  0.9177472699441189  0.2498599790799987
  0.8307353931831524  0.4176117315332126  0.4180163910841984
  0.9124477909941372  0.9173445941590234  0.8344898824469122
  0.0802279977901875  0.1682384765085279  0.2509697039980182
  0.4134255281342326  0.1707777097841578  0.5866126214635466
  0.8292853499673748  0.7520676524916200  0.4188703275417829
  0.1629921079796801  0.1694672798531835  0.8341026637649743
 -0.0023148465753342  0.0018411467321134  0.3338464751826779
  0.5789624801203858  0.0836577154561244  0.1674451374776626
  0.0803682574964039  0.8356222510188749  0.4175948116243886