Cr H  Ni
 1.0000000000000000
    38.6687825624360855    0.0000000000000000    0.0000000000000000
     0.0000000000000000   38.6687825624360855    0.0000000000000000
     0.0000000000000000    0.0000000000000000   38.6687825624360855
 Cr  H   Ni 
 233  21 494
Direct
  0.7505342669268747  0.2702256783993391  0.5822935666405071
  0.5916456613383227  0.5592636459896393  0.5365803302681930
  0.4918619357228455  0.0647969221009153  0.5829006127618998
  0.2006257654662513  0.2112761012893297  0.5095466970677406
  0.1593072308044482  0.1916260663249974  0.5608096967593362
  0.9523499324480675  0.2161287593041277  0.4394884233168380
  0.6400664940813905  0.7154759601236780  0.5636276904427155
  0.7499414269194379  0.8076289822059377  0.5804287663494240
  0.7946017040756601  0.7434188276894912  0.5996074079315785
  0.6785813363580548  0.7692179841056243  0.5602196021316918
  0.0229807042943109  0.9245951956926797  0.5978952169218622
  0.8340251116019141  0.9356820043751931  0.6286017253280096
  0.3499616364937807  0.5565854585470296  0.4546731821234882
  0.0715838999419142  0.0327550499238201  0.5161914623522669
  0.3964423231263549  0.2521445913266482  0.5214717139669082
  0.5194585317476053  0.2844575485891855  0.5520936113549790
  0.5299996172491529  0.5605052560679855  0.5161954239164309
  0.1276223560687847  0.0428016501525021  0.5342426501955043
  0.5454977665108492  0.1679780003661062  0.4736169761018102
  0.1941830171937727  0.6807532789982661  0.5158454169396797
  0.2398936765070476  0.4885469622785037  0.4366799224282699
  0.5910269176208923  0.1936929755972244  0.4957022954211112
  0.3542233798159415  0.4973137439481868  0.4740946162490304
  0.3745153331045160  0.4246301095440895  0.4702227148758746
  0.5360212172280234  0.2934537479227922  0.4537576836320776
  0.8479315692777356  0.2508771196953625  0.5052741230085781
  0.9080737572445844  0.8564261435190488  0.5584880793797878
  0.9179551012318805  0.8894189869551712  0.6120327752372576
  0.8549473026607816  0.9489421375213785  0.5254345518349314
  0.3580439172906127  0.6762098532589018  0.4185232680305234
  0.5341674175761636  0.0065385257368260  0.6225609676944512
  0.9644632126205243  0.9231442944107957  0.6609986842594396
  0.6335272237227156  0.8876885971508937  0.6889881523381174
  0.8815558131381305  0.4146438669856328  0.5057164522592276
  0.9530397016692831  0.3290667067105285  0.4642144329155789
  0.6004215003700528  0.9459508751432706  0.6042613049880370
  0.4275609283820493  0.8514729443335073  0.5201419297195166
  0.7383606267647816  0.7232295625822667  0.4816940055368459
  0.6858473111553010  0.7930920662308450  0.5070551635942711
  0.5513730204943668  0.1650065410116772  0.5344689902776596
  0.5266376230838057  0.1190176244456418  0.5838828377886548
  0.9005907293166122  0.9326632952592404  0.6557580538471248
  0.7005336055873611  0.9648974802472846  0.5813889868398827
  0.8028788749996966  0.9689125205720873  0.5570307719407146
  0.1083920247381270  0.1964612055007987  0.4408924691794730
  0.7225544883341004  0.9419710575145075  0.6502518104903249
  0.0544466364031136  0.3881871785439403  0.4827460437094113
  0.0533679821029900  0.3622501771219310  0.5517829333052297
  0.2156077680479778  0.9436822466483847  0.5378626321956897
  0.7416754780232278  0.8284588867474879  0.5197441660105826
  0.6628641286775960  0.5656060349187805  0.5043494391127619
  0.7995199007539232  0.8897768816975834  0.6305472704230354
  0.8596649181787810  0.8925019099956316  0.5911833330468625
  0.4527977432223336  0.2853761198898084  0.5354420885254638
  0.3625410914501823  0.0849283928002479  0.5336937204508148
  0.7797273084131209  0.0453542682748436  0.6306736459579488
  0.9312988594456240  0.0903660925032181  0.6191568839342844
  0.8579785421984749  0.1896859574320534  0.5254750430586704
  0.9235232427182929  0.1094329001483366  0.4978073445439787
  0.0110759999034926  0.8881108647532356  0.4806951310793273
  0.1155540195249096  0.7743734169348040  0.4901316729756959
  0.0652622192500697  0.7703586309696574  0.5351359986506209
  0.1364921227449355  0.7112530103788306  0.4838086809675284
  0.1145254922947156  0.3752649130146959  0.4505281779373311
  0.9026843381012483  0.3146499253617632  0.5680677179488829
  0.0512479332249173  0.6491419348383440  0.5030898416689251
  0.7047388874633443 -0.0041761750457716  0.6316225631476329
  0.7182798301342349  0.7908987428947299  0.6255143862248820
  0.6497566731965652  0.8754670166273730  0.5913440584379516
  0.6297415643089765  0.8095485988126339  0.5450964126754968
  0.6835639550671906  0.8365791758708921  0.5489663775847525
  0.3100408206830315  0.2430516841552740  0.5443205138218000
  0.5737041549269567  0.7788074219000551  0.5374850908533993
  0.5154145834683551  0.6214151052953886  0.4976366799853478
  0.7872324044338533  0.7013641385696895  0.4562987955926871
  0.2954636086600115  0.1394500219710271  0.5592759736147409
  0.1693966936330046  0.4011495236306950  0.4528532266292908
  0.0082054341832942  0.3550735879218631  0.4672935129864056
  0.1841062026189378  0.1354676822400139  0.5789295761546993
  0.6600666447194481 -0.0595795586455214  0.6267051443261591
  0.1079649061666378  0.3070219398129480  0.4686221996259717
  0.1527476216988747  0.7187697538439998  0.4017055604564406
  0.2426028335999356  0.2001030088131494  0.4733850305333657
  0.1861407799440973  0.1042120069826092  0.4737124270639583
  0.3744517896844431  0.4018285526526159  0.5400963568510965
  0.2718807801628602  0.2908067040746573  0.4714119920997121
  0.4400651962264931  0.2205809419302287  0.5012340042121973
  0.3842237718544381  0.2497155275057180  0.4634539305366632
  0.1595776714938492  0.8290948675991249  0.4321492886360286
  0.1800088376763293  0.7432899130785379  0.5000654691075151
  0.2868433612929112  0.7359183577080542  0.4903076216932224
  0.2007120471268982  0.6334079143565595  0.4522275255905878
  0.3506708438979292  0.6165087072071800  0.4391601599326552
  0.6578739414309628  0.1059734123147800  0.5028456584742192
  0.0528821648397140  0.2743373539489868  0.4582511629649983
  0.2413627574231454  0.1399442228178384  0.5390250758712966
  0.0591931968380298  0.9197971010065790  0.4936169342483227
  0.2654937076094004  0.7750104112778403  0.4222761643069123
  0.3041612258839027  0.6913863593784159  0.4540801779505943
  0.2460868444758571  0.6851396729535523  0.4136853616719609
  0.8468130503167326  0.7779658333215888  0.5062600524702267
  0.7026541088269911  0.0191281044667224  0.5588473957834308
  0.1505198687623976  0.4101484257701988  0.5048209573635167
  0.2673034745749600  0.3537028556270720  0.4521216823182305
  0.2173068834199922  0.3225376868467151  0.4439143752373522
  0.2890414550680435  0.0587293464084501  0.4666153604728960
  0.5044183402086558  0.4626206214844155  0.4774842142568554
  0.2250803012084667  0.3873407365697047  0.4256955797357780
  0.1374406794686956  0.4656367409419033  0.4713825963424518
  0.2129211264164930  0.4376849913153897  0.4761550725139171
  0.0914867800591033  0.4903904584554202  0.4943983105481067
  0.1457488171340300  0.5873228047598203  0.4911696077398350
  0.3953795541166847  0.0579460637009887  0.5014063074575513
  0.3453216635415151  0.1521276055040699  0.4569053017413350
  0.2750796425797145  0.4243969883465404  0.4337259104732941
  0.9700872415332842  0.0302450359993923  0.6017289261451866
  0.5427247805471090  0.0263179845045932  0.5550909698040886
  0.0254426330235047  0.0274408972887322  0.6182548351202218
  0.6938571141972130  0.3291176877665994  0.4896110458227820
  0.4343482408750532  0.9641415000309357  0.5432951337214834
  0.6892159230060162  0.4421512936980345  0.5300992714671071
  0.4609663696534753  0.6293750862584706  0.4141898634195444
  0.5618733741333722  0.5681207277779488  0.4718243568156720
  0.5070606022804537  0.5374230235896975  0.4567378607658216
  0.6116237847632741  0.3380419968823645  0.5205420412233143
  0.9107213351291067  0.6902006400581561  0.5442594203643202
  0.4276038354944706  0.3416705529023175  0.4576130460545238
  0.9502332023320557  0.4728752313421379  0.5654152046390039
  0.7067800504351139  0.1378723585510690  0.5299353257440799
  0.9826195506097470  0.2468402060567833  0.6042546237440256
  0.8176931234118128  0.2121637430590375  0.5595680954059107
  0.7975345612213430  0.2164407801007067  0.5016788649338656
  0.8477094000459646  0.3189139830433452  0.5478290198065670
  0.7067924727529384  0.0770823510023905  0.5393079909381656
  0.7601995762546742  0.0611861356999411  0.5064543301758849
  0.9767773020384880  0.4153401484517982  0.5670655910986029
  0.8892148738085931  0.6478925076726082  0.5049130728534965
  0.6908610053427536  0.2185771787908985  0.4616065216280431
  0.1978577330818641  0.5727398423904351  0.5101055631991424
  0.1472155023326260  0.5216887567848925  0.5063289160104464
  0.9272481747369666  0.5060716819510318  0.4973017753770345
  0.9055675109879794 -0.0173350591549812  0.5259295979129115
  0.0113024779749686  0.3056183693872929  0.5483354767908036
  0.2690919114345028  0.8854615129373465  0.4563724500339499
  0.6649650011864543  0.5196708801571092  0.4624012083520829
  0.8128830978957216  0.0911791320056035  0.5140746805002737
  0.9537187987240778  0.2031827212967226  0.4999033963066535
  0.7669390681437473  0.3750859620133320  0.5710433643312197
  0.8450588928588549  0.4314306657309890  0.5385193312739615
  0.1449171716481339  0.6750720681141775  0.5526093993284598
  0.1221212188855892  0.1475927276749147  0.5531990929867694
  0.3137498116978089  0.5130096556595626  0.5102059464022405
  0.1215292435592250  1.0108455091456923  0.4840619329595949
  0.1188037467678064  0.9812617491662831  0.5605185846267232
  0.7346346271030555  0.1593095502068670  0.5979772309303329
  0.9000806195894611  0.1693896996939136  0.4872939716479849
  0.9584689742650566  0.8384397371886726  0.5792654311987311
  0.0974376719958293  0.8668178381600865  0.5772465079181870
  0.6459864674503560  0.1137462856435081  0.5618200954075560
  0.1190025113456964  0.3054106460609742  0.5256704119417624
  0.5481369341560254  0.0892462090231162  0.5416935136566273
 -0.0085330085378594  0.5977152017202405  0.4927741014898407
  0.5947547790041955  0.2369790003563648  0.5419513149872163
  0.8996004334391702  0.5916050659466158  0.5230874345255637
  0.7736509278018627  0.1205619457814237  0.4856452610750733
  0.6630928768511954  0.4546692694308658  0.4780742998858859
  0.3196163161274125  0.8330932690442689  0.5355306149940690
  0.3737974074516661  0.7794367684042303  0.4549844625890944
  0.6947717545493123  0.2758719910586385  0.5625472807321406
  0.8740680509271014  0.0977644571268640  0.5953261289809740
  0.2695288011038814  0.9315675456308885  0.4956221234002712
  0.7962469853456208  0.6008923884983467  0.5413291797653836
  0.9609557185833941  0.7342795319917770  0.5510082727380208
  0.8967030414796643  0.7964067427650586  0.5719580308964090
  0.5407539393298776  0.8480647958733316  0.5603605017649534
  0.2237623741416061  0.3099280661588784  0.5040018861983375
  0.4785478953451459  0.7758033104339567  0.4981234995218776
  0.1761785209708203  0.9232016816409929  0.6333015841030011
 -0.0139767918871356  0.4175385423642293  0.4896472970470390
  0.4340835912975490  0.8885965865904080  0.5619024156607252
  0.6117427437152151  0.5256420048942519  0.5004307919111282
  0.2909182868168853  0.6195101535971133  0.5315167415754865
  0.3816167643764559  0.5126908541414585  0.5344135769599415
  0.1803040291359305  0.0308928977872495  0.5611987736381407
  0.5166280036953814  0.8970627900654965  0.6484805189339680
  0.4420430087588400  0.7764870980316367  0.5366277542552715
  0.5397651062822936  0.3951258583409835  0.5412881866548686
  0.7093823750271887  0.5466111279311797  0.5261233958863849
  0.6149726254785275  0.4976407854925522  0.5607919484923582
  0.7009043186087189  0.6591335032055370  0.5371382318734576
  0.6752360155608157  0.6430653123403574  0.4297192993217497
  0.8054247933283986  0.7033779294189348  0.5644781825725596
  0.8504246571348152  0.8238196402103181  0.5512723791433036
  0.6484111509430845  0.9296428330700345  0.5686899856746386
  0.5834452938549874  0.7194812425585155  0.5424351748184879
  0.7428962137950068  0.6622811114076289  0.4974259112172614
  0.7848708200297324  0.6407457404670688  0.4657007694431763
  0.9225568940666442  0.4002246222663334  0.4663766685393691
  0.4845622509251769  0.2331801033464107  0.5535349410949216
  1.0146175586170696  0.9972977103106343  0.5083973740279870
  0.0254381675847541  0.1254653441732252  0.4789357758032890
  0.9515973999047401  0.9392571267908033  0.6054926103082134
  0.0272712981056483  0.5709329154803632  0.5666382387570831
  0.1381860074499301  0.5691957441698148  0.5454782204321290
  0.2214831161806154  0.3501558978190772  0.5524113056278632
  0.2068846424103811  0.8338552806706958  0.5464475791166407
  0.5241143915201396  0.6944060117409203  0.4731879967111122
  0.6271018432345050  0.6538759151055445  0.4615861813513464
  0.3954584696152766  0.1883037635428734  0.5249731931352710
  0.0300462820332564  0.1049338071421377  0.5353575929087070
  0.0492185165614128  0.1956135079140145  0.5821893681446798
  0.2400554274953868  0.2960519965475600  0.5677840705160559
  0.2612134100216333  0.4118248391810909  0.4913411137113939
  0.0603613626878954  0.9794844143270940  0.5376568874181020
  0.1657603401812007  0.9220817392288555  0.5322553935394866
  0.0129160769757446  0.9339535471183161  0.5298601778734230
  0.0675266370311954  0.9622036249889051  0.6680394725067209
  0.2965447647742369  0.4538759808412867  0.5569707988136837
  0.2574461770815010  0.4777848114765856  0.4906640336066664
  0.1348243872005815  1.0241131930517100  0.6000949733536228
  0.3378693722517837  0.9226709767974700  0.5771496449087988
  0.2661831793651366  0.9743951273921864  0.5995703571952373
  0.7984708695600543  0.3453622149131381  0.4647688954142267
  1.0003167607504084  0.7825570909617605  0.4433705655385993
  0.5901142005755602  1.0058689651687882  0.5831431920559249
  0.4969388100816082  0.9568065639475971  0.6237344339885639
  0.3470046049861840  0.7287540623540819  0.5047274254282020
  0.2684925116775655  0.8061784833317696  0.4669625219122729
  0.4945690514188792  0.8109489352751031  0.6019567073573625
  0.9460417821162077  0.6928415162441803  0.4468344747729623
  0.5705065961098219  0.6167975902465856  0.5184910170536912
  0.7709418529626733  0.4611126833206450  0.5124972265199282
  0.9992129016521215  0.6567374802942029  0.4814395275798900
  0.1544641431273097  0.2337513422175902  0.4989393562466792
  0.0981847810436792  0.1993687474939079  0.4916332502365800
  0.7261904355745162  0.8422286031948462  0.5634759318145459
  0.1263135900556529  0.9201606282534905  0.6281889004090199
  0.1268987025801876  0.1445276816529598  0.5000578786791373
  0.9872124368269158  0.7715060069691018  0.6178987957808398
  1.0334105122088151  0.7584077001175368  0.4715739722959599
  0.0507142752782512  0.1492847424213055  0.5567118442497365
  0.1012405509400228  0.5866247130206901  0.5116415166677662
  0.9929588142553331  0.9595925706463242  0.6046595961937850
  0.8789267839167764  0.1242013826969893  0.4889919092452407
 -0.0130525292935060  0.1814900770041700  0.5950414928489794
  1.0476945006858396  0.2212991943110628  0.5213369892078826
  0.9506416388625263  0.8737152255117278  0.6460720806132756
  0.6407964084281250  0.8906828697329320  0.6381077722516481
  0.5576713012412592  0.8718427781814866  0.6624992356277412
  1.0197839230510084  0.8378118095964070  0.5850789750468863
  0.9427500752290724  0.2090158364266774  0.5534429044562873
  1.0684195954092253  0.8856752934301271  0.5363434050402721
  0.9708712852584330  0.1229496883274812  0.4865845627452405
  0.8480965880567439  0.9576089459003668  0.5736544888810907
  0.7157741251339849  0.4889575348482097  0.4861103927703745
  0.8477786264277889  0.3137660732137399  0.4864971417693212
  0.5824212589255454  0.6751555946350086  0.4969692635488785
  0.5659150114904504  0.6290891859138670  0.4557830793747811
  0.7257560806892180  0.6133632454080136  0.4569900280179263
  0.8986902392616144  0.2865415694695089  0.5159583852905134
  0.6690090250979389  0.5826347088404018  0.4449546431733810
  0.5742353369621434  0.6891047406747092  0.4375107074363293
  0.5770857152803872  0.7352913473892734  0.4843854947034382
  0.6072417420753480  0.4288794909510564  0.4667412672790815
  0.5310376012704151  0.8098301574803013  0.5065018253129298
  0.9215001032752203  0.4618852515798594  0.4529885688055466
  0.7761867874780661  0.5816456064891413  0.4824268192383735
  0.9525825893668309  0.2779452161184360  0.4217639053664431
  0.9495899014834830  0.2646505995177588  0.4831815836096150
  1.0026471736864266  0.1838518975151831  0.4664907759029246
  0.9306918328480726  0.1151215148418913  0.5587191794125311
  0.6291640230760328  0.7161463895782263  0.4548326183463314
  0.6749489559938555  0.6251281537134612  0.4933328195785503
  0.7536191124754978  0.4178186186844541  0.4744470122729457
  0.4057213080024344  0.7219982613992915  0.5369075492483800
  0.5431829274051674  0.8420275442058917  0.6320059031656623
  0.2977119647194932  0.5831137673299066  0.4302187105972682
  0.4687217329897915  0.7196731609011443  0.5509269765871085
  0.5896250338697024  0.8431461589323750  0.6812465926112036
  0.1083716324405283  0.8889519519942867  0.5167317676256984
  0.9761952216763696  0.1444326829706434  0.5217649256028865
  0.7203467340836570  0.5526163799763181  0.4696891767128221
  0.2974106296353195  0.5187785816771475  0.4497872571083024
  0.6821819663917922  0.7487204318989285  0.4624391014073836
  0.8964795379822803  0.7690023688829654  0.4670311048571985
  0.4362999609384783  0.2807152056441806  0.4736922107907499
  0.4239803566213576  0.4014724485859039  0.4981542294335913
  0.2469550913641249  0.6802718480283950  0.4796719775601342
  0.0879959655670232  0.6873505180374682  0.5289485392914579
  0.4860107134226129  0.3150667035408027  0.4853174743861738
  0.3223218033465058  0.3896756620099174  0.4569841346323609
  0.9580403091746957  0.6895722926547371  0.5067024765126185
  0.5004626132762383  0.1365756638895771  0.4456381642264927
  0.1921243063096811  0.5638137808015041  0.4530427342516014
  0.4819707787332106  0.2008896369235630  0.4563553022345429
  0.2450163067938584  0.5918608026612185  0.4674084284351239
  0.3018491275621047  0.5722464499110684  0.4903482595695223
  0.3089629670295493  0.4532656481086761  0.4820290483911654
  0.2168641374000034  0.8961479805029507  0.4964589753472441
  0.9504689911300751  0.8038315708330405  0.4757741701448224
  0.6063781383736784  0.1367864521582025  0.4703608989727253
  0.2475188590100353  0.5347029986715444  0.4819385685538211
  0.0596634062040137  0.7968714842076011  0.4706382416056418
  0.1467614950418782  0.6611343709998203  0.4215654779113617
  0.1570662394132340  0.7623348723831166  0.4457085483951400
  0.0069226388978356  0.8275165871919130  0.4859812903928625
  0.7056619073574510  0.0289700976912766  0.4954599667888429
 -0.0396042851514297  0.8510645121887778  0.5200906981016103
  0.2873443488337352  0.6331187476042772  0.4686447078788782
  0.9500468178700922  0.7457147593636462  0.4903878971797554
  0.8776372398852830  0.5392687754259246  0.4714364165912544
  0.7318614570079679  0.6733328115220988  0.4380491688175378
  0.4086867352160992  0.5299182478388909  0.4836368117509092
  0.5936871350444179  0.9534236526484754  0.5420286367522885
  0.3129176605402887  0.5612263218460826  0.5520314269398788
  0.5628774951149645  0.4487289995770650  0.5006360921747326
  0.1403815412310959  0.1876211909184159  0.4982229900892276
  0.2211478955323602  0.1864963806090337  0.5783660292011802
  0.0774988234870822  0.0908580883767168  0.4962985319595123
  0.2420942127203095  0.0796393521526203  0.4978760166988719
  0.1956072234019288  0.0888311996724397  0.5366981388911537
  0.3534376804841520  0.0301083265686283  0.5590382565673531
  0.3563834129016487  0.1291318711249543  0.5804888381490916
  0.2012020902221227  0.2440949455182566  0.5628035036842354
  0.0660852838413662  0.6198393627394283  0.5670787668995853
  0.3760322815482453  0.9725324977809406  0.5810233209505011
  0.3382744247727897  0.2725556204806839  0.4961961521336171
  0.1925551694423980  0.5024065469236751  0.4714580764143924
  0.6415122448418034  0.2312143219351872  0.4997486046760365
  0.2140103819888300  0.3707571711956939  0.4887499300674667
  0.7132435223856333  0.2166291206747305  0.5810455727162833
  0.2666507266864157  0.2426881955387559  0.4259149101199107
  0.7721872690758436  0.2115923794868567  0.6010969523791275
  0.9926499043825801  0.4748838559466263  0.5255100246989224
  0.8727708375605093  0.4772424679036809  0.4879290539204705
  0.9374329793305041  0.4469439793576995  0.5101656261092931
  0.7005988331478170  0.1103068749469683  0.5908481675329988
  0.6613946656862535  0.0574133300923430  0.5858452991970403
  0.6526875957561752  0.0467350775054344  0.5255294219186780
  0.6464271758744619 -0.0009306777578144  0.6093521282272423
  0.3442735820222514  0.0887687621570747  0.4731259851946235
  0.2388332519994129  0.1385815064542288  0.4809854315594638
  0.6202936484629765  0.4593560852901821  0.5170765411947054
  0.2482362022753579  0.2532414026229423  0.5198273753441504
  0.6887668262249997  0.5977789239803858  0.5604666712764846
  0.7480015545364264  0.5912522449322831  0.5839080689623343
  0.4452597747743227  0.4443192953521172  0.4619055588769417
  0.5935348959940547  0.9976712799266140  0.6469835141823564
  0.3746945632259377  0.3092677353991770  0.4459260635915402
  0.7432325975195256  0.1854490089020895  0.4889606872802085
  0.3616888303632259  0.5659819602405691  0.5129322462296012
  0.2088605450281482  0.7926146348172790  0.4514507972402724
  0.9815355539491600  0.0896682370017704  0.5793074354624004
  0.8076480483074034  0.1529509627744523  0.5322935634636431
  0.6134668891916092  0.9416173127150577  0.6686924051691145
  0.6379540185988860  0.1871562898430434  0.4551705152344133
  0.3866838646900960  0.9950309294547263  0.5189528053555471
  0.2676807795159558  0.1969760264756569  0.5380273863816452
  0.5982967640601858  0.8370448399463800  0.5912850775414690
  0.5390283508270954  0.9168643603836086  0.5344963341685403
  0.7460907381200695  0.8857114872163379  0.6696934258359595
  0.6420416435297662  0.8454341939726373  0.6463553855524260
  0.6318905038194236  0.7559813184312301  0.5099776141941090
  0.5232528594069318  0.7306859157314362  0.5174817430296128
  0.2618488300478964 -0.0174918689179032  0.5372510508804368
  0.8613851097333455  0.2618900216664857  0.5650197521729462
  0.3729533725410103  0.3651667000575694  0.4896270011671423
  0.4680704086413661  0.5632088091229310  0.4954815937535308
  0.5367443996070465  0.6683041020842602  0.5357632995284395
  0.4484706821808611  0.1786745820306467  0.5484159654937538
  0.3908363718045063  0.3444878609540378  0.5580202917371787
  0.9837464038604798  0.5524091742960013  0.4469959761030323
  0.1471219092027418  0.0855071496151990  0.5765362466473677
  0.6161364550273023  0.5955734957328742  0.4806138848061235
  0.4206668833629099  0.5637334797994628  0.5344957678443388
  0.0590398268502532  0.8475473091330248  0.5125870979377148
  0.5869359170584714  0.3855387172733144  0.5005306996748485
  0.0934180990538556  0.6750832374348164  0.4585610099438630
  0.9069929831652475  0.7361638071070062  0.5879851548106269
  0.8552261444749438  0.5858905163181367  0.5615566125222601
  0.8841688853887427  0.5994917802439469  0.4587746163419760
  0.9859270194432348  0.8792787919780384  0.6180215872357083
  0.8513910243062783  0.7079769006433140  0.5219911479672056
  0.3385596779517941  0.0275741686043838  0.4938444232044309
  0.9708428431925609  0.0772277956550208  0.5216757074699143
  0.4909926730205825 -0.0056969483538607  0.5525188247244680
  0.1396187184413361  0.2481661919104704  0.5428574797213870
  0.1306516159987332  0.2954525435088804  0.5885359702316254
  0.8414062023550752  0.6725399523719204  0.4732773300244841
  0.5173432551214329  0.6569642354195335  0.4261684173470567
  0.7960708252822299  0.2805269577585341  0.4817694210389458
  0.1795630093283673  0.3002378541467049  0.5493248993367444
  0.0846474149004228  0.1528747275713293  0.4890988866031852
  0.0918825295411043  0.2030825071918009  0.5374427074762994
  0.0398201231842895  0.0847082948571162  0.5967650217406073
  0.0742785183484159  0.1374138203779528  0.5954407509206343
  0.0342004585902960  0.1724734472230167  0.5227656288852875
  0.4362169455594563  0.9625146226870634  0.6031059877516889
  1.0076666828652618  0.9844260720810237  0.5739262630476670
  0.5893417969699579  0.2558347417207038  0.4744823266444594
  0.4176285924195348  0.8605693592924381  0.6212954213558708
  0.4845478112688116  0.9319237667918994  0.5688801540956799
  0.3843997313276840  0.7766201928633989  0.5162425864700053
  0.4823680357630572  0.8264386144806799  0.5406999861462983
  0.3760668704951113  0.8199139938881563  0.5599467979126447
  0.8636909127045108  0.6897283848305645  0.5822607988239393
  0.5544131527123782  0.9472642871464320  0.6451368100073216
  0.9524951589034034  0.7916307240380112  0.5362420872785040
  0.8369978358497144  0.6128083399779987  0.4972901068844148
  0.2993904491883035  0.1004172164862909  0.5134307137213319
  0.4212633602364633  0.6816592492390943  0.4958738445050564
  0.3283217649563829  0.9592504711029114  0.5062711904042229
  0.1765540055334880  0.0453019317348164  0.4931385962914506
  0.6060602810535758  0.7964659944778545  0.6402240378767553
  0.6466592223451090  0.3957018705714507  0.5216191727096506
  0.6955527044307953  0.3939311181224263  0.4793761070115158
  0.6418070809787662  0.3597159966285248  0.4667454021841898
  0.6576405679542751  0.8069053541495247  0.6021800541938165
  0.2157500194782930  0.8545559153324964  0.4488269446691119
  0.5563340352180646  0.7911942033077587  0.5972862212937042
  0.7447722541680170  0.3598297697214824  0.4994543276319162
  0.7433159064021246  0.2485699133191535  0.4711678224666827
  0.7912762071289235  0.1721775974408493  0.4544194919691125
  0.8903437045703946  0.6601175199664128  0.4399867263702050
  0.8386777959192311  0.1408808183615866  0.4808783092929378
  0.5537799737163618  0.4580600579146655  0.4415096944268387
  0.3204888143737335  0.8098290803852188  0.4304852082389881
  0.9781057969180142  0.4875176818433686  0.4660451991622980
  0.2826174705445738  0.9984516825410351  0.4824398856923632
  0.4262061488957628  0.8073348817140937  0.4729413056523216
  0.9353545221997617  0.5678926524834039  0.4837255854955847
  0.0217883260869452  0.0605247140839514  0.4894911623071492
  0.7493443077736484  0.9364086013874172  0.5481527931619519
  0.7542871513241270  0.9998694364824967  0.5276740977516287
  0.8130041163049482  0.9929437309803459  0.6149609177785986
  1.0271838539802114  0.8772023754463952  0.5584617022387368
  0.8999087813811856  0.8138264039903274  0.5115688610281468
  0.4812017451079085  0.3731185229830784  0.4649119909138191
  0.4568917838233763  0.9082469691125146  0.6230851795164903
  0.4844774279699720  0.8860023543545639  0.5249055170524914
  0.3200399679453927  0.7489863354902890  0.4430734058292605
  0.3634107268823818  0.6788278504511095  0.4746809273715751
  0.4662099333461285  0.6750515266411421  0.4562778061383536
  0.3079742692891523  0.7074348431589043  0.3963699893568595
  0.2224299056689745  0.7902436869451317  0.5087829552886000
  0.5415242657287165  0.9641145834198135  0.5775266993542715
  0.5420988439241990  0.9046200794422486  0.5960911477338444
  0.4074650906061908  0.6443410104386027  0.4486188706194761
  0.4563341194061126  0.6194123471356975  0.4767379749420193
  0.2362950534313402  0.4581039105706313  0.5419112649978977
  0.7263818241875530  0.4917646547506411  0.5445349919951680
  0.7449828853032161  0.4323603420736447  0.5569981662063203
  0.4544587935400381  0.5679748497633024  0.4344664497004309
  0.5098317188299190  0.5974305068381190  0.4430029377162429
  0.3250858152029347  0.7888397378824168  0.4914746815545055
  0.4229514163308577  0.7442988621312280  0.4821987630024809
  0.4138011606278509  0.7047233762018321  0.4356359179745932
  0.6405368607241075  0.2962142405807549  0.4806193587184400
  0.5349218574175563  0.2313907619614946  0.4591364175396059
  0.1110369982767732  0.8187323653270386  0.5345261340200865
  0.1900206271970898  0.6968123377366018  0.4505845488929384
  0.4353527252318339  0.3972012735488404  0.4295526287722631
  0.2485267439161467  0.6171494919237027  0.4108364159482479
  0.2447553362027353  0.5506210191781646  0.4211931813177399
  0.3982983743135821  0.4783373997799995  0.4384223932712191
  0.6889055001400231  0.1570123464211777  0.4768363346914183
  0.4917816694929776  0.2552933375191683  0.4958991405604593
  0.4797294793274964  0.6707446246526044  0.5141873570183212
  0.4893789539769554  0.8704715023368527  0.5865917740040946
  0.5096553624327710  0.7727569021700365  0.5577212208999255
  0.1612100034732508  0.8758465951797143  0.4797971089800628
  0.4354303959001877  0.8216818849706412  0.5794184106844363
  0.3330849104019357  0.1867286392804836  0.5616193966176182
  0.2297121055936867  0.6285974946949627  0.5110878066981097
  0.5287901117473662  0.7135459998700148  0.5780955036159318
  0.3027123191383209  0.6461382144508000  0.4108227722718473
  0.6853279646163315  0.8896541334700974  0.6501148062114630
  0.5926818834839451  0.3828865697596210  0.4321659111205838
  0.2420949595511284  0.0265302675438364  0.5810308413173100
  0.1657064268462979  0.8140778281637790  0.4924371675172416
  0.7702165264481696  0.9419119214013483  0.6091869974032892
  0.7124733159186803  0.9091147340800851  0.5979949583841921
  0.6132529479000521  0.7628834576300849  0.5873116972942418
  0.6469766473117478  0.9883724534663179  0.5489756024675376
  1.0010564527849664  0.7200482334363478  0.4648287361325451
  0.8672693453315066  0.0772326572234437  0.4861761533897537
  0.6082624253121995  0.4882303401675038  0.4537530862982418