Cr N  Ni
 1.0000000000000000
    21.1250720312375115    0.0000000000000000    0.0000000000000000
     0.0000000000000000   21.1250720312375115    0.0000000000000000
     0.0000000000000000    0.0000000000000000   21.1250720312375115
 Cr  N   Ni 
 259  69 605
Direct
  0.5821223523863422  0.2486576124409413  0.5132995477516203
  0.5796626476814097  0.0863057533377381  0.1638501053312613
  0.0730207442069520  0.4988432449807163  0.7462541343712202
  0.6647237142354512  0.0860067052305411  0.2526508109680266
  0.0775389226480307  0.6635492292182565  0.9157885465754370
  0.7577235672134407  0.9151975266539605  0.1641026178786609
  0.8475127071221286  0.4137325884052993  0.0783077631571627
  0.4971532790420896  0.0010972838528838  0.5048752563587396
  0.7510656640707393  0.0823975051342456  0.3418887918457392
  0.6703627528524042  0.2484443074146973  0.2485818144323304
  0.7557492695627175  0.0845233282569251  0.1653035262883891
  0.6720229352751832  0.2484554368432339  0.4258629537134729
  0.1628714801781586  0.4129508857083710  0.7475161146858116
  0.6659190878843717  0.1649548349868012  0.6677988378500738
  0.7568264513035210  0.2508561778097160  0.3364895934849969
  0.7504668487226662  0.2491659556206113  0.8275910547974292
  0.4987130213654389  0.1643058584971305  0.6677634287144761
  0.4042055036906899  0.9154481083964882  0.1642280123014671
  0.7514499896064628  0.0840494322861099 -0.0113873554608248
  0.1683525558538977  0.4144226013032771  0.9123011161609550
  0.4966396997198873  0.8368495996444264  0.8301708838606352
  0.6602940357713695  0.0855464565629532  0.0738907449861006
  0.1639295839750633  0.6676466884080278  0.0014700335697332
  0.1647001667019250  0.7543976654972652  0.0810368639292523
  0.4115035291604004  0.6712397513743522  0.4250704282548826
  0.5873676810974852  0.6669976548616057  0.4336014294960499
  0.4153905333668053  0.4963090221964596  0.9126966937392269
  0.4899222826734982  0.8372424782966488  0.3365851629126675
  0.4135116925970089  0.4978120916999027  0.2540221325118001
  0.2485656836006632  0.6679207593590095  0.5883422611452969
  0.5804460051825696  0.8343990182918375  0.2492086856834220
  0.3270120382942727  0.5853829242842435  0.4236478654796628
  0.5813688130092974  0.9085219432713835  0.1657907777538468
  0.6618859958139869  0.7472762318139996  0.7469683307172318
  0.6716138162826052  0.6791734533415003  0.1649713434580303
  0.5791306960540969  0.7657307677998997  0.1637640379166332
  0.4963848345106225  0.5841743979399254  0.2559836313973443
  0.0814841357237347  0.3223462018026956  0.4197899587991245
  0.2447593554681735  0.3194414395773068  0.4210593976976479
  0.1623691411391067  0.4993740247788681  0.6590783691924892
  0.8308203031808985  0.6659227170651799  0.5056817295588429
  0.3271273173516246  0.7598909355598825  0.2514133026755208
  0.6607589364101192  0.6689720551148473  0.8291900776001261
  0.2541984013065109  0.6700097725294571  0.9098753826333021
  0.7625960374168665  0.6691784492903410  0.2512024888210819
  0.2411861924566530  0.4987505158538402  0.4206020930926172
  0.1614400561336839  0.4122766032715148  0.4220135729311115
  0.6671266429782916  0.5812279873857119  0.5864549707558012
  0.6725525728989197  0.4070335736296395  0.2552547871161239
  0.5747076314942620  0.8358587617240851  0.7483160285156472
  0.7483289532421458  0.5812973547280281  0.6675729561404775
  0.6766682917986389  0.5801915739874439  0.2561782313380469
  0.0835072178664224  0.4958413233443677  0.4221062090384595
  0.8359967751991637  0.6658231464132383  0.8309306024006234
  0.3263428848429006  0.3289796207638624  0.1636326061361870
 -0.0033643038990502  0.2463108717678380  0.5903958703411872
  0.1656851382302355  0.0046589425222686  0.5017123241241890
  0.6656269162515513  0.7524989723498112  0.5844435840317851
  0.4151689280791512  0.7546842415215635  0.6661938215242165
  0.3227640940884817  0.3310331607486923 -0.0047837299955387
  0.2433951349433716  0.1621166303329919  0.0786796574002548
  0.6736026494898188  0.5822971818550912  0.0751794119748903
  0.8355334153318111  0.6668212047024344 -0.0054066927354833
  0.7617066087430974  0.5819831257705769  0.1633699128289357
  0.6647678533252347  0.8352890610250943 -0.0082346926418152
  0.4049628153998547  0.0905021480272306  0.1673059576638084
  0.4167013989495320  0.6728112608172415  0.0771121159047439
  0.7503909604467260  0.2494240747000872  0.5058809097179225
  0.4081280624995103  0.2342600059145182  0.1657362742097646
  0.6724559816482151  0.3252559631674350 -0.0067954919465402
  0.1663703299723939  0.0024227346593512  0.8326917541090443
  0.1657476004844232  0.1651366863970236  0.8341945567858088
  0.4145865988593451  0.0819370900220951  0.8307702475042438
  0.7496907820904001  0.9167953066191383 -0.0048516949621253
  0.5788563147033301  0.6742629718821512  0.0737943571998014
  0.3321266971210159  0.4978093660759352  0.5122580741197920
  0.4927809933431607  0.6739520493366663  0.3367518387158612
  0.1652084488980129  0.0822425075943385  0.5843568848834708
  0.3269017417572966  0.4145013737575740  0.9124662381710077
  0.6671844266522035  0.7618629061347225  0.0744526100251624
  0.5754336935609045  0.5881368951738182  0.1640585442805866
  0.0829022668176363  0.7541124319118298  0.0001117347221020
  0.4983941629454289  0.1783618672522783  0.1654170106831244
  0.3313196836845831  0.7613032721863524  0.4216818732694077
  0.5817936529395157  0.6779349420087407  0.2525146677247626
  0.2512455415007738  0.4974473747752302  0.7449708414704915
  0.4962186362561739  0.6699054245786946  0.5157574424944433
  0.3263145322172906  0.5840591370152526  0.9128797836055281
  0.3159096884186129  0.0028686061968131  0.1661519269462776
  0.0009465863504365  0.2491411337329864  0.0806894787074274
  0.2485617723604431  0.9202035627820336  0.1642591795807608
  0.4127308408453682  0.9190481233793036  0.3368065260304882
  0.4986757881372236  0.4125805834751613  0.4275439535043656
  0.4152522932379454  0.6747656680274516  0.2527045548939228
  0.4915881311621829  0.8275993424668382  0.1648282704076264
  0.2471572147646515  0.9208332545702697  0.3355251861613316
  0.3342525866300750  0.7544916615267212  0.5883055721788615
  0.6764019370786485  0.4989498661718796  0.1650295452214443
  0.4175914226114341  0.4989882747189489  0.7374330371243343
  0.3309951346273171  0.3307943864650609  0.8317101438942779
  0.3254499323364621  0.5857566490928521  0.0786731804045784
  0.4125747780746311  0.2358659607603064 -0.0063854511106025
  0.3279304987430064  0.4970517135521110 -0.0119292071881979
  0.4954730503585719  0.1647823348035468  0.3383878857793150
  0.4156500925975531  0.0028286977782249  0.7502298581758947
  0.5823898813044549  0.7520697028046126  0.3396511574965923
  0.3264655109666967  0.2370699406655147  0.2521020667061621
  0.1735067771204166  0.8360272089748785  0.6733268754537217
  0.2505921440764390  0.6677306390815722  0.7466542488860328
  0.3257601876394483  0.4103254749948063  0.0786557265536215
  0.4160644689599364  0.3284034462343899  0.5872590964167377
  0.7626090482368787  0.4141737112965490  0.1674983123159764
  0.3211015760065607  0.5831586104329837  0.2521418755057118
  0.5832633146576398  0.3316091902574615  0.5881456335292662
  0.2546362252103357  0.3298533948575785  0.7482464590157971
  0.1655249558116751  0.1622384388307069  0.5016117055308154
  0.5873332627413200  0.5759596062825852  0.3469771457696719
  0.2387896143878549  0.6687641477556769  0.0815338891707387
  0.3358161337397937  0.4109060720774573  0.4262497584303550
  0.9160447933210842  0.4160047102656247 -0.0056268838138194
  0.3303745976865028  0.7554661432435643  0.9103605953325229
  0.1657191385108837  0.2390036667292439  0.7501027984620283
  0.4144159056175005  0.1644143701308979  0.9105384199191794
  0.5847590520708965  0.5825776419628276  0.6642775201424966
  0.4150770320162069  0.3220367822730414  0.2567856748117826
  0.2450189132772225  0.3311211681420209  0.0758156619182640
  0.3281178457105595  0.7610851168092279  0.0789428248584349
  0.5834379418689843  0.4061562874468743  0.1659359816768222
  0.7497616551123911  0.3312474600689788  0.5871874884474033
  0.3229597354783204  0.4150972169254647  0.2528021767171856
  0.4162185462762607  0.5021730824314041  0.0764854694951580
  0.4923305749570370  0.0030159649037375  0.1643918868739900
  0.2465399577709642  0.1632498065759485  0.9131328857491369
  0.5776285903256129  0.9231901803443394  0.3362800628679943
  0.4132957460060332  0.3247204841213338  0.0795838718593606
  0.5815347548289764  0.0815303312233531  0.8305533763484437
  0.6657668633417055  0.9134684153844208  0.0687543595259953
  0.0831177185372836  0.8360698961234007  0.5881983402946787
  0.5008857901212399  0.5788244647824695  0.4336043680868670
  0.5785549478088268  0.2431300344873009  0.3382539294817501
  0.5032634614120085  0.5855135607887629  0.9097520070941212
  0.4961965823639317  0.1635864659219036  0.5051841927582512
  0.0814516221479231  0.7411776635448526  0.5035977789133200
  0.4947415467783904  0.8358810668434291 -0.0077511628988222
  0.4155289387178964  0.5877697332146045  0.8221221833091742
  0.4950891983838234  0.2440912508739694  0.4256409791718073
  0.4153906294056576  0.4113643103375835  0.1668839842579994
  0.5849760890580693  0.4957973365724588  0.0759721723515943
  0.4153414159864537  0.3287011784044590  0.9026052399656540
  0.2378163784940052  0.6687301069211325  0.4200814368763390
  0.4155511917368804  0.4152256054130624 -0.0118922280397307
  0.0092893179465918  0.0829925046252818  0.0797917421976403
  0.5858297653194091  0.5795941365890871  0.5063113348157975
  0.6716997308529561  0.8394265879809585  0.3386504329099180
 -0.0033031148145884  0.4147562284980970  0.2521191413669819
  0.5815270262752541  0.4185074739317964 -0.0087944079377024
  0.5834069319725650  0.2467982891639298  0.8268683599025155
  0.5818282560801011  0.2422523811437618 -0.0073456450289098
  0.5851561152754792  0.4945917643951115  0.2586874582039790
  0.1730563200811847  0.8381323151232164  0.4990433828295087
  0.5810899759772016  0.0935353397135882  0.3351415800708803
  0.6695785724890969  0.4184373012989609  0.0778588008897999
  0.6699626106765345  0.8244914622650976  0.1640196577366055
  0.5819458667721743  0.8380901516320286  0.4293025865810814
 -0.0068977120899937  0.5811350467346955  0.4233233056189927
 -0.0007430087116027  0.6738641778700450  0.3285088615190321
  0.9163849683823353  0.4987534343396042  0.7463115169953927
  0.1665996556735892  0.4997619027718552  0.5067084388936547
  0.7566302003596882  0.5058514332190224  0.0792952518253883
  0.8297533856145308  0.6656160472110716  0.6676705181558686
  0.9166135325605707 -0.0017019727873991  0.0799535194339542
 -0.0025842979671149  0.5827327816210434  0.9136073763075618
 -0.0022079916144174  0.6677295919438546  0.1745913782013603
  0.7502976785279352  0.8340376409025799  0.7519366833849735
  0.9121513796640178  0.8334456162576775  0.7578927089932548
  0.7481979640187347  0.9194840414228241  0.5037959873145921
  0.8230555728306461  0.6674593519416204  0.3398493729583497
 -0.0023373751215980  0.9262428805664193  0.4140658834009391
  0.9163676479644509  0.0849931114754730 -0.0089874593869981
  0.0815820922388987  0.5821310132792253  0.5089822828217757
 -0.0017597239470463  0.0012341338223265  0.8426796136124212
  0.0816900595129450  0.7489689461231331  0.8238250366499430
  0.1707598057463568  0.5825823354355097  0.4229281737391430
  0.9058884986216544  0.8352957789321945  0.5830902050077648
  0.0869614904451794  0.5840108951170599  0.3305518033355629
 -0.0040963460963943  0.5834350371623498  0.2434008401455620
  0.0827736381608730  0.7470523678874524  0.3311484697328549
  0.0892149113915909  0.6673444922575484  0.0820584865175518
  0.0016385447345221  0.7568903503779916  0.0813460057406683
  0.9143256621828584  0.0011146757009848  0.2481968664568602
  0.0838049501874676  0.9206013154315731  0.1659375705432040
  0.0866028100913815  0.0046922942728384  0.7509016774985400
  0.1515963456341663  0.3284800860456655  0.1680942205401971
  0.0835854049735547  0.9164280015268796 -0.0036747357795543
  0.1743692468166003  0.8383665291855769  0.3337104866253892
  0.3319514794842746  0.0828800970770152  0.5860115822597936
  0.1639476354580418  0.0835190101931100  0.0801201957960893
  0.9168293268456095  0.2485258884489832  0.3364587329626955
  0.6680927174164553  0.2469084101752897  0.0767627333453066
  0.9102393942025914  0.2478032540289107  0.5024469563659432
 -0.0025707927929914  0.1677607847227444  0.8334244971444636
 -0.0028001291313678  0.8347838003507111  0.6744247849103870
  0.7488879491569692  0.0819067353869915  0.5034052567617556
 -0.0124860760774854  0.4156896091753393  0.4205294642051765
  0.8419101570527023  0.0836573384881529  0.2507165822464232
  0.2517250015257931  0.8377340842249478  0.9135574776711839
 -0.0047164921090040  0.3293068777623068  0.8302932027909300
  0.9083662187761794  0.0021931245975514  0.5854490529216794
  0.0877380832625311  0.0027938803098800  0.5849144483869103
  0.9120472049844865  0.6690659710875327  0.2448113510499645
  0.9140375516063364  0.1661737954759195  0.4173102837008473
  0.0814306000395053  0.9268953320110638  0.3335801421778573
 -0.0026557314107079  0.2461199182413052  0.4146443559072153
  0.0809889215531728  0.1625112605755583  0.2510432026118083
 -0.0034973731329038  0.5831163366198332  0.7483610808630634
  0.0777182010712455  0.3278654937780071  0.9130451391263136
  0.6650443837789871  0.9175156972441798  0.9155500407359882
  0.1628551291481109  0.4999358713782995  0.1699282745017391
  0.9140191511829125  0.4990011817472920  0.5872721502882311
 -0.0032702017480228  0.9197023221612605  0.5846005187120906
  0.6707385422664095  0.4138166731164134  0.4258121965365744
  0.0814470958644030  0.3267833354244746  0.0805642469823663
 -0.0006452884386359  0.6664188880677059 -0.0041650371769036
  0.7494394946221529  0.0020972846902022  0.7508398861658028
  0.2478871474430008  0.4139330979504496  0.5110902317589376
  0.7580571378248017  0.4155927377719241 -0.0103143402150918
  0.9176051726651051  0.0842554444689897  0.1696558231187208
  0.8305415182429977  0.0019349900098289  0.6684089183209599
  0.0784568941110467  0.5040331290139859  0.9141681779715849
  0.0815674423511803  0.8353173070829398  0.7632718206128991
  0.8312183585144854  0.9164258948108969  0.9155223170443690
  0.2520746326814273  0.8371778593614917  0.7491749909291893
  0.8350034784439250  0.0858251483440359  0.0802456753052822
  0.2384502754998465  0.3284657130871034  0.2529782150423241
  0.6638889511065807  0.9247723674040755  0.7500500279411008
  0.1647915849990924  0.3288628844970884  0.6595681312358662
 -0.0032841570282480  0.4992688591834298  0.6661540949138969
 -0.0044293134747878  0.8369521765775699  0.3250043627401273
  0.6657914227270632  0.4995500967625566  0.8273768115430914
  0.0846652592126419  0.8414457930312222  0.9138134509658347
  0.9143957886867816  0.8268631641490470  0.0788014312484377
  0.8342622785677888  0.4146839829166136  0.9101969697031019
  0.9099704562806396  0.5796341733868791  0.3380424611678751
 -0.0019891251079464  0.0927503179849733  0.5865150027558663
  0.6770826706165047  0.6677104066370458  0.3442341973818929
 -0.0041004970384804  0.3300680207338629  0.6652131604997272
 -0.0042518889185836  0.8358933765002724  0.4996893885839380
  0.3303774856609100  0.0824947381463657  0.4197702960429121
  0.9208547459545997  0.2486283546677793  0.1684568638673936
  0.7472807666827642  0.6669859865861404  0.7421161569066947
 -0.0120852557630204  0.4154669318883870  0.0811625229195332
 -0.0043060474173647  0.0012375695033914  0.6699000938900218
  0.0799679396807796  0.8373056025097039  0.4132691800477187
  0.9025976817675762  0.8350637435332721  0.4200010816302701
  0.8308177728756841  0.0848738729504579  0.7507806983803826
  0.4982199815518525  0.3306057007518337  0.8269106414095686
  0.9077516560475403  0.0031009789119960  0.7520931350982670
  0.0849884395375455  0.8387451174327026  0.2371007168113607
 -0.0025395145745594  0.5799080256009173  0.0834231519074766
  0.5871966592510088  0.6651615032021779  0.3446634344162414
  0.5859072911739593  0.5859072281992098  0.2552880234436461
  0.6739909333846819  0.4053422155038730  0.1662137704494537
  0.9096634858978425  0.6706603524100108  0.3343614482643311
  0.6698347115055340  0.4158441298455592 -0.0129320835373418
  0.0858411886978353  0.8299892078085326  0.4991989177789776
  0.4182595838846870  0.3197459457576565  0.1677682315380701
  0.0730707061119707  0.4083771527994854  0.4200946974995934
  0.3236393332233426  0.6743422410682538  0.4252469711945884
  0.6671105183682108  0.0890996237127185  0.1636328242263851
  0.0746011918171265  0.4143568295798083  0.0847039689198976
  0.9975752021404793  0.0029418368050526  0.7569774949183656
  0.1654726821902706  0.3253033040473695  0.7475981431272174
  0.7483834544124869  0.6647683753118121  0.8306766247398811
  0.4117948518188343  0.5013596820514336  0.1655003924246257
  0.4085923148859901  0.5870463506526883  0.2504717079444663
  0.5825700230098245  0.2493192910026840  0.4263763630872998
  0.4125661542795175  0.4106172179154920  0.2601751253166329
  0.9979099014818326  0.0071248648328466  0.5803617722945853
  0.0861354269978298  0.8374753213095513  0.3240127459986874
  0.1625388232906991  0.5017676500456208  0.7463935307638833
  0.4112952295748706  0.3234663792274466 -0.0105789226103464
  0.7538530416586057  0.0820025456152128  0.2551897615709446
  0.6711094028671152  0.6749746916348330  0.0727789974821867
  0.3245147390813881  0.4991755022828616  0.0772978955979203
  0.5833083380524492  0.3290479075338654 -0.0060507407923922
  0.3328578988075442  0.4987159686492733  0.4226673007592352
  0.6731735972365278  0.5884690061413078  0.1648528537718708
  0.9233983103307015  0.0875341959159905  0.0797395162541419
  0.4987486577145858  0.6712833076604265  0.4291982856647125
  0.6755875349926695  0.6730444448412074  0.2559458589722808
  0.3238475612957094  0.6729907500300372  0.2513824270478467
  0.9983751518035420  0.2493140476603756  0.5027836618234310
  0.0795255185124895  0.7538062178647298  0.9114215983953307
  0.6630003677188361  0.8360823768685316  0.7497647628699049
  0.6713529356003467  0.9112504717637625  0.1594634809827169
  0.5841092020834009  0.4952883313014813  0.1652616077941171
  0.0858860962203051  0.8309236824468035  0.6781827745157344
  0.4177315399589344  0.4131314822301686  0.0765966391956605
  0.9986982121255104  0.6680923320757061  0.0855399406362805
  0.4919453056999064  0.9129642485538734  0.1611730276396007
  0.7609130935653954  0.4146236696725876  0.0782765234220248
  0.4147517318531824  0.5883605479039644  0.9112251136623377
  0.2486391822484033  0.4069510808526466  0.4208863278581140
  0.2375875553074566  0.3283897496454941  0.1634093213382128
  0.4155421406748131  0.4985920178518645  0.8233178172521665
  0.4015441920499308  0.0028763380746627  0.1631596826967293
  0.5803296134759078  0.0093362845876216  0.3384787159859448
  0.4970807802074810  0.5801486884577355  0.3455884528715868
  0.5775022917276322  0.6787908118643813  0.1629190808228922
  0.4914243064632138  0.0930192505401417  0.1621470831988508
  0.0827868743944416  0.5851010104928833  0.4207629701159713
  0.1677505821744411  0.6649704147193819  0.9131662413579874
  0.1742773824566498  0.8343583273295885  0.5859722300675627
  0.5840013930014746  0.4042931417860787  0.2586765315640825
  0.5809497927708446  0.5844495542436475  0.0719988099506653
  0.7482889749953973  0.0858418932083977  0.0750026149391374
  0.3285096014915067  0.6745537663757454  0.0783016158241552
  0.6780588907490528  0.4930194485174104  0.2614565660551449
  0.6689524912504710  0.2498049490949346  0.3360720117260634
  0.0804879587062585  0.4159534101595185  0.9122412685603527
  0.9183280945344633  0.9119647655939969  0.0803949703901810
 -0.0933590632840817  0.8306807773747410  0.6720913486288340
  0.5809620262552685 -0.0014470413341140  0.1612916471604982
  0.9887184324253757  0.8358227250046761  0.4116102420841211
  0.5810851245845733  0.8377020357772366  0.3402264560500198
  0.9986643147025325  0.5822340040841145  0.3319171297804939
  0.3255326493972401  0.3244571835736300  0.2587836769240140
  0.9928275705748063  0.8293661313881704  0.5868952256515685
  0.4116443288227574  0.0841958611345272  0.3379368310696539
  0.3296228010630334  0.0023912466457786  0.3355836324731009
  0.8334753419735553  0.0004366655652721  0.3355023753733195
  0.1656094529320246  0.0839845840129581  0.4186966750746309
  0.8318859430734392  0.0830766088872113  0.4193462818276589
  0.9156289172647737  0.0833632921759761  0.3343816863618996
  0.8308861205512892  0.0018689202152515  0.5013401904512801
 -0.0013858104980555  0.0824542922288825  0.2495312909433321
  0.9141242960736358  0.0838723466714139  0.5010566003776310
  0.2468299086080397  0.0025971298548547  0.2523973214051381
  0.8306142487867277  0.0011682519629219  0.8342176941875700
  0.0006371647089052  0.0010223085458404  0.1649470519809269
  0.9146077091843433  0.0852435577100290  0.8344522097876811
  0.1658201950756928  0.0012725595282145  0.1647583807161833
  0.2455177573249522  0.0827491404866371 -0.0039242070885355
  0.3237294837111918  0.1632478873734863  0.1642528142330034
  0.8338680160960334  0.1667074832693316  0.3363635211572921
 -0.0018945390597950  0.1640943453406626  0.3328510345489243
 -0.0070765864198338  0.4150527742565659  0.9116990895156035
 -0.0031550711055691  0.9142127309135065  0.7548172969986195
  0.9171508171204639  0.1735844317253002  0.0812247535218381
  0.0832448707903123  0.0036626208772731  0.4175504358066051
  0.9157913254127213  0.9166105103783815 -0.0079713120177746
  0.9177312726819549  0.1669322478367219  0.2511594532630844
  0.6658867527143842  0.9200718254953386  0.5841187427385435
  0.8373433399843964  0.2489843209839140  0.2521128748753331
  0.6661615341656745  0.9199614823074364  0.4220166339580428
  0.8314704719916545  0.1653602587315546  0.5021657784910715
  0.6640762593044126  0.8363304831144684  0.8378939758238243
  0.8323866674030117  0.2482494905114179  0.4201653848233599
  0.7475325587027315  0.9199031404212631  0.6678449727547520
  0.5781225527021620  0.7541350494864218 -0.0077394684919142
  0.5796583658598013  0.9174138185391828 -0.0069452825099482
  0.5831532823663772  0.7534382702314826  0.5060880245382450
  0.8287981947212916  0.8358610747217211  0.5035586516624407
  0.9179239794209257  0.3278440051465623  0.0815592192126218
  0.8320891610703576  0.7559193244571107  0.2506355070395991
  0.0826803429945614  0.0016593621175933  0.2482902306778998
  0.9180705872048586  0.3312760416510355  0.2518857797135917
  0.9177002583004424  0.4135535304344382  0.1682215437048503
  0.8347539941301478  0.3316147542910208  0.3367036136826871
  0.8341384597726990  0.4145883180280504  0.4216823771561985
  0.9136366918650539  0.3296774172525445  0.4188751990371945
  0.0824960381505587  0.9224154136237220  0.4998903353030167
  0.0816040883502126  0.1663744891961717  0.0811452356750876
  0.9121853487245256  0.1658164563086989  0.5852915015637385
  0.9144866210861997  0.0015274902845741  0.9157703240322147
  0.8360014160537859  0.2496148714771773  0.0805124045246122
  0.9136395929755462  0.0020298458859158  0.4168557769343531
  0.8323029812597117  0.2490452643564366  0.9115612505138533
  0.9158005635935240  0.1681673343723541  0.9140317088814998
  0.9153873778443189  0.2484596657741439  0.8305126431042903
  0.9173982483409365  0.2492075000259803 -0.0036110520855277
  0.0787775251507144  0.4158123963600013 -0.0015264981102374
  0.6648613261931755  0.8363074674106672  0.6613915251740432
  0.7514109530384405  0.7508386194167461 -0.0063222698522550
  0.6632991228682876  0.7521170225769267  0.9128229550216532
  0.1646081768581703  0.0827281543417018  0.9142442280523514
  0.7504877791497497 -0.0037109800125984  0.0776807952766063
  0.5809676568988144  0.0017419026117545  0.2500439337742446
  0.4140944027608415  0.6691300876260782  0.5883286534622441
  0.2484080975841887  0.0833201043644793  0.8321732182586278
  0.2484215593784287  0.0028432054059238  0.7508944496754723
  0.9136103609113401  0.1669245584457202  0.7507986078428038
  0.1671106095829030  0.9240571900684560  0.5854050777467595
  0.1646649208752690 -0.0003033274872190 -0.0025944777936467
  0.8337561314316485  0.1682972737504400 -0.0050391228237563
  0.0838541520078572  0.9206034321643766  0.8336222586048752
 -0.0012899322070912  0.9164709822528782  0.9145187542652026
  0.8217434854612612  0.8361131457117162  0.6682544016265464
  0.8369977375404531  0.1684661271483767  0.1668378205183318
  0.8313598649387706  0.8387566296254296  0.3348834996178071
  0.9126952640469748  0.6648523620366685  0.5842637477873606
  0.1660287100130526  0.0029288059541787  0.6687790449137684
 -0.0032470328125468  0.0901089386908652  0.7524600459840207
  0.6662868499060853  0.9167275591473089  0.2519305982706189
  0.1656725289916356  0.0855943055041957  0.7516112588149807
  0.2490783722546435  0.1647268148796457  0.7498893354956544
  0.7528337084759605  0.8331280783708060  0.0765951607456820
  0.3315117264395018  0.2457066937433784  0.4233043329994946
  0.1643864236391235  0.2475179176328239  0.9136140907718269
  0.7561895127016578  0.3300556371885029  0.2516619194223074
  0.2487182765275261  0.2465678068070302  0.8319727546647467
 -0.0036822564877762  0.6644248324032461  0.6680010555195092
  0.8346984899884755  0.6694068267797303  0.1639541362807778
  0.6682923498385651  0.4961020443431500  0.5059729346178176
  0.2488218602045194  0.1632277097892124  0.5849126587826960
  0.7495162567051091  0.4981320286163600  0.5867935869394250
  0.7539629710897395  0.5795652156648468  0.3406117045100012
  0.5841698989908048  0.4998210904289687  0.7471056900947833
  0.6645094380544593  0.5837033287091812  0.7463374248303061
  0.5848497306829165  0.4949447673213292  0.4269881856656651
  0.8331881133535888  0.4150815010998371  0.7479965488112080
 -0.0000592403711381  0.0853064157340818  0.9146753699507931
  0.7497929323376629  0.4148962503534910  0.6680574195446193
  0.5823200499758968  0.1642856510151023  0.5863084187943156
  0.1632588640738865  0.3300044816469149 -0.0038707600353889
  0.1671098370391900  0.9217696371038179  0.2484814838674269
  0.1634912479126365  0.4153414151863917  0.0818179641085605
  0.5826331586576075  0.1644522971077650  0.7484397622176977
  0.7531444934715468  0.4140229674593387  0.3390422584133713
  0.3307619034810275  0.9204192042875146  0.4183535983475621
  0.1602449939069675  0.2444766628939321  0.2513694020682616
  0.5828965437179258  0.1686553184612143  0.2500846757501771
  0.6663600808499742  0.4980343232377192  0.6673526172898929
  0.4957772439034385  0.2437512177852343  0.2561122037594923
  0.7511114871517013  0.4141157918882393  0.5059715918036926
  0.2491158811274537  0.8382041690225470  0.4191493921950165
  0.6664377736938222  0.4147839369572016  0.7490549418160086
  0.0794898976483643  0.2460642142640957  0.1664878804079315
  0.0791359277095519  0.4164505154630412  0.1717183637880920
  0.9160055191166571  0.4147937292971535  0.3358098248622206
  0.7488715951075312  0.4985462811619232  0.7482199077282411
  0.2440562744493698  0.2446634549323813  0.3359421577005904
  0.7496022497570931  0.8375294278225204  0.4213425306773860
  0.7476384051371776  0.7507863228007591  0.6661854793080877
  0.8298409099925781  0.9192673167747240  0.7524591973953573
  0.2477828225568521  0.0011171850947163  0.9140051308017885
  0.2494478041241332  0.0030463270608750  0.5844854071505120
  0.7531666314891696  0.5834933785247787 -0.0064435063635060
  0.7496314959177869  0.8335271589319707  0.9141805025605292
  0.3315498165855995  0.9196795172208651  0.9127668565834376
  0.1630955791521053  0.0828346416597862  0.2506203383378645
  0.1663475528676464  0.2448814494890084  0.5848832378287906
  0.8387731493117505  0.3291149653389267  0.1668648021170304
  0.0823533400955998  0.0849814604086397  0.8337065365996593
  0.8338232994593512  0.0004233841686962  0.1639881056421841
  0.7514436232509282  0.8369100087704150  0.2513235667438399
  0.8327089581342867  0.0850855348517766  0.9134286971036285
  0.6643924161609881  0.6678248471221028  0.6649444492958763
  0.7497388124834304  0.5773303980803475  0.8285435881347279
  0.7498913523581058  0.6660150468729988  0.4262146543868605
  0.3330772803002440  0.9206522611494253  0.7500682939897115
  0.7524036988516236  0.4994607525877108  0.9106034467867059
  0.4172269883953118  0.8369524938641656  0.7488515956491473
  0.6644694528157792  0.6679896271109939 -0.0125004117797144
  0.7515863655980144  0.7556431827018942  0.3390879505044563
  0.8368758724626750  0.4123103305105563  0.2521741761534633
  0.5798392314541725  0.6697207895289820  0.9105353339174744
  0.9130477666680443  0.6666996681515064  0.4235438242752376
  0.1633403460560731  0.5828053535156289  0.2498689459107807
  0.2428181205217066  0.2401885609424596  0.1656740712175588
  0.1639933151638434  0.6681138803378180  0.1655962936274915
  0.5817624628480178  0.0015585292579789  0.7499626923721456
  0.2483320806211281  0.7543728438044773 -0.0031576153247974
  0.1630238256395649  0.2463222628489541  0.0799748771427887
  0.1617256507206274  0.3271460846507901  0.3359174660396555
  0.6681279018484746  0.6671785615228552  0.5070409954928766
  0.1664654280578785  0.1646703318418389  0.6668123470946737
 -0.0012507997234715  0.8362219692066477  0.1652581499502242
  0.0762331834626219  0.3290551685673359  0.7472598583141647
  0.1631836743552120  0.4982818877417813  0.3354123673562938
  0.0855991579854604  0.2452943261582497  0.5042241423943883
 -0.0006861010117776  0.2476584755647554  0.2518885826404595
  0.1608774110621073  0.4146949089464995  0.2512776389483028
 -0.0030499224204841  0.3308297281861090  0.3360134243665303
 -0.0046059306310690  0.4989021321262905  0.1675845695555545
  0.0798799293845661  0.4990766236082148  0.2507188692020011
 -0.0033313779010573  0.4994734510433604  0.8296425988558824