Cr  N Ni 
 1.0000000000000000
    21.1251018866863802    0.0000000000000000    0.0000000000000000
     0.0000000000000000   21.1251018866863802    0.0000000000000000
     0.0000000000000000    0.0000000000000000   21.1251018866863802
 Cr  N   Ni 
 259  69 605
Direct
  0.2479346835719576  0.9294954105713142  0.3353249866440147
  0.3315457301963480  0.0869673360743984  0.7485656924615378
  0.7371580604920719  0.8351350084604611  0.0778901354701658
  0.1521349734937063  0.7499097164336158  0.7523084105431894
  0.3341447684101230  0.0865783768675873  0.0815384204060184
  0.7527923844102131  0.5773744642448245  0.6682356923284112
  0.2523807426044502  0.2412479670743898  0.1638266636964578
  0.9107794334361708  0.4971839350638029  0.9179317527050652
  0.7473924800843690  0.0920562366751320  0.5007275724814108
  0.3326147780529862  0.5006855729733287  0.9876605526635769
  0.1689703515895587  0.0799884299700488  0.2479753267194899
  0.9133281910061816  0.3311412497027846  0.7515002152547211
  0.7491097158074396  0.8338187659916788  0.4202058624413158
  0.2511498553458273  0.2454008107018898  0.9972102833323782
  0.9957164750049081  0.0877116452723479  0.7495050770255174
  0.1615741308247117  0.2485666663901418  0.2579835561959342
  0.3355237721942345  0.4114979871978748  0.0800088216945093
  0.9099487751058806  0.4961130389927214  0.5827719604005565
  0.4265626833011946  0.9213869219309010  0.4983524629896199
  0.4173119968935847  0.5718745105097597  0.6749691284141899
  0.4174475103159613  0.1705218597296221  0.4183639947279204
  0.2414530491588696  0.4142638651464072  0.9945580119359415
  0.7495926664989012  0.8339896773849607  0.5802369113371835
  0.6814084406036606  0.5791734806593635  0.2495586737275478
  0.4178774761227764  0.2496573536932213  0.3381632405865645
  0.9923042497736621  0.9264188236980234  0.0814251500775266
  0.9943675558754348  0.4221342225566161  0.2502775847096004
  0.3328234035943595  0.9280703718588212  0.9142557887296843
  0.0674879649959003  0.8383729379580822  0.9139053117925391
  0.1638519861667709  0.2481978274997596  0.4202321723636230
  0.9944022175487452  0.0872950849762933  0.5875943348655913
  0.2486516583025115  0.2447833072941149  0.8323981183133176
  0.4168718941153550  0.2487505905346962  0.8322131016686295
  0.1627932829945125  0.1541726855982427  0.1628888828732400
  0.2402417182843082  0.5729242199478972  0.3381022526749582
  0.0814892418698938  0.0861971499996576  0.3366542309192373
  0.4212432664696609  0.4960740922756942  0.0788470704908775
  0.9089933442866146  0.7487168132147121  0.1604755561019018
  0.9936139131622024  0.9204557668724809  0.7496012067290488
  0.1631303290347852  0.0119732583965588  0.5055779092330133
  0.5963801622762442  0.5793280486952949  0.3399503878159686
  0.4159648220912885  0.5775323501397643  0.1684604072406173
  0.9035514864193608  0.6596996213767867  0.2501372063388900
  0.4178488796904471  0.5837799165389046  0.9872078074474627
  0.0754862023707647  0.9206252253646812  0.5041635382877746
  0.2415303785241744  0.7491069235663311  0.8409270742239405
  0.0738133234121390  0.6721672139335950  0.7519623539527118
  0.9899977883477251  0.6643921777162698  0.4948563262858668
  0.4238273724875605  0.7488695665977955  0.8444362384560521
  0.6567056888244667  0.0022426551460047  0.3344458778671574
  0.4182747231572965  0.4947083048738852  0.7540069763169265
  0.3324459220941424  0.4974284750099148  0.1663797905410675
  0.8386436619664971  0.6651702257476808  0.8333877221445372
  0.8281947978818537  0.5782716131672918  0.4203539619742059
  0.9920319977791202  0.8264204184780739  0.5022398624688691
  0.8305936795608508  0.7464870944691052  0.0803824553196692
  0.4229990659809958  0.4154142099816667  0.6720214642527177
  0.1612109646086258  0.2468179377659289  0.0800576395987956
  0.6670534254162356  0.0024505920391621  0.9951906060260108
  0.5044263540963434  0.9194040697772652  0.7530712295912266
  0.1612669364797520  0.1585072338159375  0.9966771202813505
  0.8274561996173693  0.9237905777465152  0.0804893247114997
  0.2591863224573486  0.0814440301958740  0.3364148285954235
  0.7504603775161984  0.6630225000548672  0.2499367914459983
  0.5836208981425293  0.3318569536367337  0.7513883731707107
  0.5934531387688852  0.9170858074147503  0.1642431711434998
  0.9117388298443441  0.3303264897216107  0.5846312223847399
  0.8295337472632658  0.2505834452424984  0.0803691617281615
  0.3324117237495764  0.0837738427336767  0.9145780851135712
  0.2395586502546989  0.7520320603018688  0.6639975171486094
  0.2470434690571812  0.0157495388054772  0.9139811334379324
  0.7492374926471637  0.3306675754502477  0.0811093074198866
  0.2436207868941613  0.8377787191874636  0.9116665611799472
  0.1662599340994972  0.5793100647927775  0.7526155822227053
  0.2407313036849150  0.7513165070108815  0.9946345060855091
  0.6666506911078143  0.3316672718313814  0.6686170248802830
  0.2451314149619238  0.8391050291917906  0.5949572494571452
  0.0836850242102129  0.8365813818695168  0.0806509744598811
  0.0759932542901821  0.4144611522873590  0.8416663218978160
  0.2476153520850535  0.4171615626948448  0.1655899370161200
  0.8301295480332027  0.1675064860588238  0.9972428812757994
  0.3292956326617665  0.6608475678863894  0.9908172719169883
  0.5029438714715595  0.9137317293452693  0.2530578379484847
  0.8292917380995878  0.0867075888779444  0.9153450113138597
  0.3302291866984155  0.8399695123355403  0.0007076839368135
  0.9938185393246902  0.0866471617757055  0.4266731413315779
  0.7492318400500890  0.0038372909716481  0.7513211508266876
  0.1612462548361690  0.8424811130379531  0.3352330386426133
  0.3306879133084992  0.7493862518000474  0.0840246680152069
  0.9950782344741343  0.2510308567131583  0.4210281359578340
  0.5909354387416553  0.5763268489177655  0.5024486225655355
  0.3283430414256599  0.6670029382679089  0.6661821161707270
  0.0743909463058911  0.6657805013026576  0.9151096398100748
  0.9103973678224718  0.0875323387629660  0.3332865129510131
  0.0792388836889969  0.1679256110211215  0.7503903664886233
  0.8285005346196457  0.4130983058178055  0.4183634291204709
  0.7486347502334247  0.1680926149722134  0.7507945531032826
  0.3334951075932862  0.2484987539176786  0.5831770426762382
  0.9088959245434827  0.0839907381644592  0.1630560793842021
  0.2496499590228434  0.4088081981145246  0.6657594238868555
  0.3360058218907502  0.8328815166270341  0.5029290228267267
  0.1628554024389317  0.3327768378050289  0.1618625946298346
  0.8288349862515096  0.4970691925915111  0.1642145519143879
  0.1685957878029030  0.4981262587686490  0.6650868690813226
  0.3298176256149684  0.8434318863232816  0.6722710937583699
  0.3358233901569290  0.0903855277020389  0.2502859559315142
  0.5047395664923857  0.8226854249697528  0.1613224474200850
  0.3321798562313728  0.3272605241596673  0.5032446435369953
  0.2388196126007353  0.5826033397829773  0.1665597600598145
  0.1602744444701672  0.9210112964478895  0.4147206363263613
  0.1640204059154863  0.2480867707922887  0.5843208214607796
  0.1569268392069101  0.9263236182837465  0.9138039348267151
  0.1602586311218520  0.9947312602022671  0.3359843799371897
  0.0708102714645363  0.4205658426562219  0.1652284724282659
  0.3397599145623594  0.3232014657928444  0.1642290135973360
  0.1586680862439524  0.6638403763265508  0.3355834695353496
  0.9932342712107223  0.1644437674893811  0.9971388342377857
  0.1614636705913219  0.4950769208611589  0.3388443184918706
  0.0763950850696495  0.0848880480803780  0.1590492227616019
  0.3336548264657193  0.6659038643983771  0.4924745580390899
  0.2494025297892706  0.0866954451079936  0.5037360506953023
  0.4157169266233087  0.5771641440047833  0.4951761668712876
  0.2502504042314992  0.9227234072306733  0.5050720802335368
  0.3365298940775927  0.0024276846901776  0.3366906120940867
  0.2447630410342084  0.8426010200382100  0.7504866322657255
  0.1658268164944572  0.4119070870741206  0.7568530447756869
  0.9860941880768740  0.4124697488202463  0.7518416730862532
  0.2357506454981936  0.5812463602237631  0.6670797199277805
  0.3331975883883413  0.6637849720666912  0.3395849454759891
  0.9912700179092390  0.9176879321322576  0.4141800126901285
  0.3262088139164001  0.5760630219953639  0.5801994077122633
  0.4203702689461836  0.6632135949123324  0.9130096432780977
  0.0815996751746000  0.3314831295263960  0.2563735645924202
  0.3354897891705518  0.0114428016841980  0.5048646278913262
  0.6643164037343052  0.0028560435600029  0.6754687013883390
  0.5016541893184852  0.4917509780705809  0.1688670884091585
  0.7371980086513036  0.0900901629163954  0.3340198382419167
  0.6683350187062482  0.4126745846378418  0.5867623027314847
  0.1625751155311951  0.1731835354610050  0.3394705915424370
  0.5837374479999169  0.1716426901178902  0.2478431700824331
  0.8331935993380958  0.0042807974957906  0.5015722699556981
  0.5826485635070073  0.1716009688375356  0.4189061568274846
  0.6670306929515480  0.1693426203292852  0.9974169852620587
  0.0770578975706954  0.2451947146470891  0.8335608569540143
  0.5865558059000122  0.4112815162750991  0.3369760060871649
  0.7496301837835038  0.8352271415358229  0.7571292526131044
  0.8280941483897524  0.2497495485643449  0.4195615483886694
  0.7498683808042133  0.3320858968131887  0.2493884356201535
  0.9935517116774766  0.2448724209431263  0.2485921299524086
  0.5012356641683036  0.0860265440405677  0.7519881565708217
  0.4197648178545637  0.0101278037918155  0.5865757478697008
  0.5021142779279494  0.0902455845141831  0.0849179749254867
  0.6604182233984605  0.8347338719185294  0.6698476910859509
  0.8298117547269842  0.1699156836265115  0.6693030916469400
  0.5026615295386386  0.0055291916452705  0.3416807577222353
  0.5950614205425676  0.5813665376631920  0.1603429013398933
  0.5002522356724876  0.4039866681045888  0.0812159907593793
  0.5013331425631359  0.0013390183190489  0.1660105561974172
  0.6590642669975412  0.0037091471542404  0.5011131339443096
  0.5009324580270926  0.1765289615447143  0.9970340104736310
  0.5846897148201584  0.2496527840581521  0.1657187451923702
  0.5866331191358671  0.4955690131173859  0.7515092213963049
  0.5084554804675788  0.5820967857042981  0.0744591725616447
  0.5967809459234487  0.4963111512405686  0.0822440025527561
  0.0774091064837762  0.1723580437894637  0.2519354868824223
  0.5936550141427659  0.6632346197671659  0.5799376914937618
  0.9049668192988053  0.3324113331963246  0.2505492059013888
  0.0752679459160271  0.9949265453837894  0.2487284411033773
  0.5052370141595850  0.6674504377909376  0.4940853135481281
  0.5928770160715676  0.6646430887318425  0.2514383223762480
  0.5936406513330627  0.0013414375211884  0.2461884171793694
  0.6808269844034615  0.7482221531277992  0.2516390707219540
  0.5884160549104961  0.7495346629476517  0.3407867609457103
  0.5029478561952350  0.7560247483642283  0.2503869198481654
  0.2462356470441685  0.9983541586326931  0.2442672249765917
  0.6682425929257921  0.6651243048941793  0.9954816644758799
  0.9926251153332384  0.9955073079449447  0.3327107952244104
  0.5050024221551476  0.9122969493861559  0.0753741616080674
  0.5867056350704952  0.4102293127745076  0.5035314718040454
  0.4196894642513711  0.6772834827174067  0.0778932230088508
  0.9932305978315265  0.9178317625945972  0.5905657678161679
  0.5027466426097309  0.6609210678097100  0.6703234622727440
  0.9942633866840378  0.0869719190945978  0.9154808060483999
  0.1636279528705065  0.9218939789340621  0.5935641761113714
  0.5057144681755835  0.5775709611868681  0.4336750290678463
  0.5018341318417497  0.9996894383075849  0.9898898611451020
  0.4195802578426753  0.0014968990274405  0.2481853115801801
  0.3326432688470267  0.4852697395144607  0.3398715517017125
  0.8293620131082677  0.0888354707097476  0.4252999972480471
  0.9962129415357537  0.9209347087383274  0.9136932057109691
  0.5047351589760424  0.6752248987518770  0.1598909677842936
  0.8317878899342556  0.9989327086870367  0.3327707163912970
  0.8294237336523036  0.1769610817490702  0.3342634810419925
  0.0719803440168237  0.2451603412854862  0.1641009860992843
  0.5021341192105014  0.0881840534375900  0.9083816930599526
  0.7488582463330647  0.2500857922167136  0.8326031493604965
  0.8178728129328774  0.7488829515318580  0.2499418227469649
  0.9888032241920726  0.7473584173358301  0.0819836654995947
  0.8358488091373959  0.8346221432749723  0.6703256645531503
  0.3285683070656046  0.5903381914606619  0.0746814793486483
  0.4996709994873504  0.2497028233718118  0.5862121489719995
  0.8295503859323491  0.9197790111275241  0.9133515256408468
  0.0785457958947456  0.6593189616742983  0.0805904366493839
  0.3317407494588672  0.7514630426643523  0.9051425840232373
  0.0695766700733198  0.7526904431403008  0.3342233850105008
  0.4176842481535520  0.4970024329660708  0.9136848708343636
  0.4207328102803665  0.8335801466769727  0.5852268859345817
  0.9899405326844009  0.7548946945825387  0.5846245065012404
  0.5877480402574522  0.6632096264798567  0.7570772964337954
  0.3298210941773266  0.8436792037707544  0.8234822588779604
  0.0751938060053524  0.6651619323014182  0.4268509013875175
  0.5893402912364336  0.7504240803306756  0.1607150583185101
  0.3307788375213294  0.9204827728295960  0.5929547360151564
  0.4175011578272696  0.6678216781369938  0.5815667127215293
  0.1591154678436907  0.7494444140693923  0.2433781204328870
  0.9087743185390321  0.7509984152789514  0.5014192704870207
  0.3358307889463026  0.7576279502939367  0.5830579091634523
  0.9840678571813514  0.6602078832734480  0.3395425643891679
  0.2459787682970523  0.4950412045161109  0.5797268462583500
  0.5872746519226493  0.7560746053960694  0.6687507215266941
  0.9940604913448243  0.7515800807963841  0.2495147345784184
  0.0748520754287179  0.4082719099629519  0.6642014309069141
  0.4255268985845462  0.7542476059822553  0.3359007271041003
  0.1574533308675448  0.8325069313186972  0.5036049612943427
  0.4220435590722790  0.7552366698265373  0.6682416849113051
  0.1646737737505366  0.0843678023246010  0.4271351310932797
  0.4217021436452498  0.7465442594186158  0.9929753143286972
  0.4180440953353188  0.5767275693922888  0.3416259918559486
  0.3315142156263570  0.7543658789908606  0.7654075978643062
  0.9110881178230986  0.6645017359508184  0.9161567769060343
  0.1603385616570958  0.5081984687336525  0.1638774854834697
  0.5117475935714112  0.6662430575214392  0.3409291585512931
  0.0807712739972947  0.6625260451368630  0.2473560117653723
  0.9091302999528571  0.8363526058971453  0.0817961224088993
  0.5060326406362312  0.5751783139924604  0.5784207257794132
  0.3261442376710000  0.4933722083151752  0.6707923245308969
  0.0778530561838720  0.4977696578913570  0.7500840958026748
  0.5836688779888438  0.2513478436135374  0.8320376358051566
  0.6684055494101538  0.4136295288411440  0.9150028788130571
  0.4258567373264020  0.4131156637964685  0.1654891780719365
  0.9905659566257798  0.6666402776939375  0.8345933958764133
  0.7498958751211545  0.2495963483414954  0.6696129972822001
  0.9942903149465038  0.4146889430651188  0.4197688011316649
  0.2444950802257497  0.4132531676741663  0.8340729149545356
  0.5035040084170481  0.9193483782710755  0.4174597289712114
  0.3386722992419781  0.8406236353994881  0.3330594170901892
  0.9910214682818229  0.8354998783535404  0.1709919457142323
  0.2486324871857991  0.7511469092885832  0.3347051402213038
  0.0772075907989798  0.4964878879109284  0.5740334457094286
  0.1619090697662453  0.9260296728228916  0.2445033958921210
  0.9124850486604470  0.3314127304474926  0.9165389202342277
  0.1595645604501317  0.7492753088210365  0.9150541539590509
  0.9895265810923632  0.5803318971830289  0.7521071261481735
  0.7479162420153912  0.0876418042605751  0.1630526807693777
  0.5025263408281864  0.5771658158171826  0.2544233630288786
  0.8295864877774971  0.5796892503937446  0.0803635298017899
  0.8309917801464614  0.0038290252142641  0.6709852265201669
  0.5027561594663570  0.4833557628079855  0.3376053865877628
  0.0828593114209426  0.6664828567903738  0.5818274384514122
  0.1633375464890708  0.4066069338650266  0.6660066219368146
  0.4188038972991471  0.5886342966977735  0.0763617627770868
  0.1613187237289742  0.2409555519454782  0.1689642352766781
  0.8221089354829774  0.8350132663433382  0.0792787157417282
  0.3385349420677313  0.9231700170416381  0.5009464121671134
  0.5063482360465625  0.6675885840141392  0.5806377271281413
  0.3240117037970950  0.5797401683372119  0.6736911684168363
  0.9915229214401752  0.6596003806860868  0.2484025075761752
  0.1621449416887222  0.9231665107069139  0.5046429897585810
  0.0704846104372032  0.6595439712828700  0.3387205188076312
  0.9919638473639333  0.3337634255860583  0.2528475645600726
  0.9967417974806494  0.8383605921701873  0.0820789426552517
  0.0775578269163087  0.0830223221665629  0.2463579909793054
  0.3311736902659080  0.7492908183306434  0.9957566581816119
  0.5010672592623547  0.6678145291023251  0.2492878636868559
  0.2507183694400615  0.8426711711328720  0.3304985809921412
  0.2448589335284740  0.9293805008041401  0.9160112061944984
  0.4227347712981341  0.9224844952095471  0.5894539507032146
  0.9954243067969605  0.0832883278549580  0.3394713133249453
  0.3368744563319152  0.8402424848236046  0.9112992535394554
  0.0745427327521138  0.4070215242172612  0.7549970669729026
  0.3236192350868920  0.6681139383728627  0.5768543067983879
  0.0769855774616870  0.4978609804679304  0.6599435610090340
  0.5031439981650302  0.9099087199429624  0.1645226910389772
  0.9045555160846579  0.7513703176878763  0.2513960383146455
  0.2510207221237081  0.2485021111854388  0.2550557805839658
  0.5082042954729694  0.5719292649958235  0.3455370655998157
  0.3297533463278520  0.5714281898842942  0.3384978261118430
  0.3295591470170943  0.5004339217171299  0.0762989634509394
  0.7482846058476423  0.8324835113704709  0.6684686457632077
  0.5923230900452124  0.6659356315314939  0.6702310302433523
  0.3300322315177561  0.7566829172094370  0.6730664042717897
  0.5002384914774671  0.0011707040083218  0.0775442373251163
  0.3379006903935092  0.7531983758363568  0.3292235139305657
  0.5061153791693002  0.5835231013776997  0.1639059215404969
  0.1719493491200472  0.0837808355783414  0.3384788607762244
  0.4222120427645845  0.6655813675201800  0.3344853846572971
  0.9956644518504558  0.6662196147104650  0.5825355215421164
  0.9884061401078129  0.9166948935521598  0.5029000018468415
  0.2397945277200753  0.7525422095592276  0.7533944620596645
  0.5002962148510920  0.0895845659416707  0.9954315581658847
  0.5108849446098108  0.4906207652752131  0.0759233445600955
  0.6608593984503557  0.0038887881222822  0.5894154311723854
  0.7468317352054017  0.0034479408955725  0.5032045282262789
  0.5937772655298130  0.7547246864460695  0.2513298447197770
  0.4213113570717310  0.7512136578957790  0.7588781199918894
  0.0794221793589510  0.7469114126971945  0.0808586926499037
  0.4168821297766082  0.5732583768506292  0.5825361355273775
  0.2452179609249084  0.6606892569833668  0.3320374682016042
  0.7523544247666512  0.6637354316671401  0.8342641329373783
  0.2519271568832763  0.3292424309926923  0.1671968338060153
  0.1595955106232586  0.4223126292341695  0.1661434421654191
  0.5077886524455082  0.0061467524136728  0.2554897169295549
  0.1541849850339916  0.8375804889745884  0.9153674925777521
  0.4164114917639025  0.6636019038752998  0.6757153467471811
  0.1625108052712051  0.2466031904533584  0.9936746253640795
  0.0718507135818444  0.3329821820098230  0.1638912356867335
  0.1605471069468377  0.8386883358859818  0.2435407440594071
  0.8235460298786080  0.0890533030529859  0.3346219546965047
  0.3389272492432702  0.4105758653596068  0.1724975042989957
  0.3329580205048237  0.0016370437778246  0.2467210481443580
  0.3382244692633858  0.4059365428516086  0.6681758181178182
  0.1576257448823188  0.7531810277971379  0.3353887802465862
  0.3261507317383885  0.5875629211278207  0.1674317833667958
  0.3292654503038361  0.4099115960288239  0.9922328901972306
  0.0780322012124271  0.5859321421618786  0.7519163778647866
  0.5953908511875659  0.5740945127090192  0.2505046214822209
  0.7428226266049054  0.9990773319239750  0.3290575397079805
  0.2468611273164530  0.8307062046147444  0.5067642908627619
  0.5839588851480564  0.3312259439387887  0.5869140300046158
  0.6672044843721836  0.3321093982213246  0.9976919213578515
  0.9115598653928112  0.3317887652447306  0.4194919729834716
  0.7483334941802214  0.3320847324899387  0.9152189380362444
  0.9133106298170910  0.9205252190896278  0.8324722460356542
  0.9114696844154645  0.9211587165047407  0.9960062725019816
  0.7479181040966321  0.1681470186848001  0.9152481291824790
  0.7501947335577875  0.5781487057296658  0.3370274952092734
  0.9100910753573086  0.4177067463609652  0.1649742435777507
  0.6702822257830904  0.5820065709730622  0.0786851309036323
  0.7493946946888776  0.4145870399568439  0.8333709092760903
  0.5847155764685922  0.3311317159198865  0.9141558507595240
  0.8295866365170791  0.4142153578928134  0.0815220746905390
  0.6682002291758878  0.4112940205806697  0.0816636906610394
  0.6660827798516157  0.3307801216279094  0.5037165030450360
  0.7489150539319275  0.4139586397050927  0.9984512372705753
  0.5814539002803647  0.0869746798523064  0.6705166177422481
  0.8302280283097813  0.2503213573551579  0.5859884090145590
  0.6661968649534173  0.3308285119553155  0.3340496570368865
  0.6673095854193528  0.4138751237544103  0.7501734897348852
  0.9097717541879639  0.2488108883717465  0.1634243501997572
  0.7519420339411220  0.0031579184550119  0.5926655859638563
  0.8328072736881493  0.4126431715001264  0.7506922864588152
  0.3319567081465999  0.7548031673873167  0.2416518473944867
  0.7472592744200732  0.0039414068064705  0.0789575289628177
  0.8310699185620639  0.2507750438993975  0.7519617188927717
  0.5891414659341624  0.0027760638430494  0.0798527102846864
  0.9122357165041810  0.1667528384469228  0.9157963484005592
  0.5851250468289256  0.8353985189830700  0.9147142218628348
  0.8298153375834452  0.3319950862480249  0.9977713824003429
  0.4164204305903756  0.3295325964367671  0.7515597249666093
  0.9117201935809883  0.2489567145234566  0.9976767674628489
  0.7483286246851786  0.3309360489900737  0.5856487024945407
  0.9126057595081115  0.1670727203866580  0.7506915762445787
  0.7489331825048949  0.3315765979351612  0.7509669524461596
  0.7480260295044902  0.8364486232129099  0.2501817483781087
  0.4170055034799977  0.7542338124432343  0.1631092948379531
  0.5865195065645809  0.9187615763731019  0.9952259883311113
  0.5906320110411337  0.8335704960310216  0.0779519466791117
  0.5819174935848521  0.0893675800648266  0.5012582334408072
  0.8290371882574631  0.0857533969590182  0.2446945319232423
  0.6626125935147085  0.0891330991780443  0.4191054786338616
  0.8271422448759135  0.9199626071900694  0.2481514923776640
  0.6665120958609491  0.2505971548633905  0.7512378451579075
  0.6668455858739575  0.8348335288704407  0.8336681669376912
  0.7485574489339212  0.0859815428256486  0.8328958971870254
  0.5040099915804963  0.8363983797014974  0.8344094694803947
  0.6640770114611042  0.0890850558138754  0.2475616000838913
  0.5042950660721351  0.8355520503936863  0.6700676598071060
  0.5860261736556465  0.8342788871482970  0.5837994920583458
  0.5860398874535477  0.9170102432953764  0.3356563871337471
  0.5860219257540754  0.8348733248416984  0.4184684868837562
  0.5087115547588928  0.9170511245735843  0.5851971151677243
  0.5039551322018444  0.8353681279898605  0.3361732846617734
  0.7485044859455245  0.1687004714295295  0.0798893372445523
  0.6676130770878418  0.2501639166132818  0.0816691240120961
  0.9124895191632904  0.2494739055444316  0.8344166576383001
  0.7486086042554828  0.0033288104130419  0.9144587152757895
  0.8310534210991606  0.0030844476310524  0.8330822226092147
  0.5006347023124799  0.0032181118215693  0.8331265630856801
  0.9126587860214569  0.0861301930916830  0.6684059541566280
  0.8321020541160162  0.8359404005304506  0.8337580170358301
  0.6666440947318805  0.3323109244395660  0.8320603869334052
  0.6673514356172489  0.3310849856504112  0.1658929255508866
  0.7498862142425677  0.4123259908034824  0.1652855667034419
  0.6703356185011269  0.4931366800239579  0.1663190188947220
  0.7489651188411635  0.2510904304476174  0.1645377909913891
  0.6674341802160224  0.0045459220340811  0.1619917728675701
  0.6674006401309616  0.9196903875008257  0.9138796686165294
  0.5846235999566189  0.9200839017701319  0.8335253456817635
  0.5870053756184330  0.7497745955402629  0.8339838850537150
  0.4213413218965290  0.9188489236929567  0.3353454956069847
  0.6660695632069675  0.0868824196342320  0.7506888403878649
  0.6658579082958195  0.1698971733567640  0.6699165825260419
  0.7483028666666195  0.9224314716784627  0.6711712164926178
  0.5005278985125872  0.0886600302929483  0.5853714868596944
  0.8280762504349348  0.0857410861481014  0.0801353976603020
  0.9939809718401911  0.3322328312477846  0.9978213584554840
  0.8292853197665815  0.1678798894409411  0.1640681116529139
  0.6706309426107331  0.5781875642492657  0.4207573666629469
  0.9118973477901389  0.5807372309539518  0.9987820387335614
  0.9940683858780046  0.5810343179205004  0.0796665308794870
  0.8282710706166706  0.4946664632699612  0.3360144602948699
  0.8279605966944940  0.0029423061011629  0.1635355938258879
  0.9113960312015262  0.4986211507131129  0.0814535042852163
  0.9938833150037604  0.4981881471694311  0.9972824160232784
  0.7499539297461534  0.5801811821670321  0.9975317433444162
  0.7476058354072763  0.9128922658574606  0.3354797612753080
  0.6669328373847982  0.0865534419722302  0.9148173766846180
  0.8311019253585710  0.3314203448680331  0.6683777738019755
  0.7495377117232720  0.5794897049087784  0.1622442175183692
  0.5836722214779198  0.0041408009018015  0.4186773639453775
  0.8295054013945897  0.9187791595527791  0.5874330532375135
  0.5838066863591586  0.0894757806567210  0.3346391217532491
  0.6652665950137477  0.9176734263147490  0.4197400116690849
  0.8275607786839119  0.6631296300905487  0.1630954898535922
  0.9071433877939215  0.5769700519313977  0.3365190391775937
  0.9911728579067794  0.9186445912023630  0.2489036011601908
  0.9080904890729646  0.6646240275273848  0.5842200121218726
  0.6687804647912922  0.9181893078864158  0.2498350521945914
  0.9123264938447042  0.7497915977601262  0.9978144732250203
  0.8321150529323241  0.4958735813841553  0.8337903030456465
  0.8311019966911887  0.5792102240261472  0.5846927755824746
  0.8270415603377979  0.8330337208657629  0.3351918149196697
  0.9097413160910812  0.4948612236518907  0.4187690771229187
  0.6687527397989472  0.7476984809560263  0.0778569199445668
  0.8324054530659399  0.5798875002589312  0.9163819397672733
  0.8311971961008097  0.3324338637962014  0.8342127116566475
  0.6673951295415775  0.0034095141736671  0.8318697473626430
  0.6680991070089509  0.8347584840438701  0.9936797296689874
  0.6649616974039286  0.9152907449262397  0.5853239374786496
  0.7494111738862298  0.8357509458956184  0.9133592844967992
  0.6660374030337720  0.9188003894942040  0.7526088059620668
  0.9125064223232000  0.4125710664676686  0.6658949126173186
  0.7486945742788301  0.2502593293922291  0.9972903771357829
  0.8294315808203655  0.9180153327949674  0.4178717234789360
  0.7481116614505805  0.1693215509410867  0.5864603663108365
  0.9936576061181983  0.0021012633566439  0.9964295932309523
  0.6658287283727385  0.2501834650774741  0.5873334229387531
  0.9122518303896500  0.0029689969473488  0.9144769980179815
  0.7472163675464643  0.2513438592103013  0.3337288520688967
  0.9108597646641566  0.1657668640270731  0.0799909622676323
  0.7495782213432937  0.4932250103002065  0.2507634934838770
  0.8302438585576045  0.2495066905536861  0.9157535906075711
  0.7483115935171353  0.3309981842589927  0.4189842327693275
  0.6663283080966379  0.2512447414289830  0.2492164904934059
  0.6641184901992763  0.2504976580452075  0.4181049913279903
  0.8301926626498017  0.1704895503566551  0.5030092027963995
  0.6662851294014280  0.0873447502354177  0.0804508340866208
  0.5824448128723960  0.2506394238057509  0.5036864958857411
  0.8305598155476315  0.1678736435776596  0.8331292374431343
  0.9104542658548156  0.3319752051562843  0.0790394226936627
  0.4172456982713328  0.2494616722853922  0.5027165862519306
  0.8309993845691870  0.3326441898081044  0.1644276499126990
  0.8308521318066676  0.9197558156461325  0.7517212853960255
  0.8297009384646115  0.0872171383550141  0.5865972700037795
  0.8303880716363521  0.3315116351537837  0.5019836976115458
  0.9119827833302957  0.0868739907403168  0.5042065960052917
  0.1614723907308456  0.5792061959150057  0.2519941481471277
  0.9113500546958765  0.4129563859097669  0.5012192585644689
  0.0721260354116729  0.8376444110532528  0.2498478166152286
  0.8303810635486307  0.0862833386165794  0.7506324417222227
  0.9918119222791782  0.8357194741987857  0.3334975122998216
  0.9097993517531000  0.4140165906760264  0.3362488968393004
  0.0799688731148114  0.5863913316078365  0.6605603231252448
  0.9086570710291109  0.4966408705862179  0.2506470194305904
  0.9919509252043839  0.5779249269036523  0.4195222353658427
  0.9126044132912837  0.1680162244680547  0.5852779496817840
  0.5836913502196782  0.9194314060564268  0.6710234514076160
  0.2471423160768884  0.0856174918688703  0.8293381442768565
  0.7494583554884308  0.4962940241432450  0.9157119076240240
  0.9095597997893917  0.0007869183993669  0.2482449516636737
  0.9948803484207059  0.0035032547392370  0.8319177875620790
  0.7492016522984607  0.6648990323534445  0.0778928138963765
  0.8306611514153691  0.4966625985669464  0.9987288968499881
  0.9926559803385516  0.7495127311536851  0.9157053465159515
  0.7480056940790387  0.9197930788632208  0.9951785103316099
  0.8331098920785198  0.7502913846344824  0.9150306643051200
  0.6660316107799723  0.6642691842089141  0.8346534713858684