Cr N  Ni
 1.0000000000000000
    21.3436841910675668    0.0000000000000000    0.0000000000000000
     0.0000000000000000   21.3436841910675668    0.0000000000000000
     0.0000000000000000    0.0000000000000000   21.3436841910675668
 Cr  N   Ni 
 259  69 605
Direct
 -0.0134895591416617  0.9140312727983692  0.0790151108783664
  0.5785575094219784  0.1644976967827222  0.2426888860823813
  0.5796175178504793  0.3252445950433245  0.4038453131725689
  0.1547272837116700  0.2430055118510063  0.9142919630854967
  0.2424808417799744  0.3298201032323458  0.9153928910319463
  0.6717463068832362  0.0719748256064318  0.5809264946779772
  0.6685491342757047  0.2460335756427277  0.5740235566566391
  0.7542085998427446  0.4095707891091615  0.8276864672693067
  0.5795942551532554 -0.0128586666116718  0.4109779934306583
  0.2378936164681228  0.3274579530792429  0.5810579348551453
  0.7492931984445684  0.0731793687230331  0.6652396884101131
  0.8283421561160844  0.1571142792861670  0.4937431237587701
  0.8258280770466973  0.2420929537888098  0.0830944657296651
  0.1688717575397789  0.4124604403034200  0.4105077075817478
  0.6723415150841370  0.0768117713494495  0.2433357767391167
  0.2529696711574788  0.5807901918489268  0.4985860745169604
  0.1681346299537291  0.7458724419626737  0.9133442266955361
  0.5808134980790604  0.6671887831076306  0.4024389006079861
  0.4941256871781985  0.6649062784884553  0.1630626838217523
  0.7432755747025924  0.4065857224563608 -0.0020260925869331
  0.0758319222185969  0.4809812868899886  0.9138356099967494
  0.5789134076390775  0.7568908586516451  0.4938269689065222
  0.4093884244334933  0.8320056058560886  0.5813455967056196
  0.5793259102304338  0.3237703958171603  0.2426223623489560
  0.4164608196256123  0.8293371272724284  0.9121446100671052
  0.4951244576213243  0.9056216140891008  0.0733647576552393
  0.8172896564649075  0.6643193263253051  0.4970727585211251
  0.2519289143441731  0.5789441003108481 -0.0024596288873650
 -0.0087889607351141  0.1464452778114289  0.3266059453508388
  0.2443058240049066  0.6576948955282165  0.7445011985394500
  0.5793940372385826  0.0756084401666402  0.8318159813550822
  0.5796578919664512  0.0719706561600758  0.4971386700148630
  0.4944075085635202  0.8380643986549445  0.1585060722946221
  0.6632839507922257  0.9101795372363388  0.0739699378256671
  0.6702832240101306  0.5786051621930163  0.5826430358136986
  0.0749884614683509 -0.0030674385806975  0.9200616545334553
  0.6646701137375416  0.3332109782995330  0.6634174510882966
  0.7458067380679835  0.0759917443587864  0.8313196497394931
  0.5812796685932777  0.4115239565612507  0.8269925572082408
  0.2428672964328747  0.2464788904870905  0.4926982509055812
  0.6632210679204300  0.8312203016784556  0.3280220971027132
  0.0767417550561704  0.2345189392189541  0.3223660823153857
  0.1689699949204872  0.5808518095558046  0.4094672665574168
  0.2430232107580925  0.3292853810344534  0.2433720943248334
  0.4960652401108785  0.2410551484480255  0.7387434540191773
  0.6672945947268976  0.5798644861057395  0.9036083218803158
  0.8280748246578464  0.2427993035271993  0.9072128076792918
  0.6644483939099424  0.9121301864321227  0.4116672403267304
  0.7358897074041832  0.2427125888540257 -0.0034658708751834
  0.8171111787131388  0.5822502728421107  0.4162565349526219
  0.0746992116858865  0.0889797182218942  0.8287305970475930
  0.9007629810627625  0.6642277026992484  0.9132103493031359
  0.7457610045838458  0.4930068928760228  0.5848103540014126
  0.1696122925781571  0.3292574349484555  0.3277567945911315
  0.5755221862503886  0.5827140741979593 -0.0117840490972179
  0.4100977536501458  0.5810273244501754  0.3194659237165470
  0.4956843816566708  0.4122778890621001  0.7364167209340129
  0.9101364227549317  0.8411690950677091  0.4097560909308380
  0.1623403250038395  0.7474924440886594  0.0892190349647200
  0.4938106965522081  0.9008827439178136  0.2453771297678516
  0.7442139327776024  0.7487556286133118 -0.0052164114767608
  0.5808925438646596  0.8398570832167475  0.5835233539079434
  0.5798469147338053  0.6665932136055623  0.5794052490081787
  0.6639819647108021  0.9118704887767768  0.7513716209303485
  0.5784155955090929  0.7479670044518989  0.6727957525576262
  0.4936021392398149  0.4864558046033349  0.1651679589938585
  0.4953049907853229  0.7510766240711165  0.2498253226716668
  0.8254450640232842  0.6656659061946466  0.1595944567008374
  0.2457447321357831  0.6648762476671922  0.2430064434303772
  0.5816539153104400  0.5823716502430039  0.1632347956554163
  0.2428742133800561  0.2408857803628107  0.1531047918228911
  0.6617749320590969  0.6654321045467863  0.1603129589221106
  0.4943242426384470  0.0805463261574017  0.0762394571718680
  0.2447456676285959  0.1548290159913051  0.9133695471718417
  0.0734878074322314  0.3327840348423758  0.7464604734237658
  0.3268705082920277  0.2420128973455976  0.0806610344139890
  0.2403591987121432  0.8323771872057177  0.9116029513716244
  0.0758107429168939  0.5783868627825005  0.1514518831498832
  0.3201219481392867  0.4941011746482599  0.4986516258069724
  0.6614274189663758  0.4999702280187062  0.8281012512856252
  0.6696745994639227  0.4930613495762474  0.3238354480988338
  0.4960615372258555  0.0770531657943228  0.2449131364426089
  0.6621991339904975  0.7480650560584735  0.7468412546805190
  0.4062250538187616 -0.0099272632307651  0.2438410368072070
  0.3293206299941315  0.8316019465252464  0.8226016015660518
  0.3286278512930045  0.7407914013762921  0.9119221925933890
  0.3191861019254929  0.6680076767884652  0.4977549283706659
  0.1594971167677819  0.7485544424483154  0.5805463022087485
  0.4093607454724321 -0.0179785120213686  0.5815149558293806
  0.3262997240446862  0.0770555821626248  0.0778800953493602
  0.4104101606849672  0.7594042345940517  0.4960016517735246
  0.4099397878893106  0.0669422384024147  0.4922182686602889
  0.3269981056747956  0.4978579427845568  0.6652091447567242
  0.2421030976703105  0.0685575059202438  0.4946397035026173
  0.0735147834482025  0.0653662341329475  0.4963593816070753
  0.5812262631812376  0.1639492696041203  0.4090029233411336
  0.4947571434826631  0.9120655272350057  0.7495831480040187
  0.5779499170892004  0.3249497262315920  0.0783764045187649
  0.4107616170976292  0.6695855885813159  0.4065501256091816
  0.6618486262184943  0.3219876647897247  0.8288530672535915
  0.4099399151830148  0.4917636554834491  0.4048726208222216
  0.4091620435247710  0.0719958599454911  0.6694493586436662
  0.2480469298182766  0.8327929315362534  0.4117775264479411
  0.6623716463965222  0.6644320284411709  0.8285535278258677
  0.3218372622343560  0.4099973999924278  0.0803550042084265
  0.3313465942810039  0.2411369132013543  0.9118285105401664
  0.6623815765991046  0.0768700571802459  0.0754411362646331
  0.4120169099098643  0.1643481569966164  0.2430673498036642
  0.4997980062867237  0.4121289786204939  0.9143000009072382
  0.5823229305698688  0.4919807211192972  0.5856843781260719
  0.4040241693365454  0.5805192949308283  0.1662716559608663
  0.1596379908079647  0.4936156883706446  0.6639246588771109
  0.0776455125935017  0.8350924072157236  0.9155945374763638
  0.4941125270446751  0.5827369479734024  0.2538642934802856
  0.4043368057716066  0.7483907176733932  0.1607168351331292
  0.0760640599064539  0.3210816728814534  0.2335752831409083
  0.4072611747680134  0.5837422550352225  0.4963403551518330
  0.1638248862516781  0.8359434182311245 -0.0040633306867480
  0.6640223976110193  0.4960562933226449  0.6647622093947897
  0.1643007630903207 -0.0026257846999723  0.8284130113943775
  0.4111814502931656  0.2400297973432177  0.6714094328518631
  0.7514594703943969  0.5776815754039274 -0.0030616772121872
  0.4109173637777552  0.6625094874857630  0.7461632759033109
  0.4119568787773548  0.3314563678622302  0.5829355240058111
  0.4944727825462647  0.0768741525423857  0.9132598020537210
  0.3320847658744566  0.7480100043850195  0.7472672281244191
  0.4106772541968550  0.4102988266167131 -0.0018460870093627
  0.7334424763597879  0.5822712773325047  0.3250392720500825
  0.4894109306119295  0.5827989649728708  0.0756262117689553
  0.2435562373045390  0.2422255350413719  0.3299072053355527
  0.3242429515509797  0.5782398313422646  0.9120763696771468
  0.4024013386358490  0.2406065214196695  0.8262175697570190
  0.5807449125112696  0.2356992390436982  0.4945967181832211
  0.3280261671091937  0.8307340238461366  0.1607595582776375
  0.0733710826060871  0.8317677571677158  0.4093389921304710
  0.2416967933256464  0.1576555051091584  0.5837225777421354
  0.4949077039505135 -0.0057107946095695 -0.0149716642068946
  0.5792850751809480  0.4933122256908435  0.4087696953138460
  0.4939675208343530  0.2377421539737052  0.9141989179645487
  0.1628803181126926  0.7430700749434042  0.4107401671011594
  0.0760339115717209  0.9153238317410656  0.8288008132714029
  0.4082241268633652  0.4135583600366994  0.8239077979040061
 -0.0133952197509305 -0.0045649069101495  0.8302831383035727
  0.6646962244861025  0.5804504952713769  0.0808942571646735
  0.4133060576459259  0.2406390885142073  0.4936844726260544
  0.5797167587463858  0.4086033596073838  0.4939317544097435
  0.3222554041322376  0.3256660011241251  0.4930287245080549
  0.5786490452436052  0.2412555295757083  0.6634977548564340
  0.5783585345233504  0.7474001078951207 -0.0078448227923849
  0.1600965099159176 -0.0054180850739075  0.6625916288824671
  0.6638928472829750  0.4103702796081072  0.7397139411522233
  0.4955964190538212  0.3266586304335647  0.8273360166920057
  0.5812650979846594  0.1610615843790610  0.5802642114640897
  0.1580575050080158  0.9182597799532961  0.4091943147287014
  0.4121099954385619  0.4096881027457084  0.1699230107116929
  0.5803098884152098 -0.0164846469608958  0.5807681941454015
  0.5841833945682879 -0.0112879588722086  0.2424043790622503
  0.2426110137925347 -0.0024537862926959  0.9122099259507102
  0.2427693174652606  0.8314552390421218  0.5794008629944001
  0.5809756319038447  0.5813797418699880  0.4936381197374257
  0.5790747626756686  0.0715236648675659  0.6729440991098041
  0.0745812983101318  0.9133785909494223  0.3238950388853848
  0.0752452010112964  0.2429764777785643  0.8379024550768495
  0.8260704889137945 -0.0056100267535273  0.6648340197920997
  0.0767915888347919  0.5902329773432716  0.3255064875405781
  0.2430642712284020  0.4937551446613603  0.9120176509281599
  0.0762345430428282  0.5793222350324118  0.5038670945484012
  0.1701083331368830  0.5744523875072880  0.9110874247699690
 -0.0073309323860117  0.6643608386508384  0.6604382965932029
  0.8266659138332016  0.8312221052221178  0.1590545398302159
  0.0800165201653493  0.5781878227538876  0.8220767586755017
  0.0759496201969145  0.6740026560459482  0.2411643061002955
  0.0727078034475024  0.7473391299407842  0.0022776943962151
  0.1702577649429868  0.4965770634381885  0.3309543447782052
 -0.0091390641899846  0.7471806748119041  0.0788748212090763
 -0.0085504067329834  0.4969612537890336  0.3237670717228796
  0.7453820275246303  0.9113198512756699  0.8301563143280696
  0.8296382397799940  0.3253728697627463  0.6650857620147842
  0.9092451714321437  0.7556451000326987  0.4988846389753017
  0.0772794399196099  0.4081206947013852  0.8288546435864934
  0.9073427739918597  0.0769427260156816  0.1595969067999397
 -0.0090174415967252  0.4088304570938933  0.5819018857928583
  0.2422540376531447  0.1534818817652830  0.2436257052698685
  0.8262393184072077  0.9121531083020682  0.0771017356732450
  0.0721058987539113  0.1552998755533015  0.5843207251395499
 -0.0071128738811101  0.1563899934520611  0.1602690422166728
  0.9096271937513599  0.8304782800052939  0.7445754732816101
  0.9044717942994708  0.1580827450793413  0.5781546767283490
  0.9078847715344476  0.9126284612408689  0.3254686182990045
  0.9093970578004966 -0.0036437217617217  0.9131536075551360
 -0.0084691729243243  0.5725309509333171  0.9137537072872375
  0.0759131979376696  0.5774471234617514  0.0033945513473784
  0.3216747578448835  0.4103906986680741  0.9126031632924365
  0.0736272334666485  0.4967821258477368  0.2336561634898236
  0.5778987497499455  0.5830121741185684  0.6703347521981200
  0.4954642551984347  0.5808774352822115  0.9122399255216083
  0.7452146632693597  0.3244167888019789  0.2416306568220548
 -0.0076409132185464  0.6653674126087882  0.8207071640160403
 -0.0077988084034865  0.2419178157026318  0.2344817044079096
  0.9084967796967246  0.4845860249073601  0.9152442994939318
  0.9074248345668455  0.5788679442399989  0.5011115237869900
  0.0741302253759124  0.2434932474847527  0.4978533439848157
  0.0731234542636713  0.1475493619347518  0.4068564518678862
  0.8171144865147917  0.4946779934075610  0.4981533155998364
  0.0774305979400668  0.4990070055552523  0.4134224023805779
  0.0737124911520842  0.1555835939278800  0.7450169969187860
 -0.0093365477223675 -0.0048647870422243  0.6626438945139785
  0.0750183214195907  0.4111812700672047  0.5073322163378774
  0.0759488114083622  0.3250668077936556  0.4136649445775175
  0.0776110442165918  0.6781475600728833  0.4114801928191985
  0.4117419810933546  0.1562157206000903  0.5806202381931280
  0.1622096116406230  0.5787512801403724  0.5876339659765731
 -0.0073435046712257  0.1600734361802258 -0.0031810678356320
  0.9086475456267656  0.6635678417835236  0.5903119707990486
  0.8243445817900543  0.1575513794362867  0.3259148101466658
 -0.0127285778850925  0.7512759170813057  0.9122687506365442
  0.9052859994481747  0.4913893098690593  0.4125421696360090
  0.7567359455551360  0.1591845593736560  0.5787523404173024
  0.2434760869350387  0.1558678119998926  0.4057645510877865
  0.9088815184024300  0.8312274451505393  0.5812227276858775
 -0.0061041907673198  0.3260401612535229 -0.0021176889490248
  0.8264695866937966  0.3314286507050104 -0.0031929639138258
  0.7537260221360965  0.2424014227271618  0.6646286618996277
  0.0800758776367781  0.4122207035429000  0.3291104139786977
  0.8153527510857995  0.4924127928834028  0.3236954627644836
 -0.0162800105930535  0.8287724099268059  0.8286582548825803
  0.2436909635341764  0.8332462193586463  0.7464319067774331
  0.2434090614147691  0.1577092654336089  0.7452945248100821
 -0.0115893780641503  0.4091909562032132  0.2344740745081307
  0.0753138344542164  0.8309228647161320  0.7378889024466038
  0.2426541014190923 -0.0065919317571863  0.2428829768173901
  0.0763744256129295  0.6579686536315770  0.9112507491925566
  0.7418874122620863  0.4926487130939426  0.2382638615191752
  0.8136637682481050  0.5774397131667313  0.9114654105457016
  0.6702513199676569  0.3254571707614030  0.4955118225691982
  0.9081280147439679  0.4076569767227904  0.1591506593960827
  0.8272744765847735 -0.0089315753453110  0.4947388517039746
  0.8278892033338618  0.3259387010450233  0.8303706096615162
  0.1559670565953649  0.7456894154371856  0.7420118279932628
 -0.0075833067136606  0.8305579137183902  0.6622793276659001
  0.9053985310420636  0.5789426232273345  0.8226258794747411
  0.9051962534713413  0.5762726336260391  0.0015851720755717
  0.0770238751845285  0.7408581677335940  0.8224024567202283
  0.7435527861740838  0.5805712382146007  0.4956177782363451
  0.9086999350908840  0.5849934803369655  0.3216502210546203
  0.8255504529919505  0.1544804654532059 -0.0050557275209504
 -0.0159005002323681  0.2431287762723967  0.4118922925795048
  0.9082802902323300  0.8287139686716204  0.9122570867256783
  0.6692562816243967  0.7489295758083662  0.5835438342979579
  0.1632653407281275  0.9121828986935628  0.0797302578343426
  0.0771902821758008  0.9122029160754516  0.1657061918789268
  0.9087143741225964  0.6688320784819063  0.4130341304336462
  0.0771555167692111  0.7463729735761281  0.3250730475647233
  0.7441495325687941 -0.0068639933711090  0.2424667900815845
  0.0752805388122810  0.8295612929114432  0.2428187781801510
  0.7441711598538705  0.7479985853796576  0.8269643776795015
  0.7463518386691055  0.4081106709728510  0.4953052044697586
 -0.0110114885280899  0.3225369565241430  0.3244588591706331
  0.0762126363650248  0.9127858986475161 -0.0093496116531262
  0.5809381397676594  0.0759432456591248  0.4114632471744062
  0.0791120920119910  0.4090024837125826  0.2334791237891795
  0.0729922498114962  0.8291267854431568  0.8248183987463517
  0.4068930752177055  0.6730604548007868  0.4983575521834158
  0.2432451682887935  0.2423024651268108  0.9124766163508063
  0.0748069328376562  0.9167330015177517  0.0787100249699406
  0.0791528452403144  0.5907386558825217  0.4156038326190031
  0.9070464240988734  0.5799255120994378  0.4115921068723963
  0.9068678244866276  0.7561301330920012  0.4070357150467105
  0.4912083924559393  0.5746407216666243  0.1660408339980810
  0.9924713364509301  0.5739771818343267  0.8204644768504749
  0.2449879263586117  0.2410328842797171  0.2413261314638834
  0.0793511280729618  0.4121654109143004  0.4212700853811088
  0.5804626677990974  0.6698235313297611  0.4887782723798513
  0.0814118739857587  0.5679036223918680  0.9122371525193121
  0.1637573885790689  0.7485432012726808  0.0029223418900160
  0.5823841939269996  0.3215747019346182  0.4932246841054995
  0.5767372493028834  0.5763903121991855  0.0757845638212075
  0.4141898039799756  0.1530670338608298  0.4888221294506512
  0.0756229806440171  0.2354361497789846  0.4100921822129697
  0.4109435925225008  0.3278232186536510  0.4894764918096244
  0.3285545292472143  0.8291901548437177  0.9120388623545436
  0.4131456704552950  0.5809643152718775  0.4063174505768978
 -0.0122690791217462  0.6631992750586131  0.9116971850860023
  0.4098437066178129  0.4148940970175535  0.9120427414762770
  0.4069118769634824  0.4961201885990770  0.4970401567310834
  0.3232215612102962  0.3311504275863264  0.5823445137725007
  0.6700982249031185  0.1588211028895130  0.5762340392755607
  0.0743725216478552  0.2441535260585012  0.7520503686407168
  0.4958330359972106  0.4179226982554203  0.8230049102353477
  0.4917322319074267  0.2376116647113800  0.8260412115821457
  0.0788086303545231  0.5876093595147980  0.2365102780092429
 -0.0992975655483753  0.5728158115710471  0.9127886910797050
  0.9029426925643577  0.4929246063833645  0.3216083729463078
  0.8254094312870129  0.2428426010171042 -0.0047962384989879
  0.2441674102171174  0.7452469646893920  0.7443602761627645
  0.9842786854941792  0.2321608506313540  0.3216519176300293
  0.1647513576500209  0.5747271809851164  0.0009732231820978
  0.9059350317634167  0.4894567246844893  0.5018026894631863
  0.5790291599615941  0.7545234599455357  0.5847854341955367
  0.6649770643249291  0.5781577450217813 -0.0092071074202174
  0.0783329978154829  0.7466251974876661  0.9130829574071109
  0.0818310720082566  0.3224024063005403  0.3222748758126755
  0.5781445062592682  0.5793628709124485  0.5841264366494547
  0.0830280031127448  0.5018086778046426  0.3234056136531624
  0.4137863287673896  0.2434204483908322  0.5844515607481883
  0.4081334661610871  0.0674276641733741  0.5819261252945999
 -0.0920273498061841  0.6681655906282510  0.5034965162614474
  0.4939736398736450  0.7517124806525307  0.1605402310149925
  0.5813943190534908  0.4954239294069164  0.3229113723020293
  0.1604078614035899  0.8307991824046543  0.4115352210783908
  0.6687018653705847  0.4105763720064342  0.8303640365948867
  0.4984403774074067  0.3240248284291484  0.9168626846338750
  0.5856826521682968  0.0774544658056828  0.2403665227307970
  0.2420954553796656  0.1575776504640476  0.4950809344141369
  0.0753559106343134  0.0028672524202613  0.8301111074767745
  0.0689384256189567  0.1515912813192268  0.4967346540579014
  0.8186570958724680  0.5836018836789653  0.3237792174821014
  0.9863766104940422  0.4090165267700507  0.3247021392998231
  0.4096777902512717  0.4098791668800187  0.0851560746006318
  0.5812006001630108  0.0706792915248720  0.5863546662945202
  0.1655484544612797  0.5806103395057769  0.5000489991470335
  0.0719672456442941  0.2437257399949483  0.5835665021399741
  0.4071083144762009  0.0784755967210347  0.2449533606039331
  0.5806651242262658  0.4939582195829192  0.4968196427202940
  0.6662721199432960  0.2454212484765174  0.6648378757558914
  0.4951297928844172 -0.0130659631246824  0.2455119388361129
  0.4939862754480169 -0.0063365556744921  0.0728591025777277
  0.3207679357829661  0.4127788152480535  0.8240988458790741
  0.8256882651172146  0.9113600761930614  0.4109933387515621
  0.9071509354073888  0.0731268157984541  0.4950922355772613
  0.2413103157905869 -0.0071896916003236  0.5801862511454761
  0.2413920055518670 -0.0052092799933227  0.7454737888333022
  0.9082923793050013  0.0752705444681851  0.6627226432141069
  0.3218599453656398  0.2386515471581203  0.5808416523141331
  0.8265810649935899  0.0768161383403757  0.0770067891328246
  0.9077273170425886 -0.0053533791954526  0.2420622947605903
  0.8282871799295372  0.0731345384203300  0.5792076113085043
  0.8247674071490460  0.0751924062342749  0.2431919035393154
  0.8281938207397462  0.0760185058858791  0.7484695957362439
  0.8273530383977863  0.0742029553712682  0.4108438742457208
  0.9093283839600503 -0.0048032207962178  0.7461414432284087
  0.9075287990190642 -0.0090995767764399  0.4101174932492183
  0.1602974103081893  0.5773258912607244  0.7432055055977796
  0.9086235279673924 -0.0067538678177294  0.5799926244203819
  0.8272058436714630  0.8308909416298528  0.6646118497883433
  0.1596742323408450  0.0787768554991557  0.7450148179491027
  0.5797526778196637  0.7515973645384773  0.3270389187812728
  0.9075189808966809  0.1566031882201848  0.2412819781978026
  0.8268076784371619  0.7474529999207622  0.7456494889337909
  0.6631608438659536  0.8318626288263110  0.6671599736766513
  0.9095507580955136  0.0782539601522417 -0.0043210026069033
  0.6617104162384871  0.8287918059452193  0.8297931769848775
 -0.0086894268233263  0.0779509066238465  0.0775678928202704
  0.2424341991611451  0.9138255545816968  0.8280536275317145
  0.1592855050311359  0.2416606398664466  0.0777928529897213
  0.7446445172669675  0.8288420296154519  0.9111483616535252
  0.8282267022915905  0.9125385207041781  0.5808822403791685
  0.9083189266992254 -0.0046373176391044  0.0775520210181480
  0.7447965538153488 -0.0054569300646413  0.9118248383971931
 -0.0095662654743238 -0.0045851221128558  0.1604424501392281
  0.7461658676483605  0.9125775471901457  0.6657541459655276
  0.8253720321720494 -0.0063778479869105  0.1593074107124514
  0.7440509216388554  0.8314809501400986  0.4114132894644325
  0.7463191643299917  0.2432072218935533  0.8301765863110002
  0.9107425264127346  0.2441363999063152  0.8314929798762303
  0.9090158298214749  0.3248211322951975  0.0785136072915788
  0.8248675471405771  0.3254004349705026  0.1594119638209183
  0.1610108050026307 -0.0050025506429096  0.1615225105247328
  0.9096473298325429  0.4078410435569898 -0.0023152963443148
  0.2453050742724808  0.5797524539908060  0.6635103889643771
  0.8234261446435029  0.4088963448303433  0.2398198522148155
  0.9070278681223459  0.3238532267116901  0.2384957745956046
  0.8248435282781104  0.4933018820437643  0.1588584692491907
  0.2438411131000318  0.0773070313427128 -0.0044907092222657
  0.2438364411964965 -0.0047255383068340  0.0783112511826155
  0.9051566761379896  0.3256363603401491  0.4112929513492278
  0.8288735634664728  0.2446345205954152  0.5788264530549534
  0.8273901179308165  0.0773682140475591  0.9119747400776571
 -0.0175249947236211  0.1578084211678302  0.4943313306576813
  0.2427272722789552  0.9113757766117183  0.6632014942633130
  0.3203218305470552  0.0737456351951865  0.5804132150617783
  0.8274318167115434  0.1592868862875966  0.8308315092883899
  0.9071333793288771  0.2427532173916732  0.6635125566822799
  0.1596390240055475  0.0718905085563900  0.4093306198064605
  0.6624519073078697  0.2418051960269474  0.9115248763049673
  0.9094011684586821  0.1589528290242536  0.0785813160656020
  0.9138706265084412  0.2427009068711289 -0.0032491354163490
  0.1589871566004694 -0.0067650896813630  0.4959587963447717
  0.7449667412563411  0.2412744348884243  0.3254507804297295
  0.1581206395665078  0.0742090568111557  0.5812814097287020
  0.2445158105698339  0.6648171570793531  0.5823207877766414
  0.8995228578581923  0.2417576784147661  0.3247213943078457
  0.0743738292322543 -0.0062803196792087  0.4086964730269714
  0.1601430094909269  0.0757699994681722  0.2431151923310063
  0.3257038139760009 -0.0076590129799299  0.3275873913121730
  0.7493156291173427  0.2426307241363967  0.4933621544607387
 -0.0159456448001845  0.2426773318685171  0.5795638480725008
  0.9064178422137226  0.1564101077054920  0.4088457825210626
  0.6634597423681473  0.8322513671905385  0.4963289084390091
  0.9101802851820656  0.1603613408934593  0.9135219849776941
  0.2436394743102977  0.0762647108701393  0.1598759834453503
  0.8260874064846937  0.7495764481074132  0.5818227504609622
  0.8216241389841128  0.4098136567435332  0.4097971255296838
  0.6697266597490638  0.4922261422946570  0.4967752417635958
  0.6627141108764755  0.6645220488430110  0.6658172699010604
  0.7450137066101074  0.5798632524131925  0.6651426530705146
  0.3258636988360416  0.1571572086620798  0.6638966669387928
  0.1595335868812904  0.1578768490672699  0.6624975795194462
  0.2415048560365880  0.2412307944369899  0.6637452862573353
  0.7465463942324988  0.4949541799811563  0.7450607113813865
  0.1601195337325030  0.3272304919546242 -0.0025793515284431
  0.8245706352624766  0.5785258974743150  0.0802289343772269
  0.6627063048753632  0.5813184908173088  0.2396384849424991
  0.5805127089441591  0.8322336062628045  0.4103897997872357
  0.1603844830259289  0.4084916486498178  0.9133525388227374
  0.2437868228022993  0.2418266764506594  0.8243327725276418
  0.6637564485429058  0.5799225855275009  0.4120491242459746
  0.7423760894026571  0.4075315495967563  0.1601540856102725
  0.6623043936372922  0.6686266672700243  0.3264669189565429
  0.7421775154862446  0.4929687267342280  0.4108048900561850
  0.1605144770361796  0.1600444712602593  0.8298750805542374
  0.4913510368649740  0.0735245012308326  0.4118462873714985
  0.2443727173112300  0.4101234456058965  0.1619986502202215
  0.7448541894167204  0.8317854673485982  0.5818948957749506
  0.7481343244279396  0.4095478824519059  0.6642345546236564
  0.4113134542726822  0.1605397275868644  0.4041392902951845
  0.2443588215211424  0.4098788139520500 -0.0039274130542377
  0.4969856468562457  0.2419151706582417  0.4081817030369252
  0.7440366149450695  0.3259537149280535  0.9127903398749937
  0.3253156163050529  0.7493517381760170  0.4109230024423963
  0.6645028230385531  0.4081456577723643  0.4096589151574774
  0.4960874489410529  0.1551284501413076  0.6650072059360090
  0.7427886339092622  0.4067964223857394  0.3247532599590872
  0.2444090299805989  0.9128550792269945  0.1613784786120774
  0.6655756341390039  0.4099016643036876  0.5807307023832524
  0.3324047078273443  0.2421588107661768  0.2435668608317600
  0.8255891430725766  0.3266056920097705  0.4949086026483850
  0.6617786321502857  0.1595503010363231  0.1590902797640534
  0.1597833319011853  0.8308484063078132  0.5007888580567814
  0.1604529822617796  0.0769017494623071  0.0777281603165912
  0.7430165170419882  0.6659673129112337  0.2410948068912711
  0.0754992064193413  0.1558583822492655  0.2414537943738058
  0.7445664847994703  0.9109695437538727  0.3264998531794452
  0.7448372623001031  0.8299259380817641  0.2420163925831907
  0.6623360257490328  0.5794655588711386  0.7462932105982045
  0.2445480357329355  0.2424534279441407  0.0018900253523030
  0.7450501860378326  0.8305918422663010  0.7481337698315825
  0.6616649451841448  0.4097384847212238  0.9175671133119343
  0.6628690486749997  0.8304646516626674  0.1585121990975125
  0.5785650652780879  0.6639504741707807  0.7486655850382068
  0.7450163035122234  0.9115384526189603 -0.0053902892374073
  0.1626006517683804  0.2428972447532014  0.5810368142514137
  0.6642324412462390  0.9108333330047429  0.2430641419939555
  0.3273136004149672  0.1590541233656954  0.1593374777133831
  0.7439516658501624  0.9117835286458955  0.1583064316597343
  0.1601743404241168  0.1550919099500605  0.3275809026542156
  0.5791926884228291  0.8306775361138721  0.7491387360540568
  0.6622362605825584  0.8286995626046706 -0.0077862818061519
  0.7446348247204942  0.6666007353169071  0.9103836570080110
  0.6611983640772440  0.4931358364975280  0.1589307913281043
  0.1621840441299907  0.7473867640294714  0.2423396708405000
  0.6629837685676606  0.7490503641427525  0.2435403330498373
  0.4933792216337608  0.6644412578259326 -0.0074389935869671
  0.7442819850451650  0.7510778216326233  0.4977032347734484
  0.6622307906899242  0.2427690954696420  0.2435098534590812
  0.6628182489699765  0.6683739384007577 -0.0067603464351289
  0.1624309546490046  0.6701981283859700  0.4980951439772453
  0.0762441321804618  0.0730216208447290  0.3244723293461658
  0.5788766794022021  0.5801412772547254  0.8287591826083405
  0.7434306064715361  0.6642068795593753  0.7467161106451802
  0.2442667455138206  0.7484707835360208  0.3261284579828809
  0.7453881197772330  0.4902970524007191  0.9125281783252864
  0.1640506700220297  0.6659081082695374  0.3258625585565739
  0.2432468505056487  0.0741482763576135  0.3269417325290879
  0.4938160939433426  0.5816160513901829  0.7452646805364744
  0.7440049155682997  0.6654215003607243  0.0786801576691815
 -0.0072066631663101  0.2402595783948819  0.0783183556509025
 -0.0097321518183040  0.3257390575071730  0.4970736093680100
  0.8260736133443617  0.2413821115299214  0.4096918738776211
 -0.0101904381125313  0.9126364153737261  0.9127733273992660
  0.0755280102068266  0.4105231103436309  0.6621134581208983
  0.0751431256629757  0.9141448853211448  0.6624378556321542
  0.9080531878812651  0.3266820838728711  0.5798504431843269
  0.9067975535623247  0.5808179622820685  0.1587691527863581
 -0.0124427655193938  0.4092862236817839  0.4158575026546503
  0.8278924331913392  0.9127033908038614  0.7477481805034188
 -0.0047034327384946  0.4956547598675435  0.5002815754956026