Cr N  Ni
 1.0000000000000000
    21.3517157984635340    0.0000000000000000    0.0000000000000000
     0.0000000000000000   21.3517157984635340    0.0000000000000000
     0.0000000000000000    0.0000000000000000   21.3517157984635340
 Cr  N   Ni 
 259  69 605
Direct
 -0.0072566319111654  0.0061809149861982 -0.0009871982128710
  0.6611640225023954  0.5774713758774898  0.9119951506562557
  0.5786358113151794  0.8312062002522673  0.9144485485993643
  0.9048853740822470  0.3283004511524563  0.9101915695207168
  0.5784535596448201 -0.0054645262844933  0.4095330713830875
  0.9026727136983874  0.6610994774938403  0.4013987498551399
  0.5851563371972569  0.7453403400020232  0.3274509572322669
  0.7418143920800527  0.4952619810128928  0.2441677958962021
  0.5893439235053807  0.4921652416093358  0.7451758317335807
  0.6628012025721070  0.4949056748990606  0.8301713288624825
  0.6627552375418706  0.5788706357442149  0.4062692339306082
  0.6624755051156066  0.4108267408744888  0.9141619167542456
  0.6593440771427825  0.1610395673565048  0.1615885624655355
  0.6618202772393957  0.4902216168812752  0.4929140529630737
  0.6598021732050826  0.1604746994726230 -0.0024503903872851
  0.6639584829163946  0.6662542393061320  0.4946096048579097
  0.4129989451465999  0.0793432843319945  0.4978264103722179
  0.8246150951179839  0.4121782835020011  0.7473089476925412
  0.0796901328211022  0.0778700814167582  0.4923072179859813
  0.6552251322847369  0.2400880191077844  0.5755835029929176
  0.9073635517270657  0.8299807896744587  0.7454978498096664
  0.2456167210629455  0.1611471586624285  0.9203968281861670
  0.6610670165364808  0.8299128926836346  0.4948751140604411
  0.2410549502159486  0.4894161345388175  0.7489042394211062
  0.5002062888039418  0.7463249934382763  0.0704398188341946
  0.0731933549823161  0.4929576843701969  0.7572172297399005
  0.5771848625223055  0.3260841385123483  0.2447939453570726
  0.5787656361440703  0.4947796106529549  0.0718915513258503
  0.7424046428287067  0.7369491484640910  0.8303196972489927
  0.7417448450963293  0.7431253438962672 -0.0059825625011296
  0.9047898377266280  0.5778186351128214  0.1600145130099889
  0.5778392266041986  0.6611639859590720  0.7457233526307551
  0.4972136360734878  0.7453656679712543  0.2427421570535464
  0.7413930377168363  0.0761398249710695  0.8377172201621752
  0.8338562510021096  0.8283718360542479  0.8290871729439196
  0.7399958529888871  0.0775505741544445  0.3256593586088056
 -0.0107130462656108  0.6598719221552644  0.6713750631313674
  0.4136556982534234  0.9108360385547140  0.3227030450172666
  0.8162172637669681  0.6622677883328347  0.4937321938101912
  0.8996356637192927  0.8287880869502365  0.9142015262475435
  0.7415532356385777 -0.0043398273030332  0.9144090296989594
  0.4958861984875760  0.7513080890431036  0.5769476179206787
  0.8176441691262092  0.1584162373644655  0.4903804063282605
  0.3292396994469955  0.1612615524816337  0.1619584198786569
  0.5788578411640803  0.3266061992214063  0.4112038164708822
  0.2468091935073656  0.0799965538533768  0.3259255682895335
  0.5765281464391160  0.0794970140312706  0.8346846605174740
  0.6604438594767329  0.0770309043817111  0.7447721032456287
  0.7428850769870214  0.6614086274755027  0.7469038898539689
  0.7457520046633127  0.1534700480758221  0.5752654755230698
  0.6604660724155148 -0.0046514430323856  0.1612011316279054
  0.6619780024909057  0.5787535547659335  0.5829275483351025
  0.7410083681292440  0.9118183415350768  0.3263425922565446
  0.4975046334530106  0.9108332067538667  0.2439954411340544
  0.6618443294873085  0.8299885007299479  0.1589092662870266
  0.5775320399917439  0.8288852998167590  0.7437260087956284
  0.4998529885319618  0.6611959306741007  0.8270568308376067
 -0.0147465867901573  0.8286183888657654  0.3210511570073344
  0.4962144748716324  0.6560838287257957  0.1603279240797307
  0.4076082524759270  0.7442889939807031  0.3280518244259606
  0.7429069203418397  0.3295014140647126  0.5791225393638445
  0.8224410308756226  0.7453814298565085  0.2428821504590567
  0.9066160319709290  0.5764822817565582 -0.0034161213859447
  0.8225033933211964  0.7433557306366180  0.0780952758573344
  0.6610620503466560  0.4110901687713767  0.7479574636719114
 -0.0059190000621181 -0.0122854202433146  0.4951792115092987
  0.0755317975069334  0.8272847764461149  0.0808671015361951
  0.2468566521357250  0.1657024242556808  0.7437474970927533
  0.0724247950689604  0.4898946258602391  0.4085378306116471
 -0.0035363542237739  0.3264024184979464  0.0006698418612896
  0.2435434297133368  0.2434385958014690  0.3254982337704599
  0.1636485849572510  0.7493456890815541  0.7352682208318934
  0.2467108108236346 -0.0122337951244423  0.7429163650353907
  0.0698950401437415  0.5766099713610829  0.8283200939024811
  0.1668556667228138  0.1631031374344034  0.4883775011525824
  0.9079662229868782  0.2438330509313115  0.3234626798247044
 -0.0094776515863674  0.8296891491278343 -0.0027560876031718
  0.0775796899618634  0.7397691327760429  0.3273441411028570
  0.0742707956571135  0.4902814849219122  0.2357984166096790
  0.1603003713397231  0.6602174030942967  0.8256340697908868
  0.2498303708637922  0.1645047795004487  0.5776978065345275
 -0.0052681185942395  0.0721176523263943  0.4071782930629489
  0.1622993927760955  0.4901269411997640  0.4844627454073895
  0.0830640029029013  0.7558631811881598  0.4949935268731093
  0.1704140489111987  0.6634261250812746  0.4928818807511007
 -0.0068035736500163  0.1660275432476344  0.4920776331834657
  0.0748813878793157  0.4008244281505689  0.6645526714369677
 -0.0082416654105986  0.8392582565194442  0.4952000873474149
  0.0776548199237175  0.2451993240125988  0.3235857082167045
  0.9095321985436124  0.4104281652839573  0.4925466062342294
  0.0749677189233569  0.6684364777458451  0.2451012643631338
  0.0812010333086211  0.9011026946549535  0.4915499066793364
  0.0751819626048544  0.9176686860535025  0.1643904778896560
 -0.0131076289587063  0.8259399834334809  0.1689997433224619
  0.2449353824263207  0.6616412942229033  0.9096166307582713
  0.0684822120570161  0.4968044684254867  0.9086592362496523
  0.0816578009748880  0.3256979417960592  0.9135389814463771
  0.0727740606326134  0.8292072208674405  0.9131556926667408
 -0.0113390371429083  0.7376790220783972  0.9121393278164537
  0.0753698182144178 -0.0052086285300070  0.7440193318407631
  0.0743021413782925  0.7370297522676786  0.1638886077309150
  0.9090365705317501  0.1522577905718902  0.9150603523385433
  0.2432450446331374  0.2507144766048983  0.8294937490331383
  0.0760282811358397  0.5797873159380212  0.3313893859181619
  0.0750357444406511  0.1599866736668314  0.7518349973139828
  0.0759155098279161  0.6614634655373908  0.4026450029070963
  0.0811299947380048 -0.0011180604670854  0.4059073942216484
  0.7436111233143662  0.3259654949796932  0.0786800841294878
  0.1705829391628829 -0.0042504610119634  0.4930454490556501
  0.2430982941676939  0.2380239575944261 -0.0018707246917806
  0.9074817520927192  0.2431407997375465  0.1587656416204133
  0.9065077579523773  0.4943887780455363  0.0783259099686467
 -0.0169365229537234  0.4920606019045554  0.4927386822383813
  0.2439087665522609  0.0744498744867309  0.8332861978935532
  0.0737328379207249  0.1637935905325516  0.5801782652971947
  0.8263300280772141  0.4162143548666137  0.5781818332574994
  0.9026810333993220 -0.0050754224109250  0.2412904507925693
  0.0760276817502135  0.1586497966292580  0.9144450083359307
  0.9045644293039594  0.5686390810936093  0.4937938062290996
 -0.0092373974637402  0.0784596827301878  0.5835971373563561
  0.3238703736151913  0.0798119264450992  0.4096242026508291
 -0.0099539880498917  0.3260303798705627  0.8250260250722046
  0.0743879137504089  0.4926585884342093  0.5808320109135354
  0.2471503415572288  0.0772286019726438  0.6570016594195832
 -0.0164245796598858  0.4934374141148471  0.6639791731376176
  0.9010823031312207  0.0714161006984668  0.4926152741605457
  0.0761442623761060  0.9139308713854472  0.6650024228847051
  0.0648922792887107  0.6584886083579727  0.9113443590642526
  0.6614190177930929  0.6625221222366892  0.3273487094523607
  0.9037706410421703  0.0762724688086831  0.3235274717268524
  0.7430951437036364  0.8226237958693776  0.7427910291360175
  0.4194300585852439 -0.0028831692516911  0.0812731613112004
  0.1655752258667282  0.8283284610846159  0.4951350816623585
  0.5756215025039807 -0.0106242227712313  0.7428099003922997
  0.0745480707474392  0.8243084884956698  0.2601495719832084
  0.5007133946078471  0.1604796921417456  0.8317305192851432
  0.1545741623595586  0.6598539252321813  0.0021268944171470
  0.4971864930665749  0.0789945244217602  0.2451998921520434
  0.2464658590433083  0.4924421837979421  0.4112248597287866
  0.5773810078839822  0.1620663289853028  0.5763549085098576
  0.2446299039076544  0.3262707769689480  0.0866062686054853
  0.3264087915234012  0.4067662065514211  0.4096425074100892
  0.1527754823928540  0.3265769397359123 -0.0022475276996452
  0.9079627205286911  0.4946625406754360  0.4100176682959640
  0.1581036840595886  0.7499900260282831  0.9108058408839225
  0.3295970985269620  0.8325769649574193  0.8203952278180850
  0.1648449627950326  0.8288060770218625  0.1695250009951000
  0.0767797087000184  0.9138117366947126  0.3174691637237090
  0.4870806414234614  0.0767524190566304  0.7433776917934245
  0.1571515324923014  0.5748372770605277  0.9080290150857780
  0.0721588297581026  0.5784820939839248  0.1547524065556176
  0.5770390254117571 -0.0066999334006850  0.5750536740954854
  0.1604393651190407  0.4912433481127788  0.8236833036601672
  0.3302920591611958  0.6628820674042986 -0.0035853494326609
  0.4202145545657150  0.8335679668103096  0.9127849791550249
  0.2384057626779096  0.4900785599403314  0.2473516235733549
  0.0806727317217904  0.6650274840636982  0.5802203445328338
  0.3348253834199942  0.4914704618704950  0.6588426020550999
  0.1584538670378798  0.4025972713807327  0.9125166576753786
  0.4958670093868455  0.4002002005124124  0.7442212769727237
  0.3228093614498145  0.4051275630360160  0.2465727562949990
  0.5777005150198169  0.1657205525466940  0.7448983495731605
  0.6588072609566975  0.3285881285761273  0.4874945912016633
  0.4968607937571407  0.8345543992320840  0.3256165706423606
  0.4952573865904276  0.6567750027866609  0.3298870100382022
  0.3286307791503699  0.6631670009855571  0.8240447228465422
  0.2433525317293403  0.4840122758732998  0.0783100313038838
  0.2506059818959632  0.4906022279174720  0.5716630120462599
  0.4977520860577418  0.4899118806601178  0.8359675510762723
  0.3313926021941402  0.5813665430771079  0.2475190408254912
  0.4923895441633085  0.4925137604852157  0.3356802508133792
  0.4216235714058059  0.6592253220450759  0.9112573436297123
  0.4955741108781702  0.5868058968404419  0.2463927545345825
  0.4963870668674412  0.8331383470887234  0.1614647689069753
  0.3300296849833550  0.4884087280324970  0.8356520511345382
  0.2473309937175409  0.3254998229536296  0.5761505419320854
  0.3225104842193721  0.9112013465338940  0.4097025350122173
  0.3289032383397975  0.0879433676636131  0.0810936491790381
  0.2471449259999021  0.6603959707377197  0.7406179084055980
  0.4941796647345897  0.4931460366804414  0.6604461812893694
  0.4936634790386095  0.4935021754100870  0.4863652918964008
  0.4125210330547165  0.4928283210358518  0.2454844748475536
  0.4135115575316824  0.9103929190434172  0.4976961596917314
  0.4149857750211000  0.4908485054904376  0.7459403855372508
  0.4138020903632660  0.9089699980653511  0.6580063840767036
  0.3335861858549768  0.5729076540892828  0.0756465232802554
  0.5863286603002017  0.4965884517436400  0.2456398241148666
  0.4919085399816706  0.4040468474303093  0.5764429628419138
  0.5850165883682817  0.2458908288947793  0.8304304499272640
  0.5014506817893862  0.0787733249626573  0.4094332949203884
  0.4975294277049337  0.3357199196240059  0.8312641372556090
  0.2515118343613441  0.8311587626144210  0.0805011599537238
  0.2444249779863042  0.6617374685871193  0.0858905862653151
  0.4208998527382440  0.6610435169081669  0.7443924577551320
  0.5769561419779949  0.1603191491163000  0.4088762314924684
  0.5797041284535744  0.3257673056327273  0.0770122211412990
  0.7422836244513026 -0.0039459913320197  0.7465555280523134
 -0.0074625209166410  0.6627307842406376  0.4937864372731562
  0.5004406204261165  0.4068069554515510  0.2445786742291521
  0.9122322297173144  0.4096966601804706  0.3258289362279548
  0.7421360952688663  0.1694271622023316  0.7489257888219645
  0.4093694264723253  0.2485637467602368  0.8304769316771073
 -0.0077288020127959  0.9163727886700370  0.0865987996364172
  0.0771589583508207  0.4035957502159687  0.3264505151239371
  0.4132176788019018  0.2456473925496155  0.3261753586918059
  0.7439802243256310  0.4962970205468363  0.0767918502313019
 -0.0080044148621004  0.9164906329401874  0.9088291426724118
  0.1582258877921081  0.8307698066559881 -0.0034022057553152
  0.7421803423276073  0.9158105103547269  0.8314169691193116
  0.7425933028708597  0.8286242145218444  0.9195482557855242
  0.6630494856409898  0.6615096247306455  0.1593244179338005
  0.8997446725130631  0.9157811501983282 -0.0031906225367474
  0.9024945620538145  0.6605013963950143  0.5815813995853488
  0.9079301335463899  0.2386342671700161  0.0008045656894571
  0.9075876292927495  0.8376031173081866  0.5802856548428448
  0.8275106863471920  0.4113475476833561  0.4144538620295622
  0.8164368560866261  0.3283695430107494 -0.0011397692161240
 -0.0059759858541045  0.7531170630466059  0.5818272723355696
  0.9062460288736773  0.4194369619826908 -0.0018405432879047
  0.9094951308917503  0.2435067737878868  0.8244099695186341
  0.1629239715593297  0.4043512097806264  0.4103219575616078
  0.8310643919810873  0.2426289335644921  0.5803951400775210
  0.7379705792804597  0.4112901745876299  0.3249391504496226
  0.1591541157754388  0.4879047437203277  0.6626189520835447
 -0.0084359846621791  0.0803899253660616  0.2368527206094304
  0.7412131870159887  0.9143427638093896  0.6544193043343752
  0.1601261759358741  0.8371524839685430  0.8214120131225257
  0.9081466819931959  0.1602114623936419  0.5824047538088728
  0.8261088478062766  0.2424065035588580  0.7489843852914003
  0.8229897059538462 -0.0035759487473527  0.1617701249733242
  0.4950906319848584  0.5787958920521136  0.5782174797465421
  0.7400296236759950  0.2430002621494770  0.3259930168383434
  0.2416789073209448 -0.0032446283627132  0.0818421013763686
  0.9067796467288348  0.3266272811661686  0.0893848228520336
  0.4129265363850554  0.3152898023272640  0.2448647597468638
  0.8338218604657601  0.0763033004107313  0.7478899411186747
  0.4134496595896359  0.4093390309837838  0.3343878191224404
  0.9084154421305349  0.2484974982564869  0.4941786372227684
  0.4127514885485117  0.2448900706818857  0.4936990762798022
  0.4139363263651926  0.0730660166227694  0.8285758200587697
  0.9027739869715248  0.7483469278944459  0.4913219441947493
  0.2444648902464239  0.4133061179537152 -0.0035933362350197
  0.4140138344172258  0.2436904076580707 -0.0005554273821532
  0.2435267528592701  0.4072969392054189  0.3294926918099663
  0.3362881169765546  0.0756043152370592  0.7444794900376136
  0.4137530428441213  0.4090647923432778 -0.0025070979774849
  0.8232236144582649  0.4109278318703309  0.2388447995218028
  0.3302847479294632  0.9222663814742983  0.9144675293638413
  0.1592181580298100  0.9259478407046587  0.9146306358929247
  0.4219132106332606  0.0778299093260618  0.6572924359307719
  0.3309273618503321 -0.0022892043506512 -0.0072571401800333
  0.3296719495949187 -0.0018827236082213  0.1685155556228250
  0.4142699621372610  0.0796952774091704  0.3205700105413309
  0.2481062356235783  0.7448325491440585  0.3291228762280988
  0.2460811854316987  0.9131370644492172  0.6601087422253289
  0.2484440439854022  0.9129060117255630  0.3262396937216001
  0.3292937651009298  0.0792782633972465  0.5691416991205149
  0.0764260792294867  0.1594960828620809  0.0827881264300959
  0.3310056094023849  0.7480057796948392  0.9083696954933121
  0.9887344230758510  0.9199160256407239 -0.0026114991164212
  0.1569611603469661  0.4884667654870957  0.9136509039667843
  0.0742256316298541  0.4900484188070688  0.3221109152568701
 -0.0056268416432982  0.7528636837338174  0.4893769090316313
  0.9054605171621342  0.3298092766366086  0.0019068662259178
  0.4946342508618854  0.4903379776818635  0.5727095608306596
  0.4208933191157728  0.7465954303558294  0.9114418655106262
  0.7430341679747383  0.2393246873061971  0.5775989223281351
  0.0733105593937017  0.1643765550974922  0.6674766620849707
  0.0712557218551332  0.4889122622657713  0.4941594317636762
  0.2425279549106858  0.3258632433118294 -0.0011966786921325
  0.0837176517392348  0.6639386662303531  0.4907891645417397
 -0.0976919675479440  0.7505390743488004  0.5840194620299635
  0.7435685221019503  0.9096435022783904  0.7413471710870602
  0.3338567149099251  0.6546664143803147  0.9093288818200977
  0.4952188481531928  0.7444500526789715  0.1559146843369163
  0.3355037577497187  0.0791649717185956  0.6561399777088783
  0.0806274419066607  0.1686601866856267  0.4876710104052638
  0.1631326412787581  0.4905530028076175  0.5733294091122192
  0.6546416028724560  0.3295354784527715  0.5768622379315771
  0.3350410536397610  0.6639208251627141  0.7362663772475874
  0.1650289156707119  0.8301034574758871  0.0826429189133066
  0.9895159243946798  0.0757499231583018  0.4962046522159919
  0.5001021901449193  0.4982411529103211  0.2473654349641818
  0.5811618308683015  0.4937848219920038  0.1574482796434560
  0.2438147017704860  0.5707755759839479  0.0779727592651326
 -0.0155994124663538  0.8254994847947226  0.0834013549179876
  0.7482003884534911  0.0835697836260608  0.7464821843986499
  0.2436951000386547  0.5802120592335297  0.2501010370514060
  0.4962103617966714  0.7454230842389803  0.3314706091389495
  0.0757485806939794  0.8273767124848720  0.1728149003320842
  0.0840431674458684 -0.0110839720504510  0.4984757578574548
  0.4119069246320178  0.4019747826187008  0.2443683975422901
  0.1608147888065884  0.8402345214352287  0.9091653104687886
 -0.0143404436898761  0.8265226014462265  0.9061395782971068
  0.5029436188775934  0.4896160727196063  0.7486746645966623
  0.1583564935232440  0.6599555005416287  0.7374381735584185
  0.4118790174121519  0.9090142095723492  0.4104408392851585
  0.1641272290107590  0.1639896522093195  0.5766342543123638
  0.9930802075376222  0.0792231727520749  0.3216189942814836
  0.1531354094009741  0.6624380725579513  0.9146994178307785
  0.2438426851984085  0.0757358915056814  0.7450893876183075
  0.4125159856122261  0.0814242997622367  0.4091363801220204
  0.9042909410186964  0.2383281787150954  0.9115604816099863
  0.2418924612630182  0.6629791737200200 -0.0017702276731318
  0.8314066571760024  0.3308921900698958  0.5784758618571443
  0.4955357492799935  0.6656703892185704  0.5761751853689990
  0.3287355400234391  0.4879007792630990  0.7489485003689522
  0.9013674398867934  0.8378458229896181  0.4905288896551504
  0.3307174420167475 -0.0021812598867799  0.0809703883277280
 -0.0963451128327790  0.1612134551833862  0.4921614088526107
  0.0715163003607788  0.5805108496949226  0.2414345346792670
  0.3345430039001372  0.6624383885075554  0.0846063027173502
  0.8252246568757721  0.4092138535197852  0.3265635349383813
  0.3314552175335992  0.8361760190676772  0.9101509441392517
 -0.0970125864696679  0.6565539472275060  0.4896643157728415
  0.6610648542854795  0.5782167380293957  0.4948528282787528
  0.1569909494048453  0.7503431502387530  0.8216866914771660
  0.4128486726055620  0.1597354330271273  0.8309453864846367
  0.9946747708796098  0.3295102620736781  0.9119718920834488
  0.9930221406876207  0.6598866629087593  0.5850328446994828
  0.0779093658178307  0.9100978405577352  0.4030406158178376
  0.0703548261021054  0.4914405547117456  0.6703245883020675
  0.5735440337615025  0.0772400150908983  0.7438960451134791
  0.7440330389081502  0.8249167624334209  0.8320698486248174
  0.2474250260055267  0.4923326500238404  0.6602690316494777
  0.4981926022196825  0.2496313093350833  0.8302831485656710
  0.2415978728303926  0.1637701152780621  0.8330747025820738
  0.3250384592935794  0.4933206509937473  0.2426027585642471
  0.2459108093994137  0.8335520229623475  0.7417596597556992
  0.2465326332909666 -0.0063005962518737  0.5768719612302485
 -0.0078235991790159  0.1592841259759465  0.8290109064081043
  0.2454655640823564 -0.0029296988021079  0.9134120708641320
  0.1597218016588145  0.6621507916402436  0.1630274808663474
  0.1602661737215776  0.1613622479697791  0.1627583735593755
  0.2460940341110236  0.8310565108270106  0.5777628760852228
  0.2460008970972236  0.6664659320237699  0.2467431583652356
  0.2447284568416010  0.5764164938257832  0.8276784714738584
  0.2461001496180754  0.9111729285277496  0.4937984357330135
  0.1592065537628701 -0.0043138370742477  0.8278083732195323
  0.1616555190716435  0.8328331884705873  0.6611062753814198
  0.1585654484950360  0.7406020945632761  0.0809699709792255
  0.1600433327477651  0.9149376969053457  0.7429259115851110
  0.2454258654175383  0.7514817724536375 -0.0056281186026268
  0.5772323526207879  0.2426740773588181  0.4908339727998050
  0.4945959475166876  0.5787484068615784  0.4106757624030776
  0.3301917088875411  0.8311182624546910  0.6595076863826507
  0.0768963323657179 -0.0015685635130640  0.0828635195644235
  0.5804199764295499  0.4101893810489522 -0.0039249350732946
  0.2441151872570740  0.3252024745166012  0.7457579863560133
  0.0726309428021078  0.6605917038370839  0.0784797913447697
  0.2460860991822186  0.2457431045664074  0.4927306662087403
  0.2478627338806889  0.8285680366570852  0.2464352653651068
  0.2450901970141016  0.0807560072640375  0.1629000739564219
  0.9080031636098996  0.7452126271749667  0.6690641658364171
  0.3286685503186256  0.8300109133649157  0.1638560165243457
  0.1591096384685418  0.1598731952390521 -0.0031432427340836
  0.2457452524863600  0.2462170967270699  0.6618094386929326
  0.1627402363255369  0.7494191868138849  0.5794076064810773
  0.1558139423304712  0.0770195694951204  0.7463762170657900
  0.1635031531492324  0.6623361726066928  0.6527269831689513
  0.1637495412394919  0.7461597957902656  0.4089569164233244
  0.0715718560385725  0.6597133323252357  0.7456894037080024
  0.2470817683728836  0.7490201720239882  0.6591932984640798
  0.5800241665521618  0.5777358755690971  0.6623951737706290
  0.4123342168965207  0.5778556945504190  0.1614728088746993
  0.5734201104391308  0.5773767201867941  0.4921395582521668
  0.4968588221848424  0.5790670246824526  0.7451548647468920
  0.6608881160155757  0.5790809480484377  0.7463696529050123
 -0.0130266618549453  0.4933034384250076  0.8291692003984864
  0.4954081363705336  0.3259246197214796  0.6600917605468020
 -0.0107336396876149  0.4165893567592163  0.9136111194424024
  0.5812278329321042  0.4927835756068452  0.9131053668539080
  0.5795781669737718  0.5761322707162045  0.8293268414049464
  0.4993689439821618  0.6599829804739978 -0.0053940103545507
 -0.0114207182837269  0.5773273803581982  0.0793099325281473
 -0.0126841475768531  0.5764797796812781  0.9124383354315091
  0.6674958004465273  0.4945432003717517  0.1586012369216221
  0.4098058017470707  0.4941681982790858  0.4123245155634666
  0.2468932579416192  0.6635694848054432  0.4111834084938932
  0.5809817836314357  0.5823704429064205  0.1601923833937681
  0.5787708970052318  0.4938914014656758  0.4100327547181219
  0.1592230805864080  0.0768861939796483  0.9140421983192717
  0.1651999305422759  0.0792262733527808  0.4077999443597491
  0.0740837980719578  0.7448049631538349 -0.0040012734966554
  0.2448764616237958  0.9166376789672471 -0.0025190237362385
  0.1646497825087991  0.9138121517732201  0.2457510947816809
  0.2457890358609813  0.7463545864818738  0.1632829818641136
  0.1683628022741994  0.9106667441550794  0.4073999468801546
  0.2455136110323854  0.7468107630639503  0.4946969954639000
  0.2470827858006353  0.8276398478115182  0.4100579549686478
  0.2436028171225746  0.1614726581782178  0.0797114730146653
  0.1649329607164512  0.1628960016822811  0.6658781892301634
  0.1612959746301998  0.2523641910886723  0.5789870205642632
  0.2432814762754051  0.4091402675298959  0.1622714183260172
  0.1598183594531755  0.3257238464528631  0.1618361202159848
  0.2438803567590609  0.3247442018873905  0.2440722039050819
  0.0724557545019892  0.3279519425035182  0.5795133934164926
  0.2451993928487613  0.3246299526520772  0.4091074725110230
  0.1622090851163500  0.5783007438428229  0.4114951642783062
  0.5829773073482027  0.4945646669711893  0.5785170544702188
  0.1612036714702508  0.3260068915476321  0.6636558613282214
 -0.0122477569025283  0.6597163973885662  0.8272753112966934
  0.4145014244954856  0.4900414582358056  0.9131678317010512
  0.3271370296471769  0.3243493726937741  0.3279057124124470
  0.1615349863363258  0.0799863571407353  0.0809752971932436
  0.0761578407943216  0.8317163314876040  0.7435634903057802
  0.4140232311265692  0.4079553965050926  0.1560614763570847
 -0.0084274524007889  0.9142213173408953  0.7451833529104565
  0.0784462524905413  0.9164630298811839 -0.0017497590670558
  0.4119775445315232  0.4065277735441631  0.6597869631710936
  0.4129245007642889  0.4075905491071906  0.8314203609957981
  0.2432520581390861  0.4054138819806550  0.8291236863279632
  0.3289633155032637  0.3250657384807750  0.4925976249873184
  0.4115678572466375  0.3246906542261679  0.4095658053339269
  0.3289037925188143  0.3245211212653462  0.6592575498819531
  0.8232275061536343  0.8280632719387178 -0.0044843273955707
  0.4120343041619793  0.3261966042165456  0.7451040095407104
  0.0749864458476069  0.9154623646839976  0.8268046697517228
  0.3284985502481390  0.3255330218622229  0.8312066116721423
  0.4117739412356387  0.1683298164709056  0.4100151755038415
 -0.0093876026741746  0.8309110181253301  0.8202377531072418
  0.3295432528611513  0.4080753547204422  0.0787215200197817
  0.3308160732355114  0.4893595203787561 -0.0051309404574827
  0.2468008320602231  0.5769177215325814  0.4928750900911143
  0.3285697581263071  0.5782865205016606  0.4129458160075661
  0.3294534864499236  0.4924260745945795  0.3325413617044824
  0.4195567705894506  0.6602297976845606  0.0754587993526309
  0.4112158115809702  0.5774351012346988  0.4930069987890211
  0.4063623674492616  0.4931932079822055  0.5747937142783044
  0.4110537275777194  0.5782535580760703  0.3307027466264708
  0.2455215999283335  0.4028062952414397  0.6601610382373699
 -0.0058658718300829  0.9127582201407631  0.5827636848780973
  0.0784463365943967  0.8234810571254565  0.4010310582730316
  0.3312975441730001  0.5763166622698224  0.7461959026499855
  0.3289785920396937  0.4008665815547372  0.7452150115229121
  0.4121875694555491  0.5771272382263577  0.6599468898608057
  0.3287674458922031  0.5772964690469251  0.5743609957170658
  0.2469872243454010  0.4886357442678628  0.9105645708162099
  0.3297046274590703  0.4070371005410395  0.9138134236015601
  0.4980253440530674  0.5753641532248961  0.9111911903894819
  0.1589390032154585  0.5785286484407567  0.2451339192604833
  0.3318554753234901  0.3251563151044273 -0.0017116248750384
  0.1632776974412242  0.5808531852565691  0.5747866782231894
  0.1595456392047715  0.4076239402891031  0.2437192214059375
  0.2441258908019856  0.3252590178412362  0.9111139635602554
  0.1611291960809934  0.3258199128861801  0.3248087024598540
  0.4163017697375783  0.5763300731392307  0.8289875324626028
  0.3281901680059607  0.4914823466120056  0.4918530993496616
  0.4135645758973620  0.4928617279680569  0.0753467592282450
  0.1630328886390901  0.3259296520146487  0.4923122019858965
  0.1669691427213369  0.8275973740233523  0.3258508231348468
  0.1619206807543611  0.1624377362977221  0.3256353604477683
  0.5803485331639560  0.5796807552522806  0.3293279617571115
  0.3310528384477724 -0.0057033731604075  0.8287689254398060
  0.0738903840013028  0.4088508505421334  0.8293879799315660
  0.0748800491329596  0.3266506260980795  0.7484084267202036
  0.1625210097157024  0.6620068325909427  0.3289866941141409
  0.1573686768511395  0.4085693113298748  0.0805527133490259
  0.1593630324779286  0.2446823603959214  0.7471321028790303
  0.2441757737990927  0.5692242363381962 -0.0109126758513658
  0.1602152575541756  0.4014113164789329  0.5774299810365138
  0.2436253876212038  0.5748903436040782  0.1636947158690685
  0.2462504526497361  0.0798206619690107  0.4922719133850943
  0.1632715702847716  0.4917461519734013  0.3308139651011379
  0.1556524221930787  0.4907093367122768  0.0008043201294572
  0.2455041975178781  0.5779325274754580  0.3360844835350462
  0.8209554563328021  0.9136726579952370  0.4074589817299279
  0.2466117979903450  0.4068288404475189  0.4927478050865807
  0.3297212425738464  0.6621671805826489  0.3297914869717771
  0.2469314687702275  0.5808128506835907  0.6573575076369648
  0.2462268096122981  0.1634402163949470  0.4075217231441258
  0.1610405712232966  0.5724851015019103  0.7447227817197073
 -0.0098367268947290  0.2446891853131110  0.5799768147302578
  0.2483212005043097  0.7480319375736275  0.8252067312462839
  0.3278177535019046  0.6630233336396697  0.4942717959254953
  0.3309716299761867  0.5680835149163950  0.9107659511853499
  0.0758887268639749  0.2533326234015754  0.4946892817140798
  0.4982816159225714  0.2435653675939467  0.2439665518132056
  0.4967749894375020  0.5772968729272947  0.0755337351879266
  0.5811668194799396  0.7454338186569707 -0.0042887117892420
  0.9046592139017818  0.9128322669647270  0.1616390032192911
  0.4978580135896600  0.3254738681040585  0.1599619892049227
  0.4084738920707033  0.6625337102819054  0.5749710150318217
  0.3295710363254669  0.9112435387763330  0.5763199043294233
  0.2463013928364401  0.6639572594122869  0.5750693856940324
  0.4999972882857867  0.9113775430588616  0.4108509876883653
  0.3292624908116857  0.6632855399423593  0.6519792083675547