Cr  N Ni 
 1.0000000000000000
    21.1236799078543598    0.0000000000000000    0.0000000000000000
     0.0000000000000000   21.1236799078543598    0.0000000000000000
     0.0000000000000000    0.0000000000000000   21.1236799078543598
 Cr  N   Ni 
 259  52 605
Direct
  0.2459747119418730  0.8350352529284417  0.2497545927774689
  0.3296798017630917  0.9056063801893450  0.5848294300790462
  0.3313900130534612  0.0730280186119375  0.9145014894837636
  0.7497586483271136  0.4997121989038636  0.2529572176911081
  0.6590675062538907  0.2525088081672680  0.9178508143548068
  0.4096665422347741  0.9150692412160966  0.1698420566847645
  0.4151193037822928  0.0009794045066380  0.2390339073195765
  0.9150550002323274  0.4972491970039359  0.7571331809471064
  0.4220831210329015  0.0015129294856202  0.5912340387172185
  0.9966590947531242  0.0827091544396365  0.4146575624813179
  0.5065056379056010  0.0865276362334189  0.4125345374421070
  0.8333577095346694  0.6706263282295549  0.4981599624688131
  0.6671016864787465  0.0841303614471773  0.4154105979845412
  0.8250276493511056  0.4997386329124943  0.6683358481571853
  0.5838949835670380  0.3340275983326044  0.0850557953553276
  0.0019302016167337  0.5024440499309758  0.6686869848384460
  0.0800835473679709  0.6690447058508424  0.4162914588059953
  0.8362687707964437  0.2500942820303241  0.9167833937595785
  0.8265097212458320  0.5831070479953417  0.2532139315361097
  0.9996326025949094  0.3251393246381635  0.6663290065859309
  0.4992198098515171  0.9164840612796429  0.9155918950762553
  0.2404719075132161  0.1721380085082720  0.5812953834463522
  0.5035109415240794  0.1789612264462396  0.4994592291012927
  0.7493288924722712  0.2502061726531469  0.1670561050038474
  0.6683127176545476  0.2496862759720972  0.4157919540725555
  0.4982481654184848  0.6680497325090243  0.6672332256393176
  0.8385103399519144  0.0829718423949166  0.9152690442039063
  0.3312826990090164  0.7522359763949468  0.7515539933282817
  0.5015953067702662  0.0032610881684139  0.1686767298544276
  0.9971428102227928  0.6676631758042321  0.0029066634155332
  0.9149877346119827  0.0832503000327713  0.3334055441047798
  0.5932147808820737  0.1654933199667382  0.9166462042618123
  0.5828828990855479  0.9981323991378050  0.9160057568014532
  0.2545061385453830  0.8336670446746001  0.0845456814293598
  0.5844868956489162  0.9998295201584541  0.5845876105947776
  0.6689182888858454  0.4149789041200230  0.2502270519279954
  0.4151356947679998  0.9085341197767266  0.3326679269460983
  0.5862168139511461  0.9149930795447002  0.3350024805521891
  0.5030016632530669  0.5854643637127448  0.2571123357934105
  0.4977060172259882  0.5831562859460034  0.0803141454996554
  0.1627668359127272  0.2465105093026006  0.7510671312803098
  0.9974930561092105  0.1641314132651369  0.8314035692217706
  0.5888953887624853  0.3356627320703361  0.9176165864812750
  0.4156759481401814  0.9181308513284154  0.8305949899527495
  0.7486361696585123  0.2522411892629496  0.0054161010299019
  0.4147890234135180  0.7514526339936920  0.9987720987634556
  0.2490666930278929  0.8355601902154768  0.9085679355794017
  0.6664167702502647  0.4161531064707530  0.4167532736950340
  0.6666875526625708  0.4119599300405211  0.5822801437301394
  0.4147436963954598  0.5850549945809373  0.3432124286829479
  0.8259382509088058  0.3290041454716799  0.4979807199771565
  0.6666489417967238  0.2489205788023728  0.7489164305998433
  0.8223453199485130  0.3307188085653391  0.6661803191779940
  0.0860865810388781  0.5849833360570584  0.8354829028468745
  0.4113068801529991  0.8314405332274338  0.5858838505779704
  0.5847773226695996  0.7496146276807112  0.3357900348284190
  0.3364341100522080  0.5857773358102354  0.7547374425236610
  0.9154764021481610  0.5838589278439366  0.1629540068009423
  0.7518018322598481  0.6749447432189574  0.9166137513611848
  0.4125482036758576  0.4143008434293777  0.1658783296921084
  0.4273996911455501  0.5850949607805881  0.6643268727071217
  0.2578343571988003  0.4132881183846022  0.6651109780780066
  0.1529964633328728  0.0814293142804240  0.5824593016812666
  0.7491115937683082  0.1746396747601762  0.2504966891384497
  0.6665385452158161  0.9147287050478814  0.0825635803760058
  0.9205107311305334  0.5000362053169216  0.5774462639052720
  0.8384973698240553  0.9156613481060289  0.9160092987902293
  0.9984215428408193  0.6736651480056551  0.6693110903046959
  0.7515322693201709  0.8318785249410332  0.0834025403142327
  0.8318877634173698  0.7509513398513026  0.4188996887241267
  0.0805640435334223  0.9160548248226117  0.4986212667176519
  0.7521136209995418  0.8223394572443889  0.9181494634642163
  0.3257890641691183  0.0823174607818453  0.4096121140736912
  0.0809223694978930  0.9169545999427343  0.3329266218232154
  0.9959243917855173  0.9957833575599823  0.0008769462850764
  0.9144103495746512  0.3319599504407688  0.7573775069816815
  0.1605455452159879  0.0824986720039911  0.4126301851195456
  0.9980169953591910  0.6704535151500651  0.4918964429541134
  0.0864892358705786  0.6730018996853223  0.5798163802935339
  0.7490379021370044  0.9143088561569820  0.0078240388335723
  0.0846777218537748  0.0815060724974257  0.0001499122141331
  0.9146380104801756  0.5838308262729360  0.3380388702350133
  0.9989153493238546  0.0820709236541272  0.5827683715954503
  0.0022790978909174  0.3312942621517447  0.4983611846095177
  0.6646585401274120  0.6693494152494579  0.3336011276877173
  0.2476927634241324  0.4944071543404632  0.4066766220487660
  0.8308704860238559  0.4995315426268011  0.4893647030451104
  0.3308104915006175  0.9980942122043510  0.6777582061339860
  0.1639455959695430  0.3324889923152295  0.1735297732203945
  0.3320632827198171  0.7544937162051645  0.5820482770501211
  0.0798708456986645  0.1669804749011397  0.2505657630559169
  0.9984272926544767  0.4139951030360755  0.5763574572909107
  0.1588319871969577  0.2462560626242942  0.9162714121913519
  0.1667174119249026  0.3330314981084271  0.9977973703863144
  0.1597866735218621  0.4982988887467251  0.4973568530580816
  0.1639000767091500  0.9257801027731252  0.0858384276470950
  0.9890510308570343  0.3301804993225132  0.0014431435428422
  0.9096926030947322  0.6717077674555840  0.5807184167060233
  0.9888250875727757  0.8349142257309042  0.0014634693932957
  0.9974878326488006  0.6753578286406978  0.8329369568071884
  0.7496403063649005  0.8250738536015659  0.2521107891774535
  0.9969640152255709  0.4151034993922247  0.0891725571012752
  0.3270521730946330  0.9936793227021729  0.4952326431077978
  0.3316139454053389  0.0847216992799631  0.5893810181182514
  0.8418458117271497  0.5849403263383975  0.9171302074995585
  0.9956328706184391  0.1712944436860339  0.0009874888464755
  0.9152898609271897  0.9163414561292429  0.1695662800099131
  0.9147442735088954  0.9989435508600739  0.2523748160120827
  0.2470309828379738  0.0817277860547809  0.0021996770262391
  0.9989778274457934  0.4987358563860010  0.4971621922599397
  0.4187573160249534  0.1640516640480159  0.9159406737057345
  0.8300319590989069  0.4985367580401351  0.3332888227501004
  0.8323141517132709  0.0822803773016468  0.7478118030723572
  0.1679994475139924  0.5017097721556280  0.0025313730466074
  0.8326012062562625  0.7515235721033429  0.2519195163045278
  0.2484107913833138  0.0028377682209315  0.9149490727567173
  0.0751340049069334  0.8345261955849151  0.0867897198343533
  0.9981054013780553  0.5057884866106190  0.0019255867947482
  0.0799691697073699  0.9996912194832424  0.0852558408799400
  0.9973609107637318  0.4972633604962847  0.8323380593052705
  0.9983569015427445  0.0822906696252641  0.0908841024698949
  0.0042293003436143  0.5834838293574151  0.2511240347759344
  0.9976292635276012  0.4138986597975246  0.7570666388563134
  0.9151071018761476  0.3305687873335009  0.5814926719327436
  0.9139439888959200  0.9178468761231899  0.6651928963247037
  0.9155936937280756  0.7516541532715149  0.8317227601052339
  0.1624044474308587  0.3316969650973444  0.4970126862521765
  0.1659362819954381  0.4146256617454326  0.7557562914206436
  0.4990629652466492  0.6675583508554576  0.3358267951993547
  0.4134081021750023  0.6715540798613109  0.2538786709157092
  0.5023973641399698  0.4152111425689632  0.7494454204625209
  0.2438482002314412  0.1579023127932967  0.9171747119261947
  0.4118047569395147  0.5827938900962348  0.1675129719829062
  0.9972009018354585  0.9988235263781600  0.8308793357277686
  0.7506293818926453  0.6686282273123758  0.0840903672903183
  0.4179329224807848  0.3308276058822716  0.5830111656531206
  0.4135630373498691  0.4921450800312464  0.2490563772592209
  0.4989281024832823  0.4247220646451609  0.9168090903921389
  0.3363840613196673  0.2510373376997933  0.9180181225371111
  0.2463375477622718  0.3358721779523963  0.9186431740958986
  0.7458863242053128  0.5000951247327072  0.5797704503841566
  0.2459346670475997  0.6697273045236630  0.0835222803309838
  0.4181204734152995  0.3286927285146228  0.7499376021324934
  0.3326072898616514  0.1671211363704102  0.6781775618977377
  0.2475815121191856  0.4063427767816504  0.4983307160083387
  0.6611873137258345  0.9157277598699518  0.9154563497155381
  0.1631606078601220  0.8362849654155560  0.9971289779653784
  0.6675596630258684  0.9158449742388165  0.7468152257904114
  0.6664565994526752  0.8334480764795740  0.5009581525868332
  0.2520535792323762  0.5845469984096943  0.6661248213165547
  0.9135357905796747  0.9179301210185696  0.3336347915710501
  0.9152413517860585  0.3308860806748173  0.4056808017026036
  0.0812673366606190  0.5832066919346910  0.1680811380450150
  0.9145845018418640  0.3317177643482793  0.0868495015159086
  0.7486951583377909  0.1649411796492121  0.5825205706630104
  0.0795553385154384  0.6674362943154246  0.0842003981393549
  0.4211724519121516  0.1761130313974426  0.4147568499341022
  0.7479502893755366  0.2486357950757839  0.8273611094495729
  0.7516726457847248  0.4181722921396366  0.0025855940199511
  0.9121690298384453  0.4148476707214749  0.6669489321431574
  0.3323374137935102  0.3309682120385432  0.3301983525575229
  0.9983420116862249  0.4153583970817414  0.2503200255484011
  0.3268044762027866  0.4165409612205280  0.7517692497176075
  0.4167729097916805  0.0856001868709996  0.5009149382050370
  0.5071553642016186  0.0005782216466479  0.4990175448481923
  0.6609732178725246  0.9148252047647195  0.2520593804567775
  0.6662765371094602  0.9166957063262887  0.4176612659015483
  0.5007706153282848  0.0832759990380656  0.5904006090537324
  0.1643888713275992  0.8347644349299714  0.1765100318682876
  0.2457902425463101  0.0832963152349689  0.1685210442829617
  0.5001034845282547  0.2518039377022574  0.2460182194505493
  0.5002912483391474  0.0832307719274403  0.0845311002379005
  0.7488752580525289  0.9171170538845370  0.6657073997350402
  0.3322957522155180  0.1677512805928053  0.3227903207900993
  0.3321394281454904  0.1725191510021806  0.4995991094417918
  0.3324630090292547  0.9177041626986105  0.0861907061983231
  0.9141563116688123  0.9173106295558959  0.4999637002720975
  0.5004256182186825  0.8323741927785977  0.6720501588341641
  0.4899838618748560  0.5828193739991645  0.9157472835186234
  0.3272733728402289  0.4995255892416054  0.9997916990766019
  0.2458148868143953  0.4974186679365292  0.2511061858897113
  0.7500701088964519  0.4952621625764434  0.9171368913109482
  0.2468235540327653  0.5003081543495385  0.0832576106005877
  0.7511414853215770  0.7506891890030998  0.0020734426737858
  0.7500932014939979  0.6702744588334779  0.7464442715063881
  0.7490312111491317  0.5003879940954757  0.7486885653669988
  0.7507505145258798  0.5848108391859420  0.0060540083031810
  0.6671666796476623  0.5851422556556487  0.9159204778740035
  0.2466628363875786  0.0012625669217913  0.2492080684215802
  0.2530591222429210  0.3311041857333423  0.0865956524024889
  0.4171672562409063  0.9948251417282957  0.4142435516916655
  0.5023814799056276  0.0840953335285396  0.7484543925436535
  0.3330224194928390  0.2606807452079167  0.5824128038979854
  0.2455757545489923  0.9979230109880470  0.7490854173329233
  0.0836674875694886  0.3296459297342396  0.9117202947985652
  0.9985985945039100  0.1627468413108958  0.6658283164793166
  0.5817069361926261  0.6745027405681826  0.0825989577725229
  0.5039799605108065  0.3329868189293278  0.6682266314362015
  0.3364664292932624  0.6694511768776288  0.3366076866070553
  0.5811217221415697  0.7507231476252680  0.0041281564179960
  0.2466075859941160  0.5848985772308800  0.4909459862071250
  0.5838502990961288  0.5832517471735820  0.9981965718024930
  0.5841211574816045  0.7505429622239821  0.8259862564434797
  0.6762003126228174  0.5843145211654537  0.0826364303453086
  0.5829999885073561  0.4898828710128231  0.9171154997924011
  0.4150153101031741  0.5829496496418169  0.8345313924049974
  0.7477389970804503  0.0828580522806835  0.1604475853281810
  0.4993418844144394  0.8266922443579389  0.1681561980816016
  0.4166494814600849  0.0875124002600165  0.3235260735165123
  0.5904408593433218  0.5840912467385948  0.1728234585653421
  0.4995724374609478  0.3321134519229824  0.0076783969103537
  0.4997284846312454  0.4091100509081147  0.2479401834560242
  0.4999373491645124  0.0727833432147550  0.9156438397843586
  0.7491898162134166  0.0005084923055161  0.2515982101968188
  0.5014517909589734  0.2482806504434261  0.9179769618662080
  0.3323225277727094  0.1610728925945309  0.0065695558610125
  0.4093238316342663  0.3319354220017095  0.9169663947732504
  0.5020985260677876  0.3319137197351851  0.8263320872086505
  0.5014083232359156  0.8333374160378308  0.4956512847671357
  0.6674329492352922  0.0819691645128412  0.7474876296840379
  0.9148822098771011  0.2387384358437584  0.4992777101836808
  0.5811740222325281  0.6667087149625224  0.9160439821191606
  0.5025183252669820  0.2515033140738325  0.4151545119302482
  0.5897355918124411  0.8328879670855013  0.5832339114543296
  0.5848259968065861  0.5844120599525195  0.8227227731050836
  0.4992634215513592  0.1651091058900349  0.0094789355454377
  0.4889960368956769  0.7510239485934999  0.9152603007330542
  0.1611258669018721  0.5860321645215891  0.7552785133739052
  0.4995423142616753  0.4147440271577070  0.4172977134185383
  0.1611185133606218  0.6772966029692777  0.6644408982145340
  0.8381705085207199  0.9174890501817886  0.2509423015482149
  0.6660669282268359  0.6663487270602175  0.5001316169140929
  0.7500308915451042  0.9979360538507009  0.0843370201396894
  0.1653825761687541  0.8352185206046074  0.8342112298934796
  0.5718065945680179  0.5004694420962162  0.5813070379898017
  0.2482876197205459  0.7433708268455639  0.9998264921816866
  0.5842293923438447  0.0855342206981132  0.3333693790126415
  0.8307739423663514  0.6715121330389114  0.6660210822811397
  0.4969801154556664  0.9161686807643469  0.0787617446877554
  0.2453179174012685  0.8342428811145918  0.4148179684527858
  0.6660922431811057  0.0831606209455022  0.0866189267582834
  0.9079133083633474  0.0835296224771789  0.0002626145502140
  0.2401215881274049  0.9948087339914464  0.5854817220932335
  0.1659130675010776  0.7446907238372689  0.0847684517518569
  0.9154718835734171  0.0828974088044546  0.1673075587007774
  0.1579668805407930  0.6676657863585236  0.3342006860178351
  0.7498107350904603  0.9968265627301981  0.9156877466933552
  0.9096926602184544  0.5860496277703123  0.8309448391533133
  0.7476862202770560  0.5011232006615597  0.4158923197240640
  0.3394567613229533  0.5836924192854911  0.5764422179638155
  0.6651208919512074  0.4994457051998393  0.4907835923537602
  0.6657803009002335  0.5905319316459641  0.5835074151482875
  0.5805430024582088  0.8421972272014865  0.9148105688362622
  0.1628290022416264  0.5851742279128862  0.9188332035949026
  0.0765823718836172  0.3318407364188453  0.0881819525549683
  0.9988612845116351  0.7510307860951763  0.2516864817590084
  0.2471666126246357  0.6675811149540680  0.2464987767869022
  0.1604648553834796  0.5852252320242725  0.5770971249339004
  0.2476493652036726  0.6699091290320310  0.4216098550453726
  0.2502933315723867  0.5899348937549962  0.5771969069999070
  0.1609915574653632  0.5886067911256107  0.6666233279364338
  0.9141518655236256  0.5056411580565741  0.6689875542488753
  0.7471283356497948  0.0881862613938174  0.2494650371481493
  0.5078930440461693  0.0912120053513565  0.5028146200755581
  0.2462832558562014  0.2485801711064027  0.9162090512504466
  0.4142792068264102  0.4166821075749952  0.7481707944958953
  0.9984748355120205  0.6712354692328879  0.5810169952971391
  0.4992345811680275  0.3368082674137698  0.9171421614316777
  0.9152658749029714  0.5835161162956508  0.2502618751796604
  0.0744624007430023  0.8340996903460793  0.9964840401564403
  0.4175454429463449  0.0863976933235230  0.4103208307177498
  0.1648705986703075  0.8355850159872457  0.0885665893437605
  0.5017103562140877  0.5871041323824335  0.1686175143861828
  0.1721623887433109  0.4133173000684733  0.6678710742792273
  0.7478301952875624  0.2534685199173901  0.9160612150313329
  0.5008735801949347  0.8320966253148497  0.5836481521068531
  0.2472232520354042  0.6665982046967441  0.3339020594384999
  0.2530982639320268  0.8324958123830413  0.9955255876777631
  0.3269948715275628  0.1734160218398090  0.4094776028742060
  0.4989958862032506  0.9148183919122503  0.1661534696964529
  0.2489005239985672  0.5866160179529586  0.7576840374137791
  0.9963092479831012  0.0836544853847769  0.9992722603467031
  0.3325914264314310  0.1748407946721338  0.5908704441269262
  0.9975858727389855  0.5865768269314641  0.8355477715225316
  0.1664073892135483  0.3305036548538504  0.0881105875510513
  0.2491452195759090  0.4940325995012902  0.4935978699260481
  0.3415350925035483  0.5859141865409462  0.6659842562230391
  0.5786895021419963  0.7545291041118127  0.9145430264618890
  0.7513286846137581  0.0821705059634516  0.9181047691991411
  0.9944233284445000  0.4195991516465341  0.0005300917454022
  0.5033592016650803  0.4945804325678830  0.2549624451814116
  0.3307386800637093  0.9929016255669950  0.5893340380520853
  0.4153954902137680  0.9960827746265883  0.3251956136338997
  0.8322947778202294  0.5002893756677909  0.5770226819013873
  0.2391270807725101  0.0835892756231471  0.5860565610490264
  0.5070054753927297  0.1599046303623583  0.9190424119704100
  0.4096003552010684  0.5846776300941441  0.0798177442155937
  0.7492640619036377  0.9122337528657999  0.2522157563156169
  0.3318789140370867  0.1606674809466545  0.9152374696734199
  0.4189317388219956  0.9924372937988264  0.5035891598681440
  0.5778008271962981  0.5773953280542217  0.9092050427817024
  0.6574067515389249  0.5012488734039672  0.5818638458507556
  0.7548159844371033  0.5850889211628529  0.9150731291018384
  0.3252780638374655  0.0832818544807183  0.4987026005088759
  0.0025544579231349  0.4137973763687858  0.6668431814692686
  0.5889218523496413  0.5836694260287995  0.0847007594440915
  0.9097550362808898  0.3233432921887860  0.6704164398879524
  0.0777987352153041  0.3306209029429695  0.9989574070772450
  0.7502951207817893  0.9083232701641512  0.9163871383609296
  0.4102125934726660  0.5824458105420992  0.2569762616041615
  0.9139721552474267  0.3281164547661204  0.4926601093285018
  0.9976685957184616  0.2466999834013641  0.7506985830384428
  0.9127937977490561  0.4151784252467632  0.8355844208621929
  0.0829056347966799  0.4996043719252184  0.7532006605943204
  0.0818017771293371  0.5839394159162915  0.0020973340621276
  0.0750736037432604  0.5868462668312089  0.6657594719387271
  0.9982989551338451  0.4999063400566099  0.1679304147256808
  0.9985563129364941  0.4988445477602149  0.3320485064855362
  0.1645516232022227  0.5002368138001136  0.1680184254353499
  0.0807401593003403  0.5843108011786571  0.4964021939576963
  0.9989070829780502  0.5833074243525204  0.4156365082205183
  0.9967049335618239  0.5854980578957439  0.9237762632295257
  0.8310623599982793  0.4994309881615271  0.8324964353623152
  0.0809575961876592  0.5830225879553030  0.3337552934095833
  0.0809482876069625  0.4983140387593346  0.4147376039163233
  0.9986777975313088  0.6670843144210438  0.1679422266267758
  0.0828975648865045  0.4155468209346447  0.8351158448552634
  0.9975799386271196  0.9994854292455714  0.1698065240839416
  0.1641186167798714  0.6696679562334189  0.8350443746794407
  0.1631381984418086  0.6667375733805642  0.1685476373263936
  0.9975369762499512  0.7500756424745499  0.0858504943438184
  0.0801018104489723  0.6674571506094835  0.2506143264310706
  0.0815170026940870  0.5021524406240477  0.0855183881612684
  0.0802943205721749  0.6684944962871042  0.9181983610216833
  0.9162832476266285  0.8336442958453509  0.0865254538353282
  0.9969491153846081  0.9182347073144529  0.0856707491683766
  0.9973207313938461  0.9179659415523201  0.4161822939148503
  0.0793643797411520  0.8351760710641309  0.9099071385572042
  0.0794940695749830  0.8366398613131368  0.4148779358963893
  0.0793288819737200  0.8347450523207165  0.2511372766222748
  0.1648891818840528  0.5853315393745424  0.0843451441382016
  0.9150571008742459  0.7511871652940967  0.3344722353932831
  0.0803914389421320  0.2468101829250441  0.8320712969997457
  0.0808192301096820  0.7521642015417420  0.3329269234016857
  0.0801880738040843  0.7497613631156202  0.1682932429089460
  0.0805920155736432  0.2490111632089027  0.3313949485147074
  0.5839350456049452  0.3328971750276775  0.2491777954215950
  0.5836278780260095  0.8339660807064273  0.7487970258999390
  0.4992628011282589  0.2498956648562813  0.0847803100439297
  0.9989825408044747  0.5814833613083278  0.5787329446742837
  0.5830528265890857  0.1695316450978727  0.2488618741528084
  0.4163299349053352  0.2504495839293915  0.1658391558191946
  0.5017426098698415  0.1699850078894187  0.3300977182846141
  0.5840604243663519  0.0001650249272279  0.2507211059138545
  0.4188351663563481  0.3318815280274254  0.4148660963429810
  0.5055178839974254  0.9994335045450022  0.3322544906065872
  0.6650370804626131  0.9977860693094840  0.1663678285931663
  0.4157289914774641  0.9194606811091217  0.0005918090410717
  0.4140424723942572  0.8334618763078379  0.0833516296966746
  0.4167456906671195  0.9986542740409883  0.9162756896859785
  0.3304327295894235  0.8325056481594139  0.1684889331138879
  0.4153959772333710  0.8309022799738192  0.2509891959233150
  0.3299447472087481  0.9152723798762795  0.2505153842875334
  0.3295870833111907  0.8336623871275922  0.3326932928523466
  0.3283079013852782  0.9140563208088081  0.4139954185009487
  0.5848825491171319  0.0808852610261242  0.8313705992631112
  0.5823134977392631  0.6670860729580157  0.5827406830540148
  0.0796020494491749  0.9177924189989992  0.1688180208914052
  0.2482590254953849  0.9219634733907529  0.9989989936104919
  0.5839382433336645  0.1666155906142125  0.0848173204163268
  0.5025315341395022  0.9148705383389664  0.4163074714630719
  0.6603898913127820  0.0844749011643481  0.2488607709590805
  0.5856515061323790  0.9996470465426559  0.4154408359587419
  0.5024476213134477  0.0855846854234498  0.2486106839319862
  0.6675171660506833  0.9999408753553208  0.6663943545963855
  0.5024042424544346  0.9993909831349168  0.6693323957910599
  0.0810432018407732  0.7463521214734539  0.0005978916620887
  0.9160336602664889  0.8339044073569757  0.9147284631266221
  0.0805563441859707  0.9224597216226509  0.9988407047356738
  0.4173951829381908  0.0846272466125954  0.6705634461202853
  0.5848588963432542  0.0002854041002587  0.7485844952921110
  0.5852778199693069  0.0832219723281427  0.6662860090258953
  0.4998288781646925  0.9998204750252593  0.0021010941785016
  0.9973259410794681  0.7535996725876463  0.7484940222287338
  0.9973294995230269  0.1660742902466201  0.1684997205169300
  0.3287321652537610  0.4983722195091044  0.1673458036778988
  0.0803857085645841  0.0820781308175528  0.4976461705568538
  0.1617556340711021  0.2513562984843872  0.4131446104092771
  0.8317640283055769  0.7533047451309588  0.5815568940870776
  0.1650599330895195  0.2425227208343517  0.0849943089252962
  0.0798902906535995  0.1659254463562336  0.5826852897513863
  0.0805821928696082  0.7551250089426957  0.6668536383334830
  0.0795248881414846  0.1643171544642607  0.7494632208371367
  0.9987806999055685  0.2462358788067258  0.5815028746281866
  0.9149159371930008  0.2472293452848541  0.8326236777221453
  0.0815309009206025  0.3297147100069309  0.7528054340728392
  0.9968215207967386  0.3321193921833544  0.1691933692580804
  0.0802970855125336  0.2467089555694699  0.6669347359106371
  0.0827039648455538  0.5016311538346008  0.9178353152437805
  0.0797563268861267  0.1641305481683314  0.9153282444447859
  0.9150542201532960  0.4164490593339767  0.3328442607715962
  0.9963898120113093  0.2486064360462813  0.0860072714155171
  0.2457538458880842  0.2506596541472451  0.3305211295617883
  0.2466561583602224  0.5780914642403300  0.3346627943269805
  0.2484340698121238  0.4155373689402495  0.8353038758477817
  0.1631336923797516  0.5828390520288312  0.2506834598955590
  0.4135388909867879  0.4165025665415685  0.8377772175369984
  0.2447981896762157  0.5829739490937929  0.1682533780803089
  0.2481833090368180  0.3314327984723986  0.2500964543173296
  0.4183842334722057  0.4125928437436717  0.4984853277497985
  0.2476863343849767  0.4164539181533457  0.1682606697211015
  0.1641997508868242  0.3252944814505626  0.6680221217624270
  0.1629194636153685  0.4132683686167877  0.5780975624460704
  0.2485990602944667  0.3317134903183062  0.7511785474440451
  0.3373537017840045  0.4964770998931554  0.4992076975583984
  0.9145375119046089  0.0817785005201029  0.8312110019376959
  0.2500576036643709  0.4947867622049741  0.5840724963123870
  0.1654538143342906  0.4173261005692642  0.9176396225568971
  0.1656729140606039  0.3314150736455256  0.8330231240322847
  0.1653580090573099  0.4205585193410008  0.0858052377512259
  0.0786275290989302  0.9990691056366655  0.7496803204767529
  0.3237682684231588  0.5843321906136831  0.0852024443909595
  0.0801876885567806  0.4166654766681411  0.1681297976842101
  0.0804935190874888  0.3318989617921606  0.4138173119484798
  0.9962940847964423  0.0824390205652542  0.9109659695175433
  0.9969972544755301  0.2473126497359611  0.9152050205482961
  0.1624365495681416  0.1634711047768564  0.8320863146369700
  0.4162859525107639  0.8325647324964595  0.4157826895947024
  0.9137600521544335  0.1667165437790728  0.0855667842678067
  0.4163287153151899  0.0803472679842092  0.0026391645150112
  0.0802485289067870  0.1642548001985997  0.0855582707506291
  0.3334085011821779  0.7511883783572745  0.9157828472928312
  0.0791932231920339  0.0816235713936777  0.8314879177631148
  0.9981484630474237  0.4166561111641207  0.9129999239300406
  0.2498149161031365  0.2464730056342000  0.0051865862320456
  0.0810215303597413  0.7539185973956580  0.4970385242773905
  0.9982964833756379  0.7535125503235450  0.4157102923577705
  0.0801668605260689  0.0817100031029195  0.6672108865379438
  0.9983229793070229  0.5876183307124240  0.7462714247976296
  0.0799620715425411  0.9180553271432628  0.8323254837276843
  0.9984694105938337  0.3318698289660603  0.3310007075164880
  0.9969973178217572  0.0819531816769890  0.7489395223328507
  0.9965157904638040  0.9170262279501254  0.5817724964207395
  0.7476198766300888  0.4152293715583092  0.6663640639985390
  0.0808528798276672  0.3296232936939074  0.5811326948067246
  0.8322937502253505  0.4155016652503282  0.0863021442281003
  0.9992127891190237  0.1633127000901239  0.4984815377278761
  0.9988866460148743  0.4149791152904834  0.4144176149692435
  0.0794879952351480  0.2483162901978596  0.1683451958796039
  0.0789473594830173  0.9974901798149278  0.5824339176442327
  0.9144346826442642  0.9172773585161049  0.0012652013528181
  0.0807697752847186  0.4147177856945781  0.3314926281290029
  0.0796828572396523  0.9997683626130087  0.2517897335148621
  0.0806084050673922  0.4997803003909278  0.5795249098473088
  0.9973904285257268  0.9998637193919393  0.3335472273190980
  0.9980566229477504  0.2475540558705051  0.4140646142909692
  0.9976692258271221  0.9993417286176774  0.4989252678141748
  0.9149980270264712  0.9999571148669030  0.5821008761546960
  0.0814561094866442  0.4145337092339717  0.4964581661405725
  0.1631409001031341  0.4985241244887988  0.3316692642251809
  0.5014952807594585  0.9132250675347767  0.2547062536233839
  0.4127369122973949  0.4986699065657239  0.9170051630115967
  0.3312268088770818  0.3326275973091742  0.0019519229971920
  0.4972934983189525  0.4979276352630082  0.0010302444022727
  0.1631484709865293  0.8355920849207585  0.4977431106610197
  0.2479757014549300  0.9183976364622882  0.8323801320836121
  0.5855756549361354  0.1704052270203895  0.4146199085050953
  0.3309680184239784  0.0818767712335293  0.0864690309240049
  0.4989153599071244  0.4985656275328906  0.3412680263221683
  0.3258603720225639  0.9992150968485767  0.3312067609572621
  0.5820272195745513  0.4143930749205069  0.4980462875089873
  0.2460769851748040  0.0826607153932557  0.6737465532419322
  0.4983515449322682  0.5841468730859429  0.7512288145147091
  0.3287022080377100  0.4164336727368864  0.0838371283919046
  0.4992752293646539  0.5862782357661811  0.5794478041364458
  0.4199646972232687  0.4984336232193484  0.5800181423856122
  0.4188244873940807  0.2506338934284335  0.6679332695370019
  0.3344786451263609  0.4957974297104479  0.6646328564448636
  0.4998951367831880  0.7447215128131131  0.5829698433424880
  0.4198301402458278  0.1669633647167660  0.7502169655755719
  0.2473240676513263  0.8332056169680755  0.7525095386544753
  0.1631661736958885  0.8347403625050963  0.6673311287701169
  0.3311510590017402  0.2601542717269499  0.4132940014790242
  0.1629727666193047  0.9161572720610566  0.7516251888216908
  0.2363845783874800  0.0826676504663795  0.4937248640440902
  0.3323558116395998  0.0816132253036342  0.7512218779903364
  0.4164557062864374  0.0851435847277424  0.1666764885513839