Cr  N Ni 
 1.0000000000000000
    21.1236799078543598    0.0000000000000000    0.0000000000000000
     0.0000000000000000   21.1236799078543598    0.0000000000000000
     0.0000000000000000    0.0000000000000000   21.1236799078543598
 Cr  N   Ni 
 259  52 605
Direct
  0.2468507684459955  0.8346019353534005  0.2591385955727871
  0.9137159909383801  0.4958237113615160  0.7575536245707434
  0.5927315021207514  0.0823310452920231  0.5028190255482182
  0.9162892311176625  0.0818954139760246  0.4980096058078466
  0.5844797608084114  0.3331935659013319  0.0855542325101123
  0.8320947037458598  0.5901182178917129  0.4124236821544829
  0.3313248459578005  0.0740134542856550  0.9153969205148895
  0.8188138673520235  0.4998337614970152  0.6664660579458551
  0.6595473221355858  0.2510112200803126  0.9177599745281194
  0.9988331011670408  0.4997110955636432  0.6676980916969426
  0.4145728473421590  0.0009693799140608  0.2392177929704737
  0.0830649621881506  0.6700168447491930  0.4142887225250719
  0.4150682392269140  0.9999519193724408  0.5910803885973012
  0.8328643082254051  0.5848780995744267  0.2538067636641643
  0.5072373070162109  0.0863229395314152  0.4116256818484779
  0.4972421107333378  0.0022061103705197  0.0040575906954424
  0.5002446788840569  0.1786160118627939  0.4990492433086751
  0.3300250489063896  0.7505835312941155  0.7511012987606080
  0.7483176939043704  0.2427941129820597  0.5006033814041218
  0.9179109907587581  0.7482287778522807  0.0025100155896881
  0.8334091937861081  0.0822889166655682  0.9145386644520528
  0.8359639395904269  0.2480364630750969  0.9172204188492095
  0.5010894171921043  0.0031218457629184  0.1689276646410186
  0.9996878048076838  0.3239817472190439  0.6666867735008546
  0.5931580872793618  0.1641040584173367  0.9168901780482764
  0.2367287686321210  0.1679373679026101  0.5845647317834511
  0.8326837643041002  0.3300336872265842  0.3314753735172361
  0.7498394083766229  0.2505533747488392  0.1670325434792925
  0.3286216534631234  0.9061896755565330  0.5841996013081199
  0.5014134556405814  0.5842187225143406  0.7498673111323535
  0.4097996802610619  0.9172033199880348  0.1697485350550789
  0.7483474829159982  0.4985269836738575  0.2518473047419207
  0.5842471259942851  0.0091350336045915  0.9171988303391334
  0.2491746026504985  0.8319235178287161  0.9066418120453479
  0.6634091005579709  0.4112397239725031  0.5841818328404652
  0.5044980038406636  0.5855353089699296  0.4153631511013725
  0.6675179751702730  0.2478933831311405  0.7505884905725752
  0.8234576801697523  0.3304674976973570  0.6674448363180938
  0.4094020560466839  0.8305821624893253  0.5845618749557789
  0.5847145736104888  0.7502178434340886  0.3345822103591272
  0.9158318745114763  0.5833684402685561  0.1722005688424963
  0.7523465863397195  0.6746355896949922  0.9161864600344208
  0.4157108406575173  0.5072291395197278  0.7504176477202963
  0.3287970276291079  0.4097841964680596  0.5827674858999493
  0.8371618523754079  0.3292044315918020  0.4973398827382339
  0.2511693001671682  0.8317902887184389  0.0842139797738909
  0.7500873565437873  0.0826732429931649  0.3404252081670066
  0.4135325316786904  0.6710831449851962  0.2528970715038278
  0.5825840406168441  0.3313859903523618  0.2487804573348558
  0.5909079408315091  0.0013147083189006  0.5830540859411207
  0.7492761326395478  0.2497746153614732  0.0051281203747497
  0.5016655777028118  0.9129390090273100  0.2553422354165279
  0.4159224377727740  0.9093823510645177  0.3302306565308002
  0.6631640842716562  0.9162676168605887  0.0833952799926586
  0.4943227401196226  0.5843317439519027  0.0888883916725758
  0.5059165218787384  0.5829951351187502  0.2496257500648021
  0.0867664454117019  0.5843835113569268  0.8346754799517646
  0.9969628127013516  0.1650524460501553  0.8308463780076886
  0.2452662394685841  0.2484374544518893  0.8258248591764860
  0.3318046511649299  0.5838229822118149  0.7535138586811738
  0.4139974783538273  0.9177480141772081  0.8299832122906989
  0.5881526526889271  0.3356823742175224  0.9174686283206114
  0.4149065893510403  0.4154485167647000  0.1653229142591280
  0.4133263785954457  0.7504262346791537  0.9998038990324319
  0.1615257597935922  0.0831266468703953  0.5844828371541874
  0.3285001319163529  0.0848488826807895  0.5868747678609758
  0.8425037414688132  0.9164063763933934  0.9154379628810344
  0.9981319048707303  0.6785410607315888  0.6662635327832117
  0.7542766468701958  0.8263621905351504  0.0843217262812614
  0.7500099569428889  0.8335009204668018  0.4177082796872448
  0.0828038308002048  0.9162303829603755  0.4985264321437950
  0.7531630962085755  0.8268235348167305  0.9170300419189106
  0.3259479375300649  0.0876542641489528  0.4074969425394057
  0.9980755673282369  0.0008491311776025  0.3340571132103825
  0.9880944517382110  0.0027760461801955  0.9998548910535523
  0.9134273438216519  0.3316685135441444  0.7561241918914146
  0.1615343767422722  0.0845091726409021  0.4151904062788154
  0.9985616663431716  0.6707703385201703  0.4880975048674758
  0.9994073994900431  0.5870211719281581  0.5744316349856089
  0.7517079203207803  0.9157770406992415  0.0002265569872183
  0.0783710461565742  0.0948165123100134  0.0000120761702055
  0.9158871262963141  0.5858592218259780  0.3317002215057678
  0.9987418463590033  0.9977577023078850  0.6646710506846202
  0.1659537697536063  0.3340364005754813  0.9969976865804060
  0.6653038410113931  0.6699949266405023  0.3325738415305695
  0.2428088227679766  0.4149656495232017  0.3333242919143510
  0.8298071909235371  0.5003238874563041  0.5019806164361160
  0.1626652825652854  0.3320688603042680  0.1746326088335432
  0.1579586669591175  0.2481149070234015  0.9167701961779516
  0.3313082858020014  0.7525016074450745  0.5815005081648384
  0.0788533020199526  0.1669995656648886  0.2522170251380547
  0.9981245993367910  0.4089336518884857  0.5768104069806648
  0.9984771420278011  0.3303483564296253  0.4980059097102379
  0.3283939947970360  0.9995855920033292  0.6771301959412265
  0.1615764587950902  0.4989466433321518  0.4977633036864072
  0.1615143102626423  0.9265099601159813  0.0866226538064695
  0.9892165149202292  0.3285815355482568  0.0008897036076796
  0.9978341060958059  0.7623529142253495  0.5799117869356817
  0.8351707323114094  0.7504037893810542  0.9152832378527813
  0.1621890041712505  0.3312232022460520  0.4975477054047011
  0.8400699858040356  0.9174985679783352  0.0861713562031219
  0.8329837309488625  0.7527902453717561  0.2524862786145416
  0.0756593403873516  0.9181947538973179  0.9974911245766135
  0.9069466014881608  0.5009605873450885  0.5763875799445850
  0.9970022490277948  0.5059003170784531  0.0024795945152073
  0.9980356739584031  0.4156566914654112  0.0911362025462360
  0.7498635862305194  0.8337611682167324  0.2518894213123706
  0.1636002632542166  0.2401147097973749  0.0865897991916097
  0.8422204404339155  0.5849157165924138  0.9181975222891783
  0.9983599260230541  0.5006786119431926  0.4871062651381804
  0.9151142847364081  0.3293269758536349  0.5772718471490722
  0.0794829526385038  0.0025149963964533  0.2514066955004884
  0.8341314673414206  0.0817942613422882  0.7462640194770118
  0.4176852294942540  0.1643177143298606  0.9170304957647142
  0.8319101354492057  0.4985824825560985  0.3244062411360427
  0.0763072489679472  0.0005203320267320  0.9078861715516416
  0.9967264074871959  0.6744173567234343  0.8318169032105779
  0.1655885897156648  0.5031080140901547  0.0014069060062895
  0.0784174646412991  0.0010527268174423  0.0876014659201936
  0.3246999278885465  0.9955235538023616  0.4951665945038352
  0.0723072645632043  0.8335053216928090  0.0880087965872516
  0.9983633328229528  0.5839356202843193  0.2527119825412768
  0.9941142665714753  0.1655375521243850  0.0004469075728184
  0.9962042835044899  0.4968973918677889  0.8337226610450124
  0.9156251358249164  0.9166977836755740  0.6659953644992250
  0.4132969500379162  0.9207568219798182  0.0016839896144814
  0.9981236340114884  0.4148384384536132  0.7567982245945888
  0.1662110187697936  0.4170659397798708  0.7516956852283566
  0.4125918976288716  0.5832168356689859  0.3334921514051087
  0.6658575998065295  0.4163869273687256  0.4137772053944585
  0.5023833149158452  0.4152865026272154  0.7522333195509179
  0.6675423808676600  0.9156479065207858  0.9141388904853510
  0.1619353163836257  0.8298735682463130  0.9955013229380935
  0.7496029257636960  0.9152172149859299  0.5000249010629215
  0.2514552695293522  0.5842158134060176  0.6655049020817548
  0.9184859566899357  0.4984474328116382  0.4126473715013953
  0.0807708132449132  0.5836116691294508  0.1696239391739912
  0.7501953431146638  0.0830339734589607  0.4982974477517390
  0.0796965143592432  0.6640556805744111  0.0865674451362105
  0.7495564352533410  0.2461613555582877  0.8273389019011800
  0.7525042773772349  0.4166677458744314  0.0033334612577301
  0.6672061034622189  0.9160672594228946  0.7467955508393761
  0.3323993696543200  0.3262581552131662  0.3306943277352548
  0.9987568507890012  0.4146866294084461  0.2510365292244411
  0.9164656485015685  0.0003084286793316  0.4190111774125597
  0.4124566033187854  0.5825938133722042  0.1590827658584196
  0.2430392608963013  0.1609192915179576  0.9149339189024841
  0.2475571867578068  0.6659707565239215  0.0840200228199409
  0.7523428534932098  0.5826374556665201  0.1732767227334837
  0.9969117361145043  0.9999304378106758  0.8308483583839933
  0.2467727851595126  0.4068048688191612  0.4988828201772157
  0.4179018272532832  0.4920569263284116  0.2473764786545137
  0.4169615848081113  0.3266957743728536  0.5848925644379670
  0.9999164339000307  0.1636965751507947  0.6652774347926118
  0.3364201960443027  0.2510143371880696  0.9191431501084246
  0.4982092033031770  0.4234691230004424  0.9170874424973522
  0.9058496260939954  0.4162744162701463  0.0014304112143668
  0.7526806676154683  0.5017041183627190  0.5806447810028864
  0.2456258472009906  0.3385236630354553  0.9197113437149560
  0.4151744874471394  0.1753533063568263  0.4146406974282311
  0.3300517242857826  0.1675240475029270  0.6758382222681906
  0.4163708150051167  0.3296944487358544  0.7523954480389641
  0.3239357888615408  0.4173098179622195  0.7519950254857954
  0.1607282495473047  0.8347304095201844  0.1741284857826123
  0.4999838927944271  0.2501987724750572  0.2463142493004603
  0.3403689999761499  0.8349182580615285  0.9986677678722311
  0.7496695648738584  0.8351681670385942  0.5805153807837591
  0.4994857006751487  0.8318326780132312  0.6721755034666859
  0.3306472640970858  0.1742784097032387  0.4967590562081286
  0.6668130189168285  0.9153040448268722  0.2522363909583414
  0.9158596821034654  0.9182687665553619  0.4989917000676461
  0.4983917500588761  0.0900438557247896  0.5914300466256285
  0.4912166799826727  0.5831150251111298  0.9140067447168760
  0.1633377133816292  0.1670928292121130  0.1684751398912462
  0.3289836056645395  0.5003649679478308  0.0007961065290809
  0.5010132252069666  0.1681323995367104  0.1676692855973873
  0.7504299873648480  0.4951047918138697  0.9181275467701024
  0.3291724468117201  0.1698274690256948  0.3320972862804206
  0.7533497498094527  0.7524732406521080  0.0000500742533042
  0.6681671029949772  0.5863920255769758  0.7481196700329816
  0.4165107634240849  0.9950549583359879  0.4138209208453486
  0.6681595368316652  0.5836376599331509  0.9171130104063016
  0.3292294049084058  0.2607549169424260  0.5850133896165532
  0.2536658830518254  0.3331325579278517  0.0866104633080855
  0.4200230216024087  0.4150583933624709  0.3315698730863115
  0.4997579263338174  0.0844053658006514  0.7495204517795532
  0.1644846004134676  0.5007970516408879  0.1693118649036751
  0.2457577074525010  0.9986747047020127  0.7482018297268352
  0.7488805294307778  0.6703449580715762  0.7477213283596978
  0.4164185798752275  0.0886612352760870  0.5032952503837407
  0.7562125960321748  0.6695264169495279  0.0861463295127588
  0.5050682352284429  0.9964068297506525  0.4944405276082855
  0.2462683270861400  0.0022501316422091  0.2513424221835672
  0.7509933594121512  0.0001789780442410  0.4161133350408533
  0.9116747371033035  0.4146282921164712  0.6664171375003616
  0.0824063841741143  0.3306028284894786  0.9104233194840149
  0.5808839702470795  0.6729560238282177  0.0833479273458656
  0.6734366011079583  0.5798503780951765  0.0875438925540063
  0.4998261044897270  0.1662939586157804  0.0080539933652757
  0.4885630222216861  0.7505237017226541  0.9151254267532388
  0.7505783889967598  0.0845469061344091  0.1645125781567385
  0.5009386709086024  0.2476659674390122  0.9194342254290288
  0.3287574104482267  0.6685559041812739  0.3331964188887561
  0.5855895824794246  0.4169279317718216  0.8299383170016579
  0.5020399143530792  0.3320859411579381  0.8284425962246257
  0.5824819164840532  0.5817865984408387  0.0009583588599182
  0.2460582436444596  0.4989970836000769  0.4084212393086552
  0.8340032800443703  0.0839610546168962  0.4175052528226894
  0.5846122749584048  0.4862152543398339  0.9163718154667468
  0.5839042665383772  0.5826285719678194  0.1772209177728651
  0.5880433446572926  0.8323801025143549  0.5834234843303011
  0.4991983245004958  0.8260705706098134  0.1686580846733313
  0.4978287665628839  0.0724600149487427  0.9167104973337293
  0.4997972001592957  0.3330321351903113  0.0090665139615394
  0.4987730273844478  0.4155789377830828  0.2480894784763995
  0.3303603810275403  0.1664308882917640  0.1667559372582787
  0.5798962477688726  0.7521732086890821  0.0032810765358147
  0.7497073905221515  0.9946196357923397  0.2522152300578377
  0.5001294041848023  0.8313786100331642  0.4941034620511184
  0.5837902575014846  0.7507932496536959  0.8257371198781432
  0.4082738270569191  0.3320658421886767  0.9177938542822281
  0.5815697033123277  0.6637743491807320  0.9154839858389329
  0.4125893677772304  0.5817725174803089  0.8324116006918642
  0.6681839561628830  0.0823546304717462  0.7468334395558720
  0.5847219006120300  0.5844063532097705  0.8230909565708150
  0.4154077159959722  0.0878994948618066  0.3239463310230501
  0.5008611421577770  0.2477660257308885  0.4142515616985255
  0.1674813962383479  0.4951524820492870  0.6671637492419801
  0.5011079098592324  0.4130920100545247  0.4149627369486422
  0.1664983915107569  0.6739911470604640  0.6651411943293770
  0.8336883332253123  0.9171293830999300  0.2517974701622937
  0.6662442904508006  0.6684243334031478  0.4988228738918563
  0.7505773512973383  0.9160972304284596  0.1761771140238239
  0.1651087796737135  0.8328258587534563  0.8330273605986167
  0.5069228356430747  0.4144089760722258  0.5838730028929557
  0.2485871596414954  0.7412858395687369  0.0000722730581151
  0.5836957991598979  0.0850887447277484  0.3325554186836727
  0.9058450220785512  0.5919789436722058  0.6653911348475943
  0.4966861695241397  0.9178320548450097  0.0774314128369886
  0.1628871238852964  0.8352748045993208  0.3317432927560353
  0.6673438745073556  0.0848379094993570  0.0868259184679462
  0.9165216580912533  0.0849683490973529  0.0006916623838811
  0.2360125965280715  0.9997440324439402  0.5849924574798436
  0.9857782029638241  0.8328393548247417  0.0009046322205920
  0.9157753232472005  0.0849127450990264  0.1691032355326606
  0.1642223622398786  0.6679889842266673  0.3337298160927670
  0.7524983880592326  0.0062407282033857  0.9160179169519013
  0.9089448878475539  0.5848241727125558  0.8304900210624568
  0.2467510422887724  0.6678545140170994  0.4149150467959823
  0.3311399339892678  0.5863891963833848  0.5782874669366510
  0.6641915128662331  0.5006774532903462  0.4924968217781329
  0.5760266881018364  0.5009821464535650  0.5829689681250763
  0.2471539602075059  0.5843366745933315  0.8340794964878646
  0.1633841618404766  0.5853432782853935  0.5742734467822526
  0.0753847091116562  0.3327224030318960  0.0869997584910418
  0.9988826044765868  0.7513932047003875  0.2523978041376901
  0.3300233836039368  0.6670750104198424  0.1676424510112216
  0.7404577917048730  0.4996363694689786  0.4132694019106749
  0.5801337438710097  0.8368397555528231  0.9141809138914351
  0.9947741869247367  0.5907185467407841  0.6649284599895940
  0.1649627714079490  0.5848612477981731  0.6640739298433905
  0.2505461779434330  0.8348528886317046  0.1731759758335399
  0.4992620481901948  0.8293053033121198  0.5831988887134009
  0.5070121133445251  0.0901961871451598  0.5018514972576523
  0.1654047408987080  0.9209625312490800  0.9980897953700473
  0.1606799498746460  0.8338313699998758  0.0865038040203348
  0.3277381608726598  0.1741464384740608  0.5879231802834797
  0.4982885138510110  0.3359165803512978  0.9189548648279836
  0.4173264319262712  0.5837811400425940  0.4203791666091988
  0.5793915122407407  0.9240099567262324  0.9138034596110921
  0.2461688578426193  0.2510120040917774  0.9155645181590041
  0.0716272385400797  0.8278312558687563  0.9964765809349938
  0.4169423538737321  0.0867761315615967  0.4114141349631371
  0.7476557446985604  0.2488130230751338  0.9163412562645827
  0.1659847035671491  0.3312300997663075  0.0872848372450652
  0.9973066160790625  0.6764950578719904  0.5757277082032102
  0.4126788965809611  0.4183945529103609  0.7525406321638470
  0.7499183830659653  0.0837829583694588  0.2522189297848312
  0.9061414966167429  0.5035344550294835  0.6681343237561662
  0.9975175859629303  0.4977844329181655  0.5740770372613021
  0.4998082278738864  0.9145345160062214  0.1661847946502286
  0.6696464315615194  0.6695260358120818  0.0874117174394676
  0.2530369148927669  0.8315797015083425  0.9939469718373087
  0.9981465635581118  0.5862158255313344  0.8375388717927179
  0.0770620334236637  0.0082296761571826  0.9977963167107891
  0.2505058773917992  0.4956571156893891  0.4949808071310741
  0.7496422834477288  0.3288481381564708  0.4988302669378628
  0.5792237679292784  0.7497760895528135  0.9141658387630556
  0.4150365083707169  0.9940610187588874  0.5022706393091994
  0.7562553172641104  0.9168305227142993  0.9107059932706113
  0.3310292089113377  0.4138614289908725  0.3315073069033124
  0.0036313125703542  0.4107678940127317  0.6680160096342672
  0.3246148607822658  0.0859977765893017  0.4964309413476647
  0.5797587272807594  0.5737402061562094  0.9103248535480387
  0.5047919555017445  0.0015261335009527  0.5896871440645026
  0.6639484113587212  0.4999567374448532  0.5826443518896991
  0.3308977921061703  0.1606443274727843  0.9177322659036039
  0.3239465997231543  0.9942510911192622  0.5886349120673614
  0.0774366962042579  0.3299812842065480  0.9973990290711192
  0.7516021966436488  0.9163269184900574  0.0878881333994563
  0.9101092250464557  0.3234827435099930  0.6673654565279136
  0.7558458600476463  0.5845920069520343  0.9178022817412407
  0.5836325239431395  0.5799738738054311  0.0902734783322327
  0.4906569488839219  0.5798091413508544  0.0014681245029757
  0.4178516263419071  0.4157148928959847  0.5795039488528875
  0.3394736759517049  0.5841337512987799  0.6650168865302490
  0.9933278573867720  0.4186213501899185  0.0021468768070796
  0.4147203554935551  0.9970518249762813  0.3252350198933587
  0.8293471263170396  0.4997886320528915  0.4133590824204886
  0.5065979959247764  0.1594403705970857  0.9180497222678117
  0.4157714762197909  0.5821202975447697  0.2451865017476630
  0.0820369010802926  0.5852097915134545  0.4935063929483975
  0.8304686817713002  0.4992766373413924  0.8331326552027679
  0.9983391175843048  0.5850161693981641  0.4125174973303170
  0.0813314261627457  0.5842296331276872  0.3335207755121314
  0.9958235274882301  0.5845994912308383  0.9245334326532483
  0.0822317461827540  0.4985813761631270  0.4138293465765285
  0.9978655183417582  0.2472579793225863  0.7507702589005032
  0.0808726777147327  0.5863724244659525  0.6649342501587531
  0.9125344721931441  0.4141295003701712  0.8354100068050289
  0.0818064569688922  0.5835178670387334  0.0028975110427986
  0.9981303209938093  0.5005700079660494  0.1697466233717234
  0.9987420724534681  0.4987740063455021  0.3325003045487206
  0.9975564299755566  0.6665088509524701  0.1702148928987632
  0.2466259858222291  0.5013016744210241  0.0840694318778930
  0.0825336336306619  0.4995655423633488  0.7514782959981927
  0.0824119735205964  0.4169351360755801  0.8345558787356370
  0.5838191547246745  0.1666561654221620  0.0857728027216083
  0.4992315124413654  0.9996353077927197  0.6758951747425150
  0.9154935564302618  0.7524466374039630  0.3333754038467580
  0.5846933605608182  0.6676986897484243  0.5820273739253046
  0.0816498114475260  0.7521846754630301  0.3328784118555105
  0.0787689155627399  0.9193159838108526  0.1696363400411855
  0.1631036770217985  0.6655822296791947  0.1685419313766375
  0.2538703926019095  0.9227619348977243  0.0003762506241865
  0.0806689258061649  0.6668537566261488  0.2520072665662475
  0.5016156824042557  0.9137317004309087  0.4146639038677766
  0.0806000714787494  0.6659827217695954  0.9164585469062412
  0.6620740284914125  0.0840627070268692  0.2495202593191788
  0.9959607430579686  0.9191923061872508  0.0862950660754011
  0.5856956702053884  0.9992349176840551  0.4146662506559013
  0.0793598844382374  0.7420870713788126  0.0010098900556400
  0.5015060109479408  0.0861047461792383  0.2483794743249264
  0.0799582569578457  0.8351087903070045  0.2518825113771922
  0.6681421397073916  0.9996352257278458  0.6662623205334137
  0.1634900030578374  0.7442039157578537  0.0848364053347291
  0.5833796770171866  0.8336828794607392  0.7485784752773262
  0.5842951801861767  0.0002840682191853  0.2506683658648946
  0.4181183358595413  0.3288820575024377  0.4140814668112530
  0.5047988006425109  0.9997792817391904  0.3317790241074202
  0.6658862472077806  0.9998504782467784  0.1671504077183989
  0.3322800338656873  0.0020563553214618  0.0016177022188712
  0.4145250573448962  0.8331178988123464  0.0835874625220527
  0.4143153845011023  0.9995401195871246  0.9152598693244317
  0.3366044400058326  0.8313691007185762  0.1677049656789635
  0.4153117040957759  0.8303875703633568  0.2506963434617872
  0.3298012119927368  0.9165672698383655  0.2513977658309860
  0.3307299801421675  0.8329043418032305  0.3331432915354099
  0.3284948475646036  0.9147620338363007  0.4138377651140762
  0.6657513489638771  0.4133923878583391  0.2500962438150287
  0.0783892432524951  0.8332113804801888  0.9091947785979477
  0.4137567587049937  0.0858118526033607  0.6702126484539991
  0.5856204702678434  0.0011428537286743  0.7485529751743354
  0.5852855543325262  0.0839450339220064  0.6675980147913909
  0.4925819209457835  0.9183901822796219  0.9161784750877422
  0.0802741462133850  0.7487919416210345  0.1697562815543165
  0.1651051200244112  0.6669988999900338  0.8333260180553650
  0.0801590607936729  0.2487182614575773  0.3324753119890023
  0.9965600839106097  0.1664149997086553  0.1697169040760715
  0.3333312076919928  0.7491266608138710  0.9152822564753507
  0.9976693701701780  0.4166696868537672  0.9138279783093483
  0.0829316067482147  0.7530596874710961  0.4965113039192565
  0.0806134651754838  0.0819496522191943  0.6668368536709409
  0.0794953967758335  0.9163022353051027  0.8307182883053079
  0.9962806704788724  0.2472467496033715  0.9149705459916477
  0.4154243872188303  0.8314004756983695  0.4154894930434753
  0.4156183879773545  0.0821234713989866  0.0034374164925446
  0.5850253890712416  0.0825526741885256  0.8301295582150575
  0.4995182915697336  0.2495412591767900  0.0856497034547921
  0.0864422735493581  0.6709472783012714  0.5786020218387770
  0.5840056905169837  0.1681735627511398  0.2485739158328857
  0.4156153708319387  0.2493876982562027  0.1655970114000873
  0.5014155976022546  0.1692842045832438  0.3299274235898101
  0.9981087660895310  0.7525115880099890  0.7484902478145420
  0.9160082569921497  0.8319202156269951  0.9130709689384859
  0.2465427730032149  0.4167276351482533  0.1675802663706019
  0.9141779387510620  0.2467993558633887  0.8322109209866623
  0.0789201760488931  0.1656552361069198  0.9135788703173041
  0.9974312921129497  0.3319364966470882  0.1694096182231279
  0.9958286368909762  0.2485093393625231  0.0857120783082653
  0.0824714347937400  0.5022850638413127  0.9174824435421842
  0.1623738597187682  0.2500581215120810  0.4144620902685894
  0.9163318899065295  0.4139273883686020  0.3319802326784047
  0.0779565873572477  0.1661861984305320  0.0874408576528074
  0.2465433173413599  0.5844761093461883  0.3332344239668950
  0.0828944296558402  0.7530975365315939  0.6656109026690405
  0.2456814987538166  0.2496880242180541  0.3311224232207114
  0.9993307571449118  0.2470853958484652  0.5805665256432324
  0.0822271918123001  0.0833384188249530  0.4992094481889185
  0.0818332867523474  0.3317614825685788  0.7520855197665078
  0.8308699323633121  0.7533898822000153  0.5808342714562139
  0.0805433073732138  0.2479580230660220  0.6665385424622799
  0.0787188261073455  0.1652622089114333  0.7489019826944902
  0.0811296985624678  0.1656503000950531  0.5831942196520865
  0.4126012401968924  0.4178904151408791  0.8401970438118034
  0.1643699934452409  0.4189778536875149  0.9173753690617447
  0.9152725293381354  0.1636101708261426  0.7494426055244493
  0.1643868705094856  0.4215729033466167  0.0853211374309239
  0.4162297039773731  0.4155248315866941  0.6657616542119891
  0.1641205181032033  0.5836741085187810  0.2514455865326924
  0.2457990292474427  0.4155306282462881  0.6662759330097557
  0.2457563947130747  0.5835562307919463  0.1680249277718062
  0.4137458533295494  0.6681779073867803  0.0845817801323744
  0.4184972107213838  0.4112297876141481  0.4931255660559320
  0.5001388753182576  0.3322123357212504  0.3309514095145870
  0.1644521722863936  0.3320682838918506  0.6687693149735642
  0.3284784733512254  0.5004515292559485  0.8354114806663013
  0.2463924974366891  0.3334569511669456  0.7509270418646893
  0.3307133057359836  0.2508958944693898  0.7506559179305590
  0.9152029201529615  0.0825437498385287  0.8308731520622276
  0.3292971700031346  0.4173303792197252  0.9193792589350104
  0.2474341095229868  0.3315730931490364  0.2489759457284226
  0.0810569776688325  0.4169676885750674  0.1691375820093603
  0.9154553002845527  0.9183717038920900  0.0005968392719732
  0.0787495769138856  0.0834530365181847  0.8307079643664779
  0.0814397489798503  0.8358390294750107  0.4152503794382292
  0.2484889856124324  0.2480287263584497  0.0052168872749199
  0.1645308131634515  0.5835316665384831  0.0852174229999175
  0.9993687739481796  0.7543500372079753  0.4145858123289768
  0.0798977069709626  0.2480978578746335  0.8317339219576674
  0.9978471911913267  0.5856451887805426  0.7501568220710805
  0.9971274241114142  0.7476007318646941  0.0875053631293431
  0.9976936962107096  0.0822912578009025  0.7480868818433755
  0.0811139457456233  0.5019540819546383  0.0874156740532024
  0.9981252630884992  0.3315896084285022  0.3318917097574979
  0.9166220938495938  0.8336248023778687  0.0875290399960879
  0.9957860383066193  0.0849306750418099  0.9141815601262053
  0.9967488808181821  0.0018575673311906  0.1692069776301021
  0.1624931207460903  0.1651303236397376  0.8309009915929338
  0.9991938156762840  0.9180495543107722  0.4169700043362072
  0.9958974944380639  0.0855378269319362  0.0860234114967638
  0.9138615588472391  0.1666887336965653  0.0853558486663438
  0.0791756562034206  0.2486998641607528  0.1694061844916895
  0.9973614412406006  0.0838761081168821  0.2514976836628679
  0.9986260394470916  0.9188999824256939  0.2521670667051799
  0.5842144262925542  0.7495439278980319  0.4987828795018595
  0.0806705743928847  0.9189630547004530  0.3330491142451178
  0.9158402195697425  0.0827614984267107  0.3356285341134180
  0.9998618986757071  0.9990644952705520  0.5004285124877871
  0.9160975717601335  0.9175144408140502  0.3349472265307791
  0.0817928511786620  0.4135717363137235  0.4961885163652011
  0.9132844066938955  0.4996626710285595  0.9175721294024308
  0.9990298971824365  0.9158916485780849  0.5819652904235596
  0.7498224858037391  0.1649181041218096  0.5831911213784742
  0.0808568595292296  0.3313555688389482  0.4147937893115044
  0.0816492399253290  0.9156483507607064  0.6671295717357105
  0.0816874316624628  0.3308606059018557  0.5812221688533784
  0.8346590765684928  0.0010883778715574  0.1686402240895193
  0.9991693039027491  0.1638614157704986  0.4988626692640228
  0.1633447778631356  0.4140454634027135  0.5807117728109562
  0.5029603904203265  0.5870313590404531  0.5821559852334104
  0.3317458496902136  0.7481980516222589  0.0841384954731038
  0.2459187034861704  0.4995128008862812  0.2503887951650271
  0.4212406582553851  0.5027201169620411  0.5827550990531329
  0.2482294342350705  0.7517730229016849  0.6665542158825503
  0.3306327574157241  0.4949167555204987  0.6646559941857360
  0.4244175740773375  0.5852019425065912  0.6637912593279071
  0.4976913779898111  0.4925438969108862  0.0034184909472607
  0.4994969935923610  0.4999271831533104  0.8317073778675126
  0.2476106688650526  0.9175768280591174  0.8315408370314307
  0.2476614972472553  0.0017494290766917  0.9142042199701639
  0.3317615030469659  0.0841969327068904  0.0873084625336942
  0.4116528009478753  0.4999534280180505  0.9179297121018287
  0.3251027323179621  0.0015073001544213  0.3319992911847149
  0.3307815152067966  0.3340964358247626  0.0019640722750597
  0.2436919810256040  0.0831537721727012  0.6683105025619813
  0.1641005491502968  0.8348149305752325  0.4984566725136725
  0.3291973315050081  0.4176518952371944  0.0842627687192249
  0.5016127183923089  0.4989929674471177  0.3329262882355984
  0.5855255078019973  0.1691942638441615  0.4148375881382766
  0.4160922747918352  0.0864841607381446  0.1675947176988793
  0.2453441940953208  0.9187148139469145  0.3328512505821336
  0.3288573429852076  0.8319014631525101  0.4976970245821056
  0.1632104420166649  0.9155353410120943  0.5834448935261355
  0.2466279653509336  0.8324354633184217  0.5828467381173295
  0.1642237321295735  0.8336046637253292  0.6668360497715717
  0.4154757269473879  0.2495264193588621  0.8336122952900777