Cr  N Ni 
 1.0000000000000000
    21.1236799078543598    0.0000000000000000    0.0000000000000000
     0.0000000000000000   21.1236799078543598    0.0000000000000000
     0.0000000000000000    0.0000000000000000   21.1236799078543598
 Cr  N   Ni 
 259  52 605
Direct
  0.2466012724078739  0.8339201970143398  0.2499558548484583
  0.7506705909945008  0.4950544859687581  0.9167782916174531
  0.4998359806072626  0.8314106424111807  0.6719978345289607
  0.7524455140680059  0.7497330145813716  0.0015216712381301
  0.6606448261849626  0.9149189294795070  0.2526481525834659
  0.7490012806075335  0.5001760777950746  0.7493147238747654
  0.5003705528465220  0.0834736510197519  0.5911799139043405
  0.6667949305982726  0.5852181562753638  0.9159953820868754
  0.2457037355708276  0.0831567565194623  0.1686011164491313
  0.2532702870098288  0.3318947919092088  0.0861320166576958
  0.4150292554358979  0.0000936622558270  0.0861808573540224
  0.5021179992879021  0.1651953557766772  0.8272607539215471
  0.3321715535681050  0.1678850452820977  0.3233052453787841
  0.2455327436359268  0.9976599846746943  0.7489115878851206
  0.3341211552698423  0.9189875409276200  0.0860194849366867
  0.4165959645627729  0.0852677893246819  0.5013173650041317
  0.5069473970898974  0.0006810082554046  0.4994993773639824
  0.3333671639595799  0.2609594179010906  0.5827888286760187
  0.6657067134998255  0.9168497501310673  0.4181272877537596
  0.2463276635143735  0.4975902161630901  0.2501615098652892
  0.1651554137716763  0.8339380371162554  0.1765443610545605
  0.2477411818565536  0.5012714178070584  0.0826238461588288
  0.4159298593760454  0.2509050501245815  0.1657135311927798
  0.7505987194898405  0.6690817537373197  0.7468117141109867
  0.7476855038309081  0.8347136013615861  0.5814069642464702
  0.7506035405378935  0.5842205919352533  0.0067337756316996
  0.3322464380164059  0.1724187732954769  0.4998632728087619
  0.2459024228066325  0.0017209435742519  0.2498531553843638
  0.9144125240145100  0.9171511366157166  0.5005650450623778
  0.4169623663391231  0.9947641901607274  0.4144342531845592
  0.3286124414838682  0.5014292070184824  0.0013037863892370
  0.4886657006748228  0.5833772792338676  0.9178546397769592
  0.3265275357744576  0.4180865515355980  0.7531432685358653
  0.4986238777696232  0.4257544864040296  0.9174342146677746
  0.7459172486472836  0.5000388217005851  0.5798731303722245
  0.2466261388019783  0.3371218516254542  0.9182711313672363
  0.3323703644993489  0.1668854727040048  0.6780265401892099
  0.4176256763562066  0.3300181089304117  0.7499439629313279
  0.1634708947383738  0.8356795752235988  0.9971645505230714
  0.6598357741827153  0.9149705743552312  0.9134488283306590
  0.2505693314757868  0.5858686956180761  0.6685238813659796
  0.6661037490059887  0.8328200162997537  0.5009530710094924
  0.0808458657294019  0.5824849701754409  0.1674571974721192
  0.9147490908503108  0.3305735085445834  0.4061282564060431
  0.2462993790725145  0.6678289491115699  0.0838236575733395
  0.0794434378297608  0.6664158579024527  0.0836350179816299
  0.7485897734979962  0.1654073314446285  0.5823495789690294
  0.2478110226474864  0.4076667089072749  0.4984725661160532
  0.7514554253454222  0.4176790177499142  0.0021453847799370
  0.7478799564963458  0.2482965701057837  0.8273272784504937
  0.6661700506790862  0.9160607135504193  0.7464180427214271
  0.9984247111642702  0.4154583845748194  0.2499695312350959
  0.3320016660804065  0.3319805759905802  0.3304913184517151
  0.3315611165839325  0.2602898979831113  0.4134831340832805
  0.2434501690551081  0.1589056685565964  0.9167485508345041
  0.4099504403069843  0.5824861720641050  0.1642536946228584
  0.9111399445053592  0.4153192697605297  0.6673626991016836
  0.9987985754529632  0.9988708722101197  0.8297155746424830
  0.7509447716159087  0.6678349711659943  0.0838505686382794
  0.0825635556926823  0.3315539586866689  0.9115403718921242
  0.4176865648238108  0.3317773113389813  0.5831131536667948
  0.4130970471351605  0.4918306135875690  0.2487913338990003
  0.9983748408310072  0.1623949661444954  0.6655894428852797
  0.3364179747288338  0.2519901050720423  0.9177537878214006
  0.9159859801372382  0.3334485161725715  0.0851764493860585
  0.7490828974017018  0.0855117749130016  0.1681707032364538
  0.7506952107104623  0.9931157337788078  0.0841810665666339
  0.1652710867210158  0.8341112713023108  0.8335147482382501
  0.6657471291712592  0.6655700461564080  0.5001425039238593
  0.1637944206157164  0.5850809329064600  0.7583020445634118
  0.5011078629247161  0.8327112467708504  0.4956119749875832
  0.5717787388440960  0.5007805690887923  0.5814887187593329
  0.5889327561073038  0.5838051987054322  0.1726512458925891
  0.5802101840921541  0.6666895107290484  0.9163096641122076
  0.8305827419705138  0.6711620854860508  0.6657877494286474
  0.4985137167579546  0.0722679050812592  0.9140088648668602
  0.5849687766947934  0.5842154654779489  0.8231601119453025
  0.6593931986697150  0.0851046343960395  0.0858266426069039
  0.3317111440465447  0.1612233943395711  0.0062788331694582
  0.5823523760635703  0.6747315318239834  0.0829484712505296
  0.1665692484470251  0.7438266672293972  0.0844888684221865
  0.9102068823633445  0.0862437161791773  0.9996482806842563
  0.2471060062217773  0.7421548506208163  0.9992713371144341
  0.1582905604941770  0.5864414900538801  0.5811542625087356
  0.2468252013917656  0.6668078425087355  0.2462546349459088
  0.9993380179182983  0.7502438625864871  0.2517053185893822
  0.0769148390924277  0.3326385020153019  0.0880221897319887
  0.2482534295673170  0.6689551208431813  0.4216337433806085
  0.5782411034403148  0.8407542624005006  0.9126995876069217
  0.6656516700726771  0.5904849197996627  0.5834335123482949
  0.6648192682530975  0.4995449517593825  0.4908098182859417
  0.3386378881338879  0.5842996721624125  0.5788756715449175
  0.1636915475594660  0.5838457632095649  0.9174470046318853
  0.7475119711664731  0.5010082680490556  0.4157244838398407
  0.4932161772868384  0.9161784308752399  0.0795224404179876
  0.8377791090942559  0.9152957249268865  0.2538787610236350
  0.4991628111601817  0.4150718874919935  0.4168521828445982
  0.5836336801782034  0.0859412310699092  0.3337552113892686
  0.4093220405995556  0.3329276340958092  0.9171175955046509
  0.5016612400657393  0.3329028513753323  0.8261671348709081
  0.5034629550689926  0.3343478640631132  0.6677531601333452
  0.6673310335129299  0.0820066006633642  0.7465670551079653
  0.9146921546910720  0.2391696525760064  0.5002617705270737
  0.2459238722492390  0.5849928796046903  0.4920023201345975
  0.5020809070860974  0.2521597399829231  0.4152256497350059
  0.5896072675363855  0.8323911606728538  0.5832030676259429
  0.6743426112250480  0.5836984534924694  0.0825206312624563
  0.4983262599611196  0.1664679665814559  0.0062380346156197
  0.4138950558559702  0.6661811915552135  0.9147089892539825
  0.2456133155128290  0.8342226014781051  0.4141701467070041
  0.5012696683750394  0.2491681847155904  0.9172821976215467
  0.3357579455202071  0.6684184700654253  0.3360444352897335
  0.2402201157944128  0.9945673699549680  0.5854745019577671
  0.5843832045512949  0.5830429663251604  0.9981981826844409
  0.5839726790608446  0.7502018385389846  0.8259173881252511
  0.9165026639128423  0.0875272849652699  0.1666891720928271
  0.5830322066777833  0.4899291343358356  0.9175396163931362
  0.4149710182716205  0.5837857434343803  0.8345541296326212
  0.9082873500443164  0.5854848706915935  0.8325816630616690
  0.4992013704774216  0.8245656293227902  0.1680762929570057
  0.4163315442430619  0.0874810430498247  0.3242059151402826
  0.1579797052443817  0.6665088407497941  0.3344261203492329
  0.4994316751649816  0.3331310968594411  0.0074121241894705
  0.4995622758574907  0.4097753987062293  0.2477278365585029
  0.7463904451637621  0.0018494724024398  0.9126044013498605
  0.5811191469842460  0.7500727045427240  0.0033787781407301
  0.7486891974761635  0.0011580985424725  0.2533436465497860
  0.2483535890426201  0.6798368746095481  0.5821753909818488
  0.5021281348716146  0.4161152147043254  0.7497182933112591
  0.9138950325136365  0.9166730356782710  0.3348033931660674
  0.5000109376235322  0.6670779738209878  0.3359003430989500
  0.9982574646783097  0.1647866720077306  0.8311186084111525
  0.1629376471244194  0.2485576502706204  0.7511452431207660
  0.4150696274714861  0.9172253989590277  0.8305142666691189
  0.5886826275257565  0.3358396023813688  0.9172968561954249
  0.2481560746824709  0.8351128384816608  0.9083485031475700
  0.4125118437839522  0.7493036950613606  0.9989399423810862
  0.4137664249075241  0.5845655409415562  0.3403533085807949
  0.6665129586000517  0.4121292346321981  0.5823322509757829
  0.8220164254786928  0.3306938492710531  0.6662594789226237
  0.7482785792720229  0.2480924640863568  0.6671615256013533
  0.4132155797016441  0.7516494193433488  0.1668241398484622
  0.5849908464569462  0.7487917190974461  0.3361948923634409
  0.4111527307844149  0.8303929351586709  0.5858255389224424
  0.7483170532355515  0.2527514911623480  0.0047686636836004
  0.7525058103034916  0.6746304785510951  0.9163027876054297
  0.9160025190017105  0.5830189576745957  0.1624192789755655
  0.6662125834021327  0.4165581268922308  0.4167131587044264
  0.2583791839027215  0.4145181954969270  0.6668544083540769
  0.4259495944261742  0.5852059212911771  0.6656112801708958
  0.8260585666476092  0.3294258293568167  0.4981464798608131
  0.7489880587690306  0.1757325481187145  0.2508601871206190
  0.2546046386835552  0.8332420724878903  0.0842050642116175
  0.4125853370461592  0.4150403036880548  0.1655188376798284
  0.5832360747097232  0.0002304117875233  0.5850192219497372
  0.6680791952371848  0.4145527950801153  0.2498304619441667
  0.1533745281067622  0.0817671218897387  0.5825754831747862
  0.4149716874338881  0.9089477620739785  0.3335408166443549
  0.5859273482088325  0.9147984391696617  0.3355222118710918
  0.6653515623304458  0.9157445426368729  0.0880209473494334
  0.5018084708497801  0.5860943692809616  0.2560003053035598
  0.4947341354707059  0.5843882921595037  0.0787408616609239
  0.5809766328947344  0.0006865916618790  0.9132912022455715
  0.0016937957609859  0.5043151174556411  0.6675480912257871
  0.0800530701898969  0.6687765639783343  0.4158356532028021
  0.6661447205731400  0.0845142040368722  0.4164606992998789
  0.8264371058261807  0.5826788569507825  0.2527331138625439
  0.5831748875838684  0.3340870670762913  0.0848672085584434
  0.4972816099207005  0.9174730740998926  0.9140384956107240
  0.3320537387521026  0.0739994191171555  0.9138128507340300
  0.5032099350779325  0.1792139309346902  0.4997667322542135
  0.6591938763485808  0.2523847121744612  0.9169030247647391
  0.6675833058714348  0.2502972577847941  0.4157372686421102
  0.4150977214248315  0.0006601487503919  0.2388980332976768
  0.8354437235533639  0.0880810244551230  0.9152508372408696
  0.4219394206403960  0.0012903968704080  0.5916264153905589
  0.5004439709224155  0.0015691727669068  0.1692035255461465
  0.5063186854349438  0.0874230326224713  0.4127027977993908
  0.5936052420467732  0.1653890514330043  0.9152850919149061
  0.9156305547121691  0.0844616167504470  0.3350285456659853
  0.3313917994043406  0.7513383626364872  0.7527963648491715
  0.3297051957101599  0.9050579256576076  0.5848300077817696
  0.9974251135443627  0.6668856678072307  0.0025420673003683
  0.7498746543997481  0.4995708324890388  0.2525052952858369
  0.8360337364443604  0.2497474864812246  0.9163675805941298
  0.4094785946789741  0.9142810801141001  0.1703287198273839
  0.9996611477617694  0.3255764346731042  0.6666219680552640
  0.9983210821159609  0.4142494695911098  0.7586629915830250
  0.2407587574265957  0.1717892488819867  0.5816613951699163
  0.9972615143651014  0.0830704755302735  0.4149557207736543
  0.7490920562421147  0.2509080353643184  0.1669318299953008
  0.8334131068981590  0.6703394032296630  0.4981883962163339
  0.4980387681493417  0.6677032312058301  0.6676145189554570
  0.8255001539810570  0.4999124442424039  0.6682625154154774
  0.0849094342522594  0.5845032233866901  0.8353208361199598
  0.3312915515656252  0.5852180801403428  0.7572677431600600
  0.9984472223810530  0.6729812250302172  0.6696023880692670
  0.9206981953236031  0.5004427266483501  0.5765258132680426
  0.9984779274259885  0.4956862572043386  0.8353813744130943
  0.0007494047373684  0.0844148107864881  0.0899762623059191
  0.7495103096308310  0.8248943678256376  0.2528367251418862
  0.0858131553254481  0.4149047871605774  0.6681757059603854
  0.9151462651168631  0.3310878001729523  0.5819760024894495
  0.3322541876556350  0.0846041938101405  0.5900736812408909
  0.9162409723233261  0.7509958375190857  0.8310436146493759
  0.1625746639581540  0.3321127984653833  0.4976819679748570
  0.9153033266621826  0.9122338772806117  0.1698309579405324
  0.8325141803528887  0.7508315548827394  0.2524018891497092
  0.9894159603941856  0.8337011377029693  0.0010263656897210
  0.9991317755665365  0.6696562794566389  0.4922744040348083
  0.9970386526990472  0.4989028554772150  0.0018891819153187
  0.9966423130194355  0.4165003321264316  0.0857924325174223
  0.0863626649976134  0.0820454745461840  0.9998498446582448
  0.8419402921339219  0.5842901558355234  0.9176755007387617
  0.9969521754636387  0.1718871855049268  0.0004647706321470
  0.9995270949549407  0.0823092659544054  0.5828477056578397
  0.9148009324994123  0.9990056236436391  0.2580638130697286
  0.2473255357466899  0.0821211947507436  0.0018817468879976
  0.0798616018095454  0.4980899294202004  0.4153058150419517
  0.4179095802993160  0.1651686079397031  0.9157947973027755
  0.8301369432853362  0.4984373780014223  0.3330566295085546
  0.9145550924312225  0.5836728953756236  0.3377002047187548
  0.9979571815949747  0.6737619729778038  0.8323041088188481
  0.1672076976295072  0.5013485987010119  0.0019244830445958
  0.1647541404575320  0.9252546879747043  0.0857471285735157
  0.3271354913305302  0.9934774882543752  0.4954628990082183
  0.0756948333537963  0.8335883822392146  0.0866480833637885
  0.9981461156472622  0.9959076204005797  0.0006478856580359
  0.9897204543328398  0.3332814305156495  0.0018407658885668
  0.7526535923657102  0.8311735500220490  0.0843588402061224
  0.8386988773106654  0.9127690190298785  0.9154152074003422
  0.9105183715729948  0.6707097541584729  0.5808202875078954
  0.7531847028958597  0.8236095402863085  0.9159564191459019
  0.8318194385747086  0.7501629699377789  0.4194710083544781
  0.9999292427675071  0.4994209269688881  0.4965274489455352
  0.0040531210471608  0.5830160116267320  0.2506649843260450
  0.3256787841179853  0.0823344283325532  0.4100360955119627
  0.8321852669731213  0.0829218092238276  0.7469075255447333
  0.9147676675236868  0.9176698696456744  0.6648676309162558
  0.9143820423257495  0.3321548850868935  0.7578595489362149
  0.2484131545973128  0.0026904547041072  0.9142824351442236
  0.1664405419577550  0.4155015310686457  0.7568116067230184
  0.0870864040022971  0.6722496100908015  0.5815301852886705
  0.0812977028208432  0.0000556526961915  0.0852184022795217
  0.0811615974282233  0.9155494709961011  0.4989945886331201
  0.1609584796062282  0.0826744835265554  0.4128664092297073
  0.7513084924023423  0.9118067382635937  0.0046090915013299
  0.0815041696034441  0.9163972839645996  0.3333890156023656
  0.1627770394997923  0.3320500279932341  0.3293678861742259
  0.6643485234025500  0.6686782218137757  0.3334671926764998
  0.2470678173979897  0.4948419423065847  0.4082815059927035
  0.8308808994298880  0.4995242395681792  0.4893405677840142
  0.0024748064905306  0.3321519696813643  0.4982854539105874
  0.1668097619715731  0.3333104024168361  0.9971475996850721
  0.3311805709556694  0.7523408647212192  0.5823477775395145
  0.0805925991104380  0.1670412733831157  0.2506497110324615
  0.9985468214759865  0.4139945304419276  0.5769026669740912
  0.3304925996353987  0.9976828643927279  0.6779054132004952
  0.1589886157666167  0.2478999921112774  0.9154953937542888
  0.6574250389397018  0.5012855620305690  0.5819472147467587
  0.5802153047874725  0.7540173639882060  0.9141770311149985
  0.7495954612561465  0.9113891380439938  0.9117690352519859
  0.0772478189464536  0.3326567212065900  0.9988313999867782
  0.5030074908109047  0.4954563957413624  0.2541334160051914
  0.9093667145370324  0.3235584238902802  0.6709133954658255
  0.9996202734376307  0.4149224624485183  0.6681027367557395
  0.3252450622614735  0.0831426880648594  0.4992034047660009
  0.2395294169686616  0.0833236423665538  0.5861009474465054
  0.7489901963799056  0.9124722113182073  0.2540017330882258
  0.4189126865455516  0.9919298318310814  0.5038042372756428
  0.5769874249617313  0.5773286788877462  0.9094797762986466
  0.6616344211281194  0.9156116881030818  0.0019089911602860
  0.8324060130666607  0.5001881181316316  0.5770412152423232
  0.7545970812656864  0.5848674604384003  0.9157405654754244
  0.5856879819057709  0.5838582470713488  0.0847717653086234
  0.4152750868324692  0.9964471261843798  0.3251702212349703
  0.3306866507735783  0.9925615834470372  0.5895034279044892
  0.3312597961197091  0.1616396652058537  0.9147723890307434
  0.7465526644978625  0.0811484597112274  0.0804086033785543
  0.5068046116574206  0.1600550776436648  0.9171475309301481
  0.4102375885140449  0.5827433559080042  0.2532364616432220
  0.9142243832108653  0.3284572516126557  0.4931408845815037
  0.8347253007847728  0.0016504301644117  0.9129034443565381
  0.2494809971316795  0.4948429559422489  0.4946098949471698
  0.3398886165955048  0.5857285218020097  0.6692645329799134
  0.9960541389669544  0.5847314041896259  0.8355953512536241
  0.1730233542662490  0.4130950627709940  0.6688610070305155
  0.4991223938622561  0.3377724081618555  0.9168914666532344
  0.3269426469179551  0.1734994013899974  0.4099854550126765
  0.2532382773593306  0.8314387936488086  0.9953212676482409
  0.5073582227071387  0.0914061300155173  0.5033121495901827
  0.4173718833748049  0.0864772995004658  0.4108380713616991
  0.2470679785152949  0.6658742115514653  0.3338672962615193
  0.5006099220118644  0.8315493398441161  0.5835846150298746
  0.1616857069378851  0.5872423004120706  0.6710575352263953
  0.9982568218030335  0.0839322474165054  0.9986419782642957
  0.1652775533874003  0.8348446171308493  0.0885770838254051
  0.4989374574341397  0.5873023795437120  0.1665541622142689
  0.0749397776465632  0.8334781718675205  0.9962103917589066
  0.9138930917378884  0.5051673888541536  0.6682784944453490
  0.9993831492418003  0.6709865745351979  0.5811694250235458
  0.9170193505168295  0.9999809010894731  0.1689477000336334
  0.4986443930543711  0.9129456337875947  0.1670612863157614
  0.4140167104587729  0.4178707363507231  0.7487979333144883
  0.2462853254328718  0.2497432558962522  0.9164002336212551
  0.2487205978179013  0.5905558767326392  0.5792842266269581
  0.3325963418576208  0.1750076371143729  0.5909097512633634
  0.9151600974683503  0.5832540055757716  0.2498187347360892
  0.7468468813767910  0.0891165201981801  0.2559376583690981
  0.1667071348616339  0.3315165057113481  0.0875040250010560
  0.7478412016905073  0.2504781650417466  0.9159597722675167
  0.6662920531718486  0.3347601582727444  0.8324634249796550
  0.9162453071530916  0.9998581365106022  0.7471251069100002
  0.6675666156664690  0.4171853702055158  0.9171216927461825
  0.6659261002301329  0.2512311576472258  0.0841776027183147
  0.9971988619916702  0.8364174715517233  0.6652215861285855
  0.7503443596533759  0.3338832758449219  0.0842260471594368
  0.8335529000080434  0.8330271424637420  0.8302148107657651
  0.6667041309787290  0.4996562089910692  0.8317276032062896
  0.7487916521551236  0.4150515674239861  0.4970394314945444
  0.6668633753116759  0.3325309832521618  0.6663668958030179
  0.6658833555153201  0.3354703070328758  0.0028418557577145
  0.5898374992194559  0.4988605508397842  0.2514698562326245
  0.7497711029908658  0.4156050079675332  0.1690632324669545
  0.8314588943688279  0.1683196923137104  0.0002663309437502
  0.7491860273941067  0.1647183192113653  0.7480552768568216
  0.7480486640691754  0.3326099249182511  0.4152021713681537
  0.9164427084784752  0.9163619586286801  0.8295620149395246
  0.6657920465699677  0.9992533883886968  0.8298288287838509
  0.5844451937337155  0.9165548713885562  0.5002354667311065
  0.5822817302402388  0.2522749698409236  0.1656991468988925
  0.4162362403545086  0.6685282393186207  0.4177413039521124
  0.6651571370573131  0.1664372053490486  0.0017641657211864
  0.7472657287706053  0.1616457739561804  0.9142257514188069
  0.7479057805464379  0.0823433881763215  0.8295342549350866
  0.6665973588780408  0.1645751317175268  0.8293814320497415
  0.6646075397506833  0.0811373864291784  0.9143049005736325
  0.5813208065983666  0.9996447972724125  0.0847272534586454
  0.7492766300231581  0.0822031495354670  0.6652353788909493
  0.5000310672590823  0.9985187544438343  0.8291584995142367
  0.6676011539814922  0.0832243118060713  0.5841401891507785
  0.5844774514868027  0.9163048217188920  0.6663492250614046
  0.5851510574631690  0.1658635980151025  0.7483698281469939
  0.4992985633811166  0.9152110841387425  0.7485417331195143
  0.6663931708357475  0.2492343175631590  0.7487898136137963
  0.7480327949952755  0.4150729998070735  0.3335949500727584
  0.4143873205508616  0.7513274278271160  0.4992771599150517
  0.8299590761363919  0.1641971456122518  0.6651601352214666
  0.7474314590007862  0.3323667613175439  0.7503084112280499
  0.6670194816314584  0.1685216933463679  0.4996057593497110
  0.6658181134870892  0.2512792550512943  0.2488986202119756
  0.5866002391687125  0.9140017119214738  0.1684672865566368
  0.7496797204616374  0.0002112998746847  0.5819733210905821
  0.6676408360551876  0.1654732388043698  0.6661511694408907
  0.6663660909071083  0.9995512555503283  0.5004838220670718
  0.7493139855576340  0.0840574177479134  0.3412884065311778
  0.7483572584920342  0.2512550007378106  0.3339085529042713
  0.5835678069665937  0.8300861520658107  0.2530238431910727
  0.5748577455655647  0.9172404186858102  0.0005875403509589
  0.5822164650960517  0.9172252681752139  0.8293954315163703
  0.4951022397169718  0.8337944474337915  0.9991795242609895
  0.4980104478361463  0.6671207081388577  0.8314973621449759
  0.5837866409628112  0.7496856406335607  0.6668621972888826
  0.5826165569296875  0.6674769657825964  0.7481902837348882
  0.4988179762179760  0.7495282013110538  0.7499417086011790
  0.8310613277770373  0.4160182437727752  0.2511451399612330
  0.8296844251470461  0.4109919269330742  0.5808772189037591
  0.9144842176608332  0.4179623216570338  0.4950701602651006
  0.8290300913772948  0.4153861907190344  0.7510964090295453
  0.8314877630157747  0.2480102765417596  0.4153207416577240
  0.9156679756033207  0.3337953405584961  0.2515168921663483
  0.8311704999611707  0.3321022533935255  0.3319943848578001
  0.7479658658209102  0.1676290598128101  0.4171813778089263
  0.6655548666347902  0.1693597928253260  0.3337198778419790
  0.7486128933078265  0.3320623776399962  0.2501471411492342
  0.5823242456712315  0.0845423375812543  0.1666480001118426
  0.7497395306065409  0.3391598478667046  0.9184222012215898
  0.7495040729541271  0.1708546239460118  0.0839069377121233
  0.8363060497443302  0.0849708269841803  0.2521534785303377
  0.6679042037097540  0.2498387419763094  0.5838636832370131
  0.7499474313105656  0.9141796241306640  0.1644851458624656
  0.6655000431241408  0.0007630137626287  0.3353905002502124
  0.7480661861462419  0.2492966827834392  0.4989317261260352
  0.6648341770445355  0.1699553010576918  0.1668933717307127
  0.4973029464507703  0.8343536265487589  0.8302865096500018
  0.9154357821578192  0.6688265548577331  0.4154314949466746
  0.7478953323239859  0.0834015197521300  0.9941226953518753
  0.8326356911215944  0.1691308868571705  0.1679060812455690
  0.9212320048111133  0.9999102960581605  0.9139490036828454
  0.9160744191114473  0.1663623132653939  0.2508575973861298
  0.9158327100170084  0.5854085934397391  0.4956766739786336
  0.9139972779540322  0.4981794302267267  0.7554993777119305
  0.9140822450840690  0.5921329047139304  0.6652344474404746
  0.8327907297144900  0.0000334526847900  0.8244419304402663
  0.9975459920705135  0.3317637167073896  0.8352589746278933
  0.8315556099016467  0.5859457969830940  0.7481719798787050
  0.7505148778475508  0.6687577749685095  0.5816821136323072
  0.8322006845728843  0.0000597311538248  0.6648714008263156
  0.8314237536209316  0.1647454065483147  0.8310039669420052
  0.8323652823100487  0.2509592544416305  0.0845268968551852
  0.7489048567131423  0.0000237600685631  0.7467143676674143
  0.9147382156276915  0.2494033207984597  0.0002006318836619
  0.9155640708552224  0.0821861126166188  0.6656695666814296
  0.8335641270747037  0.9162682279118810  0.7458220723244144
  0.7485367167517474  0.8321875403545563  0.4191488292650903
  0.0818492666008902  0.6704282545114754  0.7512588033690890
  0.1639640115077019  0.0819354299127112  0.0849698275849377
  0.7486098893422483  0.0003249266976679  0.4189154816968497
  0.8324032572993330  0.0009950998279191  0.3374805686180711
  0.9167168385034615  0.0835011373056265  0.4989441467485621
  0.9151332032071103  0.4988619951022740  0.0851375365734193
  0.8328017452589769  0.9982864514201967  0.0030652540167898
  0.8335784636994676  0.8312117884353833  0.1690154330276794
  0.8346705157364464  0.6678090384189131  0.0023035079195990
  0.6670079514879379  0.4993180095530655  0.3342782634924014
  0.8331737629620755  0.2501175274784348  0.2499183778152000
  0.6660411940581346  0.7482523469783332  0.5830020003761454
  0.9155849859731003  0.2513450798426281  0.1680251621298509
  0.6678917275705925  0.5849980679030028  0.7477064593307204
  0.8337015895422306  0.0840183860151852  0.4176274885305238
  0.9975225055898395  0.7587732857104073  0.5819506440553226
  0.8318196702370847  0.5854991242497578  0.4163720027081873
  0.8353298368155742  0.0853243176318490  0.0845091629146757
  0.9163417910630276  0.1663130691793350  0.4157305967426832
  0.9151555290528796  0.4157969526197864  0.1683146312751881
  0.4156248612039410  0.7496923817515370  0.3350714875083374
  0.8310863636282310  0.4148700388995137  0.4141745301680475
  0.6666527778295259  0.4170485292301583  0.7488037945958503
  0.9156390001812768  0.2490182228012932  0.3324844477418973
  0.8337323100329487  0.3333612680703228  0.0015835507110097
  0.7475176366970487  0.3311104448149307  0.5814428551573829
  0.6666813912032955  0.8336616504678519  0.6654117074877373
  0.9146045928541170  0.2382921877701735  0.6647267372276510
  0.4147838299170962  0.8318396784713584  0.7502389082058668
  0.8324945769009107  0.4165692196161011  0.9178223195197830
  0.5013572713992250  0.9201799608384292  0.5853155777222134
  0.7511164936179885  0.4990913823913665  0.0853478126720806
  0.5845943227303669  0.8318240243034569  0.4180383699930815
  0.8300550588262674  0.3327275311040759  0.8333428277561826
  0.6664842326802523  0.3339038242035527  0.4978416066652540
  0.8322773008490177  0.5837048183476328  0.0853813140647223
  0.8326705130895953  0.1677516476898135  0.3341402650221952
  0.9147479292432245  0.4171948122454777  0.0001756705312209
  0.2499953735133318  0.4957534939854816  0.5847131856790319
  0.8317008738546803  0.0829629133210979  0.5821646329847945
  0.1653791801752736  0.3323343834102863  0.8335491587127212
  0.9154381110156126  0.1623058438533582  0.5822393006570160
  0.0795981986309648  0.9990678934374058  0.7490680515884749
  0.9162368165588344  0.4993869802500430  0.4144063327811844
  0.2486094456760029  0.4166116557715746  0.8360889421306502
  0.9982838359694626  0.9165832023915935  0.7481372624277700
  0.3295314938492414  0.5843563812561583  0.0840501703335519
  0.9147912903676682  0.4949774438042422  0.2503865027142843
  0.3293143630825729  0.4988808956808766  0.1658190005787205
  0.9142220581306554  0.3320269576547255  0.9158664229817576
  0.1624900772218850  0.4986011260906318  0.3322065954529143
  0.9151331962960858  0.5830672156399613  0.0037567274723777
  0.3378177761270911  0.4977403306887190  0.4998881147846447
  0.9175859179469782  0.7491581604582113  0.0014173704115511
  0.9150954771332559  0.8346852316353586  0.4173730436640486
  0.9978376945416211  0.9169984544455422  0.9140871558674722
  0.7485907774345256  0.9172787765111537  0.6648285020412680
  0.9982975449087996  0.8331164684897662  0.1701466463400080
  0.9165114290852699  0.7503425430942604  0.1691348798173686
  0.6679545959300541  0.7495054125076661  0.0841759162061117
  0.6661347106045810  0.7488435298125645  0.4187923728513779
  0.6670576874305045  0.6694110023589830  0.0002084535462264
  0.9167514257535000  0.6663346637372477  0.0853951760630865
  0.8361328627441990  0.8311119087398267  0.0012216042484116
  0.6673771899603975  0.6683907630455361  0.8304066177357324
  0.9997691229071325  0.6680915053511448  0.3342837778935553
  0.9979005112770625  0.9158000070684524  0.2532671133053394
  0.5848299990850643  0.5850128851959518  0.3348079505583602
  0.6685144639994302  0.6682344887391223  0.1680570859362332
  0.7487997847321636  0.7493231671245676  0.3363401341161473
  0.9156923465046352  0.8321187134036996  0.2530846139113460
  0.7485243408223773  0.6678618574097136  0.4172394556943121
  0.6660063809947151  0.7493475764309494  0.2511833788832681
  0.6666452409217228  0.8308687761159116  0.1665262074607040
  0.8342360566595374  0.9135475276444862  0.0846597232075463
  0.8326697791513108  0.8316958927175864  0.3363934190715661
  0.5822418924479734  0.4996888233620819  0.4159081436297745
  0.6690976494057680  0.4988477356891243  0.1683750300699777
  0.7484025128347019  0.5850726383207198  0.3358033254461565
  0.9977011374741788  0.8367103581933055  0.4986078845648700
  0.7507956332652636  0.5848609214983314  0.8272685263558053
  0.8311551453667132  0.4991865432895062  0.1680577101092066