Cr  N Ni 
 1.0000000000000000
    21.1236799078543598    0.0000000000000000    0.0000000000000000
     0.0000000000000000   21.1236799078543598    0.0000000000000000
     0.0000000000000000    0.0000000000000000   21.1236799078543598
 Cr  N   Ni 
 259  52 605
Direct
  0.2510159140274826  0.8369440617826023  0.2500607952977811
  0.7499714842444120  0.5824129218314360  0.8269948616660475
  0.4142812495571149  0.9179997114444005  0.0055266587727752
  0.6632361776139034  0.5895401053420493  0.9175339373765058
  0.4164794956103688  0.9979322532087990  0.7505062349806088
  0.3301324111129776  0.1658704961359257  0.1685226740693138
  0.6668175638887912  0.8288135988462320  0.3326463671974808
  0.4201709478548183  0.0799729227737622  0.6716621818907808
  0.4135148519781753  0.9952119668587224  0.5828066148353999
  0.3343279625728773  0.9934320831430640  0.6689656825010786
  0.1656572484833670  0.0840177949771695  0.2515220875642514
  0.4115443485179193  0.0807629190526956  0.4957081597931904
  0.4144213443887172  0.0928967097959599  0.1686637383495049
  0.4981937483394270  0.9951199069639608  0.5046188452453110
  0.3302504140704555  0.1678661481866000  0.3326129685079518
  0.6678960899160823  0.9183334918801576  0.4224268529303606
  0.2500634519981067  0.9171651554804560  0.1687970208329480
  0.4093754971993439  0.9978112939938690  0.4138928722605926
  0.4137168597714441  0.0852960995783408  0.9991274876945422
  0.3324295844755962  0.2601514703976541  0.5859151977297501
  0.7544520503290699  0.8362074405864839  0.5826030644867418
  0.4160056574756675  0.4984154801709085  0.2499618764474577
  0.3318068667576768  0.1624735114981526  0.4938062360733397
  0.2475893950396897  0.4992525110226724  0.0790977541172787
  0.7486668583879562  0.6592728484607081  0.5855168800210107
  0.6642662980170652  0.5007642805101923  0.6751009362617291
  0.4972926267654268  0.5861004974959360  0.9162831240651612
  0.7566747945393464  0.4972515145728666  0.9178300665869569
  0.3287378432258696  0.5023466043600681  0.9993573452086703
  0.3249086165988219  0.0022320352695015  0.1678493323029794
  0.6649289029385612  0.6675335516383553  0.0010051583250463
  0.6666974428923411  0.5030469187742896  0.8276833979292815
  0.2461631754630560  0.3336840996355154  0.5841952137498496
  0.3314937741771375  0.3317369831765652  0.1679020305911789
  0.4953624868267794  0.4212119499068900  0.9161088515861372
  0.3304203097338867  0.3332536786451741  0.0010308409652894
  0.2501968764230662  0.3369436145107426  0.9156679923646945
  0.6642964914429426  0.7461164863519764  0.5857334356548479
  0.3312163833606000  0.1647331654424151  0.8320582960172093
  0.3322851780713251  0.1720627468119413  0.6734841070982286
  0.5809336570490096  0.8317473703255785  0.7501481379548495
  0.1686192059823369  0.8348810047995747  0.9996388761724236
  0.7510517882907813  0.7498007213946057  0.4936491112200918
  0.2435801009127356  0.6677736544519903  0.5789157277770021
  0.1638388093156641  0.5795465350766210  0.4088649184926181
  0.9974579867476692  0.2488426401754331  0.4162497634047648
  0.1604819311826012  0.4975293145492702  0.1681294225062390
  0.2487001722969051  0.5827501243006619  0.9990362698909043
  0.8349356625015816  0.2410663404711844  0.7496758625073155
  0.1656288999845252  0.6644596326931719  0.1706438203255753
  0.4174929293724784  0.4977629936613831  0.4187205491405567
  0.8378425772340369  0.2472930226391682  0.9174638805145395
  0.8358344126680802  0.3328467108502667  0.0015541875366287
  0.1577678395793849  0.2489947370914245  0.9187410304680323
  0.1654290661604162  0.4163549538048331  0.4148691717342672
  0.8307692084660072  0.4151563076264316  0.2487207982626136
  0.9990862617376985  0.1652274024446830  0.6647174308838513
  0.2493479984352187  0.4100900340418878  0.1692665656102882
  0.2491288872715526  0.1593139899404047  0.9150220070559607
  0.9113659729386753  0.3317107168527022  0.0835408373702873
  0.6650621676336591  0.6611247182575477  0.1651068821681158
  0.0841429593250965  0.9180164417205091  0.8329549116683698
  0.2461978404318965  0.3351362943942154  0.4141703393623111
  0.4175694407195876  0.4151416911672474  0.4990940598629480
  0.9154208831318985  0.4201707825823497  0.6663053193381074
  0.5821459590825692  0.3286172141139642  0.0745415364653643
  0.8336164132488103  0.9167243298561565  0.4151270992080178
  0.4952933696118302  0.7485896707226908  0.0829623797497131
  0.1651971255922010  0.6686754779959467  0.4965652696983520
  0.1688033338166782  0.7491299014612987  0.9195413414063603
  0.8392207984253192  0.0010903726700535  0.1685546562883638
  0.7504834470307417  0.0025251998080892  0.0770420226766202
  0.8324430761582639  0.2473280756184700  0.2500997252688570
  0.0870103816045589  0.6625426602668877  0.7521877448298858
  0.1651239379423630  0.5833943695662104  0.7512883112269335
  0.3311349139232453  0.8331498499634784  0.4973028162706429
  0.1612873545116186  0.6673854005117607  0.3331521607443323
  0.5803862648962030  0.5085462304778374  0.2485095373185230
  0.2486359098326328  0.9137125095640118  0.4986575978881320
  0.7519388677095379  0.0020777633199615  0.9178796521830528
  0.4998230802157521  0.1685118218620633  0.6724188243369986
  0.4955127428664833  0.7485261478071253  0.9152354478716093
  0.5840917192512713  0.3286933510961967  0.2504256512226133
  0.5780117960695140  0.8273947539728588  0.9156894257966356
  0.3326769429513006  0.5794831351962169  0.5786359490676743
  0.7512954834655247  0.4977093001178769  0.4159702085784045
  0.7487813070868531  0.5028951161139474  0.5827952159632367
  0.2462930921374118  0.4161983108811838  0.6669901186001865
  0.5768345380830874  0.5003983278020248  0.4169009004725557
  0.0872138373251832  0.3314948716738633  0.0836502433677370
  0.0830868555287949  0.6666596906825218  0.2525441584387663
  0.2508611426628490  0.6665515379167999  0.2458784040538075
  0.2498659986410512  0.6678759468614045  0.4208505835946092
  0.1674334887309854  0.6645797331582668  0.9990279274548046
  0.4973693916842891  0.8349100788189262  0.5004705611541458
  0.5824816476367343  0.5864810606278967  0.8313504272107197
  0.4166022097061543  0.3344436288443402  0.4142435166499709
  0.6646259471346231  0.5897847076689793  0.5846954968207535
  0.5787174730074168  0.8360961027788052  0.5834182942408787
  0.4990731831831168  0.9175335361831181  0.0748331828286846
  0.7475795886956130  0.0900584190753186  0.1671785246374340
  0.4945921558148653  0.5021862834814532  0.9925329661232631
  0.5860939557054040  0.4191108597594916  0.1604580277710183
  0.5834236136153077  0.2519002482874361  0.6681981322267224
  0.4966221455711120  0.6669783832888985  0.3340095287405798
  0.4974743476289635  0.6653749132005243  0.8324440907539867
  0.2531369472837994  0.5815542008081219  0.4970695316051136
  0.5812611158127656  0.5838721650467320  0.1661434603669167
  0.5810293545813867  0.7496320304152597  0.8324323521155700
  0.5719339324699719  0.4995140738577216  0.5848444567110672
  0.5786170968464939  0.5043800396593530  0.9169553414150049
  0.4965937803535000  0.5023275999845388  0.8333194317043978
  0.7510284193742163  0.8355480208090929  0.7505154357408622
  0.5020219087244149  0.0003416174881907  0.3278482955380506
  0.5005219708635874  0.1743856804799110  0.4973348736478664
  0.7516296933308743  0.9131317036776360  0.1692337068797239
  0.4936344174485821  0.4151332349912955  0.2496296966098202
  0.4922441470653799  0.3309966242129224  0.1665345605442370
  0.1673813682774028  0.7505015977463658  0.0755660696579385
  0.7501982991515372  0.0043026926225114  0.2537730616755056
  0.4956839261825730  0.3286948708897394  0.0059772595233282
  0.2511236494080039  0.7487469876226315  0.0000244420574471
  0.4058328047233121  0.3339161413918987  0.9163162209841111
  0.4978816464912174  0.3328542532161770  0.8276018555743136
  0.5834788701948509  0.9180731020101325  0.0069843667676395
  0.6654054161245497  0.0880971418326440  0.7507687453020290
  0.8337685992668291  0.0016504067830429  0.4988539678688060
  0.9177989821412920  0.0848878726260674  0.9996356873652626
  0.4980482790400405  0.4981951246863350  0.4995790492413036
  0.6672352582697868  0.9115712827084526  0.7519877825839655
  0.6657635288573439  0.6667874341266357  0.3330852230977561
  0.4971134573036081  0.5819498405948934  0.2501797688462408
  0.4971625894815094  0.5873322709985532  0.0849421026356358
  0.2517098029499842  0.2492324028468741  0.8298991866799196
  0.7561559130380103  0.0025867036347047  0.7503631279655668
  0.5837772536979003  0.3284448128077344  0.9199654104457144
  0.4134815630909628  0.8258015784304940  0.9164231571304970
  0.4116425272510628  0.7482891852989089  0.0001717084362483
  0.3309862355956369  0.7503522389047657  0.9166468420314730
  0.6661269833054597  0.4105060459478219  0.5832695680872572
  0.3322669302014176  0.7577336613164153  0.5815420231118035
  0.8310409816700856  0.3309009515235374  0.4974140252060563
  0.7416809593229066  0.3315784150191286  0.7501172132266595
  0.8281326897366401  0.3308345246305948  0.6627463312432403
  0.4142094024564844  0.7479267446436325  0.1656422306764778
  0.4177492516907529  0.6683118357766347  0.4154081122830763
  0.4156504351585396  0.7485498238460514  0.3337904451141203
  0.8358048887944860  0.2468841518163686  0.0831584741404203
  0.7517516793016229  0.5006499715316450  0.0838758415451209
  0.7501618784507448  0.6743786781721497  0.9169279495022200
  0.7509096424880443  0.3306978908545309  0.4172573557768052
  0.3309391251683886  0.6702158168043975  0.6716013599011440
  0.3313462669682712  0.4166956255379837  0.7510301584425234
  0.7528574525308329  0.7513760870159183  0.1677491586922984
  0.3312281188136567  0.7494977957759043  0.0830952590866608
  0.6677274709150941  0.0885494730033583  0.2499420222583941
  0.3305641683393744  0.6659748722173979  0.9998335655481798
  0.6728358620627005  0.4148711299423963  0.2483058878378007
  0.6672986610165432  0.0003705597221446  0.6610857988806486
  0.3305570810555612  0.5807963336258368  0.7548270612295900
  0.5763436855391940  0.9157035034370232  0.3307010641121720
  0.5000501992565248  0.9108761281199519  0.4140326494492421
  0.5810724307288921  0.0051655575530514  0.9165453472643562
  0.8337982528901855  0.5846040014276711  0.4197416095497246
  0.4961976283767204  0.9166271248096614  0.9172187764061790
  0.4998202130939811  0.0893106683434541  0.4096856001623125
  0.5926877621454955  0.0849170947536252  0.4995270907184490
  0.6672050224790853  0.0858717937277823  0.4179673829478038
  0.6678130090817888  0.2470485294214749  0.2505054695418783
  0.5811381065500608  0.1652437844546251  0.0824594261957515
  0.7502108505039622  0.1649611533772334  0.2510111436913895
  0.3227246464429441  0.9188613318245027  0.9150652551402804
  0.5023854795277601  0.0057138054470302  0.1683297220095867
  0.6619769893711460  0.2478335755998893  0.9175239465093759
  0.5825368611851647  0.1641143533412765  0.9151431400715849
  0.4163999140350072  0.9152111537401342  0.3334781870615570
  0.6668824850291284  0.1644412705764086  0.6674845250119993
  0.4961430543194503  0.0800797614439323  0.5897011853708596
  0.2485333129082866  0.9152337477500140  0.6671575437788905
  0.9162210763168560  0.4987286307841209  0.0831510586623246
  0.4910290991241414  0.7519373118075329  0.5828080176699995
  0.4103371959944402  0.9156863302839086  0.1661655000884634
  0.0882802887454167  0.8349354046328280  0.5828282328161702
  0.9194106342938559  0.3334394573404403  0.7553288512940801
  0.9995793163826657  0.6684529759699652  0.9995943772718778
  0.9144511851207915  0.0843048428377492  0.3340052033030511
  0.9156370805980968  0.2467771654480465  0.9986665733409575
  0.8351546991273184  0.6719425123579428  0.3333378998444883
  0.0041468323648917  0.3285164349083697  0.6652585828848938
  0.8337512022478110  0.5001039523245439  0.6695097947885414
  0.2407563893397356  0.1734977512233996  0.5816631327621458
  0.9987591875475438  0.4176343057848760  0.7574392290686215
  0.7505530492491277  0.4138419655596429  0.1661671688793899
  0.9092674384413185  0.6700841204451600  0.4158316685410115
  0.5831794375322435  0.3293740451408493  0.4162713726583172
  0.1552249806624370  0.0817358298256629  0.5815020146966884
  0.7498845057492718  0.9231456671161260  0.0007377802495357
  0.9172159661386476  0.8301835782691419  0.0887991440314535
  0.0808098888610072  0.2506465889207786  0.4969951425821142
  0.1641320254757284  0.0818854570951618  0.7482918405385506
  0.9223257351217223  0.4983078004024256  0.5820477209426194
  0.0045969561451663  0.8279428279985653  0.9989606957495858
  0.9965207640244444  0.7525664016867711  0.7509025522632322
  0.8335371663764607  0.9177275050076188  0.2500122693145871
  0.9980871572569373  0.3321038408706160  0.1736289637948189
  0.2495490754067496  0.0837019388751825  0.4919150064441798
  0.3357918027641917  0.0785726136199565  0.5784982261075889
  0.8407258357399408  0.5839196986852436  0.9179851496042476
  0.9985068763354188  0.1645137051674948  0.9994860084663757
  0.0824948011361529  0.9939229480309650  0.4150615660062745
  0.1653868708909690  0.2494518908722763  0.2500495157819869
  0.2472238524627968  0.0859445420665529  0.9999443197453713
  0.9985664581592349  0.1636217506996873  0.8324400584485505
  0.7431773811724396  0.5824543389782504  0.3334943139717609
  0.0889244099515234  0.9150389303792605  0.9984582081172833
  0.0833836415519559  0.6693877742559649  0.5819044779348127
  0.0864402063745578  0.4979280952133200  0.0818073214356931
  0.9153176982604183  0.8356748999011692  0.2494733921417210
  0.0799114139356913  0.0839402415334337  0.5023407980804254
  0.0005732875335980  0.7502325372493823  0.0842307042491597
  0.1639615920263835  0.4162713142596824  0.0821510035201443
  0.0813489202799523  0.9172325960941554  0.3323871508096921
  0.8323436183178319  0.5010321248572036  0.8337008638959096
  0.9972713073070443  0.0059682986902469  0.0009669333062705
  0.0815221916118214  0.0833105769850626  0.3259239923462750
  0.0903978462841030  0.4185379623043747  0.6669351904897709
  0.9142823156006108  0.2410477806565711  0.6660018546240793
  0.9143422709493867  0.8356093777384213  0.4145941770615476
  0.9992636820226024  0.3346407133614180  0.8335424114093261
  0.1655451675961273  0.3396198667533674  0.8347412983027582
  0.9987714414837856  0.0013159490371669  0.1681430638338414
  0.9162798301161617  0.7421051305824629  0.9998633840439329
  0.9165930509969735  0.8340424295876345  0.7519548060369114
  0.0002723599781068  0.5770940084723118  0.7519060361411088
  0.7498642979077271  0.8298702312111470  0.9121231867310583
  0.0820666311425401  0.9984467638577339  0.5818697491830347
  0.9975601570273401  0.7478072879824869  0.5825219412641571
  0.9126243185917962  0.9199610888961722  0.9994765370910856
  0.9985552868571702  0.5777999324542086  0.4144249640827662
  0.9985935629997976  0.4136161334182261  0.4152190909288728
  0.9999733350926352  0.6693981487387725  0.5045911870610784
  0.9992637478061740  0.6694573131399956  0.3266405775276816
  0.9140949472429815  0.9202747602903570  0.6678756425969493
  0.0823885403847748  0.0925608284780489  0.0021344143604562
  0.1746043036134420  0.0020182085786709  0.9994613222572021
  0.0000045767369323  0.6700973229498633  0.1694617297685162
  0.9977116961936046  0.9233445603725239  0.5829715251210857
  0.0834758910673472  0.0028577225365090  0.0941828106297179
  0.0823291712328379  0.0859151870887853  0.1686238129939845
  0.1646282377585502  0.4908954382721206  0.4988385119791925
  0.2435150471767281  0.2519292980293989  0.4986085092412113
  0.1711941417512663  0.7519281734845549  0.7512923349896874
  0.0812003206141989  0.3316802563718508  0.2502574142017508
  0.2496774826827529  0.2507756084148368  0.0067976896681039
  0.8317862041484586  0.4983707517169170  0.4925470423347210
  0.9989551391832724  0.4956891521012455  0.1668939942101397
  0.8321353551044962  0.5835108531751462  0.2437580436603002
  0.0802017935595578  0.4157312659267573  0.4966875105933341
  0.2423008319602792  0.0811077401543160  0.6696244535211773
  0.3313556298701318  0.2522440112013084  0.4971769333650738
  0.2427120021094335  0.0807548573786383  0.5791856765115821
  0.5031335035655781  0.1721932163432868  0.5859131697251211
  0.5843029645831667  0.9167401326259798  0.9181780468898685
  0.2490007307638919  0.4981503500353570  0.1680135942607073
  0.0044678145406106  0.4186597947319189  0.6673425981618164
  0.4990059031268305  0.9992144091584739  0.4151293890026935
  0.0003459850649402  0.8357402391038771  0.5812067069068100
  0.6669587615762546  0.8368215333306152  0.5824861227574637
  0.9999414693591715  0.3309214856120638  0.0842362485165435
  0.6683660975221360  0.4993845763612105  0.9158188834449164
  0.8283453164921337  0.3292592102859327  0.7534782326019908
  0.6652030556839655  0.7487009283084676  0.1660241423235490
  0.1622468294883799  0.2516195213428534  0.8294309012290763
  0.0850234781202016  0.7535758853988926  0.7515580540761473
  0.4980827434385727  0.5006406192951542  0.0792928109538442
  0.8361258999281874  0.5011489963169831  0.5810994754568403
  0.5020997922247517  0.0848768605806851  0.4996476459127130
  0.9986283267762818  0.5826629379269120  0.1663810943756374
  0.4127673001872660  0.0049317690925906  0.1676620439713880
  0.3326284576347658  0.5801983835543918  0.6679315527175586
  0.6637106920439207  0.4996123465284552  0.4145522088980317
  0.7534213450934327  0.5873891987729974  0.9166277542522564
  0.9162521562442565  0.3293585786070302  0.6619606365003458
  0.5831785643846434  0.4196606698851686  0.2508513204030055
  0.6597172223399993  0.4997596894159613  0.5868922367834621
  0.5809103733032458  0.3297628339208797  0.1612964427385832
  0.6663339604343930  0.9998148468195109  0.7494701263196839
  0.0819152532026559  0.0820208310696692  0.4135278997459776
  0.0871941788518860  0.0053523008137532  0.0026062808823873
  0.5762672024664841  0.7462915942556577  0.5836394272310795
  0.3319972034524082  0.6696114275156182  0.5815745780652489
  0.2498289739116206  0.6663222146874049  0.3331027712838088
  0.7500833547318324  0.2478107512597350  0.9166656093450720
  0.9963796395987800  0.6634344868522652  0.7513985809146253
  0.4937780963538011  0.3282877699371612  0.9165312023110860
  0.7550329977979869  0.7467602185967194  0.5828813283069300
  0.1643064894154799  0.5795627634055124  0.4974099883430579
  0.7485523678656709  0.0010051664415369  0.1652773469353419
  0.0005790285382356  0.9168495161789050  0.9986138182318149
  0.8313385992388695  0.5825786850912082  0.3311271715506061
  0.3315766654167944  0.0821372955814470  0.6707348356179331
  0.5845102477646575  0.4154715045769096  0.9160299191759369
  0.9161741875984265  0.8300023271203548  0.9987378327416777
  0.9977139863209340  0.6669826707283791  0.4151292419750440
  0.3292941882692383  0.1709256371502554  0.5845940211142673
  0.7453832024923744  0.8350263844711416  0.9985926461273349
  0.2482915557391686  0.2479487697481603  0.9196886330504801
  0.6641751388393679  0.9169995591909913  0.3351872997535498
  0.4083605826480264  0.9163393397373436  0.9167359744057160
  0.1666606623609903  0.7513743247819591  0.1631634601492169
  0.4996729396461819  0.9164284613487595  0.1626729160642191
  0.9977345058545574  0.8356632323459241  0.6706269352844666
  0.7528998461171791  0.3310312602056146  0.0837292740253246
  0.9157864232655886  0.9179965066169186  0.8310933474104621
  0.8327580444694662  0.8341885847305875  0.8334306539516848
  0.6692807530649697  0.4165338686204408  0.0827663767081189
  0.7494665784779794  0.1646556322198112  0.7492008296318241
  0.6653510629699892  0.4160468746349688  0.7501334731744547
  0.6663491584269935  0.3321094211722311  0.6667756625495596
  0.6679006226233150  0.3304862802873422  0.0028205677886226
  0.6663006718540724  0.5847765807568271  0.0827146815058885
  0.7505194616365121  0.3295767331850289  0.2495455796333216
  0.7476561765569296  0.2464130991220671  0.8287582975007137
  0.6645983816387105  0.3310782935108947  0.8339573793934385
  0.6727634145372542  0.4100194858291982  0.9195632808631053
  0.7489438048257725  0.4137906550156229  0.4994044569595670
  0.6656619786464675  0.4099687880640321  0.4171711085758984
  0.4981867810896084  0.9157740269534925  0.5842390152669921
  0.9144775816917285  0.4141011938870148  0.3327830537052128
  0.6655750880398501  0.1644772159350833  0.8339943451931201
  0.4965125216059492  0.8313532666674979  0.8321328171824267
  0.6649568751911064  0.0854128222122660  0.0822099766095480
  0.6670359540514605  0.8344199891244940  0.6718825165738639
  0.4987445406067664  0.9998248376830048  0.8336692080532648
  0.4979688920952625  0.8330702051489279  0.6678609631041355
  0.5818345369331952  0.9157174187718228  0.6667024054449322
  0.5828500062422878  0.8322684054543608  0.4162789323132819
  0.4985221778417932  0.9146669095207060  0.7499458463369734
  0.6661410404939034  0.3317404197648539  0.4993277352262675
  0.5827177217359086  0.9164112900283632  0.5004735511534806
  0.4979184189406680  0.8314262104248542  0.3315384755801588
  0.4986234579342952  0.7521461067034593  0.4162768576792468
  0.7497871997190101  0.4162796076199037  0.8329410998297627
  0.7514421988916034  0.1606050343153140  0.9169395348629097
  0.7529532690084620  0.4158971625755618  0.0028687348110403
  0.8305743495900838  0.4116267173581469  0.5814194928873108
  0.7518767172374989  0.0020661097603721  0.5823842837754297
  0.4964890734174657  0.8285373807798548  0.1657414204506089
  0.6714701403305242  0.9178433564361956  0.9158410040060341
  0.4966746590972669  0.8311345048269189  0.0011434616211380
  0.5809592325507276  0.6682252837708431  0.9173935911088436
  0.5814216797425675  0.7498286403495219  0.6727123161205337
  0.5808330953621119  0.6675257747973123  0.7504331544426581
  0.4970887259479999  0.7494561394853116  0.7512915142011951
  0.4968713305071794  0.6677185907207325  0.6684079009589680
  0.7501985708786031  0.0833756602033644  0.0000505044079568
  0.7483435164855181  0.2469854627776475  0.6663765899636985
  0.6609047164404178  0.0030920684522974  0.1655730745111347
  0.6666364368878069  0.0055391962603885  0.3334687779441819
  0.7499730026444508  0.2498388927552734  0.4992842873038905
  0.7488839686549809  0.1661118002618645  0.5827334552066955
  0.6665207235141374  0.2505651416031831  0.5841400450441648
  0.6680268394084568  0.1685927238149170  0.4994022975666376
  0.7500484265339953  0.2488954189365866  0.3333368935116492
  0.5860305818611998  0.9173025682610868  0.1656694644212197
  0.7529059013423829  0.3350515532568689  0.9180271560396179
  0.7512041560207932  0.1654278055742762  0.0831655280041471
  0.6662036325691681  0.2462780872916782  0.0818045684720460
  0.6650661028034173  0.1645916295145664  0.9998164693239119
  0.7510388890775009  0.0837533076360822  0.8332613355071393
  0.8331239568747090  0.9189477512588724  0.9156115715672243
  0.6662447272965946  0.0828307227173045  0.9173605193596360
  0.7501750744842420  0.0833926504967874  0.6659990215418687
  0.7496953965330316  0.0841285216672018  0.4993422688145724
  0.5823668190976712  0.1665772702475773  0.7496822539941588
  0.6649316789131364  0.2472354571896488  0.7492256601694801
  0.6675947880938734  0.0011276460135146  0.8379242593133225
  0.7500319642299469  0.4133865259799492  0.3324280070535219
  0.6681103995199063  0.0836970637862533  0.5838759807358739
  0.6688778365696768  0.0010613872353973  0.5001680624837576
  0.7503765315937907  0.0850153742042283  0.3346629790199067
  0.6674743537936557  0.2507744019874475  0.4168189433311339
  0.5808818309599180  0.8308082892294683  0.2501234755114570
  0.6660805998851724  0.1678181526080295  0.1652558207530040
  0.9160642367270764  0.4149968625637639  0.4964772163545830
  0.8402814250556790  0.7502065585200786  0.5831604004253349
  0.9156231043409926  0.0012283990063517  0.7488445404196679
  0.8330470939846799  0.0004652847611373  0.8336022179812452
  0.8326305577628412  0.9171873326586099  0.7510181690094448
  0.8332290345522612  0.5824996151765023  0.7496113997021899
  0.9166981101552072  0.0843408959287802  0.6658026529018977
  0.9167397170446430  0.0828118099618942  0.8323461223618165
  0.8351253111858788  0.0819815991621964  0.9167932573988327
  0.7514473345925967  0.2481485201728640  0.0046467417069221
  0.9174418344279643  0.0016382807254624  0.9157678121922678
  0.8346818990202295  0.1650390684582683  0.0003315597590988
  0.9177228028788804  0.5829987413742437  0.4985911758145365
  0.8335091725103870  0.1655674209706126  0.1675280203492662
  0.9168023419820380  0.5828306637729760  0.6662229878454213
  0.9154562094765587  0.1660124478430504  0.2513240418937944
  0.9989782559906174  0.2478326636691587  0.9168922373189525
  0.9155056008473916  0.5000608716970502  0.7516416324596299
  0.8343640381600439  0.1643809211946477  0.8332328146002108
  0.8340513080061508  0.5892651216441894  0.5822631025160305
  0.9159866955902355  0.7500468143494524  0.1684733972318682
  0.8346956708314296  0.0016996426761881  0.9998731630874051
  0.0807787407669767  0.4146420999109133  0.3329757478041782
  0.8336887331098016  0.6669756839930328  0.0012391748472718
  0.9996079519494164  0.4144215885972137  0.5778088886128044
  0.8331844378739517  0.0841123714345389  0.2509513932046454
  0.9149114558128242  0.2482819836011589  0.4975587985646888
  0.9145370348029614  0.2485726151243493  0.1687616147695985
  0.9982562311967572  0.2493574510942253  0.2506001456702261
  0.8335259623148553  0.0836321300041626  0.4169238109348469
  0.9985898878268671  0.0833281909919494  0.2509244551322246
  0.9156413479115643  0.5819872449897983  0.8340165637850931
  0.1672368239024506  0.0852976821836419  0.0864422221485507
  0.7509327469538257  0.0014626020096980  0.4170941481815267
  0.9934135864460469  0.0833019707392158  0.4152074457055905
  0.9151940135744515  0.0829437484855313  0.4990743896498063
  0.9116217545133851  0.5825074812046693  0.1661260561403044
  0.6664304266676067  0.4988647392179485  0.3270315660567245
  0.9165077609022563  0.0839712262283649  0.1687367919604712
  0.9172579997796062  0.5838255996648423  0.0021494955446715
  0.8345433081822707  0.3324992362667387  0.8395118055504179
  0.6676077625756923  0.1681622604890851  0.3341650588478521
  0.8328154959701263  0.1667899754139321  0.3337142220450374
  0.7508442662598861  0.2473094366022798  0.1664113129275716
  0.8334449839261097  0.5833286774349092  0.0843305394859805
  0.5827527710949844  0.0872141914114589  0.1673020228473702
  0.9144144696274800  0.4155247051996144  0.1675132992182272
  0.8325414034903411  0.4188994744611060  0.7500611625427682
  0.8318368355668921  0.4136795204562972  0.4162932196440491
  0.8324975956962875  0.2488636224804980  0.4165066693019502
  0.9150278541813996  0.3315016259370790  0.4156122137565851
  0.9139861980838970  0.3322023173232548  0.2506622705364795
  0.7494603335757691  0.3307080495917523  0.5825071121560441
  0.8314686664363821  0.3312240565594543  0.3328167136282575
  0.9156038953862833  0.3311428399154616  0.5745895703164458
  0.7503215029425073  0.1666438343792078  0.4171566258204010
  0.8349328600037008  0.4997499986562720  0.0016569607117268
  0.8347179855371094  0.4166675588729097  0.9179677738937412
  0.9176750054164285  0.3324201084880277  0.9164177314658506
  0.4137960594218337  0.4178209704212056  0.8328235402369593
  0.8334490416625848  0.7491554614252902  0.0856506224576264
  0.3359575770846357  0.4998004595227972  0.1674634059708027
  0.9164787650696917  0.4165907420659605  0.9998590805403280
  0.4150210664692970  0.5835041238209612  0.1673296904654248
  0.9145576156972810  0.2497611873678690  0.3328916213590386
  0.1642181866965028  0.4151991624425718  0.5818931957892203
  0.8326572777294331  0.1658033787057573  0.4987598868731787
  0.2485611236670196  0.4153761563440886  0.4992680477426994
  0.9164449126568537  0.1655933967441492  0.5812693791771864
  0.1647860118615727  0.5821477988552577  0.5851367664079039
  0.9157848243908244  0.4981760489678985  0.4152072066769494
  0.1653810670775831  0.4166309480772360  0.7501246079763828
  0.8339006775359568  0.0837774115281663  0.7495639916157060
  0.3309551791028004  0.4179788600917323  0.9167092671277434
  0.9143575409773190  0.4971957066447759  0.2496255871826644
  0.8335107047369469  0.6671840176621374  0.6676267849257389
  0.7523257387609430  0.9176259381555991  0.6671512749679015
  0.7500722715792779  0.7494643550357869  0.3337426130171586
  0.7494686100477446  0.6674131764827641  0.4154504459484143
  0.6652912063236849  0.6686388272477882  0.8323657984621023
  0.8349295661045525  0.9192887699206728  0.0845781870345551
  0.9984347703151911  0.9177211881002536  0.2498232326290507
  0.6662093193511879  0.9187674345015312  0.0829996396956123
  0.7500322742144363  0.6665895979363683  0.0844101433005486
  0.8325539769891994  0.4983403662072987  0.1661422001107213
  0.8337502624784044  0.8343734493170519  0.1670316886121697
  0.0817371957433219  0.9177117776472388  0.6659735799210463
  0.6651590336410949  0.7488605263054284  0.2540787410756415
  0.0007600749381602  0.9185305545680349  0.9098225340849564
  0.8320347134361170  0.6676343703213279  0.1672712192326841
  0.1669973411578924  0.0008429896805413  0.1692268881804475
  0.6658397289665844  0.7490691480283014  0.4151018588862235
  0.1631270608994166  0.2506015779969338  0.7437918336684207
  0.9167163250456530  0.6670622320287543  0.0850843167302417
  0.6654926701106183  0.0026240038591410  0.0002196606261014
  0.2483246588367077  0.0843263728743743  0.3318963571062641
  0.8340388797624462  0.8357790845701858  0.4981435183110911
  0.8326702847884515  0.0009839763130756  0.3336511778572015
  0.9152889950582446  0.9176029285658386  0.3326273305111319
  0.8344708442074957  0.8348244886574193  0.6686016990443464
  0.8329675869181613  0.8341343511922658  0.3322761636866069
  0.9142624247087869  0.9189891301258227  0.4988746406951500
  0.5795690383891882  0.6661797381812309  0.0826309620743245