Cr  N Ni 
 1.0000000000000000
    21.1236799078543598    0.0000000000000000    0.0000000000000000
     0.0000000000000000   21.1236799078543598    0.0000000000000000
     0.0000000000000000    0.0000000000000000   21.1236799078543598
 Cr  N   Ni 
 259  52 605
Direct
  0.1627203730985184  0.8353242852621765  0.3327765959405761
  0.0000277776895118  0.5072917919277409  0.6682442197374763
  0.4984413537281517  0.3343072262640727  0.0063091244555694
  0.9163781614631925  0.6684360077676335  0.4176413320216282
  0.3230220678849082  0.9179693681875507  0.9142137082249621
  0.8329585714517692  0.5830245594847200  0.2436936801406832
  0.6601484611507722  0.2508352053373069  0.9168792805875126
  0.4964146279096558  0.9153535503272633  0.9150260080603506
  0.4123627192230348  0.0013026380474622  0.2475082661969736
  0.5852108464843059  0.0859701541016134  0.5063803056096410
  0.4170297650060229  0.9997455996706430  0.5935380941701729
  0.5830854811312330  0.1776326350693637  0.4176711023131758
  0.5013176628869789  0.0867824706340297  0.4202077327039991
  0.7529516398542212  0.0828488008045688  0.0009637008434141
  0.6757048345128911  0.0855539838464794  0.4195561636678480
  0.5039090920730854  0.9996637536616287  0.1682878458847281
  0.5920033885752214  0.1653980196586232  0.9146850373085972
  0.9974950839883474  0.6629990979527121  0.0003736011368049
  0.8359300982990994  0.9995108229873000  0.3430443747367374
  0.8373198231758494  0.2495860285212130  0.9156887774181380
  0.3291312492034782  0.9061731233601159  0.5846842194717471
  0.9993242203553386  0.3268982067677097  0.6672180989685522
  0.8324650962196422  0.4987613829205367  0.1686289997621307
  0.2418402102234377  0.1718003541014579  0.5832594563780666
  0.4084798720268383  0.9120730326324790  0.1677343997465481
  0.7484524159683935  0.3298207213184787  0.2499768997521968
  0.9984980109579726  0.4169219249270591  0.7573603186008023
  0.4985363615065734  0.6688567264753423  0.6665638436162352
  0.9933177076155451  0.0840396426661843  0.4171705237924014
  0.3291974163162891  0.7509750573457810  0.7489129136622267
  0.8342594012281594  0.4989090842655324  0.6727949077994642
  0.8295907854360066  0.6650524106417540  0.3329533268274201
  0.5838324758015446  0.0042085320828620  0.9125239562708379
  0.4111645482152982  0.7492721802511439  0.9993972875971037
  0.4162214638305435  0.5833882790790347  0.4990895206986061
  0.6662339290345928  0.4095125042218662  0.5841849571215612
  0.8235507443631644  0.3311182412927284  0.6675302378510926
  0.7501543319171595  0.2472713020080314  0.6657043572944413
  0.5822474794406074  0.7479849233145731  0.3350616424670481
  0.4993519161481314  0.7411734089278087  0.5822531864388766
  0.7532023973165093  0.6736242556316723  0.9121669093504050
  0.9168738431070553  0.4981906752846838  0.0848826576445265
  0.2467798411477439  0.4923123225673562  0.7484950220398287
  0.4231252610250950  0.5830706088115605  0.6642315972323335
  0.8335392289843430  0.3307855666316894  0.4983597098833116
  0.7496297484851230  0.1769709794426033  0.2495824080780286
  0.2524737504260443  0.8319603751773711  0.0818086459436216
  0.4131862360055581  0.7511281391962570  0.1671671775676036
  0.5926362012298718  0.0008482326667095  0.5834473400638227
  0.6733768902856327  0.4124556611168535  0.2487015455769980
  0.7491296119598608  0.2507733592937186  0.0051641723431679
  0.4143738322712262  0.9080584827143016  0.3343948217507307
  0.5840970159224189  0.9144547436143573  0.3356584311084429
  0.4153969864774635  0.3324786995239463  0.2486945509769740
  0.4944170784027668  0.5905731061558949  0.2484985746395182
  0.4919106241281272  0.5852798543463562  0.0867620439456687
  0.1527199724563970  0.0821789537594796  0.5846801238424676
  0.1629693788998165  0.2492389894839128  0.7505379949211284
  0.9978831595045501  0.1658938921792560  0.8313595045502622
  0.6660552863092150  0.9103788396817546  0.0834846887569729
  0.5888467680575395  0.3342611125271712  0.9156622694636942
  0.4148211986684188  0.9167684532490546  0.8232677640082000
  0.1624190460512732  0.6687503201446914  0.8332379202862658
  0.3275455512900360  0.7493499007823453  0.9143599665545853
  0.3337241118249523  0.5834762393174309  0.7508402348430770
  0.3315631937425919  0.0841847174530346  0.5859526255634653
  0.9978255669298951  0.2471428601670141  0.7498669427795147
  0.8331098005368740  0.9992127046859948  0.6656861458504980
  0.9986135120064487  0.6677852441869608  0.4927459714921628
  0.0887577166364359  0.6686146858767456  0.5835897465769764
  0.7505122144382713  0.9143648719081982  0.0071629993690906
  0.0871904457677949  0.0819686193595322  0.0002818499236178
  0.0805546029933012  0.0843923773158776  0.5041243953044017
  0.9102097118709082  0.7511100414225393  0.0001433113936023
  0.0801987792120676  0.9976448323990745  0.5832035994895136
  0.0825078355413423  0.9163371258292771  0.3328502019946238
  0.7535337816949924  0.8272280072690449  0.9138586993050091
  0.9998853160520420  0.5828942029329262  0.4158948952427193
  0.0827953624256321  0.0836169296162660  0.3271488666972196
  0.9984886674977226  0.9959464821812964  0.0007036528505905
  0.9221938227508518  0.5838956135532628  0.3352730279991202
  0.9992297894215991  0.7565191620723116  0.5848248292807553
  0.1632262952333124  0.9239249769538450  0.0856469896717070
  0.1633054102316682  0.3318754152711188  0.3321050279513481
  0.7493063515079846  0.6674541019188772  0.2483545465215902
  0.2471740296227247  0.4962064540139002  0.4111777418457917
  0.8363746630594299  0.4987850487545846  0.4947906068647336
  0.9992840782509690  0.3316960282164635  0.4995896737073758
  0.0812536265772980  0.2467845449039320  0.0004054394226169
  0.2455179023028646  0.7523433361505274  0.6668528625229762
  0.0816424839911221  0.2509997141120621  0.3317879869641697
  0.9994127833010226  0.4150491917609764  0.5776142522042305
  0.2449733467945492  0.0835057591350470  0.6775633428496757
  0.1591966908076293  0.2463019673690332  0.9165709141588319
  0.9996354119039303  0.5788039322974349  0.5814326903774545
  0.9998445680454284  0.4136167921116163  0.4168289542753009
  0.9988337258207096  0.3301035033730296  0.9956956291217116
  0.1633022247499123  0.9988102801071859  0.9979258868781621
  0.8455539986144893  0.5826404920102980  0.9141052180148638
  0.9975043575327511  0.1730096665802872  0.9986785393611505
  0.9180155575278811  0.9155575138673653  0.1675863528344183
  0.0001482232808490  0.0848668368502363  0.2518524998167820
  0.2452399820541404  0.0815641985919837  0.0012341006775943
  0.9229020910647253  0.4983972297035666  0.5821850276317299
  0.3287230177617308  0.0762303984649979  0.9145441650995311
  0.8336670766146470  0.4898836937564865  0.3309574537994320
  0.7495863273982696  0.9135304238749352  0.1602121453967044
  0.9973922880505022  0.7523689300813610  0.7491061671585453
  0.1635731985765863  0.5016645782268806  0.9930839880425196
  0.0817015874118499  0.9991565454184839  0.0854452055307904
  0.3262009213986132  0.9992975540889470  0.4949428033875539
  0.0010630524701800  0.7486115997796149  0.0886499321051622
  0.9998215971769858  0.5826536761893211  0.2521713182740256
  0.9147767053777278  0.3325785774614938  0.9150254214138621
  0.0002798323033324  0.0824558693369910  0.0887940164653060
  0.9983575620251042  0.9990196074446889  0.6654498963614900
  0.0910173511378205  0.4150229916673503  0.6669872025641007
  0.9162552784743111  0.3313931895204404  0.5753845074260265
  0.1636466245551607  0.4170781204239502  0.7497653921629308
  0.9188974266411202  0.7514780090729811  0.8282768918871982
  0.1623468018355815  0.3316139364590757  0.4991538250101381
  0.8446065722781704  0.9164334957921170  0.9142258812243598
  0.8327652212153701  0.7485320348065708  0.2459701458649362
  0.9986528594059312  0.8399973295621462  0.9982360728728099
  0.8338534347237169  0.7513503340490942  0.4215084962471512
  0.0742354286078299  0.5007294371148731  0.0830511776932107
  0.9984053479843582  0.4225323211026947  0.0835123346724099
  0.3237839059702944  0.0806055513041332  0.4169105045847328
  0.5810215291428420  0.6669579172802933  0.2526068963046239
  0.6644118955855929  0.4142372738068125  0.4170865475089873
  0.4982774966833153  0.4145328222241227  0.7496377438474919
  0.1637518260206019  0.8339640808756791  0.9932841836746176
  0.6694906803884635  0.9138948196323762  0.9139872776895488
  0.2470084434990206  0.5832355986903843  0.6568635214977283
  0.7481424209960827  0.7489688657756142  0.5000956371608758
  0.1602554085196904  0.5006320731710112  0.1706477957436954
  0.9156200439339565  0.2511125494237508  0.3332016958989748
  0.0789228744298512  0.6666501076236871  0.0844079766356499
  0.8304153036303362  0.1649300119900939  0.6653204318629424
  0.7504075042544975  0.4170651138818257  0.0014693658956605
  0.7492889125366253  0.2485303942468257  0.8279511140829300
  0.6695678071082770  0.9160246457738068  0.7472691366782831
  0.8309344357648613  0.4148526493867606  0.2491485290910058
  0.3319946121364086  0.3318874921934826  0.3320925126939719
  0.9216535160246604  0.7485011557594554  0.3349061325024692
  0.2437415870988326  0.1598083772820149  0.9165456298209450
  0.4133060398416958  0.5861933869838098  0.1675194705159359
  0.2459655719950991  0.6707271218648612  0.0832808652155659
  0.0787170712280232  0.9989681031601899  0.7500317176165232
  0.7515673979357124  0.6675001651215953  0.0895234658414926
  0.3377887486446513  0.4975470311270881  0.5029422680046729
  0.3324853385409179  0.3330730747951906  0.4996454864039337
  0.2489899010838299  0.4096032154654854  0.1690666844760664
  0.9136724308244223  0.4194169149997427  0.6678058224890324
  0.4985188816343084  0.4184399394820711  0.9164478077170666
  0.3371830935713432  0.2515151861509238  0.9171613036830701
  0.0752784802148013  0.3328029078589300  0.9161653309588437
  0.2506687891928512  0.3369437751065999  0.9170547679414962
  0.8334411514183155  0.5908277730152075  0.5852690638542439
  0.9990359343575046  0.1662457388258796  0.6680145253918921
  0.4158512417444184  0.3332534507598661  0.7499272062059542
  0.3303906582569182  0.1661266156357785  0.6775890595752712
  0.3313393913821551  0.4169198594676084  0.7485094265285721
  0.9158959311537846  0.9171788657691446  0.5020194694568685
  0.4956131110080776  0.5904207356248763  0.9162178340590297
  0.4989171862585404  0.8317247581405955  0.6722921491827256
  0.3220200855814088  0.5841064485173616  0.9173381937190456
  0.6589434230861565  0.9132621606236131  0.2528130279636291
  0.7492629945565570  0.4156495403106245  0.8317992684995326
  0.5012202139419262  0.0894187383101200  0.5847474952582559
  0.7524739469513887  0.7564949989236346  0.9996780042412234
  0.2471764809748776  0.0000410591127664  0.2508110997138037
  0.7506830856861646  0.5832179895344455  0.8244051156549654
  0.4133890613889227  0.9967315928308180  0.0750095345568362
  0.6702778917952683  0.5835140916342981  0.9125841578605658
  0.3310124913321947  0.1682722018650873  0.3258698772446853
  0.3301867214575731  0.2490808259836816  0.0858772328506614
  0.3289549084333760  0.9157479422409341  0.0835131673103151
  0.5016487525302284  0.0853644561521879  0.7482574900238281
  0.2442246914600004  0.9976340940094965  0.7508816023285461
  0.3318720326775368  0.2615309414278091  0.5829132716732038
  0.4169211911167454  0.0877387064898640  0.5046426286000499
  0.4103816718091475  0.4992616700588486  0.2515345857209374
  0.5049564210834361  0.9997088485305261  0.4977805090895333
  0.2512636725558330  0.5015692263483165  0.0805829704500381
  0.6665528713028063  0.9155379130269601  0.4174150130107733
  0.6667456983353216  0.5859970803598946  0.7501889828306968
  0.3302964501048048  0.8325667245964676  0.3337638747902305
  0.7510844049525557  0.5796593919838079  0.0031419397181297
  0.5007671612096740  0.1687818614321271  0.1647648269775062
  0.3249067777703867  0.0002773046305893  0.1662608671344436
  0.7504608266566710  0.8328504842741138  0.5830745893361293
  0.4166228725441903  0.9954295924707897  0.4184192502457227
  0.3327827301303607  0.1692567952598684  0.5011620214634908
  0.9098855329285311  0.3332130389837603  0.0842348687764553
  0.3314489806453617  0.2583618822717003  0.4167662818836060
  0.7506670591726453  0.7521315926886391  0.6640502065663617
  0.5833794189040998  0.4972795256153946  0.0849669385297151
  0.5872793893911984  0.4971612318646112  0.9147785829845635
  0.4133211057511409  0.5834770435717217  0.8251457224597258
  0.8360742909025469  0.0894723103524454  0.2492658170283135
  0.4981112791702381  0.8226612195217897  0.1679183244529903
  0.4150369769721862  0.0888323474974177  0.3263515842917843
  0.5015422747010352  0.3336849328208845  0.6688397917940285
  0.4968451538706767  0.4165079635021299  0.0834872193542839
  0.4962664639316298  0.4121431519274714  0.2485208075505786
  0.2469506371892318  0.5870026921605678  0.5004459680421256
  0.5812697737743774  0.7507852590552797  0.9989060395967739
  0.7464267673850018  0.0022852025666214  0.2511986358429929
  0.5013758159379994  0.8310851485259911  0.4955692121707992
  0.5832812483237295  0.7516032699223385  0.8292145035982932
  0.4081180534608116  0.3340475400891428  0.9162956305057658
  0.5821519772881786  0.6788978927054722  0.9126795810001829
  0.6693559987943065  0.0829970649523274  0.7471786925220701
  0.8322777504452712  0.1666837508706113  0.4990338135825857
  0.5847598480475589  0.5859079101834319  0.8213064088443147
  0.5011831679392683  0.2517971494295980  0.4165463566162620
  0.5903521462743447  0.8328326735616962  0.5832788594991198
  0.5819511504732326  0.6740744248916676  0.0827560555192804
  0.4987055008659669  0.1674657671633940  0.0079253821956819
  0.4108209857775807  0.6777793484660634  0.9144819378475878
  0.6651088674554844  0.5880391275501791  0.5861378434377257
  0.5020860069092474  0.2461347471367861  0.9160592671321826
  0.3357696622544252  0.6665471749495561  0.3350197312899288
  0.5716998512135975  0.5001357424799092  0.5832142954181101
  0.5000903543652053  0.3337670302013683  0.8246141580836058
  0.4960761377660480  0.4997265060630959  0.1598413819184045
  0.5815823069377373  0.1677563062970057  0.0825723680077107
  0.4982790348612170  0.4145491218442523  0.4179657138893662
  0.5864700358186938  0.5021369636437574  0.2502057819334543
  0.1626177295065512  0.8344415113236415  0.5003395643615756
  0.5755201460096031  0.0004370859274600  0.0825450309676024
  0.5004177665392415  0.0724175489098539  0.9130730557396673
  0.2399808933396850  0.9939489804560190  0.5842890782974979
  0.1631486202488325  0.7461402717977301  0.0842302653761490
  0.8366572059868884  0.9131428789389784  0.2492372832611572
  0.8345540605511592  0.0848494046753881  0.0829373151902018
  0.2466786113305533  0.7494463661866720  0.9978746812088566
  0.1626507696181667  0.7509037444367940  0.9163444968398707
  0.9166782750404836  0.5846541994535750  0.8311442583331382
  0.4981431081348008  0.9139418691526279  0.0780475458532480
  0.5827545851125919  0.0867172843172080  0.3279303861306185
  0.1585151463758819  0.6668342480430123  0.3341037728342494
  0.9103154875528880  0.0834272034379160  0.9993121830868070
  0.7527775332212789  0.0049887592381939  0.9150536865684444
  0.7519472221739296  0.9987007254101554  0.0823465833027811
  0.1581667689118380  0.5854290557369262  0.7527220028202547
  0.1625646912134182  0.6677437169521081  0.4986683138406525
  0.1622570895504767  0.5837865686426925  0.9166599425356295
  0.3344922226893856  0.5834476924711446  0.5739233644120038
  0.6622614464347635  0.5001230160691713  0.4938218152510894
  0.7469653523730330  0.5005120744038174  0.5848258184733583
  0.7482177047040475  0.4975787943702132  0.4091370426770256
  0.2467125066847166  0.6678837382607011  0.4236107060034691
  0.0848868501354333  0.3307892395543807  0.0854867041255832
  0.0821106348858083  0.6672296258425316  0.2516165724103050
  0.2467641272818339  0.6686217699174205  0.2472349873014088
  0.5823695814800109  0.8259457686058798  0.9135303653560961
  0.2456161527884013  0.4955789714151758  0.5864769663242922
  0.9987180404051570  0.0840323649681680  0.9994797395653399
  0.0814368515562355  0.0828587505463727  0.4152334481787633
  0.2484183303115448  0.2490399915930714  0.9178162395698437
  0.3331362995816409  0.1745465944509287  0.5907403466061674
  0.6631730407162891  0.9993117700638430  0.0843774390865188
  0.5862293640705255  0.4126011260800433  0.2509337094821540
  0.8370085445118818  0.0012821413579120  0.2545742363018316
  0.7466661382737100  0.0910850115487668  0.2504763735642800
  0.4984208725187533  0.3317387295762030  0.9157660242907020
  0.1639789289188575  0.8351632665618781  0.0830799837155243
  0.4067195845010554  0.5888819325890986  0.9146114964880406
  0.4084969441672891  0.9145397992698722  0.9105463894729109
  0.2474559944439171  0.6659975632827353  0.3348015530225919
  0.3269564408184415  0.1706849568449000  0.4129364783271262
  0.8319259406089450  0.7543640819234163  0.3334570128849328
  0.4982487520872176  0.9101451356428937  0.1659099862866515
  0.9969611877194183  0.7514816333879926  0.9991365047974949
  0.8325452538735005  0.5763669439119171  0.3324465349991841
  0.0000351710096265  0.6679610925562613  0.5826063757785540
  0.4131188530819456  0.0872938300661451  0.4149244715549051
  0.1620610615818360  0.5009959571181195  0.0810436655370968
  0.7487304034428476  0.2493004166926939  0.9165487472263640
  0.4975191813864892  0.5034596268115086  0.9166477529379176
  0.5001800380111103  0.8292460086285339  0.5841117814558918
  0.2443505828240714  0.5813944177299182  0.7475595072632382
  0.4157405674183569  0.9946022871065557  0.5061840130715040
  0.2477670987879548  0.4974771521094417  0.4984436203376675
  0.6575076352353005  0.4985110966024487  0.5863129262841926
  0.5829096692450889  0.9152392252819243  0.9125825099577911
  0.3279437248151902  0.9931532980185214  0.5879239253222169
  0.5839215654047637  0.5897923225033399  0.9099026049135563
  0.4977856207012615  0.5023419010252042  0.2513378978106048
  0.5065995378988396  0.0013977376886348  0.5901565609697285
  0.3331506847597185  0.1620097962725267  0.9135433627073078
  0.7527813391786303  0.6686714044790271  0.0019868632849933
  0.2400937477288135  0.0829371783736335  0.5878183364170191
  0.3363886251509509  0.5837195202266721  0.6621286955245792
  0.4140091917570410  0.9965760747061506  0.3320942989939302
  0.4139478910553633  0.0051988196993243  0.1596400797449193
  0.1620659534208027  0.3360113211879420  0.9170758235860327
  0.0035194848302348  0.4177912191171572  0.6680337022464150
  0.7578811336918816  0.9162924391394663  0.9165872478106535
  0.7496677023674095  0.5007336281336311  0.4945833006185374
  0.2492743324490522  0.4978052163924376  0.1701485147390881
  0.9972929216677927  0.3331376880577095  0.0857951482342585
  0.7465941248606551  0.9118345766775159  0.2497235875648348
  0.5044549067341461  0.1582105253230208  0.9182215777357706
  0.8358118766257648  0.5012949648130354  0.5847986843111804
  0.5893731384582759  0.0866634242055887  0.4164617618005870
  0.9100557444165507  0.3293182976792344  0.6650479842045117
  0.5812126302926196  0.5858822560703512  0.0834616785998997
  0.7588183856908362  0.5813775284344440  0.9125718942454698
  0.8338678043347032  0.4989223468137556  0.8314368509005337
  0.9145102966576997  0.3319314621063919  0.7537802790940528
  0.0811307043281314  0.5818400862426857  0.3339445277162251
  0.0828108079801024  0.5004463073919798  0.7520026052178737
  0.1601060465072816  0.4985555197623708  0.4982859498404396
  0.0838575244626768  0.5839981859369681  0.6667543093979222
  0.9980605611993304  0.5004700164739985  0.8333483672498122
  0.9987437318749154  0.4993415550201569  0.1689963983381929
  0.9990628170864679  0.4981964123763092  0.3333114961468936
  0.9991483140489675  0.6659283152493907  0.1692411304218492
  0.0804465056755591  0.5840934903218529  0.1689121550269442
  0.0825058184929870  0.5830260288814212  0.4977711082092137
  0.0810053621820099  0.4975619592681790  0.4151813644819473
  0.9955899587076512  0.5838232059438767  0.9157120563568565
  0.0793911101881960  0.5843004600672079  0.9990924647353135
  0.0808102530976818  0.4171198610724575  0.8331168588860884
  0.4981140483115616  0.0834236296828677  0.0837294524494236
  0.5011236234569542  0.9996192092588576  0.6765295190946993
  0.0798785603010513  0.6663760798491976  0.9148807323512882
  0.5826971791387278  0.6663144400188176  0.5837715649219928
  0.9990674845068948  0.9172856352638341  0.0847904059793163
  0.0812417302754865  0.9175533219248241  0.1689086192492477
  0.0799137113408491  0.8349419889194948  0.9143522485357697
  0.2464889705966503  0.9170952574871705  0.9987990455703630
  0.0811362781557269  0.8340420158251498  0.2516442724384303
  0.5018557528628624  0.9137468326793152  0.4173213023769857
  0.9988326674341728  0.8347741700820639  0.3335581120312457
  0.6601028176106111  0.0869108627170398  0.2481910041041997
  0.0818772415383305  0.7516569953043266  0.3341236046275615
  0.5852739268793867  0.9970389023939890  0.4167070028169637
  0.1632892621457261  0.6666818616943901  0.1687464750709706
  0.5001389646563290  0.0862488940805739  0.2487553069470127
  0.0002871349874294  0.7501259438863583  0.2512347419494739
  0.6693977980636935  0.9998331690902793  0.6666822148534906
  0.0847334577323308  0.7495543662515419  0.9982625943253483
  0.4136964622159512  0.0030875163953579  0.9150758781085994
  0.5820919079114212  0.3272206920290108  0.2481214396125205
  0.0813792495597719  0.9179251711747697  0.9979161657786482
  0.4163013999122838  0.0859047906441545  0.6697200818793002
  0.5874392035687344  0.0007633861466773  0.7484039370614295
  0.5864518294839424  0.0838741670223383  0.6667159948464911
  0.4989776809994290  0.9991663668601430  0.9984301831734761
  0.5844045817953928  0.8320057882040984  0.7473848279508556
  0.4983153442895093  0.2508410506988417  0.0838397207600048
  0.9995407092650247  0.6666560144398994  0.6703358329186618
  0.5816786273194677  0.1703061106841480  0.2483038806795967
  0.4981718683089782  0.2509937975614594  0.2477295870609220
  0.5001599045771713  0.1699236870072203  0.3308109602033120
  0.5824740748391243  0.9996912286690391  0.2522965582329903
  0.4166994915178114  0.3327042912594800  0.4165510255538457
  0.5041884027422041  0.9999950985374119  0.3338159422841258
  0.6629790411755602  0.9994773903526086  0.1718156813125914
  0.4125325196173663  0.9147301104350263  0.0000635330504615
  0.4113809870360457  0.8322938808848364  0.0816592167045773
  0.0820986145859691  0.7491837792893993  0.1687694446122922
  0.0804809363620731  0.5837381515441189  0.8344542089674767
  0.0812336251829595  0.1676958128319674  0.2500572971966260
  0.9986821754849490  0.1664961204220057  0.1679930539267579
  0.2466870937686954  0.8336308243046253  0.9147250257259663
  0.9974985434413450  0.4163512605622148  0.9163461950151639
  0.0820915567343706  0.7517954979157330  0.4994061848293555
  0.0795140601023006  0.0823761589649628  0.6681319534189116
  0.0803259448541947  0.9170165895143662  0.8319345115782874
  0.9968428901403095  0.2476659319940122  0.9142904182321905
  0.4146701217473411  0.8310111981061886  0.4170211044634995
  0.4143132688670855  0.0816328641725060  0.0006644994450393
  0.5855922907093992  0.0821192203517709  0.8294175333140302
  0.3296398509056559  0.8314568804421613  0.1671293345997213
  0.4136982466782693  0.8304491766298163  0.2512235869063253
  0.3293994900292825  0.9141513372537570  0.2507142185327587
  0.2473582429110088  0.8335185317755066  0.2512409830899686
  0.3284914558604262  0.9133635276766613  0.4166520378883500
  0.9983788007438653  0.6677306003813799  0.8313425013341027
  0.9170622977545925  0.8336352959818649  0.9142685502961061
  0.3327778921031262  0.4131509421453267  0.5829569025330829
  0.0801234862632727  0.1679638576487875  0.5842355286960772
  0.0821092725184579  0.7520013517192098  0.6670964590054038
  0.0800515092030017  0.1663288115411709  0.7496402218175164
  0.9983042900498108  0.2482935226118931  0.5823793691933555
  0.9151326739533888  0.2484097859034661  0.8318724189529693
  0.0809822156940721  0.3314892267972219  0.7510733533277035
  0.9975432801687367  0.3333093934510232  0.1725933648736525
  0.0811462331185134  0.2491471366000766  0.6670498707799706
  0.0791648226057182  0.5017475355034796  0.9156351510064002
  0.0811482409705960  0.1656871265356245  0.9152193188714880
  0.9992656070941045  0.4153812086218130  0.2515277300647435
  0.9981842466171245  0.2453764339144272  0.0847946257459585
  0.2478361150585159  0.5778698026026526  0.3352769438292676
  0.1632012743940921  0.2519830028324059  0.4154706142226768
  0.2468432274137200  0.2520416289453780  0.3323724990776235
  0.1643669841455523  0.2483846692276857  0.0851888109517511
  0.8318384232308585  0.7507142786307848  0.5821061446764110
  0.0808277182763898  0.9150629094602182  0.5008908203677492
  0.9146429908646145  0.1653971093499148  0.7489446179483492
  0.4169656727279259  0.4139534376209019  0.5002269295233033
  0.2441403664548024  0.9152281137243112  0.6687430870282899
  0.1643273610630074  0.3312055098984222  0.6678710389535093
  0.9143747216493514  0.1663676649848483  0.9146934654923025
  0.2473910464951838  0.3348664727254004  0.7490392420134987
  0.8321472935975470  0.3330108999779151  0.1675393150747234
  0.9160354426618112  0.0833451810398180  0.8305622511895812
  0.9152297698437442  0.2481218245583972  0.4985982539885387
  0.1628592675820400  0.4220832712244106  0.9169480517338932
  0.1634442117319717  0.5828195635825283  0.4156336478117351
  0.1640607779906753  0.4123665324220901  0.0849572151785783
  0.8321503651033997  0.2478191998110523  0.5814194065498488
  0.1629175852894431  0.5836990426646997  0.2514642930378382
  0.8336371402052717  0.5845712068331755  0.4202567859257788
  0.2474604477855641  0.5875018722200651  0.1686708843424816
  0.9986163563592652  0.5827485343096347  0.0851632984054408
  0.4159340890691033  0.4149848797666360  0.6659632641029697
  0.0812731642822260  0.4171523667262443  0.1685824491713915
  0.9980543136725722  0.1663367282274941  0.4994293157900203
  0.9155326812709924  0.1669993068811841  0.0841264737185264
  0.0813434410833459  0.8346578677373112  0.4164990081553547
  0.0818946452699093  0.1655610235915158  0.0848685128689023
  0.1637156589125203  0.5903511956467148  0.0836405477432939
  0.0795870968896705  0.0828546650599653  0.8311220348095849
  0.0802755008209781  0.2485024488084394  0.8321340780188312
  0.2477551059676533  0.2481162304375663  0.0063901758025774
  0.0763331580757947  0.8352408322806174  0.0843931807601675
  0.0818941872047724  0.6681576519877623  0.4171316401137377
  0.9973578140800292  0.5003105590098800  0.9986308683197315
  0.0001175682251219  0.5840380484945316  0.7505532757701273
  0.9173696973204207  0.8338087570749794  0.0848991875417414
  0.9972909358372863  0.0830678444785087  0.7483260226309761
  0.9992735199094257  0.0000928019375379  0.1681306546239380
  0.9991502034432335  0.3322657792778427  0.3330636034175970
  0.9990606110079038  0.9163436714935799  0.4178280467762004
  0.1626736662371828  0.1657922627594900  0.8318074233769652
  0.9983828890388272  0.0829529183467293  0.9115647609658031
  0.0812903755680120  0.3307831608788865  0.5826860433876696
  0.8329719883925912  0.6689774205588480  0.6667889985216939
  0.0818942102930545  0.2494824501085336  0.1677982349849154
  0.9124771004749936  0.6683554734221645  0.5824871933110916
  0.9174900799192581  0.9161418256910063  0.0004498747810080
  0.7491393425827066  0.8330781167578427  0.4185165854034662
  0.0811788383248144  0.9996276419196835  0.2506092535866634
  0.8330022422266463  0.6680226756061123  0.5000926867448698
  0.9990938872373876  0.0004792450544348  0.3336994519227456
  0.0000627858326302  0.7521874194888420  0.4170337796243502
  0.9984942762134621  0.9992570117653774  0.5011900256739619
  0.9173655472144469  0.8343395796487093  0.4185723061776059
  0.0819005210206699  0.4149727796901914  0.4983946275461940
  0.7509075717885741  0.9172363052055531  0.8270113361811289
  0.9978327659930717  0.9159381800971281  0.5834588944551015
  0.6668783117264837  0.7497291967251701  0.5835289032409077
  0.0812476686783687  0.3320229239662103  0.4156278939624564
  0.4128108833918662  0.6694449956329880  0.0838605464267495
  0.3325452553809630  0.4140429954667231  0.2516502823549968
  0.2456851286251266  0.8330827434541718  0.4167298991263790
  0.5836769286892296  0.2518756966425814  0.5018581874993908
  0.3293947390514913  0.0828549847808063  0.0834981757635462
  0.4979196291510436  0.4993069177910751  0.3392604169889101
  0.3249166000043172  0.9995525757774109  0.3329952287880866
  0.5814833751856952  0.4147856604086368  0.4993310348308100
  0.3291044687460185  0.9994155302195397  0.6749299626761156
  0.4981836438276542  0.5847217606085183  0.7491404432304443
  0.3294056736473125  0.4152272971948518  0.0836784465581537
  0.4983683573157295  0.5860760374139554  0.5816324499365491
  0.4201016526086759  0.4978137855968420  0.5825903390063798
  0.4168412333317508  0.2526919018652151  0.6683374226249517
  0.3317682311836812  0.4941014858722534  0.6639552434938467
  0.4185563175551155  0.1678955690539944  0.7493614177066864
  0.4970867747083846  0.4997167387438084  0.0062711388393614
  0.4114173805599878  0.8295743406879187  0.5849538653678054
  0.2455777755724078  0.9159947324710976  0.8324405312139376
  0.3286385482938857  0.0848892619384767  0.2482677797045232
  0.3276890338993180  0.9994100905201764  0.9990226875926659
  0.4216552117965413  0.1767263877310776  0.4173512252766297
  0.3314569483495532  0.0817739836250453  0.7514416158709858
  0.4148780392079086  0.0915863955682402  0.1674307459695491
  0.0810471598940766  0.9947151039829647  0.4170247514534999
  0.1637466153348637  0.9151194433687498  0.4160923989304350
  0.1648235245358871  0.9167460645191385  0.2509795217409180
  0.3290075438650033  0.8314349278157358  0.5002409934482622