Cr  N Ni 
 1.0000000000000000
    21.1236799078543598    0.0000000000000000    0.0000000000000000
     0.0000000000000000   21.1236799078543598    0.0000000000000000
     0.0000000000000000    0.0000000000000000   21.1236799078543598
 Cr  N   Ni 
 259  52 605
Direct
  0.2468520321642521  0.8355283847457504  0.2592695574282204
  0.4983034655624614  0.2445999966381210  0.2464588167660357
  0.1624347677106543  0.1651678258060329  0.1681106828640918
  0.7494109714001004  0.9163821637944575  0.6656763594904055
  0.5004610110405047  0.1681209315403861  0.1664552775218304
  0.3307110934640539  0.1742647851325204  0.4958910928402074
  0.3286945566625132  0.1689775149420247  0.3318205853677328
  0.9146974280646780  0.9182608511078181  0.4988532057993094
  0.3407114472235619  0.8344583448443068  0.9987520814308342
  0.4897722840032865  0.5832066721202469  0.9140101893859959
  0.4998752504524757  0.8321109913542868  0.6714696186574739
  0.3290766041876757  0.5007480979503529  0.0002835578410843
  0.6616922576651214  0.9157332403840703  0.2515518393790527
  0.7498759226949151  0.4946729056614122  0.9185506616937301
  0.4994229080237148  0.0903320746647143  0.5911141143595732
  0.7512858829603546  0.7498782892839526  0.0021799535849335
  0.6603865641995048  0.5850138833352090  0.7468523174387057
  0.7504121373873273  0.6743549870542052  0.7472540703856819
  0.6667125737794705  0.5840138928606996  0.9179606033329385
  0.7497764187217322  0.5846350221757004  0.0102502722929065
  0.2540035585094033  0.3329451170447058  0.0857547084354305
  0.2460869128066850  0.0015576637879631  0.2513905579696017
  0.5006175715802219  0.0844470633615037  0.7494150410880384
  0.4173124116848152  0.9952174280625236  0.4136739104297084
  0.2454966875137856  0.9990723782367873  0.7482833425350832
  0.3299535170168339  0.2606863073645646  0.5830605606753689
  0.4172506385913596  0.0888762031185947  0.5031172519201798
  0.3296280236428766  0.4160121317575682  0.2500377113899006
  0.5057741825556736  0.9966285940324842  0.4944021199585369
  0.1659676228388161  0.5004514962642862  0.1701607021841812
  0.1608640432354375  0.8343221284453148  0.1744184206999459
  0.7498059390075538  0.9998141983160171  0.4157211197934068
  0.3249199799188099  0.4174055048171846  0.7518051825408582
  0.2439885319667275  0.1581153101772025  0.9168833203933143
  0.7503344575467708  0.5845644768408221  0.1699728336516323
  0.9969066840519202  0.9991207306092658  0.8303746023402615
  0.4145336780020633  0.4911908815844193  0.2492393210559044
  0.4180961665317345  0.3268917439937964  0.5837904392306945
  0.3361602775630085  0.2511024681790057  0.9192476197239158
  0.4972130079761132  0.4235431397224906  0.9162797675098919
  0.7537008377665073  0.5007293800761549  0.5799933415005243
  0.2459518856759557  0.3375912653607229  0.9193941838708541
  0.3307527026785325  0.1672603790948247  0.6752021306273233
  0.4169887460484267  0.3277908767823128  0.7518838844116658
  0.2470850701082783  0.4070582615306357  0.4970644150857143
  0.1630168279273531  0.8295186926522992  0.9955162870527305
  0.6667381310483265  0.9147832134558098  0.9160309875287532
  0.6682221826213290  0.9154292774873041  0.7474153432771037
  0.2514148309210101  0.5849838020916712  0.6634781771344040
  0.7493541981792869  0.9156132894586106  0.4991241015007399
  0.9152051071944521  0.9170396240147224  0.3329793696230341
  0.0813247076159230  0.5835768880721974  0.1691833085904979
  0.9192445858293149  0.4989645640472092  0.4126207995055989
  0.4151448202458842  0.1753753737116474  0.4144289731556831
  0.0802466285699750  0.6643279508211924  0.0858145254246042
  0.7500766070181187  0.1660111103246804  0.5831068819841597
  0.9099940447775112  0.4161980608456308  0.6664875581750851
  0.7521013576973694  0.4183676672920082  0.0033734334787774
  0.7493923102789456  0.2467068304967189  0.8274574032807018
  0.0830765653414358  0.3302575760970013  0.9109180542006970
  0.9987555296955459  0.4155020658949790  0.2504801152423284
  0.3315424429050620  0.3331238054282920  0.3317629490772240
  0.9996034344468750  0.1631866657967170  0.6661809468174766
  0.4125627900554514  0.5818842486194674  0.1621559399059804
  0.9068308397715300  0.4166999729412010  0.0021071031597210
  0.5845659239165005  0.4165274338731406  0.8298090145135195
  0.1652756433429754  0.8335074966363888  0.8329103341935342
  0.6659845443988502  0.6666237802708975  0.4984549656631107
  0.7500070309204304  0.9139138191943770  0.1557080039856688
  0.5840767491381571  0.0853154796388077  0.3332721705790891
  0.9107520747216945  0.5855585329264743  0.8314364513459034
  0.1661416498337976  0.5014313871697701  0.6658240386408144
  0.1618969939124120  0.8354229276916373  0.3323891519689691
  0.1586455591486925  0.6680882167079756  0.3352230913934590
  0.5843836588794716  0.5828756413432161  0.1765778019802981
  0.2364889009420899  0.9999160385154086  0.5848029948723580
  0.7515123208013197  0.0046716422468276  0.9166340598962067
  0.4979522083111861  0.0724365629963483  0.9171022373399291
  0.9156806495316718  0.0840280779473407  0.1681269231356865
  0.1665588457865080  0.6764455662451448  0.6647520617936680
  0.3292073292346913  0.1664773325183057  0.1666795444719475
  0.5837034377633173  0.5840285938445651  0.8240066434106181
  0.5010551162045095  0.8323259286117746  0.4934921650477867
  0.1640805016066998  0.5854516787962006  0.5737981756486442
  0.3341481320210813  0.5855637503683865  0.5765350282192341
  0.6646548137725020  0.4999825428243292  0.4913883747812411
  0.6651036171543512  0.5906534862396841  0.5824780490288523
  0.2475913957139139  0.6685681046155372  0.4228334661193447
  0.5798359603616924  0.8365296071312949  0.9151875910232586
  0.0765089222712931  0.3337403671595023  0.0877862837750107
  0.9991686572117555  0.7506336113806276  0.2514357773777278
  0.2481475761129847  0.6661091478648760  0.2471416815941990
  0.2476199940274784  0.5849457542761821  0.8332572143827160
  0.7414345712301552  0.4996118894514145  0.4140584254492850
  0.5814630631070166  0.6636643631906816  0.9160492401320032
  0.5819930892806410  0.6737363294221732  0.0849689207080853
  0.5002229543166642  0.4149154374871412  0.4157672170136639
  0.5049052764776533  0.4139517193328485  0.5824544875656614
  0.5022373041351836  0.3320733620992678  0.8284222664892978
  0.5827023553993030  0.5829925594521095  0.0010029538719695
  0.2478744515073714  0.5855455159694484  0.5009377188442951
  0.8299474710114536  0.1638074886896193  0.4989546514579228
  0.5832453325783283  0.4861364039222573  0.9158070803734982
  0.6731638642399653  0.5829229086668314  0.0856273231508431
  0.5891297685922019  0.8318449059998186  0.5822973333194953
  0.4993977534592437  0.8258767693392800  0.1686971585516905
  0.7499310924845756  0.0844265170152039  0.1638968788523502
  0.4882766984248736  0.7500134247091997  0.9148126161194767
  0.4990203032861261  0.3335601570949090  0.0094688053314739
  0.9134003117375202  0.5944634845073052  0.6650962407531227
  0.3369398756253920  0.6679928670716760  0.3360853326332718
  0.5804944522962404  0.7506846852088496  0.0050113538172809
  0.6674189556762752  0.0850185124201249  0.0866312081322732
  0.5832339788269331  0.7510799179742087  0.8266191337324610
  0.4080546382565565  0.3322067446394936  0.9174036564963710
  0.9869764023353575  0.8333180033779358  0.0011587715302339
  0.4122160640014454  0.5833052675521041  0.8316853531054427
  0.6684019776936579  0.0822613791195190  0.7477139799077339
  0.2492555400268457  0.7410025339710546  0.0002205619657479
  0.4153768394130092  0.0877761006403621  0.3238721124850539
  0.5009960894699511  0.2483684633360301  0.4152160520901166
  0.4963938629004339  0.9172522158630398  0.0777241366172400
  0.4984095601493125  0.4201434899445096  0.2489096230972957
  0.4995616778282707  0.1663581906310709  0.0079623948172337
  0.9077730407505569  0.0836643614638599  0.0001672224171059
  0.7503325219404274  0.9993857196709569  0.2514381006998292
  0.5009123121955890  0.2477398581347676  0.9195887923896440
  0.8388896926877001  0.9176422287586894  0.2509626824712345
  0.5019205044004231  0.4146719882270690  0.7508043599578497
  0.2481005811618786  0.6663965200285709  0.0836514675421174
  0.4141392210746318  0.5822412582633254  0.3388125440944739
  0.5880364946683139  0.3319166851689214  0.2494408301680273
  0.5917271922077731  0.0004759861223188  0.5830943718179076
  0.5024426076984057  0.9127664116347943  0.2548627407957463
  0.4169192473593664  0.9095887804744531  0.3298929387608274
  0.4941875171307808  0.5841006290902043  0.0893739454698246
  0.5063957651120287  0.5824212278821960  0.2503329069880399
  0.9973607155829199  0.1641635365887740  0.8316945931644077
  0.2456183411411253  0.2474796980674438  0.8261568678070348
  0.4145907163730976  0.9180226194271109  0.8299976996697903
  0.5876954119553024  0.3360089689147109  0.9178039722166784
  0.7487143957879246  0.2509773612720003  0.0052383978104976
  0.2492013338644401  0.8329085643598713  0.9066654034942180
  0.4130276046582021  0.7502495231387615  0.0002777778846276
  0.6674224636375214  0.4153278890912084  0.4163856360208903
  0.4993480913771224  0.5842963518389763  0.4139237291496338
  0.6659138627136419  0.4112201109767502  0.5816104373900389
  0.8276074161888313  0.3289859818499827  0.4980183029708575
  0.8229662290469546  0.3314845954917291  0.6671743497590031
  0.6675850317533829  0.2485903810086431  0.7506088030779117
  0.4144166017853368  0.6704855295181211  0.2528577300893862
  0.5849158377215610  0.7493287669752772  0.3346507150047989
  0.4103357270340966  0.8311992400144663  0.5841539180498385
  0.4122458672827721  0.4178007295932483  0.1655380378985236
  0.7513466784971955  0.6759372047789303  0.9174217905927693
  0.9162695531894155  0.6651265188369813  0.0873647863236299
  0.1615355467406079  0.0830531402158570  0.5841432504181554
  0.2564819999300307  0.4137214332018136  0.6654977315822294
  0.4256602920021029  0.5852969012148220  0.6642721815634146
  0.6655981189765664  0.9160775069269880  0.0830518457374281
  0.7489912935730995  0.0837876666074851  0.3391547072965710
  0.2519876944097986  0.8315505852200513  0.0843617575021477
  0.5845935541192027  0.0088741163352937  0.9176756616474131
  0.7484356785358416  0.4997211861515546  0.2519145106624246
  0.4099222414798149  0.9170162518033932  0.1700755735729078
  0.6594270810197033  0.2515962550968961  0.9179627702094818
  0.9146255855744393  0.4971555262723837  0.7584041340727337
  0.4148203427994654  0.0010812079219224  0.2390439576484462
  0.9161695364255792  0.0841954779044461  0.4997334684941276
  0.4158208151232437  0.0001532328812685  0.5909960075049185
  0.8333822571664435  0.5894266011010137  0.4119372560695247
  0.5073542852163230  0.0853063037884466  0.4116962131123741
  0.8205968520257387  0.4982998945086458  0.6653463954937009
  0.5941303900392219  0.0834624247140052  0.5025747016613511
  0.9989847884257480  0.5038235976803161  0.6681119384460860
  0.5841862856555519  0.3338753606604069  0.0854530891929334
  0.0822138883411919  0.6699402276228321  0.4161971480503224
  0.3315801207935931  0.0738491093581974  0.9157389361836001
  0.8327234695717644  0.5838232494897290  0.2533651004900095
  0.4978191751567073  0.0028451464348640  0.0036698126071399
  0.9997697987406718  0.3247096305309227  0.6671098441348216
  0.5007853648689511  0.1787598332251975  0.4988288175054750
  0.2371372660731465  0.1678084371355757  0.5838119399545633
  0.6683817697784793  0.2496536647995333  0.4152618969383131
  0.7500874090845175  0.2514234591522066  0.1665279056746195
  0.8337232633197434  0.0820018390691945  0.9153343885560815
  0.4975185842243008  0.6680634701138845  0.6668175174744515
  0.5008639501335194  0.0031894236923850  0.1687157351456665
  0.3305649760897927  0.7510593017333138  0.7506576549755695
  0.5935440196969728  0.1644026133190036  0.9171378599623119
  0.9179326356002200  0.7485120540146888  0.0030754704823473
  0.9155149111909604  0.1647517010730389  0.4158308317093968
  0.8358952481394405  0.2486833550439588  0.9174099743667168
  0.3290790356707032  0.9065367826501021  0.5841505104928875
  0.0874920714191618  0.5854054543003876  0.8342863863181856
  0.3308120564978097  0.5853390215724039  0.7542925844407797
  0.7514736369701941  0.8301902103785683  0.0849308020118000
  0.7500163920518471  0.8239477393909109  0.2500870065048794
  0.0805531385392338  0.1653302814496024  0.0885323471407757
  0.8420751212077903  0.5856035047981571  0.9182873968908517
  0.3291156060119081  0.0849279446000522  0.5865463046475894
  0.9151431853740126  0.3301549066542953  0.5818334444542170
  0.9146267313431266  0.9998489286831513  0.2519849399916719
  0.8360025824466754  0.9163852518586393  0.0855566386165842
  0.1622555866229546  0.3311321420176657  0.4963457913352285
  0.4183106127593869  0.1646595966294609  0.9169507497886242
  0.9074347656028385  0.5006382102728131  0.5780757432181765
  0.0760909465955220  0.9226866699277525  0.9986584668502299
  0.9975231817980239  0.6748635715131016  0.8319078521123845
  0.9137194879567271  0.3322060107793323  0.7582433922859220
  0.9988896274214758  0.4163847419202278  0.0914196373331270
  0.3250725446555265  0.9955674222173818  0.4949601036942340
  0.9983628935548842  0.5874400783013645  0.5799905851781403
  0.9960860127379207  0.1705797945767998  0.0022799821109615
  0.9967269720770332  0.4978062208728344  0.8338241621097826
  0.0820229660317752  0.9167019648228900  0.4992249517572479
  0.3323279360714605  0.0015668938934781  0.0023056034118700
  0.9979906323598630  0.4146630462711174  0.7583252622456125
  0.0800193340425005  0.9183046495206991  0.3333719809890724
  0.8320166350332466  0.4993691312577536  0.3240866582133142
  0.8349614526176538  0.7505637374487447  0.9161436812855571
  0.1613362366574456  0.0839682988784439  0.4148421989996423
  0.1665381848891916  0.5037510782240127  0.0007406785355377
  0.8329395306143229  0.7514574665422976  0.2511636239240986
  0.7504445437800885  0.9136433808950432  0.0114869368498282
  0.0737299413837518  0.8346263404183083  0.0884431963528391
  0.9978267919714138  0.5063341885319614  0.0021303500503349
  0.3260093026383986  0.0872280465803451  0.4072448844421143
  0.9901843651847643  0.3289933405673734  0.0011303711280523
  0.8409485140785316  0.9153651048001339  0.9161500166563807
  0.9968398720529592  0.6709509203598599  0.6680771441601379
  0.7523192802555311  0.8256785932959753  0.9189541953485032
  0.7501012582736946  0.8330210365262926  0.4168455525733211
  0.9982102589148799  0.7619121199545014  0.5817051066692925
  0.9957720286637451  0.9951421749012831  0.0006289967099256
  0.1612584382692030  0.4985932537169984  0.4975939600076369
  0.9985460127042631  0.5007480483368778  0.4884027734759486
  0.9981397780664697  0.6704682868445360  0.4908740089244077
  0.9164218541163588  0.5862925450075337  0.3319308644499481
  0.8335517551880740  0.0816663062796526  0.7474031272126926
  0.0833214502889243  0.0827924490233001  0.0012073333429876
  0.1619454311711220  0.9268731677710170  0.0864550765916457
  0.2493702141864010  0.0045739194141537  0.9135884551519845
  0.0813875036199672  0.9162589011447377  0.6670043329129833
  0.0784484030285433  0.9989582904139982  0.0858445231469825
  0.9146383829730075  0.9167815074596357  0.6665026473253352
  0.1653772814507831  0.4166195844202473  0.7567810128690556
  0.9988860234680734  0.5840006728488955  0.2523712858760119
  0.1637415700423655  0.3330439110380825  0.1744192487499514
  0.9999232389691742  0.4097878119211545  0.5782837638748349
  0.0797804543513411  0.1670496123299943  0.2513202659271326
  0.3322262539200269  0.7533645039460767  0.5810655399913051
  0.0022766904905639  0.3318208391255040  0.4975337052183851
  0.1669877099354040  0.3344465686789455  0.9971987006343870
  0.8299192786037084  0.4998480483535579  0.5020035182605065
  0.2480116568011399  0.4959849296019483  0.4076370995626147
  0.6647428573221790  0.6689173254336583  0.3328553839376954
  0.3289141028863848  0.9997746358320880  0.6769557553912708
  0.1580085571456365  0.2467090240036973  0.9171114177631295
  0.5842979078000961  0.5831272536681064  0.0897037238150788
  0.5055910350777838  0.0019331380845955  0.5895372468004052
  0.7547915157256250  0.9154598796704282  0.9191834913810460
  0.0785206404792641  0.3321724069397032  0.9979232487558637
  0.4993587036037118  0.3322911344546818  0.2486938413517741
  0.9098454780220218  0.3244042328951449  0.6712551963358324
  0.0005171384351480  0.4133718264116084  0.6696397755695549
  0.3251606899289456  0.0859965963995468  0.4961739719850730
  0.5785003307238834  0.7496241036546145  0.9154140363712951
  0.7498647731692625  0.9109924547221392  0.2478077377015704
  0.4156162642860396  0.9945283509845911  0.5021857076106582
  0.5785688420636221  0.5736624974251482  0.9108180462572468
  0.4174241048160318  0.4144442407893648  0.5779485763843051
  0.8303149414294657  0.4991983571479265  0.4132794107576553
  0.3393565479435305  0.5853968122851628  0.6650684380698190
  0.9148618954361317  0.3273546662431415  0.4929747989892265
  0.4151316254940605  0.9971095187679617  0.3250804945140157
  0.3245745592574573  0.9944659504312564  0.5884931933792367
  0.3317365470040665  0.1611520791834032  0.9164839101200279
  0.9942956452302771  0.4190735889865246  0.0024960754597234
  0.7549175818389506  0.5851437622770644  0.9202497695692874
  0.6645539334476639  0.5007359272585256  0.5821058819576904
  0.5071406896929007  0.1594869732088797  0.9179819798928026
  0.4906077289029858  0.5803541590310536  0.0018157842025527
  0.2506100826429237  0.4959275348005223  0.4950334604474360
  0.4169598168977948  0.5810085900618031  0.2501193874841617
  0.9994289385718986  0.5868589294612288  0.8362742595545588
  0.1667982918179631  0.3337000089670226  0.0872955854950112
  0.1635930730636474  0.5897784513345106  0.6636669943892956
  0.1647889484462073  0.9204318025755053  0.9976958257636361
  0.2538582601367170  0.8309436487910250  0.9940468538316394
  0.5081640439490330  0.0903830871373417  0.5016508107423419
  0.4171163633538237  0.0869160366620710  0.4113128850483498
  0.2477393860186130  0.6664059982007779  0.3348713722519003
  0.5003479438910825  0.8299251435531957  0.5824922839671091
  0.4979625811480697  0.3359653985102501  0.9192185264892689
  0.5000784085364830  0.9144889107385387  0.1657997169159239
  0.1618127814075386  0.8343036029772600  0.0866308099706277
  0.2508669595151473  0.8344449913222920  0.1732427233332775
  0.0727009711055959  0.8309970917488284  0.9970963733505612
  0.9078210159912798  0.5068920116777013  0.6696048038480386
  0.9980919168578193  0.6756190739524552  0.5793992288238482
  0.9980806050838830  0.4990223110783313  0.5758569870103855
  0.1705606335589340  0.4122795445239046  0.6681376327584997
  0.4129967110955727  0.4159454150643802  0.7506804136814071
  0.2458838099282846  0.2494531811568997  0.9158477747971883
  0.7475555633743997  0.2493809235708156  0.9164440392595699
  0.3281975031556523  0.1741959676802557  0.5872616632917230
  0.5786097191886860  0.9237838353060258  0.9141629896206017
  0.7482094933007133  0.0873396740876511  0.2516896336047446
  0.7472421596557197  0.5848844478940729  0.7467787092855295
  0.9957927551592856  0.0830549116573146  0.9990395746091523
  0.6664754640754417  0.3333937156434540  0.8331654448536975
  0.9150186823255693  0.9993971288779979  0.7476720104516835
  0.6682274815074027  0.4158512638213775  0.9187179699888294
  0.6672716090581937  0.2506116297962896  0.0847754827212470
  0.9977090197318127  0.8364803075545235  0.6654636847511428
  0.7509656393867695  0.3333200414363561  0.0845807137913892
  0.8324729630658937  0.8336680475610916  0.8315061844271903
  0.6660043382668754  0.4986109824246407  0.8325146990858789
  0.7488962883494557  0.4138109966972591  0.4987408324416546
  0.6667251812388484  0.3310529897197164  0.6666276430223443
  0.6668286604523231  0.3347874199912035  0.0035387200772214
  0.5832373397652476  0.4972995665866504  0.2513139729734254
  0.7500488068783301  0.4161836837663064  0.1694664784859645
  0.8312047315344880  0.1663829526825909  0.0016015136450175
  0.7498760981878284  0.1640737443393247  0.7483844063430718
  0.7484952386719570  0.3315131778748129  0.4150975504929798
  0.5845119191919305  0.8315814191027446  0.4160986049275879
  0.8293801770561982  0.4133341556977896  0.5809682183790194
  0.5005149648493369  0.0003700651253135  0.8298272219261699
  0.6670531584166722  0.8335118024949486  0.6657028063635437
  0.5854685495277069  0.9161906953024324  0.6677563787956640
  0.4146265224738903  0.8323546074608733  0.7497583802316475
  0.4989199833340908  0.9154340448086272  0.7493421048301890
  0.5014875384885800  0.9163411148780581  0.5842165084889305
  0.5855974388765248  0.9152717053442873  0.4985023925057677
  0.6665518441682083  0.3327910247805884  0.4978278251280244
  0.4164264706662428  0.6678948923026322  0.4166272419719881
  0.4157759239649542  0.7503216060139974  0.3345627588934112
  0.7498431915700455  0.1602191276109815  0.9165893938288192
  0.6662018938030685  0.4149989432510829  0.7489763771117524
  0.6677281438175268  0.1640233409567263  0.8308146321378952
  0.8326618097957268  0.3326417270029363  0.0023190166714369
  0.5834256324092637  0.0008423709687226  0.0843211464398661
  0.8314402705308630  0.4153584452480247  0.2500211960780553
  0.9137173073196332  0.4176547451734685  0.4969531907489373
  0.5828967734847468  0.7501109900828946  0.6660833768850934
  0.7507264985281237  0.0014849368348098  0.0843592880743417
  0.6661798516387112  0.9998576893566882  0.3339927506967051
  0.7491779038901588  0.2489919416915875  0.4993088433872687
  0.8307500826513176  0.1631221473569297  0.6656958142231529
  0.7474931279143566  0.3320091352051870  0.7507360325151350
  0.6683653280092809  0.1677087485140729  0.4995292186454098
  0.6667546205181848  0.2504279092937290  0.2488074886667032
  0.5882159825455771  0.9152177040906525  0.1668587651644080
  0.7497275460761397  0.9982635946028615  0.5820065389512891
  0.6677070276580233  0.1655214638995191  0.6673889111834261
  0.6688506114790739  0.9983369942809172  0.4985890182839591
  0.7501821154523919  0.1732815325195066  0.2501302980596381
  0.7492786927872744  0.2504555679763556  0.3336987818235058
  0.5838441670908198  0.8304969254091207  0.2515789935191148
  0.5826439586709586  0.9177311841212810  0.0041850305293756
  0.5837943491397690  0.9171324151631253  0.8259830292603565
  0.4949036531904362  0.8335776783436193  0.0001125866559056
  0.4961378764921918  0.6668090588061032  0.8313828919960428
  0.7507837678576033  0.1676607336745277  0.0847595666739365
  0.5840286213674543  0.2503213887012649  0.1657550958597510
  0.6681597086018057  0.1654992014052523  0.0032398201669677
  0.7501009527830398  0.0821633923732310  0.8306422459851807
  0.9149408557032336  0.9169376709311641  0.8302855797261822
  0.6683979491176409  0.0817480795913731  0.9180538777538283
  0.7501162807880170  0.0817557753316798  0.6666298380486868
  0.6704452803079980  0.0832253464713911  0.5838371609303574
  0.5855194597177679  0.1655010460210821  0.7494867297029911
  0.7488695119555058  0.2472698143493161  0.6671333899340915
  0.6681705555422501  0.0011323061210693  0.8313102848392622
  0.7471226295369032  0.4148270179643045  0.3315243324983999
  0.4972262154511382  0.8344319451303510  0.8307684580148152
  0.5810869198199046  0.6681971281782094  0.7482652470595037
  0.4985971862734020  0.7503099234766910  0.7495338006968796
  0.4147281080701355  0.7509878038188293  0.4980879554303623
  0.8374235276086730  0.0836672395772459  0.2511207272110407
  0.6684422605744702  0.2490018038247442  0.5834892253487042
  0.6675333493630475  0.1684262265238931  0.1661487893558980
  0.8295694398561811  0.4152441818402441  0.7522094346180905
  0.9150445736997493  0.3314291546831262  0.4078260161919382
  0.7491403083409091  0.6699723286652128  0.5797177660577515
  0.8321600588130366  0.9989147398756295  0.6648180560962974
  0.8319819220073931  0.1637629900029541  0.8318117019112435
  0.8321128203290309  0.2501066746986744  0.0852279234508011
  0.7503055045926152  0.9990900633543423  0.7485555491219072
  0.9136643924916703  0.2482933733637032  0.0011555300012078
  0.8323789070626267  0.9163780383798300  0.7469718911201040
  0.8325403836094398  0.1675286090665632  0.1673591481964723
  0.9153041988978535  0.0827589893472691  0.6658555308329059
  0.9152857045444254  0.1662786818723916  0.2504442591248850
  0.7506936452599762  0.0828381308029793  0.0020731743214212
  0.0850909884107209  0.4146057918165476  0.6683726546712182
  0.9138549918733316  0.9999539673006433  0.9147886114154137
  0.8325428271663144  0.9998259949814814  0.8308878033044651
  0.9142430076607019  0.5858884730881352  0.4952752432828484
  0.8348302935216860  0.5879221094321263  0.7493115435927457
  0.9971682843578225  0.3308136502433529  0.8353267918078282
  0.8318013381235835  0.6722963760865786  0.6636921316066071
  0.7475038693250485  0.4138973239567467  0.6656856518408292
  0.8328724216981044  0.2497231983883799  0.2497526851840573
  0.9976188087189340  0.0834458223681508  0.2508027467168347
  0.9155296727360440  0.2498826027900382  0.1690299777505905
  0.5837072857732669  0.7486489008275327  0.4984072422500259
  0.8334015639734323  0.0825799358895542  0.4169631614335759
  0.9159818003913834  0.0832243073971868  0.3335748226555106
  0.0821970754706539  0.6704313093247480  0.7492128406058965
  0.9158611097774132  0.9997310548982807  0.4174940207197029
  0.6676341662676673  0.9155347417181556  0.4170285834738293
  0.9139069176728692  0.5003961361990761  0.9181311313934875
  0.9978851775338802  0.0824782753659805  0.4160720390865110
  0.7487789552411649  0.0830455002411455  0.4983801019280685
  0.8326291681735630  0.0000648367665965  0.0022556231463214
  0.9978912058354933  0.9977618626006967  0.6649630471711540
  0.8347238501617948  0.6676336511458604  0.0034451989918938
  0.9157351105733904  0.9991833758088855  0.5822316354831050
  0.8324433533278629  0.4163866928210262  0.0867155986881498
  0.8332217164099083  0.0843261388443803  0.0860526703905099
  0.9169908069521716  0.4997422321067265  0.2502239531046158
  0.8322544314321458  0.4164607420705034  0.9177916686751766
  0.7490879785059219  0.3311817538945819  0.2495869143479218
  0.7512488766593318  0.4992542446584841  0.0871424560502541
  0.5835765513068054  0.0842101193540191  0.1658579979161293
  0.8299235590862816  0.3319329740514692  0.8339851699151889
  0.7501176009319669  0.3382533350797337  0.9191605047790763
  0.8327854749324686  0.1663040735202790  0.3339591770710100
  0.9151574199491179  0.2402725911915490  0.4998030669854536
  0.8330036378568095  0.5842278931561085  0.0875532760868637
  0.9151371196660880  0.3327642996957357  0.2506923529828615
  0.9157681235266902  0.4165957149276567  0.1695740798496041
  0.8310524473458013  0.3318720343792627  0.3308040844002174
  0.8305016887478660  0.4107931720759553  0.4137644601099352
  0.7493054767455624  0.1670303254941936  0.4163810192201757
  0.9159210845893436  0.2481524008615500  0.3320610122994807
  0.6665279478891354  0.1682769793683604  0.3330538177780374
  0.9152094130338828  0.2384793418647289  0.6653556020527103
  0.7485131950899262  0.3304010960881942  0.5817892440578361
  0.9980967668273794  0.9166684188039471  0.7481750565460938
  0.1641247455880442  0.5833726645321903  0.4162946721204848
  0.9130490405517516  0.3307183506712666  0.9164634819056898
  0.8309444436961606  0.2458342107019121  0.5827064234367291
  0.9147807986207054  0.5842205593596230  0.0043925063909456
  0.8322517431903821  0.6692000415496577  0.3323283451806260
  0.9972908603803639  0.6657627190445121  0.0034554199472876
  0.9984504377221332  0.5832964677551633  0.0865546826705069
  0.9139615189178526  0.3327499591429980  0.0865262326825958
  0.9151288732539316  0.1634951448306293  0.7502503892734415
  0.9981632059998753  0.1653582444902682  0.3320763653959897
  0.4153760579280376  0.4153490640136949  0.6641147314477003
  0.8319114571228102  0.0818121003340492  0.5816497133885468
  0.3290955526013662  0.4104696143895593  0.5801684173499029
  0.9151503882249078  0.1623918327046933  0.5821044171069319
  0.8318491951592335  0.2475382188270754  0.4155290287201670
  0.9992869754581097  0.4142702986684317  0.4136308230544087
  0.9988394378486926  0.0817560460447180  0.5830361790235055
  0.8314129300143993  0.2472008456500668  0.7500210880956529
  0.9992180129328880  0.6694202782783162  0.3336154043712906
  0.5833211489959611  0.5833885799795577  0.3335444635089892
  0.6677595362523768  0.6682992231530771  0.1685924840137366
  0.7492911251013412  0.7495694342948368  0.3346083537904448
  0.9154797185722817  0.8326485352737945  0.2520632388397013
  0.7485415683964760  0.6682386665393314  0.4151779574427715
  0.6658638905672436  0.7492521670420588  0.2504886947016063
  0.9156623561110576  0.9166345261388071  0.1693887274121645
  0.9164836665832476  0.7491581297300947  0.1691604924494108
  0.6655637617794222  0.8302914429390292  0.1657734159431733
  0.6662978895487133  0.7496958957465859  0.4167239867693548
  0.8328718257905856  0.5011174689074431  0.0042511206444262
  0.9160533856352567  0.5837460702200277  0.1711935209193418
  0.0806409755434067  0.9983894249632902  0.5828015396148389
  0.6660685950621437  0.6693855866801023  0.8312692767022757
  0.9955852271305816  0.9179267975241514  0.9134957090371683
  0.9972641122271839  0.9176427654052932  0.2518918364737373
  0.1622082699824585  0.2470079142000298  0.7513452988232957
  0.1628129896310985  0.0021478204836921  0.1698114159482214
  0.7501107983349541  0.6672915239263998  0.0846074504019367
  0.9138846909015343  0.8361932766611461  0.5814926349644568
  0.8323434525000769  0.8352950682016731  0.4988061306513284
  0.6669246626415163  0.5847149052009124  0.2511923543949596
  0.7484234080294333  0.7514225672878557  0.6640316457955433
  0.8309083544748028  0.5873664548677655  0.5790637743187711
  0.9975477305368007  0.8354697559456519  0.3336611632067596