 B Cr Ni 
 1.0000000000000000
    21.1200000000000010    0.0000000000000000    0.0000000000000000
     0.0000000000000000   21.1200000000000010    0.0000000000000000
     0.0000000000000000    0.0000000000000000   21.1200000000000010
 B   Cr  Ni 
  52 259 605
Direct
  0.3340368793646847  0.7633233135400248  0.9812949875881517
  0.3138734019594050  0.9540122212961498  0.6101863464856327
  0.3213596048988494  0.9320544685984001  0.5286079073811247
  0.7084637972237536  0.9999250631601700  0.7968941439640472
  0.4624197135487412  0.0290352074294233  0.9249891873367914
  0.6903680236750005  0.9807231051462812  0.7190783896939248
  0.2373233719941458  0.7029554405561289  0.7775528649827066
  0.3967226535118288  0.8764560328019736  0.6999033743722405
  0.3449159083448686  0.0612415622307630  0.8271985149158791
  0.4759788712478196  0.6701977444872258  0.8989768293901765
  0.2218281670859482  0.8124431114457953  0.6514719799924474
  0.4977371050265765  0.6669956000577222  0.6008420937969118
  0.7512554621609911  0.9381224305313099  0.7621669236073267
  0.6513526282865302  0.7428001233591609  0.8248933273416433
  0.4909606929502641  0.9971141864132231  0.7455942164095688
  0.5642381183984787  0.8413472579501908  0.8161017615211398
  0.4156436750894348  0.5054898475944454  0.6731833002727388
  0.5744107985872454  0.5926641438309075  0.7512545488653152
  0.4581474871568888  0.6611466086649932  0.7505984650091478
  0.4267500789689664  0.8340470866641286  0.5214137129812104
  0.2647047136674751  0.0007845964203838  0.6547458017017767
  0.8356769656109244  0.0938337834265339  0.6990248594839503
  0.5397857952707642  0.9096814925025042  0.6431166554930313
  0.3292048489750439  0.7371757455966839  0.5197420941291395
  0.9118715474569086  0.9874342024593044  0.8169939063717681
  0.5800911196421208  0.8438507605964360  0.6745012775414698
  0.2864694924644584  0.7289133078021410  0.9260754557791165
  0.4095280589827437  0.8224404201004304  0.8153610124036239
  0.4183945272866639  0.5119245878502402  0.8258692925130373
  0.8495453957954046  0.8218741468130251  0.7692249894820758
  0.1085251394111500  0.0083672935512467  0.8236130025364193
  0.0711552587845310  0.7850632304497928  0.7562577235823463
  0.2767070692881580  0.1795011143767044  0.6717867345636117
  0.1631269386321064  0.0081682847172625  0.9099054651254059
  0.4872134021735111  0.8310873568510820  0.7693157884922870
  0.1684079377944885  0.8304775783247248  0.9026405820878746
  0.3963127094850982  0.8856379937856909  0.8669503857413720
  0.1612862513822759  0.0672481316760653  0.8456198863672910
  0.2544873796029611  0.9238333337206796  0.7652143820057226
  0.1737877552280654  0.8412784730106871  0.5936394715956307
  0.8169287410324744  0.7576673492802346  0.8201596797835471
  0.6568686820707585  0.7400985560708518  0.6841659216253605
  0.3298447251430633  0.5934722526134616  0.6762521486025986
  0.5958644302226123  0.0736642256362504  0.5905238432643599
  0.4017639360605651  0.9950739610626040  0.9641973164674144
  0.3441165644048587  0.7406806044299268  0.6832725768290466
  0.6739476748722403  0.8336929209047697  0.5779285430801008
  0.7553450005976138  0.1569688516179954  0.8308780262028396
  0.4180304585789630  0.6250773466591750  0.9395371589005934
  0.4121660664104246  0.0833489728818209  0.5877819211597299
  0.3204788366426913  0.5892412020424155  0.8188958562985650
  0.4787778719883752  0.0111217216061136  0.5879367653162986
  0.9956313772381621  0.5795142334705854  0.4147235936261897
  0.0785982670828478  0.4976447681313282  0.0852363155915197
  0.7568147387065300  0.7410139832853958  0.6512560364880480
  0.0802542212815242  0.7475028619143222  0.4997769362976670
  0.3305353923663129  0.4953018057812131  0.4961270919585892
  0.4187977969031090  0.7442584742279363  0.4815367400656426
  0.9967737311099812  0.5777306177710727  0.5819114435845504
  0.1622459965110312  0.6592513817764678  0.8369152198242831
  0.0726423185115161  0.8295078456156917  0.9246573914439148
  0.7506436863943061  0.6655670512652581  0.4168144531864880
  0.8379092545675743  0.7460215495136603  0.5805782548378601
  0.8318200641837669  0.7471067912936472  0.9267475831313625
  0.0778671083025480  0.7469194062965925  0.3318020754289194
  0.0791326260006844  0.9192977515172347  0.4901603665809093
  0.1627169731194293  0.0045474028825033  0.0124515695921779
  0.3396090527934423  0.0787491489315624  0.9266390590043221
  0.8319963569923787  0.5002095400048068  0.1691750580697867
  0.9129808058475997  0.4984251626178164  0.2483036435977488
  0.1597732806127573  0.0104758573314819  0.6582901679129123
  0.9171512849592830  0.4996140227073008  0.4142318591156618
  0.9162290469960862  0.4976893835585287  0.5823686310223364
  0.0804875477053791  0.2527467563693059  0.1684144238711066
  0.3264580023249810  0.0034932633914547  0.3306468268106422
  0.6680234388995587  0.7401012027914154  0.5791716444620052
  0.0793723337527119  0.0014469030608637  0.0869823342259114
  0.9141728250558119  0.4142552478465690  0.8354658554145719
  0.9212028226289930  0.7473394967151223  0.6607852540292182
  0.1565604907211191  0.8301133806334374  0.0063165844132289
  0.9941161914813126  0.8324818908180537  0.0078262707861958
  0.9167203993879743  0.6645992256065474  0.4148046242008592
  0.4940354397656215  0.0062020886794952  0.0178832609550433
  0.8316401759590253  0.1680279700824916  0.0038932193414905
  0.7501691187382901  0.4980759246455940  0.4135480531887462
  0.9136437749790031  0.5805807026704481  0.8357722813189336
  0.1610818368823091  0.0883686694158713  0.2482716577636468
  0.7507486841928904  0.3332714369455973  0.9226933586350220
  0.6657089591161848  0.4169501893438947  0.0878831478279578
  0.5025073447805078  0.5734444487272907  0.9173408697119982
  0.7509764725499766  0.2522672683968884  0.1676065874879948
  0.3330905516241353  0.9174401309211639  0.9362886376321152
  0.4464720072381286  0.9534665471991000  0.6649407529445817
  0.6702980347100636  0.2548258220793745  0.5778056607632749
  0.6717348662039702  0.4949596824894854  0.8362476956042357
  0.7502980657449374  0.4994671216319754  0.0869893263312453
  0.7510980771520760  0.4990586138666431  0.2491982868996721
  0.4997790100957653  0.3338868083835320  0.3326287538198682
  0.3861198227542064  0.7773098194930325  0.5924962298284832
  0.4996010646160129  0.0052937331767109  0.1766791321972155
  0.4134373044105639  0.8307201037851657  0.2550454256342413
  0.3262995116513270  0.9158839931483289  0.2492977743962780
  0.3275965778605958  0.4127256191902126  0.9237673698268890
  0.3247852336471909  0.9224176610918909  0.1074336547028439
  0.8142998434285525  0.9896073375882154  0.8374078328109270
  0.8366121248831506  0.2571141778128064  0.7496263717617592
  0.5054106826123987  0.6629495646671779  0.4937682181724461
  0.2479011618909316  0.3320159883266726  0.7530817350183027
  0.3287244677426903  0.7431515928013293  0.0943411234692042
  0.3821006493700144  0.8826968440719550  0.5964042890304175
  0.5862278154293162  0.9189720532123687  0.3321966544574179
  0.3257217832228160  0.9164269627782264  0.4111095939113091
  0.6727313057873120  0.2513275495218775  0.7500033582483940
  0.4133871523370185  0.9172991641779172  0.0263695287166175
  0.7469610085568354  0.7448871093521855  0.0052110164694306
  0.8338885411279052  0.9178967382794894  0.2499381176319362
  0.0773434398105735  0.5801947744621007  0.3329080933661310
  0.7500793236624217  0.3351225652297061  0.5782571679381026
  0.0804197101302819  0.4169891403602426  0.3333679991353098
  0.2215152892070374  0.7621908243768153  0.8517148953972973
  0.3350092076089161  0.1691524023808350  0.8401242839989814
  0.5845323991301967  0.2527293746427144  0.6639306912049623
  0.4547676890650182  0.0719281000248996  0.6771991262057702
  0.5902302409741532  0.1788253798604825  0.5773582772349650
  0.9186578361526636  0.9189800803428945  0.6554417907017061
  0.3290529371242538  0.1777586024348219  0.4900779718127411
  0.8321285394228789  0.4149913429549884  0.7512345991519355
  0.3300698502411915  0.2553382681674293  0.4134681209904757
  0.1573744857440097  0.0897943721555347  0.4104778839846331
  0.9151591026278880  0.4168440204105179  0.0024457111738338
  0.1599215590503403  0.3346684783264103  0.4987096924991449
  0.2455657182745193  0.4145111094091552  0.3332002775001277
  0.6663177539617179  0.5791000279017259  0.0873162085999100
  0.9980816362935238  0.9162600737593128  0.2501170197037194
  0.3310199773991613  0.3325000369301484  0.0027905236277676
  0.0815346122598625  0.3340791773179689  0.5805915555739465
  0.1628281976195937  0.3356976033476380  0.1682406079564371
  0.0789073133907824  0.0873388369661955  0.1658959176042873
  0.2455313930330450  0.4149513198409877  0.0013952924866517
  0.3302504876537014  0.3360198194989987  0.1651017849317816
  0.9166887485796932  0.4147632286098815  0.6659790554199190
  0.9132047496252470  0.4180907491974695  0.1681091978926642
  0.0797442202711249  0.4173952402151373  0.1665056961758813
  0.1616715768158979  0.2552711879361220  0.2466284509936090
  0.9145524948381571  0.8317886471628521  0.0861555744115131
  0.6659797561663354  0.5774800056526472  0.9254606234301280
  0.0786565807361044  0.0896049765656678  0.6619257245770493
  0.7533810217640168  0.9170331035715329  0.3295665801251498
  0.9954099085642660  0.4956201628307342  0.0017307016472105
  0.9973241113633634  0.7474807118523765  0.5800949554612920
  0.1576355165827457  0.6586410351796835  0.0079169766306539
  0.9139839937428095  0.9169366738984390  0.0068410341934852
  0.9973519347126155  0.1697018389894245  0.0056733543560328
  0.9987938000912915  0.2530267644003675  0.9205798116482746
  0.9170171124236084  0.0861914515670883  0.8431756242129512
  0.1604319615038844  0.1685791893675091  0.6652751803673572
  0.1637713253286824  0.2491939346617219  0.9188844305635021
  0.9971434950235633  0.0856243909756859  0.0845531402310438
  0.9986879211144942  0.2527289806666422  0.0869495548008459
  0.0681748063453508  0.0953851891717672  0.8349708109778861
  0.2411829223611824  0.8769430187843632  0.8534951817957587
  0.0788613827894961  0.0879778273735930  0.0095584709344875
  0.0795839675792310  0.0905100159915632  0.4925681541201081
  0.7549457376263861  0.9246030602983549  0.6601306541546627
  0.2477177231634353  0.3337562762489629  0.0839086383184557
  0.0803281814936889  0.4167235440408903  0.0020912584470300
  0.0807309844692835  0.4164020139045591  0.6683286489594558
  0.9930069123450879  0.6613608135621236  0.0039217643180368
  0.9890965015716562  0.6600308754589579  0.8349374108985893
  0.3301601296638502  0.4141938347387799  0.4159363620809581
  0.0028453906232148  0.8304452060600265  0.8407154811977141
  0.8510634888079208  0.9255509307338663  0.7457750519421222
  0.9968972083434678  0.2545328476541516  0.4131239705698570
  0.9162613934520832  0.0868369203434233  0.3294479922331734
  0.9969339147224342  0.7472682965820309  0.2492727990130621
  0.0801198207069990  0.4963955268288178  0.7523516074999083
  0.9140619955151680  0.4925168564850056  0.7495251091084785
  0.1602965796578588  0.4976691120643982  0.4984424401815300
  0.9170645992348033  0.8320293677882706  0.4137011199813463
  0.0775267052068083  0.9164724711839111  0.3291889046227156
  0.5851676326787207  0.7466369068908184  0.1745930430908667
  0.9959549448752508  0.6646122611681008  0.1710486857062464
  0.4843608066238978  0.9113661024854274  0.5613688437227751
  0.5452566654737142  0.9106887201383781  0.7446576479716400
  0.2180981852386192  0.9150350425448892  0.6707635031617325
  0.6699307992305702  0.6637792915311176  0.4936207209391742
  0.1513449743183455  0.9268142421864164  0.7489635985369730
  0.2537474619160159  0.8294209427492424  0.9511957025342819
  0.3281430888726850  0.5842243254045897  0.9228200019466880
  0.9167435061603416  0.1735903310856685  0.5734341556939195
  0.2269357772171107  0.8275048405340114  0.7525969735474964
  0.2419748126179932  0.6589283718745906  0.4121337029271335
  0.7492359451163494  0.5774270232537733  0.8371925142025577
  0.4151237043477596  0.1700727373410522  0.0900259262461359
  0.3306461167912241  0.4159445933969811  0.0866924050727663
  0.5771301701330920  0.7438638437998211  0.0167002180291139
  0.6630238715727038  0.9169814410097759  0.0899868324107627
  0.1606470525734136  0.4959827999932965  0.1675579518257845
  0.2418836539919174  0.7452219988542655  0.3352920371703917
  0.2432875859653229  0.7463818209075682  0.1687113775959170
  0.4130674020454639  0.7450218088030385  0.3357465768513646
  0.1620232573924697  0.6622411278102841  0.1707998201340932
  0.1570057969603356  0.7477662582896489  0.4113509502899925
  0.9102964345887801  0.0021992873075814  0.9184545299337548
  0.9975919555848844  0.2536753983236135  0.2493578346071090
  0.8310082818318848  0.2511668409561196  0.0860268741349663
  0.3274034539049848  0.6618594816159207  0.1726309846278112
  0.3309779838268317  0.8020197746426619  0.8763941905165525
  0.9987325198298638  0.1719456624984296  0.6652021003329169
  0.9181340838855024  0.3353013531024065  0.5815449588802821
  0.3324005008456051  0.6598157940209318  0.0081056610401486
  0.1581591452580580  0.5766755575146365  0.5790873223239277
  0.7500485129710137  0.5748483763797418  0.6617268512676913
  0.3298191369120276  0.4116669737289324  0.5769326464718403
  0.6546292422347315  0.9090088056632343  0.7784602790805091
  0.5833650025430488  0.6629200131440648  0.2522277716448456
  0.7349174650758866  0.9158202212071153  0.8563680664032185
  0.6671023405467222  0.0031101447829653  0.1707201881691048
  0.6679567408687840  0.7483510457994459  0.2525774818366318
  0.5153270368605732  0.0062942491747642  0.8408164829586680
  0.3692230718808744  0.1548149203957377  0.6577264314474974
  0.7537848748423662  0.8332111592862023  0.4122330061273611
  0.8317857381450892  0.8321772906481770  0.1678593531097991
  0.5684561433132956  0.0055085042749510  0.9412349967793916
  0.6798713865801964  0.9267252555112589  0.5682106390436519
  0.4927605258746363  0.7605980210275107  0.5632869020194435
  0.3292825091049068  0.1721833822891473  0.3305172795998258
  0.8366114122450824  0.1722757695512859  0.4942381721616395
  0.5018350804333461  0.0900719960481668  0.4106732656627372
  0.7487658444622478  0.4958728079006988  0.5795922667180534
  0.3294378009211657  0.0069857560292707  0.1775443327837210
  0.7514876033452051  0.0858514816183726  0.3325936412531250
  0.7457176538200242  0.9169890862722199  0.0131357612953140
  0.5735483363316597  0.9184275551424094  0.0125334068260640
  0.2486531079707047  0.1706229769238516  0.0872280617734959
  0.4165480415314741  0.2552703912137131  0.6663203256945742
  0.3299625778451506  0.3313906091221855  0.4992368526668984
  0.3295866462064124  0.0883852464761307  0.2528934844350044
  0.5812878162024244  0.6616227276579877  0.0876448326616806
  0.4986325378741284  0.3335486610625074  0.0033717857437521
  0.8308501713877604  0.6656335773856510  0.1691959457079929
  0.5876001378677368  0.7448340230998028  0.3265526485138444
  0.4182690094370365  0.0876095637510542  0.0053332336385017
  0.8320937863538912  0.7479448765597007  0.2495220588463074
  0.3317041141173798  0.2505588094133926  0.9191840221987706
  0.3281076001418667  0.8326726271157567  0.4933941472790510
  0.8321394824394629  0.3336568463666323  0.1664833066336426
  0.8323330612418336  0.0016729546482126  0.1684208398334952
  0.4749478154588981  0.9250378752583842  0.9374136298996739
  0.4996223355196590  0.2528823385410914  0.4106256367833897
  0.4135154778430949  0.6616481963701617  0.2540162834849574
  0.4104140831454578  0.9212349567442520  0.4757457963544337
  0.5795540501025905  0.8457844820747403  0.5748866142924395
  0.5890907433087960  0.4100734058100990  0.8380103091738047
  0.5011190065149425  0.4958560038656567  0.4951285384462271
  0.5829223173061410  0.4981689343494927  0.2520019877055348
  0.4145163184493890  0.5769775587394931  0.3308246923472429
  0.4988273683699286  0.3353122524057101  0.1690670981164402
  0.5010184466148411  0.7458421190516727  0.0995412935212582
  0.4998179309247779  0.4979269569115628  0.0042658890224103
  0.4138362947537413  0.8310330317802231  0.4112298010254008
  0.5887566246017467  0.4137188422507048  0.6617081590474655
  0.4995826983310371  0.0879610771236897  0.2516123764149490
  0.6662779121755545  0.3356329074826228  0.1679705815630567
  0.7511184343070529  0.2527360692682843  0.3310590931653813
  0.2445993971357468  0.0055422114454914  0.5627682589687348
  0.6683469942752617  0.4171841086799745  0.4126045873057242
  0.3303854891224015  0.5720678131631461  0.5712111727150636
  0.5834490353561854  0.1717459408106787  0.0926502940369049
  0.5908678327054162  0.3249810459926921  0.7500579196360725
  0.4142848281782208  0.3369274266271467  0.7511812013381256
  0.6697281672086710  0.2553409525654485  0.4089612265745702
  0.4922969191385588  0.6573361725869948  0.0037840007653076
  0.6683699057628995  0.4142436894526988  0.5777978645073261
  0.4136120640789554  0.6108381551658182  0.8426344652905280
  0.1312609698455438  0.8325781507170501  0.6860193254171297
  0.6689541323064211  0.3347978072967386  0.8382012593356799
  0.5008211903028988  0.1700158338050233  0.3317393712237633
  0.5855317461863152  0.9172579547854502  0.4835179999424525
  0.4993822466255607  0.8321134045530522  0.1782631129213497
  0.6711730354090570  0.0874962687101434  0.4103603434816609
  0.6682093851389429  0.3348376257894898  0.3324113734451005
  0.1553442523782542  0.9176343475845649  0.4087798252950741
  0.8315883875016916  0.2542757065662138  0.9265035089923889
  0.1567172345734617  0.0803921856973599  0.7483735289391185
  0.8337912701210439  0.3344885828404791  0.3317369095729069
  0.1613345995081931  0.3346763602618976  0.3318424691145288
  0.2466738389367427  0.4998052859937714  0.7511254873167481
  0.9150938027170068  0.3359851206244976  0.7511803389384444
  0.4137975787193663  0.4978999008387791  0.2519863154475131
  0.8367168939795075  0.0030413352964499  0.4924730098251828
  0.1555484403534250  0.7392212006776189  0.9317105126500196
  0.2408160679169283  0.9162996981201378  0.1708118763259527
  0.6716072383021133  0.4934557001954124  0.6655250496790136
  0.3285327607900466  0.8281402268148127  0.1734707405234929
  0.4145344398886942  0.5789439128481596  0.1733291367949118
  0.3292455086864436  0.3366305454247982  0.3337080407383877
  0.1591072261408382  0.6551985575796461  0.6657608342442788
  0.6008932922977732  0.0099468347935835  0.7588017227034347
  0.6765722534874024  0.0917273196983905  0.7503200021506248
  0.5011282163985198  0.2547072038554304  0.9243308682106188
  0.8316216679332780  0.0857887155814639  0.0874809665444234
  0.5455017692489825  0.0101120901716780  0.6623613680047046
  0.5836540856377967  0.3353084027190175  0.9243883182174983
  0.7518544804409115  0.3322198870956811  0.7509008474916038
  0.1597689458418536  0.9168925890441542  0.2494481807930023
  0.5810276378010979  0.9776798503593237  0.5658501850245633
  0.3279198613217078  0.5792663186980710  0.0906087215793082
  0.5857400530302355  0.3329437874210701  0.5789289201636212
  0.7537616474108935  0.0032676297186235  0.4110932261436859
  0.5891172400631856  0.1819966086101095  0.7557121824529659
  0.9949002177792089  0.5769653169389685  0.7513926071968079
  0.9965862715132489  0.4986413365768061  0.1680204013463394
  0.9956501835143690  0.4965516243013954  0.8348117775257765
  0.0773449741454128  0.4963685672818904  0.9196208855390223
  0.0789120208744087  0.5805255017598194  0.1686364598628273
  0.0796504498748687  0.4980634429794780  0.2500252625558996
  0.9136661190312744  0.7481981682326342  0.1682743997811345
  0.9967531008741936  0.4986603063703632  0.3316228967057551
  0.9968471385241504  0.5809593897039568  0.2501531950121004
  0.9171660358585262  0.6620944295748650  0.5801528205530649
  0.0781844127343017  0.5773418063125711  0.6667975352496152
  0.9969922764517418  0.4978415073357003  0.4988226944049426
  0.9940634563808315  0.6583317730411082  0.6653313793249701
  0.0788321726509584  0.4981350931283051  0.4150407587440685
  0.0790993596314758  0.4966679763121928  0.5830609570021578
  0.0766492529353050  0.6619413142885259  0.0880018735748867
  0.9945364261960159  0.5796412999702751  0.9192120131152475
  0.1595422900155745  0.8319660377152173  0.3312629087638190
  0.9973415125428463  0.4153079043062368  0.9185184871212236
  0.0785662156992630  0.0025527207386207  0.2481992564418928
  0.9963222837931078  0.4159633889575713  0.0854558716103190
  0.9927540949191135  0.7453520864667144  0.9206737070751023
  0.0751373447051130  0.6576266243814950  0.7523388751037543
  0.0811666380333828  0.3325316676128059  0.9193469132751841
  0.9143140534569425  0.7461245694171864  0.0058087903201513
  0.0751580413568421  0.5792701287890648  0.0047565849271349
  0.0770302952678021  0.9170078391194024  0.0060632599926123
  0.9950000092870981  0.5805499538189453  0.0867214177281755
  0.0789582293116746  0.8307418720230288  0.2497147047860105
  0.2421221305361963  0.9173254777583855  0.3301327368531659
  0.0730501334045867  0.7383422469983187  0.6679966255323451
  0.2445796069402295  0.5788986249499027  0.3334051763765990
  0.9956350441891031  0.7457943497539585  0.0880560431884043
  0.2446770134082697  0.4933636269933854  0.5769776571603670
  0.2466295688304316  0.4142398408387887  0.8362182405535732
  0.2422812423601508  0.8317806493390965  0.4112317886400069
  0.3644698444299350  0.5503257030916069  0.7492233293604116
  0.3683364812536886  0.6655265455132230  0.7399214220892689
  0.3285005166557939  0.6714342678989073  0.6282096508702817
  0.4414718680173060  0.7113732086667259  0.6618945672373215
  0.3067218359860900  0.6768456417077978  0.8440774502705430
  0.3133186256693800  0.7597430642668984  0.7729395423373913
  0.4175812872817179  0.8320222726033740  0.1028597736707492
  0.5839081800946058  0.2531976051356334  0.3310925801499285
  0.2376872808836627  0.9223609549861982  0.4816316328747542
  0.5847545029822251  0.0030020123240361  0.2526889886542277
  0.1640063412181142  0.8328627541726155  0.4972400707917335
  0.9969198982072981  0.9178303049270078  0.0870705554566573
  0.4095184882616911  0.8288966532773498  0.9490962614181145
  0.9967061886272980  0.8322637099921691  0.1687513578118805
  0.3318425427782858  0.8412155391229206  0.0304167948322884
  0.9975741004672553  0.9170433151070395  0.4119206618958676
  0.3267916846042938  0.8314486772694867  0.3327674980596056
  0.0745947676578705  0.6600404719713564  0.9222528091575815
  0.5851945997775011  0.0874554254165227  0.3313104858204303
  0.4968506760447700  0.0043982507501872  0.4910423525767335
  0.5122407651991620  0.0928089553642740  0.7632509875747187
  0.5859302293569535  0.1094502872300830  0.6756497000794747
  0.6784408545578242  0.0988824808966554  0.5663087633377724
  0.5103784377428014  0.1026489914320782  0.9246738062101107
  0.4041415737547204  0.9842830939278728  0.8698072165974813
  0.6587651461528710  0.9146994873484980  0.9403375892736808
  0.7289768151724435  0.0727786340933085  0.8533412319174009
  0.4995484176876887  0.1732019274322643  0.0104880342230000
  0.4991002033945472  0.1712856021911874  0.1715197090333195
  0.4990152121695036  0.2543002043280809  0.2511405230545752
  0.5832197644329044  0.0872418848517952  0.1721792500719751
  0.5840470069137430  0.1707537205659303  0.2512224258257285
  0.4116959875451331  0.9177358757841230  0.3320892294920227
  0.4150710131836129  0.9193131613503128  0.1771091167846682
  0.5807276814793138  0.0032728233091344  0.0939814796993041
  0.4977155068227947  0.0891343205161710  0.0944899844526880
  0.9922432824554892  0.7409357218129791  0.7522200766447861
  0.1596132547048704  0.5775817414833714  0.7515760972468097
  0.0785819732085499  0.7460223710087864  0.1688127241852242
  0.0797933041236965  0.1714816866516732  0.5799738867581857
  0.9970457039051573  0.4178040959310973  0.2495516523003734
  0.9078127985383756  0.1642073307449503  0.7487702038764125
  0.9975455829842412  0.3362379557238800  0.3312908044660640
  0.0807306998648309  0.2521093363820895  0.6661039527479647
  0.0798514569929962  0.3352487326646944  0.4144677520635356
  0.9981519073346941  0.3344858366811023  0.0025051674155992
  0.9987478988416493  0.2532517750057470  0.5805894953298292
  0.9975620330660566  0.3352786346918621  0.1673423515368447
  0.0794446104848835  0.2533358159653935  0.4964753493627281
  0.0785854335573250  0.3367341934138799  0.2497777112051327
  0.9959179519447731  0.2515625374071656  0.7492703417465394
  0.9969854779276262  0.4172696698053248  0.4147997024242962
  0.0804742315355524  0.2498957569480047  0.8361734647967918
  0.1621167637794484  0.4158627987937965  0.4154680140905758
  0.0804191398331101  0.3353336876650005  0.0845163342302900
  0.9984299216762841  0.3358097689059447  0.4981070376571567
  0.9979318740381179  0.1725836487462609  0.4940498521773370
  0.0786101652735404  0.8319209001062409  0.4144469168984273
  0.0775024871075998  0.6630540780591366  0.4147875674225133
  0.2449411406793607  0.4135219523121738  0.6664541869688870
  0.5082356728512660  0.8329089414915039  0.4790694048184677
  0.1606774177777670  0.5788663129806733  0.0882144535926798
  0.5858831151653755  0.1705369637861555  0.4115625313664691
  0.1549464319998644  0.5775968947171602  0.9232241048330478
  0.5823533060468176  0.2541488807622539  0.1702037069457609
  0.2480023100421233  0.2528200009500467  0.1682784181059948
  0.4149571593451748  0.0081092851198971  0.4063384585322248
  0.1612698303048822  0.4975829935861366  0.3331429159988666
  0.5849232208473428  0.0052134816947014  0.4115328148367938
  0.1597603637654538  0.5790953520560322  0.4145489781705095
  0.1615902280186299  0.5796029818820342  0.2510104073981242
  0.0771351147007221  0.5798560208818326  0.4982567494832665
  0.2445298470254866  0.5795331336081639  0.1702757439538848
  0.1639039280264916  0.4151552394021286  0.0839681710693820
  0.9990692223270977  0.9196464727979973  0.5740075751349901
  0.1623424948449433  0.4152405189689739  0.5819548732679625
  0.0786587826362625  0.1723756961937326  0.4107879729272253
  0.8328559133713156  0.1688549632027154  0.1674619003938052
  0.0773518538848204  0.8309183609864172  0.0878371369036319
  0.1631367812158574  0.1708756621946155  0.1684076848531385
  0.9985731693443474  0.7477091255955288  0.4153100412007439
  0.0807118690827414  0.4149915502178638  0.8344384691661909
  0.8327744168386162  0.6656123994767120  0.3339811688117763
  0.9995662516612848  0.3345997662241350  0.8354120313710738
  0.9969432966348518  0.1697981901455017  0.1671044375748343
  0.0792308418568129  0.6632530081013053  0.2507279531828255
  0.0788894139648228  0.1705856926912197  0.2487147222205736
  0.9966835352859164  0.6645202134948182  0.3322496170593555
  0.8417706404733991  0.0029890543425296  0.6477871480177640
  0.9974086973372772  0.8312382480211838  0.3317272987903902
  0.0803683477679076  0.3334664886261089  0.7515981969813511
  0.9169171596350856  0.8327598812744101  0.5794192193500953
  0.9149954359977831  0.8320208547009982  0.2489218216963001
  0.0789939180279668  0.2539974542076128  0.3301592290913075
  0.0775488402286862  0.1703660038828314  0.9214426821354519
  0.9966916683641450  0.0872038458939991  0.9246996759866820
  0.0675084268691775  0.0019966339517207  0.7413537688786982
  0.9977490688933868  0.1703273795112849  0.3297869977128623
  0.0792680973016286  0.0875699719761300  0.3288261420349822
  0.1606580101743345  0.0029401728254280  0.1694137401858917
  0.9150056584217777  0.0854681332517449  0.1669850157694929
  0.9968692195664575  0.0012467342671462  0.1680742446697313
  0.0752095116351651  0.0053102533202779  0.9281121068318775
  0.0810882783237740  0.1710605704989230  0.0875085233076992
  0.9971274223120602  0.0858847823041458  0.2480140079492231
  0.0776174357891117  0.0038418110556774  0.4093921259543551
  0.9974649628303690  0.0878176340651076  0.4118215302778452
  0.9978984720550859  0.4151210641406317  0.7511939166359791
  0.9169005610789862  0.0886695304689531  0.4927353225745251
  0.9952100352391191  0.0890875391043921  0.7476815289470193
  0.1647169229485551  0.4152091507776283  0.7518138868785630
  0.1978853532666537  0.9787897867920997  0.8320084509735145
  0.0787445754537069  0.6621213268909206  0.5820967040548581
  0.3933201894219740  0.9934832344382740  0.5613988542431471
  0.5039259439731584  0.1724305531290656  0.4911308916999106
  0.5069573817937195  0.0975218465600004  0.5770211422430205
  0.4998642496467350  0.4977822792761137  0.3322325587201562
  0.6639274969143796  0.6613328551153467  0.0063423143132362
  0.4172456307728882  0.4974472866795524  0.5786086388541470
  0.5832759767543541  0.5798064279942086  0.1705906858785131
  0.3251305944999518  0.4933796885446781  0.6594936765867564
  0.4991492331235688  0.5795565363080920  0.2529343823608259
  0.3234748268317404  0.0946624979653801  0.5624938403765124
  0.4993198349406887  0.4985851730330466  0.1711814537753876
  0.4149584562359576  0.0889533808972055  0.4903183567310317
  0.5012548279459367  0.5793815457592619  0.4135701201781301
  0.3984683519031387  0.0184117334504469  0.7598968064854597
  0.5837726641397114  0.4969272444888309  0.4141708877591520
  0.4984080582049509  0.7461935182319018  0.2541379237531351
  0.5850441675214936  0.5800699571718646  0.3327969224986007
  0.2486040072228524  0.2505930739944315  0.0027141168171897
  0.4152008004600123  0.2529871436959444  0.8350665459620472
  0.5855015761802019  0.4939240316408017  0.5760145144136803
  0.2425982123143485  0.0031454965903321  0.2517538298385942
  0.0814415512782447  0.9230785200043422  0.8485895197959893
  0.2532932770869902  0.0847772976787885  0.8390027849915339
  0.3324693632475471  0.0891612901293013  0.0908639079682548
  0.1574940044817214  0.9285743338060491  0.5698400062306626
  0.3075624646854448  0.9732827502914464  0.8288346379015596
  0.1318203482726858  0.8309590090109685  0.8160981784092106