 B Cr Ni 
 1.0000000000000000
    21.1200000000000010    0.0000000000000000    0.0000000000000000
     0.0000000000000000   21.1200000000000010    0.0000000000000000
     0.0000000000000000    0.0000000000000000   21.1200000000000010
 B   Cr  Ni 
  52 259 605
Direct
  0.2849099691220017  0.0090333292255395  0.6572505944989602
  0.6829760139752645  0.9927368300966731  0.7598108339910187
  0.7568832565382692  0.8518409494330964  0.8474657775717908
  0.4241377728780987  0.7199211222319322  0.5575173682970872
  0.4061098400290325  0.0729602295679081  0.5767854735410028
  0.2576618127188411  0.8511414277104558  0.3281211707499984
  0.0891152311226415  0.7543296622205375  0.5811060893209923
  0.3412423119394071  0.1054411482338364  0.5222077535179903
  0.9183737956441298  0.3267875899836796  0.8552776108490223
  0.3300016937359426  0.6440418448949093  0.8924504578783240
  0.3315584914023542  0.5828957137621249  0.3308244681550342
  0.4893522023765586  0.6764679556228413  0.5893572460994350
  0.8113909705843415  0.2385168025118821  0.9790276555727219
  0.5983731174285757  0.8434904150924039  0.6792647120349679
  0.5208261062884907  0.7274181891331456  0.6510531688667014
  0.7511198387974172  0.3361149041036426  0.6617045512995362
  0.1639634210125098  0.4179963363918615  0.3337954340281835
  0.1835737789369612  0.5862399341366435  0.8224487718686979
  0.8437637794587319  0.4208478166076405  0.9827229317078556
  0.3276722764708729  0.1719755732430916  0.5849395466861572
  0.6817922542644558  0.1761302433723957  0.0825941475556699
  0.8292736601318651  0.0881440746048595  0.6942771517875650
  0.4976321521073456  0.0851199334645012  0.1648543306343853
  0.0893442604815405  0.7528194426823882  0.7640027367992754
  0.7510645571174973  0.3482782138035559  0.8494308304755452
  0.0773630658132256  0.2334006549736066  0.9021428584738025
  0.4149509770220447  0.8983573148034261  0.4469169147193687
  0.4126182033304608  0.8151906954149593  0.6774731514879861
  0.9288614497594693  0.1432708694654181  0.8120423944802870
  0.2545458954937705  0.2360535933735666  0.7404004991356671
  0.5096005488009436  0.4053684789261962  0.1634001031250145
  0.9848611115476544  0.0037349997410860  0.7639011277926668
  0.8331285787881304  0.1802928212186453  0.9232422398767812
  0.4894704397833405  0.5767561132971273  0.8393230956715899
  0.4666691171070418  0.9977142320457326  0.5818232444774154
  0.1725899662024346  0.8322417496878395  0.9018307403918888
  0.3303432796117406  0.7577519644255943  0.9922234823765252
  0.0803305920522318  0.4173292035582243  0.9103354739094669
  0.2552987266390229  0.9172412811513009  0.7588602390141113
  0.3461328346107175  0.9326052852640354  0.4783586582634896
  0.2623564635214373  0.9704484797154961  0.8241718360103364
  0.5737795274298797  0.3411691417667838  0.1712878715072323
  0.2701191881951187  0.7375059839685635  0.7556781182456803
  0.9843125026639274  0.1800995291963756  0.7609921723448722
  0.4094260679504886  0.9230954726413547  0.7552694071514608
  0.8225786866967092  0.0925026615633635  0.1587440080945103
  0.9157892364709411  0.0860722824899517  0.2492761240615783
  0.3142267433851934  0.9900715806808863  0.4307135408666636
  0.2505880268830287  0.5812325971267853  0.2516471282821383
  0.1588192771713463  0.0914049651431909  0.9929237726604688
  0.7403861380361575  0.5020235205596216  0.0119397630842821
  0.7349637189943544  0.9368221907273870  0.7327752418041946
  0.8348931299167338  0.6665670568897696  0.4966643465806233
  0.9937180561411574  0.6633537140710686  0.6649103599967532
  0.1614431732407346  0.5853986192376273  0.4218297069599580
  0.8328075513214609  0.7472775164214374  0.9186594003743318
  0.9141586669964276  0.6647355707671992  0.7495297807182567
  0.2561905980098821  0.7496920708638352  0.4981505553196997
  0.9160012916061920  0.7504750757567692  0.1687597309680244
  0.0752528296926130  0.6580423083534475  0.7469465491740932
  0.8339064646645182  0.7478162282820299  0.5783643154683896
  0.9961013268850664  0.6674162853984427  0.4984789697544319
  0.1513025961399848  0.6758845218172453  0.8298247731230027
  0.0819587609996962  0.7492042293132972  0.3322336803297644
  0.9151692745216586  0.6659156477956677  0.5818886830326329
  0.0757686236973185  0.9185411926821623  0.4963934239224493
  0.0782826581802353  0.9192760258393045  0.6614740296810186
  0.2518490892771594  0.9925111752961193  0.9192218639135540
  0.9141958420308265  0.5823894668079493  0.0032128067542808
  0.9168497515764860  0.5005766260275910  0.2526659714711286
  0.1506426809724242  0.0005005451699915  0.6609172081826471
  0.8330187949446396  0.5858486648565929  0.4149241728952480
  0.9137113226207589  0.5006683412987241  0.5781991349947228
  0.2509309765879739  0.0838653896777119  0.1684972645234226
  0.2444694441519020  0.0060312713142588  0.2524215094864925
  0.8328660775464650  0.6661470927978380  0.6655285242671953
  0.1661155636208035  0.0878803348902138  0.0904290711909087
  0.9158387227806117  0.6657960679833683  0.0866778049599137
  0.1660317724678632  0.9960626266918766  0.0088289048940896
  0.6642366692829170  0.6674427500250818  0.3334004366222461
  0.9056905998432332  0.4940953205169861  0.9219636192267252
  0.8326469558040371  0.6679816049847942  0.3327969127006540
  0.4271622002957134  0.6626188608533644  0.9240179694448668
  0.9254725031233055  0.1603093502392694  0.9123320111552293
  0.7495448990314452  0.5022085179879963  0.2522702233605987
  0.4167124004298040  0.4175392650980874  0.3321058756750389
  0.6647459533006652  0.5849048277637351  0.4169044821918816
  0.9131125938591019  0.5788111511729712  0.8354436865319014
  0.0839480547959051  0.9161080306288323  0.1707719574870205
  0.7474485105483598  0.3106206646280591  0.9359809626142249
  0.4110878324008110  0.8296025585608968  0.9172676175982732
  0.5813473262390635  0.9999923299541205  0.0836872064429682
  0.8307008075991571  0.2563833769867991  0.2542494527753295
  0.3251182869351143  0.7998696816595400  0.8255057679487774
  0.4333393115987449  0.9113752309524192  0.6568952057781253
  0.7427436996169224  0.1713913573243274  0.5732967107328794
  0.7485853065659501  0.5011303016582305  0.9140125079980526
  0.6699461543061164  0.5081008179845281  0.1692830222263924
  0.4150709093687596  0.8274066716770386  0.5802731843512946
  0.1669171262000836  0.3351160503642839  0.8295375614847545
  0.3350150024412292  0.7482373232679711  0.0888576654688779
  0.3149455166698382  0.9197189811491340  0.5856442934960732
  0.4152461239018496  0.9186788103972238  0.3271882410024732
  0.3305153672467995  0.9009103979901574  0.3888736757516882
  0.7537963244509089  0.1548681922856422  0.7447785525013546
  0.4149406386815891  0.9171196483130143  0.1765443613430514
  0.4202657654183306  0.8314459852106758  0.2437624806529985
  0.3211485123419374  0.9155607219225540  0.2585228737443947
  0.1738045845964934  0.4147732564424474  0.9175241414561082
  0.3343919031365565  0.9213244462594213  0.0918077118683534
  0.8353281722725876  0.0798823962913281  0.9149596855311144
  0.7455198251553168  0.2507461540782874  0.8328625944731115
  0.6646008187522702  0.5029513870995502  0.4969934337498132
  0.6624899294658925  0.3319966698191651  0.0025756547068227
  0.8341808786548418  0.6653632406758774  0.0038295806443345
  0.0787678493443239  0.4998751271271341  0.7456584525427917
  0.9980969449877833  0.6665560379453684  0.1697040494040744
  0.9153876446500133  0.3390016740922910  0.5759070009628725
  0.0780682061064445  0.4180317552128598  0.4961595520610217
  0.2470181163455522  0.6622493569662056  0.0825148845613237
  0.9175309254655540  0.1669145871032892  0.0864632471486078
  0.1705880256411585  0.9174359704895082  0.2509165067009174
  0.5820996098249148  0.7481788492645652  0.1649165239219983
  0.1668062786297765  0.9149761080412848  0.0867082856017392
  0.9152709753738285  0.0845012415083454  0.3425982685697390
  0.2349047295078448  0.7563472224810801  0.8492681122708108
  0.8312079178788038  0.4233778001058784  0.7461265439011875
  0.2472772033925964  0.3346095693470331  0.4155172024323755
  0.1603903135652669  0.1735671759605477  0.4989064324589317
  0.9154751403060354  0.4164845454012842  0.1685939870387045
  0.1627342304604111  0.1700360925312887  0.3325884830417140
  0.2509128952930206  0.4139798537715493  0.1649740155664286
  0.4147891709362807  0.2508413818495324  0.8360336289643187
  0.5817607350192514  0.2536083924699856  0.6633038704886258
  0.3311576544809387  0.3328198110780497  0.9988745618291422
  0.5834565725995771  0.1708187940067643  0.5790871997674163
  0.1642879736746075  0.3323981919102856  0.1673896527404027
  0.4175623969414671  0.2595677222171286  0.4972916671727430
  0.2499880880267703  0.4155183805845791  0.0019944394536764
  0.2519402652039977  0.2494810293336095  0.1692649919304421
  0.9180124348921623  0.3379619927068098  0.7447782426580511
  0.8322505238122228  0.4167668529212192  0.0910194046746975
  0.7407293787356113  0.0878043624670134  0.6491863270741598
  0.1634964766934084  0.1687381917836909  0.1669315075778740
  0.5036084398193359  0.0918169867274073  0.7506455820781245
  0.8286635858145985  0.3277777914881416  0.0133580367095846
  0.9076462425197656  0.9136615245107508  0.6624875179365408
  0.7463943760831168  0.0847526711299100  0.8410429258678582
  0.3323606654545632  0.4963260885412009  0.4973436731938449
  0.9907229083665999  0.7494600012993172  0.5803050070231258
  0.0791365140062320  0.7461675230251236  0.0049425239271373
  0.9131564146299329  0.9104065770690977  0.0041192808890369
  0.0918573545558536  0.1470022349538767  0.9361939814294775
  0.9816389541244182  0.2599035268897885  0.9135377720442379
  0.0205073494209945  0.1649595129372227  0.8503830189955270
  0.0832604454007834  0.1696379388890137  0.7485424656454872
  0.0796658836808520  0.2468493272998040  0.0025487833847348
  0.9954280670937490  0.0811624230465616  0.0872903868605669
  0.9988558274877781  0.2485487695181282  0.0838342764452369
  0.0787169329233029  0.0741913388619241  0.8379540180255797
  0.0897201050272609  0.9098276248031026  0.8372606116813888
  0.1618886250654452  0.9899295524937082  0.8325195943209084
  0.0744458491623311  0.0032283788683742  0.5793417144971473
  0.9961990130426375  0.0026091167804868  0.4965278749966636
  0.8306104759496195  0.8292144499502158  0.6633166239822423
  0.8327202304726846  0.9133244527633784  0.7489644676797109
  0.0798352112631598  0.0908729305804578  0.3339531750751967
  0.9153661605250754  0.0016420797291309  0.4161165299057094
  0.0830264032895523  0.9977961895976333  0.2467040616956661
  0.9983963713924707  0.5038298495689620  0.0038626683381807
  0.2463247173852516  0.1633358720429295  0.9116259699107363
  0.0809552222793142  0.4170075321923377  0.0059328500207971
  0.9969412363050068  0.4203032693416661  0.5781796358078161
  0.9997832466235795  0.7476686947768519  0.0864136751869595
  0.9122187671314955  0.4985875349708965  0.7478701727235696
  0.0797432738624761  0.5829518064561818  0.4984630241566546
  0.8313965831371183  0.9161193198261424  0.2517477540245349
  0.9985734263735034  0.7496872096402905  0.2510417180976498
  0.9168630533742859  0.8338841041783507  0.4131890448577596
  0.0798804429189894  0.5816051699126851  0.8314204307165739
  0.2469193837183872  0.5772396148709410  0.6624289992114248
  0.6670618049019404  0.5811693923012395  0.0842467729248831
  0.3315606875963442  0.7515181816837904  0.5811447836692701
  0.7516203442796323  0.7491379044168817  0.8356221055249845
  0.6637100326110623  0.9181979913944224  0.0848696981156505
  0.5065233419077075  0.9199535616700986  0.7514517243139730
  0.2308442377216925  0.9168159936286833  0.6611018194636982
  0.6652477823207044  0.6670973876808814  0.4993017494222746
  0.2484735244292794  0.3347427693248177  0.9161773593788483
  0.4153299707574457  0.4166568309782446  0.4978485024982772
  0.1639870107921538  0.5815021716672872  0.9189406833289873
  0.9147384258278667  0.0876855933312727  0.4951638784342374
  0.1678841406335615  0.6581907645345964  0.6579869686328103
  0.2478632676474019  0.5818695158379513  0.4985335681669710
  0.6641442349331712  0.7438646158719667  0.9216011092194890
  0.4070051049679853  0.2455947639647187  0.1688236915797639
  0.3326228346804129  0.3314770341448036  0.1671066372067108
  0.2478528795100195  0.4959198580501935  0.0840155905658188
  0.1633419888400797  0.6693152656529638  0.3341400788300796
  0.4175716061856707  0.6560881844487477  0.7468899894750696
  0.8955056126488526  0.1684857543763941  0.7257161078615898
  0.9131851639992391  0.1716994915805521  0.5753290829052656
  0.2386982539357245  0.7406672579143652  0.0069098541319394
  0.1645984665934800  0.5813784078188744  0.5796367217048346
  0.2440091282120117  0.7467637443493951  0.3318915760985626
  0.1612896251444242  0.7480225441032473  0.0854086897476506
  0.3391079506130428  0.6696989240892250  0.4988880371788288
  0.1634620895023614  0.6647538622013391  0.1647686383317803
  0.1656511956929460  0.6654426546165354  0.4980697091717770
  0.8246148075102293  0.9096527393970115  0.9138568582636266
  0.9993788575763241  0.2536535784641050  0.2526186094363934
  0.8350005947701529  0.2480969388732390  0.0858396777927845
  0.6714521427021043  0.6647257820920084  0.6681312615447187
  0.2650890565243729  0.8216343247624361  0.9358884323365277
  0.7521087188997887  0.7458468074393214  0.6660155469312040
  0.0000958207949680  0.9173570540936978  0.2510743490245136
  0.6725600043615695  0.7464445501506787  0.5766619472677545
  0.6456003927189971  0.9012702161339808  0.7511888962610097
  0.3291151401800338  0.0785542780736636  0.7387566277131623
  0.8311863127292302  0.1706806851022065  0.4970949462615917
  0.7470063011795545  0.8333626034329349  0.2489086511651487
  0.7494640604823055  0.8312719281654628  0.4136546898070459
  0.7489175728363822  0.0003506956170535  0.4146991602305224
  0.7453677865148793  0.9150300127957834  0.0054176984847638
  0.4131385563588774  0.9947120864198953  0.4186568208981569
  0.4185001843320479  0.0039541346377882  0.9210040133957310
  0.6664585959923103  0.9207099729250082  0.5750264411969485
  0.5044435993773028  0.0843290837347467  0.4125061256152013
  0.7453442979693168  0.9163551060201329  0.1670738558191029
  0.7519218895914649  0.8386458315907888  0.7503792318999487
  0.4133184966330273  0.1683908776632377  0.9144068991804543
  0.7467626667147291  0.9960893115811773  0.2524789776817276
  0.7472467594141207  0.8321644661627907  0.0851960580943728
  0.5857044330709884  0.9180773986148230  0.0043185641484121
  0.4126666874815695  0.9995075376322192  0.0886513238460398
  0.4163540884392227  0.3376423333980828  0.5826316404222784
  0.3325995417294247  0.3376602038213034  0.4982340905663257
  0.3309049262764429  0.1673183400380778  0.3380750149666487
  0.6657353880250299  0.6662604651785451  0.0017061766222992
  0.4138070809757701  0.3312357656221009  0.9161092992539118
  0.7487208882317473  0.6714281274195847  0.2529453517090021
  0.7488488397988825  0.7495922068382666  0.3317973251776391
  0.3304365451559425  0.0010107782807189  0.1744996742085626
  0.7494984418640566  0.7517270534917543  0.1677676196248064
  0.1549153772372893  0.9105146506201285  0.7469598479529420
  0.2465979509039619  0.9255726872920814  0.4924427366339610
  0.9156339109622106  0.8309173750091041  0.0871336306612626
  0.8303298973162901  0.9916009481282168  0.1687999546808802
  0.4990167970815444  0.8339018991988435  0.0028399515995986
  0.4970470494018310  0.3379054685665742  0.4975743050221348
  0.4199633598941158  0.6650304417130116  0.2450367627407311
  0.5100272869848382  0.7694198372940957  0.5622364931853202
  0.5859925057378713  0.7513216495125175  0.4950612292001779
  0.5853764947986450  0.4979609227208653  0.7486534069775365
  0.4984323053585503  0.4990424111215658  0.4976660191694917
  0.5854422565224894  0.5799891472254444  0.1665846964560656
  0.5846816437428612  0.5025344299379277  0.2542586208238472
  0.4809191606918088  0.3149951647669162  0.1688133376012269
  0.5806203160046205  0.8324596198609461  0.0835764511934771
  0.5001670362369118  0.4967792739560817  0.0006955343826388
  0.5050457727744978  0.8310505294954974  0.3279938186651609
  0.5817862452954732  0.4193718560550108  0.6644068198634743
  0.5781069186481309  0.1676163848402546  0.0850772598747601
  0.5818629938438892  0.3322440671736948  0.7484729534658308
  0.4174626912804776  0.3369271574634520  0.7471717662199858
  0.5137734785211188  0.9065748556850965  0.5803108230237010
  0.5856029736527989  0.9151010569074969  0.4968350017564661
  0.5022942487690660  0.8339409767466504  0.1673702289074500
  0.4983524863355401  0.0860405166933261  0.2599812906614229
  0.6659931200310205  0.2513971992258435  0.2529700004852002
  0.7464722996985482  0.1705718668489692  0.2526887598936333
  0.7487608297876679  0.4215562871879610  0.4964675400653391
  0.3338682157997456  0.4940989771303247  0.8334396407754424
  0.2481636170923208  0.8365858515740785  0.5778874949048013
  0.6639814330330062  0.2548432893514874  0.4160640150698618
  0.5004762064267620  0.6641204385430582  0.0035618331443018
  0.6577347592854799  0.3293605919391881  0.8320839327743000
  0.5808991941019788  0.1689339760894204  0.2552083871287699
  0.6657726814653984  0.4213346331471777  0.4178709298094978
  0.4158592624885529  0.6666994329334840  0.4132642338893689
  0.5831820952251202  0.0860472751919630  0.4947196741904664
  0.8291319304343935  0.1724935544107312  0.3317739316696739
  0.1568919093699692  0.9196214542893766  0.4222979979153343
  0.1625714841734158  0.4171693041658857  0.5791711308769329
  0.0821517832237321  0.4184421050679316  0.1699681807209583
  0.1671459453292787  0.2528537345524078  0.0882485638205547
  0.0802756286235454  0.8310094483038653  0.0862603238357418
  0.5832568420304605  0.7489239118600259  0.3319953207448540
  0.8324231351781717  0.3342432695827955  0.1667367584510808
  0.9157909418963671  0.2471616429030992  0.0030714426369125
  0.8326427532879185  0.0013889836089532  0.4943685698929522
  0.1546183210045080  0.7396479261675579  0.9234854254276563
  0.2476190741643240  0.9160909930067835  0.1680762224408603
  0.6559460791604114  0.3344389313322707  0.6655848103610559
  0.3328086603020824  0.8329595526729403  0.1674580098769598
  0.4173128038843056  0.4969273749221475  0.0835660158446295
  0.1497069385582449  0.1691803121163344  0.8370095139971472
  0.8317722784979099  0.4206216917764888  0.4147799469542434
  0.5834062936657920  0.0056324998778956  0.7525043046438665
  0.2475631073076240  0.3379569301588971  0.7485911540885936
  0.6663540878608059  0.0905017399367221  0.7497990302247662
  0.2489809755461166  0.3331275234185099  0.0831341207984419
  0.5039804371484669  0.0103722974263664  0.6706496214056136
  0.5789417686614293  0.2500205601281534  0.0029420394535538
  0.5808028164002573  0.2502360435789032  0.8321486709271418
  0.1661483618667086  0.4970341942320183  0.1668967712183717
  0.6629157373511154  0.0849791712114818  0.5759988931440299
  0.9256460672875294  0.2417453926549837  0.8117253497238578
  0.5810237233891112  0.2531887623732371  0.4963042951308226
  0.1655462356918260  0.2506386666018101  0.2480555039901753
  0.5837364048071784  0.1702259803575253  0.7483324746138201
  0.9959229467995865  0.4981262763979544  0.8329045852113388
  0.0817756228672683  0.5001482246696702  0.2512844071194925
  0.9985260736474586  0.5011584961172562  0.1708294637315508
  0.0804049058467757  0.5056663995591846  0.9183585079849330
  0.0822731577031647  0.5821535646626750  0.1685714279548741
  0.9992196784345035  0.5839306060958073  0.2515101361101343
  0.9984786412695822  0.5849014491672182  0.4153482475389799
  0.9977106301051054  0.5012516243840600  0.3335324026470000
  0.0809274065126587  0.5858034151123148  0.3342938123519846
  0.9953568628011052  0.5825866485527910  0.5804317732611267
  0.0801069610700189  0.4997209910411945  0.5783811661399971
  0.0805610780922408  0.5012873546714811  0.4158193976789404
  0.0769470146327889  0.5811254663834408  0.6606364782869245
  0.9942438297231130  0.5788796237120144  0.7486216657350211
  0.9968918920899997  0.5011771006064493  0.4962692591290341
  0.0797176924518998  0.5804473123280057  0.0042232310710212
  0.5865835258617367  0.0872431427670326  0.6641110497159532
  0.4969151943420159  0.2492383265252481  0.2569033402631574
  0.0626072248816068  0.7428106752439185  0.8484430570194941
  0.5830310183769418  0.0040873255588815  0.5793357623220218
  0.9971948311975990  0.8302451976711334  0.0049829808485544
  0.0813706099896406  0.9134269255577300  0.0071259227596282
  0.0836960501256521  0.8337087834172420  0.2509877646103457
  0.5026685726486413  0.0068082487067489  0.8348850659279474
  0.0764283772940316  0.7465677771890512  0.6691507921772130
  0.4972952046382433  0.0858378050637712  0.9187127776012509
  0.9955458114323690  0.6622138404601238  0.0036131694307112
  0.5792278568656115  0.0023237980415655  0.9232136182805439
  0.9931532888791791  0.4203599148271290  0.9195240499722851
  0.5814512833603498  0.0899089465668307  0.8344026212197887
  0.0030651990693952  0.4184564201271000  0.0914619291575594
  0.4965492953479767  0.1677894748278175  0.9988001983942396
  0.9912335314292035  0.7470764678491481  0.9264962165698357
  0.4960416055373197  0.1737276995602877  0.1701693109752781
  0.5861615104522073  0.0847216355151200  0.1704326469699432
  0.5840352653863168  0.9999189519923807  0.4140955324178999
  0.0825315499987462  0.4996041462632291  0.0863280313502635
  0.9985095473972677  0.5827774766972066  0.0883480120019183
  0.2360112420141389  0.9361471617444200  0.3436726810383415
  0.2423009163007740  0.5853638633291783  0.3409341471172058
  0.2453099332074581  0.4955899369846143  0.5796988548476050
  0.1640500273865233  0.8351402905954143  0.3336897842753894
  0.2497308720493718  0.4175473213780944  0.8318959519030945
  0.1565432866359242  0.5767535704931751  0.7385976656002087
  0.1612034475007634  0.5835323312516767  0.2501558036042897
  0.2498902080823808  0.5803467091248272  0.1618780704015981
  0.0801430631130057  0.6678755985418565  0.4156576798591853
  0.5839337161380261  0.0847400469002072  0.3347726463757598
  0.4184983429575839  0.9335273980656008  0.5341546247954375
  0.5044252651431445  0.9988240210777429  0.4956883172861903
  0.5822363064454812  0.1701176832101666  0.4153729179974754
  0.5015522256611409  0.0873863475538571  0.5800409209071387
  0.5779386945393707  0.2491568287356050  0.1730194957216186
  0.4139062425296274  0.0838693190020869  0.3398886285912817
  0.3285048554973279  0.6802586520979444  0.8083994545138737
  0.3380556695176510  0.7332370504321214  0.9083406936857340
  0.4207093407961433  0.8346951539986236  0.0896097181786054
  0.5831668611256658  0.2518349238361350  0.3355695601902800
  0.3347399863165614  0.8399879321839590  0.4938709903957987
  0.5814737347385764  0.0016984522544856  0.2526721915264278
  0.1628332917235276  0.8324405385914835  0.4998967122415500
  0.3407236262802016  0.8440446537352780  0.0131856506268076
  0.4180332497471242  0.9202033670685529  0.0025245257758199
  0.3398836459373407  0.8159841285678756  0.3178938884800463
  0.9940759224323934  0.6582984061565060  0.8336440285594631
  0.2422491814976075  0.8335693003061029  0.4192543645067514
  0.9987849675646457  0.9120931707097761  0.0878571611875248
  0.9999818324133867  0.8323530341971498  0.1706101912068836
  0.9990267228301193  0.9178549502888956  0.4133241610619084
  0.0826777128904331  0.9182450981696324  0.3320216933609968
  0.9932645600134137  0.5784275141256177  0.9175245207856081
  0.0810286955379781  0.3280495214136327  0.9176528292155672
  0.9945000308411069  0.7475632952699389  0.7500431585758993
  0.4981390601377856  0.1683802271369901  0.3367818142959375
  0.2478685018398655  0.4174582128321215  0.6657746124127555
  0.0821981146307360  0.2561998789207564  0.6603557342962360
  0.0799731632857625  0.2621150530026564  0.8181762658724171
  0.9999523640167420  0.3341352699932271  0.0048266235318288
  0.0813547640635672  0.3324760321129039  0.0851944278875808
  0.0000306355950637  0.3340922150229456  0.1691571761619885
  0.9980448731365157  0.4180449707609224  0.2504869542157579
  0.0812750878549727  0.3337897505216530  0.2508625130463298
  0.9973690606057567  0.3349459682203159  0.3330621346015201
  0.9967792294262015  0.4184664945920546  0.4154004067444674
  0.0806884392899795  0.3351203045572523  0.4148529288867434
  0.0758085463456482  0.4175124473684473  0.3333025724682176
  0.9960232305278329  0.2548857544068118  0.5794052284560228
  0.9958145165890612  0.1718033019851276  0.4980663460967158
  0.0790951817348220  0.2546004770919451  0.4977559330561769
  0.9964584619963344  0.3369317709889940  0.4962755826745037
  0.0038946802710914  0.2641789049126161  0.7362991730466175
  0.9953930094330992  0.1728239699638087  0.6627007968766023
  0.0786020540858544  0.1724758635817418  0.5802807026585090
  0.3328528779289696  0.4934233315895000  0.0068443917038309
  0.5790397382213905  0.0837520275750316  0.0030255942036328
  0.4991985056020312  0.3350114064372230  0.6649527432611499
  0.4951685481177632  0.0856463669645840  0.0774879513986198
  0.3311162615579643  0.3354395491867435  0.3326638039185947
  0.3313546473302216  0.5775450775807498  0.7479919243481269
  0.3328302620058192  0.5835031432307189  0.4205562462200526
  0.3576155531486069  0.7539435690534445  0.7288015461743439
  0.4190069651826182  0.4969026288175928  0.2487454626094364
  0.3278953630905950  0.6598758585220642  0.6699238880953797
  0.3327747843735569  0.3369569172101772  0.6666750960261624
  0.4290966092101915  0.7298917025626220  0.6507546632600700
  0.3318406485724010  0.4161141885259079  0.7499749584535741
  0.4989915880015728  0.0018500142249483  0.3338649190586744
  0.3307675237361660  0.3349204343885802  0.8343217451833506
  0.4988532616841872  0.9964804130795437  0.1695923430246687
  0.4140488638218263  0.4154531411302674  0.9972373669772207
  0.4189687282592276  0.5782986636308987  0.0043787600600040
  0.0794592943067502  0.3385083756750775  0.5783127503034099
  0.0817172054724255  0.9945801912374928  0.0905577911424554
  0.0830893566023103  0.4182664958110249  0.8225869127043889
  0.0848852767966487  0.3415412078318836  0.7408181557483335
  0.0024500703277594  0.3414221805798033  0.8269060811057585
  0.9163939829304936  0.8338183628661477  0.2511567655842533
  0.0818472601558685  0.6661372792423571  0.2503475863854315
  0.0804119832225560  0.7487749912126138  0.1690206042883451
  0.9986776801361027  0.6681428977617672  0.3322256968289179
  0.9977369021523791  0.7503764648559704  0.4135724559026043
  0.9997618982894598  0.8346414608557323  0.3318472851312327
  0.9163497696188523  0.6673000413122718  0.4143548234364728
  0.9131873862025128  0.8323774439557873  0.5779294433689017
  0.9983309883234895  0.1672758554276030  0.1685875999955514
  0.9966482150159782  0.1623291889489667  0.0004684026571486
  0.0805186173018899  0.1696117155475556  0.2498610547910195
  0.0807108966134064  0.2514971951693936  0.3325170270186515
  0.9930121664465879  0.0012759304392931  0.6648637170175510
  0.0806985393887058  0.2505203261111913  0.1676712390278742
  0.8386060225059471  0.1787248554325566  0.1774866626440672
  0.9973840136281021  0.1700160323478168  0.3335247619246103
  0.5831668030194432  0.6701276220222820  0.5866714353830904
  0.9970172325189186  0.9979816583977030  0.1681890543658469
  0.6651456528708068  0.0022600017085276  0.0006713270544534
  0.0806170615864588  0.0832016911198082  0.1664969708748207
  0.8314768549695253  0.5062097048171186  0.0098035609343406
  0.0783918458324299  0.0049937748032638  0.4158424094500647
  0.7505863911377262  0.6661989086644681  0.7513959844092173
  0.9958094248598612  0.4202207369296311  0.7450595542351822
  0.9152571078091905  0.9959335829928856  0.2517460711556533
  0.9941864230876889  0.0908586045363106  0.7449619836730108
  0.9156996654527787  0.3356513697293930  0.2511590683695187
  0.0862100570719855  0.9970171324856849  0.9254807778901877
  0.9133989997805557  0.5820493625289984  0.6649383050091140
  0.0027519531420253  0.0740628353437672  0.9250046332542090
  0.5743896310924602  0.8240376651416585  0.7693527712962488
  0.0784655883032671  0.1730439418089686  0.4155993073139677
  0.1641528265281872  0.5798669938554352  0.0858716667188383
  0.4153122306997167  0.5793251540543002  0.4966595610050706
  0.4985169035572360  0.5843512854257783  0.4163364452741229
  0.5815759082087073  0.5024240848370690  0.4166204719381097
  0.5032118321773983  0.7472550329177285  0.2467751397956940
  0.5824947875762013  0.5836186909615999  0.3337591178613750
  0.3348698242698746  0.4135917377135167  0.0847213179942663
  0.5833692253261599  0.5010719681410438  0.5804588377177127
  0.4210050462076695  0.5830435268792329  0.3306087491095986
  0.3296264635935496  0.1641142870564123  0.8292324686346191
  0.4149820462507580  0.4992875841664333  0.5807939121520024
  0.4152268261910253  0.2515396749214647  0.6647747929387683
  0.3290371969281665  0.4958486913810088  0.6674850937106668
  0.4275091299681907  0.8350125692719756  0.7639996307343881
  0.3160318502895801  0.0854097127682584  0.6096288339398953
  0.3834920455513573  0.0016058677752809  0.6292021568872855
  0.4269682274595348  0.0857901181406384  0.4883560647027658
  0.3313272672321741  0.9501722882091220  0.7096965120372660
  0.4228959556823172  0.0118339198031309  0.7465338732064610
  0.2520076365754850  0.2530060609325244  0.9987240630386601
  0.4138169549926216  0.0031788690746068  0.2540515102363972
  0.2544016589462071  0.0719197085849029  0.8316779112438484
  0.1579613526759965  0.8298525362940725  0.6588737932595382
  0.1439505262217763  0.8121330106870697  0.8158476653941439
  0.2419092395788258  0.8278817171021619  0.7434037326266351
  0.1636391593794686  0.9194719187297989  0.9290375344113245
  0.2276426707284890  0.8846796020195316  0.8451706624292477
  0.3333290764007175  0.0002974536648086  0.0012927870949923