 B Cr Ni 
 1.0000000000000000
    21.1200000000000010    0.0000000000000000    0.0000000000000000
     0.0000000000000000   21.1200000000000010    0.0000000000000000
     0.0000000000000000    0.0000000000000000   21.1200000000000010
 B   Cr  Ni 
  52 259 605
Direct
  0.2677509648509679  0.0082749275354299  0.6539610185950729
  0.7576714991769099  0.8564481348402131  0.8447164197781948
  0.4268438964543091  0.7207174087871525  0.5595704830204402
  0.4061454229244014  0.0999942204124016  0.5987543429230279
  0.2276015390802127  0.9817891949957525  0.1464120079390375
  0.0005517592763504  0.5869230890835024  0.6710553710775993
  0.8283227051920449  0.2595278700010295  0.9848306722014121
  0.4168644756944622  0.0152910917007382  0.5066435964298029
  0.1737384295581599  0.8398257906517916  0.9088806654974384
  0.3219479528923384  0.6512843514628770  0.8993752247429804
  0.0546300439984875  0.4316024754718072  0.9105421096771211
  0.0869097744877987  0.1788973595682220  0.6529192843739278
  0.8338696415865023  0.9260061724017969  0.0001303708219864
  0.5869667034747885  0.3357107891264804  0.1645456063733575
  0.2704139663047029  0.7501173251246338  0.7622676897780142
  0.9073569097730559  0.0078356763057917  0.6664429138367517
  0.3865825512786411  0.9146166490364936  0.7487019460815907
  0.8156943542572489  0.0951754079301912  0.1576823271269872
  0.5173063018071080  0.1603178973686568  0.9077105278072738
  0.4213795824316127  0.8517346140622890  0.4735116374555305
  0.0740336939319524  0.6687910958339489  0.3350511714364874
  0.4160706463909755  0.1635612048930631  0.6631333773161661
  0.7562067430954134  0.5003893971627223  0.1641968531785812
  0.3399356364669208  0.1512906435330914  0.5738095374217220
  0.4071623320171151  0.8114440057437438  0.6686427278331921
  0.6858202553695429  0.9991339934281218  0.7634406939321705
  0.8821830405717556  0.1607714880819529  0.8367015825549715
  0.0029058374483714  0.5793359830116764  0.0008209144347508
  0.2416196386273432  0.2539662726898265  0.5861701087570110
  0.7511269871621846  0.4053328721390145  0.0769347161598154
  0.8222072836888710  0.9897713412722146  0.0544376530949757
  0.4112614302681464  0.2364999236882274  0.2580985211418492
  0.4877526003898818  0.5070478411441677  0.7537825530910685
  0.3318554956698404  0.1599362562317364  0.0900760560604414
  0.2597936490165871  0.9307877242385520  0.0907169793207483
  0.9245051426458419  0.3441811582332008  0.8524151340564224
  0.3531559184952514  0.6082311041765379  0.8355869415322652
  0.3314706876783541  0.5813704503375314  0.3338114509126842
  0.4903599042292007  0.6687410386525927  0.5883496374314211
  0.7405888060721536  0.9463288970304319  0.7306689144992766
  0.6561573078874524  0.1559848052419840  0.8955359105639529
  0.4833173349681610  0.9858898785137143  0.2621756348346377
  0.7479158861407941  0.5883028465531790  0.7493870769454567
  0.5928290804039301  0.2601964414301070  0.7696463693236946
  0.9196873548573019  0.7445253629122426  0.4123148086788885
  0.2660392344500233  0.5939639397496675  0.9278196556572997
  0.6431292388597376  0.3160524438412449  0.0981947862792512
  0.2475452971495568  0.9789226124658182  0.8292908119188024
  0.6820668674316775  0.1409791626407557  0.1059032514654538
  0.8301411083440686  0.0761415101107999  0.6793455926811279
  0.4699823753285930  0.0811308698196469  0.1747640008637570
  0.2471981245954457  0.0830684117972887  0.4155607779694397
  0.4154023672120407  0.0809081478758993  0.3341217693927249
  0.8338295480450335  0.1674346992568280  0.4981978498343128
  0.6619343510895767  0.9147252321026926  0.5769078658404138
  0.7491188517436927  0.9984558486424724  0.4154971439582917
  0.4115417323094571  0.9999873666296918  0.4114100153854821
  0.7419329444704927  0.9132731727051814  0.0086673500683273
  0.4148532647148396  0.9970875565709717  0.9168128281562633
  0.7479392652580911  0.8313675351500385  0.4143827725157934
  0.3288554893213820  0.0838263952808925  0.7556602730099120
  0.7459285663267577  0.9118939548603522  0.1747811060200130
  0.7470345743803284  0.8301064195806661  0.2506558459547255
  0.6524380587499090  0.9072714542390029  0.7508643630097190
  0.6646316659432645  0.8307990231784601  0.4953699477445543
  0.7497412126110393  0.8418205632376284  0.7476523390883489
  0.7499070708820722  0.7493695276022395  0.1672432323142774
  0.7482810825106688  0.9142512533053263  0.3299183161172754
  0.7468692584787930  0.8292969250508666  0.0859378214226046
  0.5783306179675672  0.9088979933497985  0.0045459015687325
  0.4124511239900110  0.9966131345104464  0.0877157995680607
  0.4133044862137715  0.3351804616815892  0.5788534131323976
  0.3313487912051365  0.3375465068670924  0.4986612002426481
  0.4140818150864599  0.3410856530750950  0.4192469314690381
  0.6677741458559958  0.6639785090056214  0.0010727965981432
  0.3341690077540150  0.4150071376006504  0.0849794181745708
  0.7490800591045186  0.6684305514393721  0.2524098989237381
  0.4142534302309310  0.1674666892357062  0.9169374391701980
  0.7495776728030414  0.7470928283943339  0.3320412308134904
  0.1643971986636864  0.9187899056192884  0.2454292168645313
  0.3232120669609308  0.9939103939586861  0.1529272622186665
  0.7492469681285404  0.6675412528911649  0.5819754953916267
  0.6631943128684271  0.9103254337224767  0.0894353179561582
  0.6669118295716260  0.6653197593772952  0.6659090855555178
  0.9137328032771074  0.0848591485281448  0.4964435822866111
  0.1659489617345053  0.6682815032235399  0.6621210065769371
  0.2447849319091946  0.5831218631539509  0.4997906725528107
  0.6661177029445718  0.7459455398804451  0.9191800701398545
  0.4168304758600477  0.2517078142690135  0.1628272140518227
  0.3319799079585471  0.3348904380703515  0.1675594436698093
  0.5813668840578345  0.8278147471285120  0.7522749346017324
  0.2350462338018360  0.9182738299874035  0.6672894300017246
  0.7473208068283039  0.7484633928573585  0.4965566293175926
  0.1619821934610612  0.9207304522064012  0.7524884355848688
  0.2634917828996960  0.8191676207883669  0.9367097816112611
  0.2487338047132407  0.3382418580739001  0.9182126396283995
  0.4145242998778411  0.4192888845820861  0.4994848000724508
  0.1670345694158936  0.4972427923197768  0.0035056201780627
  0.2498994873710135  0.4938944528293008  0.0887896921250359
  0.9230550546727683  0.1806844747900136  0.7444866485718586
  0.8357751506336896  0.1740063092848249  0.6590197629444945
  0.2490300083603157  0.7449934269511559  0.0121640320318779
  0.1670503535077979  0.5840073667045318  0.5791131367222961
  0.2461188592536767  0.7471586969250908  0.3335612352040468
  0.1638715146587343  0.7504090157025822  0.0854596626444857
  0.3399259543197703  0.6743549563967884  0.5019638991922265
  0.1660808370140690  0.6654767084122144  0.1676975781557592
  0.1710302714844033  0.6682778045894219  0.5018985772073266
  0.8283002756726580  0.9128056568500157  0.9040531091535526
  0.9978545250287780  0.2531269567844505  0.2541093014794769
  0.8337166469878597  0.2525949015697632  0.0890741468612363
  0.1716398165189042  0.6683212413744465  0.3348838646868745
  0.2508642470298131  0.7549614992211388  0.6635194286513143
  0.7516671000070650  0.7528000352829368  0.8343511168245646
  0.2484688503157776  0.9164990186878076  0.4976970744221760
  0.3342091415198349  0.4989417323328411  0.8288304844651482
  0.8314411503321361  0.9968060042993586  0.1649008283800224
  0.8325437637764421  0.1674046787545041  0.3341710780046524
  0.1647639824114385  0.9162571379762178  0.4153528040976008
  0.1619244212042637  0.9202941399196801  0.0890814789165940
  0.9143601247571677  0.0838661046158480  0.3332315048641667
  0.2332488369654048  0.7679412038366088  0.8492319181705896
  0.4937332156953998  0.2541354772717589  0.9206090711220384
  0.5826412140604806  0.2576979697844722  0.6644588111924949
  0.5099201618295922  0.0820584641277509  0.7551701288943722
  0.5807550326687643  0.1696483063369960  0.5754639921579527
  0.8305752220361424  0.9992313754090625  0.4965703093438435
  0.1505816037722629  0.7453826970649269  0.9221807144156812
  0.2580145473187846  0.8960458072373514  0.1786222302360074
  0.7475015082412745  0.4922568154452074  0.7490196869398724
  0.3389343709019321  0.8242238678967304  0.1682975796340273
  0.4136975388076052  0.5007461038551221  0.0841860485814645
  0.7381594555672343  0.0835067169245215  0.6463603308605108
  0.5004902198001097  0.2544361793793530  0.4188627489349844
  0.5826109094919510  0.0017218954698638  0.7512572594533584
  0.9984864800380224  0.9174151593985054  0.2494106216622873
  0.6608416057106421  0.0906172920674383  0.7461454592071213
  0.1635264650038664  0.4171278908769167  0.5819237754010652
  0.5065329562970668  0.0007397618510573  0.6688518533749014
  0.5925455051056014  0.2599043444960308  0.0151627032402883
  0.5780777765920228  0.2298703380759530  0.8576196360098891
  0.6611175027363568  0.0825612575434882  0.5735534483048133
  0.9195304826473415  0.8286757192554274  0.0857767316057523
  0.5018850633492372  0.1724268399607755  0.4942526144237907
  0.6671716694329675  0.5852408985311158  0.0809929083010218
  0.5829507933752655  0.1674440788908044  0.7461357519968452
  0.5844770049520930  0.0847133531077431  0.4974138185611345
  0.5800686708089701  0.7435111491040048  0.1657806674032889
  0.4994659859021561  0.8233608239333778  0.1673924919968376
  0.5778973816828780  0.1671525311380271  0.2606394681615475
  0.5826916664492059  0.8291797480811263  0.9214177412730341
  0.4993591924348404  0.3369871704801444  0.4973674480038514
  0.4992063048291742  0.6610231351976056  0.1663456672269936
  0.5183504068118587  0.7596052305221531  0.5750304871594308
  0.5872343005391094  0.7455732085653143  0.4946428012126672
  0.5881718044400531  0.4935122750640046  0.7490311175344715
  0.4989876146435240  0.5002702704258506  0.4977429688343669
  0.5829688441842251  0.5815593744453843  0.1671082884399479
  0.5811037830402078  0.5008047222424065  0.2530840746021504
  0.4891683012926436  0.3322573700261711  0.1706374608117364
  0.5787861628923012  0.8263805433923876  0.0836416201634827
  0.5815125508028809  0.4986808330455138  0.0813536869751004
  0.5051181344065762  0.8282645533220820  0.3313288638993362
  0.5848663196187573  0.4200004234855254  0.6613184516187155
  0.5089613974324845  0.0833116009873402  0.2628819880332384
  0.6661863872442624  0.2502617900311266  0.2601583517924264
  0.7511283025239965  0.1648134493907640  0.2535653108854711
  0.3366877256581733  0.7595295648234976  0.5951362368293905
  0.6674961507229968  0.4193172506340669  0.4169781872509277
  0.4138967507582419  0.6648678415969929  0.4155752355411732
  0.5807877970591261  0.1609869308145326  0.0826866851581124
  0.5800277242221107  0.3472498952157080  0.7383043650067512
  0.4973740547171123  0.3369910784409856  0.6647657253419103
  0.5014105779748125  0.9138875284971976  0.5785629305599427
  0.2493729434213816  0.8366094862135145  0.5846933109800863
  0.6681198517607171  0.3371236276816278  0.4960328892121107
  0.4998408542343853  0.6606692307331812  0.9975798165056275
  0.7515552339225159  0.4189879046248695  0.4974935143302735
  0.6562997155068172  0.3229408514171377  0.8285433376174630
  0.5893871053644280  0.8364800983734785  0.5805675320919838
  0.9165275222308193  0.0834271552689077  0.1675479984546894
  0.0804531212223017  0.4204132294717506  0.1695827800151599
  0.0760256171219854  0.0025023785608864  0.2537973070164311
  0.3315671500135796  0.8207939654891512  0.8251440959944535
  0.4332345286185660  0.9122095926745746  0.6597516932693727
  0.7503469545564899  0.1707955827038197  0.5794220909124835
  0.7492498630030132  0.5830197042390666  0.9993851704249581
  0.6586098467113684  0.5032652676466928  0.1664273131332171
  0.6664671586316600  0.5818232803461644  0.4172853995746452
  0.9131945587077535  0.5800626783331030  0.8329223727175438
  0.0818401477830075  0.9165589477656682  0.1673157713170738
  0.7612719331880752  0.3265399155615902  0.9248491721388227
  0.6694265240309989  0.3349757687274634  0.0005491000433149
  0.4209960379930910  0.6587700950648036  0.9069874445457867
  0.4230332647413939  0.7474991052996875  0.8327437559763907
  0.5753394390979353  0.9858791989306935  0.0849236612468381
  0.7490054272160969  0.2431894855724802  0.1834195824897341
  0.4218183869254524  0.8287250599446814  0.5760686665826968
  0.4173916784665798  0.9268712155622246  0.3202294064262277
  0.3382784765646099  0.9165966534316071  0.4105409735203230
  0.7530363058652294  0.1550700995909747  0.7225623132412635
  0.4163191257683650  0.9129702952296858  0.1782445761405063
  0.4167478820848587  0.8275523117758091  0.2530237059093682
  0.3326962433468137  0.9207902394381393  0.2501337200320683
  0.1647412964713937  0.4227695972065517  0.9168931138113000
  0.3509514928688430  0.9054934965661477  0.0858660673037411
  0.7531686087560441  0.0720719692453267  0.0032648583198717
  0.7445959970236229  0.2713635923079756  0.8304768054103139
  0.7494001091743746  0.4985161300705194  0.4165667828648443
  0.1676785768764786  0.3358976657681723  0.8344518204439446
  0.2468801668562381  0.9142434972052955  0.9926083678815550
  0.3193068903099595  0.9269599332094748  0.5869627547507607
  0.9289077559039739  0.1748243999787161  0.9219975978030505
  0.4161707433870896  0.5000441291126396  0.2517640597822841
  0.8329404025756969  0.6654414694866150  0.3335242840400074
  0.1599177147555049  0.2529407006583917  0.0828642137239880
  0.8334132082160318  0.7491884076180765  0.9161704776431212
  0.9100347124031272  0.6521902972066852  0.4218228723201367
  0.9164617814898636  0.6682336960143297  0.7467583924489487
  0.9144407562800426  0.6670904699884728  0.5821476363984278
  0.1656105513553223  0.5835446378038877  0.4184961512030477
  0.0817365553987495  0.7520327178326532  0.5008151846134635
  0.8308469221809529  0.6661420052739274  0.5033415369395923
  0.0802337145999783  0.6651432001520969  0.7476076914924847
  0.0814186386499699  0.6619689018420294  0.9159064446065359
  0.9991842708915293  0.8361380443975818  0.3317583114572745
  0.8336158219411089  0.7523433236707946  0.5818207121022518
  0.9170703400773094  0.7481329381511197  0.1677117490144569
  0.9963196607639349  0.6786209799593974  0.6592065151713007
  0.0018594863251938  0.8334365882690241  0.4972931346680076
  0.1519950916334212  0.0065886961330060  0.9958281456441531
  0.2441434526824837  0.9998912154113301  0.9250356581687698
  0.9075432497350914  0.5851241379718295  0.9999571782569990
  0.9205967631382765  0.5002964929206790  0.2542761828538079
  0.1595883815508179  0.0043228810301261  0.6629104451971590
  0.8318092113515011  0.5807505877236601  0.4174142285468869
  0.9176035685030399  0.4975158580669951  0.5820894265082037
  0.2481916078289506  0.0850418793519982  0.1602898470988601
  0.2420908792592132  0.0007692847553974  0.2451439521662556
  0.8316448978609819  0.6706291350508866  0.6621814194199547
  0.1583196701303095  0.0920708940862649  0.0849425035637891
  0.9110002122012381  0.5008728939383142  0.9175706288383851
  0.0825746340262789  0.9196288595263956  0.6657809983675997
  0.9149491149396493  0.6657811669192537  0.0836213531595423
  0.7490818797211493  0.5008191611571960  0.2575521405204194
  0.8326842266668415  0.6665705791018205  0.0011837713801899
  0.0812517319590700  0.8329634674971017  0.0841790123561317
  0.9982947818376469  0.6686801720575675  0.1670694410246296
  0.0814548912807649  0.7481376420800107  0.0040063491212945
  0.9264426082387863  0.9158364094075222  0.9956643120974201
  0.0762027077706254  0.1759819748351081  0.9171277227741030
  0.9915407567805891  0.2641507738290052  0.9140741854662917
  0.9978902235866574  0.1714257013046345  0.8310952029240325
  0.0806452155571376  0.1717881093920092  0.7522838897925631
  0.0776956274422736  0.2557432121912049  0.9974667541164638
  0.0794792756275158  0.1713821052261925  0.0855474027882821
  0.0019625235741093  0.2525979574998813  0.0864424225688715
  0.0760988641582868  0.0897041002862997  0.8302365047148437
  0.0784275800695009  0.9185944534179206  0.8276991294371904
  0.0804926375975792  0.0829810839624694  0.6626450329499680
  0.0817172592173604  0.0023627503663904  0.5781841715930195
  0.9974964569740511  0.0000433644557084  0.4971688286347540
  0.0846874299281908  0.4185589797691053  0.0036017542935916
  0.9986019072952481  0.4178071093027010  0.5807099963319654
  0.0006035166930010  0.7492881354223354  0.0838809076655027
  0.0849664280450266  0.5857455341278598  0.8303769435852286
  0.3311876413649432  0.4973511364645161  0.4988381527458646
  0.8323569421003407  0.8368234024119299  0.6668755124557255
  0.8343035998391538  0.9168548798905487  0.7552240338154219
  0.0792300820879564  0.0856025811209885  0.3319457608709936
  0.9982529853937906  0.0004532259662822  0.3318818432521874
  0.0839233518675537  0.5837139667176088  0.4999715867160888
  0.8322197754347436  0.9176226515290761  0.2492130659403854
  0.9177182151093206  0.8354972137041963  0.2500098590110059
  0.0871699623218852  0.5006565780237227  0.7491956502918828
  0.0010542771321742  0.4920284154911014  0.6634381855520523
  0.9171796342903547  0.8394287583643216  0.4133786215508871
  0.9994833978122496  0.7541803275443001  0.5793123696741473
  0.0011686098599382  0.4849922139655994  0.9889645726971535
  0.2472819929946311  0.0852125271067281  0.8381610303845528
  0.9134871518189455  0.9094936649105891  0.6636848073524343
  0.9987291316809471  0.3399410266888349  0.6644554038553898
  0.0872526456219241  0.4165329431233202  0.6653764712207803
  0.5831419961336893  0.7442258080409906  0.3328887511199513
  0.8338767800017028  0.3332448008220283  0.1676677290694723
  0.8872877295051772  0.3255246938636189  0.9390170872411319
  0.1633036556581717  0.2554204517114882  0.9162228727948282
  0.8324602013165575  0.4198722606098026  0.4159550380500566
  0.1622623407332059  0.2538665833434759  0.2505982994872062
  0.2495589255465986  0.2541008280323068  0.8336622925310440
  0.8334646495810086  0.4177120916955645  0.9151869082445820
  0.2453267686684304  0.3372409900481750  0.4148838038805871
  0.1624682883271998  0.1699088135024188  0.4940744064295081
  0.9196268807514028  0.4169150627559527  0.1714976275625728
  0.1599925514334247  0.1703159171303550  0.3315683452086778
  0.2479004969572736  0.4146400130647915  0.1698156492012611
  0.9182570715177970  0.2524169133340053  0.8268880792060480
  0.2442094875938404  0.3347688849218584  0.0826812836326207
  0.8198253426058275  0.3463834049483800  0.0261553180921513
  0.3329144438125435  0.5817081437303890  0.7442626990041113
  0.1622125806342789  0.1682052316799955  0.1680643273760593
  0.7312142212245100  0.0790156569909880  0.8399724721323120
  0.8431976629783283  0.4277190942354204  0.0966550877427162
  0.9161797018504957  0.3355443652249467  0.7467345968784727
  0.2436883926778800  0.2563301711543748  0.1660780728014178
  0.1674787049051196  0.5904271624652672  0.9162430622817270
  0.2433261602672737  0.3371075879234557  0.2511005178361732
  0.6659617303415658  0.6633318229617392  0.3333588858264511
  0.3310155119326041  0.3360944591387357  0.9995112247938019
  0.1647144538091310  0.4985806845711832  0.1692160271126375
  0.2485531806657383  0.4189334527058081  0.9995946703169668
  0.6604475334439506  0.0743446612969064  0.9344370859582288
  0.8321816443197196  0.8318912222725526  0.4948109630407288
  0.7434752559986528  0.9984732357129307  0.9195034769174117
  0.5830831531869388  0.6631835241073193  0.2499111411120012
  0.9145438433136542  0.9191251732767111  0.3322461153805524
  0.8316979938457295  0.9116055810482970  0.5752175043003143
  0.7507996818279338  0.0840082716034488  0.4995787641183403
  0.9190800925681845  0.8340581624265345  0.7485741866679244
  0.6463552768679439  0.0044752825371895  0.8461691940284384
  0.9161669777030182  0.9164891980148059  0.4961947064296211
  0.6666098334525417  0.9957578025711533  0.6670191082914204
  0.9196345897982542  0.2495316892248697  0.0099201834212524
  0.4954625463432202  0.6675655807271950  0.4966686521611960
  0.8354442736100193  0.3368565845198882  0.3362500345262672
  0.9152491083266228  0.1675801728553700  0.0872675773638228
  0.7463323075472881  0.9960861965443484  0.5749049728888557
  0.5926198699338510  0.6703201344077896  0.7536438812289373
  0.7506154490926564  0.2504131828472024  0.3357418806466496
  0.6796066949418028  0.1536854663902330  0.0148676407219819
  0.6631760563536252  0.8274543705613332  0.0037879870878403
  0.7692940389736231  0.1586567397771708  0.0931118461751272
  0.6762362204106244  0.2540876342661972  0.7334174415461433
  0.5011889628033191  0.6632149652080669  0.3334354977140521
  0.8301939241970308  0.2528969119323199  0.7450005069990302
  0.8361462175935955  0.1026962795156489  0.9030713310553320
  0.5873761143872128  0.7480022068492193  0.6669877282657577
  0.7503968365541012  0.2529552710675649  0.4968292106702176
  0.9100758837572641  0.4185390733258852  0.0059770560336656
  0.6656172424255072  0.2538964614655415  0.5796165999423634
  0.9181291241202271  0.3364763598442876  0.0875624430169306
  0.7482875159493323  0.9130287795511499  0.4953059507280307
  0.4923446835592103  0.9091313527608708  0.0860387844067457
  0.7711742653735921  0.0321157343511694  0.7462601223929448
  0.4968671616291109  0.8266469908073125  0.9999707654582167
  0.7515828820471320  0.1676095483028941  0.4171903985736899
  0.5846484551149363  0.8238969805913703  0.2498701581777719
  0.5847364349078470  0.6642960358386900  0.9181672523539393
  0.8350980292794836  0.8317432282944874  0.0010296163331500
  0.6690839724870590  0.7543576733001761  0.7517624686006701
  0.8303748459461152  0.0813654908831040  0.2503572431499465
  0.5029328433730607  0.8295387635093397  0.8376938180301918
  0.6663245256178295  0.8331131954292241  0.8379450505612011
  0.5050263853645801  0.8265864975341101  0.6658400869808587
  0.5836925608228090  0.9163863786242993  0.4938924168991887
  0.7469923509446547  0.8282865008108793  0.9284748407664434
  0.8346848611908326  0.2537672145273286  0.5770098038995635
  0.5151369938535761  0.6591259540826778  0.6739336360275782
  0.5078946328019653  0.9016892347103567  0.2499200351669771
  0.5855501734753399  0.8295771088936288  0.4134270597634870
  0.5091723312631601  0.8330661670146315  0.4934902839510250
  0.4891319856526639  0.9123831932915141  0.4177006645025340
  0.9161448678279250  0.2527659863677448  0.4967622184734570
  0.9164110361991701  0.1710416317397218  0.5772524409050831
  0.5798449998781633  0.9074395405873109  0.1666360063693776
  0.6651564929044248  0.9977839365295200  0.3356749639849326
  0.7290915814324784  0.0798039230388890  0.1706433432280897
  0.5804089225510333  0.9130787675291718  0.3382397158001706
  0.8343877089610421  0.4189290887567589  0.2507869086548708
  0.5826961390829453  0.6631762926442972  0.4165875355424032
  0.6730583912156015  0.2309538730169641  0.0963353725673948
  0.5006918360824023  0.7453307713606061  0.9175944753369669
  0.9166389751797404  0.2524269501441452  0.3353209503474557
  0.8427595791884349  0.8282837317096030  0.8303490133887517
  0.6665257805138788  0.9976203797959363  0.4966128224443658
  0.6694089539452251  0.0837313225093550  0.4188382731745356
  0.6609426577787207  0.1700402257315429  0.6570815123433748
  0.8363516624318622  0.0063876600203178  0.8416988606819918
  0.5030611266059906  0.7471248899324345  0.4116468517459776
  0.8330893615404681  0.8301254020422349  0.1693784891178525
  0.6675347201147888  0.1701072988677171  0.4978157252872930
  0.7490031390771574  0.0827472601822509  0.3344306957887000
  0.9302185844927167  0.9982512565052628  0.9122076246991603
  0.5855526200855622  0.7490783490033055  0.8367882128459994
  0.6675378431323166  0.2530026006944439  0.4161187048046363
  0.9170674551221780  0.3362916806175201  0.2522748793777216
  0.6539082784393716  0.0622539995313957  0.0833091572463907
  0.9211484709561588  0.0954906994401162  0.6619180703826278
  0.5026693731501491  0.7446326365810262  0.7504602589107291
  0.9195995669037365  0.2557123464030736  0.1694439681193560
  0.9142256116777475  0.1672591279110746  0.4142717905431583
  0.8334792297139407  0.2511333218564578  0.4164318590173003
  0.9180968673448325  0.8326493976932431  0.9161941376649898
  0.5054631538427735  0.6645372601591443  0.8345185183516797
  0.6581565824398012  0.0802669108511467  0.2590290272674056
  0.7914495663700433  0.1713923108972952  0.8201239124197637
  0.9189086417761981  0.9156369551769209  0.8337914898131588
  0.7457375887617678  0.9984134677591957  0.2516182957987108
  0.7441609170643986  0.1628566049696952  0.9236530674013046
  0.6565092814093394  0.9925188920401902  0.1738178545097877
  0.9170232720048491  0.1687793141442792  0.2545842615603321
  0.8359500967611943  0.2534665845482348  0.2566298961080992
  0.5812766011676204  0.9114213061862226  0.8392972730871532
  0.7403229667681465  0.9948979939019900  0.0936612283365804
  0.7504986653311946  0.6763027241777176  0.7478184000714542
  0.9166806804579839  0.9152610635088736  0.1674577091421412
  0.7497431642795592  0.5833555768479832  0.3340191574160756
  0.8322167563001738  0.8325406272060105  0.3319407219575652
  0.9140250108478105  0.0003174681594160  0.4154625131284771
  0.8354475478437607  0.1663385207614443  0.9989585474589296
  0.4978931711277491  0.9118670026959519  0.9185417201758231
  0.8311541449380240  0.9163267825317515  0.4134868395285821
  0.5810462684129537  0.9148009569696871  0.6646508443796637
  0.6568763440737819  0.1649208436500862  0.1874061711857638
  0.5060102934802573  0.9153079939038236  0.7531973037335922
  0.7431397454912967  0.2457887514333182  0.0097207356969535
  0.5856890781776679  0.6634794703262383  0.5805933774516930
  0.6673353984578045  0.1664960724456814  0.3361277355397789
  0.6629057228829218  0.9888867154960421  0.0036907347108739
  0.9290247715382596  0.0814412340797810  0.8389642892017958
  0.8314658058500474  0.5004360217045580  0.0006512162735292
  0.9149211488861410  0.0003819010039887  0.2490192285636753
  0.6654140883831613  0.7480168526972438  0.5815506906599687
  0.6682595567616011  0.4964506466162273  0.8327777423496979
  0.6674238757659258  0.5835100513313319  0.9186052677445431
  0.6645625854823161  0.7455185079168685  0.0844799983014916
  0.8278543370149842  0.5011879443343427  0.8304224799192589
  0.7479665910278025  0.5845468200415098  0.8372313822986739
  0.6668867476875515  0.7451006308751338  0.4131611184360792
  0.8315387474539413  0.0832745483386129  0.4155158538437554
  0.8341572954611138  0.3361509925218672  0.8298803360875984
  0.7498105172443198  0.6641315139021826  0.4162531804179617
  0.9143647997491070  0.4169775595046942  0.6649430044190831
  0.8310767464021399  0.5841072804014652  0.9150795494791757
  0.6651267989001374  0.6650289594587576  0.1669066509434601
  0.8310122692476459  0.0001872950037609  0.3324158603340716
  0.7508696929375317  0.6667578597268066  0.0845076959375095
  0.6652662715987459  0.7459695466181441  0.2494729657978346
  0.8344341070692116  0.7498647377227077  0.0844409500555755
  0.7499624886698317  0.7468030734699267  0.0031254559495868
  0.9163653079905106  0.7496056090996284  0.0004971795488882
  0.7491720633122917  0.5012348800661889  0.9139834734875317
  0.9174787441328645  0.9952819980053004  0.0817347035247339
  0.3283367075949096  0.8557016452675873  0.6787424248430827
  0.6676175847553522  0.6643834629156635  0.4984560886025197
  0.8419172963855791  0.0772860436863465  0.0723894502229518
  0.6697425326071027  0.6682851422559725  0.8352249141905365
  0.7480412540993165  0.7538805495062473  0.6649381008130677
  0.7510306577461012  0.6678836562602746  0.9171139379935369
  0.9149784309633365  0.5025217047882816  0.7440861548439892
  0.7402164274373482  0.9427499008158207  0.8243826607540432
  0.6660055375304649  0.9120450718084623  0.9199675555377123
  0.7442418378845914  0.9085779618247054  0.6510189097577257
  0.8311828713568130  0.5815751813928854  0.0860041779359348
  0.6637860503812991  0.8314997330235131  0.6653144184030346
  0.9206382237171512  0.5052128377804488  0.0825517698420346
  0.7473961296524215  0.8286698664870816  0.5763530225716174
  0.0828609704984776  0.6685418381165419  0.5816812217833262
  0.8324583717107871  0.5852929861444404  0.2520907424894827
  0.9117076712264345  0.5840438822398359  0.6631501744597872
  0.1486179085059466  0.0107082392003638  0.1685337751803107
  0.2456442262534633  0.8246953724572456  0.2534949183107367
  0.2535494696372731  0.6701884277914687  0.5838354317498616
  0.8331216650556169  0.5005471193144762  0.3334137724246999
  0.0824658524955364  0.8351950029143161  0.5815485529425137
  0.8324097203877467  0.7499876937683175  0.2491598845392682
  0.2506320773357865  0.5029069494519034  0.7497852286576522
  0.9160330589236060  0.7507268774160372  0.5012169031854040
  0.1668122240949129  0.5003829766384799  0.6648310815419939
  0.6654803501862061  0.8286388278748061  0.3330413137605551
  0.0816124893545320  0.3374427860609066  0.5800223210823109
  0.9151790857694794  0.5807408994898110  0.3325271140187888
  0.2495989493613125  0.3417353528016809  0.5810279261927167
  0.8336846693950798  0.5007035179648838  0.4997517145828938
  0.2474548491475599  0.4182023089692817  0.4973121746861359
  0.8320019172078194  0.5838750240353068  0.5824139937039335
  0.2435250680410794  0.0861597738052094  0.3270547008219669
  0.9171349731514827  0.5804280704837812  0.5038592561874360
  0.1601428396758271  0.0890956843499776  0.5784612626498646
  0.1607644548734208  0.0008898226357226  0.4915403188149308
  0.9138732304307834  0.7548773389208429  0.6650164548542298
  0.7450796219708474  0.4224373594059833  0.9889534498065585
  0.8328661478383886  0.6674900415498429  0.8314854860828075
  0.6592970049546709  0.4124664508917539  0.0878445346156472
  0.8366009937187485  0.5843308918992001  0.7467551901523164
  0.9141237734394879  0.0007437125867215  0.7549727427684136
  0.6664488856014598  0.3365665696801411  0.3348555114753877