 B Cr Ni 
 1.0000000000000000
    21.1200000000000010    0.0000000000000000    0.0000000000000000
     0.0000000000000000   21.1200000000000010    0.0000000000000000
     0.0000000000000000    0.0000000000000000   21.1200000000000010
 B   Cr  Ni 
  52 259 605
Direct
  0.7393909483532733  0.1519880913480454  0.0241007317384536
  0.0823880578601076  0.2442894579414061  0.8965538621833538
  0.6865204397577831  0.9891747483525611  0.7582019879164845
  0.0655864789572016  0.7334994897195071  0.9363376638535837
  0.2299017586929230  0.9763186458916264  0.8185342787017474
  0.4303130034427901  0.1019154127791006  0.6006528778306400
  0.2581723142371788  0.8438716284749950  0.3349028315452056
  0.3227461070412724  0.1041660696009719  0.5082906799567380
  0.0041050015704079  0.3255683628757005  0.7559348950910378
  0.3323553403212798  0.6466175487085579  0.8905195520378671
  0.0785757181779022  0.6584790840526128  0.3351032632187538
  0.4814071122850780  0.6622176115441811  0.5920268889348631
  0.7464353247835942  0.8347340671973895  0.8313444499533784
  0.5856434307510394  0.8441719257350776  0.6793765543468453
  0.4701141778793698  0.9972410565936647  0.7405160958996839
  0.7498822876974894  0.3340830261388829  0.6648646393214677
  0.4100361713892251  0.5124162053469907  0.6703912467567029
  0.3211841264302895  0.5885240334048354  0.8287149110122543
  0.3213662045828976  0.9370402664905989  0.6976309248690685
  0.0885482553719890  0.7606215083703664  0.7544181634341970
  0.6819200073841678  0.1803203828664327  0.0825710859172879
  0.8326928506038308  0.0885553568615231  0.7018894591183290
  0.5870140034628782  0.0009778784618240  0.1833957793879243
  0.8153002956050229  0.2476216395458531  0.9900516428131541
  0.0691099585339214  0.9261033188824884  0.7783372089511967
  0.1574408516747192  0.1008693075489488  0.8486201329758215
  0.3366486903025782  0.0575443187238290  0.8254049883806178
  0.4087642355237887  0.8215893755906473  0.6820735191531596
  0.4084883974620048  0.9058991826925371  0.4316779873117497
  0.9198070241232819  0.1518662658352174  0.8262954554791037
  0.2566548413192493  0.2529858130435251  0.7383596042014523
  0.7578007867312468  0.3499922580339768  0.8522621133670587
  0.9859797499768237  0.0126081828853420  0.7669057908040117
  0.6775399589857062  0.1594542578055064  0.9068002665230669
  0.5104127677662723  0.9850214401625502  0.5578526990545284
  0.1616021288671636  0.8274479558201359  0.8899235920051574
  0.3410683808979919  0.7630923196832807  0.9835230787665518
  0.3152890183025312  0.3179612207800164  0.7547307843462895
  0.2654782271742964  0.9230948543164177  0.7623792159920589
  0.6522191752717394  0.9990142270938314  0.2423466559269182
  0.3132390838610651  0.9960966023287142  0.4348954050371471
  0.5918827203807299  0.3274601153631669  0.1622360012233142
  0.2704101806247624  0.7329669645371260  0.7470720714411235
  0.9869078395583993  0.1701025726578929  0.7804751523845835
  0.4382970207974164  0.9314724283239141  0.7737474591814173
  0.8262055025778913  0.0963605532528339  0.1604112105465515
  0.3109809822911307  0.7706613604001802  0.8105426853371283
  0.7416308304838344  0.9380419495818491  0.7305173181839992
  0.4039990301111507  0.7433452228173690  0.9294556345069139
  0.3953039174881536  0.1544232504539574  0.6623210646605282
  0.7477361566645397  0.4991884887824267  0.0043308037999145
  0.3492287161144024  0.9368482615335607  0.4809863172941569
  0.9973650571472634  0.6666604003829931  0.4990343483486937
  0.8310612579408222  0.6653877320130244  0.4981187867270894
  0.1596553176432713  0.6563149730483525  0.8327856429555270
  0.0800899625918931  0.7534941161364608  0.3312613578195824
  0.8309455716380665  0.7479696704038573  0.5794806988554153
  0.0800655822326451  0.6612061429865587  0.7500314346161581
  0.9977487479265563  0.6657104524103856  0.6646283258544643
  0.2525512829403291  0.7497388140035333  0.4991095073273134
  0.1648951947631527  0.5838732675004970  0.4165092198616345
  0.8353446356179102  0.7470764985549705  0.9178563606573928
  0.9138914924581162  0.6669339750541563  0.7501099095473264
  0.9971415298008709  0.5852651931194575  0.5799161765175166
  0.9128570271386726  0.7468001136864035  0.1692448076391454
  0.0778123943165708  0.9156314925302631  0.4956031048874752
  0.9089470352567744  0.4235246780751515  0.8287822969102755
  0.2461381796617572  0.9851515409383923  0.9268835625427423
  0.9153458818484561  0.5829602581194245  0.0007557500599331
  0.9154639373865608  0.5011891281425012  0.2524715552247790
  0.1601000809692292  0.0060909015738477  0.6617248673845786
  0.9150642308432688  0.5024307677816897  0.4151985276517704
  0.9125296039156670  0.5021145561887869  0.5788385942439535
  0.2497436673240095  0.0898398205036683  0.1694413643218875
  0.2464427504082801  0.0109302200171236  0.2463375797738372
  0.8307813970676086  0.6670301513457551  0.6656701502612939
  0.1659789274033833  0.0863103780170152  0.0914973791256141
  0.0787163639589885  0.9225782890698004  0.6586529487364552
  0.9126336285013322  0.7457212427077574  0.0022579529817753
  0.8346627878332840  0.3369687762877089  0.1690205320416246
  0.1656208692210722  0.9966133931209727  0.0200261634514005
  0.8315412330961244  0.7466893415821244  0.2498754297002678
  0.6648938488297947  0.5827723458161188  0.4159234084545811
  0.9152081736582097  0.1624044243417140  0.9242291966780454
  0.3314378084734415  0.9188523315061102  0.9425389958236888
  0.4207150858323693  0.9228937406902975  0.6734080151983819
  0.7463296456585002  0.1702564221460718  0.5722668261150277
  0.7461551502187922  0.5044566140605458  0.9093335179435784
  0.6639992084193193  0.4990694859466857  0.1669218485451414
  0.7487222011469944  0.5015293054733942  0.2517215336234997
  0.9150751431594348  0.5813241316683708  0.8322980351666053
  0.0780712331188295  0.9164093281376035  0.1703200306276463
  0.7512928244349704  0.3134882723269230  0.9383941546843182
  0.6618583502074215  0.3322794942786975  0.0012998221538908
  0.5022626108544154  0.5761126858699094  0.9185056634587619
  0.4170408290534986  0.8357146913758431  0.9422965540653773
  0.5820999443854520  0.0012258871635935  0.0826289236382855
  0.9198192888721067  0.1711896971226065  0.2560467869601609
  0.4169349937228357  0.8324294893836728  0.5835538061420462
  0.3331591285433745  0.7422256092560904  0.0884089505083810
  0.3359837219826884  0.9175237082914312  0.5824981864209645
  0.4146622707616130  0.9152414941360125  0.3280760883103189
  0.3218581586561298  0.9067570652803937  0.3905750213381455
  0.7557209274197516  0.1571562630265537  0.7497790655946132
  0.4209778982630319  0.9184886575277067  0.1754496055283945
  0.4229657764193143  0.8286469907823961  0.2449158238274774
  0.3304980831642388  0.9150840969568680  0.2511150196607333
  0.2437802771387267  0.4919758713650821  0.9210255982617900
  0.3341667261031908  0.9189908299176786  0.1082366276920744
  0.8399656819938940  0.0831201443236254  0.9122665952151934
  0.7449377894943590  0.2517396843453817  0.8339118401342426
  0.5817238056408618  0.5807489721328977  0.4976246582330827
  0.1569086725857532  0.3314800647828656  0.8342276741318188
  0.4980115557580879  0.3365979290390243  0.3326869509246312
  0.8336964638231797  0.6654173059284342  0.0001603227082911
  0.8317193715591455  0.9161791572141605  0.2516474884460542
  0.9962784761365856  0.6621684360457422  0.1710138538516772
  0.8331523109207184  0.4222142511760161  0.5788154675642586
  0.0790463355971793  0.4191093766407929  0.4955233584138731
  0.1436662425612890  0.1923991445212818  0.8302679680477738
  0.8326122885177968  0.3385548254185284  0.3350582873315917
  0.1641250623084440  0.2528020222802578  0.2503946324595163
  0.3293870940578689  0.4161424558985064  0.7506994584279911
  0.9306941051266095  0.2507840810836512  0.8194040593435205
  0.2473952185730963  0.3327451776467962  0.0827952953817437
  0.1653677439893083  0.4159745934243970  0.2492012803084108
  0.8335112439032142  0.4215963512780690  0.7496590521207778
  0.2456729644467288  0.3378832049530638  0.4125567868941020
  0.1608887812070867  0.1722262577038336  0.4936142986316268
  0.9159823354796476  0.4180467996646314  0.1702088815885061
  0.1628740372588026  0.1716983112739668  0.3314134167066401
  0.2500610731080743  0.4148457212821505  0.1666909521002270
  0.2456279671321529  0.5794408812482333  0.6602749383433025
  0.6643570457828035  0.6648259171212828  0.3329610992681303
  0.8369888764775210  0.3410586421081998  0.0063078161126533
  0.2498872180294054  0.6588677808872743  0.0851646097253806
  0.1635304148737451  0.1718266290442050  0.1668562840065217
  0.1565438454119961  0.9172004605696964  0.2463207583107214
  0.8341182028377296  0.4184994453178802  0.0892528978557853
  0.9096897219313652  0.3365148320856378  0.7419342937381141
  0.2501519325014315  0.2530380066472107  0.1665015157216372
  0.1645127675370692  0.3327376160784430  0.1670651067785373
  0.9170143633086384  0.1651782365113386  0.0867787625457134
  0.3329520880059945  0.3329092252464133  0.9995143862182999
  0.7457115012170911  0.0945516939750198  0.8498046531978772
  0.2476952532479537  0.4163029062347406  0.0026082354426655
  0.9950099064566976  0.0017816306972561  0.6545260763550571
  0.9172315210712905  0.2486813260128427  0.0086814160661939
  0.2397721035737838  0.1611827271272209  0.9137106569416922
  0.9961363340282412  0.7485983868602384  0.5800112841291256
  0.0827553568357745  0.7478311590442389  0.0282851409693587
  0.9155953840438478  0.9126181654599922  0.0025204576689784
  0.1027610730994312  0.1514148689955797  0.9259065517634867
  0.9841511863732516  0.2631105301245889  0.9197226337592169
  0.0120746199748656  0.1730409427948774  0.8714859282660107
  0.0798138480510852  0.1703392215128302  0.7404030666742187
  0.0789475485488417  0.2489095274751043  0.9989561926544481
  0.9966934173095159  0.0842167078173580  0.0855925135540151
  0.9982412046700904  0.2508625071000142  0.0832727655599102
  0.0625749751343532  0.0900804137872216  0.8218309078797735
  0.2308133423382816  0.8867219955010207  0.8519910078069227
  0.1400491225869887  0.0014094619577153  0.8382599929324540
  0.0790856419029592  0.0019457225050263  0.5770144033367159
  0.9979239675756123  0.9992775653277849  0.4936830018909080
  0.0795490293582690  0.4181190360571921  0.0034952001317132
  0.9959321244439852  0.4208440147061944  0.5775252187773520
  0.9916960341141632  0.7441707189447913  0.0913404674255502
  0.0795959705693575  0.5797493374748022  0.8305978190067587
  0.3295912991193763  0.4994483937262726  0.4974184014471405
  0.8319353126942437  0.8288103233928852  0.6582889669079479
  0.8386899536143665  0.9166907650170723  0.7447302106998689
  0.0783030596327346  0.0887510925539762  0.3309079627766762
  0.9160080776106371  0.0014789936980586  0.4146015435567674
  0.0800853455870845  0.9167956120206313  0.3309096471480077
  0.9952829523050564  0.7461248136832593  0.2499225890461285
  0.0771858682975688  0.4995323753110385  0.7467670925320100
  0.9134735498256507  0.5017122057147038  0.7467453082154984
  0.0814032089606881  0.5836611609287541  0.4983180586270841
  0.9151025519576351  0.8313722011485069  0.4140762941184020
  0.9971535001955503  0.5018201502481904  0.0029106575957956
  0.5838077069214255  0.7458167336643678  0.3320296811066790
  0.5863323960643039  0.7439345519015832  0.1693660043230684
  0.5788500401933554  0.9207733741200084  0.4991117863944422
  0.1664683852904735  0.6589381012639588  0.6591104540444063
  0.2475460194805791  0.5828458112422622  0.4981125114458522
  0.7473105422979764  0.5846175829170847  0.8335023725926513
  0.4153620656430802  0.2520735225482241  0.1666074459150904
  0.3308792394120295  0.3331507706785796  0.1667822939630469
  0.5277333348712726  0.9130174803088679  0.7359517816681800
  0.2329590209944880  0.9215652813229934  0.6619401667336038
  0.6642745827407157  0.6619055326612528  0.4979228932067657
  0.1659529220643424  0.9280036464539775  0.7507370056400423
  0.2522804706866520  0.8280850009380119  0.9431565105294010
  0.2487473946335163  0.3375587487347620  0.9229611025162918
  0.3309652317950316  0.4146233926150162  0.5783638533518644
  0.2482391652858559  0.5756359508648822  0.0052718152294090
  0.9142016159600060  0.0847263541211462  0.4934079902839886
  0.2487694430330850  0.4970468083850341  0.0848652442881234
  0.4236420879684519  0.6614132251097633  0.7494713245892400
  0.9021265485474766  0.1694167639928550  0.7304556718213852
  0.9100371757957323  0.1698201987884763  0.5689130313800668
  0.2475429624942779  0.7414352622229415  0.0096922972360292
  0.1641488828313424  0.5833267257718562  0.5787357511876265
  0.2494744946525148  0.7436906161080848  0.3298074380718564
  0.1692804078466064  0.7406427003879252  0.0932770934295765
  0.3268636712779460  0.6658411414619729  0.4891994018234538
  0.1650650066742361  0.6596953794404485  0.1687426393671971
  0.1678816226036213  0.6683108825497429  0.4999292342816419
  0.8331549730203094  0.9128407355835546  0.9175513541399328
  0.9987643472707693  0.2543010636081841  0.2527126115115643
  0.8374611510893314  0.2550981503023583  0.0890752914690026
  0.2491648605143522  0.6616066336926111  0.2504106317212271
  0.7488563850184339  0.5859584839540565  0.6644292040573528
  0.6697826262222194  0.9121416757860134  0.0828772436916468
  0.7497877181949170  0.7476921032312298  0.6629330541054823
  0.1631336416693553  0.9150814271459875  0.0976548706942273
  0.4156305109232338  0.9980805295464004  0.9240563055911232
  0.6651175437076718  0.7445920950608004  0.5766332652880207
  0.6700360139718303  0.9159325272827247  0.5644899148735608
  0.4940966790695778  0.0978913450708069  0.4136590568488804
  0.4126483019870388  0.0891553091400632  0.3382143975228600
  0.7493694368403899  0.9140089787423750  0.0018344613447329
  0.6488565850242142  0.8999210169231834  0.7514894704350387
  0.7477413354401236  0.8284952011919449  0.4133297160151664
  0.3288662294144032  0.1041105397224803  0.7375323086370462
  0.8307478022256300  0.1707650553347686  0.4934375707581488
  0.6670357535386277  0.8300420597062433  0.3343466682235625
  0.7495282246405452  0.9138020481059146  0.1653819787656974
  0.7485628706396774  0.0867416267935908  0.3307929099229979
  0.5847837414129587  0.5804554607027020  0.6673393968652316
  0.6679718299612853  0.7457664990776146  0.2522675281630402
  0.7521634569646168  0.9948485854786028  0.2510771571851236
  0.7498391175299471  0.8297678736357365  0.0847928668989709
  0.5873333514687833  0.9161901196562708  0.0072780414240381
  0.3322348543733172  0.9987945557013858  0.0125897228877263
  0.4145020091709517  0.3347034296760919  0.5818074238170564
  0.3295162657347226  0.3389569823989380  0.4964663720936240
  0.4137480701189313  0.1712212206510570  0.2553494244084375
  0.6667877290572189  0.6647805794069013  0.0012796180001548
  0.4164396594607326  0.3309398542441169  0.9192892327583290
  0.8328423395849647  0.6639079674190922  0.1681417792394654
  0.4152203906223412  0.1614803008352210  0.9172352147647455
  0.7486113774870926  0.7459754533183812  0.3332572763207632
  0.3349189650866223  0.0064458280259100  0.1759907435017760
  0.6658858456156810  0.7424776832918484  0.9229751430259661
  0.3405143331420260  0.8392642286647392  0.4944363249394499
  0.9147498568091145  0.0868964272382731  0.3323451105212766
  0.8319233903452579  0.9952317412159702  0.1677800270138831
  0.5033923117712973  0.8313805097583469  0.0118181943982116
  0.4992863586878822  0.3379367633044891  0.4982779520055666
  0.4182984315477071  0.6606252829847928  0.2496571929963717
  0.5068442679348504  0.7539750454976158  0.5753995210684552
  0.5827671976883991  0.7464517762869809  0.4975565134905016
  0.5834099884847681  0.4133617319786755  0.8331781635916103
  0.4997673770780330  0.4998471111865890  0.4976009113821276
  0.5847472415603615  0.5780411975168396  0.1668460892008815
  0.4978573115963209  0.4997320062961603  0.3323180510126896
  0.4916762292954069  0.3320974620868434  0.1675757723767257
  0.5856401580440890  0.8298992878020952  0.0857317332713494
  0.4992851004740049  0.4990082747016020  0.9985951340755672
  0.5026054132157861  0.8286412752881717  0.3292020337450710
  0.5796714899294609  0.4168650573261999  0.6675030465318347
  0.6642599599577408  0.2545166679790895  0.2487644277907609
  0.7505153230894183  0.1707782056474501  0.2522803692528790
  0.3300089030548491  0.7577825909839833  0.5780750384210770
  0.6651457253542832  0.4197749553573069  0.4153687128708214
  0.4160956608668315  0.6640342406431866  0.4156120044899903
  0.5782028571062213  0.1668191132600004  0.0844939265442467
  0.5798451645359277  0.3322782286985548  0.7493144690624359
  0.4138392901897676  0.3352213969355766  0.7511679466106597
  0.5042992330792506  0.9030990829205658  0.6053902866258956
  0.6652802458592866  0.2570520090416233  0.4136618061578021
  0.5018028611017661  0.6581144517998032  0.0059232616206942
  0.6655243127812828  0.4195826719017949  0.5816663403543922
  0.4172990160388765  0.5823333859362955  0.8334895173644024
  0.1656193248126102  0.7498338052232005  0.5804103985214871
  0.6619686953867666  0.3327816521275013  0.8318045836742626
  0.5780456983191297  0.1704660856051128  0.2559854106503325
  0.5044278649795569  0.8307239969276247  0.1692693400958149
  0.4928115673209393  0.0907678727321195  0.2572311438730673
  0.6686224947976164  0.0870151141608154  0.4093093572526810
  0.8319810066067688  0.1719332175738135  0.3315103185910566
  0.1595062562078861  0.9172605037353974  0.4137003978999568
  0.2184492287553922  0.7539111786257926  0.8435913517191284
  0.3310102121641305  0.1589664300172148  0.8395757752634285
  0.5797411659560279  0.2490397215803841  0.6651659212209486
  0.4997348106452630  0.1625173341789678  0.6582863500911971
  0.5861732389357798  0.1709592961746432  0.5779971998404523
  0.8255461193337308  0.9956031791923464  0.6514982120989348
  0.4176735606777114  0.2647835637602372  0.4950064393504954
  0.8326822274475872  0.0004538281055543  0.4904018179664037
  0.1644948441509093  0.7389989422782692  0.9345417880832267
  0.2448408859678801  0.9185494260996806  0.1756381312319674
  0.6557284312767276  0.3351774089053629  0.6645933633218724
  0.3347104834538576  0.8274552000232642  0.1720380641481130
  0.4171112212720663  0.4979463188986801  0.0857847638348007
  0.6662523558477974  0.5788414848001145  0.0856924743392435
  0.9978910196499785  0.9170984349085551  0.2525310720553687
  0.5800063682746672  0.1704571824032884  0.7426837282141640
  0.1604085225178315  0.4194332741969580  0.5759994201205182
  0.5810757384375143  0.3370239881812349  0.5809960518134664
  0.1695394399767359  0.1651037820125982  0.0073747753945469
  0.6697938040312138  0.0905653378257100  0.5747275730925840
  0.5792727154460121  0.2536720679157449  0.8298059261198831
  0.4931359879204411  0.3326471237751317  0.9964703974756726
  0.0763953149291119  0.8318179147109845  0.0931630253106197
  0.6685802772732313  0.0876958233072005  0.7494458224578203
  0.0822977906841816  0.4169068977774983  0.1692752385642269
  0.5869591119925706  0.9994764192213914  0.7498098318274666
  0.9136559490621332  0.8306035004844774  0.0877684771398902
  0.5181276855703293  0.0029135953960607  0.6568011082731062
  0.9971813729570045  0.5001526099980922  0.1696663632101460
  0.9972816647906404  0.5813825138363317  0.2524578836201058
  0.0818766481112597  0.4970306560536483  0.2492548586228477
  0.0790612345426795  0.4995647098275416  0.9186655456729018
  0.0809875008895278  0.5790047710878302  0.1703656427764371
  0.9989724266963919  0.5844250924240805  0.4153687789401540
  0.0812989425486028  0.5004209937036652  0.4164624512365925
  0.0825542317103947  0.5724573046424470  0.3318848472611742
  0.9970443051708332  0.5026406377350070  0.4968797884071323
  0.9138799751891215  0.6665719105544800  0.5815896363554940
  0.0792358551655955  0.5018120436575035  0.5785291708933908
  0.9959078474588424  0.5830678701478623  0.7480446616220346
  0.0791295595946990  0.5826214393600152  0.6629269151190239
  0.9965790012288449  0.4991582469908917  0.8319614272341251
  0.9968782191832900  0.4996190663571128  0.3340858217911418
  0.0785583170898975  0.5778906427634561  0.0048793914230758
  0.1590050007427067  0.5750964515013510  0.7459754377214830
  0.4044044149143384  0.0001739768867060  0.4208888255804231
  0.9989629041888456  0.4193909487383234  0.0872653510716538
  0.2446297280017812  0.4141301133878796  0.8350527185264857
  0.9836666516162101  0.7509106761166172  0.9136711181338313
  0.0824541853140568  0.7441951361940564  0.8446090168631427
  0.9940183458246740  0.8274792040191160  0.0077411066986926
  0.1662857311851204  0.5795657776337322  0.2505355532377637
  0.0797068327432981  0.9114935678194507  0.0151571333230867
  0.2499934207220932  0.5791719635281791  0.1678591093071914
  0.0794892352045135  0.8306081674590139  0.2500409456570146
  0.0821792842327400  0.6694247470357210  0.4225237523970907
  0.0806293024810539  0.7488447693424963  0.6625033030320989
  0.4379976201890120  0.9247230385951609  0.5159200689840876
  0.9990144680185350  0.6676162007060680  0.9989779318049724
  0.5829794560714930  0.1754802102926968  0.4149853097252760
  0.9989048938186285  0.4235650083425023  0.9213237415260618
  0.5718945489752157  0.2416898061312228  0.1717711338361398
  0.5859380590509942  0.9993954331589175  0.4087831882478495
  0.2350984258687439  0.9295870189303048  0.3219891600857213
  0.5674177414755710  0.0059958008711327  0.2712792190813419
  0.1619644618679799  0.8334968888477229  0.4976776307047020
  0.3338143136808732  0.8420021922302714  0.0260109729097714
  0.4191279984888981  0.9191498086792812  0.0172507179756611
  0.3436469439972480  0.8195478885327113  0.3223673897195850
  0.9972593776918374  0.6642191624002403  0.8328699247347673
  0.2436353690872132  0.8313085833538985  0.4228350464383234
  0.9948682318805783  0.9130232169703861  0.0894735583078967
  0.9955531849932643  0.8307480642178394  0.1720299458374897
  0.9985849245347084  0.9151938147758103  0.4124786980275686
  0.0770761104418976  0.0030129409555783  0.2481032034013115
  0.2488462593609952  0.5814523473815212  0.3324269874957227
  0.9948163194042652  0.5791229735973695  0.9165274020699068
  0.2453504683247985  0.4979565737177763  0.5780533036509719
  0.0767264165934900  0.3361825509689386  0.9180487414688731
  0.1640414685119564  0.8328663568018434  0.3312607342018146
  0.0802738570360466  0.4984392695718456  0.0869121349251992
  0.9965561551838718  0.5821097447296143  0.0856884474895079
  0.4989712659949656  0.1647457375807762  0.0002269918976494
  0.4937813704207658  0.1663201894124261  0.1697369694873733
  0.4952044305644613  0.2530633222926083  0.2525370470390254
  0.5812908510577474  0.0910590102169938  0.1696704726854760
  0.4969481515986761  0.1757668160184916  0.3356426696123569
  0.4895297810848163  0.0046109267510940  0.3460139068024371
  0.4972106511369859  0.0056163963535196  0.1734393701389301
  0.5786252344025185  0.0808235344241851  0.0044114305998467
  0.4974421740727967  0.0854470198340164  0.0867467423308718
  0.3390061500098736  0.5766677980550244  0.7387316626542592
  0.3602554576450485  0.7631132948712516  0.7345703066546564
  0.3255767670230461  0.6701484000350080  0.6713042633589400
  0.4249648872868262  0.7309376922956455  0.6516214790220012
  0.3311268747153889  0.6775565127116671  0.8036069352659734
  0.3151922019024042  0.7354969951981487  0.9007844520134443
  0.4221044012853995  0.8318649164099542  0.0945265930494688
  0.5821208939524489  0.2559592084242409  0.3328693213075514
  0.2521545900882108  0.9254239098709309  0.4923622447076585
  0.9965041595272891  0.7491960660716335  0.7492169542704924
  0.5785930500251589  0.0919763106514748  0.3399548607463088
  0.3229877743236922  0.8424428076280593  0.6597829731338765
  0.0813560752702468  0.3350705266378853  0.2510173330256588
  0.9983957603717900  0.3368411427703349  0.3331666674503325
  0.9968254789143653  0.4196740005121798  0.4147138991556882
  0.0802926588887596  0.3366816883768481  0.4135917011678373
  0.0816722695996737  0.4186224854734714  0.3323939534609204
  0.9959062840784504  0.2547529729858947  0.5754854503612581
  0.9959454794273375  0.1701882404405092  0.4953697109640284
  0.0782378014984949  0.2546151058242251  0.4938594102438738
  0.9966685129476406  0.3382564185388862  0.4951510130682888
  0.9917960930604036  0.2432923620945283  0.7227334446861802
  0.0800171361179984  0.1709948258116551  0.5742545353997395
  0.0574958913900457  0.2639863511481637  0.8105259513083869
  0.9926718075880002  0.1679376365697826  0.6466244822513620
  0.0804695722357043  0.3342881540404955  0.0841422302904547
  0.0809838931575596  0.2539700842861470  0.6563232075290902
  0.9981570907157176  0.4186702457138604  0.2516016352543793
  0.0007149462436898  0.3369059319688947  0.1687277366373771
  0.9975416201184564  0.3378053940172103  0.0040851845850859
  0.0796473283877982  0.6585504500905853  0.0894840867791359
  0.5994424180392736  0.0066155829335950  0.5755116941286543
  0.1626820767183922  0.5741555319227775  0.9222542214868927
  0.5911777823242703  0.0859138972840843  0.6621640053956974
  0.2486560428675376  0.4977443004259477  0.2497075530575170
  0.4981872693905324  0.9912288774591226  0.8324745773530938
  0.1665260111226464  0.4981969039442860  0.3325450689908833
  0.4992815232507038  0.0799430942304860  0.9182140053139632
  0.2473442215651777  0.5003597929702728  0.4147997916654084
  0.5786383206004874  0.9958408897599297  0.9222094988319304
  0.1635770593799164  0.5016320424990272  0.4964873682611993
  0.5840575711690195  0.0821122141324941  0.8346404050083264
  0.1636570892356278  0.4164278430918100  0.0856566326905822
  0.5004566112216788  0.0109533059144484  0.4741754638265979
  0.0811052171135383  0.8311075959064681  0.4141161521607560
  0.5100901605472002  0.0832817123588317  0.7520779917304649
  0.9952381053968343  0.9160578661728197  0.5765486164823087
  0.0813624644216570  0.6677295848638031  0.5818436555987497
  0.0776038973000084  0.3380561726144892  0.5758944068539810
  0.0792531278430618  0.0017766846418827  0.4130730735272657
  0.9911365102233342  0.6665477133474365  0.3334718590814951
  0.9971131327184742  0.7494048648793430  0.4148420342308868
  0.9968599069695739  0.8318540777774288  0.3316589241610148
  0.9139775288730047  0.6663301631220374  0.4166294528689052
  0.9127880527070862  0.8313986780633799  0.5758538901539141
  0.9978769081843892  0.1692132042264354  0.1684305476963354
  0.0021538664159504  0.1646112477379097  0.9984505196031589
  0.0794085583010580  0.1709872486056446  0.2497207442291869
  0.0809140208224557  0.2531104678232775  0.3323965270816941
  0.9100842352752764  0.9178590966421762  0.6558722410693769
  0.8446561796537894  0.1810734790511966  0.1810194458495648
  0.0896562820317315  0.3435167210999493  0.7392508627617349
  0.0805209745750153  0.2519600651834859  0.1673198649229754
  0.9137584596043695  0.8311963280022784  0.2514363926635820
  0.0786642534875903  0.4164474961441795  0.8322109764885158
  0.0790491719132251  0.7454658734949627  0.1685727480375515
  0.0813960228899031  0.6631256871010606  0.2463776416672294
  0.9888032265061588  0.3489603120710667  0.8408665673036679
  0.0786004056740360  0.0871192214561933  0.1677660253043073
  0.9171449325980312  0.0844597913940579  0.1698498256082925
  0.9956301833640430  0.4198218632324554  0.7466600656943827
  0.0844569133614093  0.0799196614293941  0.0110605375964048
  0.9914259989820684  0.0927600540552561  0.7277505830254450
  0.9968258943973078  0.0857626989672847  0.2516163511155494
  0.0867933183167644  0.9918759048486253  0.9347949207894740
  0.9977169503768539  0.0867481897352510  0.4136990519165366
  0.0092830382372835  0.0735139835129683  0.9266507425841062
  0.9967216309147973  0.0837274876211304  0.5732031847677305
  0.0795013321335834  0.1712652268206237  0.4137578502562828
  0.0792290863864851  0.0861694517713197  0.4946686018427252
  0.9985294485723107  0.1702994373402449  0.3339154720705804
  0.7489451678114026  0.5815851109543346  0.1685979149005353
  0.0785529802318133  0.9994116054841687  0.0916011854838759
  0.9965617286355412  0.2537873465576519  0.4142057127153371
  0.9946895178311381  0.9999913800213135  0.1693156961491283
  0.8366971835862442  0.0725069762822332  0.0760549274126180
  0.5786706060658326  0.2513068824478468  0.0018674886985891
  0.5722611471249271  0.3386192926579045  0.0760784596086702
  0.3334909362045422  0.2498742543535748  0.0822701756858040
  0.4135718243879357  0.4991313567187337  0.5794068403504394
  0.4142096125827533  0.1674134957320562  0.0844395512689011
  0.3235021030138904  0.4933698617159085  0.6623240699544566
  0.4143888519338029  0.2465143341306008  0.9987427688955807
  0.3365596807043913  0.1063981704026515  0.5978009296815683
  0.3329452780349600  0.1705475373109004  0.1693605809403083
  0.4161579516965397  0.0939695014662365  0.5023280311534838
  0.3295363263965362  0.1718811469457857  0.3352729682140677
  0.3743255491592334  0.9993592464753734  0.7558807216410961
  0.3293565289661029  0.2595877961643303  0.4115377195364269
  0.5030477742231977  0.7438540927570848  0.2484894606999415
  0.4234801032667652  0.0796673921085540  0.8329294819563747
  0.3335027580277389  0.4144058167263508  0.0843211953086725
  0.3262334466351974  0.2600454313664160  0.5790423303250106
  0.4156869906003623  0.5810989652396762  0.3328956601720321
  0.3445805690410723  0.2342329312242720  0.7598968684781827
  0.4987049586385727  0.2572432536237872  0.4153942253437810
  0.1667113528776952  0.9101151101656689  0.9445482771216791
  0.3333445520232858  0.0864237380505407  0.0886434453814727
  0.4142723377153182  0.0828127030014649  0.0022739683960143
  0.3199487432977449  0.9670884414788459  0.8438373509751019
  0.3323619966202047  0.0905220718286223  0.2546340709935548
  0.4146465902374247  0.0875948584474074  0.1724014037563282
  0.3262441194669869  0.0893247620990890  0.4172384478181246