Cr  N Ni 
 1.0000000000000000
    21.1223178012212571    0.0000000000000000    0.0000000000000000
     0.0000000000000000   21.1223178012212571    0.0000000000000000
     0.0000000000000000    0.0000000000000000   21.1223178012212571
 Cr  N   Ni 
 259  35 605
Direct
  0.0027191589909755  0.0057903824747252  0.0011839195499026
  0.5830902406095322  0.7485322658380985  0.1720394076625335
  0.2496901751738392  0.3330970879465439  0.0890950924294456
  0.4985657003953942  0.7487188034759809  0.4173430335001436
  0.5822522953556669  0.7494950688016792  0.9940440900097810
  0.1582293890638391  0.3338603116588185  0.0013453890263187
  0.4988381251804769  0.7490511184434723  0.7401611513412052
  0.2465913320752202  0.3334878125166807  0.9105699459727011
  0.1652777671739181  0.1656811178903810  0.8306499012407471
  0.5827766204839921  0.7486622443379571  0.6637470262169604
  0.4976146531153412  0.6598445701098530  0.8318224054571829
  0.4970401107558443  0.8299522040306645  0.9966431398181714
  0.5843443664770547  0.6609188909393725  0.0846447761143651
  0.5053935064468592  0.7490380637761302  0.2512479185912849
  0.5825178969821092  0.6639853913925883  0.2491170287032930
  0.5803681465069411  0.6653926074142691  0.4171617337442072
  0.1649621307146351  0.3298487523945559  0.3395340360054723
  0.2503007708898146  0.3254262590558334  0.4169349122504287
  0.5814898285825307  0.2477549832301582  0.5020034373068020
  0.4926075899544274  0.2508430264684977  0.7493156834973503
  0.3355043858177979  0.3332793489182044  0.9992655036629493
  0.5801081893674416  0.2507954457382031  0.6574524800326556
  0.4981218827012387  0.3321622774010777  0.9976021502634953
  0.4971061272622623  0.3328443614895095  0.5017650649053278
  0.4115377704565306  0.5041997891026717  0.9094861962023025
  0.5811250116328728  0.3351031303034213  0.5824599731113129
  0.4953373222891004  0.3361277835274874  0.6646425516668371
  0.5780773560727868  0.4178772158930499  0.6645984068785880
  0.7531487546607640  0.9207119120186664  0.0021627340878420
  0.1657076987463930  0.1662819960282427  0.6676381607155643
  0.1648857650209428  0.7512795488899464  0.5820723398382024
  0.5802252634065177  0.3401734472374244  0.7494050547193373
  0.4986439761645680  0.5011000145151537  0.1680569551559519
  0.4997935811630153  0.9155712809086644  0.0876865530671673
  0.2473600862850579  0.1647091515749315  0.5833945163379722
  0.5834543855282357  0.8373639545342272  0.0839802110359347
  0.1648346106142671  0.0844095798920215  0.7501984353506346
  0.1631547719786820  0.0030831699465102  0.6656611464256786
  0.1649854320263140  0.0836152921528738  0.4174520236079740
  0.3299940645681200  0.9978910779575415  0.6665648823764464
  0.6679964155676386  0.0849394103600973  0.0919039658818902
  0.1652116611763522  0.9999394740495782  0.4968401313552752
  0.7518571866468816  0.0848120219648008  0.8313682934076276
  0.7518331877791085  0.2511195660888560  0.0066407396495268
  0.7514606776840675  0.2508794770788264  0.1661146909998155
  0.5810712949999354  0.5812364522676485  0.6665606738312824
  0.6681880701422352  0.1643083732908800  0.4962827734945424
  0.7515287816717228  0.1627137121291489  0.5824634052409389
  0.7542733529165151  0.2510088106777786  0.6710961768907674
  0.1634463959547096  0.9986351562823608  0.1694190808489729
  0.7505093123042548  0.1694746708877805  0.2483183791524218
  0.6651605863031028  0.9931610216872612  0.8311535132744788
  0.6661174137577396  0.9978612706776167  0.6666708285286014
  0.7504079472344577  0.0856475630792530  0.4991909671578353
  0.5008225085328373  0.9177766752987384  0.2492382076696056
  0.3263749840756452  0.1640664519026231  0.3353796008388265
  0.4965002493030443  0.8317652603740426  0.5010387064358279
  0.5837834390681702  0.8352576338957336  0.9166437409377897
  0.2491383827426258  0.2483815546094784  0.1662961835976532
  0.5803128536851968  0.9189553995525953  0.8315935682903579
  0.2474684378283026  0.0808066535955852  0.1696238597604420
  0.5824653918712416  0.5859209001571765  0.3330763501448718
  0.2502945075955135  0.1645737256994494  0.2502480219381049
  0.5805425812079704  0.4136184306804190  0.4999782765876096
  0.5785165521761740  0.9179767940061851  0.3331045973977937
  0.3351759507912743  0.4153127491018348  0.2492553638444971
  0.2467814301903973  0.0831301245588512  0.9937092386932327
  0.1660385519550387  0.8322876443643185  0.8330536832323218
  0.3307078758958256  0.9987400406801979  0.8337324871663906
  0.4114138168113278  0.4128394722125689  0.0002142478372379
  0.4147398347710295  0.4174957357453584  0.1672396142722375
  0.5832254339040130  0.1646763080271078  0.5825847667989346
  0.4117493826568949  0.4186637164546406  0.6680435853821890
  0.3248631759233570  0.5034010743673067  0.9995667883873443
  0.3281991942584079  0.5865438061053808  0.0827042202861056
  0.6673468059997593  0.0861932463494261  0.4116069887197875
  0.7501127146076164  0.0034418204425975  0.4142725094426528
  0.6709392369962516  0.0027627664228524  0.4989302099103438
  0.2467833381436486  0.9984249220605966  0.9155319755604771
  0.1677772613666155  0.5831263542151067  0.0822758412740443
  0.4129148994805589  0.2512154367487190  0.6663602789117311
  0.3327437659859804  0.4162648792684284  0.5862083553937765
  0.4150482211252943  0.0796180288034206  0.1676022516842555
  0.0829852969105178  0.9176252758239491  0.4988785887093237
  0.2482985525038776  0.8337413448237023  0.4179004419280050
  0.4119496674506367  0.5008891534838541  0.7485383074086538
  0.1641378121774054  0.9177894929257782  0.0853489031309494
  0.3367823161745652  0.0816972098292323  0.0846476488840660
  0.3315966768894990  0.5854232345137608  0.5832244559954893
  0.1661263301334617  0.7510820042132683  0.9148522839651004
  0.3357445355118067  0.5867223871341247  0.4182280671434279
  0.1635114502074420  0.4111450693692096  0.4176021367500070
  0.3367703008385785  0.5838998474596202  0.2498723343043774
  0.2465573599696534  0.8329740216385952  0.7482143753409647
  0.3397983737943426  0.4160443351298839  0.4165212398093348
  0.4943491213614091  0.2471395095980824  0.5837172961867053
  0.4164926936896716  0.2528964229132925  0.3345932158171681
  0.5023019309366730  0.5048740193408072  0.0018700184755111
  0.4159872715723896  0.2489192009380787  0.1675636183769321
  0.3310358125846798  0.2490235020244954  0.5837132907260066
  0.4959609414740745  0.0823133997317495  0.5829966642373389
  0.4159426104595346  0.2489719268218926  0.5010848716863453
  0.7512175314393970  0.0006761882573873  0.2487782759067939
  0.1676256914523978  0.7503523170525856  0.7491425484623313
  0.3298615583751485  0.4176768146304323  0.7487551608927315
  0.3287972897592766  0.5847293390149717  0.9147777694673945
  0.4171578540156186  0.1643155840931086  0.2440165444565068
  0.5809226287778005  0.0836817777622886  0.1668042494479217
  0.3295414033833471  0.9152785295794021  0.7478748588618839
  0.3298043779817641  0.9170491442664520  0.9131263255366306
  0.4081261151034583  0.1639259175226158  0.7510436310448112
  0.4115256823236084  0.2502849082576096  0.8331614630826417
  0.5000009327938743  0.9979783279374724  0.3327430619832601
  0.4141358848110145  0.7497459207153111  0.6658530669874664
  0.1651834674559980  0.5009098696525975  0.6638783929175833
  0.2517199063466144  0.5856643233235923  0.5019459927589387
  0.6676003051130205  0.0019658880270783  0.3307762314601125
  0.4966154683954490  0.1585105455667091  0.9991851222254571
  0.4950997541533546  0.0003595552965332  0.4992072782184411
  0.5808151646832316  0.9175441177217808  0.6664126502565167
  0.1681992777222487  0.5871376088360463  0.4184496484128652
  0.6641970603917123  0.0841504464895608  0.9178783450393516
  0.4989367085708242  0.2520564651470416  0.0908321588993695
  0.3303623087959667  0.8353075444298264  0.6670509244479025
  0.4998264836902269  0.1663851821354111  0.1662832052968060
  0.2465136437986132  0.5833515450337884  0.8312455092560080
  0.1654570419047161  0.5013369642017682  0.5086927549919021
  0.6671072158476212  0.0007058286357729  0.1666555725813091
  0.1678465840105076  0.5866482458844684  0.5812164014684067
  0.5811542263047961  0.1667184112213254  0.2485737779059154
  0.4129175603952832  0.7508586943151639  0.1618217075104153
  0.2519501943623411  0.5864049676561532  0.3404977971997230
  0.4165940845532287  0.6673207432543276  0.4193797047393460
  0.4121902429509320  0.6663985684394861  0.9151015546380115
  0.4076020253533397  0.7496095098750797  0.8323953512655827
  0.3297468985381701  0.9157633890825475  0.0826584282290186
  0.3300496634076298  0.8349678437447945  0.1654816042003361
  0.1609158382563610  0.5849556329415159  0.2501034074128315
  0.4138824670637917  0.8397471039713366  0.2506946602310490
  0.2482286581769507  0.6672786742471580  0.0831222040474178
  0.3313151154291836  0.9169801371213011  0.4178088704256594
  0.3306954435184491  0.9171883026408634  0.5836786476662993
  0.2465103697136358  0.5842739063063749  0.9984969481806867
  0.4123366873129755  0.1641644653528415  0.9153783168893247
  0.9995839790814944  0.5814711470702482  0.2520644701132332
  0.7542741133907506  0.2494707945507235  0.8292962580852202
  0.9178219669260581  0.6656747184218366  0.5824896374316648
  0.8328451879986831  0.6660829970443842  0.4985576905134674
  0.9156269936192207  0.7466681924113353  0.1710957698562883
  0.8334424717373788  0.7498158235579835  0.2496339483114141
  0.8320216326749814  0.6660212747287632  0.0020915101881267
  0.9178432326584454  0.4992331313281845  0.9178865445155074
  0.8373927201895931  0.4962809250782891  0.6671587369460026
  0.9175682866379392  0.4981049297374805  0.5821288327156439
  0.7500386129351209  0.5831812080465630  0.3339392227239154
  0.9996874336100098  0.5818871417849368  0.0830405666916410
  0.9188216347760418  0.7486864375464507  0.5035294335780668
  0.9161219749301371  0.5012748620204799  0.2512267707233098
  0.9186049262329581  0.4182347178009767  0.6662828985802846
  0.5820750168224192  0.4113890821210894  0.3340898111385087
  0.8364959671348370  0.4185826584127317  0.7503389126104574
  0.9177124097656089  0.4160118646145956  0.4991102514379784
  0.0012499231593555  0.9999615021289857  0.6647190067282305
  0.7523286205921665  0.3413451297343594  0.9186936800886957
  0.8347954538959449  0.3349368546608895  0.1685313304831030
  0.9196109501156574  0.2519478708894330  0.6656648645856605
  0.8367491309630483  0.2516527421287724  0.7493706905561023
  0.0824127515839107  0.4984105017708281  0.5826334272961193
  0.8348218752982528  0.4998326736250477  0.1679869257178234
  0.8335217150052187  0.7477857585713131  0.5807734573302312
  0.7506589023274056  0.7441678541044467  0.9978908404408656
  0.9970374524578269  0.8298106536390270  0.9976353311721724
  0.0014136418465778  0.1674565908437952  0.0018001239413446
  0.0840584751378607  0.0001917562566082  0.0860707982981356
  0.0817327129742211  0.1665663900229759  0.2513833568630277
  0.9989377676281950  0.5016993220813362  0.3324146122110330
  0.9988727681075752  0.5838173339578049  0.4173800464497900
  0.9199742620292976  0.2493381454832851  0.4995561958947469
  0.0835503213172676  0.0019392238635023  0.4186342932394598
  0.0020238021498659  0.0824267365255466  0.7472887150352063
  0.0822109035695277  0.0836983130351664  0.6655559667114472
  0.0802362794959026  0.0835210578466037  0.8312541126605458
  0.0006145486215618  0.2523581592239128  0.0853060840846419
  0.0798655861884020  0.1666851081709491  0.0829097837755362
  0.0816496180520657  0.2513950074266247  0.9980598301557952
  0.9999050260494430  0.2489726548308491  0.2495935333797541
  0.9988249857927430  0.1683337111706577  0.4996144962645208
  0.0001887011906416  0.3343525113040824  0.6662986536729618
  0.0000086122705727  0.1680605874669338  0.6634716903532124
  0.9998324709384148  0.1679492554244673  0.8324800646485608
  0.0019264197785536  0.3340490266075773  0.0006284527466493
  0.9135788043645666  0.8313633707255753  0.9160301901003698
  0.8406233193148498  0.8314181712855792  0.6632645481008236
  0.2499267487595346  0.7528169498259005  0.3351627773945162
  0.7516519226481031  0.3341841003779162  0.0861824132066207
  0.0805268584559913  0.4203434436117434  0.1660702357184217
  0.9181525467927281  0.8395933476385544  0.4146158214063238
  0.9990269928473302  0.4155847912459381  0.4181004400817281
  0.9094430330393755  0.9184372047179744  0.9991213664308956
  0.0822943764081355  0.5876555437693810  0.5008061787443229
  0.9188715220581327  0.1665360726765387  0.5825013906335558
  0.9158211062582586  0.8347485867927283  0.5816038296680185
  0.0019938547875584  0.9201882592229994  0.0890372989064153
  0.9976333789767282  0.7440146859505071  0.0876656173318294
  0.7510299771388875  0.7418998355619499  0.6667130623158157
  0.8435772546444112  0.8322760938247472  0.0018604453099148
  0.6645960265533278  0.8322969878850278  0.3273976408709448
  0.9991433553118801  0.7532836488361653  0.9160101220385936
  0.7498468253292732  0.3333652335093506  0.2436829535123496
  0.8317192470250432  0.5823203006207802  0.4180802694628936
  0.0001678913770640  0.3356563500832602  0.8325010001253541
  0.7502547018296979  0.8341595970167855  0.9115218272067653
  0.8391491948927933  0.3323065274278392  0.3345489376291984
  0.7535162150454822  0.6645478043590015  0.0842759901281158
  0.9179081469922289  0.2486070282106796  0.3337534999567551
  0.6677989588914490  0.5797571346287962  0.9179777930129850
  0.7502442542303405  0.5839790245408801  0.4941119330855794
  0.0831410614857252  0.9171023343084099  0.3327609902596112
  0.7505095377716998  0.4944497677477954  0.5820763995742188
  0.6648672153942651  0.5835237749207827  0.4169061851439533
  0.6676554955273312  0.5832432923806486  0.2495864726352884
  0.9997158184872490  0.7453743164186941  0.7488523717772372
  0.6679673579450003  0.5011219731988004  0.0003458672908475
  0.7556003059616248  0.3341270551189740  0.7511645730824431
  0.9992455535140495  0.9210915846862987  0.7485972507126418
  0.0768394340454133  0.3346112683992810  0.2507156267075965
  0.6665638222397935  0.4194832706584020  0.9177741455220026
  0.6642141812837637  0.7484938542177207  0.5837982084494682
  0.7491163066172819  0.6697652888534352  0.5836460435431396
  0.9177625378195108  0.0017826205259784  0.4145748845547523
  0.9264839454119177  0.0839986443803917  0.8324023089094406
  0.0840554814167165  0.4999750236360012  0.9163365923869324
  0.0010804992057377  0.6641062272241334  0.0064850264038366
  0.6650856464219638  0.8359291394392085  0.8301173146601848
  0.6662074874696021  0.9182852675187526  0.7473492725322539
  0.9173937389493415  0.6636755065482204  0.7497483154039882
  0.8317639124907656  0.0014545305579712  0.4967037663569159
  0.6680689004453968  0.9178060573130331  0.9157833701553176
  0.0005164246438579  0.7486724497576475  0.2507870946868434
  0.8343854457385390  0.6619529493955821  0.8321509465656746
  0.7504003755170572  0.4987762286487122  0.9176412146290917
  0.7501671883962785  0.8308895771481319  0.5789703391736323
  0.9174487128426756  0.0828534147797995  0.3334875133261913
  0.9174875998759282  0.2500540473008558  0.1676912931787104
  0.7510673968091086  0.8357096390504667  0.7552536482923827
  0.8340663707998526  0.0016225679898772  0.1701038523262625
  0.8354810725425911  0.0846913810607661  0.0859631399419942
  0.0845521221580498  0.6676745509945032  0.7490246274867614
  0.7534990479273067  0.8341421848698843  0.4159616145895892
  0.7555450457123115  0.7483241992552260  0.8309521858158827
  0.6668108496412758  0.7464548939102592  0.9203407720437611
  0.7505275775379089  0.9201065902386997  0.1693729442009839
  0.0837665537327222  0.6667580565086293  0.5831339608645023
  0.0010180487570572  0.6648434163781760  0.5000179992056929
  0.7500923618844790  0.8348349230014332  0.2509833515183326
  0.3314188050363576  0.9968723733812225  0.1665451173441121
  0.0839949148189284  0.6671715699062445  0.2514390289911868
  0.6623035713406340  0.8353483031373288  0.6676335070063800
  0.0821764203516602  0.7501916471574452  0.5015588148170183
  0.1646738140711814  0.5004293701085865  0.4191689897109271
  0.9998929133041450  0.8334424803601047  0.7476343479480990
  0.0005290176988225  0.6661173702025878  0.9188925189008681
  0.7549692169765021  0.8327741995908031  0.0017034003383101
  0.4170960979508985  0.7512843046891458  0.2494810041040296
  0.5836088805521088  0.7490966748883457  0.0828263832895261
  0.2489610340903239  0.5853220489883471  0.2521496687185711
  0.8396102893736191  0.0832418577773814  0.8321747241824931
  0.7523397283680832  0.2526372690256768  0.9179805417451887
  0.6664730402886863  0.0840352659503883  0.0053725411211719
  0.4149516564558402  0.1648407603418244  0.3333118222879252
  0.6679243799092955  0.7453446786609976  0.8327205058471195
  0.5827134350901467  0.9985867932050025  0.4994685764332236
  0.4947888398334866  0.7482066863209590  0.8284536990707102
  0.7468796900577584  0.5812487978879383  0.5837785776612368
  0.4949315664752804  0.1611088083984484  0.7514717368001876
  0.7516477466693665  0.8324458084497488  0.6668805545963292
  0.2531271382184834  0.4121358932647640  0.4191961840264505
  0.7528253400792285  0.2514880803259667  0.5828808664287749
  0.4129258928225679  0.5028071607000018  0.9980485526631324
  0.5813869756196762  0.2508516454673081  0.7471925323119165
  0.1647179958049914  0.3332476754099523  0.2524829478805848
  0.4995657995304154  0.2438815233114124  0.0019835761224846
  0.9984798369820466  0.9189760169698055  0.9980034268806449
  0.5794762107845706  0.4978576325280699  0.3335541060546401
  0.5023962402758260  0.4184018534636999  0.9990374252701253
  0.2467430593994369  0.3325512289532261  0.9998232137860628
  0.6670231655694256  0.8316592760137655  0.4147063350218053
  0.9168563230207285  0.7533903312980172  0.4156588509376580
  0.6621413940679683  0.0826340995025325  0.8288608774664703
  0.4971484103463387  0.9173832742713145  0.0006047673407099
  0.6687711078386314  0.3392800810647145  0.7503526387061029
  0.0021357700444171  0.8306135725430082  0.0876212910286090
  0.7513100844821610  0.3330529784122294  0.3325522706713633
  0.2490635114257370  0.0846137561632724  0.0816595877837824
  0.6672675839542904  0.9211245308338639  0.4150934615016441
  0.0882844365353616  0.8334726902181462  0.7482637754617957
  0.7517345124102323  0.6627307075391072  0.9163739731703318
  0.0008524037096578  0.6655653927007043  0.6656418946798964
  0.6654536439946331  0.8343807703102259  0.9999412592561503
  0.6683548887826769  0.9168956519782410  0.0854171309694230
  0.4151193175786767  0.9969385982540299  0.2496786405696765
  0.7521092179309059  0.8334412793173072  0.0901973405879040
  0.0837312890686935  0.6679487657465860  0.4163391748976855
  0.8340723184564401  0.0018957551705165  0.0016395647477512
  0.6652155004514132  0.9174261915428190  0.2513164932455941
  0.0004109972108263  0.7505624565595242  0.5833441317930154
  0.0828676539003740  0.7505898666518666  0.3329611813718196
  0.6645464422019326  0.7442314297923701  0.4169433316531334
  0.6667542119750438  0.6577094650418120  0.8312825183232436
  0.6677655951906755  0.8337704754816863  0.1691762036629345
  0.0835227461086407  0.8330270941336585  0.2514556346483451
  0.6638608643377801  0.2503935375623904  0.5820290006350470
  0.0835810776586566  0.7496185286385340  0.6653760409514574
  0.7517687638851368  0.4179430626425128  0.0024629908585763
  0.7504627463877636  0.7497992889581817  0.3318485491512857
  0.6668737262716579  0.3337100003143704  0.1668461363267620
  0.0870611013128954  0.9160032364116458  0.9995740094673113
  0.1647069995338669  0.9997482200748681  0.9993638408832598
  0.7492505812562834  0.7486055275458875  0.4994819602771554
  0.0840333908551472  0.9164187245872611  0.8329449962414366
  0.6645816343351412  0.7472684256969383  0.7443952306676821
  0.7510650872168277  0.4176686709692422  0.1670438421380546
  0.6667865681375433  0.7485541768647745  0.2495500239220336
  0.6682055653382557  0.1657609660887484  0.6641708067453059
  0.7512318155216937  0.7491430141064305  0.1691453156157200
  0.6661335233449994  0.4166172385940927  0.2485565766306114
  0.9999152864535275  0.9184367074993781  0.2521473822085771
  0.7498346373483872  0.2481891791580437  0.4960083828057598
  0.6733743030433821  0.7476915122519965  0.0837353958071974
  0.0834517611419720  0.7485010220302738  0.1682026206552703
  0.6638407935076969  0.6640755105814329  0.6667459814608242
  0.8331783800348896  0.0016004584116449  0.3331409869174195
  0.8356643305362078  0.1671716067834620  0.3322668099649073
  0.0839754327263170  0.5822703053217584  0.8314621448910963
  0.8352275006509647  0.0832933859440362  0.5820816183763208
  0.9169055221586384  0.0006520391784983  0.5813226194621943
  0.9171047465399164  0.0830066246261852  0.4986978098424096
  0.8351133398523489  0.0006559419396288  0.6642606513860342
  0.8361300191631261  0.0834940162271993  0.7438771605402844
  0.0003984549289382  0.5785740453673038  0.9166625896630294
  0.9197179883733321  0.0830920138769243  0.6644469376773980
  0.8344406319092845  0.9963692106175528  0.8327299947317285
  0.8361543479128597  0.0844145197959170  0.9208846992092174
  0.9180288041249037  0.0014021554569187  0.9173743595161497
  0.9185615575309896  0.0000106738907566  0.7479203244552347
  0.8357886659077717  0.1672681029746829  0.0029926560104407
  0.8343306403665115  0.0851352331749013  0.4147808963286263
  0.6650656780586516  0.8320050944828810  0.5026334729543290
  0.1649653420120659  0.0831137335328836  0.2513840295874682
  0.6668339933189306  0.1703119991965669  0.8339743782606965
  0.6633875860184586  0.2520248733322393  0.9174370853910730
  0.7526342456185769  0.1639281484610887  0.9183865169708165
  0.2470748574251170  0.9953262098921910  0.0826065243810168
  0.6685443194535473  0.3353702900469134  0.0021227046549678
  0.1611489319819655  0.0841374653519689  0.0840335349751489
  0.6678646014543792  0.4178497295007648  0.0849526714733672
  0.0004789263172568  0.6643650080860908  0.1685213497163095
  0.0835885755840650  0.7499168894398466  0.0009657242182311
  0.7508315766606135  0.9185210147658740  0.8323119566341149
  0.7547682246703726  0.0841685199454231  0.0023663693023064
  0.0841516032940488  0.6660056615777915  0.0844018130727255
  0.9172274930550891  0.0009335016234175  0.0854689285522990
  0.9186928673799850  0.0837469959879111  0.0020218812009521
  0.0895660217438080  0.8322153467958824  0.0849407917921664
  0.8341930986685729  0.0848596260960437  0.2502772511554092
  0.6664876755084537  0.9166237783644970  0.5825907439678224
  0.9176892995596848  0.0840078885313667  0.1673383280518093
  0.0883872522594461  0.6660011849608680  0.9158960193445072
  0.1632722565716268  0.0844827736900592  0.9150188691041642
  0.7508924464583464  0.5001482324293574  0.0845128174985346
  0.6641212535738488  0.4151594524866020  0.4177218896875691
  0.7506224026986615  0.4204422434385213  0.3328574447083061
  0.7509652517533103  0.5817806097199778  0.1672349014482656
  0.6689779450116421  0.5002441484884339  0.3339650358544291
  0.9997719004720795  0.9184078750237427  0.5806283711177033
  0.7490153950977093  0.4993350373565036  0.4168172085359717
  0.8327298079345765  0.5819113098974839  0.2506964937657476
  0.6647367246268454  0.4984608156026221  0.4988868622477600
  0.6588799068225332  0.5820694670667184  0.5820837981022972
  0.0005576986164605  0.8345930365360205  0.4996963929927203
  0.0836434538490500  0.8344916262818649  0.4161893441352890
  0.6656243354314725  0.5795857275238283  0.7480952173842004
  0.7518432536975979  0.5806627195766084  0.6705007629688761
  0.0011065057409657  0.9175117440436033  0.4161206179246027
  0.7506546493675024  0.4999401756279754  0.2504902144930338
  0.8363793872468150  0.2508284396491098  0.0843558897575284
  0.0003235379358201  0.8352904864425688  0.3321435241952447
  0.6716424403113260  0.2469236691761337  0.7486259749855018
  0.7530350674508381  0.1669692668213497  0.7472089885689468
  0.4964640966077732  0.4998023043892453  0.6660889544899746
  0.6673166009389384  0.9959018422321921  0.0025187729365750
  0.6671760778862852  0.1718870436060561  0.0027988194645342
  0.7525493191913354  0.0011854977403149  0.0865413638669603
  0.1653980142802632  0.2446192632944872  0.2499181498166128
  0.7512715212718765  0.0846620652292201  0.1685891104559429
  0.6668629387512592  0.0850689360279741  0.2490293976534719
  0.2471942261565085  0.2446780732307424  0.9984711436622040
  0.2480984690518860  0.1723186050672303  0.0847589839101222
  0.5825614994537200  0.0832887403081392  0.3314846459060634
  0.1625827841306769  0.2492925052308779  0.0846475600432380
  0.1629310204687900  0.1679259303377078  0.9993758221390789
  0.7511682816569324  0.0857739250239781  0.3308751092010482
  0.2473036872476434  0.0819924103854877  0.8331021617624156
  0.6666442111064234  0.0833243160989199  0.5831832192307046
  0.7502363035422261  0.0010355801803616  0.5813200917240454
  0.6681816702096454  0.5828130806738335  0.0843489856818320
  0.0831346979724441  0.8347326549290240  0.5828181237090378
  0.7521150394585455  0.5820197132810777  0.0013974778783590
  0.6641811472002331  0.3334613402449787  0.4994988849317686
  0.6648911945099143  0.4174005044777998  0.5817972877581375
  0.7504112119614512  0.3383255015771149  0.5819755992167617
  0.7501417133044317  0.4170562132279879  0.4988394955422186
  0.6659093282489903  0.3360665453489567  0.6624480273331218
  0.6657914806538461  0.4253951046815461  0.7489121547001597
  0.7518376934979203  0.4182402859405157  0.6669291642418664
  0.0003952400078211  0.8319731442357462  0.8358389923777301
  0.6680429615715545  0.3363563688528366  0.8381138266559789
  0.9171939550786755  0.0021583240200939  0.2514372710014948
  0.0838707729888559  0.9184388456522742  0.6648591051502393
  0.7508052333763628  0.9182669711400934  0.4986117505944642
  0.9991542460362596  0.8344392744793402  0.6604029286039780
  0.0047974777710455  0.7510780366623380  0.4157223801209622
  0.7523822341762670  0.4188713954174423  0.8344274750447502
  0.1643368503068563  0.8338466440892305  0.4994823586957086
  0.0003337726038391  0.6648956610096743  0.3331458590378151
  0.9130513505664076  0.8338045421784647  0.0882726062083048
  0.7516081388431016  0.9214415039143228  0.6642483751136489
  0.0835551135742275  0.9160426039514118  0.1699658513959251
  0.6681848215195835  0.6654119592476091  0.1678643815445202
  0.7503532946264845  0.6653033826272112  0.2505627103474252
  0.6665754894483158  0.6664916247453465  0.3323547875188282
  0.7486313690821488  0.6661161441494948  0.4150069706141661
  0.6644418428475188  0.6661968910542477  0.4996367164234116
  0.9997920667242239  0.8328359288408117  0.1743163505261935
  0.0839992657361563  0.7497101623494611  0.8322202525855841
  0.0831685967892267  0.8316329588036812  0.9166955460623354
  0.7502219489237165  0.9174737184433137  0.3319764130266304
  0.6682898963919227  0.6628692578669864  0.0002353863398726
  0.6648954951226190  0.4993029307572641  0.6642147363153551
  0.7521639119604281  0.4992966387642564  0.7500404104603089
  0.6666658649239706  0.4999755189815274  0.8347725486535209
  0.9987210366121835  0.9158336156179395  0.9114649593494336
  0.1647418653974130  0.0004307140869506  0.8325864602756169
  0.8355533271533615  0.3336362558248065  0.4989396087588314
  0.9166621968321249  0.9187641090044683  0.3334361874247235
  0.8336247538932158  0.8344323316575051  0.4989964413593349
  0.8339373059098297  0.9175265951545071  0.5804874203159170
  0.9985024371162458  0.4180162862980066  0.2510713692387477
  0.9161902497209053  0.9178357716815538  0.4979684093061201
  0.9152731478700463  0.5835635601967221  0.3343325543885386
  0.8367837021558641  0.3364711484045140  0.6660535773832378
  0.9182733210046079  0.3348732990363563  0.7499245393796168
  0.0823008679964548  0.3340861202932177  0.9149566077485375
  0.9167374432381997  0.5823803514255684  0.4993955455196278
  0.0015013400459124  0.4175747959555095  0.9166157077665101
  0.8357175372690168  0.5805621666664775  0.7497521330752051
  0.9191988891242976  0.4993052341975663  0.7503711527519640
  0.9185352555788590  0.5810735726726716  0.6662058937058887
  0.0842312381688029  0.4995020874265993  0.7479435798826241
  0.8339727025053761  0.5810001261469425  0.9176194409257808
  0.8354369238681638  0.4990995907527203  0.8342411776798638
  0.0004473242168086  0.6645515995030987  0.8297589084917537
  0.0833003432568053  0.4159661710631745  0.6666628392113230
  0.8346168527480156  0.7487493320780173  0.0874159957405307
  0.9152273918442645  0.6642534096943898  0.0852747514829785
  0.9156220363340684  0.7460515073724049  0.0020800292657625
  0.8330664611535804  0.6645586583432029  0.1691119976244750
  0.8375710632097095  0.5823347326067813  0.5830708891544575
  0.9172812322567035  0.6643606862874704  0.2511780361077492
  0.0823323397610098  0.3327649228159956  0.7493717670588586
  0.8348584372334972  0.3352849075764883  0.0025923011402415
  0.8346640521331078  0.4174259992198057  0.0847990439681038
  0.9176781622234126  0.3346329754879653  0.0844098298630727
  0.9181609231907488  0.4179874355970639  0.0001838195796484
  0.0830579887816786  0.5843351055184552  0.3349102255768423
  0.8348464132378558  0.4171798879642277  0.2497616611376193
  0.9180606382257382  0.3338881922397935  0.2509073430390123
  0.9173078526696140  0.4183300343245175  0.1674449563955440
  0.7501851348514614  0.2452450196620307  0.3324961449489041
  0.8352097732546304  0.4164866339653917  0.4176890266232974
  0.9176949121888914  0.3322101387735217  0.4171645783565407
  0.8376620931452623  0.1713754089763138  0.8324512621502742
  0.4965051707911785  0.2510874553300760  0.9130007189782107
  0.5809838488049464  0.1668139347601892  0.9181574500294307
  0.5813581152742991  0.2516668376826652  0.8361699245735478
  0.1655895033199715  0.3336649538179047  0.8319217902445722
  0.5802442841583811  0.4984881932839035  0.5818078816937334