Cr  N Ni 
 1.0000000000000000
    21.1223178012212571    0.0000000000000000    0.0000000000000000
     0.0000000000000000   21.1223178012212571    0.0000000000000000
     0.0000000000000000    0.0000000000000000   21.1223178012212571
 Cr  N   Ni 
 259  35 605
Direct
  0.0004897928231392  0.9241647644988629  0.9153863046936992
  0.9999211703897559  0.0053251829238370  0.1737509460159923
  0.0840449463754343  0.0859107519891126  0.3347947810983593
  0.9191847250868402  0.5003953324113728  0.2492159112988138
  0.9196840250836584  0.6656382657041239  0.4163188529409768
  0.9188219860862558  0.2510971952454260  0.4999462724284167
  0.8357535575133422  0.4166839766317582  0.2418130824291716
  0.9937799146376124  0.1670272580721154  0.8335911252575193
  0.7467522016360653  0.2487734348288991  0.8331507153859516
  0.0848026079306730  0.4156027490442242  0.6661311488237878
  0.8354428990459164  0.4990912573328478  0.1702369967006619
  0.8361923580077554  0.7507089076694327  0.5796241523090514
  0.7501557711027192  0.7462277959291391  0.0025256946958862
  0.8393085427100356  0.8324072149293019  0.1718423003704385
  0.0005861178380514  0.1690682291107375  0.9980912119812130
  0.1666911524963655  0.0002953308902250  0.4985210029248059
  0.9185950688847900  0.5751230722983469  0.8315931128039009
  0.6636148747268449  0.2496591151324201  0.7486122521623934
  0.0843236578299035  0.3336263097879569  0.0838521432233501
  0.0007106372417315  0.4144918083538027  0.2502307900832726
  0.9194463598973226  0.8345532885131214  0.4180949178148614
  0.0840469108109168  0.3328175824482810  0.4161390665964453
  0.9122067493835654  0.0059559911734469  0.0838960515209155
  0.0844212599267933  0.5821459830942058  0.4995238054298137
  0.0003581274010986  0.0834484366429971  0.5732950263394891
  0.0004384405186514  0.8359110531755936  0.6579188769524623
  0.7505316211445479  0.3350107279819265  0.0897143850685543
  0.0837384551810017  0.5003358469650140  0.0852765684660480
  0.8330389792013896  0.4148837884274398  0.4162460697713501
  0.5813356653065352  0.1682147849880171  0.0739559753189828
  0.0849698000867691  0.1686753904546646  0.7421009031539033
  0.9232764266969904  0.4144883828571632  0.4980424071556743
  0.0890761771666444  0.0843889757460431  0.6662529820903564
  0.8379479927766597  0.6631990906068227  0.4987449842221877
  0.7499664022731493  0.7395214848469335  0.1721995519260735
  0.7503417625557964  0.7475223912181393  0.3269352165934580
  0.8412561961686330  0.6623043900469785  0.0016880476315416
  0.0839384190180598  0.4170887896534853  0.8329071627526883
  0.8340226424392810  0.5798358587918260  0.7491440483840396
  0.8374863339755012  0.5809602286689182  0.5810643983743655
  0.7506677005574317  0.6606863986350480  0.4184328755849031
  0.9149611899655882  0.9193778551995346  0.6626154813815077
  0.9193683854141873  0.4992411237161257  0.7490139620283606
  0.6656732201126531  0.5801504015966460  0.7475561120292925
  0.0006867792340624  0.9914266922946997  0.6642395720961741
  0.9116931558801260  0.0833747676258624  0.6647982879588202
  0.6649359099333607  0.2503772564244430  0.9116555855649631
  0.4962593232952697  0.5826029293017806  0.9168015071153439
  0.4026269032065303  0.7484762014698628  0.8310558574240869
  0.4181479767990252  0.0023483232686929  0.0813978749141006
  0.1680014263695272  0.8305388337083635  0.1681061867027611
  0.1647131861933970  0.5836363085029418  0.2512744137308972
  0.3314873261372302  0.8312416752153676  0.3355044570974832
  0.1744938585692778  0.7473770303941766  0.9159608322105405
  0.4134145864563696  0.7495493154758301  0.5000882737683724
  0.3302293797243308  0.8328665032187667  0.4992455809958378
  0.2490756464435673  0.7493408715971965  0.1685920826309904
  0.1671523075445074  0.5824552657135312  0.9166695426198335
  0.3326648315023480  0.4928457041616755  0.3334357543793449
  0.4946464917055792  0.8387558501271458  0.8316360582044756
  0.4227042867303404  0.5812411167458121  0.3336174791695052
  0.0848439970420244  0.5820721373687804  0.3323880779033485
  0.8353859374171304  0.5054029860652857  0.4979975005495306
  0.9169922837947266  0.7509486888853266  0.6627069626485835
  0.9135946609547042  0.8355035406967799  0.7439169406647276
  0.0840638693932865  0.1669432103179395  0.4168084946746989
  0.0015479976938125  0.9176449944403982  0.2605013827113669
  0.8391977474651794  0.9181813251271628  0.0868036283134883
  0.7599886798807790  0.0865611114527588  0.1694771248331347
  0.7541130692988979  0.8361560094167334  0.9060009238169143
  0.6608377838111047  0.8333493415098491  0.9990496334001611
  0.9203598927722293  0.6647103530346302  0.2516489778033925
  0.0003275532896804  0.1686948713326390  0.1684896009132720
  0.9161684573800857  0.0845949065064439  0.8329573276176417
  0.9205957717222825  0.6643043452483227  0.9209515363489195
  0.0864157821100958  0.6572783418456302  0.9176317261581923
  0.6646189997832745  0.8353438559009088  0.8385786680363028
  0.6666781593439631  0.9272002742716069  0.7524051786494036
  0.9179365006853721  0.6637913817456922  0.7439466679731845
  0.8342708507762826  0.0014182442996785  0.4978266675746875
  0.9175113904953323  0.0867993829892953  0.3371616121747790
  0.7513208276002676  0.7503115650363952  0.5029526822050262
  0.0863110311316821  0.6642801541081685  0.7458712271721534
  0.7502450412463254  0.8391965355057185  0.4146304132807851
  0.7574449580917251  0.7500684397398232  0.8347559032456853
  0.6644114334806501  0.6561953979024254  0.0026569797165959
  0.7511113718974507  0.9186383091974850  0.1746981396569101
  0.0009881541138457  0.6661910261341552  0.4988671392889501
  0.8343846902685994  0.4145724052038661  0.5919163223291644
  0.8367852416602918  0.9175259546603992  0.2535613828358013
  0.3268951331900801  0.9115311496509126  0.0835884162406200
  0.0841979158070471  0.7498354897858249  0.3336258754062008
  0.6645048677823098  0.8377773394571856  0.6630592728280622
  0.0020340862457914  0.8336442414669110  0.4986094008659959
  0.9185330312146002  0.4984975318461851  0.9166496055356945
  0.8289364163164102  0.6628800554328668  0.8303256680329050
  0.9976787107976187  0.7467433347177029  0.9177675815739943
  0.7476102770572444  0.8327323810758316  0.2623399411898171
  0.0029161496819160  0.3339753014010204  0.6655234903168249
  0.0012325649642083  0.1712699846430996  0.6669897930717938
  0.0837283863442024  0.2561255438768855  0.8340099029556642
  0.9187462496182079  0.3331922660638543  0.0829037855002982
  0.9086337869032483  0.8353750250297381  0.9174764722886946
  0.6633414630768218  0.4157034433162402  0.2498225740416921
  0.8356385778490506  0.5027410506863588  0.3308241732155789
  0.8336175779255911  0.3358148368713652  0.8373482937407510
  0.6644610710511363  0.7478994741246769  0.5708772529634751
  0.7508770010541757  0.6709326800975051  0.5789018986735895
  0.0005839403743045  0.9139825357057895  0.0850837594178133
  0.0016465730967705  0.7469760450204777  0.0852765579574167
  0.7554234014517005  0.7480827051778650  0.6601465243946263
  0.7491360124306352  0.8308179153434170  0.0861187697734254
  0.8419889339731935  0.8335963304605386  0.0039361526983001
  0.8331424146168481  0.3263393691563364  0.3336411418258806
  0.7503077536036048  0.6618255260791348  0.0937427103958931
  0.9173726210144525  0.1677371292911339  0.4163055704114880
  0.6655593924884957  0.6558559294546710  0.8312508919628603
  0.6577338286363751  0.5802788595430435  0.5818968227926745
  0.0852433936361945  0.9176395865317276  0.3336025737881407
  0.7489684911146908  0.5794063970983844  0.6714056504224730
  0.7490279022175407  0.5789110885438751  0.4941532226986841
  0.5807149666764634  0.4168413807307622  0.1676915321756258
  0.4969890460806600  0.4193865395610379  0.9094439795999495
  0.0915446600132275  0.0036323148460082  0.0836763026008141
  0.9999584223078057  0.9250694960784007  0.7488051048144485
  0.0831738395769146  0.2500358099213437  0.0001062493075703
  0.7495816404356668  0.4248828867476571  0.0003727085091534
  0.0006795009501709  0.2486883300708510  0.2498486260788274
  0.4980527231303703  0.6666929532207571  0.1695918219087865
  0.7511396066471835  0.2484378205525112  0.9956850697790054
  0.1642673937039210  0.5824386819564018  0.5805403560241882
  0.7460864648578966  0.2470302191593886  0.6661506018063940
  0.1673931495561391  0.0871193164984494  0.0848185769337197
  0.7490350911283609  0.2517834785672317  0.3335987598391901
  0.6656000498070300  0.0064447208295251  0.8322192818997294
  0.6654143345368151  0.0138840452355898  0.6641717456285475
  0.6655678587170504  0.1763401685843675  0.3345338605474208
  0.4902069147030974  0.0017906598311837  0.1688178787378495
  0.4141229325103912  0.2517904562621210  0.3363987381124749
  0.5805064247826685  0.7468421641041653  0.8329170486915538
  0.4964404687979635  0.7449481344597398  0.9206669095409575
  0.4972037367236972  0.4976209766845425  0.3341793755580015
  0.5813640385182319  0.3333735210617204  0.7499587711175936
  0.1733463155698856  0.1658736647521481  0.8322805167849786
  0.1657173108377490  0.3321653349753506  0.3332782600107380
  0.8334392629012130  0.3252495618440353  0.5006503377994509
  0.5027884966208309  0.9136670619968721  0.0851590335049310
  0.0852603915353797  0.0781311332210273  0.8325431517504326
  0.2507686711849942  0.9999930325574753  0.7468977654627872
  0.1671176244349785  0.0024881176263953  0.3345495778855221
  0.4147171094311445  0.0025012938398246  0.7481448795687357
  0.6639608456446280  0.0906437511206715  0.0740965191657645
  0.3312902248859930  0.0011547478326832  0.4996189469939413
  0.8347809106242172  0.0051450165673132  0.8324928186025549
  0.6679174817957081  0.1742756990787332  0.1659284193613719
  0.5796884854968476  0.4978048819772289  0.4159899375691702
  0.7509051812059715  0.2514134327305654  0.1645521319671886
  0.5758295373246486  0.9103232775882927  0.1718487129674673
  0.5804986618643373  0.5804513771180052  0.6640295151285230
  0.3313212263909391  0.1679676249884340  0.6646912828975320
  0.5857666612433943  0.4195324217163016  0.9992386360087818
  0.1670815501803445  0.2510333607906233  0.5815887023005359
  0.1652847270388857  0.7497270472067374  0.5804885039964506
  0.6648098410544907  0.3312046663674666  0.3342062087363216
  0.5753942115015457  0.7486860999379414  0.6642712937443358
  0.4962190415405799  0.6579475149658923  0.8312463726691632
  0.6592398812812077  0.9157434313355550  0.0874535506438940
  0.5720283020525120  0.7467368737975651  0.9992448122007146
  0.4139318370546932  0.8243152085996397  0.0839519322658787
  0.6633674762855279  0.5813751590800236  0.2525563113668370
  0.5775203409358322  0.7463574949895436  0.1704954083936509
  0.2489842487496323  0.3331931456458602  0.0907466358355947
  0.4973325214703890  0.8338074406230527  0.6642789955709619
  0.4948231204312518  0.9138131776305172  0.2542546578528336
  0.1602358291965290  0.3343348542347492  0.0015133503638415
  0.4959706142331184  0.7498410541720114  0.7404814599732951
  0.2499280863998311  0.3352291788817630  0.9113738501464713
  0.0834497673203200  0.1672150893339848  0.9234195295986686
  0.5785198603898859  0.6651549503386777  0.4163055249000280
  0.5742296680487559  0.0854202031918514  0.3357628252477647
  0.3299550465733537  0.8327803361337793  0.6650922961479974
  0.3303930637649350  0.5818898507299484  0.7466678978467431
  0.6673699494092423  0.0868731225308296  0.2507860927581539
  0.3319790959905075  0.4162726266644231  0.2512802113429681
  0.4150084621117754  0.2506123636592633  0.1679799591664607
  0.3305683569084498  0.1671809606395397  0.4988703098290438
  0.4956088844280204  0.0846636804306244  0.5823971199100095
  0.7437129042801776  0.4171066598596082  0.4976062098062837
  0.6665400956756165  0.9954035928546499  0.1718270712086510
  0.5790515417150350  0.9187286434193330  0.5000295602093272
  0.4960576805387452  0.9191828772436691  0.5789100221276521
  0.2492182753049693  0.2507153689762370  0.1680223248490018
  0.2494202733492932  0.0856997171225495  0.1695719397718671
  0.7496696652034427  0.1681205640650521  0.5837584908168040
  0.2503824966072764  0.1682913148615518  0.2514941015783328
  0.4966787612139999  0.3283377195793118  0.9973427252203174
  0.4132155925292684  0.4229488871488305  0.6651744203739035
  0.2478762193512637  0.4999782177162060  0.9158075417956256
  0.5801782270649426  0.3331471124230316  0.5837745639993777
  0.4138084194421897  0.3324576946968373  0.5768836052330915
  0.5785672452537349  0.4152957154629556  0.6668905688897686
  0.7508374110173061  0.9245507474659241  0.9963139433899462
  0.4938092690400589  0.0837664109766396  0.7492236521430711
  0.4141242892404635  0.3333303402543302  0.7572122599090009
  0.4953644650000282  0.5068582386324058  0.0002448612961848
  0.5796213444794259  0.2606463847247452  0.1663182215526031
  0.0908195353197149  0.8335302543270557  0.7475695955526513
  0.3312769767794596  0.3350780923319676  0.8310131466953997
  0.1664212700037765  0.5813996959569013  0.0855415751950961
  0.4964190061203110  0.1686389772704142  0.3357401317581018
  0.5794925151278421  0.0853662706722003  0.1687133194518466
  0.4962166382782956  0.9171925897626139  0.4191830289798426
  0.1662652620297144  0.4990520199365353  0.6651611624496434
  0.3302288885853371  0.6709826059671389  0.3343385348546888
  0.6652683686090934  0.9953851591937675  0.3345488765993678
  0.4135971199834576  0.2489128836874528  0.8311157451241229
  0.4963774425592159  0.0006266044371539  0.4998754294148439
  0.6646370653005813  0.9179060865176869  0.5748794867186932
  0.1652939262790783  0.4151143199851662  0.2510602991764342
  0.6654052176285956  0.0862257493845590  0.9138114740090557
  0.7489875902197811  0.4967252922909038  0.9151796944046947
  0.4957519165635314  0.0848909748180660  0.9135639559751773
  0.4887372279056094  0.1682565900411380  0.1684910285745419
  0.3386857150467838  0.3329063581812501  0.9993102068709245
  0.1642137819898661  0.5004426996456847  0.5003686938248856
  0.5808431112822867  0.1663531104569145  0.7492047577965644
  0.3321387578219481  0.7485859475620263  0.7458256088149696
  0.3306932216967872  0.8332626297215714  0.8311886281465459
  0.3307840888149741  0.9169189450810994  0.9144416277278334
  0.6660828606721119  0.0868936997783276  0.4257257277846901
  0.5046386242182478  0.3332010563658349  0.6668084576051054
  0.3318001496222704  0.4162005912134631  0.4166736342875208
  0.2484030645913736  0.4172081540739845  0.6644593924368926
  0.4130047356327334  0.2438711353083653  0.6662037617259462
  0.3238646259947264  0.3346458567568654  0.6674008180249820
  0.3319608438003341  0.5018051370553568  0.0025009391295761
  0.4128061848761063  0.6656838799554065  0.0847127557476471
  0.2519897351254478  0.4263872108678987  0.0008687715064220
  0.0868313513980702  0.0849956091119566  0.9994837627839853
  0.0874995712149982  0.8369079135465134  0.9166742711655060
  0.2487504768379240  0.1674284473357206  0.9151805725618659
  0.4060044966185276  0.4188774718918212  0.9997527241885117
  0.4974791723039532  0.4174820055261745  0.0896266203549131
  0.5800657207458808  0.2508468378784383  0.5019875666196667
  0.1674500212301320  0.9156955674410129  0.9154065002365795
  0.7548274273651319  0.0863553638452087  0.3356485884073582
  0.6639402993752471  0.9192850038385204  0.4174919760019580
  0.3324069878019750  0.5833857071276047  0.2458831218543723
  0.1653067812824300  0.3339194173281044  0.4961190171816157
  0.3328564991308503  0.5827514971429747  0.4225202191525513
  0.0834742614923540  0.7480240782558636  0.0089978081811614
  0.3316940662885777  0.5824438591420839  0.5807752714290416
  0.2507229146072742  0.8321430169939487  0.7461200254780692
  0.2407066049187301  0.0021208870944149  0.0856908970602609
  0.4133949498240069  0.5008908287337912  0.7481455820240002
  0.2497332816945602  0.8332507918218590  0.4170101378055222
  0.0859122242492564  0.9176236433979794  0.4984885475106892
  0.4138186130984363  0.0847098213194756  0.1675738703862219
  0.3306940355125775  0.0890924909109063  0.0847809967690591
  0.8334313565938711  0.4153413155841891  0.5051032070268637
  0.4133712205660799  0.3335447731879002  0.6667943146356341
  0.4963928933441086  0.4173801530317532  0.9993435898554136
  0.9175604926996193  0.6657000528475162  0.8326004665445225
  0.6696408886690562  0.7439673716288392  0.8318795121123470
  0.8316979093559498  0.4148266167191694  0.3286739919701507
  0.7504965687516990  0.3361971279597103  0.0010022069642695
  0.0042237023863370  0.9145374136859047  0.1733869932089173
  0.8344722380231102  0.3332455783824141  0.7517937073660954
  0.5778139044705343  0.9968420861693603  0.1655041375130927
  0.7537367439157636  0.6569341793969040  0.0039477261418420
  0.7488806627128130  0.8276773817902905  0.1752028534119842
  0.0024978355451648  0.8350616677857464  0.7452594229556566
  0.6660493104779307  0.7487326104313022  0.6574693246250555
  0.2500151300520485  0.3352030727506910  0.0011834901518320
  0.9965054526858356  0.8365590244221696  0.9185314324141787
  0.6679749827647803  0.8393666051042621  0.7519074092536686
  0.7483257868584565  0.7501757142674941  0.4145082270550839
  0.0001894395706823  0.0813802866403105  0.6626980607208228
  0.6659401837510805  0.9278217180024861  0.6621741296889022
  0.0016562089185667  0.0032284375716415  0.0837453057563211
  0.6590870119303798  0.9228885500606061  0.9985409014186033
  0.6590969093684481  0.7438028765282322  0.0050070192301231
  0.0872251307362559  0.7458417941340461  0.9180026411799296
  0.5770644903796628  0.1749467779582403  0.1635427349559024
  0.3317239151123331  0.5822763874176379  0.3342828673544301
  0.7534771851262412  0.8345256505850083  0.9939498297281147
  0.6723398185756974  0.0844275232001694  0.1611283563591976
  0.3283638046129548  0.0012254518508566  0.0825231579168353
  0.4156794385610022  0.9119149003862653  0.0832625176449072
  0.6645534279036436  0.0859099050151488  0.3389074937501577
  0.7473753801907047  0.5811248680519906  0.5829862775807572
  0.4913708529214684  0.7485151752944691  0.8306645119631960
  0.7505656323701509  0.9238947111613866  0.0864696982397306
  0.0833614196691919  0.1670103434098014  0.8324027036592914
  0.4127183211798855  0.0836761500003727  0.4999038625846970
  0.3312983090063658  0.0007225428240396  0.3338432155791446
  0.3311867691707603  0.0841884142927670  0.4169892684126226
  0.4962524189065297  0.9996911050705336  0.3361462799527150
  0.4151179203193906  0.0845841778202638  0.3360897235320048
  0.2494844588840746  0.0004232378044050  0.4172646157614412
  0.2495437356656904  0.0009824223441285  0.5809646553407485
  0.3316795126491632  0.0839667019822804  0.7488307471033950
  0.4132621986384490  0.0846276926788380  0.6648761421160156
  0.3302663006923300  0.0010068089951675  0.9934335560775620
  0.3320490226540046  0.0006110058799385  0.1720791674362082
  0.3307858498106667  0.0844393149842541  0.5817435683181802
  0.4131188931555487  0.0011647350297020  0.5818282192719764
  0.4982503840666828  0.2484360559274821  0.7501616553992340
  0.3313393046716078  0.0000610278359297  0.8311836102838630
  0.2495187984428738  0.8336712653435439  0.9156376972601521
  0.1675995581990764  0.8329840211895083  0.6642573734766091
  0.2497185063547249  0.9176803683766674  0.4994187992075363
  0.2493252900213822  0.9163543966072911  0.8307535980585018
  0.4970887025856613  0.7462464264199077  0.0844838823587838
  0.3312940207654499  0.2503955372408755  0.4170788980203689
  0.4139890687050344  0.9157995885331617  0.9937806920321466
  0.2491065751759075  0.9992681564760763  0.9145560874105719
  0.2488878251856942  0.7498002891752433  0.3346014656615297
  0.2500095452265925  0.9168068512115228  0.6645953488554888
  0.3308208383427139  0.9153615661084066  0.2528603589647149
  0.2484586123206154  0.7481159962633763  0.6631250026029184
  0.2480305500306415  0.6650273767251528  0.0859325670395103
  0.3330603127465271  0.2496589882591447  0.0848236974859689
  0.4961937749951638  0.8287266822264663  0.1696330732544158
  0.4138139213242904  0.2500662700059407  0.9975963439906521
  0.4127435008464473  0.8327852945958555  0.4181442961675810
  0.3326145143336350  0.2510875302285120  0.2511731763685691
  0.3310121192814888  0.9166391027157933  0.4172673620725922
  0.2487381735578464  0.6636244501545604  0.9169402771236329
  0.4132763699142519  0.4194763064290557  0.8318628520663742
  0.4139886611340921  0.0848412628212320  0.9978769327748580
  0.2493319703373196  0.8329765736206716  0.5810462146488132
  0.1668026940461990  0.2515310553751076  0.9159263932544572
  0.3327002355038704  0.4169805882250417  0.0862650245561888
  0.4145547955107183  0.3334315211517009  0.0848102560668322
  0.1678134215516579  0.9172677560992146  0.5807545238961777
  0.3325133164449026  0.3331895152779885  0.1686086181114295
  0.2498851654589954  0.9165355977197525  0.3351396432606754
  0.4152996487819394  0.3338320179065107  0.2514373815084536
  0.1671993844237214  0.9177392952621763  0.4165580670777911
  0.3317252695348967  0.3346694748509518  0.3334409162555645
  0.1661369628453262  0.8332054162806352  0.3347290229249322
  0.4139352855325659  0.3334147614668769  0.4175286793669303
  0.4155370257941025  0.4157410953170002  0.3345950727001775
  0.3310739260460426  0.3333162097397285  0.4989729249783321
  0.3310749887396311  0.9170239310056620  0.5819189049034434
  0.4130103676222576  0.5025194281798365  0.9150791134600904
  0.4138131022254017  0.3337306213350101  0.9123852447778431
  0.5784202270603693  0.0003664636845676  0.2567334152525722
  0.2480075179873804  0.5003535755662142  0.7478104329498990
  0.1659087033536967  0.5818077636864921  0.7473320531574673
  0.4963480709525966  0.0849066562156669  0.4187415313427374
  0.4157697148653461  0.4981286379181447  0.4175431055586387
  0.2478012435340516  0.6666277636310801  0.2505924766799490
  0.3302311757830390  0.8316403193015369  0.9989079231730524
  0.1669393327524025  0.7499898098646698  0.2514591169661106
  0.2487200910340030  0.8324177205306572  0.2525063379728451
  0.2489237444442693  0.9156312242232227  0.9985589290163664
  0.3310002804241889  0.4992900235323097  0.1693734239476091
  0.4122720578416992  0.5834348248610773  0.0013232295645605
  0.2483360849035797  0.8313701222948147  0.0843477894001755
  0.1675793403477109  0.8332559145774305  0.0010584994292696
  0.4160439754351185  0.4981205434484204  0.2500040529135996
  0.4967219339948375  0.2507228771473016  0.9137242685835082
  0.3294460113684029  0.2490374393632502  0.7498349163179959
  0.3322224276150813  0.2502652374380837  0.9138668648884335
  0.4150018309612213  0.5836611122093406  0.1684536210502269
  0.4127625535528897  0.9171230352539249  0.4994335205226029
  0.9218528460028400  0.4146767751265349  0.3325226496198270
  0.3310825902063658  0.1665702907272312  0.9986978813127285
  0.3305795561348612  0.1661585181583009  0.8320082676673632
  0.5788591765551848  0.9169668450426397  0.3368587613435489
  0.4128356253161458  0.9159055979014599  0.3360302489915645
  0.1671981264574700  0.7485645349826603  0.0853579798004565
  0.1675103294030213  0.6638289262192255  0.0026432319572724
  0.1657783663725065  0.5001054101136380  0.8320738699696918
  0.3315306984751831  0.0012351500717978  0.6662157369123931
  0.4126613321774636  0.8350812721282179  0.7461796940652828
  0.4136087843831031  0.9178164753958595  0.6642719838110583
  0.3312185377292041  0.9163935846612923  0.7478568160860309
  0.4136883339871642  0.0005541425124057  0.9138565520568683
  0.4125430840199998  0.8324251753015423  0.9155676140688468
  0.4123124719877185  0.9173576850322690  0.8309133633534291
  0.4958613767537439  0.0027491265168738  0.9970890862939258
  0.4960484231030215  0.0869708808063299  0.0810600062552292
  0.5790059751306517  0.0049276123278442  0.0769828996403581
  0.3322866819681664  0.4186391262670964  0.9139568958821742
  0.4138986293910026  0.9141890547461242  0.1730697276088556
  0.2483103892996800  0.5825783351642896  0.6633058907969602
  0.9181855989831510  0.7477983981725361  0.0034665439176938
  0.9183232250159433  0.7471774384488612  0.1693624902632774
  0.9202801282659964  0.5815106035403274  0.4988465453570206
  0.8391000151710427  0.7494854765877047  0.4166506306174695
  0.0846076063875188  0.3339235037243831  0.7490064007301144
  0.0013058589252164  0.4156975944071414  0.0835449622207896
  0.8350325609269499  0.4176377481512822  0.0859346979656284
  0.0008017686737501  0.2507110330857993  0.0836078424656416
  0.9193423753539569  0.4170062053837427  0.0014278244330919
  0.0019313041193567  0.5831984860657056  0.2515923206862629
  0.8358214658650892  0.3331865075940837  0.1654970999717311
  0.9187569554879924  0.3322932300381111  0.2491222102594406
  0.9205710125088616  0.4153665525981229  0.1662937791462536
  0.7511437399431850  0.1710226030187249  0.2510006718448223
  0.9192962389458633  0.4993047926990306  0.4152944023310196
  0.9184706307472464  0.3311353944781230  0.4165201678181380
  0.2492038248400414  0.1671819905183472  0.5814675149307096
  0.2481028571085126  0.9150876738038478  0.1691027520235356
  0.4969299331071120  0.2486689294039688  0.5821128409586447
  0.4141310361674428  0.4166782894027348  0.4991711556421058
  0.4974800283326463  0.4164767747328540  0.5813410341381855
  0.3304256403722611  0.5017585153993943  0.8312979700792105
  0.3301213874109324  0.8314059119922100  0.1684255153785177
  0.1678202845032156  0.9168808575136651  0.2535551603840567
  0.2485026731302838  0.4185545279210483  0.8329577057328938
  0.4146540319568430  0.1685208761158593  0.0820046999681694
  0.3327557245328948  0.1685323235464387  0.1686664114983477
  0.4948497608117334  0.0854907940600696  0.2522190944117279
  0.1651923045921243  0.6666589828779098  0.3341907964991174
  0.2496651251156463  0.1673819954405217  0.4169025125957333
  0.3294771865873979  0.7484819513420274  0.9162039248421864
  0.4141537636949058  0.1672146602880920  0.4179115929188951
  0.4146936770911075  0.6664946364533740  0.4176809055511443
  0.3298757837697949  0.2498744286826571  0.5815407000454327
  0.1683695265274372  0.9173289975259690  0.7471030611176647
  0.3316069046492663  0.4992399762110311  0.4990204283084071
  0.1681099874748256  0.6645499927018436  0.8310431593732504
  0.4135220697825143  0.4997882980569622  0.5816073330539815
  0.4147862202926015  0.5825212512129984  0.4994476696246760
  0.3296307369728795  0.4999361253156072  0.6641328221063394
  0.2479773640749041  0.5826265179854355  0.8314426051771795
  0.2495641097991025  0.6650606466269670  0.7463065412828275
  0.4131926809878762  0.5811941373580181  0.6640836812042014
  0.1665599029593096  0.6653738850687509  0.6634779787535459
  0.2488858035339520  0.7493698044332039  0.4995961523146251
  0.4970049142248286  0.5023947476388191  0.8319186799109057
  0.4120502566095642  0.5827984532134709  0.8317227714248308
  0.3297867996769666  0.6652907346805903  0.0016451344935158
  0.3305325673818860  0.7483969148068117  0.0845807083944144
  0.3312570629242656  0.5837684994936265  0.0862782266324876
  0.3296912892444258  0.6639012435774261  0.8310540898712044
  0.4127889189720949  0.7471371005118422  0.9996224468284255
  0.4134774321376359  0.7489807298501933  0.3352938166600317
  0.7489376559448206  0.2501623776435195  0.5023557835294866
  0.9167060494518185  0.1681434492175586  0.7489034455753668
  0.4140915495760548  0.5015066355851039  0.0864428078923047
  0.5802030306258319  0.5814132614741575  0.4978945512041472
  0.4973273560793151  0.4987222289236565  0.6646683786801418
  0.6649255118189293  0.0094606668768182  0.9964266156917801
  0.8389945947022389  0.3356295199852866  0.9995905274394673
  0.4148071149131353  0.6664863173920674  0.2512553840191876
  0.1660035593136278  0.4169431822051334  0.0853583994395431
  0.2494409946002372  0.2509692121859664  0.8328584616699480
  0.5793305074363968  0.7482947514888294  0.3361681119712291
  0.4974099743137310  0.6655257045719850  0.4997029439417119
  0.4969946940175502  0.7502344818990120  0.5821112868795940
  0.5792702746377103  0.6650457096916040  0.5805816467237580
  0.5784633245373730  0.7494458762402976  0.4979785616793350
  0.4966680680013494  0.6640559347803423  0.6635489447398305
  0.5797472963733221  0.6629448385765283  0.7469055424247376
  0.3309702582000082  0.0845817830809576  0.9147360607215349
  0.2491576674327571  0.2501733699156009  0.6649430008015418
  0.1677375702416592  0.1676477092552356  0.6652902692394541
  0.4951970436731748  0.9171186979677021  0.9135168543532322
  0.5806734139435595  0.6611051643081035  0.9164686397710992
  0.5776084466754925  0.8339510818459218  0.9142579185190419
  0.1677846494490890  0.2520631729259391  0.7491579736477730
  0.2482720198625724  0.3339389007839628  0.4157785336108471
  0.2479033482096751  0.2508463586304382  0.4986466825453721
  0.4958157512506535  0.8306055355849294  0.9991613519723088
  0.4966730883579179  0.7483089175085402  0.2530371263085258
  0.7512542484322190  0.0858587896597476  0.6640040807450591
  0.4130641429339572  0.1668470921172194  0.5815314606971581
  0.5803644253173458  0.0039483586320427  0.5815185042296850
  0.5796261790147031  0.0845346733687229  0.5000970616574182
  0.4963078422769788  0.0024247134739583  0.6637295408246916
  0.2478776910483639  0.5822606569344148  0.4994445653814170
  0.8345313865165843  0.9219864062717191  0.9151757577004475
  0.9188330246020713  0.2513311613089595  0.1665425418275514
  0.0835267484367488  0.3325011166572900  0.2506174508228671
  0.9156902189018346  0.9209969987556865  0.8318856510649797
  0.0829001058009298  0.2505399816281945  0.1674564913030633
  0.0843860505769741  0.2501492850068044  0.4993154807021234
  0.0835096395971307  0.3343148357353525  0.9171996353445556
  0.0021327871489546  0.5820827573855230  0.5818350634663463
  0.0019634609731483  0.4170325839470281  0.9167801639485790
  0.8353764153030923  0.4992428478608694  0.6662770837075633
  0.9203013704319060  0.4160389453171757  0.6656371812836253