Cr  N Ni 
 1.0000000000000000
    21.1223178012212571    0.0000000000000000    0.0000000000000000
     0.0000000000000000   21.1223178012212571    0.0000000000000000
     0.0000000000000000    0.0000000000000000   21.1223178012212571
 Cr  N   Ni 
 259  35 605
Direct
  0.9952103682016469  0.9192157199330352  0.9143008354902775
  0.5748567927945507  0.7510788340536059  0.6664601474692108
  0.4960726436704418  0.6592415075353700  0.8319577170675002
  0.5789148528318182  0.9173209850611873  0.9972799665242955
  0.5700806855886829  0.7483002748966417  0.9989577357018370
  0.4125777651938755  0.7475040560752336  0.1672104119042766
  0.6620464054449338  0.6619152551328701  0.1666430218935879
  0.5768594285474968  0.7489367559660558  0.1669080513138102
  0.4137452108923107  0.2513788148397796  0.0021777805949169
  0.3313372939715292  0.6607710280808290  0.4989072201120173
  0.5793515822462580  0.8342294043298120  0.4168342205953433
  0.8336049412976612  0.4154328925527380  0.0863879116502304
  0.4959804896014253  0.7501801018708808  0.7434264597438484
  0.2467194101736979  0.2497987204589872  0.8333843797639716
  0.4140203059852971  0.2483084473080260  0.8273615906446568
  0.5798945073714327  0.5808047230002225  0.4940975164095146
  0.7504315753827839  0.8348796161631536  0.9079936804502321
  0.6677956419073398  0.1753305703296947  0.1668298803839649
  0.6662239613413116  0.2531678773789290  0.2492309255765085
  0.5804222571184193  0.5807130230573598  0.6708098145136777
  0.5796729313096146  0.4969043766594963  0.0852236116898386
  0.1676205000681801  0.7484251879335498  0.5817287221862839
  0.5826065960064452  0.0855848237965954  0.3335978653532212
  0.3307820667612364  0.8346468795818881  0.6642013870430500
  0.2477302470051603  0.4183157124935757  0.8346425346636690
  0.6693452548512356  0.9964049950569626  0.1684555389476139
  0.3324221213341840  0.4159748177242091  0.2500591653411171
  0.4133578384124887  0.2523408019954326  0.1659999313762200
  0.4136525399477791  0.2491371681973471  0.5003672253462692
  0.3307895371226744  0.0007533025095517  0.4995127481423261
  0.5785848472951201  0.7489950616381968  0.8328299443894053
  0.6593386183590195  0.1700829532610707  0.9974287609203212
  0.4931567249360778  0.0845283110615105  0.2456256732871629
  0.7588931912389604  0.0874597889272498  0.1678741320116830
  0.7494603225380313  0.9194380149124036  0.3365233132562988
  0.5739877941681109  0.9202180264270589  0.6645142927498554
  0.2480098546858806  0.2518967060920833  0.1669586234753316
  0.2500498917697900  0.0849706427311354  0.1680023210794189
  0.8317353361333435  0.3321062320508274  0.6663715397124478
  0.7490032216178191  0.1703898651328321  0.5815598878209313
  0.1677003994787146  0.0868276670230654  0.0843002857364108
  0.8345097243525605  0.2529837431073927  0.4171372726123790
  0.6650477950637929  0.0852023665597063  0.7506160615100080
  0.6683083605191631  0.0120038751474598  0.6674775131240184
  0.6674040196238255  0.0854517376284205  0.2520508831314179
  0.4904401086734616  0.9996031719637142  0.1665794632352929
  0.8327338067661884  0.3263259196200269  0.5007840865689488
  0.4135680012368347  0.3324680264219312  0.5740515275797859
  0.5798230221347602  0.4135167105216953  0.6682245873574626
  0.7504001245666901  0.9273485841608691  0.9959395145870079
  0.2489313363574502  0.1680958089534330  0.4164609393906327
  0.4899889967824597  0.5796205831279129  0.5828392238835666
  0.5764647321085545  0.9102899895630527  0.1664943959145900
  0.3310545348178063  0.1685189132647705  0.6647160476997108
  0.4912589391482056  0.9171925400973784  0.0832121152727138
  0.1671210210622467  0.1697285595665673  0.8336999993389351
  0.4120108335263287  0.4235634688787822  0.6661540999354991
  0.3317248667174089  0.0019184730882166  0.8330896382342435
  0.2482087997832618  0.4986413088587988  0.9159242749335313
  0.1686783767020391  0.0014458833775084  0.3332200127696034
  0.5822488429950418  0.4138374388240473  0.4986667185479540
  0.3314311462982508  0.0026706203496105  0.6662804204034131
  0.5816631231486642  0.1672707246131235  0.5824445019329848
  0.7423129018146503  0.4142246302825895  0.4986379945787249
  0.5807821298825211  0.3348915380464315  0.0838104455600113
  0.1656825775702499  0.4142307674888995  0.2512865439131550
  0.3315625549765392  0.6643495680038309  0.0021468884444692
  0.6638723468094906  0.0851260739924700  0.4255821846740157
  0.7579394769156099  0.0875827971179597  0.3349146904938028
  0.6560222645394772  0.7498853997953449  0.4155350916855156
  0.1676658987552929  0.7479071897096151  0.0859293236606162
  0.2470774970413882  0.4993761204169248  0.0846956327053334
  0.4139442715342231  0.4176714281848056  0.1664212263033382
  0.6644079713129593  0.2522614171734754  0.4165329969125672
  0.5035348783790898  0.3322785931129366  0.6669734938488699
  0.4149398547469079  0.3332740060525513  0.4176785142270489
  0.2491005272660982  0.4168567449426817  0.6661322654501926
  0.4147799351568086  0.2440051844991093  0.6660034561720938
  0.3239008017037078  0.3346715447214386  0.6658066612747194
  0.2480668136699868  0.3328376484103150  0.0840918945910077
  0.5810171588191787  0.4163266574841699  0.8346929744462099
  0.1733725025747845  0.9167012438865753  0.9142889160137312
  0.3290105214092847  0.0850844007054841  0.2494531025054160
  0.0010662524407933  0.0021518170166790  0.4968103555792291
  0.3298371944952155  0.7505848863549486  0.5895528579932682
  0.4140162779423669  0.4983049971502883  0.7484373252885803
  0.1760471805057669  0.9163408941960870  0.0840527316461078
  0.3299358613112952  0.0854594450009450  0.0827200463214035
  0.3301472228018894  0.4976841750390585  0.6652212777474870
  0.9979752728078048  0.7474925679734907  0.0801803566739301
  0.3326182545690281  0.5815846231334996  0.4207767270398921
  0.2470991848988360  0.4167826142715073  0.4978670443235124
  0.3337285423595920  0.5823597060562015  0.2439818301217188
  0.2509195516033876  0.8333480577856034  0.7471781981523971
  0.0848503495668562  0.8322067951564130  0.9178217451506643
  0.9998373732621992  0.0961576942205058  0.0832887585789710
  0.4137039791016233  0.3326881145145409  0.7543868024148138
  0.4977200539304035  0.0849319820516827  0.7494242151246665
  0.1668564696997072  0.2511649141440669  0.5814224317067456
  0.4959183074867934  0.1740894435310617  0.3336723506399898
  0.5813464614774743  0.1670042478087791  0.9165657636706906
  0.1657735144718453  0.2514821629292643  0.9164551693691794
  0.5808983878789739  0.1656618516099155  0.7501878636646669
  0.4139708076708076  0.4992268595981510  0.0850276475813349
  0.5807642868870065  0.2611694703198329  0.1674276535497063
  0.0912035841053147  0.8329738785100224  0.7465654506375076
  0.3302355209998095  0.4183737826947343  0.9167305803019293
  0.1682980463150560  0.5792581660049791  0.0829379299712817
  0.4960890783437085  0.0841378680944528  0.4244469350545853
  0.5782155517559943  0.0847902125018092  0.1699268659788948
  0.3309261960712173  0.8340274401901786  0.8309849855834170
  0.4118812112562357  0.0009145185192139  0.9150670585058072
  0.4959091208980557  0.9956018984997348  0.3340652662717620
  0.3310345711121367  0.6638094848264305  0.8324517164706033
  0.0014119106448578  0.4975723260399637  0.8323975483233941
  0.3322773297723242  0.6702732213307994  0.3328145457931687
  0.6641069628923464  0.9938524752286293  0.3340938876726067
  0.4994436206472159  0.2487111295047051  0.7512341311059322
  0.4961526733122246  0.0021032204627594  0.4987941054142248
  0.7533457746609827  0.9188475288469203  0.6643796840492345
  0.1657306080788377  0.4981867868577379  0.3333662936238713
  0.7508432187868179  0.0821632556785727  0.9970404418397634
  0.7508653126028405  0.4969291453596248  0.9147631875426686
  0.4991216840389022  0.4972078076987193  0.3325600642478884
  0.4895883193000595  0.1680565292157135  0.1674644576317595
  0.7493706404804635  0.4959555638622686  0.7478153284939666
  0.1657523509873280  0.5805417433025298  0.4157559653061713
  0.8201615029321329  0.0028748068641450  0.6648055916620298
  0.1655926967402806  0.5804668741462710  0.5829913923281208
  0.4945003315140367  0.7480189669045209  0.9224408135071512
  0.6590207463431974  0.7451822268790377  0.0945804339793887
  0.0013830686871910  0.9198193241697742  0.5690727357140561
  0.0008323579707819  0.8256057321267538  0.6595078259559954
  0.9192148936539922  0.2526736266699179  0.9995795121735757
  0.0014634591296218  0.5788520079248268  0.0841503508788836
  0.8339408653385439  0.4157502454909860  0.4165827731301848
  0.8353540200016343  0.5043003046833389  0.4982097376916286
  0.0029396618619830  0.7473936935049285  0.5794309537833330
  0.8336310667562563  0.5810042449980592  0.4161584472372009
  0.7490378653195684  0.7455300029918552  0.1765119530733162
  0.7487594666663426  0.7467334567378401  0.3262254481811438
  0.8440476565767553  0.6614441282982710  0.9973970153417128
  0.0840309896310941  0.4987311956466008  0.9165807282543116
  0.9173251956672381  0.6617337518048753  0.9155248845622085
  0.8396410091195089  0.5800002601765133  0.5824001289948850
  0.5815941149443817  0.3370381991998067  0.9146313697303031
  0.0003790677925799  0.1705743870826883  0.8325944035616450
  0.9164245085481778  0.8336721238357621  0.9155009605284272
  0.9114915290530687  0.9178701620211943  0.6626067004601963
  0.3314343506276119  0.6655238370438825  0.1672577630547161
  0.3324792128383903  0.4931805805640540  0.3328669424117223
  0.4988923052200697  0.6662420424087226  0.3325492050551901
  0.5794760644687132  0.4973781148722730  0.9152977744336899
  0.4020155147105252  0.7487364027094883  0.8316277974090697
  0.4122225402382446  0.0001153996032668  0.0817989921145462
  0.0839139824584203  0.3347104916121165  0.7490841069443183
  0.0920052359795787  0.7472241439448536  0.1691860467781061
  0.0046000039871164  0.1773578721797695  0.6679500106853993
  0.1653775739296812  0.5802888497065234  0.2520945852485095
  0.0846377611924885  0.1706009944172508  0.7498530999953944
  0.4130457823356419  0.8320492678005088  0.2511360743785898
  0.7482420214310306  0.6579743807227622  0.4159956432122600
  0.1730522131028682  0.7478560788521070  0.9146831618986105
  0.9978043480833734  0.0035151055410975  0.6641336666606317
  0.0003189532469645  0.1699765457356650  0.9989584974266564
  0.9993436539161041  0.0087282774041755  0.1731103574259414
  0.0006544534662260  0.0028235414467041  0.3335010443213540
  0.0019384836945697  0.4999886464036666  0.1644970444242874
  0.9189448805451155  0.7461506482211271  0.3363005446753585
  0.0026283136907017  0.3332448888685029  0.4999798804398106
  0.8336867051566915  0.3335067188545916  0.1659400644174138
  0.0855137123677458  0.0087273785890872  0.9154640410358521
  0.7511479784523222  0.3342920761050588  0.9157358656566474
  0.0832596991152516  0.4148110818009075  0.6668329448856891
  0.8345738648429341  0.4985472903649235  0.1673667823566478
  0.8231778773561670  0.8320614312401264  0.6644419109404903
  0.7520920356510844  0.7479442314724268  0.9960583953287464
  0.9093369955406578  0.9183333360748702  0.1696256282503296
  0.1672005935411494  0.0014966671119199  0.4973069308659583
  0.4212549858073032  0.7506495766592975  0.4977799671857254
  0.3315584710486097  0.8379624290470312  0.4993181734563287
  0.1678164722139715  0.5814738408381492  0.9156485804277694
  0.4961007615361678  0.8395583221749635  0.8318726567136842
  0.9256296224548527  0.4154312314978090  0.3326401304468073
  0.9190867792545213  0.4141521331496654  0.6666985458990590
  0.5798661784807806  0.1684778454993867  0.0717299911264613
  0.9139015866238354  0.8335821848233310  0.7519027010319711
  0.6642160010950675  0.2495089321109117  0.7505109591217174
  0.9202511391757640  0.4153894396949716  0.9994483326674716
  0.1654947522526701  0.3343172449376189  0.3321014764113897
  0.9190935759127417  0.8320935555547949  0.4171235141107404
  0.8336625920982795  0.4165989673124950  0.2399947570077116
  0.9100283093908629  0.0046322555507017  0.0830815137285801
  0.0019314831514495  0.5001682442293507  0.5017084676492837
  0.0847471115082612  0.1684739435125675  0.4163342803109397
  0.9126355327029764  0.0940260730805103  0.6654757438597819
  0.1637917224254815  0.1680332323385734  0.6677165326199037
  0.2487456774685281  0.3343749582551325  0.7494157733544184
  0.7501872357896721  0.2587499572857914  0.9978328439392059
  0.0888235402773891  0.0081546336458712  0.0829652985252316
  0.1675290996740882  0.1692230154161056  0.9993044699162493
  0.9171815083758026  0.1703842777958464  0.2511043245725301
  0.6647142207498664  0.7494853303675184  0.5713543328768894
  0.7491827904721673  0.6712609803807772  0.5791278104526048
  0.9976696317142268  0.9171932257529037  0.0825569378028505
  0.0011757498206640  0.5808403478031836  0.2502812105834148
  0.7530186453953075  0.7468464479039725  0.6649669571943796
  0.7494200836894052  0.8359448084726503  0.0860975231311769
  0.7492597233710806  0.8345352484970658  0.2629818500533893
  0.9957611890811801  0.7464447796785519  0.9151358197798078
  0.6625214592764569  0.4971860719606491  0.3324190081039273
  0.8421512821262190  0.8342155380476253  0.9975808123243427
  0.8340496159856389  0.3267744740226872  0.3332377822367650
  0.7484553209187307  0.6581147062646324  0.0905212615646353
  0.0009646528174167  0.3330081834643062  0.3331363034878971
  0.6623930143890612  0.7507930978214953  0.7450387362005694
  0.6638070099537607  0.5795559941796903  0.5831330386803415
  0.2502364876662048  0.8322935285929671  0.2515827994289092
  0.7497392626101744  0.5799433055955973  0.6743849244848266
  0.7486755161032684  0.5795619406805763  0.4948508536905587
  0.5804839852886060  0.4146831467476193  0.1664368540792361
  0.9181136845755903  0.5817888828438927  0.6678270684692478
  0.4121455801511055  0.4994899851395417  0.9166801291160427
  0.6647210552398080  0.6580451596994131  0.8341137280102567
  0.9996434442618726  0.9215891705382625  0.7509320448528563
  0.0905090254714757  0.0857294669953651  0.6654783810885683
  0.7492436360720015  0.4172094851926055  0.9983049840737398
  0.8320169713911192  0.5046535246018530  0.3324103662908647
  0.8328184219744709  0.1703308986213640  0.8330733490027141
  0.9173395176178933  0.5790954162544516  0.9993479899847598
  0.8329895241340654  0.5795610460854298  0.2506076289009954
  0.7513779653604639  0.6617558356571875  0.9093474222951283
  0.7504291167717871  0.5685443997565874  0.9980612324597330
  0.7506210990128453  0.7486036778098600  0.5031718465695498
  0.0883756862538131  0.9152509989922500  0.1750393578055451
  0.0842629498854389  0.1693705465971712  0.2510407138378434
  0.7495344140325931  0.0058870058816404  0.7520989077417950
  0.9180674858836146  0.6617651988851737  0.7480156305224420
  0.8330265063619158  0.0036045479186241  0.4968275674752164
  0.0000243152621657  0.9184470175962866  0.2637653548318968
  0.8430120632723084  0.8340028659945287  0.1707020115475880
  0.8353132935824475  0.0865064131637636  0.0831100152807389
  0.6626499822150410  0.7479380246242644  0.9171803899974877
  0.6607462263327629  0.8387310798329420  0.9980582846155265
  0.6664162020856499  0.9206791260258563  0.7542357913124906
  0.0852790108837446  0.6560263384133663  0.9170652442179787
  0.6627252919251049  0.8391169733879641  0.8346086256187693
  0.0860844357642042  0.6624644885988729  0.7469285452714312
  0.7482515377473713  0.8383323214681738  0.4137862821206330
  0.7555444179607347  0.7482193341950552  0.8358963564358352
  0.6621900375826260  0.6575317580686061  0.0009385675748613
  0.7532351636136391  0.9241412026056383  0.1686100844654916
  0.0012125721038299  0.5810717827624237  0.5831172479014990
  0.8343319882625000  0.4133648533421254  0.5936181767050306
  0.9967398506704337  0.8315725060720436  0.1723937621986548
  0.3325343029603998  0.9161921426357428  0.0833691639001307
  0.0854460824377642  0.8323582464626603  0.4161210181738007
  0.6641109780890141  0.9187177954398213  0.5757730502641031
  0.0924977849464647  0.9169421057433249  0.6651754206064165
  0.0023721462481069  0.0917982220701206  0.6636631736945057
  0.7522734068783593  0.5811065949718739  0.5851796001854158
  0.6712671443364512  0.0845555810375482  0.3399083106393727
  0.6579938107327973  0.7479897713082202  0.0053634788513033
  0.4140072243450049  0.2506545612745773  0.9154172585249503
  0.5775999773240987  0.1744226583709705  0.1605583985863997
  0.7523475514653236  0.7459845329754310  0.0884978171061214
  0.9096456862439205  0.8269400236035572  0.6615916965598750
  0.0844857063525559  0.9211760147477484  0.9133039657684691
  0.5760480940638676  0.5812174323058078  0.5824591245093341
  0.4138000705093207  0.3335342776172267  0.6643653456342477
  0.0043402320990471  0.9154767339880341  0.6581487773795854
  0.8323759594977392  0.4149098655205449  0.5054331283052097
  0.4899958211874977  0.7494228530267356  0.8328881451878569
  0.0891584568859842  0.9171750392454773  0.0864150173447195
  0.6714017969810147  0.0855376301808575  0.1626702311551577
  0.7525588053487520  0.8397149826862355  0.9959933326592595
  0.6675870284450025  0.7482577534056860  0.8304399204544726
  0.7469816112050728  0.7482912755688260  0.4143925418114764
  0.0034647203859060  0.7446021388360953  0.1677873977072447
  0.0848747530609734  0.7436321822816578  0.9167548826778827
  0.7515277826848705  0.8364624871657838  0.1757775803556724
  0.7536140082091951  0.6562402224720734  0.9986095714904194
  0.5790521233836255  0.9961255178287822  0.1634045913917044
  0.8342685117754077  0.4153222590143215  0.3280667961458474
  0.0038077752788166  0.8297526202272114  0.7503398611525448
  0.7489816748442580  0.1700056004260004  0.9975350258837641
  0.9074995550289702  0.0062784983801005  0.6657625771480196
  0.3326335531733646  0.7497016632220718  0.5002123015928857
  0.4932038513765135  0.0847681912768768  0.3353800996376226
  0.3333073243384410  0.5823219025140483  0.3322538212068044
  0.9986582969418561  0.0087215212485618  0.0814639730803607
  0.9982407274740202  0.9204028246262687  0.1750501278634644
  0.6632170459462333  0.9230427202143705  0.6647815530424258
  0.6643244193791890  0.7488989169538557  0.6575330886484043
  0.7493037441097953  0.8346325409037154  0.7517540987796991
  0.1682075691639514  0.7475938098140897  0.7482050739659382
  0.7502026679768420  0.5780678356180382  0.8314516873419151
  0.0025685743316584  0.6641261959246806  0.6645914684863098
  0.6633832793629064  0.9199971637103297  0.9141987505300770
  0.5791115017034325  0.9996825135980779  0.0755512585218852
  0.6637950355949762  0.5777407170140805  0.9154441646784320
  0.0846328254785170  0.6637001297646432  0.4168090768248998
  0.6647145976577765  0.9165254421712921  0.2517935238956366
  0.9170034149661188  0.7405638975917568  0.6648629860112413
  0.0850696431028833  0.6626913816522169  0.2514126972961362
  0.6615887797391327  0.8347403610447214  0.3336563482262880
  0.6647734167638145  0.0014496411536036  0.4992469779924258
  0.4117923661372813  0.9993504767312743  0.2495880867657705
  0.8352235838904588  0.0032777611330833  0.9969418471482859
  0.6606246276427780  0.8339417816584955  0.1683877250867584
  0.9173338809731424  0.9176536114681624  0.3383593441945622
  0.7489930687110137  0.4973154326025813  0.0844084010137161
  0.7488098050113731  0.8343483230743856  0.5782218066721865
  0.1677849170901069  0.0862915930950308  0.2516531076811517
  0.6642185765755944  0.5793437519082357  0.7509368201779252
  0.6635782170787744  0.1683937712507902  0.8341984433877474
  0.0858385938816118  0.8321843965047926  0.2532610443282561
  0.8330041039675552  0.3343690861533870  0.8327007775122690
  0.6610530315988594  0.7483791526862837  0.2505159539262905
  0.7493603650600092  0.1708297810744600  0.9101807452691346
  0.9179926778293839  0.6621768021479627  0.2517218669601579
  0.2500111693337305  0.0018201812848757  0.0837141439573144
  0.0860651274115095  0.7471736068168997  0.6637142931509984
  0.5805628906020965  0.2542682192319069  0.9981884594768020
  0.8362223578234657  0.7469057175333673  0.2538254474086969
  0.1686144549287604  0.0023249221906959  0.1686608514464770
  0.0860986693401278  0.9176902179868083  0.0003026713293238
  0.6641178536144910  0.4166491237843127  0.0818731739357244
  0.6662404380114917  0.3354554317822058  0.1656092789462599
  0.9170819061903134  0.0043400656231624  0.9141246420722379
  0.9176311657589604  0.9194345198389369  0.9986023319047712
  0.9170540792705234  0.0886995701013825  0.9976625370792211
  0.0842049086032862  0.7476271723845920  0.0060221493534399
  0.8346325173133974  0.0868300742618275  0.2518257351295202
  0.4964038051127292  0.8352466093588374  0.6653936711517591
  0.6640303546419373  0.6598234811583796  0.6677171752251505
  0.8333644953773482  0.0028512026960559  0.3366025478468532
  0.8344423688687326  0.1714622070303973  0.3339987194804431
  0.0838137514603703  0.5813899910483364  0.8319186303272295
  0.8325649674052409  0.0882881178706494  0.5805624747956381
  0.0011576455996048  0.0855812865552348  0.5748723234248186
  0.9167460200085431  0.0868679400093991  0.4974526616442874
  0.9141403416628787  0.0036126735572371  0.7540996658027513
  0.9166701919168083  0.0883791702313235  0.8329132275077540
  0.0013426048864050  0.4160062243533796  0.9159314390115074
  0.0839457080867621  0.2518113724514877  0.8331970975008801
  0.8320859690361088  0.0892874601723722  0.7508700110666023
  0.8335339749168812  0.0871467476401036  0.9143973537992154
  0.7481360083299481  0.4135592798580927  0.6682603724368906
  0.6631148616918413  0.5807345307616033  0.4145543524312503
  0.0022251283334078  0.9179409978699210  0.4160380127121448
  0.7476078959522894  0.4982678225141678  0.2494648606091476
  0.7492211721637823  0.3350067799862874  0.0823835761451028
  0.0019677687582305  0.8315582042727705  0.3364725914506926
  0.7485140558583947  0.3324616550023868  0.7495425613218495
  0.7474257637417363  0.1691364501468634  0.7504712598137867
  0.0007562192135280  0.0873348700833995  0.7537980569226488
  0.8370399663414954  0.1706273246602577  0.9989002602590594
  0.8341532879605662  0.0870937451766872  0.4176300145290887
  0.6625881388928407  0.8344471532221710  0.4981271316230418
  0.1677606879369634  0.7488552228895876  0.2520653651172151
  0.0845622043461358  0.8284316497629269  0.0851995085929869
  0.2492663827821818  0.7475616055498385  0.0009179492107666
  0.8324674654523279  0.0042921326023440  0.8332299519537970
  0.6634732751924861  0.0840460441586834  0.9162700137099105
  0.0850433838584450  0.6631437171489200  0.0841368975401443
  0.9159549002302734  0.0882509188595700  0.1687842705050032
  0.1692284506365446  0.0029985321370199  0.9999382953369249
  0.2484380005988739  0.4163259725699237  0.1670656799404560
  0.6641956398283783  0.4151032828206797  0.7507046060453922
  0.9170537952930590  0.7466275509364209  0.8316894273688393
  0.6648714947562205  0.3344487695463408  0.8334158675945157
  0.9147389012162157  0.0024232051030161  0.5749884994568784
  0.9186709207650321  0.7477453662637005  0.4972359048962460
  0.7494270172872776  0.4154083963061234  0.8325031877323491
  0.1662274357661557  0.8325644141114195  0.4986466174584946
  0.6626538261103633  0.5780951589350630  0.0844141915526178
  0.6630783218763462  0.4969423665172997  0.9992537615206286
  0.7478463917999753  0.3324223969250196  0.4159212529091127
  0.7486393353874102  0.3337142073292925  0.2496525753680091
  0.7476601663271524  0.5785560192603447  0.1686645393578367
  0.5805919386260732  0.4157910028913500  0.3331525419932749
  0.0029587895335193  0.8312126478958533  0.4974262137168898
  0.6634868637407145  0.4160736930830604  0.2499690174664466
  0.8331077398640486  0.6622361274328149  0.1699426706622789
  0.6636096250542465  0.4973256705155732  0.4981565674583813
  0.9219208529993842  0.4155237402038623  0.5000760123318978
  0.0852522590663101  0.7476380133915804  0.4989543807607567
  0.0848238920127452  0.7480976789928715  0.3351461784062030
  0.5805761056822724  0.0031397237711679  0.7496852789566913
  0.5788777609606723  0.9196648328532200  0.8320287795517051
  0.4961133925247497  0.0017972617010449  0.8329556438842335
  0.1670071344382861  0.1687417787696184  0.3333827810565276
  0.1676317160361560  0.1689068232882172  0.1671308592605838
  0.0849326725853136  0.0015399590032183  0.4154490367894225
  0.4962332606111510  0.5801853170541469  0.7493621772749619
  0.5804193562173553  0.4975996219984895  0.7496605912461179
  0.2446112522490590  0.5815180909202330  0.3329871982070146
  0.2482463705107001  0.4165237987375183  0.3336842405613686
  0.4116851259223248  0.6642075888920228  0.9173441945699222
  0.4958820304459348  0.5805623691196026  0.9170409179456893
  0.5794958403449031  0.5797667644095795  0.8330929565646294
  0.4952041766477813  0.6629581610400668  0.0005955360878601
  0.4966969794275969  0.6658140908327669  0.1667071825830953
  0.4127256472326266  0.8322524429730986  0.0830317961107287
  0.5814263925911350  0.3321113675645329  0.7515151473835243
  0.0859295793948662  0.7466015836867138  0.8274409971685990
  0.1698239150795889  0.8321402761760440  0.8316728909082283
  0.6633122254872976  0.9170557077102787  0.4179154203061493
  0.7503644496031926  0.9201560426741245  0.8330735350714944
  0.6638881084648771  0.4966491735226498  0.6683534830046415
  0.8338856734581954  0.4145937482779724  0.7485525143358398
  0.6651546403685922  0.4972682315208535  0.8326996806848465
  0.9995524659202685  0.0051159093638748  0.9937027422805085
  0.0859390140570056  0.8320629006360707  0.5800266673318667
  0.8362601310027884  0.4956477951223220  0.0002447128939917
  0.6639680105028650  0.3321458276609490  0.5000460781258527
  0.0864989989049861  0.9168312642422181  0.8255882444363615
  0.6640175075082897  0.4138452901085845  0.5840534786411387
  0.9192143402458781  0.3330323963783411  0.2481613010942395
  0.7470528605176491  0.3314893186315029  0.5846349994251351
  0.6638446324906019  0.1669607440547845  0.6664430623054238
  0.6634558726829729  0.4151409976038874  0.4157584110533583
  0.6630486991249285  0.3324291505053785  0.6682203454100518
  0.7448976756849607  0.4158003371694735  0.3326973075110317
  0.6650707523070176  0.1701958141763759  0.4997052852567200
  0.6640559051375426  0.2496097007777457  0.5838774501194103
  0.5777423602232235  0.6620447526363884  0.0845072238085575
  0.0001898109463835  0.6620473256390769  0.0008516518629100
  0.9157033627696552  0.0040875501508445  0.2542171804077932
  0.7487407247249358  0.9180864734490687  0.4972298011629983
  0.0018160788417698  0.7484176730091143  0.4162949461565765
  0.0017230905463012  0.6640197290496527  0.3343387639645689
  0.9986327714858370  0.8334461468894336  0.9998157169726682
  0.6648654796992274  0.8359138139767365  0.6640478774287957
  0.0859094376440612  0.0031674144643593  0.2525259197993587
  0.6621944291854835  0.5795739378930453  0.2503988544894812
  0.7469516415325302  0.6615890434079601  0.2508494312026912
  0.6620250705187709  0.6645550713021077  0.3324864978007542
  0.8355329292291497  0.6642845616490934  0.4985731009378073
  0.6622549607883357  0.6639746293761266  0.4971463413612092
  0.9171552252851780  0.8323659758243911  0.2570260156762855
  0.2489305370967648  0.3342957089306179  0.2500871211682242
  0.4974135008594863  0.4972036612828476  0.1662062549279478
  0.0854356332772058  0.0869547222061864  0.1693315828042089
  0.0837392529148910  0.1687060906916175  0.9153994430779888
  0.0852452312452233  0.0879523567565456  0.9985521218532314
  0.8338894758494346  0.6621946150435131  0.3327289343887758
  0.5789473761491982  0.0001253012861826  0.9159993484523660
  0.0013262522172323  0.4995422682949511  0.3327058755290814
  0.7478134169893955  0.2516150610812520  0.4996694230609068
  0.9188314751668972  0.4978826994349885  0.5842342736307400
  0.0831448970130060  0.4988390602420810  0.4166351108507987
  0.0013097206910591  0.3348824401568083  0.8328384387829004
  0.0854842848886988  0.5804782362624521  0.1671584683264054
  0.9168395062979292  0.1706474814927408  0.9156418845519529
  0.8324514282477856  0.2510627001746119  0.7507174937867638
  0.8347931163938617  0.2524922013774363  0.2494022937779028
  0.0841221832059629  0.2501626531037489  0.1675061313123390
  0.0831292023839530  0.4979291887453670  0.7483447849388650
  0.1661676278064561  0.4984631673985652  0.6657203453522631
  0.7491106274570478  0.2518039760100203  0.3337782699707221
  0.9174124269030355  0.1700443976869764  0.4165078958070023
  0.0015703236624673  0.5810321112790123  0.7489300295585015
  0.8323117640891549  0.1708445850256172  0.4989885503279550
  0.8314082157829203  0.1707255027252846  0.6664865493187125
  0.0012718677241669  0.4988231167016935  0.6661762245531669
  0.9187165811685574  0.3313561536929807  0.5834976347187080
  0.0843301244860077  0.6643474380475033  0.5818265284689298
  0.9160715090013913  0.2511283583368873  0.6666110895238323
  0.7469576792316635  0.2493954660136053  0.6671425611450549
  0.0839245429862916  0.5821079694869827  0.5000912980179826
  0.7483683520360049  0.2521457652690431  0.8321740698430186
  0.0009043761372957  0.3334274982008600  0.9998328279101034
  0.8346535737807891  0.1712446079347203  0.1670587326527704
  0.9173095665989633  0.8341117616752529  0.0829944856534634
  0.5788940396876702  0.9169346830284691  0.3346708286250322
  0.8351284385157527  0.9187575555297737  0.2564975586892316
  0.2479918067269569  0.3338923244179651  0.5818815842393863
  0.4972096877166867  0.4162902839616798  0.0825976012504012
  0.6637290945891854  0.2541967688437714  0.9155419609981568
  0.5801575589357749  0.4975837317593613  0.2500617719692108
  0.5785044675247631  0.8333012222241761  0.2501165219004684
  0.5780156181342743  0.8347781053775508  0.0832923282117788
  0.4950166079722893  0.9152450370870380  0.2501810944361852
  0.4123814260005084  0.0002656980276003  0.4178011086078910
  0.5792877243391433  0.9185079925682543  0.4992669569336380