Cr  N Ni 
 1.0000000000000000
    21.1223178012212571    0.0000000000000000    0.0000000000000000
     0.0000000000000000   21.1223178012212571    0.0000000000000000
     0.0000000000000000    0.0000000000000000   21.1223178012212571
 Cr  N   Ni 
 259  35 605
Direct
  0.0003668733278046  0.9238084412402117  0.9148382871680333
  0.7501340699161890  0.7478594475990511  0.0002614262237270
  0.9093505480103875  0.9177746107639809  0.1674819467480295
  0.0001319619030993  0.1685515977166281  0.9996541856908731
  0.0011351793690248  0.0034971431926116  0.1738757861375537
  0.0839491518581599  0.0026040617783222  0.2533210294476728
  0.0015748956795908  0.4996158732382096  0.1646183126461487
  0.9194876487158978  0.6637659666741775  0.4159136323587915
  0.0010754641505685  0.2505059366385474  0.5820933969462014
  0.8325916661984969  0.3322295441513368  0.1651575743261255
  0.9957947648012409  0.1690569497541200  0.8312907272031786
  0.7492826126588329  0.3337003301709823  0.9160271273807166
  0.0834700300279328  0.3341378713211276  0.5823572323403400
  0.8342099968221329  0.4991619836014030  0.1660503115901897
  0.8346896648937664  0.7481000270463989  0.5821500912852426
  0.1666055550290317  0.0010328662469662  0.4970503585305060
  0.4193575318256569  0.7500972877180971  0.4986718922147725
  0.3310090697164149  0.8374927840207028  0.4998002859098442
  0.1680019229882543  0.5810561216145756  0.9162609771231317
  0.4957310379308704  0.8389722776180335  0.8324769360210890
  0.9239726125654664  0.4160953759744143  0.3309070018796078
  0.9180748509010324  0.4133400592680360  0.6665184587356762
  0.5815302831766820  0.1691089615916949  0.0743527762763305
  0.0000558834374868  0.8336285987954649  0.8314109958305713
  0.6649202692071139  0.2487851895819657  0.7507822381619995
  0.9188230470359477  0.4148304634056840  0.0010182994458410
  0.9999760510779763  0.4164156107534717  0.2479147215326344
  0.9183461224630419  0.8334037697417174  0.4166445663126515
  0.9201308817617087  0.3331523660628591  0.2486290780190427
  0.1745985632917676  0.7477703459313721  0.9157793091131390
  0.7486708461120952  0.6574750620589107  0.4168711221203400
  0.4136333399899409  0.8308451938616551  0.2511991184955470
  0.8397110622644345  0.5798349005775237  0.5825436939884939
  0.0002783412758069  0.0842750111970259  0.5749427879196423
  0.0011738466959568  0.8275741684616368  0.6570046647789565
  0.7507313923429182  0.3355307053553304  0.0818130465428370
  0.0004777739287701  0.5801540304891422  0.0851913401855230
  0.8330595744248416  0.4170182825882444  0.4177399728111088
  0.8356677137662426  0.5034333644054522  0.4990328153650981
  0.0011243446322121  0.7489960491187260  0.5807035610518995
  0.8350571202845967  0.5800203158632944  0.4164858471803776
  0.7495078447681427  0.7462532326209409  0.1785192927893366
  0.7507031595942225  0.7434854129877562  0.3276384728198118
  0.8417844956933176  0.6619847292392836  0.9993589600239211
  0.0832299343832958  0.4156642275193319  0.8339566464061334
  0.8269586355142575  0.6618870871253536  0.8318407182766056
  0.6662806665782647  0.2544715475713548  0.9159271328875482
  0.0845265016919097  0.2585308961465566  0.8329677018777375
  0.9180646609071477  0.3335629002108450  0.0826798580092980
  0.9095170476713874  0.8351363659663408  0.9162482821218528
  0.9116835814954113  0.8337854462476201  0.7485798031383770
  0.3316591297829827  0.6646055116377327  0.1671679249826562
  0.3320017152933230  0.4936077770690259  0.3309861659913653
  0.4988936871049608  0.6662140643854815  0.3325094115046477
  0.4962665335635425  0.5817909121849334  0.9164327443787645
  0.4033649201721335  0.7477124887461507  0.8325181036123828
  0.0835260434138749  0.1689666029564327  0.4156785047342267
  0.4199539591618273  0.0015395943988767  0.0819957574501134
  0.0832119163280429  0.3335661993928509  0.7494466529298308
  0.1669695703540940  0.8311937870121282  0.1683777034706362
  0.0001275677460197  0.1789708978182169  0.6651014119677842
  0.1648388415963712  0.5828491772590265  0.2500965732538572
  0.9128510399768673  0.0038019704991664  0.0840784092275465
  0.0019132270257794  0.4988041837270148  0.5001911230919602
  0.0833469630230100  0.2508369206599353  0.1674613519291313
  0.9104200439961655  0.0873663272007608  0.6649657359753628
  0.8361922804422024  0.9193017502187426  0.0849756324714151
  0.8331495890474135  0.0880644397258447  0.0818578265239096
  0.6624661065052386  0.7485182847074998  0.9262462318663262
  0.6607574189947589  0.8327629868096599  0.9991810787920523
  0.9202652308755712  0.6622706832938172  0.2503827482207471
  0.7511597586047903  0.6594344832274838  0.9111335326721094
  0.7510213845754871  0.0060972139320281  0.7487654119867639
  0.9194127567983770  0.6628793349116280  0.9197612508456532
  0.0851156667894046  0.6552251569947064  0.9171751655331343
  0.6623556193578696  0.8345694901439131  0.8333639818416130
  0.6654564876064798  0.9220511385530280  0.7487464230583319
  0.9176274481843090  0.6635558846997733  0.7431114083730204
  0.8338634968044204  0.0021530527054594  0.4980617699767546
  0.0026000689787894  0.9177723980723094  0.2584095196091281
  0.0840541957601473  0.1687398999182958  0.2500824273068412
  0.9174571648282158  0.0865655837509379  0.3353403671144299
  0.6658236789154562  0.9178229968556599  0.5731684939163348
  0.0840238952607674  0.8322037407713557  0.4165227291480770
  0.3272300341624262  0.9116648874118320  0.0830492919844642
  0.0015362979232877  0.8239727016007260  0.1695186649756101
  0.8337548162236912  0.4143119049703494  0.5937069789063695
  0.9997439762538924  0.9192806159808600  0.5718651433909506
  0.7527250217164502  0.9189063837024488  0.1660900692674226
  0.6604033488882041  0.6608527205574553  0.0001376239527392
  0.7580543557655767  0.7481457519985811  0.8343395621496936
  0.7496889317412188  0.8362975488252281  0.4184645571851811
  0.0854329883183297  0.6625199768926490  0.7462123673543039
  0.0012479681455687  0.6667968010679703  0.5001248367485160
  0.7518731963746179  0.7485705137320267  0.5046682594560827
  0.7492536219804096  0.5684407938213658  0.9990218026721204
  0.7493269036628843  0.8341261715776915  0.2411554577922627
  0.7506437395795144  0.8368091313329168  0.0921504130900816
  0.1673196600339781  0.0843260328450223  0.5812210830652523
  0.2488145159829297  0.3360115355455942  0.7478521858258028
  0.7498693484517277  0.2540786570948017  0.9969395276494066
  0.0923578000290930  0.0020234880909168  0.0840302369960219
  0.1667099636860720  0.1688198761601268  0.0003375612573949
  0.9985595574113221  0.7460185513880856  0.9157385681945523
  0.6633552131052057  0.4988383358669771  0.3315114868319667
  0.8325810860317032  0.5051987468206176  0.3324324037641941
  0.8322779879214448  0.1693440385678349  0.8339181553548541
  0.6644995041404980  0.7494564013267248  0.5742915018071463
  0.7495004726195841  0.6719274434347500  0.5810817560829535
  0.0001378117760987  0.9165560038343793  0.0817989272926891
  0.0013285866596314  0.5818251136134936  0.2498515301771161
  0.7539963926849707  0.7494919190401992  0.6635766339541226
  0.8397685539681542  0.8342214120822506  0.0009643452507491
  0.7481132421225125  0.6590649821564900  0.0897428955568029
  0.0019275896477896  0.2500348671608076  0.4155540376160489
  0.6641819678850891  0.7517191810885069  0.7490277841677814
  0.6637352521813068  0.5798821189889000  0.5827669332169183
  0.1656329134605987  0.9160561492363662  0.2543831979851605
  0.7494738649115562  0.5794376421600796  0.6727278155472456
  0.7492773404692903  0.5797669720265270  0.4948509904474200
  0.5806551554421417  0.4158091009535758  0.1668586017570887
  0.4152984015684362  0.4178075799803301  0.8342578443338197
  0.9992045755699294  0.9232331305000820  0.7503228049674525
  0.9191015493293226  0.5804768056898385  0.6676741817835288
  0.7502610440917832  0.4177897789289368  0.9993983537444239
  0.6666097328588283  0.6570869183510746  0.8345468229725099
  0.8347122826859605  0.3288470109069018  0.3320557556283222
  0.0904906660922005  0.0838981356163156  0.6638426102475955
  0.5821277902870959  0.6617240773849493  0.0837204070827620
  0.9995342653301176  0.0025666117531632  0.6630256991631898
  0.1655039287569972  0.5806932204919184  0.5833292723915088
  0.7429096400116810  0.4144259782251417  0.4984362692023900
  0.7605191714843650  0.0888268206417234  0.1666864681904702
  0.6647047628765671  0.9170875725149622  0.4195408087195986
  0.5741965620137248  0.9196592571382113  0.6651747793936948
  0.2495356561403281  0.2529474933038674  0.1662590108055202
  0.2467405231639074  0.0850294370967149  0.1673857476212046
  0.8310110318504700  0.3324340174556866  0.6658229568962287
  0.7499719712161276  0.1699785494990357  0.5817771153529361
  0.1664831621141841  0.0856755969686126  0.0839472398204365
  0.8337836193063460  0.2526131681052728  0.4158835886480634
  0.6660288545403292  0.0859264347383294  0.7494014369681893
  0.6674007332788494  0.0129872226753943  0.6671984509290431
  0.6681026741451382  0.0855128974259498  0.2508359116660988
  0.4901821130270507  0.0016390578651702  0.1675175076388525
  0.8333354582193462  0.3257243151283743  0.4996938048258865
  0.3307599767331076  0.3338687357972386  0.4985098866798073
  0.5806128141528837  0.4135858174178109  0.6671715480346682
  0.7531320376317754  0.9247109019337810  0.0004033515627262
  0.2475524619097473  0.1681302324714735  0.4161488608247829
  0.4899201349599063  0.5805355811275685  0.5827171618599212
  0.5770917280326194  0.9106230931726029  0.1662290626240418
  0.3318776923536789  0.1680328120556069  0.6649208530977230
  0.5041128304228446  0.9142887740006268  0.0812891157943046
  0.0833862408526841  0.0810762048273919  0.8316181754511380
  0.4136468423549791  0.4217509601837768  0.6669036945659124
  0.2501618351981709  0.0014905524523919  0.7474713172404942
  0.2474628138064086  0.5003107154226257  0.9172225419470467
  0.1656261227774397  0.0003327347985685  0.3321097330591483
  0.5811678958742448  0.4135635496687207  0.4979628728748609
  0.3304365469847047  0.0025131044795969  0.6677613521500161
  0.4061758017102588  0.0865037430872027  0.3323403333761264
  0.6651577190146845  0.0868922842864883  0.0738425375222980
  0.5805609319294482  0.7488389130222352  0.8339013931287989
  0.4958652141547422  0.7493980885996058  0.7438444766383291
  0.2432441335980156  0.2509680910422326  0.8327622583330901
  0.3304334278347481  0.1628152435453117  0.8334389139212254
  0.5751622325982078  0.7503477681511760  0.6675400402987862
  0.4964105747050024  0.6576899715166878  0.8326593245654746
  0.5795657324005953  0.0020398202171085  0.0758599404538514
  0.5794726120737236  0.7466279471496957  0.9993240427022971
  0.4134010791607656  0.8242864451352118  0.0833817663338251
  0.6632901215069772  0.5798612784290036  0.2500985704017507
  0.5790126285534716  0.7461058751152698  0.1653360003225154
  0.3313607625874045  0.2526613237494236  0.0823012867863338
  0.3318312823440467  0.6602990803997394  0.4987839047197737
  0.4963463526279837  0.9094963442231220  0.4162971221788348
  0.0836203800834592  0.4169187963833263  0.0002597502795765
  0.5800094355989570  0.5813373892492562  0.4935165544927035
  0.3300388052104396  0.9998895723226469  0.4997180954149510
  0.7540422047678402  0.9221458955655869  0.8321498111834064
  0.6691486253669386  0.1772030556118539  0.1660049745343752
  0.6669718231402270  0.2544689620860406  0.2497717118897198
  0.5807837617479961  0.5814119592694573  0.6705064886672824
  0.5784913722879156  0.4964103196391625  0.0850069183813693
  0.1676262979904614  0.7488122691025784  0.5820055372426090
  0.5823968206893515  0.0859290799158875  0.3328366650352433
  0.3302440801690889  0.8344855591345597  0.6666898546088320
  0.2487733344183626  0.4987932647703823  0.7488932149697738
  0.6692015468814986  0.9978953117415641  0.1668966087457621
  0.3313478308363240  0.4164070902098000  0.2503468449276000
  0.4131337444688019  0.2542754664778739  0.1658059204785264
  0.4124969983457105  0.1686713685362579  0.5829257624486112
  0.5816091293610777  0.1689276135808443  0.5826467046443887
  0.5809366941555739  0.3367089976168918  0.0826889885095394
  0.9145580895982340  0.0034674305849395  0.7496148224754683
  0.1640111952586561  0.3333437494173684  0.3324930290622841
  0.1669706791474432  0.2520888385547728  0.5820486926220982
  0.4959200892488988  0.1748238816119992  0.3328276867203537
  0.5819619144412134  0.1692900820195171  0.9158021462499570
  0.3327249030748827  0.2511583703348005  0.9241419086272963
  0.5821405895026037  0.1667821641235087  0.7510817812468403
  0.4139153798776360  0.0016371877277533  0.9138852986755318
  0.4976023980778145  0.0858159056637048  0.7493722640609028
  0.4161227370270332  0.3366821134874745  0.7573882037146472
  0.4149154585323363  0.4979149874066278  0.0837668837629199
  0.5798619476124132  0.2638112957398521  0.1662767731047048
  0.0901904893459789  0.8327189912322495  0.7494147739350280
  0.3318713591309503  0.3386116154031389  0.8325018367821638
  0.0833624238333330  0.5821862788096278  0.1666091254518301
  0.4968825222317066  0.0865033607983899  0.4246294571566399
  0.4983362447244606  0.9951546014045055  0.3322557723434229
  0.3314293176536379  0.6706909662020832  0.3320748966692453
  0.6651312344403136  0.9930112047898347  0.3335050021631323
  0.4989932482969970  0.3338588490245366  0.8337637814361978
  0.4964802146122769  0.0016137706677627  0.5085758564826078
  0.7534565723835086  0.9204677972804310  0.6655410926743404
  0.1646844764597217  0.4985188159646813  0.3325855975232682
  0.7506426536208096  0.0870993312329432  0.9986837880314683
  0.7496285341404907  0.4957034603472442  0.9152827877136950
  0.4888715685973588  0.1710736031974754  0.1665687565664166
  0.4961057854303157  0.7459207998663595  0.9227140666030796
  0.1647948186444096  0.4981248089167081  0.5000108148238060
  0.4989632815132785  0.4978716072389920  0.3323180300752432
  0.3310351304538469  0.6632324422275157  0.8323695969074009
  0.7488116508648252  0.4120184782136791  0.6679253637786029
  0.0835195871353762  0.4978527640261224  0.7490258209539474
  0.5808556236178150  0.0870760910297163  0.1662504106725415
  0.3314636013009659  0.8332899416123731  0.8312354963888213
  0.7583205918983822  0.0860194465989271  0.3343660820492276
  0.4147049530978883  0.3350576883585249  0.4163718973844048
  0.2496288661272795  0.4165876854611542  0.6649186849107553
  0.4148844210873847  0.2435769465978028  0.6652709007180225
  0.3262118983840812  0.3340037371643381  0.6654006852520700
  0.3315843655810191  0.3340097767110682  0.1645954076807107
  0.3313944697297608  0.6633409063164712  0.0023253494929020
  0.6651012574214074  0.0861622575956372  0.4248611174554243
  0.0007772765947534  0.0944865982438322  0.0831918278649009
  0.0891384490651783  0.8334930460881532  0.9170457023706887
  0.2496572144117727  0.0014270158110837  0.9146790959761339
  0.5805781002722042  0.4160674484585369  0.8346481556588006
  0.4980017774020744  0.4165968097109789  0.0823160414818005
  0.6648999557961676  0.2521777475258433  0.4163272542195853
  0.5052930268370478  0.3332078500834473  0.6671046861680963
  0.2479247962920411  0.4993093447319008  0.0838173620811360
  0.6589395670982426  0.8343306513009109  0.3334335488384035
  0.1671941640421906  0.8335261672296016  0.0005441730489840
  0.4120458031216403  0.1714956824815276  0.2494467112471285
  0.9997901658483048  0.0021950776059283  0.4980793143720483
  0.2422767720465182  0.7487454423877431  0.4988336915597166
  0.4154655286401094  0.4982434279201186  0.7494255892925981
  0.2413763310507892  0.0021373075440160  0.0847098283694819
  0.3287951448696724  0.0888395416667570  0.0848391150288620
  0.3326908430551170  0.5816469564461463  0.5815614385311662
  0.0004082302310093  0.7478579973340069  0.0854152016178584
  0.3320226808980539  0.5816284467039398  0.4209272354837583
  0.2471700489494165  0.4171146952077119  0.4982162080259601
  0.3325996218655976  0.5816462416331798  0.2439632334558846
  0.2508328258168248  0.8330272749038672  0.7467498756133458
  0.0875282561793526  0.7431323785334798  0.9171987359508317
  0.7491813478840822  0.8344390520270487  0.3289536471623313
  0.7514879255735094  0.6567633295665113  0.0003268241505948
  0.5787130389481149  0.9975928169625048  0.1647345167913759
  0.3315612303678791  0.2494820918423657  0.8368624107566938
  0.8335534290862051  0.4171570220021403  0.3300449836711710
  0.0009730891500611  0.8300506453544545  0.7446582237522252
  0.6646746613350805  0.7493017090796344  0.6612948678038437
  0.6654771367616857  0.9219194329920855  0.8361499573614493
  0.3311206317166201  0.7493257426811512  0.5000801159620588
  0.4938223620858043  0.0861150839623381  0.3338823871282265
  0.3314646994337248  0.5828624297961008  0.3325329445522943
  0.0030650694239834  0.0065975352045040  0.0817894465748567
  0.9988199023179530  0.9127151017399732  0.1705995380644242
  0.6636789538441689  0.9239386580427628  0.6596595604176697
  0.7490361305848460  0.7460436909789501  0.4166100076464490
  0.9982080521377299  0.8360297949483746  0.9209373163315037
  0.7500164869716226  0.8378158798097258  0.9999092486300966
  0.4953785426509197  0.9968203794273172  0.4217624618983174
  0.0004828686497753  0.0916047128197122  0.6647091810043241
  0.7516191904329506  0.7472606678704717  0.0916706087120770
  0.6712290739648552  0.0844235949096463  0.3386313223714975
  0.4162912116354504  0.9116778740138333  0.0817762678837128
  0.3296305075490379  0.0012302292134044  0.0837486332312857
  0.5778908752969246  0.1769947799710140  0.1635513717024256
  0.7523198501246540  0.5817682831520931  0.5844774501843899
  0.6730143550498552  0.0873891361369175  0.1615113889520656
  0.6698756966918318  0.7451904920801484  0.8374877993190351
  0.9158358365647230  0.6618710192400334  0.8314639842604584
  0.5760447937748951  0.5814093641446818  0.5820639563288424
  0.4159488673060714  0.3332392596619178  0.6661759582925750
  0.0001677663180206  0.9158330022852287  0.6594339838885896
  0.0843642985033177  0.1700828533971495  0.8327537950542033
  0.8334287974176112  0.4140214922562749  0.5061503051771628
  0.4918092243048374  0.7484287148044689  0.8334382328396801
  0.4998746961388884  0.2493792755552876  0.7505891874293139
  0.3297626580969182  0.0003513057272932  0.3322881235601083
  0.3297643681695692  0.0852744239143794  0.4169058176580958
  0.4982739197155071  0.8319552269851510  0.3320217617468909
  0.4124781210277768  0.1682079266355706  0.4168873944573782
  0.2493611663333308  0.0005055157924887  0.4162807034987804
  0.4115497040833330  0.0851037071439878  0.5010802752764012
  0.2490042047525285  0.0004060897954112  0.5819121341095014
  0.3312641227985653  0.0012511727681917  0.8318802677126593
  0.4136882261421581  0.0859653993696481  0.6653187525148999
  0.3303055331535688  0.0010634722189271  0.9942076421435286
  0.3306273501879254  0.9999810055954466  0.1720696455640384
  0.3300552632738473  0.0837836915688312  0.5826644136539457
  0.4120388935914395  0.0012804463033771  0.5832135198985569
  0.3315173063725773  0.0845331630602686  0.7486516590948080
  0.2497246820070970  0.8324676551933949  0.9157494097315260
  0.2479657107480628  0.3344580907715751  0.0828501427218502
  0.3305047837243680  0.1704747854841870  0.1663766711832753
  0.3308413057245397  0.2520710933607336  0.4161412940208022
  0.4989181542956354  0.2501755917770927  0.5821674623774354
  0.2479116433739764  0.1682347650698359  0.9190132660308726
  0.4140726006957897  0.4154854480009795  0.4976048656965989
  0.2493624531264625  0.9176482536236404  0.6654867669669953
  0.4986203121129467  0.4147526537954460  0.5819874941324039
  0.2485321375276373  0.7484097461480529  0.6652997452362367
  0.3308926952402457  0.4991615565243017  0.8328777282780977
  0.1677058184402312  0.8326301188256848  0.6652588688793558
  0.3305360207175729  0.8311604844752319  0.1681239677522304
  0.4153313097959283  0.2513907824670328  0.9997191652901857
  0.0834285024288021  0.9160251726366451  0.3358939035514303
  0.3302423735944981  0.2534805808692117  0.2496370971387075
  0.2487735233359312  0.4178173161647675  0.8325217851585669
  0.2495484946243280  0.9173375795008459  0.8314699495564464
  0.4134808449218331  0.1693615451468060  0.0826742465942958
  0.4952532741346319  0.0860523144118085  0.2457744902843779
  0.1653178347830916  0.8322813625433888  0.3341343068065399
  0.4135781186431222  0.5813577756308436  0.0010847380654384
  0.2485479166322839  0.8308732534308139  0.0844849705593517
  0.1681070958556642  0.9170147465612196  0.9150669629848902
  0.4158213430563428  0.4980503184379910  0.2494319613389707
  0.4144387140927577  0.1675287262141404  0.9173484951839882
  0.3308079404511530  0.2502060609008053  0.7477348961620685
  0.3316661619807617  0.3353168310262123  0.0000777017101903
  0.4143613029761857  0.0844715237940464  0.9983017632827442
  0.2486345052983542  0.8343379280750610  0.5824454426833472
  0.1662871216785423  0.2530302755713157  0.9174044221864882
  0.3310990770732561  0.4995259545598316  0.0007925117337578
  0.4144175971646860  0.3356271572944725  0.0812856669478181
  0.1675444309259613  0.9178800971448592  0.5803761721880614
  0.3314376667320245  0.4174155293568503  0.0832140467569526
  0.2484366110020836  0.9157326354632468  0.3334875957033303
  0.4132237949691494  0.3348578347371052  0.2506303390941664
  0.1669234770576894  0.9172431979274093  0.4155139995891714
  0.3310937846434003  0.3352339764331856  0.3335090187416986
  0.4125372417026230  0.5812119857088407  0.8332887756583568
  0.4136278697838526  0.6652398717057564  0.0835662687525953
  0.3306110951301405  0.7476341772038358  0.0842681174294366
  0.3314948158618194  0.5814962657341249  0.0847140739502955
  0.3310447792391311  0.7485560838506868  0.7469922989076789
  0.4123641201599262  0.7470312748585064  0.9995395915614930
  0.4154487571585772  0.7482201066958183  0.3324832667484151
  0.2471278642078819  0.9150570641641856  0.1688350907880333
  0.3310864445115249  0.4167203425172903  0.4158214773814417
  0.4154970721758316  0.4166973761323847  0.3333153779019922
  0.4145815345173960  0.3331263766304391  0.5777712756503699
  0.3308521997623601  0.9174459000651259  0.5834889013465496
  0.4147583049823733  0.5001098058475398  0.9167101988325359
  0.4154105443109501  0.3351354272758945  0.9168563203280029
  0.4971913208578323  0.4989038412223110  0.0005531402962037
  0.2476949673652502  0.8317196216118844  0.2508199047357215
  0.2486062538068964  0.9156843973051513  0.9986216344969243
  0.3313736485291338  0.4981303603622003  0.1669294728898273
  0.4150638241409685  0.5817341947547404  0.1663818028621432
  0.2477768459637069  0.2526108731232986  0.3337030228676720
  0.0045208106123412  0.6623166197316903  0.8311058044373282
  0.4971584349035610  0.8291891358992988  0.1663576869737124
  0.4141704003173112  0.8327421243717197  0.4156948200927277
  0.3306012010758087  0.9156879433325894  0.4162205110890030
  0.2487782732328932  0.9176406208191635  0.4988741065471463
  0.2499799351292852  0.6633773777407930  0.9173233744921054
  0.4127260450862270  0.9167021915024771  0.5009598040118466
  0.1645646369708518  0.6655017861213730  0.3324844084560575
  0.3293085117155611  0.7474746445722139  0.9171991042527270
  0.4165635272257978  0.6654042071148779  0.4156254028642563
  0.3314759943069960  0.4990188545049646  0.4993949430133203
  0.1680700427064383  0.6630793462315890  0.8312237312407882
  0.4145271803667185  0.4975671142687910  0.5811828900239290
  0.4157731398903928  0.5816183051838707  0.4978491056219387
  0.3309527500362893  0.4991412164871749  0.6655668381221589
  0.2488422217841782  0.5810680981282440  0.8329317800115121
  0.2502162571478278  0.6641483123317070  0.7482741355530971
  0.4137735412311685  0.5804832346616667  0.6662399143028622
  0.1672919487526580  0.6643647971983322  0.6652691993166225
  0.2482559524100844  0.8329675705220384  0.4160152204813757
  0.4980469092322019  0.4992115829064669  0.8330411809991469
  0.0821651477185848  0.4165211411293818  0.3323016283714630
  0.8354446965970292  0.7471777227632543  0.9185606512153499
  0.9192452817626845  0.7472548953245225  0.3341366220850279
  0.0015025433615402  0.5822195487235606  0.4172353789261779
  0.0003819792831104  0.7470786574289239  0.2516782809977635
  0.9183964707883210  0.2504985595066994  0.4984764063038408
  0.8321443486384658  0.7493355948365228  0.7472857401677756
  0.0831822672827864  0.4163191119973473  0.4988581901199107
  0.0831775498883428  0.4150665364564216  0.6660962032794319
  0.9178682286050199  0.6646366588592827  0.5831022575971050
  0.7493229500475442  0.6638988703126923  0.7486918893182336
  0.9174865632370256  0.5743704346993775  0.8322986596223977
  0.0011014168319656  0.4154686997868408  0.5834557994575438
  0.8338420954670585  0.6639975902920920  0.6672528711210177
  0.0015868246479252  0.3323264707434988  0.4990678700376307
  0.0009732998685149  0.5792071330350802  0.9168803109729704
  0.2486582002900224  0.6643872568789004  0.0847908014724115
  0.3307611732107803  0.4179234595057275  0.9164898071087872
  0.4135020385575344  0.9132523902594718  0.1712505098678439
  0.2487295046795097  0.5811279362679126  0.6652128218039302
  0.5817001320338300  0.9990589474670348  0.2540859700713899
  0.3309896271506809  0.5801368723709880  0.7492272635431031
  0.1666049802795284  0.5804658996960538  0.7484235126253567
  0.5813554567909628  0.2519423264243607  0.3346828220187185
  0.4158767353467184  0.4983386239663047  0.4159646533284759
  0.2481775571669536  0.6655035220674104  0.2491228159870416
  0.3303311754279382  0.8316398773464253  0.9993997581034376
  0.1660570413913386  0.7492352457544490  0.2502522498643250
  0.4125118117701498  0.2521255534698651  0.3339441266229590
  0.4976529529881306  0.7466740834114677  0.0826749168620929
  0.3296470626412837  0.2511078472939399  0.5810063550769949
  0.3304516065975843  0.9175564672211484  0.9143163943870484
  0.1685258526445228  0.9171990518237583  0.7488933977512428
  0.2476383839626757  0.7482781107630270  0.3325053111032993
  0.3305024084879441  0.9147694785493368  0.2512618105066862
  0.2490198853679068  0.1679221521347378  0.5817436621542990
  0.3313200076513282  0.1665071925908520  0.0003110589239179
  0.1728596441672874  0.1667883951996715  0.8335761241005107
  0.5806473476302861  0.8329579101937522  0.4178409807009003
  0.4132111914403889  0.9148760272827874  0.3327778157909912
  0.1671994770927935  0.7490304640346895  0.0847470203317774
  0.1674445252227929  0.6631611388969803  0.0010575726137184
  0.1660067415193442  0.4986913665684924  0.8325278165031814
  0.4143843031452262  0.0023790057480874  0.7485054934154887
  0.4123564279119138  0.8345568804059754  0.7480201293747170
  0.4127337009651177  0.9191672401010885  0.6662899777659032
  0.3314164095448783  0.9179498313864419  0.7491668509661968
  0.4134782794871137  0.9168557682272054  0.9928422624310977
  0.4124053833944120  0.8321299614496301  0.9159795577835843
  0.4128775198500907  0.9178814409546363  0.8322858293527859
  0.4965655786392077  0.0021514420672015  0.9971810831714574
  0.4968840861308889  0.0859984581874698  0.0805857723475961
  0.6642437960044499  0.9172847979625448  0.0828406031406623
  0.8338931853965176  0.0032687545765438  0.1684607299893909
  0.1656886269663473  0.2511361739659937  0.4155652480940760
  0.0843450393842577  0.9169699564469590  0.4974163905488354
  0.0005129231844851  0.0860751822530987  0.2517588476528357
  0.0007916771206417  0.0859749215735208  0.4163446921926961
  0.0001452254825446  0.0026593246538497  0.3346086650909050
  0.7511440355581260  0.0043935671775798  0.9166810890110410
  0.2481168711298881  0.6634776228677434  0.5820702985960449
  0.1659401912272136  0.4166475051342722  0.7494423824081118
  0.1665207685843267  0.3349152454751271  0.6655720714023244
  0.5002200688109478  0.4176493847381712  0.7506397047574157
  0.4993124721210344  0.2509295657821382  0.9166087093278111
  0.1656852164786573  0.3336343745014240  0.4989735173348214
  0.4141648607033069  0.4180696455119483  0.9995712241019518
  0.5810055393633782  0.4980687647754857  0.4158050339997940
  0.4981505610125961  0.4971990055199337  0.6660099732647118
  0.6660734148393453  0.0017760628849898  0.9990052540147003
  0.8335579631039638  0.3351731136642124  0.9997266055783139
  0.7517491401465349  0.0026016848908610  0.0823871810855363
  0.1662648015602006  0.2512663208361136  0.2498438956456425
  0.6657387188737924  0.1737735514711116  0.3338411609165902
  0.7523322841478167  0.0007188086264881  0.2505350263892653
  0.2488755615286332  0.2516845136658458  0.0008089677990296
  0.2479682212707515  0.0849039555631430  0.0000014325138009
  0.4123028414381529  0.0863625445830657  0.1665077003462901
  0.1658495090358986  0.2516535061088574  0.0834726089735488
  0.2484716880294858  0.1694579814793254  0.0835450763368810
  0.7507884206611916  0.0014098250530937  0.4181190888772627
  0.2494443705911113  0.0830012822337303  0.8327008807569172
  0.6669154796970167  0.0872640103501139  0.5813522169613639
  0.7511921317570973  0.0035756650581896  0.5809774954144897
  0.1675489085102272  0.0840077741736103  0.9163854133600472
  0.1675851457740376  0.0006124749515820  0.8320824269713432
  0.6657450856129685  0.0087330717197478  0.8337847617217747
  0.5802310656834981  0.8316711774239857  0.2495163520467280
  0.5810554404394151  0.8300653152769832  0.0825359699969282
  0.4966996248250926  0.9141636425991414  0.2501560112120968
  0.4072775290672919  0.0002023312669492  0.4168187181860579
  0.5797567687026952  0.9172532910616901  0.5003882065198666
  0.5785990823182406  0.8355389096685767  0.7485777350226573
  0.8383991903729989  0.8319682032045258  0.3331053929213809
  0.8347040788966411  0.9174385666975766  0.4161944677381631
  0.0831450074806291  0.3333864467371379  0.4156503185045931
  0.9166481371387419  0.0020520577896488  0.4165930651348945
  0.8346296222663787  0.8336989515227123  0.4985875678467239