 B Cr Ni 
 1.0000000000000000
    21.1200000000000010    0.0000000000000000    0.0000000000000000
     0.0000000000000000   21.1200000000000010    0.0000000000000000
     0.0000000000000000    0.0000000000000000   21.1200000000000010
 B   Cr  Ni 
  86 259 605
Direct
  0.4845323389880916  0.1634083627310163  0.4309044032155666
  0.7668858611496517  0.3951978831052524  0.9278727983241106
  0.4811898611119168  0.4931270630435126  0.0637435063797993
  0.5975756153924299  0.5826644506923271  0.0519741969326713
  0.4239120751289958  0.1732033026547778  0.1602302957848984
  0.4202664055388109  0.1441506311975859  0.9837574044371552
  0.3432479825862866  0.4846145927169734  0.7502298452152305
  0.5806883703683294  0.1738512673421562  0.8483097514399730
  0.2553384680201265  0.0977793745545791  0.7231912630128234
  0.0000488828407562  0.2698684387566891  0.8472016347352690
  0.0535026013401537  0.3193280783090156  0.8142405769033992
  0.3781959740367778  0.9911289008502185  0.6896240994046320
  0.3941051440506763  0.7678410226561088  0.9079408056570892
  0.5102927246010424  0.0633328403628151  0.7831520258020170
  0.3698413644363414  0.9197628667975012  0.1036252665250243
  0.2403815501954730  0.8403442669222687  0.6693557578973661
  0.8702214785773341  0.3655917266365044  0.8150880132794652
  0.3388091886369226  0.5828710661825701  0.1591106916533706
  0.2551100925930316  0.6402382097812591  0.0259204819160045
  0.2496117681641656  0.8296442969401345  0.9995798471963107
  0.7465808264665000  0.5007291905923120  0.1388763148714148
  0.5353570220764848  0.5087290892648305  0.7091423920115998
  0.3436410247969212  0.7111163720985797  0.8742375154813729
  0.2593440015811673  0.0831617347156543  0.5809396624463118
  0.2590686282098435  0.1601897593674764  0.9947366578872013
  0.3278470836748651  0.0194263169318758  0.9494628048515673
  0.5078587488107579  0.7845510437551495  0.8079466128768071
  0.4496186119952831  0.3510883383533910  0.0084794369987264
  0.2445140458286528  0.4125671114440481  0.7396771497989838
  0.3590379714588212  0.9070451672215185  0.8587267293441979
  0.3945922999289609  0.1446407107536453  0.8224536691130370
  0.4154804925695384  0.9550589519152014  0.8192351935143565
  0.5100319833777224  0.0733929429922273  0.6910153013310909
  0.3129479001527360  0.7798129810794984  0.0255752531837060
  0.2270976360484558  0.9898022149738136  0.8194453250982680
  0.6057967992928047  0.5839820058083451  0.9628412637557590
  0.2853527349021163  0.9188675888141474  0.1009504479550653
  0.5728336881028133  0.0777827361976943  0.0829709607145769
  0.6623228690726722  0.9873683757455604  0.7469785652122117
  0.4050475368764780  0.3190580652465915  0.5245758525848864
  0.1765727389506259  0.6683267757908710  0.8987465857929938
  0.5809042880629661  0.4081082378579320  0.9307112180479125
  0.2631672228155424  0.3291700055435381  0.8406243986967318
  0.3744524367936667  0.0044236582175206  0.7669050084703539
  0.3086184512811100  0.4330052720872495  0.6944722827047842
  0.5083813890979850  0.9815035484848877  0.9745897271197790
  0.3957483906417157  0.2269871100117463  0.0964002402426902
  0.5247205645990911  0.2136366526015001  0.7985018415586737
  0.8961678519526248  0.5773334398495737  0.0692404188470185
  0.0940086844207051  0.7584846217970365  0.9084129443397349
  0.4847686052776087  0.6759103085402918  0.0903340529626319
  0.4949728494614390  0.4289836920250235  0.5447314847999611
  0.5481888999374707  0.8370911243308400  0.0055687220218188
  0.4988598605762572  0.5649144616646512  0.6618064941422688
  0.4899591649006472  0.1723529646967471  0.9484114395199237
  0.3556435359845453  0.1868627276479393  0.7537148371770798
  0.7355863766837295  0.3364869342036669  0.6779533072396899
  0.6632127891527422  0.1854667804533658  0.7486134687917750
  0.6077290203035894  0.3298396850753942  0.5518368612932263
  0.3383916514840229  0.5034385057830034  0.0266609149396936
  0.1470997964774934  0.9234998360803028  0.9497651873021942
  0.1998790282262586  0.4161038677624683  0.9958723079938726
  0.0984278391146326  0.9274786165758387  0.7473415901890401
  0.3333282426153154  0.3617962186611794  0.0721480047806006
  0.3126837963756190  0.1710726924994345  0.9311361995540609
  0.2770050595781937  0.8908998324855304  0.7211407299215640
  0.5345976512135099  0.6995217353814891  0.9198060197962301
  0.7436656781434925  0.8174385907844526  0.9907944313098928
  0.8055921383385848  0.4317184443594870  0.9944205954327709
  0.4350519892778992  0.6771898005034657  0.0237008331444771
  0.3262530150317733  0.9307339046778411  0.6645489915383382
  0.3319968767096560  0.7440860250267032  0.6954726556230260
  0.3224761656703192  0.2450338325822122  0.6957672684263070
  0.3442239414998127  0.0980301616157189  0.3257774250499230
  0.2500337284732045  0.8070590378219337  0.8568501876008353
  0.5019332741249951  0.3095757855134539  0.0604756863614415
  0.6646950842481872  0.3496587231111348  0.0780459165455403
  0.4338375502537447  0.8270308613604930  0.6696963033268463
  0.4247685148070766  0.7335269039017431  0.0903746145942336
  0.5032895821241178  0.7448410046260944  0.1375828122955101
  0.4482254133462218  0.3118350092730283  0.9314544609813517
  0.4638152207896685  0.8430892439153230  0.0093928515526450
  0.2706091294968199  0.5620879371692084  0.9066498968466975
  0.4347452740878543  0.3756231808219805  0.7834939841394658
  0.5759915981543126  0.9183954111887311  0.6008512993035725
  0.4064626092460520  0.5763642206698663  0.9155921068683075
  0.7522675573890473  0.1663798066352280  0.2565946086490980
  0.5057195642358815  0.0809456926911720  0.5702928464666212
  0.4145410463670581  0.8344646796289654  0.2565887049067105
  0.3270816853991166  0.9856442919834396  0.1707271842211885
  0.5652113044324809  0.2284723636034769  0.0137858389031034
  0.4961437441662493  0.2605930040419111  0.2656210281587229
  0.5887830720617691  0.0783389156236091  0.3325898558294185
  0.5945865118047808  0.0772857650056317  0.1828321817773342
  0.5951692873033007  0.2487257483511797  0.4920257598040952
  0.5704366966379287  0.1396268485221809  0.7509280841330646
  0.4459421650381712  0.8596813029088973  0.8406721463491097
  0.4897246115510107  0.1409112932593327  0.8518512588416411
  0.4633234898405906  0.9871913115552784  0.7347145825169348
  0.4132411596867597  0.0118871845823571  0.1134861117882840
  0.4144050113187187  0.7496726723520706  0.4920180852389007
  0.3665962579638791  0.9040035475507751  0.7555292464130352
  0.4168455254432184  0.9733892406128538  0.9147158195177968
  0.5919522673281539  0.9778584761283381  0.9092351915343643
  0.6509051537301006  0.2234644862240773  0.9156996632712606
  0.5956633763046996  0.7543776459490047  0.8472204963769798
  0.4137883409963882  0.4157094293522853  0.3441566570306351
  0.4153231515297199  0.0003905204048262  0.4202297657472077
  0.5009075414121643  0.6662175374012347  0.4942771936245879
  0.4322466722532630  0.6733643525133790  0.9256062726924632
  0.3258804038983469  0.4988972833871405  0.4960874284139732
  0.3255057606445392  0.4221906331741119  0.5859506744037432
  0.4130760387115320  0.4984896133290171  0.4170048095582746
  0.1558749172958541  0.5724111631031887  0.9105251119705129
  0.3329221347045003  0.5858083718018761  0.7473737372817288
  0.5030398094618119  0.3933550385656330  0.8681867855437382
  0.0753089902464188  0.0856909572199941  0.4930527229815825
  0.4248716967736458  0.3761243736213142  0.5996311836135849
  0.3550754114908936  0.3175956672691991  0.9852691768396074
  0.4970808985429729  0.4947355300671215  0.1757191033647079
  0.5327829434835545  0.6509864328194976  0.0034118104688740
  0.5136024146685034  0.3167849681741728  0.8004296824422293
  0.4101216020154717  0.4170405883240418  0.4951195601589156
  0.5840829736964701  0.4161133222704985  0.3385571340943840
  0.6679600405431003  0.4177967058170599  0.4146030415162287
  0.5029855844595412  0.3279716468570028  0.5048984947880998
  0.5207487104057783  0.2475282287396124  0.8930894619228540
  0.4159724919279400  0.8312549865230083  0.4130716917963658
  0.2431798673837979  0.8318883806576870  0.5697660790361301
  0.5872914034625165  0.6651662479039715  0.5751658130349209
  0.2176607365517871  0.9860344222763026  0.9160260584937248
  0.2327136432087949  0.3522474410596352  0.0792679995504533
  0.3226833614787116  0.0001073247331655  0.8477386757965678
  0.4506144616975594  0.2693327336085329  0.5969514629466395
  0.3293279676666327  0.0818612757365547  0.4221123790339647
  0.3075460876632837  0.1866443240286544  0.3253942706933014
  0.3215072131042292  0.2619017555042222  0.2507827621820595
  0.2400290720544398  0.4989297508169481  0.2586636106439886
  0.4511411495812754  0.2451305817373221  0.0046035774721960
  0.3280568821551824  0.9958598997220981  0.4899250926800715
  0.1513156140258623  0.9196788078314037  0.8416515238826332
  0.2636101246632078  0.9010553308565362  0.8201306602086217
  0.2669097600863786  0.7941956949478632  0.7536101698423945
  0.1791424298190676  0.8684887884451631  0.7417638369947839
  0.0742157046985541  0.7479975321229725  0.6539338305659624
  0.4947351000900422  0.7837366358827186  0.9195621881431600
  0.4147351106299525  0.2337905044067635  0.4836792168301838
  0.6641056372192854  0.5849155429587617  0.2569594059826431
  0.2850881120643707  0.9931068005578897  0.7354076593317574
  0.0749186408413720  0.4180113802231602  0.3332531688095930
  0.3389276067641659  0.2581452740124536  0.5837878131991873
  0.1575515379415010  0.4178533768835017  0.4150042062840232
  0.2402933598685257  0.2550750890376534  0.4973118473048770
  0.0678781211232199  0.5019591955622260  0.9107396091259744
  0.8324527823132347  0.5878488949746135  0.7403314658752576
  0.1537533379287755  0.4200029537866236  0.5725221256685740
  0.1578736848430980  0.3391647642446131  0.1690633832416829
  0.5882106145281845  0.9146501074564887  0.4951710857126719
  0.0781331163320646  0.1698909705616701  0.2513423368829104
  0.7544100559165187  0.5081594817566100  0.7438243376764828
  0.0757305620823217  0.0009707902728554  0.4106870688031218
  0.2234614085007602  0.4835637849360984  0.0761715121036540
  0.9963791150737814  0.7466586992136574  0.2546697574088726
  0.2445642626820450  0.5811487679701161  0.3334049622839247
  0.0697029312443707  0.4195825429178104  0.8228593732975278
  0.0593221186304405  0.3315132218802707  0.9130639947519895
  0.2338069364332340  0.2598843300298721  0.3342997810945556
  0.4060237930653077  0.2150123679199726  0.9088518809277446
  0.5114431651284915  0.9058649792759497  0.0936892242988453
  0.9947024828393989  0.4179760055421228  0.4138828066121952
  0.8339860889688662  0.3346113715827417  0.4979536470138758
  0.9135929652067009  0.3357379323210005  0.5773760235205737
  0.3123623226551760  0.1441316577350191  0.6495991149078220
  0.7557180706136782  0.9960707264147961  0.2555262595098353
  0.8380912738183124  0.0838204346432018  0.7496430754093771
  0.3265468876410807  0.7543198392936027  0.2568986654487431
  0.4576062709809087  0.1375809320005374  0.7441928966936859
  0.4033296387355352  0.4232077105519576  0.6969252815385617
  0.5993968745143491  0.7440357466686470  0.9914753311950250
  0.8236501828845519  0.3318531664085204  0.9958079615306572
  0.8309213773757900  0.1625836678647137  0.6587186474652019
  0.3301844676246780  0.7543329194230906  0.1164970729285259
  0.9918077970642252  0.9168833604715082  0.2523133519559898
  0.9137478886138604  0.2521148665154292  0.4953555028458964
  0.9054230858292479  0.2496833424565477  0.0092482117545937
  0.8370297881634073  0.9983713679591804  0.6577403440391526
  0.7602340355559485  0.0812924283900923  0.8350318082627232
  0.7637370233762489  0.9989144140746326  0.7442048514298775
  0.8354536804355081  0.9982444787381136  0.4947234502405212
  0.9144450477826779  0.0830404162377498  0.4935465660268015
  0.8294464090327953  0.0826871585319127  0.0898884182484925
  0.9126674959084838  0.0000138327117405  0.2515731217797478
  0.6759135472720208  0.8326808046464845  0.8294002739320810
  0.8304488969698555  0.2473056190163562  0.0886031124100461
  0.6895397251186540  0.3429537454178255  0.8237850523004770
  0.8340102382861585  0.5075049945729342  0.6557372458781577
  0.9940146950790831  0.6634571709006497  0.3343553890163256
  0.1573486631701989  0.1709607891346344  0.1680083562969717
  0.2350904706425294  0.2588681986640217  0.0035880588023863
  0.9971366455922174  0.8321866264779220  0.0026857904932347
  0.0750596820557777  0.5012679558895642  0.2521976223084814
  0.9184498992791494  0.8336992479834532  0.7430719346028951
  0.0738562109999164  0.9171237892066821  0.3349790228688415
  0.0465450066094104  0.9260201738556376  0.8318709486687239
  0.2409002230621107  0.4176510632822977  0.3352608925245469
  0.9848668173550218  0.1717635296719659  0.8358601341977187
  0.1501396312075387  0.2435189774340526  0.7364573894890096
  0.9938890813873232  0.9146865560875743  0.0893726434641785
  0.9956735658498052  0.0872514072113783  0.2526283070149011
  0.0733572369124597  0.8331543172066094  0.7489011211093571
  0.1576982547687802  0.6643688170210252  0.1742005894260286
  0.0845320749701185  0.8530493333319445  0.9120396032390177
  0.9196641018131950  0.6698171472651470  0.0861351081926930
  0.3315311329521916  0.3846826994013892  0.7774415880584128
  0.2432735802165808  0.7495523466655730  0.3326573834254299
  0.9922027262842277  0.1640423471539773  0.0089774073795972
  0.8343961333779378  0.5903843991778327  0.9131591268294600
  0.4175429400285127  0.9959748591771586  0.2533415644277557
  0.5900055743137355  0.8276815108324865  0.5645127515425311
  0.6698441338144918  0.7484264414257468  0.4156405951909790
  0.7432736042506379  0.2404394440641485  0.8342262544377010
  0.6672293496433755  0.2460216508865903  0.0949783412577237
  0.7487583706921179  0.1640131673694152  0.0912871387646799
  0.8303021454755840  0.0835660955878828  0.9205390460272860
  0.7565954817460139  0.0755011320542270  0.6588126046368066
  0.7551203226735048  0.1643248238202469  0.5724015510565381
  0.5854891344951353  0.0857385377553382  0.4941556358452896
  0.6774667871758767  0.5959036745576222  0.7429947967414962
  0.8331345864531410  0.9987001974294236  0.3319311199961313
  0.6678009194639062  0.3307381828238274  0.1781088651205165
  0.5869735264883437  0.8310511194404931  0.2588939986351597
  0.5508812988245265  0.8617505556188287  0.8452738336108623
  0.4995555112501818  0.8275364419913608  0.4918449855446447
  0.4873963159765391  0.8818058041323644  0.7469181534646974
  0.5888669859418364  0.8218427642997236  0.7455719891170317
  0.6706255743969306  0.9140665444892805  0.4151080168278038
  0.5009077962807017  0.8331963657062914  0.3371554535068539
  0.7470513019767625  0.1635776229443701  0.9226211247713699
  0.6697718580472386  0.2500023953997792  0.4149661521697485
  0.7546442218478301  0.1659998537802495  0.4143475914033791
  0.6868149250920415  0.1561615855391729  0.6552289031412144
  0.7616652120067579  0.9970337643338577  0.9205837622577624
  0.3289752893828768  0.8459680147066796  0.1705998479881854
  0.8336334225033053  0.6694166562817572  0.6586092471099712
  0.6689371247593721  0.5824819634053553  0.4150391175589215
  0.5110473019686295  0.9727376268501676  0.8405561354917435
  0.6620677636720486  0.6546013364098950  0.0153113384956696
  0.1478664068443558  0.3387440797699841  0.8307116210778150
  0.7629107657419927  0.4986352093992064  0.9240877660015501
  0.2434685621598904  0.0862045638830777  0.3342263775035429
  0.8315437535051249  0.8306452953471881  0.3310778347980574
  0.7583324134756200  0.1616227455283125  0.7468830495251463
  0.7513921834353688  0.4960729291434747  0.2538409258217546
  0.6688581391986399  0.2496443406785149  0.2562409714796799
  0.6867316885428904  0.4131905529318391  0.7433400075281467
  0.6665307459135890  0.4206996209723966  0.5790731480774557
  0.1509851555477220  0.9156441227160238  0.0962769613388259
  0.6013716482027420  0.4194138576610418  0.8223013887835026
  0.6614172122227150  0.5020362894367344  0.1910360915965267
  0.8318798168443622  0.4989842059428094  0.3325273714862084
  0.7502156681155661  0.5838430245780479  0.4954569572580291
  0.8322954780082996  0.5018932022703606  0.4968418416189164
  0.6411433787544548  0.2965706206079674  0.9989281134267346
  0.9942719652801145  0.0007832709226310  0.0053543874069687
  0.9961743686980786  0.6669083373458840  0.8239863799646406
  0.0753952481169549  0.8333926993149999  0.0916269314860435
  0.9941448830844001  0.4157744641694858  0.0881529097513261
  0.1591888170771273  0.1691433130551404  0.0105749797828967
  0.2411931609173075  0.1699415177616403  0.0905788828621084
  0.8586823747599229  0.4265072750758808  0.9105820785460582
  0.0613940139405373  0.0980514343600815  0.8352828603829021
  0.9952736977540292  0.5833549357497105  0.0864158864398763
  0.9959572870160406  0.2491039431706331  0.2516404813597709
  0.0040744290179891  0.6705011899897061  0.9987945330386107
  0.8319288600316851  0.1668899666379648  0.3339591135817349
  0.9143744546451316  0.0010080133739664  0.7438078571194354
  0.2414208768381830  0.7458618176185040  0.6501537788274251
  0.2359171967862663  0.1716421127204703  0.2449326740344821
  0.5888547564325006  0.0668997558003876  0.8431705139902321
  0.0759007283114367  0.5822522857323408  0.3334807405533637
  0.9971108725288546  0.6669685149391711  0.4903996881578456
  0.1612752315944061  0.7485871982323776  0.4114234410369546
  0.9919988774308779  0.3340704117014964  0.1693285036632280
  0.1296863301112157  0.9985482970505294  0.6445797636196061
  0.2300216688591160  0.0648585922181084  0.0167773856947195
  0.9945290741258163  0.7480701069484771  0.4117320498670090
  0.7493192384682067  0.6652530119136369  0.0954277091036152
  0.9100501315932323  0.4141141831466977  0.0042306262506106
  0.9130706609747603  0.4991365138697527  0.2529085387827755
  0.9140844483445139  0.5032292194192400  0.5762909848706659
  0.7521666143568430  0.8293245996145279  0.2528646468394127
  0.0731071268624562  0.8312984826886567  0.5686488494049931
  0.2432300041521240  0.9188007529503184  0.3346471853174267
  0.1558489682300619  0.3382312145212479  0.3351217149135535
  0.3277827848085341  0.5829779852793454  0.2647205781869910
  0.8408613248320077  0.7520391114303951  0.7427234573896960
  0.7515507177399874  0.7477492083736790  0.4941025926954960
  0.8321114129055827  0.6648070290227472  0.3314559735123458
  0.4124511297872090  0.3308889530669982  0.4232384126005940
  0.2444167630141682  0.6661761653195712  0.5726819922367957
  0.4338280863987349  0.5256828126149136  0.7294205057422941
  0.5167468207356518  0.6803836071195070  0.8263252688772255
  0.3310456835479477  0.5181615768328497  0.6557768513659682
  0.8352839109495535  0.3359093422068137  0.6540594220234117
  0.5194068562658000  0.5135083313844863  0.8174308990768451
  0.5154397873869748  0.6002915359579281  0.9043843837321417
  0.6821400581348186  0.9917076182139929  0.0058483076195738
  0.6747940769470965  0.7595712050363673  0.7441224231589114
  0.5003980448788762  0.6645457257801849  0.3357257584594545
  0.4125691125235815  0.7494751958816412  0.1878546551290523
  0.0765362644956568  0.5018794994126783  0.5750224474446455
  0.1561179357715335  0.6577999373488795  0.0022564022661486
  0.8331459017275816  0.7467634474292056  0.9208204459608059
  0.9946930077445784  0.8311359659077860  0.8299006456314093
  0.0764428782002663  0.5866661403003840  0.6554857145022223
  0.9145177807123023  0.9145277195991052  0.1701359596316135
  0.8334197681328089  0.8326643961421338  0.4953652721340068
  0.9864334322305623  0.0105881542408855  0.8367133304762311
  0.9140188120154357  0.0009960585990616  0.9234523640011946
  0.5236851335411303  0.5969145063289281  0.7542846361822253
  0.8344185009391407  0.9130640465832147  0.0912899703346797
  0.9167859366365063  0.7472151901327304  0.1704584761768428
  0.4169534757519731  0.6684659941345626  0.5627370717980236
  0.5837437316116320  0.6750077001094206  0.0970924027664430
  0.7512659572638571  0.7463009677095912  0.1707776050317287
  0.8398254529038714  0.9158959852396048  0.7442598026903645
  0.0713309194017977  0.0005244259218842  0.5680032241427996
  0.9133873470166303  0.8313264153759672  0.5732257883486120
  0.9943453206096033  0.9163358231537385  0.4104754846583659
  0.8398917203801665  0.8262212917019510  0.0028293675063663
  0.8337182790576813  0.3329559938209125  0.3348737191493996
  0.9888850840606191  0.9183634272292982  0.9266090079322165
  0.1526651975048336  0.0856856176017548  0.5704685463729796
  0.9958406631219893  0.6692921200195177  0.6547772164364489
  0.9911126529617209  0.1705755488076552  0.6605946205696064
  0.1566681219615273  0.5856770319391404  0.7374800388399781
  0.0777223868566530  0.7485856383197099  0.3335588038681068
  0.9950097811707904  0.1680473056935004  0.1721047710131920
  0.9947094106222122  0.2579398962439572  0.7480632613730702
  0.1466909075788147  0.4167771079094198  0.0872501268010391
  0.0784958754345140  0.6630107909569417  0.4111500161943068
  0.1618840538299942  0.1668974319390043  0.6588674052198117
  0.9015632570598855  0.2568575805131620  0.8308096514291339
  0.9928260867362986  0.9176349302988585  0.7383788151297936
  0.0744394829896260  0.2517867842071334  0.4969324657296040
  0.7527574670424948  0.9144901692523624  0.4949310355820346
  0.7527906562516602  0.8314855117630885  0.4139943732380253
  0.9943125251339284  0.0841024519841020  0.0898570364580972
  0.7645871694336513  0.8376294838809873  0.9067043591326799
  0.8309218933448560  0.1652186069046635  0.1719595160036508
  0.9940316046766265  0.8316866132985186  0.3321375517428152
  0.7651226022454825  0.8290123484205759  0.7451877152516988
  0.5878178340383644  0.9128630550398770  0.3367181447985923
  0.9952607080693612  0.2514307288668093  0.4150071286003910
  0.9138585926763212  0.1673564476607602  0.2521750170036255
  0.6891052631847463  0.9019235953839156  0.7391513971406753
  0.6679696366912157  0.8319762281748712  0.6555995491672817
  0.9138345655095100  0.2505055725594671  0.3335798739820547
  0.6722970533101233  0.8314085545996183  0.4934881419983470
  0.0723873667803179  0.9168146852715412  0.1746595797037620
  0.7531000121398195  0.8324409076338827  0.5756204306306875
  0.1525198544820648  0.8284306262198854  0.6445025826192609
  0.8346906691376065  0.0824704783084757  0.4139099246197295
  0.0750957722136832  0.7470385966434302  0.1734159930012049
  0.9948435793695193  0.9143940552302819  0.5740258041047610
  0.7537946251820348  0.9974344222728099  0.4139725112723359
  0.7662065628903814  0.4258772516135408  0.8329234845494530
  0.9137999323159152  0.9998121885780290  0.0890362629645906
  0.9119891753308738  0.2490569924090582  0.1706646285246758
  0.0009957722646647  0.7522873458466637  0.9153620045162472
  0.9143003668938211  0.1679666597741281  0.4138652817359658
  0.0834092762558698  0.7509899271374681  0.0020312042974201
  0.0661304428429458  0.0136088751051142  0.7485411731019657
  0.9132022624871969  0.9992724452458108  0.4122016711661543
  0.9165220800516620  0.0000486612288520  0.5755248647001401
  0.8356855080314300  0.0815417712657096  0.5753731588403548
  0.0835282215919035  0.6670746485243068  0.9099219634350805
  0.7543866511150409  0.8272547654063636  0.0867180135590934
  0.9132880793925851  0.0844129354935559  0.3322535645182603
  0.6818786017219284  0.9154479634296419  0.9154991133316517
  0.8406023840320723  0.9975195090615391  0.8324859327199603
  0.7529856268221077  0.3266390327742149  0.0941559089112733
  0.7203132443847635  0.3899202436160639  0.0102184866675343
  0.0729000591657058  0.9168379942453343  0.0077537224538987
  0.8323627536908146  0.9984368672514917  0.1712019666966135
  0.9107611612311656  0.0878050602272031  0.8370116337199918
  0.8294373099490633  0.1629705501775985  0.0079253131881474
  0.8321201884685347  0.0826432472578469  0.2524277517108915
  0.9127643767862071  0.0831241714773878  0.1710914101677659
  0.9119286478224102  0.0827509522385715  0.0074008510232924
  0.9954374487060276  0.8309877228967361  0.1718157793252143
  0.8328918047202140  0.9986236811915824  0.0076029552258538
  0.7210139342899725  0.3109622826381527  0.9266586131961231
  0.8426114026860586  0.8336490055079346  0.8287149402320397
  0.9936776919791870  0.0857569151980851  0.9241247651835613
  0.0757055335919245  0.8326607236564710  0.2541270455603968
  0.9126212540621230  0.1713248116039294  0.7463185756480387
  0.1547894622100243  0.8367651805284495  0.0111123197499911
  0.6713822008008632  0.9964197703782312  0.3346117586682663
  0.6798167300667979  0.6779081092177112  0.8246307993894737
  0.9942872613021768  0.8321013388890601  0.4910489282260442
  0.9136029195613774  0.4218743073564877  0.6576296068223186
  0.6541822435699242  0.5088739666168608  0.0004568369943188
  0.7533426362885334  0.4909933218953310  0.0466259033041379
  0.7559576231331298  0.4235597966647497  0.6575215464544855
  0.8511461427847582  0.5156030788075753  0.9993271372735252
  0.6663687812137387  0.4135559129383265  0.2570065280979820
  0.7538140354387987  0.5903467993603616  0.9995898259995675
  0.6674590785596729  0.4997371351986483  0.3336448301440789
  0.6680364957722192  0.6660321969449091  0.3361839834499000
  0.9941318960386940  0.0856272518867892  0.5753015510757795
  0.7498744439827907  0.5816924300799516  0.3329606664841492
  0.5843531702512463  0.5829028798716077  0.1750485168071752
  0.0741134159743067  0.9081894865045750  0.6562574155215178
  0.7835713829491247  0.3404059650764192  0.7599345321754554
  0.6484572224680759  0.3340027721653461  0.6438179613353493
  0.6747604933413730  0.4383871239248160  0.1032096405183617
  0.6673848317506624  0.3324800664576124  0.3367077683436740
  0.8332047545836269  0.2509524746350483  0.4152520248465553
  0.6710593754833178  0.8286941879126789  0.1720828076874792
  0.6736552644319080  0.3357284485251030  0.4926751503266416
  0.3537048863477231  0.4917393405647882  0.9327886492633063
  0.7508936937824047  0.4187783969454367  0.4970791684486365
  0.6674541339802690  0.5003659824938600  0.4961370515197518
  0.7538554465515049  0.9114840638250142  0.1718509646971370
  0.6684628248299154  0.5845355206998847  0.5762969654232006
  0.6759946785447940  0.5051109192184419  0.6595408367953751
  0.6704992722035631  0.7490398191187037  0.5740322356769659
  0.8313428693470498  0.5824698101298665  0.4140073939245586
  0.8333764485870163  0.7497692462075671  0.5755812514343700
  0.3367241982609897  0.6194711663209763  0.8638723586892396
  0.7528737459930205  0.4123301212740775  0.1759940676058854
  0.6712825988226813  0.6705379484567583  0.6590669584243545
  0.7525883159734115  0.3344882625799071  0.4144071009589048
  0.7481222797290459  0.5847675331391812  0.1822967528589119
  0.5847701371274523  0.3335414067906301  0.4170751185119265
  0.7506110098477391  0.3316762815387709  0.2557284657393581
  0.1479497751134563  0.9984511901393972  0.0100491426615022
  0.7521381928479403  0.6679128237473859  0.9139355943377856
  0.7543596125317921  0.5915647026511444  0.8266068638756590
  0.0751729537020320  0.1687263348205137  0.5774277606153304
  0.6849803344708164  0.5006884840730086  0.8340347991794506
  0.0763540204512874  0.1698479353564827  0.4137661109267270
  0.6685527917046725  0.6656732055626788  0.4946149655938989
  0.9959189253977070  0.1684417502534343  0.3327383231687854
  0.6861697974562869  0.7595993809198236  0.9225728100366576
  0.0774509521845477  0.2529232962937971  0.3325286748564766
  0.7602496563843676  0.7535748818708233  0.8293481810128530
  0.9141139627062321  0.8303571674827441  0.2519115582097623
  0.6742514618612914  0.9123067530605806  0.0940575532602880
  0.9938490872093433  0.4218341538863177  0.7377578592398404
  0.7607042335959714  0.9169130420091497  0.8287626062076695
  0.9069066408109655  0.3353257699611397  0.7361878491016287
  0.2311394774680105  0.9983098329166969  0.1016760984460644
  0.7536475485651923  0.7530728132345057  0.6590530457487623
  0.6631885886689619  0.8381381396618638  0.0165579320090244
  0.0740114997160236  0.9157821405844737  0.4890221865954363
  0.0752602902054004  0.3343934509486403  0.4160149022365993
  0.4135578914774584  0.5826474966789776  0.4926060109659419
  0.6696371514422040  0.8307616069714236  0.3354361534143494
  0.3275260620165809  0.9135213152785727  0.5708638609181069
  0.0749689092534520  0.6692398894911087  0.7362980309844216
  0.3279426520870684  0.6680865725670669  0.4910722104346469
  0.3103659225841880  0.9264789522624473  0.9374481221284534
  0.5000044555597728  0.1655054483214146  0.3324539848528170
  0.0744299230034238  0.5820650442716329  0.9999352692071388
  0.4182485799207594  0.0024649406254500  0.5621937590455193
  0.9904125358761556  0.5008593795619559  0.0017986067541876
  0.5908888171816805  0.9201453680951143  0.6895867958731835
  0.6786754294260700  0.5690317812418683  0.0969837158708321
  0.0005277781446640  0.5101676835108658  0.8230071636867091
  0.6670569108595071  0.6657161888809581  0.1732129136864783
  0.6693068909584728  0.7471932138616448  0.0888009328319021
  0.7503836889917034  0.6673005917376166  0.2550085603373466
  0.3284279206735825  0.4976232658584829  0.3381064853429571
  0.7531150082178332  0.7301744780064940  0.0087062729946457
  0.9928990580490761  0.3353428256661721  0.6586688997540491
  0.0746846142386135  0.4179604090475658  0.4946215986889024
  0.9140564240941604  0.4161910018955969  0.3338489938918108
  0.1621986093116450  0.5826961979454426  0.0869510737369715
  0.9957399893020377  0.3340014104316597  0.3337092709941870
  0.9934859071791160  0.5821104084255126  0.4142150134716551
  0.1605041216297303  0.6641338773641241  0.3324088613404296
  0.1587853325880857  0.5852969513918794  0.5745540860661700
  0.8331669653737024  0.9149688662124309  0.4136256339850773
  0.9130696515690909  0.9148947087650282  0.3321502975093146
  0.9121953454366959  0.8316617249457947  0.4120192583619133