 B Cr Ni 
 1.0000000000000000
    21.1200000000000010    0.0000000000000000    0.0000000000000000
     0.0000000000000000   21.1200000000000010    0.0000000000000000
     0.0000000000000000    0.0000000000000000   21.1200000000000010
 B   Cr  Ni 
  86 259 605
Direct
  0.4970065008347069  0.1618040205563978  0.4315139525500126
  0.4010026224351134  0.3221676849093321  0.6541854084521214
  0.3266632274861647  0.8723471353600540  0.7538184429866434
  0.5657179499956394  0.9289115474910560  0.5818145110740585
  0.3668800921843516  0.4906550759768715  0.9055974116444095
  0.6497007826813396  0.8336761789023647  0.0734291563751397
  0.4163430547334220  0.8362693723930615  0.6573075838125978
  0.2473058843496635  0.4279373121459886  0.9299598182471143
  0.3560237491069295  0.1812891846047016  0.7543207548253550
  0.3082224817709401  0.3108781293894682  0.0530286218696004
  0.4786213158946890  0.1571333615603571  0.9434066918140017
  0.4230683349865218  0.6708718765297448  0.0120288395174789
  0.5007000879680623  0.4244105130544350  0.5203646405869631
  0.4914102845573974  0.4304541411146408  0.6764277950606848
  0.4111574947717649  0.3391215985156285  0.1547479269056217
  0.8895872558362440  0.5854052469601566  0.0687520390494781
  0.5178488641001734  0.2121108717121689  0.8121083345391208
  0.2408383903386981  0.1774834434122659  0.1571446996163111
  0.9259054980028776  0.9266975788966119  0.7520238008210332
  0.5003770978435887  0.5652763989743046  0.6560268003124232
  0.8070415226915549  0.4340826206118044  0.9899457737917214
  0.3229395935171809  0.1859853524875301  0.5356842757007596
  0.3589790344798933  0.7419552294363752  0.8890963989823812
  0.7646256286987134  0.3954124815781315  0.9236296382867193
  0.2692025777834174  0.3333276042050506  0.8324566341533152
  0.4215520830119178  0.3656591047060312  0.8310325416271113
  0.0942713023629182  0.5823624235872857  0.0682677872197430
  0.5958609262119188  0.5894903167002107  0.9642563086706113
  0.3277598446835798  0.0197832490114289  0.9590820067720216
  0.5108928494320658  0.7486954598906224  0.1454168253184961
  0.5386830910516125  0.4248822339455041  0.0888012083244163
  0.1514310138751348  0.9178182830590929  0.9626778578033346
  0.5957280876209170  0.5868730701171408  0.0527508186600671
  0.4212295923717908  0.1572466250442423  0.1729463047409039
  0.2973263084298366  0.9941975666904285  0.4687356841440259
  0.1556934624647698  0.1810183947601658  0.7782625485518421
  0.2936419189807820  0.4275792014773307  0.7125040667762573
  0.6635397974306968  0.3465864227863308  0.0803643413545572
  0.4963507362456349  0.0110626643972268  0.4400278543168499
  0.2268887486070279  0.9779089857253487  0.8124213449956318
  0.6411731961672984  0.8351697012184115  0.9271842901788798
  0.3211389126810326  0.1601022739001326  0.9307068777379716
  0.6548278290243086  0.1808143347360582  0.7489043534034882
  0.4124718231091152  0.1460764256946036  0.9925269032486767
  0.5349012852534901  0.5014437331506876  0.6930217618078386
  0.1518008510829307  0.6795225775844270  0.9309959786247090
  0.3351991125174049  0.5874846929781278  0.1483980716638870
  0.8907189387070122  0.3558135053102201  0.8332208488771411
  0.0558787872475432  0.9161255341920942  0.6293913726373760
  0.3712920881128667  0.9122671282128230  0.1028161642287022
  0.4997399480393326  0.0653782666566542  0.7745251444089667
  0.3024612746632617  0.7142826201075638  0.9419166536310061
  0.3333463670308597  0.9216200141940745  0.5015831229890931
  0.2480450826237557  0.8261432805654751  0.0045273819577699
  0.0690609827485815  0.3136712763539694  0.8104001290786417
  0.8336366038342221  0.6523757880990219  0.0810053643297768
  0.5048689662962477  0.0812890460822327  0.6874855004482832
  0.3908910030539067  0.1370691098318430  0.8200288511624083
  0.6523838720887518  0.9921540373778257  0.7514991017564165
  0.5419516066329508  0.7455819020976617  0.0067889777521732
  0.5849784764187057  0.8893159603899845  0.8908601416176267
  0.5754231144784349  0.1683295220404227  0.8511264703141841
  0.3433673163329581  0.4793809940639945  0.7525939708110359
  0.0139748668711728  0.2671747830483445  0.8449732926729893
  0.4003447584529585  0.3258823872071674  0.5185650793402666
  0.5884389079408886  0.3278140698535812  0.6554539864052152
  0.3209965469142371  0.1773216297992872  0.4434952909839576
  0.0024520067694277  0.9960237162412308  0.8947851361534401
  0.0490297915139287  0.0365582534538933  0.8419195186664481
  0.5101952691946908  0.0368128120016459  0.0707518938230715
  0.2887825077599431  0.9151783425592007  0.1027907052559626
  0.5796547548017651  0.4082459086682753  0.9377428182491523
  0.7564760331853730  0.9057354687783793  0.9291421346528893
  0.4138262687074751  0.0706617734608489  0.5604432690160325
  0.6278058105370691  0.3329804172015738  0.5784004360938076
  0.3557993150003862  0.4702308030832217  0.0644813197034346
  0.7433265962116934  0.5010824323697202  0.1372051816768139
  0.1401505797028255  0.0353647649091852  0.6664946257203616
  0.2129678510206728  0.4643732111294807  0.9955124138157206
  0.3938795843287893  0.8533361307029301  0.9673562610559021
  0.1165365100597510  0.7499848060106139  0.9002423319684543
  0.4340375888621282  0.3365417762916071  0.0039028089338138
  0.4979796404941550  0.7594479613220105  0.8427737974580545
  0.0342828819069745  0.8191135560870539  0.7341109308508306
  0.0822315230548709  0.8540333631860862  0.6756826466390310
  0.1453503026757408  0.9578325365374044  0.7693959480968225
  0.8320900461910752  0.8324172785810053  0.3346445956493561
  0.7543374296745000  0.1683805496486052  0.7494736742671949
  0.7520020407681840  0.4184014041509598  0.3320588943682140
  0.7674321557517659  0.3481724443223352  0.7450410173058198
  0.1515768238004429  0.9133475367826640  0.0987174067737554
  0.6464853949900633  0.2983005966598358  0.9992230868749267
  0.7560908871918756  0.4100630504154439  0.1791159155123035
  0.6726441481176039  0.3375929773144037  0.4920162188291604
  0.5914636152468228  0.4189350659393761  0.8318721080095280
  0.7444728719590126  0.5872177375421367  0.1884772867443311
  0.8321666417872193  0.5846711427636448  0.4146746749714177
  0.8318233268947621  0.5049584703881420  0.4953979687782006
  0.7514188934976533  0.4980637431820532  0.2518683137687025
  0.9945888966426895  0.9981725215089818  0.9990358503646953
  0.0844092496383607  0.0029358030258049  0.5805626177662758
  0.1626067665534396  0.7432047680750793  0.0906209287580845
  0.9935776064061665  0.4158662800313060  0.0847045948427192
  0.1444963933938541  0.1667878237696927  0.0174702869533666
  0.0805166039632033  0.2516713153267463  0.0101600743424021
  0.9935950277432001  0.4205441628642937  0.9165009942786211
  0.0906802647143134  0.9882256741041426  0.9276963388928053
  0.9930465134729126  0.5827417345926409  0.0857897530465155
  0.9987028778169201  0.6693177736435298  0.4946921038479903
  0.2331874509880179  0.1625609103953319  0.2590311957785562
  0.0070561965964103  0.7649123453053006  0.9079799766913643
  0.9950601347994118  0.2500685501881143  0.2549996592310639
  0.9971937685003804  0.6904467245151314  0.9933452471197484
  0.7523699965423529  0.7509080423272196  0.1744655173370852
  0.0010516272373948  0.0898680842058139  0.9157283691883926
  0.7583281022606611  0.5056433327283562  0.9223460916698454
  0.5880624888175168  0.8330616806269913  0.2579157048069401
  0.6559084422808450  0.6586855287593696  0.0088476322301087
  0.8325301560354597  0.9998985734517495  0.3347877807206911
  0.5038887775608808  0.9961222020747547  0.1788820423730137
  0.5842652881269348  0.8304117915805791  0.5816806624845867
  0.6682426978091038  0.7505255348104647  0.4157137601328973
  0.8271511465911844  0.2437334407288780  0.9229172159864217
  0.6652982128038772  0.2445123763294560  0.0932900686448369
  0.7513186626951356  0.1632766557506978  0.0909896627905277
  0.8334315742255336  0.0881880293823237  0.9191858103531527
  0.7542687402472096  0.0810108119269768  0.6627359460017523
  0.7562936244956816  0.1693562877824710  0.5746358129959230
  0.5825333750033036  0.0871934822948677  0.4927166177635143
  0.5821967594061814  0.0651441027753643  0.8371406188308815
  0.1585488645681310  0.3443160136055450  0.8293146931888044
  0.6736525439494169  0.5869332962804711  0.7457767853537881
  0.5529216406839876  0.7997677890326146  0.9155343248700308
  0.7470189678573673  0.1598372054084400  0.9234096227783689
  0.6747880234593440  0.2507996864920655  0.4131081465510789
  0.7537402291362396  0.1676642847722982  0.4155445073318757
  0.6901763390878847  0.1634968014052841  0.6580284350222932
  0.7627638056534778  0.0058867690793668  0.9171303437309434
  0.2433439120276687  0.8268789228502392  0.2522669581332697
  0.8329186830467565  0.5847374501323293  0.5747501435659489
  0.6671344986216601  0.5841829119717230  0.4130038838489268
  0.4993617750965466  0.9813242371410449  0.8323442981152537
  0.4786805337552347  0.8936357187740460  0.5976708006729563
  0.4930974401263728  0.9153591922268713  0.7322474714191470
  0.5929254860649695  0.8297589282395715  0.7419422975149591
  0.6691201978752235  0.9158046792111675  0.4161554050810722
  0.5020412969232295  0.8305117643046371  0.3364187903346315
  0.6701371119827841  0.2500372722460637  0.2557623667670932
  0.0771287863946675  0.5850964693420542  0.3306280285610184
  0.6693542087310095  0.9939885062774787  0.0065525160694522
  0.1611889772164964  0.7485733448296233  0.4119762694887560
  0.8383281095236524  0.9979728849497158  0.8268537448871526
  0.9945266148823484  0.9042609503533492  0.9220404247011704
  0.9090594374921013  0.8296733739233074  0.0857114738237434
  0.4142157381252323  0.7470673878715368  0.1757187122820661
  0.6722730220616604  0.7504673018041487  0.7430470231660358
  0.8321197872886116  0.8339049084818193  0.4967288847893361
  0.2407970552551854  0.3342946061907844  0.5729439696708973
  0.9982550322839593  0.9168119154058219  0.4170460935014305
  0.4995947416320607  0.6668697271827487  0.3340153642451617
  0.4078644467501676  0.5885660031829364  0.6462833264073845
  0.5786896279032450  0.6814122431938580  0.0925475739265913
  0.8353923346607353  0.3341847411226281  0.3332020673165014
  0.8350076932084145  0.8290048473724002  0.8269667563738304
  0.9092505206310886  0.8321740845792233  0.5731459042741495
  0.4130276682700407  0.5043619898974993  0.4159101026551297
  0.2449755875610356  0.7482965568351566  0.3305886297727305
  0.1569641646522323  0.0940964963812737  0.5802162534348060
  0.9150451007835380  0.1655911795895919  0.0885138209521105
  0.9126445463345103  0.2551015341331029  0.8328369368726950
  0.1557624226575860  0.1787404051576884  0.6625760758773224
  0.0802583325695809  0.6681296820585906  0.4119931475446589
  0.0188470435673488  0.9174769313127630  0.7282716461979890
  0.9972781436023698  0.2622995190734955  0.7453162650950217
  0.9963167544934212  0.6681182097019649  0.6553538009788690
  0.0784265209117658  0.7467425665742107  0.3329857955650534
  0.1588144036938531  0.5871508056689715  0.7422374426426274
  0.9891054824554925  0.1760514884055509  0.6609880614561173
  0.0763101240427121  0.2530850874549764  0.4952791455097135
  0.1631554124389120  0.4213157760968744  0.0808368177915409
  0.1601898972609663  0.5862761744028337  0.5755860967191507
  0.5105743909090034  0.5879845172775967  0.7502430266482010
  0.9133349884337306  0.9126231004719046  0.0030746615801687
  0.2425904684742117  0.5696696890339336  0.0073176201230911
  0.9939318614312697  0.4201768497799713  0.2525918938070322
  0.2090901348863412  0.0087184985518043  0.5993851479217219
  0.2363709226611030  0.0526289168337278  0.0113013266727906
  0.9968255675464438  0.7477557700358550  0.4162548144719558
  0.7505258952810425  0.5918566223437617  0.9945893177170840
  0.9139533471923230  0.4183549101257082  0.0024864530915572
  0.9156028939899469  0.5013894478899420  0.2510788321149899
  0.9124619973888470  0.5059495276705629  0.5753471459125817
  0.7519450505831271  0.8329455124645812  0.2528812138484098
  0.1557637520004792  0.9130005354544427  0.4131881047929831
  0.0748101979552400  0.9127567409458213  0.3352378990582622
  0.1578883598941347  0.2518284866537804  0.4136660969900818
  0.3331676084636835  0.5782162901717496  0.2546384576065438
  0.8402006834783344  0.9183368935082965  0.0901202406817596
  0.8371475536378746  0.5897443187986117  0.9113254556380463
  0.8327716857067239  0.7493721392387130  0.9117964803304843
  0.0723750393778335  0.7560725425349719  0.8124828853515879
  0.8370067306306722  0.7528419421178175  0.7422040964750379
  0.7480730677438850  0.7490927420771001  0.4957336013944015
  0.8324055200072642  0.6656465624156841  0.3351637248991061
  0.4128277355478706  0.3334880491893731  0.4179193286035954
  0.2426857380007737  0.6678868586300192  0.5759687757798559
  0.4362742961646909  0.5134897909294726  0.7204092330424751
  0.4175205326230319  0.6469551524559873  0.7410012770376088
  0.3243899085349768  0.5067676272553094  0.6565087762921661
  0.8338602470157017  0.3410786986687105  0.6574286385870424
  0.5853512761642562  0.5033028320289407  0.9064004104842169
  0.5045559426958365  0.5943000679442302  0.9099624636155875
  0.0789136322735018  0.5068565030982726  0.5743136047271684
  0.8337476301269579  0.8309133417052750  0.1719951740546339
  0.9152264724865793  0.2507721548556898  0.3350441479127437
  0.3228601520744739  0.5036966126648429  0.4914150515375347
  0.1588331638275191  0.4207084517440657  0.4117104866971121
  0.5073579499120862  0.4959470579595440  0.1754991036485857
  0.5244434448747061  0.6463696466379248  0.0073921686603336
  0.6002599879402853  0.3240600326696267  0.8932770472268784
  0.4068013369641472  0.4211781049907601  0.4881665950031851
  0.5846432437154354  0.4178159588929746  0.3376966109311483
  0.5851477179594745  0.3366502896238720  0.4150190404422215
  0.4981631969261174  0.3272141922174593  0.4979554461311937
  0.5332456762451162  0.3251511743014170  0.9841590003595577
  0.4176832469991986  0.8306397260553741  0.4114903263826428
  0.2485127446779186  0.8274518387555556  0.5754056100489785
  0.3361819353073490  0.3981630383641905  0.8962429361484275
  0.6629837702438222  0.5864984356922113  0.2569931066098772
  0.9135925091904241  0.0827857521343002  0.3349180350175983
  0.5878056250495396  0.6659349885289646  0.5770727497724971
  0.3187747629204987  0.9941704624467277  0.8605455731379335
  0.3938567325542159  0.0040699856182693  0.4832371174130888
  0.1610033189785912  0.9138795552085676  0.8550416666589786
  0.2773272030529381  0.8940842735731797  0.8433885426209624
  0.2504190933444842  0.7984564125168514  0.7575119210333754
  0.2239733845676012  0.8961566488196177  0.7495998525536689
  0.0782730611804765  0.7520826478721336  0.6620176075049133
  0.4782384480705506  0.7187831804330411  0.9342785602902298
  0.3991648265804948  0.2362873580263745  0.4827598538855787
  0.4505565338549916  0.2731460119929616  0.5842251777921397
  0.3221000761613377  0.0736264905868767  0.4018527891964315
  0.3200959685957600  0.1625401884177373  0.3281124651134060
  0.3270674162735333  0.2516993456563243  0.2679139133246179
  0.2452894468015397  0.4987048082594760  0.2549049047405873
  0.4540115214949857  0.2386083254559544  0.9989327400092909
  0.4344328642637282  0.3863788397262541  0.5880289342201861
  0.2282997635179818  0.3329612596777130  0.1077886869966961
  0.4993927651303494  0.4087373930106882  0.8838111545993745
  0.4030545757409117  0.6537981487180812  0.9137164875243262
  0.4849044395239248  0.1288488649278963  0.8517090580111095
  0.5171561959193978  0.8516219547122253  0.8177529103654436
  0.5873400935825585  0.0792979493022242  0.1794571798455633
  0.5004216696660563  0.2597777945135663  0.2617830988908151
  0.4360260376183840  0.0052856479440675  0.7217249491209264
  0.5647629963991401  0.1418069438883949  0.7542969739800368
  0.4168149127153771  0.9051159002634678  0.3341926964228176
  0.5882036310050758  0.9982235864335978  0.2519479402054997
  0.5704993634667874  0.2279447222498113  0.0121405249243601
  0.3297786869621167  0.9818328514635587  0.1731923112177357
  0.5986035472324783  0.1642941851845754  0.5765955495483831
  0.7523009345116453  0.1674479141186623  0.2546557729950741
  0.5977740504993745  0.2605756566191352  0.4891741579022644
  0.4231207188304379  0.0010999371257340  0.1130479676525011
  0.2501288521733471  0.4841786001601503  0.0871724395923611
  0.4045772761348548  0.9166024475236449  0.8178840849949897
  0.5014261268629929  0.1312438055458523  0.0285854885222504
  0.5941409522109469  0.0648296572161299  0.0133581970865333
  0.6092108662032341  0.2486520864193037  0.8098957072646306
  0.5044606356477364  0.6599820037234071  0.8306078330057380
  0.4157053190475187  0.4191559914232847  0.3408834700262737
  0.4119424824702015  0.9991829049164863  0.3884424431549094
  0.3482588881960504  0.7438828978462422  0.0991442770348755
  0.2258286235052874  0.5224423270022402  0.9128773814265163
  0.3287233333301060  0.5812970110409511  0.7404816085954919
  0.5071518738940911  0.7412935569053166  0.5771423863770599
  0.4140449044842682  0.6646794909466887  0.4104395373152498
  0.8331965854622393  0.5866273344952966  0.7421219473787382
  0.2217121963937564  0.9817489350250822  0.9208749573260357
  0.3186667683099724  0.9738808011490387  0.7626667174467988
  0.6787950558658434  0.4202668846482447  0.7507670210637920
  0.3368092259627706  0.2715310740369729  0.5842044341546232
  0.9100944325886281  0.2495793245468640  0.0051697018220836
  0.9137764577152606  0.0918375100724799  0.6574239229626312
  0.7582461468618120  0.0820052925263818  0.8339297962012918
  0.8283415262702442  0.0004940771734898  0.6587647727054026
  0.8335389158963786  0.0009399392010835  0.4965340729710783
  0.9136305822526337  0.0829945193813421  0.4976242483633072
  0.8347915708328230  0.0836630425073611  0.0901790197600337
  0.9175816525301952  0.0010998598746163  0.0893962247253450
  0.6595170271005828  0.8349846153736245  0.8260139021109487
  0.8342000314219435  0.2467124407369840  0.0869447717902399
  0.6843889995830128  0.3414075175084110  0.8264984162881200
  0.8345268384846919  0.4258991126343352  0.7467565831801961
  0.9149758749147935  0.6674880196265183  0.2499892424554943
  0.0726774382268785  0.2515849214579340  0.3375973358084941
  0.2279575098736253  0.3434205249026289  0.7419795241366904
  0.9943444778178530  0.9144679382974955  0.2566711738325739
  0.2343396307090946  0.0804824553801801  0.1757534429513297
  0.2317750051753733  0.2639284445983487  0.0138131199457598
  0.0876735912500936  0.7455528083109397  0.9975829366505804
  0.0762920663065541  0.5018247859265837  0.2501343540268762
  0.9161844875831793  0.8306035002340296  0.7400344765078339
  0.1603344578180963  0.9997541941509879  0.4980510083831991
  0.0611691073243071  0.9368834343602124  0.8317915036325458
  0.2421625886880150  0.4229630254120314  0.3339727002899945
  0.9898366443323315  0.1731015982422764  0.8321701014624934
  0.1485802711320113  0.2688998993047818  0.7368294420925721
  0.9863698131041196  0.9142411283378795  0.0884555314380306
  0.9943780995437910  0.2515251028325866  0.4162861461561209
  0.9127848240210137  0.7483734812468770  0.1703468274273650
  0.9137648220299218  0.2544078391280230  0.4950987175016305
  0.0764575692085541  0.5068696838667082  0.7397163216550365
  0.1536795369024880  0.3372892424100095  0.1780210770030134
  0.8299076382572467  0.1711485034712393  0.6626444561559351
  0.9935859558026480  0.7466523120800715  0.2520144684976084
  0.0768582589550105  0.0000614330336183  0.4190140693812376
  0.0723008320585922  0.3315490156608655  0.9123524281849806
  0.0748487444423502  0.4216156911527328  0.3329694165305715
  0.1642412910712973  0.6654937212673446  0.1657041230684326
  0.2465708285438390  0.5829408221678987  0.3282596368670351
  0.2448018562625995  0.7408131442162678  0.6583020720030491
  0.9072547003770683  0.0167971499683220  0.7251624894375475
  0.1168888847180249  0.8548557228698360  0.7688293081113630
  0.0887452377773579  0.8457430879143959  0.9131552073000799
  0.6687756204495608  0.9167859214044051  0.5777838880106630
  0.0750940888588992  0.3385227944150090  0.5732774737727266
  0.2338754095080363  0.2512097443727209  0.3272586281312440
  0.0662561424351313  0.5021562166091087  0.9117802138358437
  0.2492960609049815  0.2471265065116472  0.4940563869221434
  0.2345851486060729  0.9953555141684340  0.2502303105171982
  0.9914038269574171  0.2509370888662424  0.0878520979474920
  0.4014823663440994  0.2103527522200295  0.9085246112284775
  0.9119028704682375  0.1731346743813993  0.7470642082548572
  0.9963294594684983  0.4218542169993140  0.4135594380013136
  0.8337589603918584  0.3385395028080593  0.4968164235460579
  0.9127493597840404  0.3404833828690640  0.5758710688521138
  0.5891764007748284  0.8899140969016954  0.0007360268690558
  0.7538819311185685  0.9981165072573204  0.2552108518995868
  0.8261890248415110  0.3324575450314197  0.9950872355998475
  0.3283695886624885  0.7544707940534542  0.2548852023480639
  0.4084223692323945  0.2280761310647286  0.6797331375312522
  0.3931853759214547  0.4203337021117875  0.6847098221379846
  0.3224090066875866  0.1794535844132762  0.6571197567634984
  0.5867450492118684  0.6784840237131374  0.9170138494677221
  0.3302246507222581  0.6524089908942922  0.0063684134035755
  0.1594639862091264  0.5073072770299032  0.6578681589601233
  0.3212609828568796  0.0127465361558265  0.6639508416826787
  0.5123501449165287  0.9906783357492934  0.6409666062166854
  0.5074460833034622  0.1767000560976777  0.6465293720286750
  0.3066795830823474  0.1671088118628903  0.8355366529903375
  0.2846987902547597  0.2446987328587259  0.9117925555754296
  0.4416036266184358  0.3196174852574930  0.9130380414172163
  0.4252967190439589  0.2257878099045594  0.8025798872196803
  0.2657221536314434  0.7406343566359526  0.0314023500688777
  0.3940753714239152  0.2877870877683034  0.0775197341748714
  0.3990181030236906  0.4208317720017136  0.9917477584286205
  0.4477931620917635  0.1366368532436655  0.7412715813512578
  0.4683472068075580  0.0911346542641376  0.4859155454440297
  0.4147917509802701  0.3383504516154954  0.2560695051922702
  0.1594375148844793  0.6668229450653137  0.6592430483936892
  0.4114599653907044  0.2491649458535782  0.1820535421832644
  0.5073220012252350  0.9901130760822997  0.3298267418945784
  0.3284800317949638  0.1651941733866924  0.1900012829256202
  0.4110219071034103  0.0877421671945581  0.6517610854369869
  0.2443911127142075  0.6667124880752507  0.4105112227347317
  0.8326165361353620  0.4231624313525228  0.5766660326912311
  0.2727180290878715  0.0820595041070004  0.9065187850403550
  0.4999142647336158  0.3378510456931225  0.3395287186822524
  0.4149148404906667  0.9821878462404126  0.9188278314343515
  0.3634751550347850  0.1146662114204149  0.4912337644726373
  0.3344251473340015  0.2136226332545932  0.0079694132484625
  0.2489169689250063  0.7479425228113911  0.1682166353137691
  0.3008549601337697  0.2381455896071080  0.1110923015147565
  0.3174808005953124  0.3378242555115623  0.4871045432160047
  0.4001450886126396  0.1688252949647304  0.0852049762866512
  0.3143003199683863  0.2645185439249120  0.7498016756010590
  0.3301129975035123  0.6656809272310370  0.3296738615629601
  0.5083053665314496  0.1776487498809027  0.1942699848590021
  0.4984897744723811  0.0826600269294673  0.3830008221459876
  0.3228288853066447  0.3274906414598771  0.1853803808577862
  0.1590575028016388  0.7452432212851516  0.7407114772071619
  0.2434084517227452  0.6674501661445573  0.7456998117972679
  0.3292598297165516  0.3424143808581773  0.3330965708819872
  0.3283561306969302  0.5854932588518849  0.4122976815929695
  0.4262732182232397  0.8309609554151850  0.0975909905622884
  0.4151931443432143  0.7482089634021972  0.3329857607231075
  0.2425254725088352  0.5868174714905275  0.6600235238169780
  0.2420239626163264  0.5026405374977325  0.7439591029299174
  0.3388949036122796  0.5575043270166320  0.0640372359013859
  0.3347988665835271  0.4943868073416642  0.1633884260891800
  0.4180090119527032  0.4977386459076070  0.2599123616755251
  0.3554731797985555  0.2975707671534160  0.8476529804922457
  0.1616152478570142  0.2441728867502935  0.1000418464943745
  0.1610417140003287  0.7457825292623088  0.2503858640774330
  0.3195893389034571  0.2563426910050929  0.3999778982979075
  0.2443640533354613  0.6659312506971780  0.2514193817760176
  0.4165328244273770  0.1721130148309160  0.2646919938378669
  0.1649825275916385  0.6543674957356641  0.0189187071887577
  0.5852112271355203  0.8318243896482336  0.4152530570768639
  0.2447787457733339  0.7484927845216748  0.4935016897235924
  0.2416828070936983  0.6465089105832005  0.9248645211164611
  0.2361554035612978  0.8318367457528939  0.0968143765908924
  0.1534471731006170  0.9125638758622949  0.2542719347704744
  0.2357965914386204  0.9108099220008271  0.1790904564546940
  0.2019657663203588  0.7538263503263235  0.9456460706764500
  0.2395989446342665  0.9113951069462021  0.3313676574301602
  0.1645509307068115  0.9094204048305956  0.5757108256437795
  0.2432673429277666  0.8309940578190498  0.4121348709517739
  0.2587026018445604  0.9151154944897564  0.6467254313327410
  0.4211417545449147  0.4265708414532494  0.1750292002237348
  0.2366488737029176  0.9209252823817535  0.0210227405255260
  0.1557335524059253  0.8279698089395912  0.1738580035460547
  0.0777595167948321  0.8306340781982593  0.4154705695250304
  0.1622851104641553  0.7506701972269119  0.5787550590514799
  0.1621761187010299  0.8306702983530226  0.4947518799990333
  0.2407986073469607  0.9144288712737471  0.4934606718263622
  0.5937218283812702  0.5037078549874190  0.5755249026255169
  0.5055674757834293  0.8330690622425854  0.1788534809747900
  0.5062694558943663  0.1759556700851161  0.3304233334936486
  0.3244006736491892  0.8182874426319937  0.6719691841107435
  0.3322656182953103  0.8498581388768575  0.0399771232769729
  0.2365514773611858  0.4270156146006653  0.8346351925077306
  0.4225953812491218  0.8996780771200993  0.5002210293087059
  0.3294039605927042  0.8269183190572332  0.4904558388914006
  0.3370631285742058  0.0929546361376966  0.7408036745575137
  0.4301598574798330  0.8165527129479243  0.8916463808880248
  0.2298457591300113  0.3385675245241949  0.9163681933741149
  0.1514417880204245  0.4261614993657021  0.9190992872797459
  0.3426007080509846  0.8111717451087117  0.8230843544407542
  0.5847484383237402  0.1597150126579050  0.1002081016606073
  0.4221279710698573  0.8220756538992640  0.7493133679898274
  0.5028400905394083  0.0819261043277465  0.2593521144833738
  0.5890138864549211  0.9926337266351621  0.0963355947093012
  0.1383283463669528  0.5160411312545713  0.0016839765105926
  0.5076693075897917  0.9110864058233865  0.0948551693560852
  0.3294264559979723  0.9173312510072043  0.4104429544481778
  0.4176900466420931  0.7386141746231272  0.6650925940140888
  0.3488950366293674  0.8869545344526415  0.5866836788003104
  0.5010160874120826  0.9842485566493494  0.5267290527298145
  0.3471267241890762  0.3181072289064478  0.9705723739212685
  0.5604512606034836  0.8064363265808976  0.0837216019951925
  0.4084611320300096  0.4580541318248514  0.8242094575681101
  0.4155390559858028  0.2567288091224101  0.3375361846839168
  0.2423949161224131  0.5873282392114829  0.4925457909909030
  0.3235178997339757  0.4204510965775436  0.4122965374311807
  0.4267927667729915  0.5789055025846539  0.0017639459639984
  0.6705026800313646  0.9152567785193634  0.2540474097149146
  0.2488246715124325  0.5753758859404376  0.1773438959639463
  0.2438230467505340  0.1497926472319265  0.0723280085571847
  0.1605480052637793  0.6785557502386161  0.8331727028788718
  0.5057904485530473  0.9108379160830572  0.2559817778198098
  0.3303938888504094  0.5009632234855301  0.3357392215552537
  0.5886606516709629  0.9127463893453568  0.1744895286996768
  0.4112885802639825  0.5873520602302961  0.4949221356548433
  0.3275668043393707  0.6683717422012038  0.4921581038583225
  0.3290017225748027  0.8315014013213459  0.3367327286777306
  0.4149076535450713  0.7442126530048694  0.4848334597723694
  0.4140783843997148  0.6721667695914003  0.5728722764763665
  0.0803811884327498  0.8333154532751813  0.5794279375429061
  0.1774374148344781  0.7992212162686289  0.8436157695809600
  0.3230293422669686  0.4163280371253374  0.5763422811342931
  0.3286919517146643  0.0787037572252321  0.1156732320246945
  0.3297152013128948  0.1031681468833328  0.0090326989802329
  0.3870873447184263  0.0941491034107056  0.9115021859046208
  0.4845363692958981  0.0986652843282916  0.1292506530562036
  0.3124354669727752  0.0740599744659335  0.2534494383414427
  0.4156713975052274  0.9843376656010138  0.2596833805098829
  0.4051679850927274  0.0722532528905058  0.1994417235036591
  0.2166874768519049  0.8628443115539074  0.9281658483371231
  0.4098428884570419  0.1595280595982043  0.3975815974647161
  0.3192463430499399  0.9917332038732841  0.3258557895658771
  0.4031429732975224  0.0786451772661857  0.3182112244707972
  0.4988473229482135  0.9175644509833599  0.4186440102954060
  0.4161769683850878  0.3221529383063181  0.7471817248471672
  0.3189489051252017  0.0931131055770328  0.5859331069987029
  0.3319535817418366  0.5738212544126743  0.9244124250287549
  0.3268929573803282  0.9068879946623192  0.2542905387608353
  0.3361200624979697  0.7300457183946554  0.7443672160459265
  0.1430488862058936  0.5885018458348953  0.9112637331006861
  0.1607649110495874  0.5824721069287274  0.2494100163599751
  0.3278723494562075  0.6639815633742721  0.6563864096669284
  0.3111649631150252  0.8116002501883356  0.9306605458767528
  0.3317454888168622  0.4220133593693291  0.2534184712646999
  0.2589065375600255  0.6507687791913781  0.0958355477843729
  0.3307592592472716  0.6464853664625928  0.8290234759269081
  0.4466613499456444  0.4889998277591868  0.0777056285279338