 B Cr Ni 
 1.0000000000000000
    21.1200000000000010    0.0000000000000000    0.0000000000000000
     0.0000000000000000   21.1200000000000010    0.0000000000000000
     0.0000000000000000    0.0000000000000000   21.1200000000000010
 B   Cr  Ni 
  86 259 605
Direct
  0.4885663387625122  0.1640900224738422  0.4317188549101104
  0.5832782071615479  0.1711741704677288  0.8503675260072134
  0.4191964414098824  0.9495917833350089  0.8052033838449281
  0.2576179467511049  0.1529762983165151  0.9927554225958166
  0.2606667012910579  0.0878523076450654  0.5874363638414697
  0.3941222441180814  0.1339442678131179  0.8147729744360789
  0.5198341697425616  0.0712220653527111  0.6935283377817565
  0.3917209046049796  0.7860245768028065  0.0263076969676696
  0.3582460590110484  0.1829341652289638  0.7483454681057679
  0.3304679376532513  0.3529730244897152  0.0729555098730584
  0.4833499317891368  0.1630822701269252  0.9419442836981580
  0.4617695699657487  0.8398158018710290  0.0132592435547713
  0.4947081199359085  0.4328037261186176  0.5499746582177100
  0.5612843784643768  0.3063108684000646  0.6704067002670187
  0.0977177108332087  0.7617240817170258  0.9088496327524226
  0.8943481582839379  0.5777778335789658  0.0715568356228468
  0.5226702969817006  0.2084477340767722  0.8046733710008166
  0.3949852165344895  0.2189520549523772  0.0922959459758659
  0.4885407368672532  0.9765766114406382  0.9502896961971937
  0.4978443945904063  0.5548568765849361  0.6536020058295037
  0.3282121490387794  0.7307848030655246  0.7076868401160151
  0.6685758080549724  0.3517858459435698  0.0712036278162105
  0.5265846427728319  0.6992707894366199  0.9178056849179916
  0.1956010786532753  0.4083180280351781  0.9971469429108740
  0.1003273154568904  0.9226770171648765  0.7525903981198052
  0.4267263902108331  0.3724421888583421  0.7921372210085663
  0.2585262899803737  0.5573817461829207  0.9036165780763288
  0.2376937437259216  0.4290382282661575  0.7594093430806330
  0.4502747392992341  0.3122084755379389  0.9241623945722662
  0.6679901243353349  0.7472860702157846  0.1318453792388851
  0.1432318344374786  0.9228801994609571  0.9527142469057470
  0.3824316826221451  0.9943144759692860  0.7356310948486499
  0.3335694588766519  0.4926674482706894  0.0306257401515045
  0.6099192100734695  0.3363707662957198  0.5511814894163478
  0.5080096499002237  0.7504635789678827  0.1427512163100392
  0.3264190142696897  0.2445028221429358  0.6905605623075786
  0.4321629491159626  0.6477966538251771  0.0201216359609308
  0.8093204087744551  0.4357553985031433  0.9949801414493529
  0.3120594549499189  0.1581708983640056  0.9269220801294981
  0.3003282497478417  0.4362159047753020  0.7019510011979170
  0.6696745363391129  0.7466555582953603  0.0483177413142351
  0.3218153583213707  0.9282478329183389  0.6668004282376978
  0.3397409059261112  0.4890975563461916  0.7538331165482723
  0.6647209362017436  0.1865737276119558  0.7454253189411842
  0.0950472945231339  0.5783313665033345  0.0745924785450347
  0.2860638721648855  0.6409586105513586  0.0312648260270759
  0.3363272134787249  0.5836842019561722  0.1617823223178279
  0.6597957947581931  0.0046601616423851  0.9142718307361494
  0.2303599358026609  0.8344239878803998  0.6761336274391371
  0.3689499490601841  0.9156399949252005  0.1007539821712276
  0.5179770236782165  0.0594015369529147  0.7818797564881675
  0.3954736966177290  0.7549082065663836  0.9114580619565013
  0.5665245406694444  0.9318552478721758  0.7632725627878064
  0.2406318214216776  0.8245266786644297  0.0036273019779538
  0.5679366692038821  0.7423292967031999  0.7479752432917962
  0.1406996236448748  0.1326447054943121  0.8738476255010675
  0.5009238628865443  0.3083402002833570  0.0611766626047150
  0.4260762711585349  0.8353233336198443  0.6701022635634676
  0.4580545381402473  0.5861581724725355  0.9755355386104840
  0.3720694195453027  0.5385661491940076  0.8142983027397711
  0.5734133144063702  0.9170507986246306  0.5859815164984812
  0.2705511205036131  0.8864043610597626  0.7232541372240194
  0.7331424929573517  0.3375279600894207  0.6756635024820880
  0.0239694046903885  0.2650438278868958  0.8391234911749647
  0.2861174551573670  0.9153764561796808  0.1008248596852103
  0.2499300686954750  0.8074224269989211  0.8615096680427664
  0.3363142233236598  0.7009837582700080  0.8920434629656255
  0.1832587106443950  0.6671590156416054  0.9006182692671636
  0.5802223112342580  0.4130575013092206  0.9257167398963265
  0.7435422642249341  0.5047067587015311  0.1400025916901946
  0.5352059780741532  0.5074021099940879  0.7060076134204772
  0.4067300634902292  0.3216325333793622  0.5184126620340206
  0.6039132454802632  0.5858652914010319  0.9612845024004502
  0.2307628697341791  0.9914277909852783  0.8270222376334129
  0.4166977054028084  0.1361798001178798  0.9809844074232812
  0.4224462195476265  0.1691568434139742  0.1583189749973631
  0.0714128257801881  0.2582651643068682  0.7671330697687587
  0.5940307731320945  0.5892511947217267  0.0526362443730757
  0.4855296418954444  0.4943121617074567  0.0693807096772309
  0.3574899099812605  0.9004862096333329  0.8529003477065989
  0.3971332029571776  0.3063167650177779  0.6548872779827417
  0.4509085615499758  0.3471492058439546  0.0033423097668562
  0.5111063729612441  0.7858663144254149  0.7924530223842147
  0.3270204494073148  0.0130032397815816  0.9427305993333008
  0.2764722269566097  0.3240518363861369  0.8510803216864328
  0.7732282435727990  0.3984380970018789  0.9273495720984842
  0.8330688944478977  0.8325257614971265  0.3351239033647071
  0.7641462124567162  0.1708746010246792  0.7451148894868727
  0.5396451622407523  0.3260534168041382  0.9732861682963831
  0.7496553420930362  0.4988698660910696  0.2507376573972672
  0.6666188804882111  0.2511534303807139  0.2534090123494338
  0.5032516579925917  0.4277827984526131  0.7604981272851493
  0.6828647765222328  0.4117809823237147  0.7436119820908964
  0.6575996021898437  0.5065494297746242  0.1872885233103870
  0.8311691721907557  0.5004220499627637  0.3317385792884565
  0.1516879087607761  0.9171230712075136  0.0992821184841266
  0.7493190971399304  0.5825142450077784  0.4950009238188918
  0.7484408297550983  0.5003398921100565  0.4137709542113943
  0.5792702127598902  0.4983109468513927  0.5818739818553212
  0.9915092903849684  0.0009374716013718  0.0082261109588375
  0.1546156635236620  0.4201456066592039  0.5742343699405601
  0.9960916800758319  0.7471094475051455  0.0880985138013330
  0.9920221630714544  0.4107334721504597  0.0937849487867547
  0.1586677814924524  0.1666228004931739  0.0156863973491882
  0.2437945385943788  0.1659411552771752  0.0913192807190564
  0.8631671482247596  0.4283851941662317  0.9128381333459243
  0.0593794109934725  0.0934709332432853  0.8326532946654961
  0.9941506506295560  0.5863238708909687  0.0836757056110692
  0.7565383794389593  0.5042394092434522  0.7448756775148302
  0.8326366247284769  0.5877591255973228  0.7412078042015012
  0.2215985662415085  0.4742078444811071  0.0703548139984935
  0.3347757170684643  0.7516651226365160  0.1079083482457250
  0.1397244610634984  0.5013968924543205  0.0046633007799873
  0.0786227607593411  0.8542284733776903  0.9162868628108637
  0.9941789004457577  0.5009980195658301  0.4956099347573923
  0.7623251332352925  0.5011787438150598  0.9239716389262209
  0.8333915090399024  0.9987933562352531  0.3351416877043070
  0.6624818126522873  0.6569142042018135  0.0059182574708325
  0.1142843191262655  0.3249561897277271  0.8359621109208574
  0.4150881980159464  0.9954527298521623  0.2585365912684719
  0.5020196430332755  0.7534526941829459  0.5786418903315911
  0.6691605438091037  0.7483190631988947  0.4170356066244287
  0.8358757594465275  0.3353717548764513  0.8535062374816744
  0.6683317186474321  0.2480610826081296  0.0930580092834051
  0.7505512024236163  0.1673294380462871  0.0914298584871949
  0.8315080801045901  0.0860509597544656  0.9224099437521156
  0.7627441606326641  0.0789597526815689  0.6578161147019734
  0.7584876550260394  0.1685223522544933  0.5700937446143020
  0.5873399922177150  0.0864223370427086  0.4926407604067163
  0.6673675299467473  0.3327424001022204  0.1731277283669350
  0.5860447499079537  0.8352280525695933  0.2634522084905235
  0.5899543719681181  0.0662662781508258  0.8536969072246423
  0.5554810856053881  0.8667384062383504  0.8374537340621455
  0.7611276836640343  0.0033851419510221  0.9201281730700043
  0.3271169697597108  0.8422779856622921  0.1691627871215498
  0.8333350830021258  0.6691742958914686  0.6579846344456785
  0.6680541848237473  0.5808536331297786  0.4162476508561531
  0.5107018420492541  0.9724043018853259  0.8436118693601483
  0.5018344833727416  0.8267732345385445  0.4972396765171784
  0.4806052284571058  0.8810721883949474  0.7462157487819818
  0.5884746342465802  0.8352957001726643  0.7374696235830753
  0.6696689681932957  0.9155016494311574  0.4149734592066184
  0.5008325478463037  0.8338417803136375  0.3380045968303578
  0.7528562539266164  0.1736171091722115  0.9217951513773941
  0.6699971330597823  0.2528786006246058  0.4122240622688871
  0.7549842163647584  0.1675885984827353  0.4126932737740896
  0.6936216300729069  0.1609419261460253  0.6509881855564432
  0.6861964667649332  0.5855899621119426  0.7430019460157937
  0.0754165843290571  0.5834321772059473  0.3340702782279245
  0.9874296402187820  0.1685717702843582  0.8341013104290879
  0.0779421275854539  0.8332135427916835  0.4145612821457294
  0.0548438606958985  0.3304379696180947  0.9214677185625354
  0.9902635648125294  0.1629496202795000  0.0116633264879449
  0.2423510256249239  0.7437323892455954  0.6497920494782662
  0.9949249269034889  0.0864844725426008  0.2555384142776307
  0.1621165666207202  0.2429474072279712  0.7368860576328915
  0.0807509201511911  0.0040071156368649  0.4152169147729575
  0.9966463281078017  0.1685475076033552  0.3344014779962746
  0.0742803378036029  0.5040577449844899  0.9125034911851446
  0.9901071372747163  0.9141559903915373  0.0918680386411906
  0.9161553123136673  0.9992130910319952  0.7431156836299768
  0.0697332880622808  0.8305436912498747  0.7468467428463790
  0.2452779294742993  0.0841743452039397  0.3327300381393350
  0.5861665271681483  0.9143513854345195  0.3384850446042716
  0.2423503888185473  0.3357045458653742  0.4156641892240611
  0.0020405035214614  0.5955736418092320  0.9036340968789617
  0.8315179605520270  0.1676220283100909  0.3347863313459396
  0.1589742767151956  0.0034006057107370  0.4948740009803317
  0.9928603476940919  0.1656457472436474  0.1752705368864505
  0.9164349638150509  0.2567923735733284  0.8345092777736194
  0.1589895604254985  0.1706068455782712  0.6618342869468753
  0.0782121039694524  0.6635515592784068  0.4125136818922239
  0.9953786936123065  0.9176523041505710  0.7388317011201320
  0.9918917006204332  0.3401643523665016  0.6589733068688040
  0.0769894476930578  0.6672688626258215  0.5738451520598971
  0.0764457035901204  0.7492599322011037  0.3333356059408575
  0.0775648020605656  0.5081494886588442  0.7422628264438161
  0.9893293874683682  0.1702744458545850  0.6582358243132457
  0.0766658538962419  0.2523433033828377  0.4965327306049352
  0.1453092442114699  0.4131122006630303  0.0901418225627867
  0.0762336569148871  0.5837003956819453  0.4934822468158563
  0.1592745110599317  0.7491090291633100  0.2562882161192220
  0.2431909937294927  0.2556638444709861  0.4972747558106780
  0.1681313549384723  0.6566697793562180  0.0117465210085962
  0.9074439189682920  0.3311575657669474  0.0879630063391922
  0.1450245096051529  0.0057688544043990  0.6478248358971967
  0.1551696681860749  0.0838455875355390  0.0965816050685608
  0.9952381139423200  0.7473768024609810  0.4123456592755503
  0.7362040102966598  0.6794241379629898  0.0911159818030385
  0.9171036407146005  0.4171764779901259  0.0050251120607462
  0.9109746611093852  0.5003982125074641  0.2518077943820302
  0.9128106538956218  0.5024931224501489  0.5775425748575433
  0.7549752863626441  0.8310035001682913  0.2586251152446730
  0.0724574482424281  0.8327668709489948  0.5672896578395863
  0.2418455189418717  0.9192920135502985  0.3328522680922185
  0.1578660955306390  0.3346927659740964  0.3346007264280910
  0.3322511056039393  0.5843575615831053  0.2660890547930089
  0.2454165072733964  0.5806582652804780  0.3308434144972832
  0.1592186015372926  0.4170375631096664  0.4142216610313531
  0.3272542240121457  0.5832044998830258  0.5648339708183135
  0.1589536117883110  0.3344006832292747  0.1733583964504802
  0.0780550542484153  0.2517877837935084  0.3331419496604493
  0.3209894228245049  0.3829995499457772  0.7815279893717008
  0.0740005517893007  0.0012093722410446  0.2553142824249331
  0.1610087600648983  0.1665554539954630  0.1690126761043828
  0.2331603899986502  0.2520052687473734  0.0075680013908340
  0.9146648084007388  0.8308034480606578  0.9194273338716602
  0.0754189417453731  0.5006847309573890  0.2529316659757318
  0.9178460635797673  0.8336068350782063  0.7433435317374331
  0.0744068357349706  0.9171580122370242  0.3357809725591083
  0.0469010610728760  0.9233903401422928  0.8343401591565384
  0.2435941772112617  0.4143525880450163  0.3349067258971067
  0.2445172401093837  0.5814155204249053  0.4936928407643524
  0.9960424409739673  0.7471336808477747  0.2538916014140589
  0.3312499676531078  0.5918972137950242  0.7399151494480076
  0.9967768983155930  0.6677433909133718  0.8270366433674302
  0.9837674069660947  0.0078638534036642  0.8354796193761896
  0.4965967085717449  0.4998865487311341  0.1733227967950619
  0.5336806444835019  0.6527839170614875  0.0010484016084784
  0.5005649214088970  0.3124721525258186  0.8186399238136616
  0.4124920188290381  0.4195101448509416  0.4915981618562478
  0.5822812160116384  0.4165441713812955  0.3329064925658113
  0.6671512327284858  0.4198903352207777  0.4141411268070848
  0.5031301491903839  0.3308081804114273  0.5005501007607006
  0.5236125234989584  0.2420926352141852  0.8987915349349677
  0.4130059361086814  0.8338976086863938  0.4134806076561824
  0.3253698418809853  0.8294674909475744  0.6559390271551909
  0.2197583706610763  0.9808508974877095  0.9240701917559732
  0.2308588766943570  0.3451033314335873  0.0834086032162766
  0.3566157334061502  0.3122054803490670  0.9818032348784445
  0.6614890770280947  0.5854334801771639  0.2563905601035053
  0.3281388416063948  0.9948993918820264  0.8379002533044959
  0.1797358114354022  0.9814464210174932  0.7445647064392694
  0.0730947684913238  0.7458573037655546  0.6555122098062657
  0.5069561283738153  0.7880791481422191  0.8925047880818484
  0.4168329731255452  0.2342862388863652  0.4859173172648153
  0.4580307896151577  0.2706911171022152  0.5861361372801722
  0.3285179293267577  0.0839115956207838  0.4174408358146632
  0.3212468665490448  0.1673956294401415  0.3259688118550330
  0.3245210646751440  0.2534078100416122  0.2549602024079523
  0.2400344202078330  0.4964256430443965  0.2600250490059000
  0.4506060393677064  0.2425506876956699  0.9996952738009746
  0.3260179158690232  0.9987143669883090  0.4874894321358246
  0.1522463672445658  0.9255536507487933  0.8462656902740543
  0.2614733746026227  0.8984680619086922  0.8226262595910793
  0.2680775423466631  0.7919776818873786  0.7587919181567763
  0.4181235425307068  0.3797506269598643  0.5940751207489940
  0.5070094366765490  0.6647548096189552  0.6517338064599963
  0.4949938502591020  0.4007940043522177  0.8704062132205868
  0.2436451070107069  0.1682245440327875  0.2514713672517384
  0.4917902075659714  0.1308636687014215  0.8504536059657235
  0.4445389050134530  0.8575040118205637  0.8395918944257138
  0.5744304334869339  0.1380836003661596  0.7537908111663715
  0.6002427530935940  0.2516667515196411  0.4863382181140425
  0.5925696867266554  0.0772677922292374  0.1805114509954578
  0.5684696401277546  0.2348943264598690  0.0163096283654754
  0.4986092864296390  0.2501652103956509  0.2550296686603226
  0.3292262206794821  0.9866772346529009  0.1675486316000581
  0.4141434382302023  0.9181721467131012  0.3396217415460823
  0.4803687441693673  0.9838576877853294  0.7295536079402585
  0.5104570268946672  0.0845902048007304  0.5697299574945051
  0.7512722172795775  0.1675473058279235  0.2565236701846225
  0.5889048065857343  0.0801530553574177  0.3326999515803287
  0.4215559178481595  0.0028130283422692  0.1044356359497331
  0.5890740117837705  0.6884534135001104  0.0906308909168835
  0.3614898174598238  0.8938948847773552  0.7534784057565888
  0.4112546947249375  0.9657409286839206  0.9030632683444747
  0.6967330728657906  0.0218297652003649  0.8243526240220775
  0.6546306835957356  0.2291453048627720  0.9121666724634593
  0.6017500678895398  0.7585516295160005  0.8388052987253669
  0.4151770551480911  0.4153830336250696  0.3384289332201496
  0.4142607684070077  0.0029499603185700  0.4180187564425650
  0.5156744124354280  0.5986603152071064  0.7437573116377013
  0.7547169206915232  0.7462586506292866  0.1776172395738440
  0.9110698806802663  0.0013113368470373  0.9250607549853945
  0.0753700452080189  0.0040685996079159  0.5731314708778191
  0.9963838763971873  0.8323164827737902  0.4926323309747689
  0.4115701385455898  0.7509756087465855  0.1851898173927490
  0.9964380117980277  0.0870124588692685  0.4158647669442318
  0.2836005638472464  0.9849902048205759  0.7368933720543517
  0.4998077821711617  0.6670669201407795  0.3383028985476127
  0.3409678870497146  0.2588484112856461  0.5820297411090836
  0.8355306317587058  0.2511668916781735  0.9208341546568263
  0.8348418168629710  0.9153337590532088  0.5758514715983847
  0.7688725692159413  0.0907763235097058  0.8326218769040237
  0.7631767791971690  0.0013995355134738  0.7422510441370203
  0.8333638652267201  0.9158460225433579  0.4175953905455326
  0.9163997080335287  0.0840145503474986  0.4931112134653410
  0.8284741959647545  0.0843197823456245  0.0912288362981059
  0.9130484187888523  0.0006270705908192  0.2544588514365549
  0.6747050669454185  0.8397376010800222  0.8309461465734054
  0.8304793448971435  0.2473400777539055  0.0898640925458863
  0.6853395155501855  0.3424894892796327  0.8235235881194739
  0.8345143327932203  0.5070940590936974  0.6588307653808838
  0.9938265024293556  0.6638168644194882  0.3330947134193271
  0.9976788035259183  0.9176340758052280  0.4119085876189398
  0.9136862156311083  0.9147895110058760  0.1714892062385706
  0.8331143278992247  0.8294407533838785  0.0052169211834279
  0.8315003820989908  0.9136689438446134  0.0933949560631916
  0.7559349416453423  0.6714722201661615  0.9129253757715596
  0.8349609385490352  0.7512669280988186  0.9156644194122217
  0.9923065712204429  0.8308046271303885  0.8312596883097040
  0.7541753856389913  0.8372414802617267  0.7444775491363262
  0.7508873717876020  0.7491857958745246  0.4948207669887902
  0.8329071442070383  0.6645407175989148  0.3341997930768483
  0.4137810658244065  0.3305925756694249  0.4185876931080553
  0.2436203566161982  0.7511182488965779  0.4915062408133277
  0.4325049710102625  0.5215248534486877  0.7302569836343480
  0.5247880489449883  0.6819059913262359  0.8193210211559391
  0.3308288908459119  0.5157491926495132  0.6552110649062850
  0.9170756715982599  0.6725722213060091  0.0859949976460190
  0.9140319962907200  0.2543118110650004  0.4950200617646257
  0.8347475749389257  0.8340193193568944  0.6594500393942047
  0.8339860933683582  0.8350261643293924  0.4961848241934775
  0.8326214519495975  0.1658160069121963  0.6571640586116758
  0.8322021955223349  0.3355073107747718  0.3334823541071212
  0.4148658523544607  0.6688992343905746  0.4159090731513979
  0.4142504794386664  0.4992078457413443  0.4146173165545012
  0.5968569523223505  0.0710750590151746  0.0161644276211578
  0.5102207966118555  0.5134808859419757  0.8166501913736367
  0.9183265141407536  0.9158811466628212  0.8313920818344488
  0.5015260316629260  0.6704945671570025  0.4949938571644977
  0.4145179103878962  0.7547729362246191  0.4933311109812933
  0.8363093520823364  0.3399776891474621  0.6594645553850040
  0.5200123452866280  0.5991789488070383  0.8955851552151503
  0.3211742747152466  0.4265231174580448  0.5890177568992840
  0.6720584607092248  0.7577576519389787  0.7447428082820946
  0.2426566960791531  0.7509372176036090  0.3330361356143373
  0.9146860129192185  0.7476256075514491  0.1712646883684946
  0.9850582547280006  0.9198300496078985  0.9271229428859146
  0.4311739116359787  0.6581591404742210  0.9152115524317537
  0.3263690778055273  0.4974789030834702  0.4955942998445417
  0.4031028636499209  0.2095305523325678  0.9087100253642623
  0.8386376190835689  0.0830557508836768  0.7460628553172187
  0.9942925681661134  0.4184573240155446  0.4136692276265929
  0.8317748575041195  0.3369833881369210  0.4944900065339323
  0.9940657153406161  0.4201062256821413  0.5779937307502062
  0.5085026366300790  0.9100657300747972  0.0998022730348719
  0.7551369382180722  0.9979109477353180  0.2568007827650839
  0.8301553221353173  0.3367328909813029  0.9929723053027699
  0.3285538408727104  0.7573147427520576  0.2570637892858499
  0.4624739318518374  0.1359937970316032  0.7419257416726799
  0.3951530934189855  0.4192895831123066  0.7049143185103924
  0.3295099592271109  0.1474191590002790  0.6414379985246197
  0.5887285234619264  0.7506907848386812  0.9869957131392095
  0.3577474632423379  0.7052005015362314  0.9963511503459298
  0.1548885411808816  0.5074796384350371  0.6566092966172512
  0.3338623764682057  0.0188722042521524  0.6413578845470986
  0.5096014257942464  0.9933319209383202  0.6300809970756290
  0.5137668065257798  0.1656536114926896  0.6423461146941198
  0.3085236324034056  0.1609591908400556  0.8334893693724388
  0.2983917935705633  0.2518812331924682  0.9077378275008436
  0.4280350702573447  0.2230067266303762  0.8059992580518032
  0.4145627664512030  0.3372803367506629  0.2554124796060386
  0.2517804747830040  0.7361915812468188  0.0307746085325686
  0.4144158889234978  0.3141281988506043  0.0920250911564701
  0.4009792077953599  0.4127615284821881  0.0466234486698946
  0.4142032756583215  0.2142054085047762  0.6754675691032608
  0.4328241602246616  0.0993781690878273  0.4850258546547300
  0.4068561368835740  0.4079686043837373  0.9346127978882980
  0.1583676896558258  0.6685478467958096  0.6550902300976233
  0.4067286625205128  0.2551614329542074  0.1830644614546632
  0.5013214399872086  0.9939513443100985  0.3365927140321179
  0.3281664007247204  0.1691960168594190  0.1685335953278803
  0.4296634347827017  0.0742758552593188  0.6529554873319925
  0.2444666126189708  0.6663409282613737  0.4124798924619086
  0.8340778306213061  0.4200962372488680  0.5774083119036465
  0.2659749670761024  0.0756275139249589  0.9001293689699946
  0.4990287483678738  0.3338009024728228  0.3350357383692645
  0.5059044162657508  0.0634488520153136  0.9350453785437638
  0.3259849875920003  0.1755379060059200  0.4959663142421114
  0.3416250715950171  0.2004944027609078  0.0095487523399794
  0.2434312565725768  0.7527642606606715  0.1778637631740981
  0.3124590289432841  0.2626767038175101  0.0920563741705555
  0.3214291315674032  0.3411651985807208  0.5000753851905333
  0.4104461701177438  0.1274590563493830  0.0754401212053608
  0.3017710908666533  0.2608892617786149  0.7838860995154546
  0.3290600322212235  0.6699807880803171  0.3359179589143494
  0.5085643438017712  0.1567200221351404  0.1868764270206852
  0.5062378875016437  0.0781838496309061  0.4054286696989646
  0.3246627455907768  0.3400883597658216  0.1720428026493621
  0.1585355597387232  0.7530874469161249  0.7342404314234600
  0.2441734586715973  0.6732903144966584  0.7356552779560409
  0.3287374389016309  0.3330534279542796  0.3360157864537582
  0.3280905596373097  0.5824277104471325  0.4130476654871700
  0.4212088141606388  0.8327699272427616  0.1008533360380099
  0.4145481215618926  0.7523724310057299  0.3370552725619052
  0.2412545287197789  0.5148799682485916  0.7318782717313107
  0.1479306456427582  0.4228372997824519  0.7431013201884139
  0.2951926516451958  0.5562955733511873  0.0866408442068923
  0.3271480551616401  0.4990192197517618  0.1922413332313936
  0.4172998524127486  0.4977268353737864  0.2573156322525497
  0.3829082738830888  0.3174718133495290  0.8597775095956295
  0.1566318361023429  0.2515560551478342  0.0923163789779440
  0.1598070810163901  0.6655116786927541  0.1747862554414460
  0.3255162937125637  0.2527030066894166  0.4139241171357380
  0.2429715555216104  0.6683409789249696  0.2571716851650497
  0.4131184236355532  0.1664963048543151  0.2560159075219411
  0.2399452929323511  0.5609822280133432  0.9950752844844604
  0.5849665451432458  0.8316546589118006  0.4170890315707459
  0.2428886225415010  0.6666398801182997  0.5683695442789104
  0.2654665908296427  0.6554931832638026  0.9408178733725479
  0.2353616773047440  0.8313928777000550  0.0978910076270988
  0.1599735713729118  0.9178857841441642  0.4140832102583343
  0.2360934106156611  0.9149863035071749  0.1793950058150821
  0.1838882747257272  0.7513476452715644  0.9404044343547034
  0.1611026918200547  0.5822232655852059  0.4130731120606380
  0.1545978171725121  0.9170445374033031  0.5710297610153710
  0.2425706803735263  0.8343659904144574  0.4125695861857854
  0.2283708249906936  0.9250681092844395  0.6504007263103820
  0.1595105140097002  0.8338169566892807  0.3340141188013460
  0.2319257492278382  0.9179340051188269  0.0190707602912855
  0.1552909975149861  0.8316685611507019  0.1762190570235448
  0.1604074766489566  0.7492795275051032  0.4125469691008333
  0.1587733141143370  0.7474951083672342  0.5708869672013150
  0.1614612762746654  0.0903835282411486  0.5780744242212711
  0.2414693860405131  0.9178420270010926  0.4943959741208202
  0.6655672239792807  0.4205131852485041  0.5785831508794216
  0.5038004787578841  0.8336751690645346  0.1807769741602021
  0.3257893163847346  0.9185593372235970  0.5730961710347220
  0.2409876601092368  0.8336272100395710  0.5748852633658597
  0.3484523038738454  0.0861655304481892  0.7386820960725948
  0.2086433119959699  0.3940790424283735  0.8384005148329412
  0.2273828040539288  0.3372583373139399  0.9369817369031602
  0.3249941711061668  0.8341494343538364  0.4929206569325397
  0.3419754790589869  0.8068024591389102  0.8448691800598774
  0.3991760737512644  0.8413605570512389  0.9430274045194538
  0.3905893340883749  0.7889507925082764  0.7439474782646934
  0.1332617805555245  0.4074863129641333  0.9207351771735333
  0.5972171276615421  0.9938992613842211  0.1005163573577016
  0.5895502975969370  0.1590834600093233  0.0986057456947070
  0.5234869641523221  0.7991831546446696  0.0651621243878659
  0.5036861680930247  0.0758722367788708  0.2600658241534579
  0.3276158894691144  0.8535965567402706  0.0358199681526619
  0.1633390430239825  0.5773794772043923  0.9140127106885064
  0.4885350461647592  0.9183210433953465  0.5527148637685221
  0.3233133505449663  0.9177288116141912  0.4115632015293265
  0.4051910170650038  0.7452718920843162  0.6408086735198966
  0.3301426348673117  0.4971015543172994  0.3360242374562343
  0.5063881954460223  0.0057399833343970  0.4901585900643079
  0.5904666832455574  0.4297463899878549  0.6787187314819558
  0.5883554855775731  0.9003093612646131  0.0249948885166104
  0.5901914371987608  0.5047823644826666  0.9039087790944713
  0.4129251448064779  0.2532399172542031  0.3320114194128611
  0.3090137055122504  0.3990488034198680  0.8920039468927926
  0.3272543590847747  0.4159612002402435  0.4142019722036758
  0.4001841513880650  0.4519916679711633  0.8271935972397700
  0.6711664778267677  0.9151320474796845  0.2582573687407919
  0.1599252439252795  0.5016383211902601  0.4946373160882893
  0.2321930517851454  0.0658272810161087  0.0190838714066426
  0.4234564257210282  0.5056597274506711  0.0001980454800872
  0.5021271668467461  0.9149626053543000  0.2586842075047792
  0.2451045326417168  0.5799419555174404  0.1866404390473015
  0.5913382604556572  0.9084360424780603  0.1749521529810583
  0.1537838434482013  0.6749200125180247  0.8138443486890399
  0.4137603238154660  0.5825620271672407  0.4909804044623132
  0.3272310009959877  0.8352596100490076  0.3355613328921189
  0.5943084098552703  0.8278607916871868  0.5742765394219824
  0.8389527732793377  0.9973074615343289  0.6573579850899928
  0.3308162852386931  0.0925662641333804  0.9954630550105856
  0.3941592211756704  0.3031760023441414  0.7445266233089687
  0.5104852223415133  0.0748865724573414  0.1091879345749131
  0.2424822830179236  0.5900488851300054  0.6524499971863748
  0.5061049553983923  0.9923657083716318  0.1799043444621982
  0.1615289394346880  0.8062583297004505  0.8378544329233334
  0.2109334423137979  0.8629988140996461  0.9229843349883018
  0.3204924523699718  0.0742195250144834  0.1041573478749178
  0.3279828624069463  0.0017479802316122  0.3351405240455256
  0.3843200449495133  0.0903197548434010  0.8985739670448425
  0.5002000779141664  0.9157791776295892  0.4199057309992743
  0.3279435038786425  0.0796542013251273  0.2497657421464085
  0.1595569362577466  0.8323883715741406  0.4931603107583281
  0.4169326164523642  0.0782285569933898  0.1808228231399712
  0.2395272315480031  0.3374037832845402  0.5775817211704346
  0.0737894377145582  0.1658543470757610  0.0935448436110361
  0.4019198386959071  0.1674521406627858  0.4005059233133730
  0.3567080515239914  0.5925788778328497  0.9876740259585599
  0.3265065785299791  0.6628463494063704  0.6470177941914516
  0.3377027413314933  0.6910645057120161  0.7949793260311891
  0.3292127227693208  0.4134593414620446  0.2578571343390881
  0.1576569038790674  0.5816115463692395  0.2548072700014383
  0.4220533168238670  0.6742031551734955  0.7242289002901998
  0.5840827786427225  0.6662719022772364  0.4167511844044269
  0.4320407513546772  0.7350951618217879  0.8259805607231300
  0.2507936960374604  0.6632624966906258  0.1112499236775127
  0.3253416856599182  0.9812658174279847  0.0354401726733881
  0.4006415812906365  0.5147257796149518  0.1076622497396840