 B Cr Ni 
 1.0000000000000000
    21.1200000000000010    0.0000000000000000    0.0000000000000000
     0.0000000000000000   21.1200000000000010    0.0000000000000000
     0.0000000000000000    0.0000000000000000   21.1200000000000010
 B   Cr  Ni 
  86 259 605
Direct
  0.4885283883192632  0.1636026669284412  0.4316002833759219
  0.4226554532197433  0.1693809691960556  0.1574308333857318
  0.4177360367678779  0.1354303240225320  0.9800713431830294
  0.3354552896876475  0.4889199614830975  0.7547532405454809
  0.5820919383882983  0.1724522870924349  0.8501075293925575
  0.4197687381089928  0.9490085550044449  0.8063387103049048
  0.2578080724696505  0.1542584200543523  0.9946478595050091
  0.2585404117281123  0.0892247471232379  0.5873214674873886
  0.3559142060712290  0.1820226439112072  0.7484029652932702
  0.3296682103759282  0.3524264134960211  0.0728734276790230
  0.4835447661217040  0.1663173718748743  0.9424957629427516
  0.5538075540733085  0.8388702051734129  0.0073755360968456
  0.4936050740258806  0.4331558561272952  0.5499270982330819
  0.5585983703199601  0.3071721603681662  0.6697606087657423
  0.0972949430969886  0.7607184354362261  0.9081188930576004
  0.8931461156846003  0.5789154061810352  0.0712280695867848
  0.5211538426840958  0.2095869796777290  0.8039020400982896
  0.3955394041876721  0.2192699298697941  0.0918518749607837
  0.4883235434313219  0.9817835442463524  0.9508059907707948
  0.4957971726191702  0.5542388755395000  0.6535038681035690
  0.8098816282951936  0.4348772940848264  0.9949955833183524
  0.4312153202096253  0.6469509541653899  0.0215903075466809
  0.5256663794596647  0.6982384881163700  0.9186799202029305
  0.3918285402387493  0.7849401963934192  0.0269544102710965
  0.5189189569474691  0.0713394730470861  0.6945464788163798
  0.4242099059440755  0.3734668457274233  0.7886000641153271
  0.2579849590798959  0.5572501755245414  0.9051564824639584
  0.2352902254102881  0.4393785409185902  0.7671737065809067
  0.4488623753850006  0.3130161393404752  0.9228052254562096
  0.6681277376200002  0.7503460212850394  0.1287135969980316
  0.3822993046986660  0.9933123490202742  0.7377332841274064
  0.3925507553976800  0.1340715795496802  0.8147796043481974
  0.0986047312164528  0.9260398073269437  0.7579813947556050
  0.1944431058541128  0.4079761436773278  0.9975694408836826
  0.4989440890723998  0.7488039395175223  0.1562479182513000
  0.3251912831950285  0.2424719929857075  0.6913183161843708
  0.4692108812048532  0.8373232561712328  0.0154665475610816
  0.6685287465088157  0.3517144121149395  0.0706646943967931
  0.3275150594259908  0.7293238291119026  0.7095294280129748
  0.3224176582122341  0.9265874564980031  0.6672892450694147
  0.6710495947523265  0.7469947650624424  0.0465442022852976
  0.3109655354301856  0.1595973291251536  0.9279730542493608
  0.5966809175094238  0.5853955081975818  0.0492474890875877
  0.1454668718904065  0.9221158360217047  0.9545580373138211
  0.5333901996097049  0.5072795823372013  0.7058667033750474
  0.2842031708122891  0.6397926116425495  0.0316915487491468
  0.3340011409707132  0.5832997315366193  0.1626989662584148
  0.6633299578529956  0.0044898448002189  0.9123244868330331
  0.2301769548477273  0.8340749124965650  0.6776249502393606
  0.3682301662690915  0.9149775713274310  0.1004860611383706
  0.5170953156302794  0.0600273161905225  0.7822024985308341
  0.3963751395292685  0.7540976995831734  0.9133924784530405
  0.5666709310049943  0.9320802525899159  0.7644137085712708
  0.2413525030457532  0.8241673700325165  0.0046453261737796
  0.5697899758784778  0.7428318425563476  0.7503144230790357
  0.0916330348850022  0.9955067077850224  0.8201153907696415
  0.3714830430542780  0.5384668967265972  0.8143692352118374
  0.5740212989037248  0.9165345612823016  0.5865595572475467
  0.2714615193167887  0.8854418688481260  0.7238271240256587
  0.7320608862113951  0.3376547835776809  0.6751820476714925
  0.6636497198484044  0.1870156989258344  0.7450655887000680
  0.6091813459285574  0.3366772602522030  0.5509215861687705
  0.3326742995519116  0.4918744408119564  0.0312197327704202
  0.0238925553328268  0.2646374441446796  0.8378563548610904
  0.4068150347463005  0.3207926463992635  0.5177486294260187
  0.4574968223803946  0.5855076010726739  0.9766410679119382
  0.3361937689660112  0.7008797994166550  0.8937119054614268
  0.1830886010645384  0.6660892655123608  0.8996100165687644
  0.0731465499217253  0.2584618465338257  0.7670201686989558
  0.0937479172342827  0.5779356675884622  0.0745824101806104
  0.2855651380830678  0.9154844338036493  0.1008190802887897
  0.5792118279805527  0.4131406561509397  0.9251204038119165
  0.6036834904902685  0.5844462656950906  0.9602956738389998
  0.2339138206849412  0.9887653302779723  0.8269723212199960
  0.4848342366356395  0.4939171292740618  0.0696882403660833
  0.7734411833187369  0.3978215447247124  0.9269232007794043
  0.7449274330360840  0.5059260564867608  0.1393943890629490
  0.2743605982931331  0.3248426594343197  0.8480780636737466
  0.2505871142986938  0.8064012644425121  0.8625943267243801
  0.3584706679868970  0.8995372663002215  0.8531989680009100
  0.3978985177531338  0.3048559660814806  0.6537512122049176
  0.4503823135670932  0.3479605755391951  0.0025979750778918
  0.5128395410261715  0.7857114273716095  0.7959203358097623
  0.3279792955007272  0.0125800883664909  0.9427951525630471
  0.4267213913168941  0.8340645309869864  0.6719495632154214
  0.5006078167517277  0.3094951752894586  0.0606048618541861
  0.7479510643935601  0.5006168181696220  0.4139625876543180
  0.7486942000646738  0.5825362763523093  0.4950705140688815
  0.6816461198489375  0.4114808966864896  0.7430859143704093
  0.1508830088227130  0.9178799788632027  0.0988659270512632
  0.8306357140789044  0.5008304096017302  0.3321384354327566
  0.7499399122786017  0.4991414523826131  0.2514737708051605
  0.6588716333446251  0.5055138658388088  0.1874906986801901
  0.5392097440249363  0.3263256554960616  0.9725079757910221
  0.5778301190702485  0.4976965446515974  0.5818011009996173
  0.5014032884547845  0.4284277290099008  0.7606210597913600
  0.7632625650833983  0.1711982044525023  0.7447544588283209
  0.8327431267487755  0.8326174295892516  0.3352190239957366
  0.6672119512980643  0.2514711463237630  0.2531925492946281
  0.9918846802011524  0.0008870758755372  0.0073421423751884
  0.2200105449832350  0.4732029219183663  0.0707502121942987
  0.9957776698830588  0.7485098296084594  0.0885931728894779
  0.9895532679943251  0.4104928159948809  0.0926203789463168
  0.1578729473774234  0.1670755446558841  0.0154362160969687
  0.2429028240769174  0.1661365361892115  0.0923311478214129
  0.8629936520358117  0.4281249582473804  0.9120823486568488
  0.0683963136567655  0.0959641060341006  0.8333414574790343
  0.9932890652547718  0.5865783588225078  0.0840520088824118
  0.3326254212031251  0.7513947612369889  0.1074402395685632
  0.1378894865501707  0.5012238113052842  0.0053678418148185
  0.3328790547308779  0.5919677782032963  0.7387804125020698
  0.4148239475217364  0.7545554201591806  0.4932953775594747
  0.5009869013591194  0.6704548763677048  0.4948352897223249
  0.7560657857985087  0.5033238768813646  0.7443921336376056
  0.8327342286500211  0.5858866836187157  0.7407615621139672
  0.7624442485978578  0.5003039445706331  0.9233131307929449
  0.5892680563530031  0.0683903689983191  0.8529421494660677
  0.6638192795556710  0.6553024451790732  0.0048255124654989
  0.6677938680893010  0.3332452786618311  0.1728996710074147
  0.4155559592180066  0.9948437074933066  0.2564991584126867
  0.5017738962426482  0.7530392869462476  0.5787927407450695
  0.6685358796935523  0.7485030191676900  0.4167756176708082
  0.8362290772048521  0.3350784002618876  0.8526298326293797
  0.6690117203249031  0.2488319282592682  0.0930983005359945
  0.7520770123833140  0.1685955780104117  0.0912123405052696
  0.8329244436607196  0.0873852397749381  0.9209952699590411
  0.7619177841949808  0.0796649408558060  0.6574425247695846
  0.7578999842515827  0.1687311620341443  0.5701930006102640
  0.5868353554907114  0.0860506003478257  0.4924857311600706
  0.1148171294743634  0.3246695804675664  0.8367696517571637
  0.6852778018249258  0.5852488678614999  0.7426139293807766
  0.8337173161020778  0.9990553630104717  0.3349286306728969
  0.5565660322578834  0.8668171856119127  0.8382426176107572
  0.6673883903564962  0.5811761363648625  0.4161937207989411
  0.5110377219925749  0.9733935293667781  0.8442747181646821
  0.5011933877195633  0.8273795496006333  0.4966279702070380
  0.4812865505593976  0.8801219317171081  0.7476650756931649
  0.5899086519358713  0.8353683664454653  0.7393782867213582
  0.6691111199574841  0.9156935678314331  0.4146308922776687
  0.5011467978879089  0.8338790574126339  0.3367424898216548
  0.7525412845777244  0.1741345900074250  0.9214989399761691
  0.6697808443186991  0.2527570769329890  0.4120748055720888
  0.7546790352115619  0.1677880178231039  0.4127038232096100
  0.6924361563790551  0.1618062716663167  0.6505770147893908
  0.7629647181205017  0.0059128038377367  0.9193444512451198
  0.3268050772485921  0.8430643100260539  0.1686122785732177
  0.8331322512995402  0.6687086091099056  0.6579307748981288
  0.5861229786870643  0.8347062629466139  0.2616642070183232
  0.0748047340536556  0.5842332836754828  0.3355848298294588
  0.9941136876462721  0.0862809949778334  0.2559239471679578
  0.0787236555766418  0.8338484597495388  0.4158048277833891
  0.0738186306280239  0.5045352476255395  0.9119147365033311
  0.2423671734198188  0.3349487974974397  0.4150486149924369
  0.5861807043369626  0.9143529483676059  0.3374159187199198
  0.0808099043913551  0.8528282611760097  0.9187451807598449
  0.0692944393010817  0.8315623233650064  0.7460108748256176
  0.2434180175547100  0.2556794764098766  0.4962958427403633
  0.9184865702739811  0.0001951859088664  0.7441303676072205
  0.2444775148844060  0.5810454966848760  0.3311620719603490
  0.1582273480482647  0.7500163701167998  0.2566330922111547
  0.9914408254938634  0.1632042575886877  0.0108388156007152
  0.9949325376719433  0.5007682610954844  0.4978045369947202
  0.0554254802975771  0.3299683779392531  0.9205705960904074
  0.0806129921718808  0.0034597108381710  0.4157234012497104
  0.9954331145686139  0.7478719197088405  0.2534144381054245
  0.2428884834542766  0.7438372235750954  0.6500298093156517
  0.2450931082433179  0.0839455614220019  0.3323676843716355
  0.1596503800058146  0.0034259431257430  0.4953968786754506
  0.0774973157127313  0.6676439695580205  0.5743738567091283
  0.9903858100871116  0.1714723474542713  0.6580032250485380
  0.0781536367301159  0.5082108338630349  0.7416443650616699
  0.0762490924376851  0.7500349113145542  0.3345021200142517
  0.9925498723732185  0.1658186320492464  0.1751525082020308
  0.9929997327401865  0.3400690908082448  0.6592440051180860
  0.1437476313460999  0.4127921594195846  0.0909190816967934
  0.0781961119440722  0.6646230455905008  0.4134880893572552
  0.1597259331118783  0.1701853466600327  0.6606023016401114
  0.9174696264010401  0.2559295095345149  0.8338389446235727
  0.9937771691557309  0.9176761549985764  0.7384094817570090
  0.0775591882754817  0.2533083473872751  0.4969940175563952
  0.0775297829652881  0.5844517162383364  0.4943152117049747
  0.1601495219849969  0.4203955623457630  0.5796251457122442
  0.3270859019811889  0.5820915679925485  0.5659460840508268
  0.1668946054846403  0.6562463201596811  0.0118654199232121
  0.9072593812904429  0.3306418140482130  0.0883341101004025
  0.1469804938465362  0.0062897420478725  0.6459983786030417
  0.1549831804002598  0.0840742204077508  0.0968623914867039
  0.9949815605396134  0.7482626348802199  0.4127490624552833
  0.7363459498353790  0.6795130180357751  0.0914623089510348
  0.9182354663232578  0.4180408882697056  0.0041047427352065
  0.9118668078963874  0.5012377049314487  0.2539693411929411
  0.9138954116673086  0.5020101340225356  0.5761316090491160
  0.7540647843010511  0.8310576723613735  0.2576758631451299
  0.0724591505943687  0.8331989274170452  0.5680632364929983
  0.2423132942082956  0.9194119522333987  0.3332735598422351
  0.1568823725721171  0.3341708971880337  0.3342238935556878
  0.3311327589568915  0.5842718995008646  0.2666249104314064
  0.1578173720788297  0.3344024507316702  0.1739640877788513
  0.0777169223993938  0.2514930912446622  0.3334773531803888
  0.3170508341067381  0.3855609741615692  0.7758125645459775
  0.0743620913210842  0.0011989160887992  0.2560783871085995
  0.1598753758239713  0.1666425511493461  0.1696069912586852
  0.2335384423640127  0.2531505484056669  0.0082112137267816
  0.9124010027054782  0.8301500371548874  0.9199861652121348
  0.0746832502947154  0.5006090095859625  0.2533090055290204
  0.9158949410874252  0.8340716513860653  0.7423728232908184
  0.0745343925557386  0.9164813114873857  0.3373954896390393
  0.0436703616335412  0.9123556872602560  0.8381043503787832
  0.2428131696625306  0.4139075032532962  0.3354700679652858
  0.9901307620164923  0.1670024113340537  0.8338199211752867
  0.1642023552788761  0.2396700414671668  0.7395746707701092
  0.9905052096805812  0.9144917239986662  0.0899082425075900
  0.2446582039793195  0.5813511728123465  0.4941577452266431
  0.1590006867712947  0.4170803438087218  0.4137267126449862
  0.4300434995516635  0.6564923301254554  0.9160995063483190
  0.8315555950345989  0.1678152854360981  0.3349728205309895
  0.9968482160713376  0.9176160801348646  0.4135694834975181
  0.4960105081361975  0.4997351591092343  0.1735662326274613
  0.5343065064493654  0.6512108862858412  0.0024478602956510
  0.4982047121312618  0.3134031904949208  0.8177025872642613
  0.4124910555944762  0.4188070177543202  0.4905145535951270
  0.5822335765515284  0.4166622175029366  0.3328021917010594
  0.5818739938772551  0.4156532468243774  0.4987941048606399
  0.5029863702466806  0.3303374962895749  0.4998829064310806
  0.5227150375243491  0.2434714868866124  0.8978935651784684
  0.4134439026617572  0.8341153046800850  0.4129944466343402
  0.3256494801526178  0.8281517702017940  0.6568693778841459
  0.6612598612781700  0.5856643561483349  0.2562270471432649
  0.9963508165732140  0.0867285108954007  0.4161159631997007
  0.5052118537911982  0.6641350212795475  0.6506935229736591
  0.2223018690278210  0.9806722966339793  0.9254985388945450
  0.3295067858021107  0.9938968929732653  0.8390156823566041
  0.4164662381425189  0.2335449129442147  0.4851542005737175
  0.4580032697321185  0.2698686038501454  0.5859098148111257
  0.3284934533750072  0.0837711990424242  0.4160775897798671
  0.3212842149726105  0.1670708584094955  0.3254037120393015
  0.3241504681809121  0.2532560569514560  0.2547056449624714
  0.2383698918412640  0.4965005333209117  0.2610738842879059
  0.4497953114291156  0.2442443980195153  0.9994316508615499
  0.3277379422004297  0.9994011139281390  0.4874528041505757
  0.1548482353735486  0.9256853156960588  0.8494454818177732
  0.2627882556616380  0.8965008240532777  0.8231516610554849
  0.2680186391917411  0.7918913510803499  0.7601054684042550
  0.1782860013046915  0.9824855921734347  0.7467524254162262
  0.0731641826644638  0.7466864824559933  0.6554146499980299
  0.5090321177675631  0.7894761172764635  0.8981284925085311
  0.4177108883217827  0.3789778808017217  0.5932369981431077
  0.3563674610061780  0.3124342096825223  0.9816322370223987
  0.4933025524852788  0.4012661184695960  0.8697805841718891
  0.0019460410013300  0.5957870476063031  0.9026151496128272
  0.7517826920938941  0.1680499230696117  0.2563731248932632
  0.5097961761965532  0.0846150155852375  0.5687972917245959
  0.4979098756201998  0.3283672868014261  0.1735969063883477
  0.4800004378056564  0.9832930695059527  0.7304337985512023
  0.4142664692060267  0.9187896526219854  0.3391832668299867
  0.5997171062193402  0.2515221770530295  0.4859631949954683
  0.3288142780411509  0.9864626666953863  0.1670193962716077
  0.5732260046292560  0.1388642138326748  0.7535488418118399
  0.5883511306560563  0.0801276556798907  0.3320278770013646
  0.5684958956315035  0.2362634358324453  0.0161616670582372
  0.4462152050133384  0.8573386169536653  0.8420323934890019
  0.4905721093330735  0.1323669894784387  0.8504215479429498
  0.5929811725113073  0.0777987065872797  0.1795032301068592
  0.4208406106423022  0.0026504126184782  0.1047017413847104
  0.9124904124636961  0.0019090073243254  0.9224703301761280
  0.3627323701382226  0.8928161869059781  0.7541492477561788
  0.4121007593648712  0.9637729562848349  0.9043358235966584
  0.6960029770059160  0.0225859243220643  0.8223342428572987
  0.6542553464485354  0.2301932962181583  0.9111622361911641
  0.6031107534822935  0.7587343225316188  0.8406138144735819
  0.4147934077568228  0.4152526308329872  0.3384355434946990
  0.4145510607413830  0.0025644151402102  0.4171010565465478
  0.0754639584838552  0.0041812905386106  0.5738459043930149
  0.9959552692647207  0.8324793297348567  0.4933578309974486
  0.2436992880087570  0.1682837227928313  0.2512299490652440
  0.9962784249717809  0.6683416062802181  0.8260889245221742
  0.9964810829087238  0.1688233624383536  0.3348014573867931
  0.7544109191653126  0.7471090972270932  0.1776226269727227
  0.2301699777564076  0.3450278099160359  0.0845756861502823
  0.2838977423206971  0.9833563798480682  0.7374992653020852
  0.5141509316774573  0.5984860305184013  0.7433130230181986
  0.3407062892506187  0.2574396655215614  0.5812887005332571
  0.8364026918762832  0.2508713670294282  0.9197484866723289
  0.8336703487427227  0.9158782289969140  0.5759705510349317
  0.7679007356027260  0.0917802553107234  0.8320948505023302
  0.7630745984072939  0.0032703463070686  0.7415121926301930
  0.8332139039452144  0.9162520541100071  0.4172040462815823
  0.9160530884120225  0.0847023668485409  0.4930202133429383
  0.8297888078734161  0.0854250841673112  0.0907064773961756
  0.9131109418054865  0.0000807975101819  0.2546185285627056
  0.6775104486219754  0.8400551848718352  0.8302884975689211
  0.8335489642661877  0.2506517776319042  0.0889006981518953
  0.6845535923856736  0.3420982137857311  0.8233417571079068
  0.8342998186201247  0.5067230066052490  0.6589010955555793
  0.9939592618459693  0.6647356847890588  0.3334583090705059
  0.8299454249296825  0.9142878491109077  0.0922654622517730
  0.7569187608489880  0.6690583322036843  0.9127424502819598
  0.8350852082922007  0.7500212514665152  0.9148397613855911
  0.9865403029356093  0.8271236825438401  0.8292727126493028
  0.7513273652529433  0.8364786814794285  0.7441536801681325
  0.7500603198170372  0.7492945726302951  0.4949219415260646
  0.8326292290770140  0.6648325004908957  0.3347479703873329
  0.4138494226723229  0.3299542894304311  0.4178842857092024
  0.2443163502598891  0.7516420489642622  0.4918857150387768
  0.4302104229423357  0.5207185229560481  0.7307075382594809
  0.5255824953504964  0.6817381927659901  0.8199831338161703
  0.3285442591127052  0.5091597928316287  0.6558900357358403
  0.8359380784138788  0.3400548362708395  0.6593906706342088
  0.5089928706566533  0.5134647506782392  0.8166339454675654
  0.5190789363753313  0.5983916530392193  0.8962438524882302
  0.9173714751672959  0.6730015484249866  0.0865446943934519
  0.9141719861877876  0.2547013367877569  0.4955054034093309
  0.9136044153725549  0.8308774520662562  0.2525246119817997
  0.8319471662672919  0.8300198909660063  0.0054682604314431
  0.8323949211849745  0.1663956517681851  0.6574943048481297
  0.9905380524210362  0.0081736191691952  0.8335847546963100
  0.9836834218251918  0.9197114485760565  0.9276034987432868
  0.9143224305766561  0.7484470431587984  0.1718528768081824
  0.4055662058698369  0.7532247958596661  0.1883620147428394
  0.6733424878890246  0.7552104975155177  0.7438489242048898
  0.8330724966867545  0.8350795907008549  0.4962254649808185
  0.3216327901103737  0.4237076958372404  0.5833949938539847
  0.3264262028293340  0.4977924164481342  0.4944073262968374
  0.5953332726966227  0.0745370195836615  0.0192118865526724
  0.4994641747531551  0.6671355205154134  0.3375051076524678
  0.4147503257843859  0.6689763802467564  0.4154001501706044
  0.5970224463893555  0.6818710367099736  0.0896227388481017
  0.8327120930340793  0.3357475579768778  0.3335540060699977
  0.9174598069953467  0.9167593110118941  0.8311398468394339
  0.8329340165409264  0.8346397526299656  0.6593044914569508
  0.4139862650396757  0.4992993951973537  0.4141692599042730
  0.2421371113881168  0.7514306942036761  0.3338008518817691
  0.4021957304839093  0.2103916470200004  0.9085179603660615
  0.8309391159320686  0.3363394203839269  0.9930721000211796
  0.3867307994567554  0.4209583200283716  0.7013723646535281
  0.4617244105165805  0.1364739597255290  0.7424057656446533
  0.3262383651052799  0.7570355810596129  0.2591139297052625
  0.8389337247179388  0.0842884059344921  0.7460100295250580
  0.7551586854411710  0.9987919822879276  0.2568655024404574
  0.5902539599360995  0.7461304465512899  0.9862810253190990
  0.0781949644567139  0.5035591721199171  0.5758954584139098
  0.8309515436637357  0.3365806854896458  0.4947595906605879
  0.9949977295193732  0.4185583710126687  0.4158988387574836
  0.5188250126382330  0.9005890075179513  0.0901528216833091
  0.3265078725703640  0.1479121942253701  0.6433700734598947
  0.4309252358484190  0.0985179475218997  0.4851000273901515
  0.1586390772852847  0.5064517728130946  0.6580819356076036
  0.3360523426204145  0.0167948132488016  0.6434686224624309
  0.5095408515072014  0.9947092384124383  0.6311890706312244
  0.5128539821584039  0.1657882010359258  0.6420502148178918
  0.3073409972075505  0.1619931669342851  0.8350100028656203
  0.2980662206376891  0.2537870197003353  0.9074302508092974
  0.4259183733945170  0.2235589222005822  0.8054943384020828
  0.4141838959768695  0.3372793058077002  0.2554353899398980
  0.2501441891812551  0.7354038084932463  0.0306685299714475
  0.4142111652526145  0.3146941782904460  0.0923486747761858
  0.4127450649317462  0.2130306069603585  0.6752361129302510
  0.3998462007282459  0.4125257879742937  0.0465428790711156
  0.3562789475285165  0.7038685727505811  0.9973746433322104
  0.4050856941792301  0.4081330670580033  0.9342602313621522
  0.1589329072741215  0.6690246146584153  0.6551732632124900
  0.2425516905893925  0.7527930744150039  0.1783903069267108
  0.5022537996890218  0.9159568958750327  0.2580057234109662
  0.4989486293925213  0.3336634907989302  0.3346928180733577
  0.5023231136946306  0.0689609297242879  0.9370409675071788
  0.3263355480795450  0.1738330132863173  0.4950741299997524
  0.3417467637057487  0.2008185143948132  0.0097648819037566
  0.3125302925365191  0.2624092763522427  0.0927322240937293
  0.3214438987393923  0.3394696395158434  0.4984511180039245
  0.4096699779246311  0.1272441872165940  0.0747622988234161
  0.3011532871380284  0.2606569320954342  0.7835146794000969
  0.3285620957474097  0.6699948635019343  0.3361989106427003
  0.5085736765163854  0.1575315430231629  0.1866277603958482
  0.3281503386027312  0.1689400546047759  0.1683580043738899
  0.5015897049186618  0.9945785868560693  0.3357522984558510
  0.2442164811450838  0.6666541381931164  0.4129682686207350
  0.5057988962417959  0.0777525871815224  0.4061121069445442
  0.4064560167388014  0.2551807455291533  0.1829878271425217
  0.5040588961592810  0.8362058513504382  0.1804126193551991
  0.5923006548327574  0.9093075329826751  0.1739471381248473
  0.2418128175568164  0.6686239001465443  0.2577510368900392
  0.3277529666190683  0.5826994402250594  0.4127751742533088
  0.4220888908407613  0.8313722255600858  0.1005885933898679
  0.4146810529764240  0.7526204317431598  0.3361676258937810
  0.2422489621176717  0.5222303061877200  0.7344452147677377
  0.1501459893400044  0.4236019354900610  0.7405571139664595
  0.2928696387729497  0.5540411818193517  0.0879725224033552
  0.3256316578836412  0.4986041458898073  0.1927991475415885
  0.4164270791808400  0.4972915719012282  0.2574590183399279
  0.1560442666119743  0.2515654586633244  0.0925668520697103
  0.3257408966678210  0.2515976968379946  0.4131106175181400
  0.4131130365698566  0.1663253491475524  0.2554437538749881
  0.4295684082186771  0.0759193598338112  0.6524433014085562
  0.2384506330545747  0.5605258918803641  0.9961484821482340
  0.8337251382221804  0.4199582491758364  0.5773785109603727
  0.3240289369125906  0.3400135139466303  0.1724457481896894
  0.2660603054414574  0.0764305686401386  0.9004606330852920
  0.3812546776440298  0.3196366786772940  0.8575957170904516
  0.1586445448464105  0.6658637385104154  0.1754019417754126
  0.2350118658269620  0.8311617294669426  0.0983818245808338
  0.1606160265455732  0.9182098614546477  0.4149009283566718
  0.2352441421865797  0.9155500984441979  0.1790212709534987
  0.1835040560294467  0.7504820656582254  0.9397610306056011
  0.1611446108849845  0.5825773516978712  0.4137088937195595
  0.1553384254935577  0.9173652086326920  0.5714448570770954
  0.2430583771535763  0.8348726254409176  0.4133168755743635
  0.2283741888055632  0.9251417770316298  0.6516488252901594
  0.1598198150376524  0.8343555702011248  0.3346990831453240
  0.2315810929514734  0.9176499168483803  0.0195499136145731
  0.1546640374265016  0.8322016451916423  0.1761395844204622
  0.1605240508444382  0.7498960127334131  0.4134383860531023
  0.1592775835439161  0.7480875215885826  0.5713236730350043
  0.1618118230452016  0.0909643782470219  0.5771596821747360
  0.2425209443190061  0.9182986419162441  0.4950062056238429
  0.1588998856705640  0.7540849339533672  0.7337499050490156
  0.2449850198413903  0.6729285344179909  0.7361792552507522
  0.3284907219921260  0.3325778076743496  0.3358499334671709
  0.6648089295356556  0.4203652132752664  0.5784857506537214
  0.5055846363607759  0.0043112728717165  0.4904932108502930
  0.4172764377609653  0.0037672167278444  0.5599593825773719
  0.4029648087414148  0.8399902230884477  0.9460662430779673
  0.3899502503284513  0.7873486229771547  0.7452331144099227
  0.1317694247815813  0.4080737016368066  0.9219266706953306
  0.5995743001126602  0.9953268436629946  0.0996070239824736
  0.5897960575715270  0.1608040287904602  0.0992671857393841
  0.5223757900913061  0.7812556548706956  0.0736398244764635
  0.5038671706137565  0.0745655966909988  0.2573135428882585
  0.3278738152814495  0.8528688644691111  0.0365668566010652
  0.1621477132696567  0.5767466660078266  0.9148294424875701
  0.4887658014344410  0.9174654362430267  0.5559863138335259
  0.4061973210755245  0.7448855635530974  0.6418013669604836
  0.3495993254636720  0.0855926580830375  0.7380520279427187
  0.3243139206548509  0.9180742675909953  0.4121350465132922
  0.2257270471080241  0.3373908583681333  0.9364774742473813
  0.2419037444544169  0.8339945577844227  0.5755377435312898
  0.3432731092552407  0.8060943485013442  0.8465384493161291
  0.3260540932182484  0.8344376930954431  0.4930691493909115
  0.2056840212124684  0.3940564907523053  0.8395239475972250
  0.3279533076310049  0.6673753311892414  0.4899690433963905
  0.3270129851867379  0.4156106766949810  0.4138341270337804
  0.3973158602498459  0.4510854911197053  0.8264984839542978
  0.6710446028791957  0.9150402000198703  0.2573677950651769
  0.1606359189222452  0.5013098896749923  0.4952502567312742
  0.2305222382654591  0.0675089402469331  0.0175543846953713
  0.4226641721733325  0.5053160843658833  0.0007136233255164
  0.5846074112181336  0.8318185924147726  0.4167114407064911
  0.2432812899080204  0.5798314105794156  0.1876654993414461
  0.2433952017860659  0.6671958822206726  0.5682338733188884
  0.1530674134833823  0.6770788982749493  0.8135596640805360
  0.2645608654053764  0.6546806453951659  0.9412367737905136
  0.3293468703857007  0.4970244962484490  0.3360481480562371
  0.6054661115458974  0.9141003742700796  0.0161745569349680
  0.4132927041641816  0.5827152006088413  0.4907954452209004
  0.4129664997174828  0.2527888472077469  0.3314361722035295
  0.3270394443620256  0.9182154389187693  0.5735887464166157
  0.4991430795844837  0.1649615383941085  0.3318117222614322
  0.3270660455757219  0.8359673472183387  0.3359180232439093
  0.5835564424933447  0.6663739436716035  0.4163805517626029
  0.1618978753351699  0.8066146095332474  0.8379151073136220
  0.2123659339786145  0.8618052953467960  0.9240708776942446
  0.3195518448800487  0.0742128374528092  0.1036833408341694
  0.3283645727221432  0.0015145892186147  0.3344835097024860
  0.3834633098365612  0.0906193821040552  0.8987097295084180
  0.5005749917027580  0.9157914732884122  0.4185378795092308
  0.3279436232063578  0.0793016673719905  0.2493349225729296
  0.1601357464483477  0.8328363412696190  0.4940368591819742
  0.4164902706110773  0.0784889508852903  0.1799919753499483
  0.2410329450098611  0.3376994723962791  0.5786832801924704
  0.4025349614396236  0.1665216922713490  0.3994192852093049
  0.3303569440672150  0.0927530791940126  0.9954278927179872
  0.4132930873476969  0.0789551252588222  0.3306546185110321
  0.5101847500165219  0.0762216234078051  0.1089662181647036
  0.3427916268033470  0.0832401329500468  0.5534534464871103
  0.5078647413967993  0.9895919047997993  0.1750691661791267
  0.2437240442771056  0.5904985134134445  0.6510546187872328
  0.2324502735514858  0.6003709612612872  0.8249893989903634
  0.1560673178137227  0.5819761093372992  0.2556697671223441
  0.4339246738352978  0.7358140824731766  0.8281095166761646
  0.2491529422482139  0.6627817929649353  0.1116296092096753
  0.3251632241267546  0.9805666302094109  0.0352801672322259
  0.3994598421840467  0.5139330112455589  0.1080005614820657
  0.4245170843768061  0.9224304264191312  0.0212649520619806
  0.4218372348027546  0.9145002895274655  0.1775653025521950
  0.3285164620602470  0.9172306529699608  0.2568758440723197
  0.4142886509230585  0.8382645282195854  0.2593854848867296
  0.2193915062469094  0.4716763379798705  0.9275632448070863
  0.4997936501168158  0.4142247046112765  0.4158748592816555