 B Cr Ni 
 1.0000000000000000
    21.1200000000000010    0.0000000000000000    0.0000000000000000
     0.0000000000000000   21.1200000000000010    0.0000000000000000
     0.0000000000000000    0.0000000000000000   21.1200000000000010
 B   Cr  Ni 
  86 259 605
Direct
  0.4946856568459443  0.1720125427252936  0.4377495885327951
  0.3934364138392659  0.2261803242513896  0.0896249293867573
  0.7453644214180265  0.8238950470616134  0.4970161391032093
  0.8488336888146848  0.3139290272412071  0.7741121640058251
  0.1563860987223119  0.3476720538690219  0.2272666866015313
  0.3053477308247733  0.2255239317703430  0.6601022362696093
  0.5083740014993640  0.1036003046482377  0.6694975322415578
  0.6170205830600942  0.3278168292524160  0.6110013588833673
  0.3033415837261867  0.1070158531868030  0.7944300436476538
  0.1716307345110838  0.3212481808301263  0.0765959108913054
  0.4869619363265981  0.1844540851008511  0.9307579615937355
  0.3194429615913250  0.1533958619201129  0.6219762544055091
  0.4997169488337195  0.4168312910061143  0.5088313967801553
  0.9877573728986440  0.2643412216893835  0.6761483584358756
  0.4213932973059525  0.3530533852684969  0.1576114134599062
  0.1798769201116668  0.9955656021285939  0.4363655136560535
  0.5028879162611558  0.3606133541243683  0.7553326007117156
  0.1832404164167029  0.1588431555829516  0.0996691353641048
  0.8158935284874971  0.1583193095128843  0.9295103322547448
  0.8460253594225593  0.3188206252519751  0.5817237590385926
  0.5671458507704190  0.4997974430601667  0.6777499948223273
  0.5588321897403801  0.4168929237865845  0.0733751949195504
  0.3965897129065836  0.7479518171928861  0.9262923823364845
  0.2079439678855506  0.4269986496217422  0.9980465164099597
  0.9111317913793957  0.0792579621690802  0.2564461674640717
  0.1143962245287398  0.3183337739089552  0.1638464526919061
  0.1050248112594999  0.5600558891976491  0.0766275369308361
  0.4301868279449201  0.5152960705290677  0.9919308788385578
  0.3467610133924361  0.0148690801485599  0.9448956650767526
  0.6488409283445722  0.0841055468949284  0.5123347394762325
  0.0889161111666855  0.0658128123620125  0.5775401900216434
  0.0785414507192785  0.8525774267901697  0.6718734167141571
  0.0150075720515527  0.6761830867928988  0.0795954426899368
  0.7549122765181138  0.2623346989647893  0.0747488398965112
  0.5958101168715288  0.5935015583587627  0.5576954687070210
  0.8379964898506250  0.6481911792437746  0.1005390101973507
  0.4134200260348693  0.3335186207048997  0.6446069395855736
  0.2316412647553381  0.9782316516638379  0.8283847942839627
  0.3231748388862551  0.1881290323455461  0.4628297378462505
  0.8063768862848094  0.4211359666074784  0.9906994386807344
  0.6829886278932492  0.8030523904639245  0.9361666537120731
  0.7082767349591621  0.3042419839785968  0.0252144052208240
  0.3217351382832414  0.4725924709220500  0.7386145919422065
  0.1747207858886015  0.7482569975749772  0.6645927211391555
  0.4863719054524834  0.5471948947119124  0.3313423110955805
  0.4909887719919505  0.5586932044804158  0.0276162346630547
  0.8119060676919877  0.2545250132656841  0.8176475528895982
  0.8981788025371252  0.3535336087613611  0.8229968054056934
  0.0262446065188172  0.9139969383008520  0.6539774010355041
  0.3674741787122653  0.9180348471313745  0.0946383650542176
  0.5647114797404226  0.8952866703939920  0.9260398103310409
  0.3437734637981061  0.6935505580676488  0.8978899998181704
  0.8127154706260010  0.5839128051355255  0.1604107920398303
  0.2629188142407006  0.0120922741988574  0.6607788401110484
  0.0730352442827281  0.3274138004808547  0.8181396576833683
  0.9187443424653268  0.5026224275718005  0.4951787912520763
  0.3424260692784794  0.1682842875000430  0.9267956775727766
  0.3449287847110348  0.6639907155776480  0.0794971798851240
  0.7305861030098929  0.3388489658264997  0.4932674711530824
  0.6574137956637647  0.6411235426650315  0.1079232417647819
  0.5893770472304818  0.9750684333895000  0.6321338498459614
  0.2736079938279086  0.9394966882232991  0.7578214840994089
  0.5661855324684890  0.4279890067868660  0.2507439138165066
  0.9152297242914266  0.1534383520384164  0.8173044829712686
  0.7516681082180535  0.5164384104501385  0.1458677616515770
  0.1578741579573948  0.8998455353822676  0.9854090476014609
  0.2530125843732752  0.1609884705033691  0.5015541111013618
  0.8206854643635461  0.0233294662529695  0.7576526749133453
  0.8995067496367053  0.3522635540637113  0.0129812400059653
  0.3705314962734881  0.3394339257214209  0.5730363158195065
  0.6362229527834138  0.4937076744572511  0.4193521623276350
  0.5136296688817152  0.9952353697324305  0.0251948424441841
  0.6539844643364074  0.7503394330761687  0.9926105598997423
  0.4049316687385254  0.0673791040558437  0.5598593629541136
  0.4135835342260487  0.1665929949754045  0.9805739461616011
  0.4219677849521967  0.1728564003160928  0.1530374483924627
  0.2862842409705328  0.9184607922682217  0.0934577733147244
  0.5926648316805836  0.6003363673788576  0.0753122756740239
  0.5819101311181827  0.7526058011988693  0.4223711031457996
  0.5667054971099992  0.3231384167231270  0.1715505454251565
  0.0941877176966333  0.7579542529676004  0.9415348981337244
  0.7144499847544813  0.3447091899308080  0.8409915728093275
  0.5090546763199566  0.7713132521433760  0.8272275141429818
  0.6568099684262158  0.8305198320189195  0.5909369624038100
  0.2708799360178749  0.3409122702351561  0.8326497168455365
  0.7638864479657224  0.3948218971167383  0.9196890456201127
  0.7569982993257749  0.4967872224480946  0.5905580066627060
  0.7514949150222919  0.5014301481099481  0.4164863417803499
  0.6245896050376455  0.3118147312020501  0.9741651838845233
  0.6694463355714538  0.4197714819819169  0.2540933573556571
  0.7510529337143320  0.4169016585822287  0.3304788138301386
  0.6635517169255084  0.4137178366789236  0.8949722738541463
  0.7529184360045018  0.3211185083511527  0.7550642959376884
  0.6798563295844091  0.5519664846100969  0.0802965452955556
  0.6554451215413319  0.5032410724755125  0.1827089293693294
  0.1543039721053832  0.9153204794892422  0.0889111911428132
  0.7463956354692202  0.1606101826848926  0.7522941574870721
  0.8345804336527635  0.8331500107395300  0.3357560688282119
  0.6351644843441857  0.3280272867702617  0.5031838454495001
  0.9922024324008979  0.9954166524589992  0.0028524089964441
  0.3260783223333980  0.5812359903548472  0.7410870739043454
  0.1622377846211641  0.7473074431148448  0.0979312952337470
  0.9882852819378702  0.4110648811885781  0.0828187328330723
  0.1587551325113547  0.1596921748515720  0.0030306900056785
  0.1722137597855968  0.2470906979333444  0.9263816111129560
  0.0090733977460078  0.5102761345399198  0.8277607149314672
  0.0720427478279576  0.9936902203076055  0.9190894484386987
  0.0085711845357532  0.5099175862211446  0.9967868527975047
  0.4142358719572805  0.7511307573339280  0.6638968939314226
  0.4091161645365983  0.5907545885828358  0.4941848377214996
  0.4189243292723911  0.7249857083079353  0.8309773815232641
  0.3267733032608405  0.5055753327332885  0.4898927645497896
  0.2530483906394518  0.3327016244080291  0.5758867716577953
  0.4085764209064909  0.5913688793325068  0.1756851789931148
  0.3286337595304054  0.5906008856072309  0.9168217792386482
  0.7582925799247441  0.5002249561964225  0.9138911778844249
  0.5837381907955855  0.0689192218179901  0.8324907666005522
  0.6520927509570397  0.6530772770606984  0.0100733809795521
  0.6679521337298533  0.2458850129389896  0.2510566291471731
  0.5004323645407397  0.9168273023349764  0.0929471245849701
  0.6608816243335042  0.9243329798748411  0.5809220898879804
  0.6648614027185002  0.8389870015023575  0.3405602995063561
  0.7462521675051897  0.2151503066133846  0.9913267426022127
  0.6618680529031662  0.2339183365492287  0.0790724332756184
  0.7516051319370770  0.1597816032294070  0.0866577174215514
  0.7537824814937139  0.0731151988793718  0.8192860825705678
  0.7591972813591210  0.0722146106093182  0.6796103179390266
  0.7364966616369244  0.1570099709437046  0.5799876178093883
  0.5565035842357430  0.1034858998378552  0.4847798805150250
  0.1638947512645997  0.3404672484945313  0.8415464355755869
  0.6702695976254083  0.5814989843629571  0.7416265668202592
  0.7527096819332187  0.9987804729892668  0.4169244929905518
  0.5899276604707281  0.8026285270463160  0.9126377868792733
  0.5111851513494524  0.9251968410056148  0.5829689131779853
  0.5047142661809954  0.9030542518547350  0.7590330259465549
  0.5792059043650226  0.8169615095617794  0.7631554504736444
  0.6666383338237579  0.9172548986145602  0.4146835907742037
  0.4947990358069670  0.8407006823001051  0.3386057430129158
  0.7511531053994004  0.0821715327963956  0.0017236134445632
  0.5893301377887445  0.1624347676928205  0.2579711152517273
  0.7497539240122206  0.1667263256562423  0.4145014666620931
  0.6714152469630056  0.1571526268067815  0.6667275524604860
  0.7499881121280338  0.9102835555596361  0.0052150322688492
  0.2444603184051370  0.8350192550130161  0.2522360822035458
  0.7535323406971742  0.6633212940452879  0.5850687493012653
  0.6645645857524760  0.6733591288774755  0.3420028798489335
  0.5104871410570333  0.9791872770592521  0.8351702725777085
  0.6698181651789408  0.9142405416503819  0.2562931253803459
  0.1616273997471845  0.6727492834127581  0.3341399562475399
  0.0889498016081574  0.8494276165779423  0.9130120972635964
  0.1618770646841778  0.7541964601658231  0.4176774503489558
  0.2430742707935877  0.5932460230613311  0.3354206250512166
  0.9955294581247511  0.7492063028472717  0.2528506538210317
  0.1576674078847959  0.1767518938846702  0.4931643730656046
  0.6711290420101438  0.4078026030219241  0.7699460790548268
  0.0788534865650584  0.3392127545874977  0.4110234993777895
  0.0842143915089717  0.5081437256673886  0.7469371016327770
  0.9935003281693513  0.2442383391448178  0.0854450282901072
  0.1620522831055119  0.5081299416898325  0.1624560783420474
  0.0826428439093762  0.3432984385457643  0.5746933054383705
  0.2381842313871126  0.2553551352449109  0.3247506655720514
  0.8396500249114586  0.5861478273122029  0.7471691829662573
  0.0825956229931275  0.5082318825508801  0.9146769801089831
  0.2430191241918836  0.2573612317044419  0.4903195097493307
  0.1619620971855124  0.5061837345360110  0.4959794160479040
  0.7525589007670795  0.9063175005937377  0.6656048507937994
  0.0779175490942001  0.3386693059222374  0.9182536855502857
  0.1767672903753734  0.1032042399938449  0.5718655211616568
  0.0806729157431348  0.1703120112889533  0.5763595505662066
  0.9817236075416919  0.0940426622660970  0.7577570317101229
  0.1718794771284927  0.6692140743993031  0.8307459466761192
  0.0788804118602872  0.7518145056645614  0.3328997263842307
  0.1594668271590166  0.4188002704991927  0.0895485843251507
  0.9959902530985182  0.1688143159503917  0.6490943831945639
  0.9929151239657554  0.9965625926322638  0.8378647386575515
  0.0784875632039983  0.6694155520193914  0.4153548447580406
  0.0670657972846320  0.1678054169705652  0.7473177235133357
  0.9121378759528255  0.2546472515388405  0.8313844334512698
  0.0014082009598025  0.6698238506674670  0.6631999275383309
  0.9218851510401775  0.1605816759429264  0.0904376505729769
  0.0814624650944817  0.5891384846987735  0.4975026583579252
  0.2536930138694333  0.5924277829427665  0.9940961260896315
  0.2541821765044303  0.4250025726947684  0.6679806544661283
  0.1703702639992447  0.5871532270241903  0.9177362469975535
  0.9954716473436199  0.4209940304829433  0.2529562190143577
  0.1592897429989419  0.0237644353178704  0.6403684857201811
  0.2397120957797181  0.1509818551377945  0.9308954074429607
  0.9962933540124175  0.7487587193697977  0.4156540122945756
  0.9127642156581083  0.5867129866595682  0.1639971427508832
  0.9965828169182401  0.3374569475794490  0.9991125164506536
  0.9137057967191671  0.5022796670923813  0.2512697012613818
  0.9165600244751229  0.5011566117599925  0.5901026174668025
  0.7480606919566405  0.8338702051788121  0.2548083403062951
  0.0776643099569819  0.8294788470751558  0.4159480759003845
  0.0767524649198493  0.9148832218579304  0.3359906244570616
  0.1595880645305718  0.2553535989016952  0.4102419551475605
  0.2465544115789178  0.5926417686195254  0.1754820485023299
  0.0766748783997230  0.8321852462123235  0.2541063328987889
  0.2342000519740058  0.0887893375471417  0.1659775130702406
  0.2275294398880163  0.2537479444987542  0.0163098218127089
  0.0781947195999172  0.7491143872488091  0.1690303512857750
  0.0813007426042881  0.5796515259084721  0.1729429743808661
  0.9965488217283659  0.8304373561798338  0.8356001425427564
  0.1575347292958477  0.0884119021835846  0.4097506604259057
  0.0750164636873715  0.9179447206005237  0.8276872814287332
  0.2424227389899044  0.4270140634170957  0.3334667668673365
  0.9954593388394133  0.0804863958852249  0.9137164781890547
  0.2355873374796271  0.1722010536808291  0.7533200342161256
  0.9897456605872729  0.9135255368490797  0.0899695782977714
  0.9931861598722095  0.2533123961846149  0.4177671646720315
  0.0843536049488536  0.8318314770706668  0.7637150709899666
  0.1684524731668257  0.6690602009640489  0.1731910446705608
  0.0854057814255011  0.5088225216773368  0.5781908386250498
  0.0770049277297157  0.2539702034868759  0.3371031322074415
  0.4135204261989347  0.5057414510110896  0.4055894373991976
  0.2422413650227650  0.0006041992278171  0.2492902490409138
  0.8308387945089973  0.9137508600469488  0.0874263028674537
  0.5034109748695368  0.4970838224576637  0.1862296076435569
  0.5121853015589669  0.6561709149153971  0.0152556885963932
  0.5560230177932958  0.3698660507618965  0.9153472029297286
  0.4035138968623490  0.4161416485202363  0.4873998789858785
  0.5948011255622437  0.4175726403266284  0.3463644707316250
  0.5801185940681985  0.3330518056122872  0.4082784630715682
  0.4886967270891256  0.4098380729708682  0.4088498930519779
  0.5082427214440767  0.3488402347466833  0.0094454387374953
  0.3317215967656336  0.9171376358121482  0.4163523592475626
  0.2475157150172644  0.8374807435793897  0.5803855316358906
  0.5948550856109357  0.5924147240378855  0.1767327063433527
  0.0776839492752795  0.9979879661544224  0.4172125224595044
  0.4967475194914641  0.6626175028663235  0.6583238816820771
  0.3265350608656904  0.8493485189328954  0.0189978596929370
  0.3447093413608187  0.1535179869508102  0.7191820127165048
  0.4045944275209405  0.1733435020422412  0.3928214498833060
  0.3210724483145134  0.1678352141580261  0.3190239803607414
  0.3121630468796423  0.2547514153957002  0.2438215889556032
  0.3199612904232765  0.4298517595607129  0.2573660865976666
  0.4569191797538988  0.2554180855623085  0.0054609241656431
  0.3391306571752974  0.0082670140954897  0.5017449410885106
  0.1694234975603142  0.9328074289626647  0.8961666397658630
  0.1721862304332437  0.8306162407840999  0.8377947521081124
  0.2576742186921216  0.8328165195627980  0.7497015581490273
  0.1786225621070430  0.9063388358281403  0.7718296182719392
  0.0780094529997890  0.7523872071165046  0.6658935096193903
  0.4976352358700952  0.7460185229436778  0.9213527187012326
  0.4103284793177396  0.2372721475741806  0.4783275991722162
  0.3372478196673607  0.2430840359586018  0.5623239267913585
  0.5827653518358326  0.4940874717229637  0.5762156538356102
  0.3487249294921503  0.3254770361208303  0.9716535109169366
  0.4963665449307460  0.5145069406565170  0.8266522776272868
  0.0765894853875943  0.8366395444412854  0.5785880223046094
  0.5876956926925589  0.0745374917330359  0.3290081991843635
  0.5968644603617248  0.1498125184626236  0.5824874248197996
  0.5080531869867329  0.2492386757722950  0.7373018845047908
  0.5747346359353581  0.2392548197901721  0.4735003344757093
  0.4953911977062980  0.1745330017528639  0.3166502523417834
  0.5684030260268982  0.2333304465070947  0.0206024678638814
  0.4974944893897948  0.2597328968980679  0.2414515696080815
  0.4137518292740462  0.0759996450051502  0.1766273354356733
  0.4914249264242826  0.9195513205940028  0.4170015359953104
  0.5009692532484258  0.9840697399783729  0.6723845503557001
  0.4387361894565092  0.8187735761943995  0.7670053466345018
  0.4989220979709941  0.1604169735316031  0.8287445820886840
  0.5853277056563159  0.9959349079006011  0.2557876499689521
  0.5028316466071556  0.0769061960120814  0.0989451482367745
  0.2377473789076824  0.1601021847556423  0.2523021033934474
  0.4333867583206515  0.9000379949003032  0.6747954591843731
  0.5151220724309975  0.0578546774681512  0.9111090740446997
  0.5862919765301097  0.1458811480890767  0.0890876366383039
  0.5757230959534094  0.2250079134085214  0.8180043801458343
  0.4989380329807039  0.6502605794210152  0.8289616540639791
  0.4937043487607788  0.3416807564374675  0.3227807660389221
  0.4090527255820703  0.9176969374995961  0.3361050500795070
  0.9988601100710729  0.7520662154670039  0.9168638086398473
  0.9183932161156786  0.2463621010209528  0.1760597098546502
  0.0055525763721695  0.5885566985647437  0.9124976694364946
  0.0768478679456622  0.0801497750844444  0.3414981937377107
  0.9168797358224323  0.9992961402087259  0.7524836345666213
  0.9997864118603941  0.6679518911341439  0.4989052016462706
  0.3429546896949453  0.4321320249958008  0.0918945117067040
  0.4028293678166882  0.0932850914892995  0.7979740256185920
  0.9839425124480092  0.0061625930390469  0.6686902213448782
  0.3266345933773060  0.3349639334457374  0.4850204344005893
  0.9154754339013242  0.2519926566873570  0.0030628586838437
  0.9160825227694067  0.0872965883380400  0.6567909077245164
  0.8575548484858786  0.1087009152179338  0.7438380052753272
  0.8388240368006100  0.9991586942249217  0.6649867405992134
  0.8298786966410131  0.9979370416424124  0.4975417086204981
  0.9122933045434438  0.9980449662270924  0.4192946589303906
  0.8312721728033056  0.0770305161359287  0.0869326025365831
  0.9121583470660097  0.9952740892976774  0.0860976467826329
  0.6717800773446196  0.8149085688828129  0.8340114137185172
  0.8453709968828147  0.2401680624088460  0.0927196425016814
  0.7592949626090548  0.4315432430095459  0.8240598943122075
  0.8452394261876222  0.4131072787243281  0.7542772561813628
  0.9129473446799587  0.5865580085235162  0.3340343831603851
  0.0029497881282227  0.6700383286984397  0.8335932407901583
  0.8367445474469237  0.7463713698754066  0.7500302410948442
  0.7537545523570296  0.8306689528837120  0.5912818132856984
  0.8316720313819892  0.6671523797419568  0.3353482631441280
  0.4057340957664047  0.3322220659564274  0.4085333047840705
  0.3339983211116276  0.7553287865131467  0.5808431762820505
  0.4115789659634480  0.5161900579844068  0.7459010906517448
  0.4167897857022088  0.6511058336772273  0.7410757363080988
  0.3288280123434856  0.5132700313431758  0.6514627860370567
  0.8302972498272299  0.3366455505894529  0.6755408146956070
  0.5869479883820649  0.4937289913755765  0.9029490778291149
  0.4916396491131129  0.5643825081523871  0.9237008739094019
  0.6742980328284996  0.9938850951975824  0.0053001381978539
  0.6683852176420245  0.7405503424875369  0.7509604740853838
  0.4935182307543906  0.6769319814981657  0.3351874624033239
  0.9114242825570820  0.7495225181548438  0.1733584197563483
  0.9108758752701762  0.2567357109160929  0.5043435345818020
  0.8344839347087933  0.6650691110153008  0.0005453713293244
  0.8361297801150114  0.7437296554232043  0.9195457127832818
  0.8227052649298735  0.1588165646549903  0.6528720607933746
  0.9116277742744502  0.9137824983481267  0.3377003466032453
  0.9111845337037476  0.8273393561128476  0.5817801738265954
  0.8373858612490561  0.8319916193229909  0.8309831978597213
  0.8302277089825318  0.7484252241278355  0.0885421649587104
  0.5706280041383809  0.6868217167496603  0.1065187313634069
  0.9125547916277885  0.9081067053131469  0.0039526230037378
  0.4161381651631773  0.5853025465377021  0.6536360232199480
  0.3255210466032604  0.6773683637434644  0.3366325869365792
  0.4934197769212942  0.7600614146156077  0.2592948240370379
  0.5830555531099647  0.5868104225132504  0.8344600448658862
  0.9162376275463535  0.9112818433836022  0.8344497813827957
  0.0715792901982610  0.0910915765361638  0.8364056024323180
  0.8354066430798703  0.9133041045277013  0.7493712528478911
  0.8360538802948418  0.9109984404272974  0.5838641588807298
  0.9117419296761462  0.8330376028111695  0.2532460003647292
  0.9090554195163069  0.8329180989631904  0.0872002655747983
  0.8330079500848545  0.2485253319648474  0.2489974122355798
  0.4359295467354929  0.3421648580746042  0.9216957169787513
  0.3650790761009525  0.3094491148553158  0.8433162078868663
  0.3907271250908927  0.4289039080322603  0.6803086706976579
  0.3163134164404600  0.3308691999458326  0.6606484842497592
  0.3279716772261932  0.8459314456432336  0.1613396291674172
  0.5694674701650827  0.6589568913246762  0.9260827828521543
  0.7484156025058808  0.9144268291874565  0.1713931388652573
  0.4975564628975152  0.8402929300555074  0.1780838599925591
  0.8349586991429596  0.4193874707057205  0.5864058479852561
  0.8255490279977122  0.4213763744400941  0.4128157591376437
  0.8319776053492723  0.4184638894767602  0.2527651285671992
  0.8105886000576621  0.3168517234102565  0.0049138798633623
  0.9416757880291318  0.1939023800731530  0.7323288243149142
  0.4315429862109310  0.1043167621906935  0.4809000030587557
  0.1671987337490928  0.5077500207053453  0.6591373345834346
  0.3448401250215380  0.9596089004966707  0.6733676666944385
  0.4208647197090807  0.9854511591370574  0.7616109849114343
  0.5090636898162624  0.1949331806006549  0.6386303193899313
  0.3229919597339935  0.1858460399684316  0.8347755685067055
  0.2928194401758994  0.2497589494514910  0.9190836762533535
  0.4133674360235909  0.2261437178480384  0.7891944636839912
  0.4002334653497705  0.3425436514968914  0.2516885291525688
  0.2444948668124487  0.7582436530355474  0.0114011550051798
  0.3930759077692151  0.3262368768435028  0.0709102479089495
  0.4555218816949619  0.1544232607255916  0.7223458468283250
  0.4109300215279288  0.4215221916276404  0.0004610147867049
  0.3315917674428306  0.6855144585964112  0.9919805886214930
  0.4116777174240324  0.2300003698428549  0.9014900246881720
  0.1618501785387818  0.6631651507190318  0.6618141000902804
  0.2443472921511521  0.6733524794212734  0.4174659615780262
  0.5875358546721791  0.0773609988233468  0.1785572665280354
  0.2442062901031269  0.7549202685064504  0.3352784780049957
  0.2467965523364203  0.6751160336115853  0.2539457325026788
  0.3301605057922541  0.1650211186524257  0.1639825070375728
  0.4211092152311410  0.0604106844799102  0.6771046944620541
  0.9290432495954235  0.3470847667798885  0.5829685913933661
  0.4026792386664550  0.2616802640908257  0.1745363529717565
  0.3231311739196976  0.0837549301658177  0.8826927649305728
  0.3999755603045410  0.4197937574526465  0.3325947083925637
  0.4148012109757517  0.0117010696577098  0.8820051474057916
  0.3315834532806886  0.1249814061029273  0.5292326720623939
  0.3441966822546329  0.2183534213954223  0.0107317842340360
  0.2482389735904587  0.7571118234736135  0.1697451025821982
  0.3059898947868654  0.2629744510922724  0.1040091328053902
  0.4110118993503646  0.1523881288733937  0.6050220737181743
  0.4051951644849728  0.1324396990613656  0.0695726515476248
  0.3192812423654912  0.0453802195202276  0.7310609959287051
  0.4951017565668509  0.9945495747880516  0.3358188449091554
  0.1698868924273878  0.6743716173700660  0.0000326514241777
  0.2413394344944125  0.9239230804075053  0.4927428651402558
  0.1673931767936306  0.7521353931698798  0.7544210846460302
  0.2465447795242680  0.6695312171175650  0.7406167575961178
  0.3217431670085076  0.3384893537199435  0.3300425786804823
  0.3267930810001548  0.5922441003453042  0.4158444420535482
  0.4207092987116639  0.5137410732100451  0.0916475723254379
  0.4100574736460970  0.7578260565943287  0.3361497414019436
  0.2462680943935748  0.5889039428612729  0.6586563917817553
  0.2395549905499573  0.5100355400356265  0.7461280605910321
  0.3185737312797223  0.5792385135993932  0.0919747350082886
  0.3258472780643059  0.5101674331533612  0.1750495506387255
  0.3249883231569057  0.3510275520570711  0.1678239666326133
  0.4102173774323994  0.5175887085606629  0.2628515127842996
  0.3122314853926458  0.2629462614059304  0.7500778131779915
  0.1404574491391841  0.2409748700155538  0.0966122681158246
  0.1622425476873327  0.7522975863024065  0.2513561072604816
  0.3206383138827111  0.2545278675497878  0.4004909170908661
  0.4079147714662913  0.1706255464549939  0.2469709739785828
  0.2661840025823527  0.1587614458984470  0.0636499367943721
  0.5782568780097000  0.8415182629544562  0.4180957101859331
  0.2460135451981474  0.7561481829146633  0.5002368772996408
  0.2516865514136847  0.6721630573952937  0.9124357796640210
  0.2364082544580227  0.8368877059029795  0.0878497655120731
  0.1593709948922418  0.9164341337003318  0.2555750630918488
  0.2360095790531179  0.9152823949622468  0.1738447671708943
  0.1784024612695903  0.7508803856082008  0.9139398313876977
  0.2452368563406206  0.9164636115324025  0.3341508366495228
  0.1619043495685216  0.9145070348659986  0.5840926625604976
  0.2457011079202708  0.8360727365416200  0.4175162361024393
  0.2416259478525387  0.9198630156658243  0.6659867865280740
  0.4065304750216563  0.4391448852529516  0.1871666606139461
  0.2421208406669904  0.9271708247059393  0.0083614679752517
  0.1584337036400710  0.8341449331580856  0.1723719630171773
  0.1618412435565143  0.8338723345370973  0.3331627102338842
  0.2618402109335260  0.7556205491884377  0.6655838429462499
  0.1621702856418984  0.8366096275951781  0.5000026249743535
  0.2472058838095823  0.6749352399825715  0.5812577243855065
  0.4942574789879980  0.0870304441661885  0.3922773115444829
  0.4179128054221741  0.9822158106200890  0.5892022059101441
  0.4110309020955727  0.8359667427810926  0.4186590162387477
  0.4126418979730961  0.9097445051408677  0.8467167028149700
  0.3346878549431800  0.8396817156025217  0.6616985825586299
  0.5841185623097307  0.9976695696455390  0.0963903431572773
  0.2382401674434845  0.4279807692705076  0.8302873404366676
  0.5013475014845835  0.9968466180141594  0.1769972180520936
  0.3282394070538436  0.8370500063773928  0.4991975542101800
  0.3351169298700373  0.9227406814405426  0.9303733302083219
  0.4094906947163087  0.8379061047316114  0.9353855176963065
  0.4119464529685669  0.9178127309557037  0.4971989270982320
  0.1603869969963447  0.4282566847177076  0.9164705719549984
  0.3522301840798385  0.8926733539516732  0.7591909123962995
  0.5820119086864113  0.0604111734050512  0.0040898138167175
  0.2435245367888978  0.3477284019391932  0.9236006368052186
  0.4975538607781139  0.0743623404313154  0.2603731778060205
  0.3515133322700028  0.8155904845829166  0.8370272559562372
  0.4180682839155841  0.8403218584281729  0.5819602587739559
  0.1568391200714426  0.5076423020183668  0.0064662800333548
  0.3277283231560525  0.6747882367655038  0.4983388936181228
  0.5849885113068823  0.9161032872745702  0.1750122838510839
  0.4289592754292746  0.4137328223512539  0.8134951327747367
  0.4874421884793322  0.0040641880126616  0.4945539728140187
  0.2446172336148782  0.5901628544380497  0.4964082691448577
  0.5828357487773236  0.9239059482660459  0.0124961478176976
  0.4068213663283846  0.6042767720975570  0.0202472715484912
  0.4063206714035831  0.2563879152497717  0.3190766768263062
  0.3267644601154706  0.5940814670043262  0.2562352116160215
  0.3221561979278680  0.4237648056224028  0.4100351987692618
  0.1634811066788206  0.5901223701786081  0.7465653623783942
  0.5820099558954672  0.8413218556390467  0.2602045388390771
  0.3237851240599698  0.5111943733843736  0.3355580010078281
  0.5800187076975234  0.8381799516653429  0.0931262801085947
  0.4090229288261845  0.6766884643606438  0.4179451097184418
  0.4977645452061865  0.9169072613632927  0.2571244497211107
  0.3251928665212420  0.9174169109417754  0.5745593258815292
  0.5064353038118428  0.1538460147703239  0.1894904073895268
  0.3267210379757112  0.8365415297772233  0.3360882352168088
  0.2501338641133761  0.5023354890374162  0.9208940528511571
  0.2693518581275106  0.8922196975222684  0.8469968253383858
  0.2275447168370615  0.8470035424598044  0.9397143481854368
  0.3217770830038221  0.0713856459305535  0.1015008856686069
  0.3294966256536874  0.0009636299949096  0.3259889503922330
  0.4246897390742366  0.1171914040235343  0.9057994939100648
  0.4087246346560838  0.0061706649572813  0.4116328042315592
  0.3226348515303183  0.0793393374627396  0.2422208553144246
  0.1615476324051210  0.7548728727092640  0.5770164380294597
  0.4119245541987261  0.9956959495114129  0.2515918364605778
  0.3269328724334044  0.4222388579986616  0.5766222726415136
  0.3303716651393485  0.0927538681154938  0.4151398905150096
  0.3360663078571478  0.0989721811833823  0.9906004347948544
  0.4046416305791670  0.0845127342318626  0.3235607768460236
  0.4195678033807417  0.0011645219028031  0.0969924157831914
  0.3311907267176853  0.0577471339726081  0.6156845703884375
  0.3261055158802191  0.9849968324119346  0.1662043859161281
  0.4128883484357887  0.6693115381368306  0.5783415001439125
  0.2455995648126400  0.5848392194164939  0.8331567547520935
  0.4939749678688197  0.3255707421787158  0.4891884218346547
  0.4283999798867220  0.6572343056337951  0.9261467269432954
  0.4116517264586794  0.7561486830965377  0.5003513945330310
  0.3284391754494076  0.9882537654029685  0.0310942640128054
  0.3418268143021879  0.7490391353998328  0.7452846527107392
  0.4171694470850968  0.9208585894108335  0.0141433090732552
  0.1617455917457494  0.5881999357463250  0.2528819692267026
  0.3251351963014292  0.9151845645602398  0.2528833588327196
  0.3088281213235723  0.7776587501458834  0.9270557511083894
  0.2480497518524548  0.4885557186942979  0.0715899662149684
  0.2523386504699103  0.6754178904877388  0.0848182257157908