 B Cr Ni 
 1.0000000000000000
    21.1200000000000010    0.0000000000000000    0.0000000000000000
     0.0000000000000000   21.1200000000000010    0.0000000000000000
     0.0000000000000000    0.0000000000000000   21.1200000000000010
 B   Cr  Ni 
  86 259 605
Direct
  0.4825731785807876  0.1670342054890612  0.4277247312652999
  0.3886493521366637  0.5571290809736433  0.9111490456861947
  0.6557813772267286  0.8357464483802591  0.0790946014193378
  0.4285501092413527  0.8487000318681228  0.6550679118461745
  0.2571127628038118  0.4363555170011901  0.9280233622113473
  0.1543063307975605  0.9150693675599599  0.9647202860706224
  0.2726759409167807  0.3304740035772725  0.8354057412633255
  0.7606849162411098  0.3935977906590509  0.9241757482192327
  0.3481704151666545  0.1774038342998775  0.7496598751812702
  0.3156196072657567  0.3240279571227051  0.0502551811545112
  0.4824572241003179  0.1543391959439347  0.9373672355418250
  0.4326994632803041  0.6779218149280620  0.0175616603559729
  0.4983839895156733  0.4278041857403180  0.5291263550986965
  0.4834696364801757  0.6747134272385392  0.0864845781035433
  0.4121672858928251  0.3434428856352505  0.1601770640039199
  0.8858732387911944  0.5858019339118671  0.0676246175800039
  0.5146817440829310  0.2113869280822959  0.8044571469459076
  0.3958937071317752  0.2144495503272097  0.1013373919730053
  0.9208628074526901  0.9273681267614096  0.7573874613765162
  0.4982847687164433  0.5479260820251589  0.6525370414298404
  0.2265912062202979  0.9776092676570235  0.8201121767807567
  0.5150996490899572  0.9905970649419318  0.4338128224518917
  0.2273082043475385  0.7015224338645211  0.8220360691514582
  0.4210102765386871  0.1637830512827343  0.1642011808956709
  0.5944575584624837  0.5823355470125539  0.0403108692624767
  0.4259798472940641  0.3653262678594025  0.8286577734086750
  0.0887286089137464  0.5847519687246462  0.0673187866907701
  0.5940432150105696  0.5821939465872020  0.9539346135615416
  0.3394897357428994  0.0192167724596677  0.9551948365332603
  0.5090085695195081  0.7509859220794279  0.1305293375062729
  0.4163478108556742  0.1406675508662222  0.9839175633755624
  0.5057547602149221  0.4715900275271961  0.0732062748751761
  0.3389305122095063  0.4800681180836048  0.7575338538584638
  0.5714995915387683  0.1663356529078667  0.8428729370099296
  0.3465924858011018  0.0890692126027749  0.3283423691732046
  0.1594374726903787  0.1795593152263130  0.7854519824575601
  0.7969217893849323  0.4333042418198686  0.9898858870561486
  0.3266979675443801  0.1566005933473905  0.9299556921869137
  0.2926911601884240  0.4263570267630418  0.7170632009446334
  0.6494049301824354  0.3430192980231754  0.0866927658492087
  0.6529214727799444  0.8312330000236408  0.9318660387090133
  0.4458174132661052  0.4852289637509594  0.0126360676271602
  0.5654314400985982  0.9274235173338348  0.5795663267584118
  0.6107802925163273  0.8894486274101626  0.8923357934078793
  0.0506710614821197  0.0371055295317417  0.8506143962366107
  0.2216339248207864  0.6790462689425582  0.0109121415166601
  0.3369933009790390  0.5873103644619075  0.1531643241089850
  0.8880454325694966  0.3538808235197213  0.8304175670684559
  0.2558252922603904  0.8427075300323812  0.6839042588838771
  0.3776718232039599  0.9128860262467796  0.1023854409916642
  0.4999448495358244  0.0633456302929740  0.7640859620017061
  0.3736458583594527  0.7513715847717509  0.8981970809455907
  0.6668554410404908  0.9269734548686469  0.8410773574566929
  0.2517296478880882  0.8327478364322465  0.0067742590826571
  0.0703651407687393  0.3178750307168961  0.8152795510432870
  0.8343624457188715  0.6476109882313061  0.0893256042917162
  0.1192910249391935  0.9424690778003547  0.7646900916215077
  0.0719228540878470  0.8494692032798140  0.6822334624171049
  0.5870581552130457  0.3256238792582717  0.6523137753144470
  0.5048514003650992  0.0793838810646968  0.6811589857802554
  0.3890196772803807  0.1338056132650057  0.8144764160913551
  0.2590358964641795  0.0802864618702286  0.5920989142307669
  0.5675909862888946  0.7181262455422071  0.9761977650356902
  0.0168611514953615  0.2675335399403211  0.8470515282217004
  0.5092587389881031  0.0302000296952247  0.0556750266310583
  0.2164634321967520  0.4708964667753461  0.9917297840028807
  0.3163576545124051  0.6969704405757270  0.9296676001523472
  0.0020849401760256  0.9984818261711809  0.9034755849680308
  0.2926556530667324  0.9156664242517433  0.1050303799555499
  0.5859693255535253  0.4088576319519106  0.9452531877148816
  0.7417520162834758  0.4983015420245292  0.1338766226964089
  0.5258919079927071  0.4923100676638945  0.7108807848108760
  0.6692047678875119  0.5643809532381502  0.9985249258577016
  0.4254611837055908  0.0387215046853382  0.5328733339060655
  0.3157385241294511  0.8695542716915247  0.7451287778120816
  0.4005934908753628  0.3193481254797055  0.6520250613931965
  0.4015468021175482  0.3229034877396305  0.5128172186036536
  0.6538483155408003  0.1780486035743095  0.7455617902120499
  0.6273104734603666  0.3280095907027265  0.5730228316722753
  0.3655894886748812  0.8944942855713104  0.8841233319519800
  0.1033883853934146  0.7501413569948419  0.9068218949835949
  0.4487279072309548  0.3384112872127943  0.0065576629643384
  0.5148229914786152  0.7469525570999327  0.8406628375896935
  0.0229484095213310  0.8182246801339620  0.7406125961691089
  0.0849082975176128  0.0812776589884418  0.9120650517589048
  0.3330465926407636  0.4721506144737380  0.0569543224697243
  0.8340369789874678  0.8326346517905158  0.3362198946385825
  0.7548925544224242  0.1661321763642362  0.7488773430435470
  0.5953349990286264  0.4196991655791703  0.8172026626911461
  0.6667430730618649  0.4218342298924920  0.5777223616046018
  0.6440288568066294  0.2984593766546447  0.0003153394414588
  0.7509224721501327  0.4169707886405548  0.3330728229628721
  0.7493760895251342  0.4972257175031388  0.2529132668276833
  0.1537721484867306  0.9150032489434459  0.1047078892510230
  0.7679021140908998  0.3462850549910511  0.7414876095698223
  0.6685529792872671  0.3337728737160036  0.3363247164406805
  0.8325170441374697  0.5835860890855705  0.4151941859895665
  0.8329009161428127  0.5033462408309033  0.4942681820693989
  0.7465306739054142  0.5862139998363404  0.1863500677681330
  0.9931278567383547  0.9981576605647948  0.0041337357104378
  0.3447658656442868  0.2103124670382329  0.0141056250044652
  0.1670250711873415  0.7392086005213543  0.0837746177369691
  0.9914381778997963  0.4158700904428188  0.0861871289234830
  0.1497783732959854  0.1702367547760079  0.0177201459572426
  0.9915540387996917  0.1681577751998867  0.0093121408564981
  0.8496225438554698  0.4229502688001410  0.9060191193529717
  0.0924215064096114  0.9847862634041017  0.9330102999970872
  0.9880282157409006  0.5838495573729251  0.0866107140531973
  0.0750702405417596  0.7563295062913142  0.0062195633231457
  0.0755724277467079  0.5027971531738894  0.2494951299801811
  0.9139899024859413  0.8308488062642944  0.7431840438002847
  0.1609996106079717  0.9156561017130141  0.4160424712181602
  0.0533838684886474  0.9369824802026021  0.8391999506643335
  0.9963959337996594  0.9169192175887816  0.2585526335324163
  0.2306103823923025  0.0864009399851138  0.1762691303656611
  0.7555628724405692  0.5020110530845507  0.9192084048850149
  0.1633040959091080  0.3432056580297678  0.8337083948324445
  0.6499608705573031  0.6623630966561903  0.0019940604048687
  0.5864920886530225  0.8323791520813205  0.2593050705104291
  0.5051732725216913  0.9943882190441482  0.1830271627475098
  0.5869523678574964  0.8292941555804427  0.5795866396811273
  0.6688864317757540  0.7494659888084205  0.4174850583085690
  0.8237178732207039  0.2443788894803555  0.9244284360061286
  0.6636720372375402  0.2411108782337704  0.0949082790315719
  0.7495877615672460  0.1628127262902405  0.0916149257143010
  0.8332334918680253  0.0870029694562340  0.9182948221129865
  0.7559003354012735  0.0793786411711572  0.6613345108330868
  0.7587292034703835  0.1685503934953993  0.5740476014865227
  0.5958247695611214  0.0854445807432264  0.4941696687198142
  0.6784380964175514  0.5871591856210459  0.7423943242820767
  0.8353914717896065  0.0006936171666795  0.3358473571584558
  0.6693103662704943  0.2478777734163819  0.2579566514049213
  0.5614573598398981  0.8021066679903822  0.9090994355451645
  0.6738004967092965  0.9136206376831010  0.4166358683922390
  0.5032061379188940  0.8286173047464275  0.3366322740368711
  0.7463833589183505  0.1605352606282742  0.9214572247776471
  0.6744214533668252  0.2517657717196127  0.4140513982231377
  0.7578150596306125  0.1680530442715642  0.4161940064241737
  0.6900999516696272  0.1635271577099823  0.6544330169681268
  0.7620075648943475  0.0068273854612997  0.9134708554046976
  0.3343525437466605  0.8397702906222702  0.1683853116193899
  0.8344608337577315  0.5834677200332388  0.5726087536035399
  0.6668304745840415  0.5834141692897881  0.4138098976416025
  0.4965276440343272  0.9831121552541207  0.8214232048213177
  0.4129231375076105  0.9038345597904125  0.4969517066854111
  0.4877540092558479  0.9175001056414690  0.7216536697303766
  0.5975459064485883  0.8282226204648867  0.7404552357814652
  0.5768736662465628  0.0637913824944178  0.8331713626018549
  0.0764859045404430  0.5851538768301787  0.3307698573821236
  0.2447923003718621  0.5846707080469064  0.3311570600411395
  0.2436386969583900  0.6677366392653321  0.4107327937286117
  0.5099226121549687  0.5877351760614093  0.7423146885858491
  0.4159778780055585  0.7470305880003445  0.1765746657182792
  0.6756817508454525  0.7477838556189502  0.7368138996679759
  0.1542136992821906  0.3380584268235742  0.1729864203286555
  0.1577925801891163  0.4214447816454582  0.4111008717240808
  0.9058842825309275  0.9994353604509507  0.9192347673101624
  0.8348337088334173  0.3394109740100502  0.6563765908507695
  0.0784109627632558  0.0044178431996671  0.5780363359619926
  0.0762626704550602  0.5040364829237695  0.7401548872411382
  0.6752160409779437  0.9951610663658937  0.0094889717393739
  0.0735269558740328  0.2517558938610009  0.3329252475649541
  0.5005685535196964  0.6671158233093453  0.3361005920010071
  0.5849736053212876  0.6740357316939763  0.0884087214525782
  0.7514610665828034  0.7497525732636158  0.1779452644920585
  0.5088402564142194  0.5092602619655714  0.8154919798569802
  0.4982350398459055  0.5797859961453470  0.9043969631690251
  0.1576653709392445  0.0976744890541399  0.5777535513995545
  0.1616302531554504  0.4233912803844215  0.0779321075743898
  0.9136409399765177  0.2543051650298176  0.8330207717447746
  0.1596549310268212  0.1769561252608148  0.6619535295958169
  0.0792286105580569  0.6686826128422628  0.4134166028658639
  0.9945633989790693  0.6661842108003915  0.6549951450731979
  0.9994397474466903  0.2628923225918412  0.7475795554753443
  0.0788487604154417  0.2546273563325198  0.4964377915732252
  0.0774952893091859  0.7492702154959282  0.3344832394075101
  0.1575246713248363  0.5888824048991247  0.7435180449986490
  0.9938461687090764  0.1746688964190120  0.6598669750991929
  0.9131009621797460  0.1666495098042375  0.0899395814212171
  0.0131673769880785  0.9170226392700490  0.7359277823506095
  0.1603120525229556  0.5860269883266803  0.5763343915191245
  0.2299596142898195  0.3412082085243870  0.7436197586327011
  0.2332404803660204  0.1648277498831982  0.2512502502722037
  0.2369505182547082  0.5783273237836182  0.0020081234037811
  0.9937331814759088  0.4196352628453671  0.2512280261654477
  0.1695910619603180  0.0149912904904018  0.6276331663826716
  0.2388834419773715  0.0619602219260270  0.0274360384941666
  0.9985184828061534  0.7492304001720044  0.4172196184136674
  0.6762836050283145  0.5789286212158571  0.0976126735101736
  0.9029357500613582  0.4152912797835579  0.0002586414749544
  0.9142040997554678  0.5003834127027792  0.2517542484574979
  0.9151653382775561  0.5034370180599159  0.5739932812575693
  0.7523123759551229  0.8324086959525752  0.2541999508503143
  0.0807438569614500  0.8344958892279182  0.5816766687142977
  0.0785505311525077  0.9157668314315278  0.3372355921052399
  0.1570491528270879  0.2535957963311413  0.4137854492592710
  0.3305967641943584  0.5806571482502290  0.2567461555550310
  0.0004447240239140  0.7629720943588599  0.9175991299472682
  0.9961086196047950  0.2512332991009906  0.2517932923208467
  0.9214096867808024  0.6722901052608624  0.9111058507172773
  0.9167837043649504  0.2511523697312341  0.3328193003001864
  0.9071543034417062  0.0176129461248814  0.7274965854489055
  0.2444551518953524  0.7451340926372665  0.6586235977118691
  0.2440385692152365  0.0806672010381663  0.3355542822182651
  0.9899904014334538  0.2528217731809342  0.0848251660317234
  0.6701345827149173  0.9165089932849225  0.5774529674460924
  0.0752239692496971  0.3308780409742117  0.9165096078170458
  0.2326238216448004  0.2559128614851701  0.3330265673796399
  0.0797130382000458  0.0011044207509113  0.4173133245138828
  0.0663622045161293  0.4964935961844730  0.9122116083552266
  0.9958533429522879  0.7490865103684686  0.2545704914865121
  0.2409496732519782  0.2559165083497725  0.4956887845256110
  0.0801774779099480  0.5050333425596527  0.5754664611374027
  0.9996323134831208  0.6688293778968672  0.4951964414809231
  0.2408051479564934  0.4220681180145905  0.3307373140057948
  0.3242944364423789  0.5060392866909414  0.6592151716619350
  0.3421837427577591  0.7505941369560241  0.1047333129220529
  0.5052325496794559  0.4960021040139868  0.1766990076792983
  0.5210744090732338  0.6385601190113466  0.9955185750531779
  0.5979440504028545  0.3256662883883616  0.8847316276428681
  0.4064157545702917  0.4219241158893786  0.4884822497595802
  0.5831477690445368  0.4180299571681730  0.3378153271515663
  0.5857670828627386  0.3369469927717156  0.4136050615234513
  0.4996321422476341  0.3294080196752435  0.4942768776566391
  0.5425775709709748  0.3149924727065527  0.9784277654426896
  0.4141402385152906  0.8284578148617109  0.4134505234376484
  0.2461427264918817  0.8277217746777509  0.5808040354793318
  0.9167138819052136  0.0855665461688404  0.3351412629838477
  0.5869837938547275  0.6642312935257608  0.5760898739907594
  0.2210514832068319  0.9788749394135217  0.9222888477709555
  0.2301878807134510  0.3392105222104001  0.1043001436526135
  0.3199367274639255  0.9904249721996652  0.8570098522108850
  0.2428385333677661  0.5036194277589053  0.2537267058676930
  0.4548576752415053  0.2350006054919562  0.9991987151649765
  0.3379214301274429  0.9873408108466816  0.4915733290308631
  0.1568831022593903  0.9129059062512300  0.8571967757212059
  0.2737809933602766  0.8918601541455677  0.8425543693491770
  0.2529248348401293  0.7904343873938442  0.7670240522537192
  0.2115060561632695  0.8920543146821652  0.7576238400503347
  0.0756356587451315  0.7516256200671766  0.6639938022821380
  0.4804058926694151  0.7291536613448237  0.9284344656239214
  0.4119332527567637  0.2366744027359342  0.4751054320213927
  0.4498528527344425  0.2708378619029381  0.5810371975938204
  0.3276170148614361  0.0803956966693592  0.4246769239156817
  0.3059169992334990  0.1748854883926982  0.3268529268995981
  0.3216887501563148  0.2519891664803808  0.2595808661646554
  0.4274196731245871  0.3812760497986984  0.5840001868083706
  0.6638621812808247  0.5853062907949862  0.2562431250760303
  0.5100573078272486  0.4111550655712309  0.8700944628340682
  0.3293550075786256  0.6714392102943223  0.8268913565554363
  0.4829033455118720  0.1266358770511063  0.8438608268366807
  0.5069012652989128  0.8399231093973529  0.8083696345582860
  0.5691915676638173  0.2184226800624075  0.0094024180886370
  0.5892046804920588  0.9966263996529363  0.2580001673429608
  0.5616239053513112  0.1404701860047981  0.7463459675551400
  0.4166776043670478  0.9135891227315446  0.3418080066566050
  0.5956431102999921  0.2591152398834418  0.4857497403243001
  0.4293718307308086  0.0070767535866807  0.7121420148308645
  0.4989582676469247  0.2523568634694725  0.2678791585500785
  0.5931840103451803  0.0784706398762028  0.1864978258976416
  0.6009852782950660  0.1639958086267073  0.5736868610229147
  0.7533041996624861  0.1676446413614743  0.2563821859757415
  0.3345501620135871  0.9804704477301437  0.1731929356505734
  0.4248272479191662  0.0031770704865367  0.1085794355218475
  0.8363499159722284  0.7526149910337581  0.7425679832653629
  0.3998106013099822  0.9210045520054967  0.7974113595186212
  0.5061138951870719  0.0466685387828901  0.9200425753925064
  0.5978539065550902  0.0590423516078280  0.0065418631592959
  0.6077704159886508  0.2461312718430125  0.8053777561952903
  0.4987198090997458  0.6520692956543162  0.8287024297286417
  0.4137520333449864  0.4203475963987737  0.3389664122135049
  0.4165691929769703  0.9967563207149494  0.4276219949091963
  0.7492824797782895  0.7485688137517670  0.4957766621897897
  0.8328145670679812  0.6657008563933154  0.3361350317555811
  0.4111613128217479  0.3345612535327194  0.4140841406583027
  0.2431581224606829  0.6643786581550135  0.5770993430059670
  0.4289699961973576  0.5138130543824035  0.7217272829349928
  0.0626614924314807  0.7534938987484191  0.8174493396237078
  0.3473035386866569  0.4023324785302326  0.8973221482071493
  0.3039073620740841  0.9750372353183692  0.7534404712519073
  0.8360569957867917  0.7422102325891190  0.9153395369876322
  0.3356946315963303  0.2673523944990451  0.5777966268736050
  0.9041673679436311  0.2534130146047878  0.0062330972011235
  0.9164419276021887  0.0937018821698455  0.6576431307604678
  0.7579509125222481  0.0827528922487817  0.8312662467785259
  0.8310241103995952  0.0009807150439869  0.6580291653550638
  0.8375886945413538  0.0007428323842829  0.4983066474625161
  0.9167004297108783  0.0833296999845806  0.4985173566296735
  0.8335104352191623  0.0842584660568602  0.0909408866243561
  0.9160511850394575  0.0002562673264653  0.0889209837885892
  0.6692705056644781  0.8313109169291369  0.8292904730163149
  0.8295464397136066  0.2485378921006266  0.0872485770454952
  0.6832749110837413  0.3368227819907788  0.8222207443225713
  0.8351169840672840  0.4250635191700048  0.7450548205511895
  0.9140437647710152  0.6666663876687789  0.2544021101246607
  0.4156295493815348  0.7443068887095891  0.4903219505096464
  0.4141941467529007  0.6667124966923409  0.4145207346914045
  0.4107642156417971  0.6570373407336570  0.9159362886048628
  0.2416399746492015  0.5078556784541521  0.5745147773182266
  0.2422770591733454  0.3362909006867649  0.5745323830237962
  0.4132181245434728  0.5037645867063073  0.4130531298647304
  0.2443792890943811  0.7472324843790642  0.3337316431555152
  0.3262094844999669  0.5849456133547732  0.5736346592023086
  0.9079658372463330  0.8333276810718402  0.0901948343811738
  0.8352823452984373  0.3338309269295442  0.3338039923119636
  0.9910274355901710  0.9063577614718836  0.9268346202945172
  0.8328542206975369  0.8275223529432045  0.8260174900349940
  0.9652802709340479  0.9992652268961579  0.8146808753918656
  0.9107760124182120  0.8330996802049576  0.5740442548688154
  0.8353093657213642  0.8345026826231365  0.4977667072702802
  0.9254961837550127  0.6734694348361605  0.0864877412221906
  0.9155486798941197  0.2562232177709077  0.4964059544679933
  0.2228926331679511  0.5268345861781237  0.9106283300600615
  0.3288947261992561  0.5842116000165821  0.7423874360143444
  0.8319654291350042  0.1720702032684574  0.6603305378357121
  0.7536629749931060  0.5043364900493881  0.7424480876498835
  0.0748580084314445  0.4222105629373887  0.3310717413109871
  0.1627915270523529  0.6707097181939408  0.1709180313033873
  0.8374623583093634  0.9176547286109328  0.0952413844233847
  0.8355223717561892  0.8311262904340911  0.1769406434074267
  0.2380342373272296  0.4950451132416584  0.0867081826923965
  0.1546846785759254  0.2647707915949537  0.7362105824285878
  0.9878189056266009  0.1762182433686114  0.8339340720407405
  0.0006243336424306  0.9178522016759584  0.4172812649425397
  0.8270765253560033  0.8270010337964396  0.0055094659296455
  0.1075594907694647  0.8459309156074556  0.7744735009735930
  0.8396678495884619  0.5901574903502493  0.9100190016150778
  0.0866804629904172  0.8475837267935010  0.9173939208708169
  0.1568120081667644  0.4255042770106774  0.5722618872229002
  0.8310451596948357  0.5825868604445015  0.7393932162649403
  0.9870092220732514  0.9182683727537262  0.0912110831863865
  0.9971171395905966  0.1676899284837318  0.3354501339295927
  0.4046040345122505  0.2085382407234939  0.9058118206518880
  0.5824592954932266  0.6684543228516306  0.8963764025367403
  0.9966795447914658  0.4210123104066855  0.4125239228313413
  0.8357312131509060  0.3378265051178597  0.4962362360861806
  0.9156808484938969  0.3390485213193454  0.5764505141813873
  0.8182454763133022  0.3337826177486304  0.9962483350139599
  0.7563214879028927  0.9985275283378983  0.2572114562797950
  0.3261450966343569  0.1566932221905671  0.6495476572264736
  0.3324484573085936  0.7544118724049813  0.2543568959068560
  0.3992518308724282  0.2248785796983367  0.6748570132004512
  0.3927963366425687  0.4206101595438610  0.6863299025242875
  0.8313122817760705  0.0914928409372376  0.7465443091970675
  0.6076615472141637  0.8979430066618836  0.0008641769925701
  0.3375381818031704  0.6557222817290844  0.0091282701547714
  0.1604656673407316  0.5073396360867060  0.6604822734292153
  0.3231805798044592  0.0212263269956590  0.6494307239432082
  0.5113339187045473  0.9961269976233916  0.6354714420327441
  0.5042028245747667  0.1695825371243495  0.6374472305830683
  0.3063694078630471  0.1639367126685920  0.8365752677721694
  0.2890326436805436  0.2424295909658459  0.9131879350278446
  0.4133601116392381  0.3404204461444917  0.2585250336849227
  0.4503928651699334  0.3232768637014179  0.9131333064135706
  0.2796743202956922  0.7488253369980257  0.0110810492494366
  0.4034228917436822  0.3030926087029023  0.0776498773127075
  0.3889263867340615  0.4123711955754606  0.0076567506212561
  0.4406023577000350  0.1306687925344217  0.7310066240923245
  0.4248879014056693  0.1108822679263559  0.4790067196622534
  0.4211646958645415  0.2210690187152483  0.7955337591058004
  0.1592395817683783  0.6670620402469273  0.6600864309722170
  0.1658535420931760  0.9127498205685274  0.5766619418764204
  0.1605980338400639  0.7500969010619978  0.5804520492738207
  0.1781487791604133  0.7514946595836113  0.9606299805438894
  0.6707992187454342  0.9144167288010209  0.2562792412588349
  0.1602524331083518  0.5866841271764058  0.4117122397324723
  0.2418125222102608  0.1642652865127600  0.0902144183673165
  0.5868387395611575  0.8295958212383270  0.4173737174604809
  0.2439391576898883  0.8295536330338031  0.4123763181114734
  0.2429544406911542  0.7476291278154292  0.4957905191501925
  0.2499480290665377  0.9299297518350856  0.6559784207273643
  0.2218461982225698  0.6618074882259443  0.9160992152392204
  0.4168973587649946  0.4284490571563878  0.1835969561556686
  0.2395723582095126  0.8298179168358547  0.0991342076916338
  0.2362231193151046  0.9212854593440724  0.0247463246702510
  0.1572464317805298  0.9153362850018694  0.2562887093152988
  0.1580647888417589  0.8283670329115413  0.1750608582267033
  0.2403028262171037  0.9100650043997687  0.1819125201823670
  0.0794967822639292  0.8331956521342789  0.4168943535483032
  0.1617040992044180  0.0003592614239855  0.4992322435155088
  0.4983041852859768  0.9804658691150576  0.5203510609629697
  0.3303417381033142  0.6671110217233387  0.3319157155267131
  0.3262381851067563  0.1689039391046369  0.1777922617352512
  0.1610055665916579  0.7492634478283097  0.4140634278600785
  0.4110533589308481  0.2522037021938410  0.1877008174961647
  0.4985374062892707  0.3392244310196705  0.3377090829140613
  0.3225289364898224  0.1757681284634864  0.4928560400003452
  0.2474118645405026  0.7501352935075932  0.1743054116574577
  0.3175678355754876  0.3413096930727220  0.4890435816811494
  0.3152757507918676  0.2648362694290882  0.7536050151338934
  0.5017626270284095  0.1649927615478763  0.2048305240521540
  0.5075365491778182  0.9911082878433629  0.3413804874363025
  0.5664255845374644  0.8275765542788877  0.0956273634416249
  0.5138515180031019  0.0795061396274757  0.4202259183668605
  0.4096549862497967  0.2575837324538929  0.3327484638772418
  0.5024709826682732  0.8314131270318753  0.1838353863641461
  0.3239440540842986  0.4209469700515886  0.4107427456458863
  0.5038970959123436  0.9135075027047344  0.2617389886070056
  0.5868729285698594  0.9140897299250458  0.1770896012990876
  0.3262062112588046  0.5630237462581525  0.0672173140426921
  0.3269982049613093  0.4976859641549889  0.1686404801247746
  0.4163528676537953  0.5013007477426911  0.2624163503660080
  0.1582858247319480  0.2531739066404852  0.0902895914759966
  0.3192421369359675  0.2546915468927934  0.4099806782507652
  0.4047646201828893  0.1602395792788604  0.2678424201841316
  0.1363435364621255  0.6505899443224825  0.0022317950969236
  0.3211340691358095  0.3313759051176258  0.1882135994094755
  0.3615664525709445  0.2981602230041254  0.8503624966290193
  0.1608480709255065  0.7485831688837041  0.2543190422883612
  0.2438738611141315  0.6671676770043858  0.2546824180810098
  0.4210199174185453  0.0817231042875298  0.6310141602696719
  0.8345825084983732  0.4214762153575999  0.5753654598096883
  0.2744778157251632  0.0791345550154421  0.9103553323947128
  0.4207610206157585  0.9679181377587364  0.9099895580697769
  0.2449002256078635  0.2703836380766736  0.0149563496392458
  0.3096889678867449  0.2524644117323162  0.1087512679870228
  0.4102922618442697  0.1275272784799973  0.0787186445174702
  0.5812614884853130  0.4981793938099434  0.5768694677181612
  0.2454335503991892  0.9092679476996075  0.4934105738750182
  0.4202585864760814  0.5745485543942842  0.0007255060857000
  0.5038815834107259  0.0728254873926162  0.2625583245701660
  0.3342387363877654  0.0868927439456114  0.7410294928736247
  0.1397368411342506  0.5176633809935148  0.0038236499993094
  0.2405771065389702  0.3423838857136949  0.9214379556165707
  0.4236604896838904  0.7406596740629986  0.6588564644732083
  0.3506914801453859  0.8170303279750901  0.8249240965174460
  0.3285102233370213  0.9109648779531935  0.4136208410426179
  0.4204086039069614  0.8215680714822501  0.7407672557541335
  0.3373559178175000  0.8151051545132764  0.6580479184211274
  0.5874002565637039  0.9961315466115549  0.0973167665018746
  0.2409704344101133  0.4266782920176406  0.8353542616861888
  0.5030624067822642  0.9191232123184636  0.0963149145950693
  0.3270663101050909  0.8258482922908275  0.4923610338628839
  0.3348029448427094  0.8517300211860269  0.0460230962603680
  0.4365041558784190  0.8353249795747691  0.9038188640123832
  0.4834579166518824  0.8934863183109180  0.5931919405136900
  0.5896028475252344  0.1560806115430949  0.0981736353891599
  0.1566669500225230  0.4259123702757671  0.9205799898419409
  0.4109201356485673  0.4560229419546524  0.8159414576469975
  0.3237635618214396  0.3384299610104548  0.3329410949856373
  0.3386952771186741  0.3978454207529501  0.1078195546182011
  0.3281939796813024  0.5856323838093360  0.4124612717680190
  0.1569017224545788  0.3401506175234654  0.0031544781730432
  0.4350266780084495  0.8253389562919760  0.0923383496191740
  0.3258066186190866  0.7427273636613806  0.5735360368781782
  0.4156540774193002  0.7476988080463253  0.3352875550419737
  0.5871690752969686  0.4199729675691931  0.4898600157264671
  0.2424827229240024  0.5864123627530847  0.6610714003200355
  0.4947473767030833  0.4114709147622190  0.7525992009005414
  0.2439312933281383  0.5050858193696859  0.7481795904417226
  0.5906727261703169  0.4242532863994409  0.6759675628643889
  0.1575223130094664  0.7415906593979770  0.7449672979855805
  0.5860573311078777  0.4990605787922330  0.8992430297067278
  0.2477398110854540  0.6686658075483946  0.7386618908245093
  0.3555833712441278  0.3126694971915847  0.9687392314130898
  0.2429873528028651  0.5863678220117501  0.4924030063667703
  0.3292671614705299  0.8299509816953536  0.3361175527468464
  0.4247710197551230  0.9114103259384403  0.1816019040251123
  0.7526230864034542  0.5838882307066078  0.6562143615182110
  0.3336868805547171  0.0980398653538936  0.0063670443157677
  0.6743164817608934  0.5869642197821272  0.9076458329234450
  0.5054639463905981  0.0886991402964313  0.1242508918175133
  0.7567777171520328  0.6672318751701319  0.7405845553830220
  0.4158354368330149  0.9928598727360435  0.2609893665262893
  0.9868467251382724  0.8295331700626946  0.6540616687004553
  0.2166013434949418  0.8545019599254199  0.9278934696822695
  0.1527330392477963  0.0834450892214833  0.0931904642112600
  0.3291893256095055  0.9976122815770538  0.3386746268117378
  0.8353311403333750  0.9176042942503218  0.5788272912165058
  0.5003170672935545  0.9046823510422257  0.4200367307740984
  0.4157352929832722  0.3207213945688516  0.7439967137229946
  0.1622368209469958  0.8309196101725159  0.4972902041936970
  0.4146497436852153  0.6691111046693380  0.5720324019539754
  0.3217351558320997  0.4217833765722205  0.5770810716621716
  0.8375425235415295  0.1688490842363208  0.4957317930377093
  0.1687522446411065  0.7892096306066629  0.8486520447841562
  0.4167789747729579  0.4990486850570846  0.0971078036763716
  0.3299627683803084  0.6649882221888940  0.6563411626045663
  0.4160301114072673  0.8321783397502035  0.2592792653621867
  0.3270137425625275  0.4225548838929061  0.2555256965268212
  0.4974409139507698  0.4188649700913001  0.4186302320574652
  0.4184596717181430  0.6564447410541541  0.7410295485046989
  0.3106838272726842  0.6000081888808446  0.9144690782730691
  0.4251570001876404  0.7379310443514587  0.8222725906297530
  0.5042201329849988  0.7461931265758692  0.5775885534611548
  0.3300466021502225  0.9870003146905381  0.0483541124933578
  0.3429149152526974  0.7375290171507833  0.7397030613801217