 B Cr Ni 
 1.0000000000000000
    21.1200000000000010    0.0000000000000000    0.0000000000000000
     0.0000000000000000   21.1200000000000010    0.0000000000000000
     0.0000000000000000    0.0000000000000000   21.1200000000000010
 B   Cr  Ni 
  86 259 605
Direct
  0.4848588522666040  0.1587381555082684  0.4249743541181581
  0.5976336115666024  0.3323082456205014  0.5347745862480099
  0.6611910253280914  0.1829179431896403  0.7451328521907987
  0.7300739864240646  0.3398618257572158  0.6784068150626628
  0.2772633844135653  0.8858030035484776  0.7217699701006739
  0.5486066088020750  0.9195211334342646  0.5714304714342715
  0.4096930720192710  0.5741555289586077  0.9229865379096001
  0.4398879995544709  0.6929441128150591  0.0197382523918741
  0.8331228585880356  0.6478750203787430  0.0823519669833773
  0.9982508680706130  0.2737649475230450  0.8501137594951456
  0.0527901804922005  0.3223878802302419  0.8171909461326474
  0.8209107716463865  0.9137850353619232  0.8408064113074248
  0.3992910673404922  0.7692607993252049  0.9122566015294141
  0.5089257238465114  0.0556283663692964  0.7746620240917661
  0.3724334799306009  0.9157076005082518  0.0998741637055603
  0.2387111422838788  0.8384179724811447  0.6707343934358555
  0.8709638725004556  0.3687439947738014  0.8172700179082095
  0.3403296057763255  0.5808167312195208  0.1585143752483541
  0.2804007553777775  0.6440911140246072  0.0265591470314525
  0.2476425534940528  0.8278703393884068  0.0017338236467895
  0.5721663211781609  0.0762821411991094  0.0866426911093660
  0.2884887629755831  0.9161868755591336  0.0992074731281071
  0.3436697229347013  0.7154163049881286  0.8808952825688156
  0.1514166499477099  0.9168275072552320  0.9576516751485105
  0.4402685215655411  0.2979567986404223  0.9373124898115651
  0.3253014776564023  0.0157864633022282  0.9446169893602586
  0.5144114428117853  0.7800217196465156  0.8114487001202030
  0.4483894294011970  0.3424053909658979  0.0105200522860483
  0.2431451129837650  0.4125988687638846  0.7430311063167346
  0.3611398182644189  0.9040199944928528  0.8577306007016411
  0.2631952698577245  0.3266683578590471  0.8424177539216223
  0.4206419794612338  0.8641855424593912  0.6732158522420457
  0.7652461723076304  0.3952048129863593  0.9294465127555512
  0.4857201106738431  0.4900478296255423  0.0709852272803658
  0.4303605343525489  0.0334748517962908  0.4972158981755075
  0.6012363581140741  0.5880898143189722  0.9599105018494755
  0.4013131261786305  0.3220397786517135  0.5245857550064950
  0.5389814697535085  0.5090789937085974  0.7062453379617729
  0.7456125722378995  0.4965701454651420  0.1396034854662980
  0.5814084818292748  0.4116193454118911  0.9353795893078998
  0.1721044285159706  0.6771402786910121  0.9075922701200664
  0.6674464053509315  0.9894472187820234  0.7532317288415997
  0.3307728246873831  0.4940055402491606  0.0251303363184620
  0.5910972570383126  0.5851953755735109  0.0510238591849418
  0.2224722003617650  0.9843588278534315  0.8194673473488714
  0.5030615876315188  0.9723029947733788  0.9610283413652118
  0.3973326903637984  0.2234361065304246  0.0967939577987004
  0.5183039561111062  0.2107636370401959  0.7971120639487573
  0.8902967777912814  0.5845315221745504  0.0731312127380492
  0.1118203568534995  0.7519269122747552  0.9051068013097365
  0.4759065488051630  0.6838595944437432  0.0946330990530238
  0.4949494389189895  0.4284822617239333  0.5452987098398157
  0.5576795437789301  0.8268707015172040  0.9952952536894469
  0.5011904237211212  0.5608683997043893  0.6561652993043164
  0.4887502791736107  0.1628123819398806  0.9447189830679793
  0.3489284603927049  0.1818071495788493  0.7487360583827150
  0.2585657384244425  0.0846490787775854  0.5921314473521614
  0.2598707848479218  0.1587549306822194  0.9963718270311503
  0.4175803094431705  0.9516101041328444  0.8102258372759309
  0.5765076400811546  0.1707139607013456  0.8429343734185487
  0.3431492817342899  0.4859857756912996  0.7532098727066182
  0.4198423785105866  0.1369775716724483  0.9808819031074818
  0.4243518010492933  0.1682314111198188  0.1595516656623213
  0.3359304689819359  0.3557122651136728  0.0767564782677178
  0.3374129179031891  0.7458460500399429  0.6939671576828880
  0.3902889048358933  0.1370056741849545  0.8162208865640981
  0.4074285248525681  0.6598305939441703  0.8208186801793739
  0.7467479550460736  0.8155648333857098  0.9730638301961247
  0.6565435669059198  0.3465195986292393  0.0796175779376686
  0.3063871592212400  0.4347493957555276  0.6979121479045832
  0.3129288029144782  0.1647547546587715  0.9293668482959032
  0.8035174037214926  0.4316227331572630  0.9951298771365463
  0.3217833180187992  0.2467888435162204  0.6951418411950773
  0.3477836065207786  0.0943656891149978  0.3239450969553365
  0.0698695824667356  0.0683007601517449  0.9115897271459182
  0.1970785546083749  0.4117622862099902  0.9985616447292308
  0.4373885993462282  0.6142606026561466  0.9950145598558648
  0.0978808027711526  0.9306767463380521  0.7531389296134947
  0.3687557630394556  0.9957893937916654  0.7482211308217959
  0.5116628130765254  0.7486289101591678  0.1358210858983468
  0.4908983148186996  0.3303229656658871  0.8862970429561674
  0.4862744374418033  0.8507146250081764  0.0253988280780176
  0.2672851668784274  0.5666238595202769  0.9095317983781216
  0.4376921985202032  0.3750564938439243  0.7817781948905005
  0.5115860422971128  0.0711233000927032  0.6906032271546269
  0.5636270087378179  0.3049722135261334  0.6670256789919020
  0.7513360894084204  0.1658286286475862  0.2573463550417095
  0.4993169260150679  0.0848428938239161  0.5554399280236557
  0.4104170705558153  0.8276492197641871  0.2503439976858056
  0.3300071278208138  0.9837599359550554  0.1672367394476558
  0.5645083546700519  0.2235697559459452  0.0076610107233401
  0.4968124269914488  0.2563235709388668  0.2680573784276969
  0.5887129806549156  0.9962177371106330  0.2580401825888918
  0.5918785080208587  0.0782032991593541  0.1868471250854389
  0.5956768473897519  0.2476726845245603  0.4801309401659776
  0.5661680203024660  0.1369624652721005  0.7474610740194452
  0.4503743077909060  0.8586402432510485  0.8383201639268031
  0.4866030133380225  0.1323706227620757  0.8470918011716093
  0.4579724122676254  0.9829211727062777  0.7181758887739214
  0.4184309620951947  0.0069050622404576  0.1075553460542577
  0.0762413021781972  0.9166966151219283  0.3344277128140235
  0.3631034014970708  0.8938794210479367  0.7609945974682594
  0.4171909876112044  0.9726525642202268  0.9075297396923352
  0.5951755223782533  0.9896293568186194  0.9194180381887450
  0.6451800098521950  0.2290106237328892  0.9084042174754525
  0.5995940839627808  0.6732337610853860  0.7452754463284516
  0.4123358220892184  0.4171954263875189  0.3410549495587396
  0.4142352131061207  0.9895885274890477  0.4140189994537100
  0.0439565177354210  0.9235334240293057  0.8344217225992261
  0.2397833792375648  0.4177594552798590  0.3343103058110683
  0.9718265838274566  0.1799506941741766  0.8352686515751524
  0.1480764262613881  0.2411331555134938  0.7391419950920788
  0.9940796198905867  0.9138414778134282  0.0922889188034803
  0.0742096280574820  0.5014121630834606  0.2519506792091447
  0.9190978831558524  0.8341759766638545  0.7417011105227510
  0.5141724211508401  0.4166363739393242  0.8611224585603993
  0.9949726173308292  0.0839838055087696  0.4148080057365306
  0.4220382466823029  0.3786045440578790  0.5985892649078959
  0.3532681335370429  0.3137734221692240  0.9879628754590860
  0.4977470736558356  0.4970132905081044  0.1770257372565672
  0.5327934983335444  0.6563060887393816  0.9996288756630147
  0.5979413069968469  0.3265785316215968  0.8812604517659587
  0.4084471974687234  0.4188538621144482  0.4941302448769682
  0.5822574319519052  0.4154412424564266  0.3395642023241667
  0.5829255722802780  0.3340577255637591  0.4213206218378006
  0.4976934261374014  0.3288682250403918  0.5012177006059335
  0.5203038318272407  0.2395130945011659  0.8950723407860527
  0.4159447463116383  0.8304488834006112  0.4166105224523116
  0.2433853118881936  0.8298011234036137  0.5708297152176812
  0.5884154104234979  0.6627862129234904  0.5730747865547567
  0.2173935263425262  0.9827974947598466  0.9165780722584752
  0.2330014129194836  0.3486242452124126  0.0821418998367607
  0.3210606410143545  0.9946013385854319  0.8401841339337008
  0.1809295308250218  0.8752357656986615  0.7427794236631201
  0.0753306283048149  0.7475200819999887  0.6565969855792948
  0.5087984610986063  0.7626852861886407  0.9193510353086373
  0.4096356741863107  0.2381467965964741  0.4830105762043221
  0.4524164085539830  0.2730049950888995  0.5948505542639192
  0.3259617724702125  0.0865167695015815  0.4200600470406118
  0.3066799673931082  0.1822620831797909  0.3246934790474003
  0.3210914595067665  0.2592313830126660  0.2503597075488244
  0.2381118362631493  0.4989807009098194  0.2587478403691028
  0.4535491165879713  0.2361181743827775  0.0076569397665204
  0.3332227613063509  0.9952927817865981  0.4840234925908183
  0.1510598469888207  0.9167301205637945  0.8425930114691289
  0.2633441313350098  0.8939862123661751  0.8232646747418386
  0.2667926348554450  0.7930406994016900  0.7546771105062284
  0.6622326960694707  0.5835674832530224  0.2583522808116109
  0.2763283614649902  0.9821572220180401  0.7362798143869262
  0.0762909588362292  0.2520042703589235  0.3319821750952440
  0.3376175495158217  0.2631722989077678  0.5860784257978562
  0.9989243679057530  0.6682885708703356  0.4919983632795958
  0.9148726679188235  0.0031807073256102  0.9265031308916796
  0.5211125526457866  0.5993839851037825  0.7505370160059878
  0.2304674842987134  0.0865407754638743  0.1715312761641025
  0.3301258022841463  0.3842151530005259  0.7801859918694994
  0.0047095235763369  0.7557174345971057  0.9164890684599434
  0.6732713379388537  0.7535096034685429  0.7417932267808758
  0.9959384040181086  0.2502290163722515  0.2520665168799042
  0.9943832435705365  0.9153100690631947  0.2534481728393505
  0.5812486349666772  0.6748677028975683  0.0970365265153865
  0.2355089030858716  0.2576775274233472  0.0058325962472260
  0.7501774491297288  0.7476431530350075  0.1738922052609864
  0.0745467783902930  0.0015241210636624  0.5745448000492133
  0.2370286941431871  0.1713903119530128  0.2451912216794380
  0.4990998725278711  0.6670914655240763  0.3387341244559492
  0.4158892618834156  0.7430484426003645  0.1710272049921319
  0.4046322002874801  0.2055298996733804  0.9067893621070483
  0.3171745897612160  0.1523547125938424  0.6483308554599341
  0.9955694637680509  0.4190809541069400  0.4142309689165083
  0.8344418344784433  0.3355422378112541  0.4967760169406096
  0.9135222456083738  0.3375346244227347  0.5766642919836010
  0.6102406217692844  0.7417509415931861  0.9965749305409639
  0.7549040638272967  0.9959125068871152  0.2563798898851729
  0.5839142960267403  0.8276203453774105  0.0951106111226096
  0.3312817152269851  0.7524004953136131  0.2521095994851681
  0.4556388299080294  0.1346401892860598  0.7394205094488012
  0.4007574947310750  0.4248846097433105  0.6979487998889952
  0.8242737562365062  0.3332749359038623  0.0001692343958013
  0.8436842694508121  0.0871870419116492  0.7481897283611822
  0.8306166720990256  0.1641502373370673  0.6560993156819421
  0.9984090913828717  0.8298657133573509  0.0022816573152685
  0.9147341797334491  0.2502255921085646  0.3327172889334624
  0.9143072587677352  0.2523426284395482  0.4954766113513749
  0.9044696477730958  0.2507440673874718  0.0119123124833133
  0.8381397465010837  0.9980396096021954  0.6590465517622300
  0.7668474964527305  0.0928488687345139  0.8401035517362485
  0.7667338191014107  0.0134540756214453  0.7417010979496156
  0.8358797355153050  0.9967753844321636  0.4946018372208767
  0.9167192091614145  0.0815413248342016  0.4933029557436391
  0.8283036987947292  0.0817292691583108  0.0922526510399867
  0.8318682709683505  0.9984241982622769  0.1721292550569896
  0.6733540090485521  0.8351059226896894  0.8211520455095901
  0.8296499311011120  0.2492320722699108  0.0923971378952773
  0.6902944565183747  0.3346676273604656  0.8270759612683052
  0.8346872593984769  0.5080902885074364  0.6569850135729335
  0.9951645017433932  0.6645753496005480  0.3346421917029860
  0.9164412989518765  0.0018779852392866  0.7476437019815710
  0.2416593829004640  0.7439235816933683  0.6533480213180275
  0.2450806080863784  0.0848948145436648  0.3343085930954345
  0.9910606950215304  0.1660223675129757  0.0136354136132781
  0.6721876728668900  0.9121705871990130  0.5801226622691733
  0.0596975026678321  0.3308544086728469  0.9155767561055157
  0.2334404423421415  0.2582968872901680  0.3338169268318611
  0.0791841582783100  0.0013288125112511  0.4125598682807621
  0.0693718582392615  0.5041051870279183  0.9124178862105226
  0.9974166323803065  0.7469796184768346  0.2547786759108880
  0.2386001599987177  0.2551043130805070  0.4990052663596662
  0.2454348027522917  0.5820387850394183  0.3312977396653675
  0.1571827504412222  0.4182145272442219  0.4139480863552157
  0.9939133009410890  0.4224688294075828  0.7391675312106590
  0.1563632699513659  0.3380149908809937  0.1694343106984635
  0.9263465525755380  0.6733908702948310  0.0831198455727952
  0.0030981700306991  0.6725855305948517  0.9973932319251151
  0.9959701642584140  0.0856418497185251  0.2527366985191407
  0.6778316103890425  0.9900596094494425  0.0062824952653347
  0.4141467281998810  0.6657749323745231  0.4147646064612810
  0.4154117330243964  0.9975387938341959  0.2579424255328411
  0.5865903445107510  0.8270119300901200  0.5765671958248192
  0.6692655449910629  0.7484511458691065  0.4164695930203170
  0.7441350692936495  0.2381102480902984  0.8317700200944065
  0.6646208550846185  0.2466072301324717  0.0966021203314494
  0.7470001972257350  0.1649395375333585  0.0940440480736181
  0.8278200090236357  0.0848647262009851  0.9246860369682254
  0.7576888780423870  0.0768335616841986  0.6563149286264691
  0.7569943249286232  0.1644572132335567  0.5702129944122021
  0.5916745439753198  0.0766435810423324  0.4967023744798672
  0.6797183409469798  0.5927530616109973  0.7443239649498248
  0.8338404567292852  0.9979703496984816  0.3320236884453401
  0.6626219372978829  0.3296624898926382  0.1780204754510189
  0.5861924780186428  0.8311336715577629  0.2605456138800102
  0.5562958542040937  0.8629254842132457  0.8341474643905010
  0.3309549448181777  0.8410792695596607  0.1648506954691959
  0.8351563646473731  0.5862177940041976  0.5759175349207075
  0.6683696175837610  0.5818797841497252  0.4153099412130882
  0.5101823865448385  0.9744205093878673  0.8428759705584304
  0.5056272657058039  0.8391270019036156  0.5070801432098420
  0.4920410727410476  0.8934793254638036  0.7438986405644892
  0.5842337834652265  0.8187971422539368  0.7382304206891269
  0.6730301334045191  0.9123665658896398  0.4139401924011749
  0.5015126947787280  0.8312874483777528  0.3364415042675174
  0.7455041598423058  0.1699322462133294  0.9242541939349124
  0.6747539970274290  0.2501409266042493  0.4146685610306976
  0.7557492560367736  0.1638178382163145  0.4147718178793989
  0.6882545243513173  0.1570271560539432  0.6506712818139087
  0.7567308477545965  0.9944356396061051  0.9224578489519468
  0.6613733932252746  0.6501295771349596  0.0143674810943576
  0.1480070969461356  0.3352095615232852  0.8349562619070866
  0.7608369984070679  0.5012595104173252  0.9258873852447378
  0.5139756940457497  0.5969472063761655  0.9045878708287505
  0.8328952511479180  0.8304786051194419  0.3329569474293442
  0.7576420548164114  0.1598407130614988  0.7456141835885765
  0.7498883540660679  0.4960900741700902  0.2558395706802721
  0.6671559150954549  0.2497927070355171  0.2592886666650890
  0.7831158642163994  0.3384056356220205  0.7606224976390512
  0.7535751863276875  0.3363984888651652  0.5771578064541332
  0.1523711673104308  0.9154583329594274  0.0980380809589025
  0.6095566921551770  0.4213107511479367  0.8253409046670328
  0.6590603151415695  0.5014075010597989  0.1895165006619177
  0.8316383059719679  0.4995840221078915  0.3335520107204251
  0.7511538716439130  0.5843915363351435  0.4951222638180063
  0.8334105965784029  0.5028968359488389  0.4967858465655813
  0.6395957008908012  0.2959117766908005  0.9963096058752778
  0.9959761397394775  0.0019609042384914  0.0000568045629525
  0.2425213128347007  0.6641100330106073  0.5752770142183757
  0.0780181961905636  0.8321694654122844  0.0939167912161411
  0.9924802642846583  0.4179693416133465  0.0870958761602371
  0.1595778809759068  0.1689220801728084  0.0125975087119101
  0.2402234101857411  0.1697901483211699  0.0911692109260868
  0.8562130017461844  0.4274422418767075  0.9116425011577870
  0.1329382130153004  0.0293197752593100  0.8364918743088769
  0.9937923176311186  0.5852433383270871  0.0851756077074289
  0.4356433615549676  0.5234978918875938  0.7261457682919474
  0.5159843097830177  0.6737534540619665  0.8327103174367194
  0.3300929033620513  0.5193726528660263  0.6586338980866054
  0.8308162457374904  0.3376653760466670  0.6556463244948451
  0.5216508615421137  0.5165793453744991  0.8140178171591278
  0.4091897834449769  0.3325624130442815  0.4213746589985619
  0.5849361816870901  0.0644811423514768  0.8381049112120021
  0.0764753980402100  0.5839714470267141  0.3337166137518305
  0.8326269458574482  0.6655866495971096  0.3327662266814154
  0.1619099912792616  0.7488096809857653  0.4109138602357399
  0.9936056701856283  0.4177310107091295  0.2537529819720433
  0.1566052677193703  0.0068417177057786  0.6350803706295376
  0.2318075329920511  0.0639353787152847  0.0166709377128524
  0.9969505836734065  0.7487766266737849  0.4129856914027303
  0.6769322459099296  0.5687331281474945  0.0997006189905093
  0.9096597701640869  0.4163086861821521  0.0054376023180227
  0.9149241371075907  0.4998354156005051  0.2538574577149172
  0.9157991279506198  0.5050499354768179  0.5773039213943763
  0.7536418021152405  0.8295056803954259  0.2543578499406771
  0.0756211534352988  0.8341406474917320  0.5711323191874645
  0.2444971125888844  0.9164502868636136  0.3339677029528833
  0.1557537833640134  0.3368539792749827  0.3337372762721481
  0.3294517737080846  0.5855657477449809  0.2613825116231099
  0.3233810472785307  0.4220894651626497  0.5877340406642607
  0.4110476322119591  0.4991850043427659  0.4152481716395236
  0.2447206541184578  0.7489043892403053  0.3322093058982086
  0.4140031121283689  0.6675423882098320  0.5629408264249024
  0.9166187094745769  0.7475241311183716  0.1718678454972543
  0.8341285119011655  0.3327180976902961  0.3348876866237748
  0.9886344242546612  0.9152167550339394  0.9281557632264648
  0.8474048441844255  0.8233838775555861  0.8211280018982412
  0.9952010158103424  0.0138837140952513  0.8492880581316803
  0.9153379482953083  0.8324470048641586  0.5754924728254612
  0.8356021137470560  0.8326304465276503  0.4966844461538067
  0.9978860011262770  0.9168033103613908  0.4116869122464214
  0.9143680336596869  0.9144208315369490  0.1703194546658754
  0.8380121640891894  0.8276179680061978  0.0052286666486818
  0.8338158484076695  0.9143451086034241  0.0926526161064755
  0.0779767757975277  0.5037047138820644  0.5769312838902465
  0.1642061824571217  0.6629870574968197  0.0113552793721782
  0.4360784387598540  0.6727503910390635  0.9172076261748016
  0.3251295475754322  0.4992527933376787  0.4962916500222326
  0.1587107485497203  0.5853209144663566  0.5763879697989073
  0.2362639213584696  0.4766640632371608  0.9279815258681549
  0.2234084498915822  0.4811319683350406  0.0744100044027877
  0.7531373659338509  0.5088496571160460  0.7451174242099406
  0.8388073821528740  0.7519958128062993  0.7402904114096218
  0.8254250717589695  0.7570731641161991  0.9221444029101493
  0.4149400860815683  0.7488867668557436  0.4928681583324265
  0.1580829183895862  0.6636966498326899  0.1731516757160992
  0.0770357687393370  0.8354526712258310  0.7517996315450036
  0.8351323823942698  0.5895660165837440  0.9123750782822103
  0.9925952188578757  0.8308367785619818  0.8303030591883956
  0.1539527575678027  0.4219666017660363  0.5730933918982420
  0.7520374891687736  0.7484314890846935  0.4955090479756428
  0.8331968986427697  0.5893190132151659  0.7420274164435426
  0.3429994150977166  0.7510564389564955  0.0977805175065157
  0.3298834324948196  0.5871253542687435  0.7517509108398975
  0.0866058899706128  0.8464475141781388  0.9135123240888655
  0.0752305917790108  0.4191436275882262  0.3339864825186174
  0.1561696008923447  0.0888678795603332  0.5769266080767133
  0.9941366310799992  0.1668624031368523  0.1724195901973436
  0.9902634589793415  0.1701783916696477  0.6560233327538491
  0.1570889587075282  0.5864437657395397  0.7427282444129689
  0.0803604304974259  0.7490444065817651  0.3324880991497091
  0.9947301334546080  0.9176200378148721  0.7386793848240295
  0.9927951608469654  0.2646986498774594  0.7501606042765387
  0.9979333925690660  0.6696329297978930  0.6572708272896242
  0.0802292060848305  0.6644898476547496  0.4112206222989906
  0.1530487948474003  0.1722850748140101  0.6608023528378399
  0.8993278345836830  0.2637785583627184  0.8295869160482512
  0.0754473539022111  0.2524057379925176  0.4975657356940822
  0.1458109208717490  0.4165967883706178  0.0876104884963386
  0.7533769540850030  0.9123856141025883  0.4961596070059298
  0.7531238999579313  0.8309488386629639  0.4156260979427104
  0.9941259805789836  0.0834019391735865  0.0903281236444510
  0.7633169142798614  0.8514516064226129  0.8908573481073666
  0.8300505473011236  0.1652326653141413  0.1734815897069282
  0.9962102068090993  0.8315359270096709  0.3328031232874198
  0.7567018934568792  0.8337577596123475  0.7418911999100113
  0.5871979154858155  0.9126088245217843  0.3375765766406586
  0.9958519773285001  0.2512053858521831  0.4146153774333301
  0.9140902857622130  0.1662189216409855  0.2524388664174077
  0.6646741610104367  0.9018076225417051  0.7281304419933901
  0.6693130735609008  0.8254684109827497  0.6538770072056855
  0.8344068678553261  0.1662235324899780  0.3344046942975920
  0.6709928585203165  0.8297281481870846  0.4966984394320497
  0.0739187849505615  0.9160803305454468  0.1754771952784682
  0.7541034147012284  0.8318549213130551  0.5773794218163064
  0.8367334787138818  0.9174112361474177  0.7468974381697349
  0.9139249776153791  0.1765487903477337  0.7410387556603263
  0.9961486368046868  0.8305160260626319  0.1728639761689404
  0.7188010050020215  0.3858790487856160  0.0119755548135974
  0.8312504795154839  0.9990310345967588  0.0097670279293124
  0.0721010088860168  0.9137812836105718  0.0121914984595050
  0.9139573523186827  0.9991535231689285  0.2525294892076490
  0.0777339448758468  0.8318815908127779  0.2536725825533112
  0.9101185427355879  0.0862936669604844  0.8403230830453851
  0.1548123708135736  0.8375103383588280  0.0133800817277691
  0.8269728118236185  0.1648720310029438  0.0112622685633369
  0.6708222987707761  0.9957277526451902  0.3364185786639187
  0.8324747783679735  0.0819556427152505  0.2534941600482417
  0.8369735514646234  0.0024524218280834  0.8352597828405866
  0.9129378391184320  0.0819276068249872  0.1719637024709620
  0.7231727317618832  0.3080653907157728  0.9284439100636748
  0.9102216733759805  0.0841017029314314  0.0100974074848874
  0.9853351022060631  0.0965381301711499  0.9255616452966389
  0.9975928495746202  0.9155210019440240  0.5774824567114917
  0.6897312188168661  0.4112797318970586  0.7410896636578084
  0.6807565749578739  0.6748348620447314  0.8281916519707879
  0.9970292718629725  0.8334060605164386  0.4929921698017594
  0.9134865824120444  0.4232867240452564  0.6587269434408833
  0.6494724985928706  0.5129235099673816  0.0008820962169505
  0.7464842302485614  0.4891175797579608  0.0437100675533657
  0.7570999767618417  0.4255978213730827  0.6565166105249881
  0.8484010889072763  0.5152908171399135  0.0004318322364684
  0.6642611804904223  0.4132324373423499  0.2578246157710355
  0.7572135439281205  0.5926388121754530  0.0008036105773129
  0.6663080200213382  0.4992801315450438  0.3349888470273885
  0.6677319411275933  0.6660115663795871  0.3375396457007828
  0.6479694586798949  0.3299826902000203  0.6377945119755519
  0.9940870891761788  0.0846218044340474  0.5749783888492485
  0.6737254788608730  0.4343095309636726  0.1053372642137444
  0.7493072466007389  0.5821992679517700  0.3339762975215447
  0.7491783836074981  0.3280620380579927  0.0983294076671221
  0.5812034411648607  0.5826571173002285  0.1743642357705321
  0.0821999353132258  0.9187491703139816  0.6598603485123842
  0.1513536280048319  0.8287832336039695  0.6475888263618192
  0.9120102333264916  0.2494667029728125  0.1720926320436064
  0.9163068318257568  0.1674824761370040  0.4136422840790919
  0.0583786627320599  0.0146942944847894  0.7498829572498923
  0.9162753456490820  0.9986282189906780  0.5751906373797242
  0.0814902083739352  0.6654116892441475  0.9142187720846642
  0.9153237177296498  0.0831058601436230  0.3327652082852204
  0.8367465369481032  0.0812629400275949  0.4139288558821250
  0.6749950570986993  0.9152378524099447  0.9175131132326345
  0.8344400692155901  0.2503706707110946  0.4148178015824602
  0.7364816921156235  0.9289853827830264  0.8119530765081893
  0.2333320108610509  0.9973195285561415  0.1015849310973224
  0.7563338512213524  0.5928165587684384  0.8287385632534312
  0.6851658272344010  0.5060232601507991  0.8382482274965464
  0.6691674680148143  0.6651711537808621  0.4942523274289494
  0.6906566522902453  0.7614368979924111  0.9150584271145613
  0.7582199222423540  0.7550824206070689  0.8243540489242807
  0.6719732699528559  0.9103617981255063  0.0940019103114114
  0.6666622891139529  0.3327303018761087  0.3386457261628137
  0.7615347438323525  0.4261255805587095  0.8334547176912230
  0.4050183203590785  0.0802411460212612  0.1855632552375827
  0.7525411598974256  0.9115479962564128  0.1728694949301544
  0.7539989721835089  0.3347460139974077  0.4143373919669441
  0.6773843345177993  0.5058929566151680  0.6585753159289111
  0.6673920271812733  0.4175038903390350  0.4167094755589328
  0.8321582199441382  0.5834867154622277  0.4145874238126320
  0.6685764755624016  0.4203219336151180  0.5772047644562411
  0.3360363181782900  0.6209080226295691  0.8679743061846303
  0.6671704413932982  0.5014103891931589  0.4959722076499114
  0.6726345730412192  0.6680539514208015  0.6577239017157187
  0.6690287007909780  0.5840238193089312  0.5756569397802892
  0.7465552689852599  0.5836486462250402  0.1854428278454451
  0.6699138836023955  0.7465809970360002  0.5742222314126235
  0.1497740976073426  0.9964588940699884  0.0145814704992054
  0.8353829004459854  0.7500069308132297  0.5765908473568948
  0.7486613320158239  0.3309652559786628  0.2567762974484994
  0.7512544234341942  0.4114148761293523  0.1795578322901573
  0.7523529178017638  0.4201458834729881  0.4964107883814370
  0.6764206249866822  0.3355560535428473  0.4948907541106401
  0.3825471117455478  0.0900172078210732  0.9000539730226735
  0.0867993597618996  0.7503067025985339  0.0006219191254808
  0.7566007443012396  0.6725074209366664  0.7421036483170345
  0.9160043111985807  0.9978485036058791  0.4129014252106102
  0.0004508178909413  0.8333984995224771  0.6587194776230065
  0.8364094953745732  0.0804144636179979  0.5742742767774303
  0.0739011160608616  0.1678159444318210  0.0895614830576363
  0.7537097520752502  0.8275169960764364  0.0871573970795896
  0.8355340355739319  0.9149882683256290  0.5769182557196098
  0.0777905141212826  0.7468770942435187  0.1727006010553497
  0.3984295160654961  0.3081282594003074  0.7271806263314692
  0.7556959142704102  0.9959573531473874  0.4138290886343376
  0.3265126146310250  0.5862903844301172  0.5702927234148519
  0.9154943526633110  0.0004355747516697  0.0888615552784629
  0.1729202761786875  0.8041427264668450  0.8349779596321565
  0.9996921882402900  0.6682091550925263  0.8278346162141178
  0.3162573563162449  0.0763436066836669  0.1069626853969608
  0.3148401318894565  0.0824500443409203  0.2409234947011305
  0.0776252661981524  0.9172189781378345  0.4921748249120014
  0.9957683041427607  0.3338609738403442  0.3342275539550825
  0.0813037924853987  0.2331455103633043  0.8345011454570160
  0.6649710812036034  0.6639510613860804  0.1760783460835798
  0.6047955095641316  0.4054509727084212  0.0251292534841691
  0.7497543016970871  0.6672894070173685  0.2567414228260692
  0.5814360566143957  0.3323254528067544  0.2607530183980166
  0.6697997950899462  0.8305329359729905  0.3364672391955109
  0.5781191409098985  0.4974205875728734  0.2595993980229844
  0.0771742958169792  0.6699839426178076  0.7406093167989315
  0.3180780433452186  0.4399209804104587  0.1046105092190470
  0.3117771223321001  0.9234394016088558  0.9365443729736957
  0.1439093430105687  0.3354430554833753  0.0053716758904852
  0.0770795246014308  0.5849551813803852  0.0015036092403729
  0.3268169306449695  0.7445196802026131  0.5764627580253945
  0.9910248167795651  0.5034736801743265  0.0021807693562314
  0.5825476641212227  0.4189898587154986  0.4985839033811170
  0.7437437858101348  0.6612865444307487  0.0962460155950612
  0.0716404953434421  0.5014326701956091  0.0858649650185634
  0.5114139300142789  0.4290847985729991  0.7504286760781509
  0.9145542026426750  0.4171235898189967  0.3352159169334811
  0.0770868167765787  0.5045742553855725  0.7434177670793296
  0.1624662484985731  0.6648356461998322  0.3305372226173720
  0.9955694059846387  0.4207709730898216  0.5777596944025724
  0.8347254941044017  0.9141345066624899  0.4143534708601290
  0.0753165777147838  0.4196687258785305  0.4948420356743740
  0.9147946437924410  0.8323213381169198  0.4131682194729532
  0.1583048670726341  0.5794613894548151  0.0887702762830537
  0.9686408599526357  0.3563838475877397  0.8292576412149206
  0.9945410604760100  0.5839631821860890  0.4150182826234247
  0.9972119328971568  0.7510405084141267  0.5740861891032236