 B Cr Ni 
 1.0000000000000000
    21.1200000000000010    0.0000000000000000    0.0000000000000000
     0.0000000000000000   21.1200000000000010    0.0000000000000000
     0.0000000000000000    0.0000000000000000   21.1200000000000010
 B   Cr  Ni 
  86 259 605
Direct
  0.4973149858718924  0.1603535935386917  0.4325376595699431
  0.4162041626995644  0.1421621718721415  0.9862403978605517
  0.3427830940402697  0.4828032824925538  0.7571382628537708
  0.5725274320195286  0.1658722706457563  0.8463512624699302
  0.5995065139163060  0.8897157552919029  0.8889223079198629
  0.5533134672307560  0.7282659429943263  0.0016149664115327
  0.6493607047345141  0.9909442392372919  0.7482543383530038
  0.3904194996735398  0.1347782003931177  0.8182707000284591
  0.3536241648453355  0.1799543604006818  0.7534727777843535
  0.3144181683732454  0.3225632404242946  0.0519961748879787
  0.4831048190575026  0.1574342772634669  0.9419083893632842
  0.4260485352921563  0.6656220078480263  0.0133104953158777
  0.5002224472525796  0.4245211866108636  0.5202010535844958
  0.4919691343201569  0.4287868731886225  0.6724152502795944
  0.4116917403105870  0.3463483839359053  0.1607080446203234
  0.8874051437676866  0.5861780012546246  0.0692602081379250
  0.5154587803372691  0.2104958251036052  0.8095230682452265
  0.3971869704746815  0.2170658401499028  0.1013764837291580
  0.9232407385520989  0.9279967989444227  0.7548028659287641
  0.5018330670237977  0.5650390335437848  0.6556096489486897
  0.2922967870996509  0.4293244555579522  0.7195079209857872
  0.3255334285254839  0.1585399189711320  0.9304932781376334
  0.2275419967383180  0.7004664635532597  0.8222480071925575
  0.0744553120586317  0.8547880609279626  0.6778275376903146
  0.5885794639773146  0.3275673128525057  0.6539767931121794
  0.4269114740402140  0.3685720646152396  0.8312428304516878
  0.0919911524637028  0.5839300577462658  0.0672394892675118
  0.5897672744922959  0.5879336463771889  0.9427813156189062
  0.3267817780186935  0.0221879587501674  0.9581070577329021
  0.5106955284378477  0.7495418256084406  0.1445082767122651
  0.1390731955108157  0.9533496392587602  0.7679453930305878
  0.5016706464169552  0.0809572510465100  0.6828213691571543
  0.2163575778852008  0.4701215929610139  0.9944252472262132
  0.1386034705250939  0.0327934544295906  0.6661331313604040
  0.2528934189615297  0.0004058516750553  0.5019818811267637
  0.1571797162011285  0.1790185908025234  0.7836922190563979
  0.5084454228762955  0.0064037930452387  0.4356212631080028
  0.2269494295154164  0.9760767705071787  0.8142205110178674
  0.3193157416472079  0.1898021299180621  0.5535074258776767
  0.7987968795194119  0.4310762185380467  0.9907817912542014
  0.6519978064824945  0.8361868806160258  0.9278762404989067
  0.6533131355807652  0.3407302207100520  0.0859876706722399
  0.4244596580135815  0.1676834385058191  0.1649545697749270
  0.3388994565581240  0.4707085574792499  0.0571912095120667
  0.5879833760080159  0.4073690804274288  0.9457908049812324
  0.1344545252543400  0.6808343710570375  0.9345879509695754
  0.3399200461784380  0.5880876275759903  0.1536346476294068
  0.8906074639292065  0.3521383326117430  0.8331121893499981
  0.2567744571100084  0.8360229529892694  0.6830863546916142
  0.3785435388213342  0.9142645924630269  0.0991190189849572
  0.4976963597970754  0.0645907795180821  0.7705105918797998
  0.3702560976971623  0.7460312951131112  0.8957433840277398
  0.4302316738418443  0.9551362812534632  0.0419372805384396
  0.2493235313829784  0.8280640122733525  0.0056194749637466
  0.0720665507098230  0.3146683615996774  0.8143548166095625
  0.8333843432722075  0.6498043179463053  0.0868426084059208
  0.6530168632729790  0.8342083260322286  0.0770160885643031
  0.3876195458870474  0.5502456924384220  0.9078371435583644
  0.5659896556937483  0.9302172348016080  0.5834092343174100
  0.3205651207661109  0.8671867887092415  0.7495779776932517
  0.4012931265592119  0.3229602881548678  0.6553892382911646
  0.6540073617332114  0.1781757421144641  0.7470627976019023
  0.6265776603097740  0.3327318603737963  0.5764373048073338
  0.0169023190133985  0.2656863971221945  0.8462845074045230
  0.7437136287718162  0.4981409431182577  0.1340064847566544
  0.4260809677710804  0.8439633509243776  0.6561751153713433
  0.3154277829487176  0.6973417623255307  0.9346200174340202
  0.0010923869320422  0.9983346600536259  0.8949346437385686
  0.5348615007021669  0.4993559476181756  0.6933778069484321
  0.4004335331049749  0.3276886503358818  0.5186432697634915
  0.0471160962398040  0.0395006962777819  0.8413900362601838
  0.5028799784850453  0.0198071156970796  0.0697946019761811
  0.6507109494548128  0.4548943195502153  0.9879658966184695
  0.4109964926258627  0.0642696638185904  0.5577877351983277
  0.5884428281401449  0.5883695129318363  0.0616526384575271
  0.5169352543185803  0.4628417408623399  0.0741651218767147
  0.2916459926932856  0.9156241013326161  0.1028630917774873
  0.7636519742705112  0.3901939143378549  0.9250368886273818
  0.2731039296339957  0.3339928722289493  0.8362052807603881
  0.3777459959367058  0.8918080446390466  0.8940325685617025
  0.1017851865942296  0.7506718390066182  0.9022492438842025
  0.4509818919465498  0.3397307954290936  0.0092619422517236
  0.5087650287003734  0.7524894661746203  0.8469592568871720
  0.0265593975293738  0.8197560910136218  0.7363400457401815
  0.2560912539656813  0.4362383428723206  0.9295182882094679
  0.1532959371285108  0.9178283496056852  0.9613507992750590
  0.8333224018490734  0.8326889996811768  0.3364963179780135
  0.7544407676326027  0.1652646511667334  0.7486567846887811
  0.7692543575697501  0.3457459970809478  0.7427021639698820
  0.1520292662310236  0.9154657132157829  0.1016516319710876
  0.7543442643085223  0.4096226168981234  0.1824307027283861
  0.7511350302081480  0.4970304843032843  0.2536273993878365
  0.7474698272236189  0.5855961817752643  0.1874032338854886
  0.6444781529128430  0.2929897028677835  0.0013101984052751
  0.6732752074509931  0.3360153241038799  0.4909566364966594
  0.5971683344847677  0.4195595041528044  0.8238180770912187
  0.8329042662202140  0.5837258660215623  0.4144583096561919
  0.8326431529537082  0.5031910693797121  0.4941575641761427
  0.7515315499625396  0.4173544348378334  0.3314939948540515
  0.9955679887028551  0.0001325079961586  0.9990851628674260
  0.9940145310773870  0.7481738657361665  0.2526842730883295
  0.1623773413645919  0.7446088609349725  0.0876834552330583
  0.9924823353357592  0.4163340775093296  0.0848074393779251
  0.1502826591879267  0.1679047424985656  0.0199549671246182
  0.9950749326007663  0.1674770083012352  0.0097931171510882
  0.8511476362247605  0.4217457342378004  0.9069184005750438
  0.0906251574817983  0.9898615674305853  0.9279320453493677
  0.9912033540991311  0.5829472732870363  0.0847889021301893
  0.2485535498382647  0.2469639912341308  0.4981017810112929
  0.2448406479879211  0.5844067825619189  0.3301804860297465
  0.1591489595785897  0.4200599443609618  0.4108052122131275
  0.0758602270946085  0.5047708874715470  0.7407362384093468
  0.1547848955667025  0.3369042402250493  0.1745184432972957
  0.0768879027506289  0.9999542891225446  0.4155419330386179
  0.0669193577998847  0.4996736398935764  0.9124182656343970
  0.7543297548288797  0.5019287734438431  0.9212485378182876
  0.8345353806870401  0.9998880557451625  0.3361108401105072
  0.6452779503916702  0.6617855084925196  0.0054086489457074
  0.1625158744706900  0.3446627431521140  0.8359005924883515
  0.5078792482042372  0.9909932033697352  0.1811977883876616
  0.5834203966767595  0.8325849434771949  0.5786185602735865
  0.6671052762921463  0.7507167287114728  0.4161692739307332
  0.8254897731663730  0.2424052913317423  0.9242391867826981
  0.6653997718563914  0.2396046246748455  0.0952138114469712
  0.7504907883818973  0.1608307972799488  0.0911775549067826
  0.8333672450931789  0.0888545059112638  0.9189548529329341
  0.7531188024658965  0.0794735683338199  0.6598342007737124
  0.7556357827138905  0.1680661569222371  0.5736901704471915
  0.5721709124595895  0.0867965843863255  0.4852341625874183
  0.6710510786213671  0.2482756584429326  0.2574418706757376
  0.5867011982798357  0.8325815966838164  0.2592300699527658
  0.5806231718321718  0.0622373708483675  0.8331183658687213
  0.5631832721626617  0.7998786037633919  0.9123758117579334
  0.7558050648640622  0.1672215923417133  0.4167010591273261
  0.6877519378308666  0.1617904107811015  0.6555050387868140
  0.7665979996386479  0.0070902089546523  0.9125592974262121
  0.3315331519215814  0.8370060055412599  0.1649270325321793
  0.7503814421287345  0.6672401236415419  0.5742454549033682
  0.6677673102758495  0.5830910388563001  0.4132956464521865
  0.4995766611089664  0.9816577410511899  0.8282050391618674
  0.4776018552189253  0.8949001288450548  0.5858855479895206
  0.4904293478265982  0.9140146482489609  0.7243569324951069
  0.5971037375066197  0.8283910117622316  0.7396673882158286
  0.6698724377399078  0.9149038586033681  0.4173306626996958
  0.5006966032673098  0.8304887903814219  0.3376693982886586
  0.7457763362498417  0.1578585705016102  0.9224725045388298
  0.6752179433269790  0.2505571675126457  0.4132168756539672
  0.6789289513292195  0.5858574953520040  0.7444279536914120
  0.0764826857333279  0.5848022081374294  0.3304423147122595
  0.2434774985385760  0.7416393542314558  0.6570374683296255
  0.2432776669866713  0.6675002875945903  0.4099627048388146
  0.3260147619629791  0.6658530441645337  0.8309213396681728
  0.2422412033969654  0.6659053240634080  0.5760136909060322
  0.8330703916701814  0.6655837070473026  0.3362178985518017
  0.6675741025826724  0.9180476252652875  0.5756693453384485
  0.2362360233045068  0.0793018790008301  0.3303757235183559
  0.8345308061236204  0.3387420966746489  0.6570254362946617
  0.8341153535674550  0.7484430258257989  0.9146532870558725
  0.5123317343206469  0.5081590470410196  0.8243323449381252
  0.9909705552357985  0.2518352568471487  0.0851015885227499
  0.7484405440922435  0.7492226007232956  0.4949681174360261
  0.0757633762692837  0.3307464321276687  0.9164081412454046
  0.4115010370917854  0.3336065979122989  0.4179669745148997
  0.4362750298035569  0.5149026145670135  0.7176508845460376
  0.3236971180670894  0.5067571310878622  0.6600416502870291
  0.0624032962012089  0.7568081159859433  0.8129118443555965
  0.8380668058360731  0.7519989990701499  0.7412362655717895
  0.1533250748799151  0.0931740679544691  0.5814542900095849
  0.1626550985317383  0.4229198537854094  0.0788016233543311
  0.9144862637452928  0.2526355514405945  0.8339541905446617
  0.1554644437204292  0.1799254041402431  0.6657100082913486
  0.0788766874461375  0.6682150549807737  0.4126547683382961
  0.9943345861304533  0.6661944867060837  0.6545346098114184
  0.9974696390688974  0.2622504800437034  0.7475790128661213
  0.0768194926419156  0.2540731401809030  0.4950661552885863
  0.0769353367697717  0.7483812027046952  0.3335862809496991
  0.1565708650120679  0.5885053446051907  0.7431168798081117
  0.9917323380473282  0.1765683111886523  0.6617338940041116
  0.9136579037263344  0.1650619021897488  0.0892852243967410
  0.0149480269394054  0.9186420521344849  0.7281098471266364
  0.1600422501555728  0.5853816522316729  0.5757131497172786
  0.2349508345586934  0.2510225875395050  0.3312598962191266
  0.6700049913237828  0.9935579598945976  0.0076919893285144
  0.2391871215227174  0.5757272499930259  0.0063493919533779
  0.9938939788484513  0.4197902742960107  0.2508977917881297
  0.2116786469325584  0.0113882910600773  0.5965599606999146
  0.2357349250275046  0.0583993423227917  0.0175690166390942
  0.9981462522317549  0.7491547971031560  0.4163749098924863
  0.6820218184840326  0.5803829707685886  0.1012222615038096
  0.9063598859914495  0.4167048854795231  0.0004492825889393
  0.9154937131706707  0.5010623289859106  0.2509812044809897
  0.9150942948174310  0.5026149743854887  0.5739885770884536
  0.7527248825027097  0.8326083620795340  0.2547637389400628
  0.0799743465204843  0.8329438269355913  0.5793523837236068
  0.0761394149368759  0.9137839889461107  0.3360004809049907
  0.1574707310367550  0.2513401192989382  0.4138590944641067
  0.3317651320766310  0.5800715343706104  0.2562754855483040
  0.6757113961485224  0.7497131477635079  0.7397364709446377
  0.4995875181294789  0.6666520770331582  0.3339688638276190
  0.4134494323308853  0.7464968473056299  0.1745706643646219
  0.5810692422024434  0.6800129492297080  0.0924193080272066
  0.5160034041444123  0.5839560040648992  0.7496151903007049
  0.7522829797891367  0.7501343606770295  0.1775768898304654
  0.0022792135292583  0.0909788483323174  0.9187144067135161
  0.0841921109056380  0.0033890179918784  0.5817289051135178
  0.9992126935238159  0.6682110109759729  0.4949453516340373
  0.2352151969967735  0.1636852422254796  0.2561441318712855
  0.9994731370685098  0.7693286474282175  0.9153587506863665
  0.9956743376709679  0.2502689211102997  0.2530291021759553
  0.9201617426432704  0.6742429926686527  0.9105218455504855
  0.9164845067747855  0.2504986961613851  0.3341491510476279
  0.9032379658712988  0.0194313468091067  0.7273064306194144
  0.0804522460018228  0.5047659677025194  0.5749713353720065
  0.4964357562972341  0.5801561785518904  0.9074265218245164
  0.0736182137625619  0.2519464159503409  0.3352369982164938
  0.8384033923964016  0.5903853051970073  0.9113368492447914
  0.9877720109073491  0.9187135078549415  0.0894932518863719
  0.5092494487898176  0.4948821620345898  0.1739029977042467
  0.5206961527889692  0.6362799287528773  0.0006843671729733
  0.6017296404093301  0.3245484380219554  0.8869263478954085
  0.4054316560322553  0.4219761173004806  0.4887373518201461
  0.5844098347144709  0.4172364902398762  0.3378629192702289
  0.5843566217066456  0.3355583670646435  0.4145067805996069
  0.4984818198245903  0.3276068243569671  0.4975000901797200
  0.5433280224283283  0.3178067897570033  0.9785607422533313
  0.4137118738977799  0.8332410899011919  0.4126967024094848
  0.2490803149899641  0.8275674815779576  0.5797034363854482
  0.2203254715514709  0.9825560892684960  0.9201500986773107
  0.2302258193761167  0.3386402661694577  0.1061752120717303
  0.3475755037490121  0.4050326180499394  0.8986949563348541
  0.6638520663122994  0.5852687660401192  0.2563451821887729
  0.3196261989304379  0.9930156990849837  0.8593039750648943
  0.2799381205744487  0.8928033647269378  0.8437218092940039
  0.2561780695578581  0.7873084977212412  0.7664468985076712
  0.2177698960653946  0.8907376235766765  0.7557132497898632
  0.0761977039621577  0.7535087609781160  0.6632580518018445
  0.4797694538598231  0.7195957647340419  0.9361474748749227
  0.4039892283163358  0.2392230706476925  0.4820912308884153
  0.4491564680366363  0.2722095887352587  0.5838824777901453
  0.3232666775908909  0.0791716518410306  0.3953417881340894
  0.3204745873850339  0.1643826521434130  0.3265806203055133
  0.3219499294987062  0.2503490946373989  0.2642765074185363
  0.2443255389691163  0.5029096792831348  0.2540824758246401
  0.4546227942694905  0.2369147742297549  0.0013423792753235
  0.3512620350305981  0.0221350612396610  0.4828374229508505
  0.1600259061218976  0.9117457796042319  0.8565960374960647
  0.4339399743146949  0.3867019508225515  0.5884539892288491
  0.5900882333541819  0.6635926484318936  0.5760908462876092
  0.5116165820568456  0.4116824067766929  0.8769866650911138
  0.8343959368666227  0.9172328473867720  0.0901513446597224
  0.4840193516971114  0.1272228680243540  0.8481372751773582
  0.5221302003726271  0.8447741773754781  0.8119758236361238
  0.4988512897413373  0.2580311493259431  0.2649529805091969
  0.4337167481149816  0.0048716801446017  0.7163665196513129
  0.4142073485826423  0.9105846645447156  0.3363407117822150
  0.5963844124987914  0.2597324617165553  0.4877032234185472
  0.3283278596795584  0.9797725699467940  0.1745892032557176
  0.5627703018922551  0.1404650289905584  0.7498720639678248
  0.5889500763920555  0.9948346438316857  0.2557978846142352
  0.5664492955060993  0.2159552312515002  0.0109718121087863
  0.5980041698591279  0.1645955400244631  0.5748222867930243
  0.7542592117989275  0.1664263853141791  0.2558054850156730
  0.5939420912565891  0.0766930349136721  0.1859871574223463
  0.4175111496806151  0.0081300560450129  0.1223642806686955
  0.8363517551705590  0.9994951926604104  0.8248185738667650
  0.4079667982570487  0.9181533393252358  0.8049029023330937
  0.5083788270413921  0.1227307635570559  0.0278799397074103
  0.5897663437273120  0.0591281169816466  0.0111655039890221
  0.6079527833919979  0.2457493796793576  0.8068630959764430
  0.5041301650396018  0.6543349867232816  0.8304239823442651
  0.4144404646087421  0.4197849672263794  0.3418628446401710
  0.4125026067365987  0.9974926170222022  0.4081686776186818
  0.9108948155816121  0.8342554471514984  0.5730496517538144
  0.8347174780811371  0.8349316312425771  0.4973265126397812
  0.9996248285639311  0.9171101039899824  0.4167724343425452
  0.8351730572310675  0.8311829184537208  0.1737228623977078
  0.8243414387077085  0.8314910998705773  0.0033237889958414
  0.8344734815779077  0.8302526514579280  0.8267836363833763
  0.9148429788946915  0.0830506182175430  0.3347972149449864
  0.3142817154047179  0.9719643334898032  0.7601642880609657
  0.9936575383385012  0.9069309453548114  0.9233211556522185
  0.3375347899467277  0.2774430588099407  0.5858570947278566
  0.9062988596606530  0.2512297225611078  0.0058256198086114
  0.9156274635260357  0.0935943712600265  0.6572333050925047
  0.7541351341156858  0.0824308433476612  0.8310299036256190
  0.8282477818523161  0.0014464928700495  0.6570107865455687
  0.8362015300008094  0.0009523896516332  0.4976006501654429
  0.9165539011762741  0.0827720906112158  0.4984781247202721
  0.8341667134354757  0.0830398159712248  0.0905208740742063
  0.9171944723277161  0.9991782525665496  0.0878667237695317
  0.6641889942398066  0.8361416728243407  0.8268810230670718
  0.8316877704240799  0.2468394838390869  0.0873874916072567
  0.6861067592504813  0.3353453829460405  0.8225977752114311
  0.8346911949390334  0.4272371850394936  0.7436374069595393
  0.9150252169564209  0.6674202537919074  0.2515280978840110
  0.1612344903460251  0.6684519300511548  0.1679201180349729
  0.0868497692467733  0.8482587055211050  0.9148204613409179
  0.0749980581345842  0.4212147599258103  0.3316620892218746
  0.1571667397423540  0.4240649617445890  0.5722781956016830
  0.7540416007319658  0.5045705744566068  0.7447039548401819
  0.8307665155168114  0.5832767567384596  0.7398546610717779
  0.2434181076584318  0.4902717137606507  0.0888827568786085
  0.3386673734207819  0.7469654987238736  0.0998720042622222
  0.2222474037199418  0.5266822183438009  0.9137958158662947
  0.3290414309602164  0.5850214419278086  0.7432746118114184
  0.4144925039168368  0.7435652755686779  0.4835151622412295
  0.4135507142633050  0.6651646351716457  0.4131030686303563
  0.4070825144236773  0.6516653293458856  0.9140118530155525
  0.2409745513068565  0.5048748624110893  0.5734999051203801
  0.2395370897132219  0.3355692420399631  0.5754555665670296
  0.9197254254257233  0.6734691980184485  0.0850723413044509
  0.9161306315733103  0.2542874515880280  0.4951291551936253
  0.9962347081354014  0.1664670577800742  0.3351761819149872
  0.1097462964722449  0.8525744214214814  0.7705711828005916
  0.8314079611713315  0.1704226300314091  0.6609780248697427
  0.2413396597461382  0.4205969809691384  0.3314046493940344
  0.1559741606719572  0.9985136699784178  0.4963992287260531
  0.0756079399909285  0.5019162772995920  0.2495120964305634
  0.9079733490766312  0.8348283772728204  0.0875528561284995
  0.2434668071773640  0.7471454404141881  0.3323915550055863
  0.1503669426782999  0.2677736482352664  0.7408326970694955
  0.9947049452896461  0.9157329557478582  0.2570453213931003
  0.2287785309109848  0.3432147914378187  0.7459440709079839
  0.4135001580057116  0.5042679877697180  0.4142657935055881
  0.4079537478437463  0.5875666229511683  0.6438562923435602
  0.0767020346885948  0.7524723702137015  0.0031336027329562
  0.8367416353874326  0.3330863039874231  0.3330515831320430
  0.9132779115654260  0.8319883060888296  0.7411707082459276
  0.0596920333239280  0.9381551094506173  0.8333906201387637
  0.9929472559322587  0.1715971082855615  0.8355951166012229
  0.2323632716595684  0.0854395366002489  0.1788591048547245
  0.3441972016797861  0.2122890447275078  0.0149107228530605
  0.4044163087458272  0.2105480571691480  0.9092169034214014
  0.5814920015838999  0.6793514632053675  0.9093509746282255
  0.9967675270856958  0.4208158323012077  0.4128275923580634
  0.8350930789436476  0.3370217118162979  0.4962517719200363
  0.9146372850025968  0.3386359873273791  0.5762947688936371
  0.8213746907417748  0.3316327286946610  0.9965126129280503
  0.7562036150774802  0.9969654204600762  0.2563767879306039
  0.3213300395589693  0.1764855834201850  0.6566604683711951
  0.3306308015083322  0.7533973629573679  0.2539676335179518
  0.4054311530745438  0.2272950184302278  0.6782791582837836
  0.3923332586895945  0.4214020086515327  0.6867481475985698
  0.8297754335270805  0.0896667148066446  0.7472657260702639
  0.5968807838464355  0.8941544837723108  0.0008419395270270
  0.3343427074531442  0.6524447394523448  0.0131914864546832
  0.1602253562746228  0.5072225618034998  0.6600508947219372
  0.3184801447743318  0.0157442938273017  0.6618098205968174
  0.5108881989338654  0.9916311625776018  0.6347845837315224
  0.5049646614947028  0.1760482197654396  0.6433989723847321
  0.3080375286143227  0.1671135050859904  0.8365043282497727
  0.2886229807294143  0.2435880746311548  0.9142773033448404
  0.4227561374509848  0.2240215343345490  0.8013264937843479
  0.4141365789057061  0.3425142375065690  0.2586053023534249
  0.2696209111718834  0.7407512735949020  0.0108039348074089
  0.4020078506913020  0.3049141313440727  0.0780742894734258
  0.3917408802819435  0.4123208089151401  0.0067570063739962
  0.4452593201340563  0.1354054139757437  0.7381506675699284
  0.4409126861426354  0.0984457742980096  0.4794446714166370
  0.4485505290851350  0.3255774557986194  0.9163885315026034
  0.1581550307746419  0.6667878959758925  0.6594318293111890
  0.6707445153807680  0.9138103660522952  0.2555482789250320
  0.2371334306140049  0.9092273756198124  0.1786181814976074
  0.4116136236432311  0.2599557919632053  0.3353265447371104
  0.5072043719071733  0.1681681585681340  0.2046368808684596
  0.3232647909671695  0.4198362319998102  0.4114830107241685
  0.5026523171965194  0.9881416609950835  0.3339939397428968
  0.4996305718553622  0.0817996848218421  0.3875911542818679
  0.2432242404559438  0.1622286859457588  0.0903885809153396
  0.5030907991706397  0.8328201732066974  0.1803386384789059
  0.5839009938079042  0.8328725494480816  0.4171770356302369
  0.5035821640298971  0.9103688082003433  0.2581341575086690
  0.2434428599586365  0.7482795303609102  0.4943054794013503
  0.5879006536992333  0.9100783567857357  0.1737988168326017
  0.2256779327874503  0.6628341167897950  0.9194996294049146
  0.4845642543637295  0.9941145323426216  0.5199313917047296
  0.2369431353929576  0.8291090577311077  0.0970824868859297
  0.5649310473671820  0.8119738068677514  0.0912306870574990
  0.1555379307852369  0.9135767123904868  0.2551751216871503
  0.1792704622920881  0.7578095124634998  0.9553425903221078
  0.3334244182218370  0.1504752412329855  0.4736246475110733
  0.3608572685818541  0.3008257210639849  0.8519423202622051
  0.1595190888085165  0.7474204387264368  0.2520717054226908
  0.2432600835167229  0.6667920915439733  0.2531820070439191
  0.4072836786657927  0.0882084109668786  0.6477097585662788
  0.8337597558995306  0.4208428318986154  0.5757320590339130
  0.2720100070557762  0.0832732424958367  0.9088673722746058
  0.4191055078973804  0.9759986157925037  0.9141922966820097
  0.2440360080771372  0.2702932987377483  0.0166577623851325
  0.3097141247696411  0.2510512888519426  0.1107646196445383
  0.4079165662722701  0.1299757498429844  0.0815846755689653
  0.3299673315727491  0.6666309066295607  0.3309514382576742
  0.2458382623193703  0.7496605685664374  0.1725319243746734
  0.3271779769372390  0.1675569663396135  0.1814612174008988
  0.3167028155259012  0.3373234285106219  0.4879141848467489
  0.1606814376744153  0.7489495511492319  0.4131623966700437
  0.3154282756475820  0.2649179909417815  0.7540989795060818
  0.4094450646167738  0.2562766864875758  0.1859743869278697
  0.4990545788492534  0.3385452249584306  0.3396096493566949
  0.1596195592114546  0.9145580577161472  0.4154493823993076
  0.2439219023643112  0.9087753025751002  0.4943387789612761
  0.1580384127393377  0.7420281565708724  0.7442553051241410
  0.2464534409897944  0.6666775214562776  0.7388104585688604
  0.3250401917979398  0.3382845795750531  0.3342582533416675
  0.3276673499848518  0.5857605889817720  0.4122537381020960
  0.4289371242398961  0.8257536843369916  0.0924984546857958
  0.4147186505684963  0.7478867973698912  0.3348001109370617
  0.2424060384975841  0.5861259284954732  0.6599136074330051
  0.2433177987375924  0.5067414344784602  0.7490554882396856
  0.3314315530254545  0.5603732050223560  0.0694034654184648
  0.3307411249040098  0.4971411286651979  0.1679654053310618
  0.4173702836153261  0.4993184595064274  0.2641936462830715
  0.1591754346325927  0.2516142980462941  0.0924729829852001
  0.3208368393402548  0.2489320140440590  0.4067931388389759
  0.4120719966084113  0.1736702834306460  0.2643247603976316
  0.1574749959538176  0.6542241808101807  0.0177403010382653
  0.3207953147816036  0.3304898300480557  0.1902384389830622
  0.5928975278020520  0.5019719456721070  0.5737269942635757
  0.2417654865247085  0.9130045697375042  0.3333763684082375
  0.3390491965953716  0.3969813195967102  0.1085742707672657
  0.5043691549140314  0.0741321880759406  0.2622159072008768
  0.3315884389159123  0.8510486321049681  0.0448529349325290
  0.1383759907702926  0.5170314718174575  0.0025405892226480
  0.4077316097034509  0.9128514605100303  0.4959345548678208
  0.4278641666263129  0.7356999467581569  0.6646551211180336
  0.3344398333100582  0.0916104958288106  0.7411981479151953
  0.3275639977612815  0.9166756919302541  0.4153097671338001
  0.2404771932693814  0.3430079855285356  0.9220496090195273
  0.3399910357109350  0.8059220062559355  0.6690555462045966
  0.3515239400180704  0.8136166002823424  0.8244672520328324
  0.2407407630068731  0.4288362888435779  0.8363873441749515
  0.4271345136625131  0.8188885500407137  0.7462528872159405
  0.3289652810313453  0.8274109626936379  0.4913546864870901
  0.5881613650133057  0.9909210537383333  0.0959601104715529
  0.4407176983007033  0.8174634462009409  0.8933564121805350
  0.5020362148442856  0.9128031024373569  0.0922377827086244
  0.5891194759947664  0.1558134414938848  0.1026616502289585
  0.1563477473238410  0.4264806724841569  0.9216055378111079
  0.5850706420893254  0.3337289442642165  0.2574622093257951
  0.2591063095458250  0.9196441470003872  0.6510049159286388
  0.6709623333427638  0.7510632600320858  0.2588017749524887
  0.4198107676819687  0.4318037659218391  0.1807738650512414
  0.8296477438681785  0.7477914569826153  0.0865609408113847
  0.2353809593762014  0.9207927162323198  0.0231322171503586
  0.7494198408610213  0.6663926753691425  0.4143042844189609
  0.1555731957343689  0.8284162060022746  0.1735829736684647
  0.9150277486613589  0.4203387046892917  0.4950287354330844
  0.0784651141178055  0.8319391019905339  0.4157816329676664
  0.0775946370809101  0.5834426734692860  0.1655687562167648
  0.1608950985068978  0.7501332988453966  0.5788132865940784
  0.0722602671385606  0.4958565098717785  0.0887539522382840
  0.1652303850320134  0.9097831793325680  0.5766072003885468
  0.1048484716412492  0.2327309705040594  0.8423448685972054
  0.2437118131875671  0.8302957315319986  0.4119965699501702
  0.5947585431371260  0.4018586524594140  0.0420297201587732
  0.5824061205618390  0.4992227353514446  0.2566558929673611
  0.3282322279962052  0.8308494446211636  0.3364459702284613
  0.4222339864218563  0.9079570829126062  0.1791545413100855
  0.0739154380562394  0.1671356602091494  0.2526736657894086
  0.1622164040647676  0.8301674707785038  0.4962544736246402
  0.9145846726513379  0.8322221100459698  0.2560376643964573
  0.3211019020509826  0.4151337796064592  0.5780979381800968
  0.0759765386631739  0.4194947769185653  0.8310044988485428
  0.3303838003056497  0.1017251392913088  0.0087090022842647
  0.9088208592350652  0.3381977581842167  0.7427031047468671
  0.5009685535651091  0.0896378242592542  0.1304401951614572
  0.7532343517501509  0.7502878079098040  0.6570482592101544
  0.4153119373486455  0.9884238908789161  0.2543876948477264
  0.7571155752631984  0.6711506865412233  0.9105283110108755
  0.2201472944155711  0.8579997361123610  0.9273122102439449
  0.7051203853552819  0.8500491090403158  0.0021929698521467
  0.3252274166624735  0.9920339843742181  0.3283392422694901
  0.6690578575903813  0.8325473751027347  0.1738241011653359
  0.4974868356393111  0.9139944682968056  0.4200463746600101
  0.0754711632882402  0.0820056334352359  0.3360552258474381
  0.7513998760565755  0.7514293270012123  0.3383041486660593
  0.4281490479647545  0.4929206741398410  0.0841770804134973
  0.3281819235906157  0.9071750060317185  0.2555924811282931
  0.4151534897236111  0.8295062122245188  0.2566690224107133
  0.1365749318343999  0.5896055651884228  0.9117487489141103
  0.4988980885669303  0.4187633302514297  0.4204182953058955
  0.3304973542887213  0.6650726997849314  0.6550980970794729
  0.3102961449438030  0.5965959290095830  0.9193421212702851
  0.3290987788131081  0.4226039218882713  0.2561799262963304
  0.5113001374198919  0.7406049786332506  0.5784631465382434
  0.4232929190220195  0.6501369907690648  0.7389621407160939
  0.3447225745532044  0.7279723884594571  0.7441289425092648