Cr Ni
 1.0000000000000000
    38.5483780612784415    0.0000000000000000    0.0000000000000000
     0.0000000000000000   38.5483780612784415    0.0000000000000000
     0.0000000000000000    0.0000000000000000   38.5483780612784415
 Cr  Ni 
 1596 3725
Direct
  0.0773557973359181  0.0396285285171785  0.8429720005285039
  0.8522884908913351  0.8770244818016655  0.1381794170931502
  0.4099808456993791  0.0779645259265697  0.1210437969517838
  0.0255514784412671  0.9983346863946492  0.5036835022799185
  0.3245344728490196  0.8510323305272635  0.3092486986262895
  0.4547314012443902  0.0753087935176851  0.3398062894453515
  0.1577292054477830  0.7411743371967016  0.3448196881656474
  0.2858504899543625  0.2930950556522160  0.5333716347629069
  0.3744432990978331  0.6895943401540050  0.7001493582091278
  0.8985368145085145  0.2175262300471734  0.3073033913713097
  0.8916929030648419  0.6611837233554353  0.4477138938955076
  0.7533411020400268  0.5150459572668113  0.9308879285856453
  0.4463707215739550  0.0317894795328676  0.2960162520820788
  0.5368986596393056  0.8398777263036946  0.6108726861566433
  0.1242578030031198  0.3974323977675245  0.9105106564938621
  0.4655300040626612  0.1243859046335094  0.0708084382448581
  0.5779532293784806  0.0283874424790392  0.7931585977968747
  0.6563938957895865  0.9291866094192582  0.0348607553832454
  0.9857816778132130  0.4742695732204392  0.5275905960923345
  0.4991243910408522  0.3756843755431509  0.6475700136514293
  0.7006422727643571  0.3401608267110909  0.1977213581713376
  0.4713519438867430  0.1533363295972667  0.1793004785735188
  0.4876313202742045  0.1034656600133801  0.6906295009298622
  0.2715185494223253  0.2596573219784279  0.7552796519423681
  0.6699751635346466  0.2340024590381858  0.9457517288322500
  0.8625281282568865  0.3868695170032563  0.4098065412757177
  0.0554650736183360  0.7544849888391234  0.4823191496367897
  0.1997264204782928  0.7307851542754504  0.7943031219028076
  0.5891832196360995  0.7511593423281613  0.8686633606754564
  0.9485690977538482  0.3906276555960120  0.9691629431850284
  0.4861421164510139  0.8063913373755131  0.6027510543727156
  0.9889764242033003  0.8522154605458091  0.7366274551223312
  0.1522113003615072  0.1574372130752760  0.0721846700624742
  0.8445244631920988  0.7233471292214236  0.5271771559215582
  0.2031058243886749  0.4646306478590040  0.8114276968046162
  0.9216144749493865  1.0197783623585155  0.6968409842077579
  0.3184140813125537  0.8198173099101956  0.2033838522624681
  0.6054029305319097  0.8274193368487393  0.7511148267373905
  0.9680389460243873  0.2354477277434184  0.9277760136354498
  0.1849565540614006  0.8652357914043228  0.5991125245455969
  0.8066422177379688  0.2037953944479445  0.5601513203288988
  0.9709522962077946  0.4210570046045248  0.5661797308701776
  0.5089424966307209  0.0752237481781734  0.4742175476161241
  0.8604294747627653  0.9205887425212106  0.4124265312685237
  0.5466526177108401  0.9373289010389525  0.4751055670177165
  0.2559176249082303  0.7577211652289513  0.9268677848803045
  0.4020861591734495  0.0755780192840472  0.4397080532229841
  0.9679068553600952  0.4344827465245849  0.4906480899749574
  0.8970453470221789  0.2058344508325016  0.3678888236907739
  0.2158013344149835  0.6571981759049547  0.6393659064732007
  0.8279844129469915  0.5554085559758650  0.2833267687536139
  0.9340249125532325  0.0694337210891133  0.3772773534944159
  0.9369159044979390  0.5864439024050618  0.4274037301663305
  0.2292359929403789  0.3385356134083854  0.1542788141809315
  0.4736606096631788  0.9183130983831569  0.8548995845632595
  0.1203727669171584  0.6635717506066824  0.8852614213548911
  0.0505062681619586  0.2964015995598828  0.8931909049143614
  0.9200298816826238  0.1368726826949829  0.6550873000680234
  0.1596050764501160  0.8094097807080207  0.6519059428590508
  0.2386000717123881  0.0458754963498103  0.7863724604569635
  1.0081552330086265  0.8631957946753140  0.1358413158055632
  0.1525509683308651  0.6466691019264885  0.4864861677095491
  0.2096732424178921  0.4890316884255211  0.5337677277741264
  0.4691473971682456  0.7334183894147874  0.7209652388087696
  0.8658983926248712  0.0512145295953883  0.6042617297685077
  0.3560964717117606  0.6137506860683988  0.8198921226984098
  0.6357817186467110  0.7665119682261758  0.4994041856238280
  0.1606240175446329  0.5173098682791037  0.5698484580852453
  0.6681905256466544  0.5121339503563741  0.5217590452260584
  0.6998506507271447  0.3830750944777186  0.5426343586342655
  0.2908647113249163  0.9591547285413471  0.1193511684982105
  0.4832332222810930  0.9060263902294163  0.9167274828669498
  0.6157822752091004  0.0909744364096038  0.4457355751666358
  0.4409322824998443  0.9228377370799039  0.4997734183866374
  0.7557540768897979  0.9208803101669408  0.6129386563393937
  0.3961479140721963  0.0482059804014338  0.0109174869227999
  0.3634834562498215  0.2056849264362006  0.5093203460666054
  0.0634891383848065  0.2921238815243551  0.4004419792037283
  0.0932552393710738  0.5008794547258674  0.9913700210042209
  0.9727844156251548  0.4489561345728744  0.6818123774803871
  0.0905634816407425  0.5506887197369300  0.4899355760058335
  0.6652070884565632  0.0601321600871323  0.4726454590412583
  0.1489272770143230  0.6322518008107225  0.3163058684905633
  0.4069916047729412  0.1192529311772163  0.4795794909599637
  0.6890131919185726  0.7993828990322180  0.2766421227964362
  0.6966907160839201  0.7819336068351738  0.9555005246276554
  0.6943985660117270  0.3546937881977041  0.9447628944714763
  0.3277862460092590  0.9112221501899280  0.2935233302607081
  0.2108747506575051  0.8731668455645534  0.8931320202269162
  0.2002597730329126  0.6792863187025810  0.9762516907869795
  0.7114909950801371  0.2510287424951441  0.6837757985808542
  0.6992034227376310  0.7385105619920230  0.6850460091716644
  0.7944337907519472  0.7983373330646194  0.3144885503055735
  0.6234587435033329  0.1378126308059642  0.9515800463298822
  0.3966683332901150  0.1752023531257563  0.5801181739669389
  0.3392315698161512  0.5582727623143945  0.8433089649951414
  0.8220778868348571  0.9829126176062604  0.6715961274144091
  0.4624590267057182  0.1174065828235436  0.3801214909266645
  0.1614607052622434  0.7708442787753174  0.4545999652796289
  0.9559691405094477  0.2507930710133230  0.8685831670236162
  0.2218622095992577  0.2775019676575781  0.4026432862430817
  0.3537299961855377  0.1951846154431243  0.7953960959316341
  0.7633556771137824  0.4318144762257620  0.1861903079157213
  0.8820715794728395  0.2723631743484518  0.7879511890259934
  0.0728697064722668  0.6110576071739596  0.6348010698214693
  0.9832239773391672  0.4979987407600188  0.9552835759469571
  0.7703562497291178  0.4768275245204374  0.4565612171077209
  0.3062109119490808  0.8613618350801360  0.6410904439844767
  0.9252193223970809  0.2112480225028454  0.5898549487556543
  0.0380801863276710  0.5721769995510796  0.5443579481887167
  0.3608666591127415  0.6503158103984664  0.0973223719156953
  0.8232515369934070  0.0193540880832617  0.0576514835071672
  0.1896069365263127  0.2930438949268645  0.6094551428683964
  0.8230023333995665  1.0027705042492669  0.1231448444356172
  0.2334941999254227  0.9148343329404107  0.1771410889026906
  0.9983185908275443  0.7541887388664726  0.1097033500318710
  0.2832008528751261  0.2142777002339347  0.7102338297191868
  0.3569056533894613  0.5597406633247234  0.0127777713918152
  0.5300821016131503  0.5951877220333315  0.6218373799588045
  0.1175343506914781  0.5618911900906798  0.8727000661569193
  0.1453504908341654  0.5668853904907232  0.1040292203968769
  0.9706369228174833  0.0115231776936002  0.5995663311568539
  0.4075401420314905  0.5703789282823426  0.0798069858992139
  0.8775659371928701  0.5653820442785457  0.6875414920020471
  0.0804043422452019  0.7477477048649027  0.7357298870525448
  0.6461598344893371  0.3220321675825255  0.1283140715020965
  0.1889723631547716  0.3817223881789476  0.9975948607065165
  0.3697851189652459  0.7888168333494882  0.2286723123602150
  0.4647949406306795  0.6892263229338454  1.0057349219620053
  0.3141495295461120  0.7428358129886161  0.2799566507706014
  0.0507964960514163  0.1392444207969557  0.3297749544012175
  0.9848185089154903  0.0634235307002339  0.0375194275005114
  0.8068156810088686  0.3401770380394928  0.2327636386108859
  0.8836376885907821  0.4249029945089918  0.8212964134312470
  0.1406995615512812  0.0208818797428746  0.1671889325886737
  0.7705103812812735  0.2418744143134430  0.9226754813321744
  0.8820218551774520  0.5357269693006691  0.0217788436678831
  0.0325952367687121  0.1352713401763725  0.6367397768180308
  0.5143324253273670  0.6488007754059958  0.8658609086338626
  0.5327262209702779  0.2511650533683810  0.4020682156902954
  0.4084724609139515  0.7725373406032852  0.8062802842782905
  0.4010721610819792  0.4602061425090869  0.0499878594198628
  0.3872329090780877  0.0611523239820508  0.6620810195601659
  0.7287798491983373  0.5910774239199832  0.5250223106062591
  0.0943220118555051  0.7444295752837673  0.9723699745013016
  0.1714265302866618  0.3257074506242674  0.5431712898713846
  0.2696513984268088  0.2311945501582236  0.2596584746490698
  0.3019955480570296  0.1260557676135931  0.4532392036152046
  0.6207504501490153  0.1079508864002977  0.0749449443164013
  0.5223438107661330  0.7097484036424028  0.2443537797592055
  0.5381298882804866  0.3947583232094180  0.5363705538408353
  0.4769712101989645  0.7096254331176576  0.5637058308792026
  0.7244483571265018  0.5854712622306496  0.3530209502541109
  0.3367775087037249  0.3718206725792544  0.7053616808376237
  0.2035629468904906  1.0065047912187761  0.9622105575428990
  0.7389878362270641  0.2160596246703519  0.1379263401757238
  0.6785762705892081  0.0362938293943545  0.7149347634482579
  0.1018052737386249  0.1541935366278404  0.1684666303676106
  0.5897964144757929  0.7054316588358601  0.6022528803560213
  0.6424832998582943  0.8311761732480697  0.6503633569883338
  0.4992423093006443  0.9247132228205366  0.0852114855033793
  0.1399595306017090  0.9601286054983821  0.9558131367920952
  0.8638085064505601  0.8766750157173487  0.0483153335440242
  0.8424220215793593  0.2614789840399873  0.9900154719039099
  0.9488059955679594  0.6740731120004599  0.8988853895396216
  0.3113021604021087  0.7264021062107755  0.1132075357785020
  0.2701894968052120  0.2468716410554335  0.1992130227621427
  0.5403753212807607  0.3067522359896778  0.1526496922637054
  0.3047660568799327  0.0643231826250325  0.1472534749149672
  0.0598996161822366  0.2456624412971638  0.3572552131815969
  0.6105002573164070  0.5300374153513256  0.6613112501717379
  0.6304826504559329  0.0656968775466821  0.8585413555133335
  0.2255359479239358  0.8250487410031001  0.8456595265016300
  0.3011484619140831  0.2232066130893889  0.9375392844172703
  0.6489223257260800  0.1716014758237961  0.8414241460678512
  0.6399477148598144  0.8616750198370946  0.1238916253366746
  0.4298266590111931  0.8648909955389686  0.2827292220067609
  0.9734274171490815  0.8940045798498958  0.0227713767152367
  0.3256436588519863  0.9617809517372498  0.6094579237581832
  0.2981530036074325  1.0041050800102245  0.1648097575168608
  0.7336574428171503  0.3819737892324440  0.9973740300266479
  0.7118079110813695  0.6616044642453276  0.5957425181442058
  0.5277815798858200  0.6826769108222002  0.5389941642322149
  0.7362286419620268  0.1730239318901933  0.3255763744743561
  0.5000898872708057  0.9942337837004326  1.0046952662745658
  0.3981618750513883  0.8246487510300515  0.0150311925955271
  0.4190918576516978  0.7096233792058270  0.4371650002310075
  0.2816351047701988  0.4982982678915988  0.6121579169682203
  0.3335127150588171  0.9736178196462765  0.2787778191252014
  0.7999647358145913  0.5229125430869573  0.8896102601934395
  0.2897759633243103  0.0170213130581145  0.4223963340482474
  0.6510828118114373  0.9056893197384900  0.6354732196487884
  0.2338274074210316  0.3835016247854095  0.1941594055618052
  0.5179016797810765  0.7100582310572395  0.0213176624874102
  0.4109039385223537  0.5381448024805262  0.9795789048119610
  1.0011670987242358  0.7095353922539321  0.5331880155847585
  0.9852093073944438  0.7001619490079154  0.7003163926337667
  0.4536628728606003  0.2379987014911520  0.8224964930066896
  0.6335841706233885  0.7390922506046180  0.3889328943629306
  0.0964913765576438  0.1143527060590215  0.7212881459965002
  0.7536935669435941  0.8759133476727370  0.7376793446231833
  0.9647568070093794  0.9207922144360764  0.4514887831670217
  0.4077023625358639  0.8057840376733212  0.9117305695890630
  0.5872770633068044  0.8634919338595315  0.2223116350356214
  0.4069701767187975  0.3516383718171024  0.7902170148211785
  0.9771537285606854  0.0705801060401222  0.5762657145983524
  0.8523130249479509  0.9236069249341313  0.7732347230347374
  0.6597611465085322  0.1050572006627562  0.5736512704455680
  0.7066270522215687  0.9108136339026094  1.0029848547511380
  0.6983989316638309  0.8907377037011172  0.3670950066497469
  0.8383024615037894  0.1609537294107190  0.4221798656468926
  0.0861471582431062  0.5013226574618431  0.9344717779165151
  0.1837640412302808  1.0020376103125539  0.4483147980073107
  0.9249011617881226  0.0463809090074138  0.5081310058859841
  1.0004366291428293  0.7721679003920128  0.0464042786646422
  0.1281289211035638  0.9865399758249246  0.3742754591045864
  0.9311041557439851  0.4895767722248999  0.1112112371566230
  0.0728316423611891  0.3690620860195750  0.3170129242243535
  0.8476257679290843  0.3445701065366074  0.7112757982571236
  0.5913753614061579  0.8912769885154164  0.3294419110391771
  0.0182414468358154  0.3324859909565774  0.7148608307057428
  0.6675322000604860  0.4548168651183566  0.0258567521250016
  0.5780504151868650  0.2042638401445318  0.0270947209285395
  0.3651939002659840  0.7106240013604996  0.3056686890621720
  0.9937117857043175  0.6492663747053130  0.3141148994334521
  0.5106289229322749  0.0311280491689411  0.1131991761044024
  0.1230355910388905  0.8165590824115547  0.9139024177429776
  0.4152804723662496  0.1085210075842354  0.2290522780726547
  0.1954513266997346  0.5543196673191672  0.2971932113195876
  0.5552427011957454  0.0263737677595064  0.3281923174680071
  0.3985268823563216  0.9557008174426534  0.1538245393516897
  0.6208443129557103  0.6004746220534507  0.2527260263126120
  0.0780902181205998  0.1881104756565025  0.6120935824698461
  0.3657196879797129  0.1388261815937940  0.2035918510755446
  0.9113375026798125  0.4898302380045483  0.7655960264602153
  0.5319660659933996  0.8167222565187792  0.2746884319582871
  0.9956089211217434  0.1027933946151866  0.8011199564304816
  0.9251232848842823  0.4293869076230403  0.1291822993431307
  0.8144670829851706  0.4024955226437021  0.4401390946133963
  0.4372721476308938  0.3381431361855914  0.2230047369404602
  0.2125642781171636  0.7877751717215115  0.2901009115968157
  0.8826256251679994  0.2412861137275055  0.6825602762719987
  0.2087708350154336  0.1555443682907499  0.2048637158835316
  0.2676192338322377  0.8438583250554250  0.7446752858025114
  0.1323904517239685  0.4455790599485212  0.3654458184710030
  0.7337252935085432  0.1708961523111762  0.0928924244477480
  0.1145973031011187  0.3081686119604888  0.4696143231432223
  0.7278951302193097  0.8135097554673444  0.7939390691355717
  0.3075912409159182  0.5046352275622895  0.5154878512040110
  0.8553162004506326  0.9451555473082048  0.8972730819031965
  0.7884164935376737  0.0973714861291567  0.9028633187161710
  0.1671231627966639  0.2617961805620233  0.3298801336518412
  0.5107665600128930  0.1160317632279102  0.9181700163775780
  0.6739663441884942  0.6012177949542428  0.3856337238836375
  0.8717539371644205  0.9852610817319737  0.0814594423344450
  0.8570423384578557  0.3249249834536386  0.2008203158769094
  0.5686853058467479  0.0391970603654418  0.7299553548761866
  0.7951866853650724  0.1855919770888204  0.7191631611522060
  0.7353134109368636  0.7528996514500104  0.1365588587856412
  1.0109295868705757  0.8448094790233509  0.4349911456957841
  0.0898616010638946  0.5397144204044501  0.3210778116597422
  0.2354743345053353  0.9556845194190068  0.9892952760306277
  0.7464688722604623  0.9416398234031564  0.9506948958574132
  0.2811763373340774  0.8636019212012400  0.0345797779261913
  0.8999981480231477  0.7698912974846025  0.4753272864583268
  0.3860081623750208  0.4092812825344886  0.7739398333286518
  0.6754384231936176  0.6148387706260035  0.0955164730288913
  0.2734332138586172  0.2764181787230178  0.3044021021843735
  0.2941881027753590  0.3336927987673500  0.0430969340638492
  0.1105255544383834  0.8182224644856092  0.3651936912884275
  0.5765169170434999  0.6103509883236046  0.7811943400137898
  0.7485574116382810  0.0398846772985603  0.6245280880148516
  0.3458108337922049  0.4771394651971587  0.3132873263875494
  0.5499063446513287  0.4011111988740919  0.2374409293793027
  0.4420735329388715  0.2503138654215908  0.7615897704970959
  0.7191815541177988  0.0895039627904545  0.4767653046319893
  0.9241820362791859  1.0113009994320046  0.4011919534188592
  0.2693433973279984  0.1995900837847758  0.3845166494510320
  0.3900395526619181  1.0031039345998733  0.2874613867219318
  0.0478388445832151  0.6760206951069565  0.0911623063079883
  0.1237698546265252  0.2111025107753777  0.7686206340103428
  0.6112020712413413  0.4352498637400776  0.0115776882073437
  0.5918651467330880  0.8604363734988857  0.4549480218193865
  0.0840816614362905  0.1912435911759353  0.8688398812352408
  0.6787592550812748  0.6605385882546507  0.3705899744026681
  0.4396375887230140  0.9712757208188865  0.3135985371767462
  0.1000170944010911  0.6788795326446866  0.2258081356966903
  0.4458200356317432  0.4158058421284119  0.3695752716558529
  0.0553866497855011  0.7709441332058566  0.4184586449335441
  0.0427138271922453  0.6181273571639426  0.3406644337290568
  0.9968613434651100  0.2490426076345630  0.9933956948647354
  0.8576853233194739  0.3381805910111331  0.1390396723744562
  0.4481899513779603  0.3693994667493703  0.6890477426365178
  0.7477374853226142  0.3145275034816517  0.4581458438830930
  0.0302423878485889  0.4612588879571192  0.2701067737896593
  0.4296442009288617  0.3907015553843481  0.5636975781337563
  0.5908864717884043  0.3073870101260174  0.0553977113338643
  0.7607254487107947  0.4027650945790790  0.3102609335004191
  0.6262296759105257  0.8220861321143841  0.0793582940785584
  0.0472376006527236  0.1084950995127055  0.2208813487080205
  0.2130021662308731  0.1843936450965185  0.3121126683012473
  0.5971158790177322  0.9216383317877096  0.4384335241525231
  0.0389897723403679  0.5251767779207114  0.4788189803399056
  0.5565061890029628  0.9736756806532422  0.0300106891614755
  0.2679134933996494  0.8053918899101518  0.0631291912075559
  0.1748557176171207  0.9018369738275994  0.1056685228641982
  0.0734660367238989  0.9520762295166507  0.1165526688042183
  0.3193858814585298  0.2638764211178671  0.7170447747757294
  0.3784602015614057  0.6640929233463035  0.6003817472228457
  0.4671031732056066  0.4419699369990766  0.4805868525543921
  0.1017795895886722  0.1251411487661040  0.2952041309394230
  0.7764439316905190  0.1095494915765096  0.0132522313934462
  0.6538653598515092  0.9346360757340439  0.5119526572001869
  0.1090692336029711  0.8108509062254434  0.6803646331483101
  0.4559602522699255  0.3890694020299499  0.8585632034213920
  0.7858028739409219  0.9670021006791706  0.7852916553741623
  0.7298201047689729  0.6134044053194468  0.4620629600717279
  0.5719214526056212  0.1222079880620400  0.1088342133901383
  0.6048882277920551  0.9927972574118510  0.1129138676172952
  0.3461702641165064  0.6267557606450798  0.7582424680656894
  0.8174428973465964  0.0299726576555005  0.5324596354879910
  0.9024893584080039  0.2653615871282435  0.3514339032505942
  0.3710038714250617  0.2171808201139270  0.1262790623757895
  0.2443202131169723  0.1646096897537850  0.7069244266122815
  0.1463708779918166  0.6018641665865716  0.2092404929389832
  0.2287530666878889  0.8903530857818951  0.5501953252405618
  0.4719360496820377  0.4977052786451758  0.8431037396996696
  0.1636389983189185  0.2621358066026602  0.1015150694057666
  0.0774174658929610  0.0657096632068290  0.9520330584846306
  0.1687185286290278  0.5329080196940438  0.7328185838770072
  1.0066067215595451  0.2450247494850048  0.2225029116319981
  0.4193608768143566  0.3078143851579531  0.7452236514282284
  0.2901424582179373  0.9861896495840426  0.5479152288100951
  0.4415388008585170  0.3534100051510924  0.1584412734971666
  0.5040480013386887  0.5354824417055896  1.0100175242420515
  0.9538187548784751  0.6599640743072041  0.9610485631000840
  0.9939846604193567  0.6599966324131372  0.0152862455507720
  0.2985151132460982  0.0389750061078322  0.8082976004011230
  0.7172046548832998  0.4748948681130704  0.0947826911058783
  0.4086085641240192  0.0364028599927468  0.7894488531630740
  0.1850915635859523  0.9398245008967449  0.8077615530450354
  0.7523163334605136  0.8905891800481264  0.5038076563758992
  0.4878722918001011  0.1366246678514278  0.7969992759764074
  0.1173262437713858  0.0886880410682915  0.8473883228295199
  0.0813049339459078  0.9268986873778584  0.8847557132739892
  0.3108305336612159  0.7297426982548834  0.7836886816800686
  0.9391973622441575  0.1598566753639428  0.9949931039151286
  0.3165257978849316  0.1123024382560201  0.6850355595628280
  0.0346238483053366  1.0073900372112967  0.2000014106345949
  0.3921131083103933  0.5290313996071518  0.6998621224894342
  0.9923050493397744  0.7057914670535517  0.9384264719551511
  0.4086581875710026  0.2834663467464076  0.5794681036163676
  0.0685542886780916  0.5227267518780754  0.8118537160402566
  0.1749918275825699  0.8221187661007788  0.8807914584044766
  0.8785691008665782  0.1490477435335383  0.8612563910138401
  0.0774715013520343  0.0240675277211221  0.5748619063848457
  0.9842470193690960  0.8592917410837680  0.6628058775105459
  0.5046858251713093  0.4600720134137455  0.0865594077818205
  0.4387681959898713  0.3160244648120105  0.9771719572607208
  0.3316141613740192  0.8303783053916856  0.0566106704032134
  0.0884176690522885  0.7165634790626224  0.6213419900627232
  0.4786580090726855  0.2333653139664228  0.3305811359193985
  0.3063035855566152  0.6178153199874705  0.3152778118516175
  0.5777509296101264  0.7242170996730971  0.3155989584767750
  0.0775968385641172  0.3589169619626223  0.8419198780365196
  0.8297661743308360  0.0618224689486426  0.1028625452736957
  0.7909237106364402  0.2044282475203180  0.3340402384294628
  0.5411419051291869  0.7136727036566566  0.8040323451719121
  0.0398757069360101  0.5867343846461422  0.2342270067876804
  0.4154205525059754  0.1558575902044771  0.7115931877649371
  0.2912075110781084  0.0455144451378887  0.5324835880089862
  0.7758893707739761  0.5328362448174110  0.6071121954592714
  0.5994301794299476  1.0083458118919726  0.9219907008100990
  0.9856867269952782  0.5691265423134650  0.8687517732773499
  0.3811160380639519  0.3129493818099596  0.5057997488476879
  0.0784964593715251  0.9170109510840854  1.0089858511350982
  0.8319514613342928  0.6004962980740972  0.0961553798444895
  0.3513092293077048  0.5255606098477550  0.3580179500327121
  0.0727026277278728  0.9678810774047564  0.9263262708821840
  0.4315895769320617  0.2627889117434161  0.7026701201761609
  0.6825907629350462  0.6320332116156211  0.4934060464948730
  0.8278912367782311  0.4415222110423017  0.0284239550706260
  0.1630636398237567  0.4477564853285062  0.9143564760379368
  0.2437399210601628  0.0951570974515295  0.4427148178932729
  0.2863100439003788  0.3995915136090951  0.2639554301589599
  0.6781629662070404  0.7770378288553016  0.7277058050887752
  0.1321970394787226  0.9965279778051696  0.0591044451435715
  0.0318014579992582  0.8136578542778246  0.9915286072426818
  0.1388167122603496  0.7402213543435763  0.7641219492939787
  0.4846950312222493  0.9100099613374237  0.2324947041793982
  0.9535578720960862  0.8518618588507071  0.0679237476658611
  0.2444813481612503  0.4525068371101816  0.5978439341570033
  0.4911519801655740  0.0487832862688702  0.9840798893085707
  0.4855095457522882  0.3151831503506811  0.4826875581248364
  0.1782469778632851  0.9412658150117098  0.4623846250682646
  0.1177252590277059  0.8621350244820343  0.4088040630350692
  0.2030395173730367  0.1108281358788535  0.1592056916799691
  0.1664830608553202  0.1706833595657271  0.4674303173695887
  0.5878369852908528  0.2669813037676674  0.4733722551152527
  0.2564544279896207  0.7070233431525557  0.0421200641303379
  0.1747873080617804  0.1170696223151890  0.9728584662161769
  0.4275706204925622  0.6971871392640988  0.6619861664316854
  0.0968142619592715  0.1504224445927173  0.9980903043235038
  0.8467884235850721  0.4773887680456479  0.5792772371302524
  0.0572463772960162  0.0648666052608511  0.7180430519494678
  0.6155685544059618  0.5404902060846132  0.0415047300100824
  0.4241250263928807  0.7539446722753552  0.4817957568056849
  0.5560041610357183  0.7880461701042381  0.6862727162302322
  0.4919532494404718  0.9345969956695678  0.5745211068791615
  0.7795669659322577  0.1667665879110891  0.5223211302077817
  0.5834117066047088  0.4628147489197740  0.7200148849161183
  0.5956979927237636  0.8877612115884580  0.5640938712527644
  0.0964123888242282  0.7036197229593455  0.6901216885731785
  0.2271719152056741  0.8831643267163385  0.0698237352774583
  0.3688302527065825  0.7043233550603437  0.6347144351476125
  0.3447748766745232  0.7995193539514138  0.9499395095658417
  0.5603320183869220  0.5051475391186551  0.0336007464599470
  0.4563500304544210  0.5081968905682079  0.4530499731160870
  0.2456637503334210  0.4717836829988314  0.0546110287408834
  0.9565012127045398  0.8448104192020143  0.2986494458303497
  0.9769708194954541  0.1918109194129365  0.8869709753381324
  0.5864345605217576  0.5974676886185463  0.8432067667092755
  0.9753896052281922  0.9515636184924821  0.6141223874882875
  0.2064288777610094  0.6607839597944493  0.5620830640407594
  0.8905300381862488  0.1425243711468688  0.3886266699864840
  0.5866798485005726  0.4341649035285907  0.6149106922324555
  0.8817578236424201  0.5555725858967856  0.9528513820514080
  0.3345964153624614  0.9555769672849898  0.6849539942197784
  0.8880385674040233  0.6628847355141573  0.2149745485071783
  0.7514315282859203  0.6200450784503104  0.9473236142445629
  0.4362603823069249  0.8352461743826615  0.7473009242417886
  0.7075179285116433  0.9814435085849698  0.2174793901495333
  0.1928956587225067  0.1138018990386330  0.4780318841942005
  0.5028576084042882  0.4627835024671336  0.3144641449478147
  0.7352642575428787  0.7373351564132377  0.1967663106868509
  0.3233994664878476  0.7828980277782960  0.5539884137857203
  0.8130297146937268  0.9015819826551383  0.8712900118908005
  0.9335429758815889  0.1093252734778588  0.4876613026451482
  0.6291601465580793  0.7109327207505591  0.0507626076436690
  0.6890433075854018  0.8451993004749047  0.0893133100214170
  0.8571544093308683  0.0451552684613004  0.8827741903135359
  0.3916707139383492  0.9182365237493701  0.5993098124358809
  0.8612822539783362  0.9307763609786633  0.6438577777296108
  0.8393987259456621  0.8139553133519012  0.7780574037078937
  0.9203638351262232  0.9307584495702547  0.9319265706896656
  0.2452458083605069  0.5447381904937079  0.9778760736938723
  0.0850848910357888  0.2531302952047878  0.5842624099795732
  0.1402973217093100  0.9205385982155998  0.9132438031915403
  0.7456368235242211  0.1693492035595200  0.5703157973723085
  1.0052800440380905  0.6456413802409819  0.7162259830489963
  0.1866107275749523  0.4599696150881534  0.4350641924810109
  0.4625762214380350  0.0301978239438392  0.2098389443059432
  0.3047450001833955  0.0303539631510998  0.2719999986443740
  0.3778875076909150  0.2788782573235509  0.3391322390408602
  0.4261761309842047  0.1437437659304675  0.7734136718022508
  0.0299152980335876  0.2235387191429581  0.5664838060706044
  0.7930201881666444  0.7996653611186170  0.0870083310526964
  0.8676375860617361  0.9998203670235208  0.7929302483865094
  0.5424203498182464  0.3570469946654456  0.4278130516469850
  0.8639076345750329  0.7245004543917668  0.6892220538517565
  0.2986421323221135  0.5239971759429792  0.2258840237820248
  0.6035939535044930  0.9822606145068395  0.4219233364276395
  0.2239845211119603  0.8649231166223857  0.4414141333913723
  0.4035801120001816  0.4749335249885294  0.4446096677174842
  0.8816291823323459  0.3040224978932465  0.8944174785561924
  0.2537385356864978  0.4696505196837358  0.7714020761862690
  0.1442551999062235  0.5201265706138345  0.0607564621079664
  0.2627928472974295  0.8020554466056444  0.1320107167416238
  0.2260983114317955  0.3735166382860641  0.7223830292156522
  0.7636303121111941  0.9977672986242286  0.5258831503456562
  0.0366143018874189  0.5376101866561297  0.1905319630597287
  0.6158987683862566  0.3929420710715320  0.7975005654246237
  0.9593857888752846  0.5270451947963517  0.8309632472639905
  0.0439771812153154  0.0820300268516242  0.3499856102717300
  0.1157026745256804  0.2976814840879607  0.5328745458257494
  0.7854195121805536  0.1259643391369236  0.1836025987970575
  0.8470867625287403  0.1922067941201984  0.5234692395831868
  0.8931912225321077  0.7231755099937429  0.1979164673401481
  0.1225842190523838  0.9044247049666287  0.2085478480326452
  0.6492945441580684  0.9364693098261581  0.2766828583918650
  0.2015158814215361  0.7521685782999229  0.9582778183430511
  0.1317862761442978  0.0311184997858317  0.5976901608992328
  0.9325942211043363  0.0947190201427409  1.0107376802240871
  0.7141186904703121  1.0106325195214254  0.3294679663913705
  0.5420377239578900  0.3402167631981313  0.2578102248384743
  0.7477628787214590  0.2951448166728469  0.2869485154366241
  1.0055145283265112  0.8312803920541753  0.2617111014220481