Cr Ni
 1.0000000000000000
    39.4672415340649962    0.0000000000000000    0.0000000000000000
     0.0000000000000000   39.4672415340649962    0.0000000000000000
     0.0000000000000000    0.0000000000000000   39.4672415340649962
 Cr  Ni 
 1596 3725
Direct
  0.2787014266687936  0.0681744249040252  0.8346196247782045
  0.3212961205448801  0.4702218718888005  0.6386446000576570
  0.5636563037126322  0.4393491524525345  0.7228353828236660
  0.0303637143074513  0.0314504122866973  0.0480645116971971
  0.6682936694594055  0.6776503910401755  0.0023079141753605
  0.3883438126726561  0.2780222876395569  0.4976363520686186
  0.3008314159577339  0.1205196930793912  0.1149320178919267
  0.4274710500261010  0.3633772933542622  0.3190040947495944
  0.0427944089396511  0.1658307136335345  0.1899528766226114
  0.2884313056503083  0.9901315411352588  0.2262859809765143
  0.1239092312607176  0.0722819904553335  0.4478517361628089
  0.6797972384877917  0.8277498461053822  0.1366702058539590
  0.3132311032042258  0.7294846931999492  0.9359841243310347
  0.8266631911395388  0.9720296438937572  0.9209454723863155
  0.0442220346216309  0.2472309057093950  0.7759479220348822
 -0.0148942554434834  0.1203343127668812  0.5605254032862790
  0.1493496332492863  0.1823174261773416  0.1639020106515660
  0.6952404311552521  0.3118396499479309  0.4792744043734001
  0.6619463687463296  0.4503021292582578  0.6455800756822272
  0.5363386241614032  0.4121213396399787  0.1732537768233412
  0.9015705776986992  0.8663839041351656  0.5808914651136020
  0.7367385208769387  0.4992495093858253  0.9336957058788098
  0.0124210327958891  0.9173517119337540  0.5185647999084743
  0.3860958836782842  0.1615060377763272  0.5747645930351420
  0.0873740976179223  0.1235822197107269  0.0437291148312263
  0.0942226972248729  0.2518727390504253  0.7356879204402248
  0.5049992236935493  0.7341018103557526  0.5975797818348434
  0.2300186882146615  0.6380521744349509  0.9273760948870751
  0.6751290137571667  0.3877896794991470  1.0011836886360328
  0.8534304526279566  0.6045649733754503  0.9199774613155125
  0.0777138500886112  0.6480643216559722  0.3433632881839405
  0.9805114192215865  0.1266301447331079  0.9969249657684205
  0.8075533777651475  0.0207383776659214  0.5291771244772600
  0.9380248564178320  0.7790440707778461  0.0644595205721123
  0.5478568039701095  0.7257741516599331  0.9522434413626713
  0.0956725666143786  0.7239993175076418  0.0299472099000662
  0.0330613520107651  0.7138613013095828  0.8320133362149097
  0.4093755647729688  0.7670714848036085  0.4060008319660547
  0.8547114362704177  0.4590213467918270  0.1006327339128463
  0.3477864892959731  0.2271557781821353  0.4976968470867246
  0.5171957280722365  0.5863096921832314  0.8047743071179148
 -0.0046013197157134  0.2775036664591488  0.4793912900737782
  0.3194760504221668  0.9885132207299872  0.9831753733965335
  0.3900062986139619  0.7666854332860779  0.7292229279537892
  0.0655374648811207  0.4432337510304075  0.2314524294995142
  0.8577733359340090  0.3983539765316199  0.5757219710297006
  0.1536675594493633  0.6642457840277449  0.7705767091801269
  0.6727895204748293  0.1013356612673086  0.1885694400664403
  0.2657305676717980  0.3324945923504279  0.2725290556528557
  0.6806259077208963  0.2439487187458378  0.0966777721346291
  0.0209879779361283  0.9562772127711837  0.1385555631764289
  0.3248305208707082  0.3932352419974131  0.3931717004701544
  0.7481053726514511  0.4405914340155880  0.3515337429139737
  0.3852070883544009  0.4899520841995337  0.1522263079436385
  0.9722829276387766  0.8815735995435811  0.0073988729715204
  0.2902957049292101  0.5974877664411171  0.1410548015083123
  0.3109504588689163  0.5158596094924074  0.6833417907659901
  0.4147694424711689  0.3273359385840091  0.0423277061553911
  0.1878131233793129  0.0142990320988938  0.0494044940569419
  0.5677534657116506  0.2588413447576481  0.5533344886789712
  0.9460273466821653  0.4713412638029660  0.7387292476353693
  0.4863064798720102  0.4580212659429655  0.3128932531261162
  0.4913815830058845  0.5044483231040970  0.1288910472258243
  0.8765636048460574  0.2891327198068440  0.8763283499542197
  0.4271596811840642  0.1837666333200065  0.0280625366459174
  0.4190329544800436  0.1791075559199508  0.3642454737891748
  0.6428558188662470  0.4495535305078587  0.4783328033871987
  0.0677248752271952  0.2246134823380899  0.8995460304141805
  0.6036908960100980  0.2252187608047130  0.7430547924413515
  0.6457209273570663  0.6935644840117666  0.7611933075071787
  0.4348070642979934  0.1658666090899877  0.5364703559186021
  0.2601350659536392  0.1569898979864235  0.9220755593887078
  0.0436677712962946  0.1502421419908790  0.2513261490465670
  0.4791010389853924  0.3592256611368004  0.4523120560426019
  0.3702491022959759  0.4644536757166789  0.9839220536461932
  0.1955179772651709  0.6106835567461771  0.5113769522793564
  0.5648976234772650  0.1406473557005974  0.6350317800531931
  0.6597254794336386  0.7676935264379184  0.6403031321926171
  0.4356881128002259  0.9980039967355385  0.4052414673771162
  0.9643897439422351  0.5312465724973013  0.5147923539830508
  0.1771675847596008  0.5523666293644068  0.0671823727440937
  0.8814891855715641  0.8633982724333384  0.9223380850561882
  0.0047592342579280  0.9221291396631329  0.3396630079998733
  0.5751657968673382  0.8447719539260721  0.2689673111769546
  0.8651630653640344  0.3858370032360723  0.6364984177794265
  0.5826172710856508  0.9070775623014905  0.2524839651363056
  0.7067291726854920  0.0273981011106936  0.6594817285343350
  0.4921042494307679  0.0582488552585261  0.5189877935971996
  0.1577640163329835  0.3643942355376292  0.6812969568429683
  0.6192553444378525  0.7015141571595582  0.0367255598390920
  0.5556355048645772  0.1525625461950575  0.5762890938116294
  0.4490772464288631  0.1557640146115077  0.4805613916432918
  0.7273471686344065  0.1157120842230717  0.2642302945797145
  0.8358973762318812  0.2435045716050933  0.8729526922562227
  0.4257906890032860  0.6652757331162030  0.7002439193768643
  0.5345455973371357  0.2093857024710168  0.5536830569343910
  0.9282869551256547  0.1327711324123735  0.8738304118028410
  0.9552491346952733  0.9513185515107094  0.3131777545812728
  0.4086129254073444  0.7343984026711172  0.0743478812366479
  0.5876460001783322  0.3965168931981256  0.1375826182983859
  0.1408478226669481  0.0740015662976710  0.1326895568223063
  0.9304447083619758  0.7035210358530158  0.9118111764582219
  0.9334560091370054  0.7166726771033646  0.0856240725291734
  0.9291684936331625  0.4452717805543117  0.5735933261328284
  0.1745112458529234  0.8599689563116720  0.5840291475936272
  0.0936937240068411  0.7814138453501250  0.4902961524494053
  0.4252429295915178  0.3023897517750276  0.3355443737678425
  0.0620154885648472  0.4102172572936150  0.3532461779200397
  0.0304108131406808  0.6799744882565654  0.3185063942872992
  0.2381383634218174  0.0518187351574641  0.9393627934760225
  0.9274782248539121  0.7242819116538119  0.3227181479866242
  0.0624943364216956  0.7420812329027229  0.6661286984221046
  0.6810876446582825  0.2264720249626621  0.1589922540658846
  0.4344982804959290  0.6526588383637973  0.7606908530209588
  0.7412575005306603  0.9134613292210430  0.5910500673190815
  0.5707747817534358  0.0432760399077579  0.8849464653493839
  0.7558430797976075  0.4053466880401852  0.8503647057051468
  0.7899687598899846  0.3963039789614912  0.9753052301760147
  0.3935208895250101  0.9524137236345954  0.8610130375579197
  0.2476146810296233  0.8384332142818774  0.6680674084654147
 -0.0355651906345194  0.0028706100024116  0.5406656060155003
  0.5782332931619116  0.2064367960965422  0.4122130969321265
  0.8293999064988657  0.1909495393029658  0.5382990309614867
  0.3892717006738281  0.3149320139354785  0.6009884279166406
  0.4339948479665166  0.4589191515415894  0.4043743594574459
  0.3771777515462195  0.3954529025880268  0.2924071801056776
  0.9395699724211303  0.1245670350444440  0.5970259588910138
  0.2790465129050467  0.2678734260032709  0.9048280127594837
  0.7032835212801630  0.5498317507286100  0.2445854344226773
  0.5622517952057169  0.7224146259565930  0.3032927080140608
  0.0842577887928818  0.0105424095940945  0.0120512075245965
  0.9306850724967746  0.7393607982304063  0.2604939121498129
  0.3147317596419377  0.2403422125605365  0.3163770032700344
  0.6492401964367168  0.3755777406113931  0.7639077645215654
  0.3923114805496147  0.0753272446974751  0.4235593138741994
  0.4722837405842852 -0.0151685726330992  0.6565850409424407
  0.4370009135205463  0.4884658931102430  0.2832152513380766
  0.9704128705865505  0.3569264824019655  0.5126748272140610
  0.3601430844292652 -0.0459576565785087  0.5625859705752039
  0.9585135375971601  0.5460671334786574  0.6188178237438603
  0.5840454095107735  0.3464442294728700  0.0895146153402982
  0.7216287936279848  0.1955978569780853  0.5003061310629473
  0.3273520222341222  0.4267327555615181  0.2674345217709222
  0.4398840581615658  0.5392735838406484  0.5554588243974512
  0.9488095742561968  0.3039454769588191  0.2902773290921282
  0.1781577393945988  0.5751888476406871  0.6811978206855540
  0.5204189542563066 -0.0103705208287368  0.6136032610835376
  0.1937293549521250  0.8983205461691243  0.9170944948895514
  0.7119281911064812  0.1160588089254039  0.3478853976763105
  0.5841555673017332  0.3146637051520467  0.4405932471869390
  0.3291474088033695  0.4409751950173689  0.2072149359558303
  0.8555547091586634  0.4494489265122035  0.8759227080587960
  0.7642222046392102  0.7918328902981644  0.5550909603423142
  0.7133948187276050  0.1869339953909931  0.6197089721823467
  0.5938660347952813  0.2688609202465125  0.7862240106964352
  0.5977562429352422  0.9683634514108601 -0.0334481443095102
  0.0966028325222754  0.7994638663797914  0.1822619793501510
  0.6894363912572545  0.9217532495063553  0.2263383077430954
  0.2241456679755124  0.4564089302783081  0.3363631472155610
  0.9093906596133143  0.5408581052005786  0.6576686611299291
  0.6513763138307118  0.4637696653400822  0.5880895944164627
  0.6930631796311925  0.9284232524672785  0.6289475903350986
  0.8342182334402776  0.2074839456868747  0.4773192428003963
  0.1008196016070839  0.8438774442017607  0.2258602099131775
  0.6479009159955493  0.8108440263366136  0.6878687379361345
  0.6904997736447493  0.5458462212635506  0.6931671724625559
  0.3808809206021375  0.4501408585538245  0.4984390144587982
  0.3272357474790249  0.3554225360356802  0.6821394361442767
  0.7029680064978101 -0.0166216537554771  0.8836930985274840
  0.8481723323715660  0.9164475065522573  0.1607155764016641
  0.9351810586972052  0.1452883882139903  0.4433456623381162
  0.6919157425222535 -0.0045482213760704  0.8213811431555942
  0.4657788499340301  0.7986883752947422  0.1847255499977296
  0.1192501532758257  0.5065024907797785  0.3467516790579647
  0.8512463323368120  0.9411491400713898  0.2659623718702618
  0.9329220209629300  0.5158829008289678  0.7799276802714432
  0.2966556067732792  0.1759401826503046  0.8180122312538951
  0.4975237973637923  0.1364050744468447  0.4454736154648641
  0.6533368079475387  0.0338736435485538  0.6368708085394275
  0.2201349659299256  0.1726767727799335  0.5531209834796360
  0.5437947049091837  0.9665485557436511  0.7402628138090140
  0.9099676120044465  0.3971111439068340  0.5364682517226042
  0.9444410775713667  0.3833004844426817  0.9194780381865807
  0.0127943304544929  0.5692041786332556  0.5185709072567138
  0.1959041249045143  0.7374761944271355  0.2358253999461985
  0.1545160692838439  0.2263885878207223  0.2086882206012820
  0.4158257534091665  0.0947919258532529  0.6522864866266129
  0.4158662154919467  0.8957360416667753  0.8778178754110508
  0.7380378513365374  0.5511062438472762  0.6566186720782891
  0.6639223788297750  0.0220816583207927  0.6981025823425883
  0.7588826842702557  0.1431199712718445  0.8705055615184704
  0.5864091523532977  0.5697129164080853  0.8890844424279276
  0.5213834249203476  0.8070804385395571  0.4859140092762723
  0.4223880544752334  0.0337677127736979  0.0031503661685269
  0.9589376614437157  0.9241955523006509  0.8248120914022046
  0.9406529195883914  0.2114445443673739  0.2011203485381232
  0.4413257275227259  0.0421512565579354  0.4542348640894069
  0.5747902363815570  0.8641024859361575  0.7127259292298296
  0.1124806297883635  0.3769248493984878  0.9216837990761482
  0.2227301124199077  0.4275904559219378  0.6137687137064511
  0.6559806259055891  0.0664613489256889  0.7412025051155753
  0.2004356173077586  0.9129852147257669  0.5719568946067547
  0.1822652186116566  0.0103015275277474  0.6064985904256327
  0.5663149916260498  0.9434735720895526  0.8627241310203440
  0.3505963824825230  0.6287486825826331  0.9093419315686864
  0.3647248712926428  0.2858172985065450  0.7643868783815896
  0.9387586357679548  0.3670664840768891  0.7213731763643083
  0.6978503858992314  0.1486642506991801  0.8484342716241247
  0.5313055850884931  0.3514582214601990  0.1903201568368779
  0.6862622152369785  0.3696896156653509  0.0627864980276923
  0.9903504293330829  0.8607365202370193  0.9007871322384388
  0.5617537805457292  0.6884700794711605  0.1981105151730718
  0.7264412511626597  0.1322381060111474  0.2015853410057222
  0.7457521631936095  0.3940623677817903  0.3080457386769080
  0.9624556712706381  0.0287855708662959  0.8525271751831154
  0.1857021016190156  0.1436180376987949  0.7319116931268899
  0.8119113961691002  0.0817021653473627  0.5084051442885085
  0.2736661407239330  0.4329527966050847  0.5768328627055888
  0.8582553355221705  0.0213902156232799  0.4294101816430844
  0.6563376161682579  0.4204383288662831  0.5461381635036685
  0.0419929171753710  0.2754383867233687  0.9921561088505686
  0.5468999577974942  0.2649429641152458  0.8268914105240924
  0.4372632192037436  0.1020856911285525  0.8848479128747865
  0.3973742538860588  0.6775534520497458  0.9714651282798584
  0.7756411410439461  0.7649101594403336  0.4216302022466226
  0.1931137069822490  0.2953796544193947  0.7607636384625862
  0.7843372153280938  0.4706099977914450  0.7925850494546722
  0.2039311679421892  0.2129972682100323  0.1738037252177832
  0.8046939215566945  0.3904592642413990  0.6265802306834234
  0.2342747638868893  0.4474891390460343  0.7788502439208380
  0.9534230227835051  0.2391567967100134  0.5255648203705361
  0.2144859759845961  0.6880054898484350  0.9698228970807862
  0.3079536663494534  0.4866446522713059  0.5753579466474775
  0.9181585456812091  0.6486791255340791  0.4069642911489147
  0.4219263072165855  0.2406640902621949  0.3477666197769402
  0.5587347445700327  0.3048452157547459  0.5986964519659589
  0.2856151127944447  0.1242866240666320  0.4681325169176830
  0.5504791821959936  0.3677629404014920  0.8441846763444824
  0.9373591208218807  0.6015825270876924  0.5998194280731551
  0.1775579645149710  0.2225977488956590  0.8812451122201437
  0.4711776094431038 -0.0496454519680714  0.5510696820401267
  0.4231639708481210  0.2805947915517122  0.7831588157264643
  0.0291424908905153  0.5918930989439152  0.9163855600502542
  0.2044566964253882  0.9834140739084721  1.0044039474120079
  0.4195531413915346  0.5804439548161829  0.8860595345986806
  0.9793282504293892  0.6775340512388409  0.1824374885057980
  0.3392315716218481  0.5817367389367862  0.1019419053821406
  0.1990084880404594  0.2449522958487522  0.0496831998331652
  0.0368559024698563  0.3280084700252274  0.9229326843124932
  0.3122481869688987  0.1813166270463042  0.3311699606002576
  0.9785022041855534  0.2184200971002613  0.6473892756739568
  0.3403754811816607  0.0107726929371507  0.5477021594262629
  0.7098130556497172  0.8854274883733214  0.0268101933166997
  0.3588973846172004  0.4703602189615766  0.9239148621744392
  0.9573600590269783  0.6148170522707507  0.8259330530925196
  0.7071616939234014  0.7698663975184609 -0.0043943332908598
  0.1473793475446715  0.0956618025910742  0.7280237911106503
  0.2835722895203269  0.8868281889543805  0.6679054640717300
  0.8532628333522565  0.9388165332133301  0.5112074630792337
  0.2184038264843310  0.0749179081826552  0.8141434735537414
  0.8315451993896641  0.7634780594112446  0.0952573427998425
  0.7352767394768478  0.8990405203326927  0.7531052966473852
  0.0923585040675560  0.1166126161537286  0.2760608011811718
  0.6771073723815736  0.2041857767594072  0.8277730466250772
  0.8147103707114451  0.6831852082611690  0.7632084923141110
  0.4130217092276722  0.3253292179647633  0.8262372832573746
  0.7611163120825628  0.8769822460975087  0.8754293152344987
  0.8450157165826653  0.3521712766037465  0.0701805572084406
  0.1948086994385765  0.1210293974728160  0.0817375773464928
  0.6867590009583058  0.8948721421842637  0.7967436363099295
  0.7423411261129368  0.7689034853296356  0.8932454981533062
  0.5940963673083478  0.7139095768013241  0.5167351070547226
  0.5997788011007742  0.5844278421933938  0.5454546061041818
  0.0637922583462649  0.9057805481385136  0.5514553939112183
  0.2152578731970582  0.1964684197047459  0.4054335482076090
  0.1332170904862196  1.0039239317907598  0.6495733382173038
  0.1340878830996534  0.3880278486198308  0.5555064360258267
  0.5474998497621565  0.0724293487332743  0.3637389695619356
  0.6991562954076829  0.6139687392504404  0.5130785168403665
  0.8457736352265304  0.8993251844252045  0.2246008002483489
  0.9727686766647976  0.0691335790785203  0.9588315636894859
  0.2877416994899940  0.2575323512799245  0.9669392696885516
  0.6330449877644702  0.2701552887850792  0.3014856354274059
  0.6240562494540169  0.7998864730860433  0.1219488314696323
  0.5733202577105320  0.2100208825847595  0.1851170667656621
  0.0346362514561357  0.7723797797322423  0.4091233594075483
  0.2553933033419385  0.7062462308553930  0.8024979226276152
  0.8222162956809536  0.2181916474194308  0.7036597987367110
  0.9690932660346387  0.6335292564514329  0.3742828192138835
  0.9264197705027634  0.3470448837965581  0.5545031224777910
  0.4747513001536309  0.2691077801484938  0.3598680936908826
  0.4017486166836346  0.0415742252771794  0.2299270970414463
  0.8650432078368482 -0.0095299367944215  0.8106619443459995
  0.3360377771862393  0.1588939547302208  0.6111071164445563
  0.1008845470282695  0.2062456702942406  0.3673975983923212
  0.9438171308392207  0.2884236611405824  0.1232776015798783
  0.4574506281448260  0.1086220510404151  0.1169755302058855
  0.5154468737182147  0.7912865459581251  0.0948530537236566
  0.7819572596943022  0.7934284955361757  0.0654260396841504
  0.9788747797544569  0.8702645794599527  0.8422317675695923
  0.3152340466722100  0.2720535725076973  0.1936170719178008
  0.5373909759928437  0.4105899840943854  0.4002561796262213
  0.1924834725744362  0.7213163642154994  0.2979538387461271
  0.2650139204275448  0.2538665460447347  0.3481579382626133
  0.9671072935319475  0.5962529218551956  0.4966206788376880
  0.8669716844068767  0.6654281269280172  0.4398518837986349
  0.0038765043342844  0.3762672012117351  0.9425332782316319
  0.3258578754507420  0.4115277122192055  0.3280136024248393
  0.1676184186939257  0.4129361560044770  0.1619689930359796
  0.9394604391275785  0.2438998432044168  0.0802281561518133
  0.8978293129443105  0.8866178528043617  0.4288593269044337
  0.1415713414273486  0.0906150055656467  0.0717430755710418
  0.9246227688856137  0.0601831233125385  0.3583706759960200
  0.3755602768557445  0.2419909230314881  0.7221892411081141
  0.5556303761598742  0.6900175666023416  0.4238671135136622
  0.3793092151189727  0.8801398560852374  0.9822544490016323
  0.1093545120867632  0.3605413445607196  0.7209251279941039
  0.3045184486318194  0.6801265753020252  0.6513787798835109
  0.3856495775901715  0.5377708781008798  0.4204712706099650
  0.3610941542609188  0.2137612414147734  0.1137109983416593
  0.9370652165245323  0.0506683524819647  0.7272723718436614
  0.4858840934356124  0.9974271637416237  0.3055445733241983
  0.1252078598412546  0.4510879063995559  0.7986550199314616
  0.0710287640893794  0.5691012690576223  0.4210299082505952
  0.6507053731398379  0.0392735328402731  0.5219705960472738
  0.6172501621973415  0.6298893986415227  0.8273151856619082
  0.7301938732334454  0.7749790289016980  0.4582917460544193
  0.5873714007337806  0.3758932478653668  0.4243207674888865
  0.8956018853237107  0.2731644927241001  0.2811763276794209
  0.8967278485713448  0.5789885144391921 -0.0206448313558831
  0.7417606676173554  0.3328774586937149  0.3236825979385843
  0.1180971455138704  0.5830936398504531  0.6608434222836085
  0.8163745671407120  0.3819382140570310  0.6834347287949429
  0.9028759886716977  0.3973139492183426  0.0198300354526820
  0.3943937124537063  0.4190016512708503  0.6182880791227225
  0.7224158981930723  0.1048693910865431  0.0923216623619735
  0.3943933467461297  0.6575044524275303  0.3840638479886526
  0.9747356491408858 -0.0022933356040954  0.0396224318754683
  0.5638033569015137  0.1154820892987131  0.0967728599456414
  0.7613346618244089  0.6317138082708015  0.2965199629658862
  0.1973678945129751  0.1327308770889603  0.7927993536164147
  0.9173265578527035  0.3906703123633731  0.5960720796673551
  0.6674042459327347  0.6884240215227156  0.2375935394310330
  0.7832284747077290  0.3342151110971013  0.6675081947435885
  0.9322909620973333  0.5485832401075458  0.8810475796623051
  0.7423846537604789  0.0024134693564889  0.7780592596751067
  0.1206817568137517  0.7354397685344207  0.6911430297657590
  0.1823421323305052  0.4959684924252188  0.5359754483324951
  0.0778344120630851  0.8485231857974974  0.6600457778326526
  0.3616576071469641  0.7978860158717035  0.3812747571534812
  0.0332726267982168  0.0938642865058344  0.0320355964194382
  0.8294051151467879  0.1836062964296060  0.0534435554368675
  0.5501484441594789  0.6174629800737871  0.6352974562456768
  0.9811639162716701  0.0725049904625067  0.1940639603268206
  0.8769149682850625  0.7081474766655528  0.2516164713503427
  0.8003466597586055  0.5547504543257576  0.5059496490070250
  0.5802304027804771  0.8776072637860156  0.5497423578572157
  0.8297841332849596  0.2174344813908479  0.4141961395090988
  0.5269183804964602  0.8766520681855453  0.2421931949616777
  0.3204627658311655  0.9177739796601494  0.2066201787989678
  0.4348533985771156  0.5497114870386911  0.0345755764874661
  0.6816224268820299  0.1250990462870669  0.6803786202099613
  0.2548645091464522  0.1801578049852195  0.1987127909802525
  0.6864976808879744  0.1596292539344536  0.7866423942729345
  0.3398153323862579  0.8328293024804898 -0.0265189076854835
  0.1067810187893270  0.8592841497301793  0.3961500135505520
  0.3864785588066199  0.5660410623190548  0.5298716373164077
  0.9239704097481795  0.7073530303776870  0.3903264716238907
  0.2990299799166686 -0.0379885063025264  0.5453842255955931
  0.6930328745567046  0.0715844406536194 -0.0194446826709509
  0.6024117107771985  0.0716186707833823  0.4945210722583113
  0.3174373134387237  0.6433378190599053  0.5434565601879413
  0.5402081563425999  0.5198113938318937  0.4244709641350284
  0.4062208065588709  0.1064570833013276  0.5921979383934726
  0.1564740697579089  0.3314562525976631  0.5765399750915708
  0.6698762974876732  0.7348798608496889  0.2780003943911132
  0.6680927552407284  0.1227936113768572  0.0111979859356852
  0.0815917318588638  0.6476408667500561  0.1161279993838350
  0.7838326769292926  0.8259284752627252  0.4058279265042149
  0.5578844710815885  0.8884921296840402  0.0878731490967509
  0.4259357315261221  0.2853422949403380  0.3930188951870916
  0.0649452488056285  1.0153027149997123  0.5651493419857577
  0.8885182167696739  0.5956417952490131  0.6387496126812270
  0.3470171522431145  0.9149550582381931  0.7975753958882723
  0.1905087482196569  0.6613324713137632  0.0899677206744675
  0.5217258184791415  0.5133621093929733  0.9694036969989117
  0.0668018515264290  0.8928344813826221  0.7020644179578730
  0.6592746065756689  0.6587803847317125  0.3600034364729891
  0.8542001491736345  0.4766701249028816  0.4876580967023834
  0.7397177451116965  0.3043049026547918  0.2163802864581201
  0.4289181022770834  0.3669297683105946  0.0895101838374504
  0.6747818022651485  0.7958994131874395  0.2611109099528135
  0.7415063041073313  0.9064149951857410  0.1918059886263222
  0.7448740523047497  0.3990161175262520  0.0790772985183320
  0.7204184305191440  0.0924973919921381  0.8692212009038848
  0.6257377704872026  0.1609250522601572  0.2724527067645655
  0.1613828791802426  0.7515291105035224  0.5857664128207759
  0.5998986509338968  0.1393047390025601  0.9318835843804076
  0.1748798993963625  0.5061193932885469  0.2481307125627556
  0.6217298677239955  0.1004650098319122  0.2865063121331107
  0.1112581455776487  0.3009511517125897  0.4552234473059172
  0.9024590769429103  0.5497797253959505  0.5998715918344264
  0.8048346789359628 -0.0046856272089036  0.7940051489719836
  0.7020886378302812  0.5474624920454085  0.0160907731996815
  0.0979733590814594  0.7912704777693118  0.6750869334041090
  0.1800347491309864  0.0254706304324826  0.8112615974101712
  0.6492949989976989  0.8457152905987042  0.7943958192981913
  0.0718354825879347  0.5211816183168835  0.1524261899228974
  0.8160544824033966  0.0721766062213556  0.0173565473041687
  0.5225130251718627  0.2544250966876064  0.5982296295501591
  0.5842927767477089  0.3666803627554821  0.2584920695286609
  0.6138868832240824  0.4123766898755027  0.5837116355050265
  0.0285102001203868  0.4383193019853281  0.8816292692528349
  0.3269040800312807  0.2723470212866065  0.8662495037645329
  0.5429222630860401  0.9933783144678981  0.4453098664680299
  0.1753104996861775  0.4547197209741487  0.7607344698674304
  0.6438512039361304  0.0202928249300696  0.5799998642676633
  0.0103584737001455  0.8759763643068131  0.4715965208630198
  0.6233698442216155  0.7593318439122358  0.4809172810808965
  0.2514861249990364  0.8580255794995130  0.1049615854055091
  0.1865992777592856  0.6468521220061507  0.1492352634446507
  0.4649344805369341  0.8668917602005292  0.7332862164149386
  0.5310629501189562  0.3347814788839942  0.2493011328467692
  0.3884984171287060  0.8339072348126690  0.9376276371472686
  0.1984090743835377  0.1658732736805827  0.8998326486475444
  0.7667646037985573 -0.0237911327183805  0.9072327591944592
  0.4774996936899474  0.8896452123954498  0.8991308193828149
  0.7433853501162812  0.3776940502351991  0.3668681111708880
  0.0061491002713724  0.1971797748355676  0.7726632013319480
  0.4506490789296397  0.7923916069119026  0.8532696965075395
  0.6768465527117742  0.1293793911649884  0.2985655010887315
  0.8022846631993323  0.4749188405350154  0.3610807819388782
  0.5069207982648363  0.0139896283866799  0.1545298032345978
  0.7069600380801333  0.7317936206654072  0.4935858099994826
  0.7029248587909542  0.5330889062081000  0.0783169727379630
  0.9006429072833885  0.3332245012392458  0.2657364732804465
  0.4081761536697259  0.6882807967483426  0.5769895630267994
  0.0155581054644029  0.0060419456045877  0.4338131928754086
  0.1121956713332419  0.1102019892764321  0.9391622617375220
  0.9300202047785611  0.1188962439988729  0.3395252448991535
  0.4538291833500381  0.1418044065859760  0.6549470149515951
  0.8157959769265479  0.3177702194193108  0.5252179026326584
  0.6735262283670149  0.7256119201807081  0.0451771203714450
  0.6582263008217681  0.7423989189525390  0.5273149282270023
  0.7040061719137920  0.7192882872842561  0.8892558195902381
  0.5790417962500294  0.2906588637167125  0.1081680827884629
  0.4068311645919371  0.1726584575671316  0.8013184493674937
  0.7788214163966694  0.7325755270904259  0.0833573606565019
  0.0710658717944272  1.0086484756191678  0.6265629806326638
  0.0867825220834143  0.0562003389115687  0.2921610764983482
  0.9749959091934814  0.0161756606824861  0.2174384356303452
  0.7419303131608145  0.8602295784643580  0.5552551376965279
  0.9377187537242656  0.7307889975397607  0.0254405713910051
  0.6296840443797989  0.8441435011066198  0.1675290834957461
  0.2872196504063342  0.0199281604891462  0.3276782082858500
  0.7375170993950627  0.3420065407559186  0.0940711995282267
  0.0213375033446564  0.6290891079072529  0.5050710638725052
  0.4898814093754745  0.4117769418180883  0.9284922791259518
  0.7643078802040107  0.6119000638625771  0.1279635266793308
  0.7004002970422909  0.5010672210360448  0.6512240350921761
  0.6956407647232310  0.0521754148733495  0.5916716793776027
  0.0274886099910992  0.1413393201132515  0.7924108872689491
  0.9553122838453447  0.4606643941603459  0.7977909543615812
  0.5292341130854703  0.4235062689842133  0.8260604107942023
  0.0888009982972799  0.6508862680562369  0.5786031973701992
  0.2951453812839651  0.0743835179719037  0.5042877430338265
  0.4120263437150578  0.1158529693688864  0.3799837761253073
  0.5181174285859305  0.1693362473820614  0.7831062140458693
  0.8599404721761985  0.5194989840945999  0.0850180647990005
  0.3437832239809968  0.6271591184812439  0.1445365313469467
  0.2864209021274891  0.5845949188520835  0.2034941769803053
  0.7268743071700620  0.2314742930901283  0.0555508480328368
  0.1546366249918360  0.2470118033697347  0.7565726328114454
  0.4407459921853575  0.0598229549224771  0.3913999001147721
  0.2003450470308462  0.5530565058589298  0.8039154368696078
  0.1386774749239184  0.0573316752307042  0.1923722726152623
  0.3738513576080528  0.5761045958444092  0.9267373695647088
  0.2919025718137985  0.3617409923607657  0.9866594821745825
  0.2181831809644902  0.8488596565929435  0.4886663673032632
  0.4691184179419898  0.8617916850394708  0.1673928037724957
  0.6182452230967028  0.7528413415330166  0.3103846065804931
  0.2989693036341509  0.7867926835946989  0.0750344528483797
  0.4868162926365165  0.6579003845138048  0.4956960251276556
  0.7853706943736685  0.6374829844899326 -0.0063420545047589
  0.7217850368629525  0.1123169721728866  0.0319565293804587
  0.4664779348447494  0.1458044410777790  0.3906350535283388
  0.3676595582266212  0.3879339312469899  0.7813211155808123