 C Cr Ni 
 1.0000000000000000
    21.1200000000000010    0.0000000000000000    0.0000000000000000
     0.0000000000000000   21.1200000000000010    0.0000000000000000
     0.0000000000000000    0.0000000000000000   21.1200000000000010
 C   Cr  Ni 
  69 259 605
Direct
  0.3405477642280016  0.7459840323537340  0.8282835015164146
  0.2444956701144622  0.1616373480571461  0.9849682645327812
  0.5887499020485518  0.5034570119210278  0.0036036281696205
  0.9097423750169865  0.2424787738286177  0.9223440049401886
  0.4025020710903134  0.5953210258430401  0.9041733948308847
  0.0026347012158170  0.3347886203617300  0.9205684229320522
  0.3375912755214976  0.4146801988305061  0.5045931713225047
  0.8371838046296713  0.5874508794990184  0.9986217360012180
  0.4117287467086045  0.1684984151078742  0.9920683329737018
  0.9080183151891392  0.4218706393060110  0.5858196822441475
  0.0827292602477525  0.0809791279114085  0.5871391650570631
  0.4071435579764988  0.4972908822073588  0.0020739976506188
  0.1588441406840126  0.2535509214493081  0.1707733399251016
  0.5779889696695824  0.3267689653709633  0.9975150717951750
  0.6642829284751796  0.6685865398957642  0.4164494115097562
  0.3193501127233780  0.7451400724915560  0.3487627466858694
  0.2575914351448877  0.2403943467865225  0.4259685822606388
  0.8249715083902703  0.5067194557870405  0.5829688176673991
  0.0013725208236460  0.2421702407567958  0.8268689130053751
  0.4153662823712644  0.7557722138450986  0.2543582456730848
  0.5051273810110364  0.1707107468047287  0.5796246971690702
  0.4141495152957054  0.0785155445379521  0.5829936747181510
  0.5048637253901612  0.1715458151519967  0.9048834055439258
  0.9104025202648590  0.3373273638946523  0.8267389931871640
  0.4126109854567551  0.6664555889148447  0.1623107242921749
  0.0773063431968670  0.6723040531388523  0.6590443549691659
  0.9965300879419628  0.2458058275711424  0.5018165251540094
  0.3240052497441663  0.0860230602274091  0.4946037353104983
  0.3381349991253526  0.8391935735656422  0.9224812779482919
  0.9872101497980621  0.5196782308996515  0.9392821900536400
  0.1491754265405031  0.2620321505088025  0.9852700164307044
  0.2434307805184203  0.4199525746588414  0.4119376049678993
  0.2371035766587017  0.6059079881780298  0.4035255679472873
  0.2463962088566631  0.1600830476628548  0.1670138166553539
  0.2403180413791095  0.8387098859687633  0.8250993139468248
  0.4962811075148735  0.5920285803690852  0.0042429206134042
  0.0806662958428615  0.2471874112083626  0.4159418318428029
  0.2430001660952711  0.5104854669085923  0.5061385352942073
  0.0767536799211629  0.5811567750680872  0.7484804695235483
  0.5880048426805378  0.5920018515312110  0.9096308592121876
  0.4166136325726572  0.1687378858672321  0.1760945218597976
  0.0820264063816434  0.6680156929699409  0.3379524806911766
  0.3376408610264279  0.9277583664212826  0.8282065509015447
  0.6642948950897206  0.0820052786104168  0.5025028722221337
  0.3380206358782269  0.5067498724738917  0.4122583158349293
  0.1653015063611123  0.4949640573037851  0.9134868282914954
  0.2416570973944773  0.7514561877039605  0.9223946971047791
  0.4980091711956786  0.4960593805580248  0.9089763519800887
  0.6745937391095275  0.4173550287592838  0.9965176560539880
  0.2474025817201637  0.1602687028759417  0.3371284950866240
  0.5013824414339215  0.0739597164958219  0.9933838539097877
  0.7504517902853423  0.8320831127830357  0.0005680135208834
  0.9110354816709899  0.4162943169729318  0.2554292202788978
  0.2521215130335150  0.6554627748175369  0.8349628216900421
  0.6694962168987351  0.3289833529949473  0.0897597921525633
  0.3469404048304430  0.0187310644506563  0.9315796571164544
  0.9051392537259608  0.3321502782173399  0.4973294346953400
  0.5040311211405466  0.1683359301922933  0.0857916370140104
  0.9985519924081480  0.3333789628063468  0.5896334246773824
  0.5820673305365998  0.0815398814456469  0.2518932688018857
  0.1541312872166583  0.5844076506983079  0.0046646465139635
  0.9934488164858394  0.0749006044808742  0.4955353873035990
  0.4111891428254226  0.1719759368071942  0.6708055938429895
  0.4088093320089367  0.0739180877847934  0.0836555533920763
  0.1534618403646310  0.1616499891004606  0.0798803328083326
  0.8198571194453862  0.2442064850145958  0.8289905849388761
  0.1676129364140402  0.6725067017550818  0.7468435856129684
  0.3367379944321942  0.7478737641759050  0.0126868004857264
  0.8278659415594412  0.9994526572150314  0.2498205381830184
  0.1586158184946820  0.9989227566039924  0.9996518699018496
  0.1569138637079226  0.8349737342756562  0.1700689602475919
  0.4141295851736901  0.0773515089171861  0.1740668620745621
  0.1617549652764153  0.9946838626393347  0.3345630191390629
  0.6645078656945694  0.4183208233319769  0.7474138058102134
  0.9108416337730754  0.7532913463197526  0.6655962329209095
  0.9946432971533024  0.8322756441998832  0.3337574901410339
  0.1631635615463622  0.7539096126392827  0.4189075984606759
  0.5011917946876513  0.7524767376226311  0.7461227282627130
  0.0767381368313387  0.5791368889539976  0.3332861191792169
  0.1577810460111173  0.9961479860242238  0.1689493707766313
  0.4194857505573198  0.5808455516366282  0.8166133518195935
  0.5869933731949126  0.5025524510924249  0.9119347306805949
  0.3291258065504437  0.8389679993805306  0.0112014380120658
  0.1713119879613882  0.0806475373021691  0.5871508712050234
  0.5022471828652101  0.7568941597636548  0.0868153525372245
  0.9942257886172103  0.9146006800510436  0.5834658935068407
  0.9948694283903172  0.8353302199469563  0.4992681308298025
  0.3314040768077369  0.9932046089094423  0.3335090443487894
  0.5831702615472246  0.9142593158053400  0.3372647204962185
  0.9955129807889752  0.5020673047463247  0.4988995272596466
  0.6673485498535209  0.3319237005811403  0.1781278433216699
  0.4134136278972904  0.7513794661813517  0.3426404603211617
  0.7490362194523691  0.2474562200167248  0.1704915471477309
  0.8297107863948415  0.9979289947105489  0.3393022767690783
  0.5036005365339790  0.2555712732922620  0.7483404207119296
  0.4158436344064838  0.0818167415518113  0.4926917637287221
  0.8245722068296828  0.4182607153770037  0.4151813596202402
  0.6687481729742540  0.4203477798836925  0.0891324204976244
  0.9956755288985254  0.9989280629640046  0.9994703718591466
  0.6608557533415770  0.8346821570741058  0.0001206104926735
  0.0797291620909531  0.6710206513824134  0.5711982484281424
  0.4278030601985012  0.5027970740848567  0.4164751703739341
  0.3319228649435361  0.1764353200798162  0.4975798963363487
  0.3342211916982506  0.4162900202357316  0.2495487870917323
  0.5821104750591612  0.3339468720890768  0.4159652979449165
  0.9269638431011392  0.5806051534955002  0.9966711073612774
  0.8287863075048586  0.9163492188034583  0.7491050091242223
  0.4901919679588356  0.3342769263554543  0.9997635450035495
  0.2453650417181390  0.1671899033053199  0.0793807478690149
  0.2470565151947699  0.5094892990516109  0.4150326913697760
  0.7502431115188308  0.8340985349434866  0.9098710749306849
  0.8320180313722928  0.9105277707531699  0.2499497776790287
  0.6667792230099424  0.8340196094075446  0.8306480291763766
  0.5014069462187032  0.0772917493754973  0.0840505941325331
  0.3338182303192641  0.8370170014642559  0.8319400556493367
  0.0783167255010006  0.4178361368482027  0.3331113824137966
  0.8303015919531578  0.9156386266702747  0.5824957665970598
  0.8366973806904442  0.6771781743804069  0.9993584821242745
  0.2469855435805024  0.9993953159271113  0.7486631204473478
  0.0785568267247987  0.6716226820955891  0.7487474903895200
  0.9108770277097066  0.6717531781518805  0.7476838485979612
  0.3330303864733793  0.5959544445178259  0.4156687410874338
  0.6648115031896825  0.7523432771076268  0.2522239342017304
  0.9139449036587641  0.8355706769525263  0.9147724413551027
  0.5031516314849273  0.6705351000773586  0.1654809404027349
  0.9143180976550641  0.9169851524716522  0.1675165459933593
  0.0753996005736908  0.7521872625542729  0.0022671016260568
  0.5746019586750898  0.6678076614262691  0.4176288356981084
  0.9128785134395722  0.9158298668458212  0.3338079452126593
  0.1522045167695749  0.7519426143171333  0.9179048914123196
  0.1631143740892229  0.3414597256234040  0.1709264407260925
  0.7512974163075071  0.9214695381997260  0.0011101750387698
  0.9976151041057699  0.5840287841169327  0.2530676556746025
  0.0784058101788158  0.9894037616637822  0.5853848990260675
  0.5033455213232936  0.0796088677878316  0.5835280350595380
  0.0743334568507005  0.4974662478377800  0.9169865669973660
  0.4144719479481122  0.9169690509884110  0.3384296801814628
  0.4133780219884941  0.9943193141718158  0.4163823607098368
  0.4163282001792225  0.5772480678272809  0.1676743224706418
  0.7538400035373137  0.6685781240309506  0.4161377151350844
  0.5001429225367411  0.5846068019516142  0.5846137486282403
  0.6638350439030374  0.6696409021629669  0.5066303887159597
  0.6654633552661523  0.7527232073351486  0.5819398603986848
  0.2441905032163037  0.9932683546383153  0.4161575828426792
  0.9923477567068978  0.3304823740853114  0.1698591969760610
  0.8284794595315177  0.5882885816190162  0.9087584902382735
  0.5008957295082040  0.7534988975034651  0.5837806084162919
  0.6652159502979424  0.6698164647381267  0.3269432823584348
  0.9078618604948209  0.3309780436707226  0.7375795710316913
  0.2453383597747141  0.4992905108191587  0.0898998680515388
  0.4268771780032096  0.9158142167561304  0.8288054874609554
  0.3336679801846681  0.4157087536417367  0.5939050118172458
  0.3418421695997939  0.6575929220989369  0.8392387408346057
  0.7399112354695729  0.4201899252860932  0.4976198475500848
  0.3373567663148626  0.6691740574982046  0.5028395040965935
  0.2508535258767183  0.2513243543982325  0.3329546852540207
  0.2495047146199581  0.7495024856364711  0.8329367432384902
  0.9938009439031529  0.2492812194617328  0.2520549575537810
  0.2569694644113936  0.6922118746059861  0.4158561140588167
  0.9918483586327727  0.3356757454642399  0.0113371499373621
  0.4976252245161017  0.0812857756780894  0.4163804572226251
  0.1579925972641084  0.1639117337143923  0.1693959083853463
  0.8220608337221040  0.4173603156536473  0.2544950049453871
  0.0641762080552281  0.5798940452410575  0.9970490114200864
  0.4095187754404266  0.0765924498301935  0.9927823151317354
  0.0795351973941232  0.4933535978084176  0.7500349642918307
  0.8329294374606432  0.9164179635499657  0.0852234334316177
  0.9924088656969549  0.0773204471354971  0.5865752219460051
  0.9957888382231295  0.9866406982887422  0.5020059121014564
  0.1568579797040064  0.1608037213337712  0.3317260593202866
  0.9127151181326847  0.1624954906708843  0.0850506968416107
  0.9101145200977085  0.3350312453232790  0.9178612184004663
  0.0779608788705493  0.8334561131222067  0.2500494719077483
  0.9920524391906738  0.2451918882182083  0.4122552844902883
  0.9956742944520552  0.3349134181700014  0.4994448677579815
  0.5894370530667460  0.9147110104852390  0.9992266978685644
  0.8404783765198857  0.8309167216512580  0.9996566260939357
  0.9947047287372848  0.6692069974506488  0.0005679287891588
  0.9178633291415873  0.7503969721012377  0.0004728140468453
  0.9125907466478790  0.6717414491252667  0.5823112007851724
  0.7431820658659707  0.2486847195141139  0.6637563103421595
  0.9930612289699914  0.4241487357474292  0.9197730799065617
  0.1541132238632283  0.4181597989072678  0.4152022351180621
  0.9069543955318172  0.3329349009953598  0.5874531668525081
  0.5010513217464244  0.5861218742913931  0.7449065857789086
  0.6658558752043632  0.6700493700237928  0.1706680330747251
  0.8214087321059096  0.3355866499675034  0.8297225085886820
  0.2453504494949760  0.1667614836697486  0.7499049250373587
  0.1618506947601615  0.6688108780500759  0.8362608461551747
  0.3340349076091521  0.4161740060431331  0.4144480177078173
  0.9087480852416745  0.3325837081210041  0.0868177873126823
  0.7444243221699038  0.6704002971110699  0.5831723495310663
  0.9973194576251289  0.4232008777074155  0.5849141948456047
  0.0003109048624043  0.4163802907996789  0.2518391527119646
  0.1624366939845712  0.4983522590749892  0.1695657917118018
  0.1630633600823001  0.4169418978115886  0.5859641610721106
  0.9990961460649105  0.3330008854119950  0.8292854660786341
  0.5857888379719759  0.9975813913066139  0.7465484114077481
  0.9942959355783010  0.2448197946762838  0.7382955924474762
  0.5816616242536903  0.3337634285439904  0.2512575920892034
  0.1577358449501355  0.1682640343315255  0.9917226729494918
  0.1602007939761274  0.6673381727300228  0.1684323924977453
  0.8298036210957418  0.1653162544744508  0.3351911909676839
  0.7479671828071207  0.3317813161863312  0.2535362894139936
  0.4141151474552769  0.1707383005346513  0.9030607596882139
  0.4141378105640078  0.9171692257900302  0.1699126941762037
  0.2502476202254043  0.5996908624954775  0.4979640559683647
  0.4980807976277261  0.4994147042765615  0.0008505991537992
  0.8216476134320680  0.2460630770656128  0.9198396825134872
  0.9102765346863922  0.4221215162528293  0.4949468287467525
  0.1643637319586243  0.9145553909814116  0.4155696807513418
  0.9101209523421606  0.4189034878694245  0.3443049614964321
  0.8276610763407136  0.1544810177632919  0.8307056809363421
  0.3349892968615115  0.5054433089145173  0.5036142277984437
  0.4162175754558804  0.9839081250514902  0.0872430283774010
  0.1598210165123599  0.5826169059773338  0.0942200033476555
  0.0797591742224511  0.5819541505600807  0.6593130487240488
  0.1547507203344453  0.6743022112481287  0.0037321406309021
  0.2561491799329310  0.6664817551776460  0.7444228270648864
  0.6628009042649364  0.5014534123739943  0.3336492333613794
  0.9981380583142720  0.2448178120712293  0.9168459212861704
  0.4204495736231397  0.2547305075599073  0.3324418561826381
  0.2422080488799049  0.7526932659410122  0.0108536663492882
  0.2450853716072803  0.5811433394481673  0.0091490651018076
  0.0923724660861825  0.3264428854100693  0.9237994429928142
  0.1685750942327870  0.6695657901576141  0.6583815336718183
  0.2500652002995947  0.4982333281048613  0.7431841955866504
  0.0787255861526766  0.7616946646535950  0.6644570522132668
  0.8296564701945802  0.0885756482985530  0.2510100485443003
  0.2437086735968000  0.8416169588526790  0.9185835365275068
  0.1612758880894481  0.4941318615468269  0.0044288252192901
  0.0773182778747685  0.1625474817418257  0.2525677411414468
  0.1667501753797349  0.2506385316287613  0.8993341767341198
  0.4994878131594525  0.1649932046525769  0.9954045070758961
  0.6672782934699242  0.1622113145499047  0.8300076135490242
  0.9948515542279781  0.9164353162962273  0.7520958464898102
  0.9118571532962374  0.9958588577887091  0.5837477191736914
  0.6683429516999554  0.1613491631373692  0.0004292620862809
  0.6720048801660290  0.0828182811571425  0.2525964317151095
  0.0832270044275209  0.0776207555515501  0.4977063655335925
  0.6677553384759811  0.3295963488251668  0.0007755049918835
  0.5854806884408180  0.0786430320636223  0.1629683848055554
  0.8276979495394652  0.0799507303825213  0.9171378898787980
  0.5851377313925350  0.3329404391588643  0.9077285990655271
  0.9951903768858074  0.0799667269238382  0.7488877777134603
  0.1640841097802227  0.9157688878581319  0.5839981935586053
  0.9110136441685117  0.6679338783861453  0.4169634392360796
  0.9047564319937317  0.0800414593374601  0.5004758616403416
  0.3322415051878074  0.9267979928860350  0.9200995274678746
  0.4997480770238298  0.1663558533130179  0.4900255912967769
  0.3246855556883332  0.0830784706291001  0.5842948309902880
  0.6658773001941561  0.0818660487894976  0.4131047687054484
  0.8266201643435664  0.1617472415346702  0.6628573798254185
  0.8277394672281831  0.4164949037485712  0.9145602263991112
  0.9973941768951474  0.3343725997981298  0.6789068960246165
  0.9118746834635336  0.0811879663997053  0.3320894662614986
  0.0796179040156750  0.0808062141206554  0.8313886815486891
  0.1607698071990441  0.2533692670947321  0.0795812456270293
  0.4088682243398937  0.4999793157960549  0.9110918101890859
  0.3316486520562331  0.6594728968328777  0.3264400523806633
  0.2453963858094734  0.4185095188362671  0.5037199693947489
  0.9173527205487476  0.9986364772703694  0.2510489745010488
  0.9096976622349028  0.2454942891702603  0.8307127149285756
  0.8311023375992113  0.9993991551102362  0.1602789482747225
  0.9954834967347026  0.2439543744747373  0.5906136464784385
  0.4169741566680996  0.7562763743926763  0.1651428807538283
  0.6779461335130502  0.5064957823424493  0.0007527769547920
  0.3248881314780175  0.7519878291187233  0.2503416526261601
  0.3319163448882408  0.7517691400085775  0.9220207691619317
  0.7629283609770698  0.4166868420412798  0.0004956072079038
  0.4965713359464270  0.5874511652548585  0.9127428476431881
  0.5832905161885986  0.6810121857259157  0.9145040129944220
  0.7458579913792457  0.6698049393572421  0.7469000914260226
  0.6647219128300947  0.4175591398385154  0.5812643086785543
  0.2462058739443968  0.9274199452671121  0.8325389497147799
  0.3325681519528098  0.3350099419106666  0.6663278923676045
  0.9099519036533384  0.5040694754410291  0.7492930877786796
  0.4161957254876431  0.0814349587680691  0.6722639392677316
  0.8324034804902425  0.7523487718800471  0.2507137493526257
  0.4126763624155111  0.1651003042883609  0.0842738142980240
  0.7476070132250904  0.9973453617585546  0.7478526564040059
  0.9102087757074946  0.5022707719627750  0.0902367979540520
  0.5786253963878514  0.3331157358274253  0.0886482607097948
  0.2498157182039285  0.2530171825668289  0.1686376439564504
  0.6667957759591049  0.8328778378169963  0.1694724250726849
  0.5052861356756552  0.0807312851394678  0.9051684112293270
  0.1725862351139806  0.6630472445498661  0.3441437248419351
  0.5032445829714125  0.1663467181374420  0.6706270423262277
  0.5841023606527161  0.5850088624077590  0.1690127131583546
  0.4141265178138350  0.1698638168703731  0.5804869911637429
  0.7389874317453962  0.9977366544826173  0.2506532252787957
  0.2444036187215345  0.2523290940043353  0.5117106148137629
  0.7483853127256124  0.8343430356415633  0.4171528654793967
  0.5924546021140799  0.0785188623821824  0.9991223793862228
  0.5860355738417915  0.5916274253137043  0.0013778510896511
  0.6659302629052276  0.8336188328212454  0.6649654253949570
  0.7439608871422140  0.2494909806227795  0.4983520126464321
  0.4933591879276431  0.0785640737803604  0.2538061087620815
  0.1604289661268498  0.5836958446739203  0.9149362787340974
  0.5049391559111255  0.7531578403336570  0.2507463607652043
  0.2488495044685464  0.3309016638223546  0.4169861856380678
  0.5833158549582209  0.3336168940815972  0.7476585114047286
  0.0784228047854963  0.6676955817035313  0.2470748373290023
  0.8338719200218523  0.5857624786415849  0.0888611976634490
  0.6626616898318217  0.5013790916293411  0.4987093587200819
  0.4997981542197836  0.5846793262986558  0.4161235130856374
  0.8302613546141339  0.5857272664932260  0.2517792582298443
  0.5002348081465603  0.5863043675633987  0.0948147404839134
  0.5817390174368152  0.8349472023974621  0.4176615587343064
  0.3237007219068004  0.6679194526312453  0.1723403706680505
  0.3300385833055457  0.4137119815214376  0.0871038141679878
  0.4081062908898551  0.5857499561698865  0.9981268288490089
  0.4156270046221763  0.6652460798133257  0.2536331418980398
  0.7464941832844677  0.5912342349394700  0.0018187194530914
  0.9954922679623377  0.1516512530223492  0.8289405926040168
  0.9135254927231697  0.7498782957973149  0.1694897208226601
  0.4182869891423462  0.9162711992130512  0.6654986279331058
  0.1648086764055674  0.3341746094668698  0.6679350041193919
  0.5051893416930432  0.7556355573137203  0.9159616979124456
  0.8284335370837643  0.5872851848894668  0.4174237212262917
  0.7461670903023874  0.2486097651808718  0.3342039694310113
  0.3352735196350456  0.0146995583358738  0.8372078063736413
  0.9918927406422259  0.8338195466071485  0.9992530503693361
  0.2451186426180536  0.2557447310579549  0.9986512830500260
  0.5018967687960350  0.4171892690014553  0.5824743294630005
  0.3321319161492958  0.3259961020797590  0.5008112042419114
  0.7532166961467358  0.0792862755715641  0.5005007968163910
  0.7324820710082574  0.2460852834777428  0.8297040345563083
  0.9953915647816519  0.5860284834317205  0.4181418154702140
  0.0760667841364823  0.5002454528924245  0.4175731430953952
  0.0790664558262393  0.6700815283657106  0.4249321348210661
  0.9131270999727107  0.6676620487296504  0.2520801106595236
  0.9945895728618664  0.5866655496666776  0.5824339715477328
  0.0765816873072367  0.5842768255067396  0.5024701576431216
  0.0797066070600399  0.4190702050277020  0.6676302423981448
  0.1644365788944106  0.4096038749973798  0.9139595495971611
  0.9937779715021395  0.5026954403237714  0.8316426133545395
  0.1658175269210793  0.5852723679637165  0.5804790827027005
  0.0790801778319934  0.5007025716852807  0.5829744335224556
  0.9152908119600915  0.6671915296167749  0.0858104419728374
  0.0753727749197032  0.6675959334710018  0.0871795107679654
  0.0764762183339274  0.8343038421666933  0.0847474231460614
  0.0793129820134877  0.5843509837003551  0.8348338207724121
  0.0766297161429920  0.5824659639035044  0.1698876821803215
  0.0798124625049118  0.4978254275781392  0.0903551641770961
  0.1601992663011712  0.5834695470898569  0.2490268065606617
  0.0786680282528030  0.4151046294793075  0.8334147675964018
  0.9944397854822223  0.5006256846136858  0.1705705551607016
  0.9079803112390946  0.4169191979178292  0.0037941015676459
  0.1585150401809750  0.7511702545149476  0.2492400258486450
  0.9960757364194982  0.9152087181368949  0.2506474764404979
  0.1596334866606980  0.8359731771583906  0.3334922848936767
  0.0759511885848424  0.8365460893136341  0.9183575241191054
  0.1565060877254415  0.4995272005243175  0.5014277456193492
  0.0774235487752281  0.9148269634699652  0.3334355273835659
  0.1674900279460013  0.5800814226128232  0.7465378518804621
  0.0782887957957601  0.8347009318009740  0.4165142405518757
  0.2404014845428020  0.9954817272937275  0.0869395915139112
  0.9953561819924736  0.9161196405093356  0.0833565511235768
  0.2488469928477390  0.4171972358861963  0.8272913240576760
  0.0806480592272723  0.7543801976371618  0.3354967090758874
  0.1628640861165968  0.4967254991809247  0.8265629488242149
  0.2455631163095874  0.5833037201466555  0.1706868286234670
  0.9941294804137383  0.8354961015814912  0.6665225287155864
  0.4183037292682795  0.8377670650967676  0.4196381784872011
  0.4181138799865423  0.8357056859102998  0.5840908521347941
  0.3320848391192461  0.9179772445869956  0.5857874443269510
  0.1637689533262552  0.9162521685737495  0.7501763570553035
  0.4164075117264331  0.3353198757445295  0.2511117839347660
  0.5031371247067871  0.9882955617780355  0.0007940424121924
  0.5837957510573732  0.0803836777887620  0.6670225552057796
  0.2463467780903082  0.8316935076399148  0.4184281821333758
  0.3344956313357969  0.9180083574819381  0.7423948645572970
  0.2414962272754398  0.9170725333611962  0.0035379694477119
  0.4175769375166908  0.9148549289737339  0.0000009792712328
  0.9948710411931684  0.9949611904035834  0.6673953833411557
  0.9955531111779926  0.8330201593870431  0.1687252101384276
  0.9944760928168026  0.6669924889602589  0.1699802417576117
  0.0768655931435349  0.7510279067347596  0.1682435048854544
  0.9953826594084701  0.5836253541735408  0.0887975319796430
  0.0767898008127403  0.9164742040073004  0.1673420512914849
  0.9955132075900678  0.9147400459858980  0.4155266919917210
  0.4991277102624136  0.2525955856850212  0.4151823003807339
  0.5779283195229042  0.0801393337763525  0.4974649996943222
  0.4190289738941376  0.2577819034950971  0.6666350484022454
  0.5900536789321374  0.1655604177463972  0.5822650199183139
  0.6632912448634620  0.3344233001389976  0.4978677144683574
  0.5869747575414389  0.1658317055368870  0.7460349493785946
  0.5827857720575035  0.2516317785131467  0.6643446952011112
  0.4983477652969000  0.2579772247053025  0.9115400942099829
  0.5912454275886786  0.1631745381773634  0.9138836502573199
  0.5868475208511135  0.2496102236360467  0.8313634748958068
  0.4969710220650950  0.2548882226268318  0.0851158520419228
  0.5030597186510389  0.0803050589960486  0.7481525103287565
  0.5006368052102502  0.9986834967659404  0.6663831820487447
  0.6659214480739504  0.0798243439259132  0.5878013086056625
  0.4185770178172237  0.2525803923942527  0.4986951360754182
  0.3289244893244616  0.8352234028847759  0.3363428001339700
  0.3289702127769773  0.9141328247676360  0.4189202769129448
  0.3330815876488976  0.8384763623030160  0.5064671624789062
  0.0766726181411188  0.9171158585631497  0.0004454057627957
  0.3350912314524325  0.5004501538584680  0.3255175177173790
  0.4101037131313667  0.4114703729607587  0.0000476978076966
  0.0824919813626672  0.1684990446657788  0.5876724955353287
  0.0866603974505147  0.2481854162912356  0.5049304946480841
  0.9116358710388046  0.1554250294843939  0.9146414482389825
  0.0802839132525183  0.1636195428406056  0.7466482192976890
  0.0717605376146196  0.2491634789520811  0.1689655158571746
  0.9964923956743297  0.0798278541953019  0.9168561420721220
  0.2506520287699577  0.4931776386204768  0.9164150519489185
  0.0782049428308277  0.9998712480538319  0.9167761651273355
  0.9946445524646593  0.5010950959639675  0.3353378102147231
  0.0771719984704491  0.3341812957596429  0.0876237519602120
  0.0775088302558417  0.4157003217371324  0.1697022822087176
  0.0785368290358902  0.4147737438031692  0.0056879994554171
  0.9953166501679854  0.3333733316500103  0.3341827943844814
  0.9909561838879070  0.2483814874972604  0.0891461230818697
  0.1659324739740977  0.1647180701104382  0.6687882144488032
  0.9109628884026750  0.2467902033814094  0.3335251715377450
  0.9943294604015532  0.1601097549683916  0.6665370814343262
  0.0785416073400235  0.4166610907682688  0.5014508384775221
  0.4199645295414399  0.4165608056921182  0.6644897307428009
  0.4118835643708927  0.3341015218232123  0.9131387422946734
  0.9954380463567480  0.0001925219122423  0.8320286346137543
  0.5051304472282558  0.9979269426503680  0.8277297768841761
  0.9946780070176510  0.7540566848130674  0.7473256057213820
  0.4155770365412494  0.1699260052014414  0.7555688430789089
  0.7494262064481109  0.7514335662724756  0.3333448224091962
  0.6669506932389870  0.9969207627205823  0.9997785699232657
  0.8312029399764136  0.6686554974103702  0.3325187469623515
  0.6636344055020351  0.3339131811074968  0.3324576258597947
  0.8292400021704648  0.6702471240271863  0.5005641316918773
  0.5824514520255867  0.2506159471801175  0.1694955631085394
  0.3219970751124028  0.4972831746668277  0.0042575928615179
  0.5856553337675064  0.9961789294829065  0.0844208939250243
  0.3326490847367199  0.4165001369824534  0.7451926952704870
  0.5826448367825883  0.4161839221600521  0.9994434146447647
  0.3185068036995764  0.5785385531083087  0.9198181882466373
  0.2480367310226551  0.3340781791383790  0.9127933541249541
  0.0784403432959063  0.3356849005518272  0.4171530117352829
  0.9949943359361930  0.1638609204625073  0.3328593850764440
  0.0790826339980188  0.2500696613340136  0.3290447000991340
  0.0777993714865766  0.0813826213360124  0.9993993304742289
  0.0827827754263864  0.3348837186878875  0.7481676721811844
  0.9924017408857237  0.1617190629827646  0.9998860074776059
  0.0782306187197798  0.1634112421734787  0.9132155899844125
  0.9109565669286103  0.0786293120006067  0.6667791934272581
  0.9928974364494439  0.6696596014346172  0.5003383031641763
  0.9955951855165605  0.4900517390579449  0.0188028012629360
  0.9111238736236738  0.5888565972244754  0.6665124347315523
  0.9952780185244821  0.7516990316529594  0.4183238696538842
  0.0793110302318873  0.7560820492698995  0.5001398021625492
  0.9957648218457515  0.7506917962140274  0.2511068624805501
  0.9957267188066293  0.7512661819328059  0.0858406409458648
  0.9952042800012058  0.7540973649078639  0.5812569306240656
  0.9124451837014128  0.0804871442543574  0.0005394839758714
  0.9901196451940792  0.6707584765248791  0.6641776012158614
  0.9932437203229515  0.1648607588677128  0.1706527240715475
  0.9066421667807650  0.2444625545281059  0.5019630238055611
  0.8284956344120952  0.0794287295727156  0.5835802319557394
  0.9103802031288757  0.4167403055283225  0.1685511313057032
  0.2438508366891659  0.9950221407831459  0.2523782305005731
  0.0858210611347171  0.3334508100368351  0.5863655318312995
  0.1593191504878843  0.0747099111334660  0.0843989057914447
  0.7438770373164789  0.3334223205621102  0.4154054312794509
  0.9950266110748304  0.9966712183265504  0.3336959986536077
  0.9097150855475016  0.1620032885496044  0.5842226882765220
  0.0800179031424610  0.9945460742114253  0.4166241923094058
  0.7458194427432725  0.1627303267909987  0.7461632482935210
  0.0827838893505674  0.2486277799938865  0.6687249744911636
  0.9110431933151313  0.0777151821378265  0.8307970136445479
  0.9120195710554767  0.9973626804151077  0.7489913773680462
  0.8314670986912105  0.5005920257978304  0.0013998925539907
  0.1618742280907143  0.0814414012757902  0.9152890697763097
  0.8300150203955757  0.2459206173649529  0.0858239273858884
  0.0802358608765052  0.0786150168174543  0.6732076568725527
  0.4143857306268913  0.4977515000152875  0.0888522577593012
  0.6626273115807932  0.5806803070698133  0.4160830599899789
  0.5819853267382172  0.9973673433541725  0.4166558478091458
  0.5000135552877312  0.2517884281650823  0.2519032626071336
  0.2434776468755655  0.0727342271027412  0.1702700170174219
  0.4997658228132963  0.9165221451243453  0.4180444471693472
  0.3298865834384751  0.0791308950929647  0.4089562552022909
  0.4256090754868357  0.8383598044215996  0.9143649877671435
  0.4155273915206375  0.0790755912645646  0.3361769831530586
  0.6642593821306582  0.2481177480524538  0.2532028477418493
  0.5053489206218336  0.8384927438512669  0.0007016556074590