 C Cr Ni 
 1.0000000000000000
    21.1200000000000010    0.0000000000000000    0.0000000000000000
     0.0000000000000000   21.1200000000000010    0.0000000000000000
     0.0000000000000000    0.0000000000000000   21.1200000000000010
 C   Cr  Ni 
  69 259 605
Direct
  0.3399091806557789  0.7464176076295332  0.8328780314146840
  0.6657438294789176  0.0806705301633316  0.9973743374524979
  0.9982972399887294  0.0914050479651413  0.4922695912200588
  0.1595787186020871  0.2537542051310273  0.3366821071064807
  0.2425528727744213  0.7465858157233104  0.9252945567927989
  0.1505042631387859  0.1523353988618001  0.4308634487792059
  0.1574837358785532  0.1633126491806653  0.0746351955506012
  0.3469697370889421  0.0182996285944960  0.9291328161312112
  0.6667632700269482  0.3329177404559107  0.0889913604663478
  0.2531009213593147  0.2465990804474986  0.4257359612852806
  0.4197866052343645  0.1687542762600589  0.1716857297804494
  0.4047565550457655  0.0769056247046475  0.0769017582347387
  0.0801804669763404  0.8310876751934613  0.3339402683428735
  0.4059893636307605  0.5821478378216416  0.0799247075673791
  0.1685168268225588  0.5799175666771319  0.0042151497853395
  0.8269534776317222  0.9996289688236414  0.2476754073114487
  0.2492104519501512  0.5833964860829900  0.5832160365540444
  0.5842715717567035  0.5898909755368452  0.9095780655097516
  0.4952246241401182  0.4951116496816825  0.9086810086601113
  0.0745318724175661  0.6692695645399488  0.0052127725898366
  0.4913599312839079  0.5923557541066370  0.9912849531327448
  0.3386773277940092  0.6611998520658801  0.7437202762561802
  0.0897559543169094  0.3246223344570894  0.0104821129237568
  0.7521027912553057  0.6665008931827072  0.5037038550835088
  0.8201738706842008  0.2426374609217542  0.8323944951672275
  0.9942173816844866  0.3312012426139697  0.4115594353884257
  0.2450591964805723  0.6545298587099448  0.8322406627913397
  0.8217394941039619  0.3364659212847900  0.7435846125575651
  0.5028758771076307  0.1692406594738343  0.0777171997031052
  0.0825183767665362  0.5032146119647166  0.4979799454959824
  0.2508989967831813  0.1579466452891583  0.3320332831346642
  0.2526706269072241  0.1539845046197576  0.1576947433746164
  0.3403545002296552  0.9261534768551458  0.8292492486265358
  0.9918523166279521  0.0003176056967171  0.5852468502049754
  0.3375998729392681  0.5060217747790875  0.4128919803001612
  0.5009227618927695  0.2495990706834241  0.3315000866085975
  0.4346237445442668  0.6438359716932641  0.8420020767405445
  0.8304381043039779  0.5861377688038332  0.9999276187687034
  0.4123451820345750  0.6716848948672206  0.1671842602498134
  0.7470538471481240  0.5850578353329110  0.7473668296918112
  0.9160576294380698  0.0025695384890183  0.3387394966826796
  0.0856353399627448  0.1592714284539099  0.8312944458572459
  0.0009603569780113  0.2466127909936693  0.8331451775517653
  0.2434142961238769  0.4190107617233983  0.4130537037278555
  0.0838464379608131  0.9108057793214405  0.5848106807885155
  0.6665092431832086  0.7543007118732722  0.3296752110283913
  0.0868372428489104  0.0927193239323295  0.5855259924128323
  0.0785496239172427  0.6645016885119361  0.6660383708834406
  0.6622096468254137  0.6632214537707302  0.4177202660911710
  0.3421177666360295  0.6483431142917190  0.9367795821936498
  0.9960891907456539  0.4186641158688024  0.0045849604698242
  0.9108673180161962  0.3397856142211250  0.8348912392421660
  0.4135262077245135  0.7581062240053846  0.2552496845723042
  0.2410968639622311  0.9278201390002706  0.9235957671417024
  0.9087423742542227  0.2431970370104729  0.9252570318645550
  0.8270370190540490  0.7529443934774064  0.6611180050450521
  0.0039933906732956  0.3384641885723610  0.7440553601683048
  0.3384683607033637  0.8364859868909374  0.9246645903211416
  0.3286378742916963  0.0869732295109927  0.4942597645654884
  0.9925519797746999  0.4176595962387414  0.5022583252586892
  0.9155342313799402  0.7522175104545623  0.7520515772258174
  0.2429462060052097  0.8362723110616059  0.8268262554479968
  0.1599903392081762  0.2537013444152144  0.1643114761241580
  0.5779550105058539  0.3321925582800687  0.9976618292471987
  0.3319000434933129  0.9972876832387005  0.5863021370867619
  0.3363270174902805  0.4126632403685184  0.5032781095033545
  0.5025909221735295  0.1649469086260656  0.5845172481065846
  0.1698348056744355  0.7557448398494310  0.6663906757291479
  0.5026389849994780  0.5792833269710739  0.1718135979883950
  0.8290701423899464  0.0779402488885347  0.9168773085728864
  0.5824823982401347  0.3318471181497285  0.9082130786119492
  0.9959611082779276  0.9169972672289947  0.7515674397051713
  0.9094462201043439  0.9995392385144840  0.4274016175192124
  0.4962323119621684  0.1645530046437566  0.9886997446986626
  0.5754947672887935  0.0807879412150926  0.9961959823073335
  0.1664008120841005  0.7495554536556307  0.5748885207364574
  0.6682948343167597  0.1694235266813137  0.9989875852155188
  0.6651052557990061  0.0838545306366433  0.2498985482123281
  0.0887954581325373  0.0861355858443018  0.4950842897271430
  0.6680067176926878  0.3341217695463379  0.9989186943322003
  0.5064231715747725  0.1662961454853793  0.1683259685815784
  0.9112293381710924  0.9975938803656923  0.7499097223352821
  0.5004553563675851  0.0805838530969491  0.4153204782905432
  0.9070812995209679  0.0866785204045708  0.4975298530167835
  0.3327163897433998  0.9259182209810891  0.9201937816565263
  0.5013313510851432  0.1657845174807701  0.4935406376563116
  0.3323050083443504  0.0875779916123337  0.5861792758924659
  0.6647784378468593  0.9158196389209515  0.4184826614898995
  0.8276704153776969  0.1628780263711144  0.6645709280561392
  0.0854624541132660  0.4160555879309101  0.0024583619048004
  0.3369994823183241  0.6671949753775581  0.4983767605348889
  0.2488560061495480  0.7469762948563811  0.8344543197069644
  0.3357938507824528  0.7526956844718656  0.5793248707633232
  0.6654821311382184  0.4188504447368012  0.4164235525984368
  0.3411868040221678  0.6573162810371894  0.8364270579330989
  0.4204302883739894  0.5820230254925078  0.6644335264271060
  0.9100113554799348  0.4188329889657195  0.1696242039094172
  0.1616124298703392  0.1630245004875212  0.1656007759722575
  0.0752113853283281  0.1645944260659154  0.2512845323170920
  0.3288627335129126  0.4874706109006761  0.8273629701457264
  0.2467961848928266  0.8365559171287804  0.9195194149898769
  0.3346166815663628  0.5031177954963115  0.5034193660618826
  0.9946844098586983  0.1637770406993486  0.1699105041758926
  0.1619548521850269  0.6668622411331099  0.1710617680228823
  0.7448978522501229  0.0840879770341317  0.3333438732172777
  0.7486694863114716  0.4188541661112126  0.1696245078608266
  0.4158840271126100  0.2508897288788313  0.8284197388585500
  0.3307582729320253  0.9179002509462396  0.2536458923678101
  0.2480173095186184  0.5861899231633447  0.4941880232253005
  0.4966315311836409  0.4979458277131328  0.0000934511332098
  0.8212450453212521  0.2484976811780902  0.9210765468853525
  0.9034416597317384  0.4158743770814083  0.4981727105884475
  0.1700403330828108  0.8331044779971750  0.3356253159437705
  0.8282998470050302  0.3322391496902171  0.3315358472744293
  0.8267338622460070  0.2448119536016267  0.7429377249550744
  0.3151091941565426  0.0876972190020467  0.0913413255345233
  0.0804989357664796  0.5752535620703101  0.6693560631077055
  0.2504519386138277  0.6581971716104094  0.9207992296248990
  0.2495804697153744  0.6655145377111847  0.7449619565867174
  0.6648953190309606  0.5003707857185695  0.3333399158819653
  0.9970836888727117  0.2471900405333873  0.9231438848000341
  0.4120725563535351  0.2522331850466968  0.3317168275676354
  0.2436919665427464  0.7558728544293180  0.0141078080228410
  0.2575129435975278  0.5799961364694166  0.0016131996813642
  0.2487694075612110  0.2513807983791125  0.8315177956566451
  0.1688005409056423  0.6654134749557507  0.6666812388556599
  0.2481873039125336  0.4931970098459196  0.7464080182346264
  0.0792839270927153  0.7543318497376353  0.6657691608958858
  0.8279560710881239  0.0895650533623299  0.2515533946425969
  0.1648194339242491  0.6708443742903337  0.0048741375480861
  0.9163584672450732  0.9987790472993040  0.2482644872547922
  0.9108871847794369  0.2471504842757550  0.8335520921117378
  0.4158057075011072  0.2595462378075795  0.1681873452939985
  0.9069052222096134  0.2525436522319308  0.5028391671617187
  0.1625834998962332  0.5818101474859214  0.9132929430873091
  0.4992712973626784  0.6679166661333555  0.3360173088353871
  0.0709723595488975  0.2506318767674103  0.3281888985064662
  0.9952507189014885  0.2466287781616398  0.7430613225137938
  0.9971735105277429  0.3287005526580545  0.0041637503384635
  0.4165568239105215  0.7540076124986362  0.3434230197859458
  0.3301607905299012  0.4115636424584553  0.9147156580762863
  0.1605233485217284  0.2544406625940898  0.0755507753232709
  0.0794462553114664  0.0717685115927755  0.8335477276441435
  0.9061673134019500  0.0914082735738870  0.3311339496990583
  0.6640047435044756  0.7548269909290418  0.4201602597548398
  0.3299570169843009  0.5852056445470974  0.2517957914079551
  0.3305372840079732  0.4141396682537318  0.0841418224295833
  0.4008770330115519  0.5872024300481126  0.9918046977753572
  0.4145021790749956  0.6673496048616701  0.2574755459831831
  0.9957638834371226  0.3343697293737607  0.6565434917880942
  0.9126243415375833  0.5034333709553178  0.7479368325593122
  0.9130236057789568  0.6668637001800938  0.4141438383313156
  0.2455271722351061  0.4162064454835672  0.5040398907714365
  0.8295649017945765  0.9972399881118429  0.1594240004495255
  0.1619207672156940  0.2449877170756936  0.4251356911719693
  0.4970533227171340  0.5839602829391940  0.0807051559276403
  0.6629915310379958  0.3344410878622511  0.8324719210825017
  0.7412561512817372  0.5845348849584157  0.0000754191693861
  0.0803617629829474  0.7411903695642459  0.3344926551900054
  0.8282632593696734  0.5837308111383605  0.0896576831266302
  0.6640917681663288  0.5726893999243942  0.4171431698381051
  0.4265435507982503  0.4147213300184515  0.5017341159496169
  0.8294709395418784  0.5847736008622531  0.2495242855446419
  0.6659537672710838  0.0816566824470766  0.5828497233056850
  0.2501624883774009  0.2483795145108547  0.3337186772011462
  0.4125964358872108  0.1675964675958586  0.0803465731591009
  0.5836612721740859  0.5856840899661740  0.9998317798951034
  0.4167342376406026  0.7599886155658513  0.1661875243999064
  0.6646368638407286  0.5002890837579239  0.9990984105234106
  0.3223581827893183  0.7549258907726271  0.2516344017175400
  0.3338849018467776  0.7471003447823644  0.9238271577881907
  0.7458178768716140  0.4190742618480256  0.9989648919589236
  0.4936387308428142  0.5852810402862169  0.9039467801431454
  0.5857813462966701  0.6797459896052328  0.9172089339023114
  0.7436629376708190  0.6738938714385786  0.7487930875436031
  0.6615098672507166  0.3330061826798719  0.6623674417904316
  0.2477393866982815  0.9247030857758234  0.8317683667028792
  0.3330141379824333  0.3309847585997746  0.6677850963188451
  0.7441944016136932  0.4956124048956856  0.7471099532277879
  0.5006952650537598  0.0765373583263516  0.5830459492170222
  0.6641211651897732  0.8431549421750780  0.3336453342621999
  0.7459983411831206  0.0003125144313191  0.7482467373503406
  0.7464921413777655  0.5021412037944725  0.0871849989716847
  0.5781556070870542  0.3358645103736889  0.0873595843745232
  0.2505780204131261  0.2518782778316094  0.1648159151343295
  0.7473674614171382  0.7503807058049502  0.1676605231429295
  0.5012692721839480  0.0828265017127535  0.9136374290407897
  0.2470743797442561  0.7510958453538902  0.3341257234309264
  0.5007930703892368  0.2540118996564715  0.5821538392543590
  0.5907867389277199  0.5843066925908529  0.1675941896052595
  0.4123577513487404  0.1681018657520385  0.5852297585943067
  0.6641469984105792  0.9164587165296464  0.2493155930550356
  0.3415618798428741  0.2517680224963433  0.4159798450868248
  0.6636378727227946  0.8364633413852269  0.5006374711005788
  0.5001123175635448  0.9995984372269765  0.1684996408983852
  0.6656917644724841  0.0806637265701109  0.0885656723103710
  0.7432719821115731  0.2503723222627164  0.4995055401012458
  0.4286000852658887  0.8354685167973072  0.9174217603355281
  0.9127674337300838  0.7498462797055566  0.1675155837968315
  0.0819573673351178  0.4991059203254228  0.7499509362862407
  0.4206021963419649  0.2505642301825357  0.4997326528811155
  0.3323013525346279  0.4166620583626803  0.2495531937121231
  0.5865073662215016  0.3358420543073366  0.4154882413249195
  0.9194641420979376  0.5834505193731425  0.0009023625757666
  0.9128049519138917  0.8431217264077732  0.7501593576512403
  0.4126365842364875  0.3322560585544774  0.9124048608247739
  0.2487844071423818  0.1759044223273682  0.0723137192112164
  0.2460759377531270  0.5074956523486411  0.4136542420238823
  0.8290226719350244  0.8381689108104888  0.8335567997532580
  0.8313090089389170  0.9098475215554024  0.2495166394844674
  0.6671127092775965  0.8370544025153849  0.8320416240656325
  0.4987014625217514  0.0776582255281619  0.0814437539021349
  0.3356146959298746  0.8356921303241230  0.8332982047639267
  0.0836695505249225  0.3323458224723400  0.4155610683412170
  0.7484906507636189  0.7516237712031719  0.0010276760106846
  0.0772258651564425  0.8376548772367870  0.7521813344175060
  0.0787135845629894  0.6658505550526579  0.7555647117774159
  0.9141095568013657  0.6620218791600088  0.7516309046778473
  0.3331856018912543  0.5947682554774681  0.4174762882940340
  0.5752125205540830  0.7534762949915551  0.3360604944478832
  0.9126284450023033  0.7553814728689654  0.8399295986178641
  0.5040248200416255  0.6712576858959032  0.1656639116218256
  0.9131369380414351  0.9165373006907295  0.1680784939125214
  0.0778173672279147  0.8354251485875852  0.0873033887974613
  0.5731547570633478  0.6677655232541514  0.4171746491973758
  0.9119592750539677  0.9117502349973627  0.3337273903015985
  0.1530666244230417  0.7499568477915932  0.9190378139520983
  0.8303253990358609  0.8351854586539103  0.5006304785192589
  0.8326304206837966  0.6769395039723485  0.0004105437397264
  0.0801077751486004  0.6696932739851178  0.5766851624355739
  0.1643650042283561  0.3428118862641198  0.1703522539091456
  0.9952084703225281  0.9982544469483879  0.0012444963162172
  0.4195444203969427  0.9169085827614819  0.6666277233540072
  0.5044484912286861  0.7563686755824238  0.7458548867694932
  0.0784830367724868  0.6678831915180384  0.4146873916445494
  0.4151256301241504  0.0771669364637996  0.1691808249951974
  0.0773936975080966  0.9988985125281415  0.2509605347911050
  0.5010608721922777  0.4121820566413199  0.7460412407976359
  0.2449003259154079  0.9980534907954801  0.0873478589496863
  0.1588512050359559  0.9183742109084406  0.0863236707158679
  0.5851488004005322  0.4993082180411140  0.9127635746200804
  0.5838897536738633  0.5843370838644989  0.8209384172726120
  0.9163944694083561  0.7514168162943579  0.6628853151725397
  0.9901880841188551  0.8307702107031281  0.3327241377307176
  0.1680260856449098  0.8317871104707119  0.4980652802829897
  0.1636164347595221  0.0733272100495444  0.0832667937854926
  0.7436506780987547  0.0832946031109799  0.5006519235875674
  0.2486467208937139  0.0028720648587932  0.7496376616901763
  0.5846281193241679  0.8368997845567810  0.0860947096091029
  0.9943772042109130  0.9117206680875770  0.5824125443493826
  0.9938385527029251  0.8318604584243356  0.4982280524757307
  0.3332612232269681  0.9954785146913782  0.3322646563767732
  0.4997701084563885  0.0007005478289677  0.3360979242825935
  0.3360437708482822  0.3230465589692256  0.5018482391313913
  0.4998785913190447  0.4146622397911682  0.5840489045540461
  0.0891088395766864  0.2487845857949593  0.8335042898331592
  0.3360789966992008  0.0131662260840252  0.8333266075514247
  0.8310139914420397  0.5014215983155339  0.4991566889327815
  0.5069822275745045  0.7585805829618437  0.9187165314050819
  0.1654320346383585  0.3336039321412245  0.6668138412873168
  0.6626495045636203  0.1625895078395969  0.8308747876228255
  0.4991732216253995  0.4985677044955558  0.3330498716485004
  0.7482384711566337  0.9165602553356372  0.0000057969826417
  0.6647289024254094  0.3353631341537063  0.3333621416195528
  0.0844146223344343  0.0009668188604849  0.5826135559957718
  0.9961307787653526  0.0886870480332824  0.5827962876307067
  0.9981981959243116  0.0002487530665236  0.4937319049407061
  0.1593004393714232  0.1611389228970287  0.3355801957501169
  0.9922271213443870  0.1602259322786184  0.0021207721340139
  0.9127922659945363  0.3362004526072173  0.9247604389508888
  0.0785924066598506  0.8325674973126522  0.2444850387770376
  0.9037978090068900  0.3330101812380052  0.4166097401823190
  0.9931507518750297  0.3280354835195588  0.5031245407623073
  0.5837977879813371  0.9160663266648585  0.0009201698965204
  0.9113622309331294  0.9164296551554606  0.8341234348773087
  0.9849227595273145  0.6693328255769531  0.0018898584099959
  0.9140106525354728  0.7526716476118871  0.0000033679217823
  0.9131950817297936  0.5828831447375220  0.6659455594390514
  0.8269258959903145  0.3332804328960140  0.6556037571807090
  0.9090885694989363  0.3324668679714736  0.5826159138062915
  0.5792175946877720  0.5836720489759931  0.6634165102941871
  0.6648527984882718  0.6690929798134491  0.1669154471845119
  0.8230344502733016  0.3345887472550582  0.8328113596164300
  0.2485405023929491  0.1682289883517370  0.7487603910232439
  0.0788253424838559  0.6653239096596374  0.9146324428123629
  0.3335327066875259  0.4164467244028113  0.4137213511839601
  0.9070825242566641  0.4176183967724322  0.0026625132074366
  0.7458289356324433  0.5820286249539132  0.6582097802894784
  0.9930928767645691  0.5067159299122039  0.4978723069431820
  0.9937420644018314  0.4196463202748816  0.2496092438172699
  0.1624584052616448  0.4987233523538253  0.1699348960536525
  0.9952416935405222  0.5849884778773197  0.2501890585640521
  0.0789008365697972  0.5796375984574058  0.0023784448326249
  0.2498840836567129  0.4941943763677513  0.5831306744089719
  0.6651352726244842  0.9975328675638342  0.1658486396326964
  0.9981030334646072  0.4186569346317955  0.9137627799648134
  0.0827607691657682  0.4131310122855150  0.5004287623298875
  0.9996789100912516  0.3361936878346532  0.8343911711708540
  0.5005075014184934  0.1680861816996718  0.8304462658200076
  0.1639741303172011  0.4164620856782997  0.9134411258509217
  0.0774005079130374  0.8358596281037007  0.9200161171957710
  0.9945255659391835  0.1569933025027292  0.8319743704719186
  0.5838175066394046  0.9990170932199083  0.7478859456257959
  0.3367202636000715  0.1752228531145398  0.5010339208423078
  0.4179856370093805  0.1692461544922484  0.7515309937719318
  0.8248936855502581  0.0017979742254955  0.3368140733463248
  0.7478181166696083  0.1645207032849860  0.0847260555006418
  0.4202314352891321  0.6682288539583816  0.4169623710246135
  0.0697471824097134  0.2477426663596687  0.1717384488722284
  0.8287305076173417  0.5853865672547619  0.9102426289174760
  0.4994114681168083  0.7525789951978625  0.5831482506508069
  0.6641854626579144  0.6652996277963049  0.3295754402963264
  0.9122809404837362  0.3345498503875759  0.7442302880372476
  0.7552560117127631  0.3348433385334806  0.0877487349907281
  0.3180031199346713  0.5817513634288033  0.0882609265278347
  0.9938929725889204  0.4203411997535534  0.4111385456463219
  0.3307196920672348  0.8344168614849432  0.0138381586861513
  0.6669860153800876  0.4246150045994704  0.0860833212813682
  0.7473551032859562  0.5000015179233264  0.4148216128066773
  0.4113350333835392  0.0799309285185942  0.9869725278537546
  0.6630961309765877  0.7550465463332685  0.5810551821434288
  0.4154162451288761  0.8383449775905717  0.4195142902959347
  0.2428728505563559  0.9972256712905532  0.5852850001802538
  0.4175342308154871  0.9155941798719845  0.4980324359933503
  0.4122352788818897  0.5819166161265885  0.1700037816200334
  0.7525318778698273  0.6656295036580564  0.4147952176646453
  0.4995769579516028  0.5823216873889790  0.5845865020404942
  0.6618065164345580  0.6675896314258887  0.5066364948227285
  0.6641353483040232  0.0814236847595453  0.7486700888964822
  0.6645763686236665  0.4158881290914701  0.5821075732906975
  0.7464890730972262  0.0001736451683951  0.5823790741442002
  0.7464243248845827  0.0808079550539565  0.8311827905117540
  0.7452430538649435  0.1673537487696072  0.2502124025692441
  0.6648792849100696  0.4184017928142433  0.2514702440307759
  0.7453644413770508  0.9996196525182953  0.4173369727109027
  0.7447097554410307  0.4168261839796094  0.6642841064315370
  0.5058206783896182  0.9148686860903542  0.9162615494754732
  0.7473659567479382  0.2493876670355191  0.1680850085061940
  0.5889236995374040  0.1645844126113924  0.0828646016316176
  0.6649035282628855  0.1650263730956940  0.1678480446260542
  0.6651557382910481  0.9176671489375928  0.5822067923439559
  0.7476349207017252  0.4179493361826707  0.4989757965129827
  0.5823573669080261  0.0825434836292287  0.8308715147876737
  0.6655971901469873  0.3346510761784884  0.1742557546111363
  0.5823013056917606  0.4184261859033047  0.1680305530552331
  0.6659231826755507  0.9184704831147988  0.7484264623605161
  0.8275478059374493  0.4182033948248577  0.9164936446436790
  0.4186536710433471  0.0010069454005223  0.7507778686182456
  0.6649133012574243  0.5849331612745883  0.0833890084806313
  0.7459127439947976  0.0818711798302205  0.6658234053606442
  0.7448545095125616  0.3342571845104519  0.9164284701256974
  0.5822674591211200  0.0801666551272455  0.1676847319099181
  0.6648958610659296  0.0000330588994194  0.5002198486883382
  0.6617628491136104  0.2478160894660849  0.7472059248684320
  0.5839344259322516  0.1646682252144011  0.2510644348670605
  0.4989858985187461  0.9187075096772505  0.5827944444166626
  0.8286375977669592  0.4237613439043484  0.7469346049161345
  0.5829623360866201  0.3331812297935965  0.5810742343482530
  0.7469760902773027  0.9164524023347739  0.4999458585643651
  0.6647093904326850  0.9989887855982711  0.8309945700709884
  0.6643465500993552  0.1638472045544937  0.6651679513572617
  0.6645731823657007  0.4171191804581095  0.9145109597242204
  0.7361563643097363  0.3326973377139366  0.7455322166996169
  0.7351973128583165  0.2469951474812749  0.8309546793233911
  0.6651560286823467  0.9982861563650888  0.3336762393977693
  0.5813541988274404  0.9186779791322376  0.3340053774020288
  0.8296690613868144  0.3344021209400719  0.1691009676933677
  0.4991840911164170  0.8360496533566834  0.5011873521790960
  0.8255122526574700  0.2479443326242458  0.5830328024714196
  0.6646248818607777  0.0000583501234861  0.6656880195256752
  0.5020352656009678  0.9174654666550583  0.7469399871461484
  0.6654159849609783  0.1662510574705977  0.3336087055925837
  0.5828269487593222  0.3357404290514261  0.2511062865004123
  0.5842301746787472  0.8364602847877666  0.7464156287577227
  0.7524131894648567  0.0812548168994165  0.0012910164996780
  0.5827578756656993  0.9981366045548141  0.9151098659143678
  0.6663336940963895  0.2453585442762502  0.0851409812843508
  0.7478368493589691  0.3337622259005551  0.2509886785345532
  0.5849549290656143  0.9165958420833443  0.8310051081888118
  0.5812524539123737  0.8361828230071099  0.5823123561172331
  0.7478337180581358  0.9983494937755777  0.0837403115336454
  0.6647012150103144  0.2489258654845056  0.9160865178767597
  0.8298658108652746  0.5020998730281554  0.1691734685572345
  0.8284121240237291  0.4199969559538526  0.0856246055324772
  0.7469938595110268  0.4173358135043538  0.3316305628859599
  0.9096435277840863  0.4188715791599555  0.3320960147518477
  0.8279278670189528  0.4193402737099344  0.5830857301501513
  0.7447562267054004  0.1672333659834438  0.4173835870934173
  0.7471710069390487  0.5019138630994971  0.2510109390397091
  0.5811339213189255  0.8366208341656670  0.2502476666204464
  0.5828329458971774  0.9182457974663438  0.1680922378450768
  0.5868111863894817  0.8355418910109890  0.9172007323279574
  0.7452280631516625  0.2520067863335740  0.3326241898514344
  0.8257882163887920  0.0858778318107574  0.4171632866560139
  0.6648073500461328  0.1659103024990086  0.4986125371005444
  0.7439564926455725  0.3330737086567819  0.5819884842239383
  0.6644784493666805  0.2500400081293772  0.5813555041998555
  0.7445835179303427  0.1660469144479564  0.5821863049579589
  0.6656332088171220  0.0826056549509521  0.4167382598990986
  0.6654637925459451  0.2514503435476760  0.4160748516247617
  0.9058528244639245  0.0019299994791693  0.5787908043684957
  0.7477607681857845  0.6685064440288281  0.0849438776917260
  0.9107027109160680  0.2494470515012962  0.1661994885246823
  0.7449571515819507  0.4174641404762451  0.8320614946835624
  0.9963048328728646  0.4249646319489663  0.7485440281233234
  0.8285000061767815  0.5013960937522878  0.8324778442062263
  0.9107306422839617  0.5009743611272766  0.4144236935484032
  0.0826145462011223  0.3317700133812833  0.9172532193179318
  0.9128842735239043  0.5835216233684949  0.4977213281079286
  0.5805172469558945  0.4985161303408969  0.4169945534821540
  0.9952523489276065  0.5024111433412782  0.6668564305506401
  0.6680790085582421  0.7544751471577115  0.9172484386834431
  0.8303852778165233  0.5830439993342916  0.4154378590905778
  0.9120572866420918  0.5845314000321139  0.1694381906920045
  0.8277639400014984  0.4983123924645524  0.0004049750927032
  0.9120387722796729  0.5839617208539423  0.3320285882357703
  0.9121258991959379  0.5009356375016107  0.9179445337242752
  0.8293209189289369  0.5018534700503330  0.3319948423864508
  0.9121631492382928  0.5021638541379372  0.2503853564301194
  0.8291823349182122  0.5020392169251652  0.6647669849608699
  0.9121135297278924  0.5017764710326710  0.5823448244012213
  0.8287876654033390  0.1662978393720679  0.1665857140721338
  0.7470956260608524  0.2500077199571315  0.0021406927648845
  0.9932031486359304  0.0837381723828291  0.4070675505270869
  0.5842507184561930  0.0813113665195694  0.3334326259975395
  0.9925690671505912  0.1771011045666049  0.5007302371869382
  0.7477837583393309  0.9986993348650498  0.9167992924211392
  0.0798921140821683  0.9989677836967680  0.7510592651915416
  0.8255779600280168  0.3329316818860916  0.5010969123745210
  0.0673898512430667  0.1701473015122690  0.4131712620277855
  0.6624594841677579  0.4166884438945221  0.7472398130225747
  0.9938751586179949  0.0799656518981385  0.0851331136747015
  0.9933429888067586  0.4188892179335711  0.0916134829427085
  0.9960036395921977  0.9986296892033959  0.1675703370365533
  0.4987630493682003  0.8367250256806668  0.3359029665422372
  0.8287768802181821  0.0804126285705108  0.7481185141647438
  0.5829338575556109  0.9188849615217490  0.6651406426940226
  0.9116581201336016  0.9990775712631631  0.9178355875752329
  0.9105940759894251  0.2485899669247761  0.0109044681869242
  0.9123749141596895  0.6685145200644097  0.9150373200397064
  0.9966275012339422  0.5831314984000125  0.9160932280361856
  0.9122434556357365  0.8364981599961655  0.9185055346097556
  0.9125780872137645  0.9147481678288655  0.4998659409180560
  0.9136928865352211  0.9176598815608094  0.0011270295959057
  0.8279845460913556  0.9191774000658580  0.7483171273833997
  0.8269526688553617  0.3351937690215292  0.0018793343725757
  0.9124994422431417  0.9187051981318300  0.6654912087812522
  0.8307974957875872  0.8324016707709512  0.1660954800229525
  0.8297004581212203  0.9174268801041836  0.9181541952228214
  0.8315441837270667  0.8326834280505464  0.3339670088647073
  0.7485045235792723  0.8336080660571441  0.0838291035511687
  0.9122263633964632  0.8328044884128393  0.4177379032529950
  0.9129527498486893  0.8314757446652051  0.2485584578461333
  0.9126904388068304  0.8336817161687183  0.5818120817467746
  0.8295599993614255  0.9157958681293337  0.4179775160300043
  0.8294439888710392  0.8399537061809460  0.6654882038480765
  0.8295890940408439  0.9172655108691099  0.5813517751985451
  0.7465731866124057  0.7537073661130237  0.8329330196100249
  0.8261486713871430  0.7527867441250842  0.7514137667618088
  0.8298654662043463  0.6694537423388239  0.8327608531076225
  0.2472089059192134  0.4953985298244302  0.0863120469787066
  0.9125458273074672  0.8329191465856443  0.0842879937749885
  0.2465342551379175  0.5009195611717582  0.2495463029181926
  0.8297633372827214  0.8329195752075592  0.0005808998809600
  0.1623530584006422  0.5033318664957049  0.3313844228545319
  0.9961300228693332  0.7522375469401951  0.9173938271803386
  0.4192712461291158  0.5835856882063177  0.5012364815518049
  0.8293205639495483  0.6682529856924362  0.1678328538780547
  0.3336568765339373  0.4961669353764417  0.6645778057707040
  0.8321969620032905  0.7507211037780256  0.4175066220286865
  0.4187612387524248  0.4987392313082125  0.5845896362326390
  0.9121379887811630  0.7494282180873280  0.3334049166357963
  0.1656577829002137  0.3330002212086571  0.8334390732547878
  0.8316593769354589  0.7501433275417749  0.5756281597845815
  0.1647139183377432  0.5812920716153084  0.0918177285280873
  0.8303004243166898  0.6644936486882901  0.6672494952100432
  0.9075700001864742  0.1682026196291771  0.4170319332103514
  0.1628181358023859  0.5862360047191706  0.4145184407770983
  0.2475194575642374  0.3318744542185398  0.7485969667938143
  0.1648247341788585  0.4158032461063935  0.7482181818956685
  0.7459296760214345  0.5855009171948031  0.8339928650234589
  0.1644720873627935  0.9186254726223573  0.7518009211228193
  0.6637824896954448  0.6709492904997451  0.8301716679406137
  0.2503278758435285  0.0842759574589833  0.6691131769671752
  0.7480316138427010  0.9157862643503225  0.1663710180916463
  0.1647841285159303  0.0007518453100117  0.8330207281931794
  0.7473870212726997  0.8339039607313670  0.2499255574213599