 C Cr Ni 
 1.0000000000000000
    21.1200000000000010    0.0000000000000000    0.0000000000000000
     0.0000000000000000   21.1200000000000010    0.0000000000000000
     0.0000000000000000    0.0000000000000000   21.1200000000000010
 C   Cr  Ni 
  69 259 605
Direct
  0.3400342463182848  0.7415371463035442  0.8267765845499094
  0.5831644278130020  0.5894085793900545  0.9027530628270122
  0.2569600203783472  0.1577895465619881  0.3347811993681035
  0.3334942336020150  0.5031588241592501  0.4138510885468484
  0.2458001199366073  0.1659659031105420  0.8324793111655421
  0.2671981488414414  0.2518235700968885  0.4432040103195413
  0.0834324727865031  0.8294519296694601  0.3340323908244165
  0.4977175913896686  0.0784415019885490  0.1722452430933657
  0.9961940062356870  0.0880462564784224  0.4925218979952702
  0.1650670093204261  0.1558233424921314  0.4314048071167334
  0.2455546478544250  0.7469156708248085  0.9225708767484441
  0.3389416768971888  0.9245551716948326  0.8280082799570114
  0.0727232861409666  0.1613698100108288  0.3334152914402669
  0.4886135285016243  0.4930269138498130  0.9031840070912067
  0.1646985196053983  0.2563905299591203  0.3392013132665005
  0.6716501098743265  0.0776033263829489  0.9945962804506976
  0.4035849116223005  0.5853953810188485  0.0803880535492949
  0.8227480409364923  0.2418144191377437  0.8385050475834375
  0.1640487283505290  0.5821497051820872  0.0095104798313004
  0.6656825732931219  0.3408849419237883  0.0831744060014237
  0.1621367544628901  0.5801335473310125  0.8280635453456763
  0.4892324116757050  0.5917921699414794  0.9889598436522531
  0.0004415954189945  0.3339607207302202  0.9229771387492239
  0.9174790474783021  0.9105637907640688  0.2476749579686057
  0.8251566157547087  0.7500631957044652  0.8374043137773800
  0.8263941895049701  0.0008824042992573  0.2474837560410998
  0.5866637563030805  0.5903303857432143  0.0850399888268066
  0.8283867896611417  0.3356592340227689  0.7458326970747048
  0.4950036069244224  0.1711989806955542  0.0832572435113192
  0.9119388209748807  0.5018699124905716  0.6649677697952828
  0.0720811587019735  0.8346867807160653  0.8401842616341980
  0.9932706974503341  0.3311295738745595  0.4117439613235143
  0.9940961256226053  0.6695352253870124  0.9169608392497099
  0.9942308842712745  0.9949213457533382  0.5847062301312574
  0.3964063496299402  0.2517212722033967  0.5659246548549508
  0.4998824072785600  0.0787852749776755  0.4923659970105504
  0.4128561612670902  0.7537114537637732  0.2514072651669564
  0.6694416006889802  0.1622578471738711  0.0876522923388741
  0.1639488628816584  0.8373233144982448  0.7442976482497634
  0.3332233318004573  0.4063580809053853  0.5038875352009470
  0.0838899859924963  0.0870472435784740  0.5877817374392620
  0.1624098953648082  0.0000092320508703  0.0842767916232603
  0.6642418057093988  0.6678979043364826  0.4174083758972605
  0.0824835501995876  0.6680715938356825  0.6648197747676725
  0.5009115852052726  0.1644292682664213  0.7518396110374169
  0.7419371452461841  0.3315451451679208  0.6579366363878596
  0.9175091707067961  0.0027882937281263  0.3392090981302622
  0.9147146928521426  0.7507196536870752  0.7462681367113584
  0.4904407105960420  0.0783864846000923  0.9913159368570506
  0.4967316201489929  0.5830812713089016  0.1730709800046167
  0.5800803419928076  0.5855805594364326  0.5849197936016726
  0.8314543064965078  0.5883786138602188  0.9987400668488717
  0.3442942511574826  0.6491084852451827  0.9330997563366459
  0.4345069605255180  0.6356945109697825  0.8293187944292209
  0.2480647256753702  0.8355097652524467  0.8300896215445942
  0.4102491768573256  0.3349906172030543  0.8311554326745350
  0.5845498853260399  0.4968504650540266  0.9977067419066128
  0.3398351477321139  0.8349126040919305  0.9235539246025156
  0.3186369671112711  0.1020125177656858  0.4869740998493118
  0.9962022706977782  0.4220820122527273  0.5036893426789804
  0.5816255469212166  0.4184764011796940  0.4131616003079334
  0.9132681897131648  0.3369267944021628  0.8344198549529356
  0.0858350739167147  0.4211450653757064  0.4117913114123218
  0.0038485593075333  0.2436742796486188  0.8329365771913873
  0.5047118585622482  0.1676032290343279  0.5797061941289523
  0.1634878707624118  0.2489543692749512  0.1653509970456619
  0.3298601802187789  0.0003641855997784  0.5810024149252760
  0.5848112764621256  0.3317405314572721  0.8306896289979022
  0.9985212990566414  0.4204942875880219  0.0088779689181109
  0.4965064393032536  0.1693048264851903  0.9943807292122624
  0.5811439721650218  0.0784698836050300  0.9967163917170789
  0.9935674509778881  0.9203730435558878  0.7497518569908939
  0.9051183625757598  0.9999415790788740  0.5800074510906597
  0.6663460603363262  0.1674943987738379  0.9970127770314982
  0.5827270644600862  0.1661704352350427  0.2529387466659344
  0.0870805567259602  0.0809667235141880  0.4972485525871213
  0.6656123335365449  0.2512517953481473  0.0864954235883050
  0.4981853996591565  0.1682711663845591  0.1726147289107311
  0.8309103207069556  0.0791754890019264  0.9177929389355686
  0.5821040942168435  0.3306532007921533  0.9208216730108315
  0.9110459285655959  0.9993237526649460  0.7504518543822768
  0.1645700363474870  0.8312517478649888  0.6564278791265433
  0.3413362149089956  0.6534954168482247  0.8374182737195143
  0.9055059078379891  0.0857433552872000  0.4995567822973287
  0.3344693136725690  0.9232713552099011  0.9192748984131063
  0.5047056475246522  0.1685888143381196  0.4907008231980838
  0.3272149420151304  0.0902501860002354  0.5803987277642282
  0.5840811065594219  0.9139812928682477  0.4995612099747714
  0.8284918116745245  0.1632409855490663  0.6647521456781718
  0.4931999106513129  0.5869290326639931  0.7544379713015323
  0.4296101120686175  0.8353766713852772  0.9169678293575300
  0.3168639879283089  0.5818765702703581  0.0883811081367360
  0.3335840949784710  0.0018626800875358  0.6699395928439106
  0.6658100695213264  0.7527933803736484  0.5809296321201277
  0.6640865921083314  0.6702044806955073  0.5065083035813481
  0.4907964407760043  0.5835771783012614  0.5846232338390408
  0.3322280387059159  0.7517552155460422  0.5822146417720998
  0.6703646027231733  0.4215415001624260  0.4142917525269879
  0.0775479846375751  0.1645502044876678  0.2435508700078532
  0.3318553538540466  0.0835010266688654  0.0864283051126136
  0.2485022528653115  0.8369640006570510  0.9211127669152918
  0.9157745926600311  0.0008848086360393  0.2486847995485911
  0.8320449907258906  0.1668356726849413  0.1676711713153941
  0.1634628959938076  0.6689464748310161  0.1722438727574425
  0.5882997394127421  0.0819889342738462  0.3333995530852655
  0.8306418764406069  0.3324122530490028  0.1683877439489827
  0.4116371581476091  0.2445295939162021  0.8322120086311610
  0.3302393731006814  0.9160170288158469  0.2534684893902821
  0.1659659927746930  0.5861141739823035  0.4163046663343766
  0.4935105673263525  0.4975799104633871  0.9970828616892359
  0.8319979919537656  0.2488239125443957  0.9265988831052210
  0.8305259500248371  0.3335199733317117  0.4986336291921256
  0.0833643710792967  0.9185748936573799  0.3334013895297105
  0.8313082029573156  0.4188345520572332  0.2505000937444435
  0.8285685965593567  0.2430049059778565  0.7471884080309391
  0.2479405550137102  0.4999596446352736  0.5846280057006599
  0.2535169064332571  0.5839000528596857  0.0032136312633145
  0.2417447846550060  0.2558015177340145  0.8330003020385929
  0.1733927297538710  0.6683944256121970  0.6647572507477428
  0.2486174062036961  0.4972791617335994  0.7443889538168588
  0.0802399731155639  0.7578677687590769  0.6620898989503283
  0.8298377781614376  0.0907982113082641  0.2512039308043831
  0.1627083045707879  0.6713528941077447  0.0049694669009012
  0.0817897106058082  0.5780624523000903  0.6653109941900203
  0.2497067017766313  0.6580387974984192  0.9186400557726463
  0.2516366172317112  0.6670431292293096  0.7462978052246878
  0.6659597875562485  0.5026088813697170  0.3315569917626111
  0.9976954883335891  0.2441642175416479  0.9242888318397209
  0.5026723485274430  0.1688132438194531  0.3284738785467538
  0.2431538921068406  0.7514907251269126  0.0119084505508743
  0.2413284220391389  0.4924764667103384  0.9206124578464467
  0.9131833244662978  0.2446212295395590  0.8344055230430620
  0.5007451729195037  0.0812615897574021  0.9038789191047617
  0.9934125208422224  0.2503685795397244  0.5866924148145219
  0.1635684060200042  0.5815648827612899  0.9179139452237097
  0.4964394357533313  0.6689225100403757  0.3344944158956865
  0.3320714191992915  0.5834137064145463  0.5843101688864373
  0.1672995715207780  0.4936889805930571  0.0023367034339919
  0.5021551613420892  0.0797096489202582  0.4023907278372307
  0.1659997535337735  0.1590403023555150  0.1687132431921340
  0.9110406173817446  0.3337142845129268  0.0875500610500420
  0.1705631866736418  0.2489074583802361  0.4277903633483060
  0.0755625602448209  0.2535417669327238  0.3301664281715005
  0.9935198221609223  0.2480091521546150  0.7439300985067423
  0.6645216636903999  0.7590158600164513  0.4180945396965405
  0.3303923242907877  0.5857236682389270  0.2499312793817842
  0.3292633080988636  0.4140101531406893  0.0845736185108692
  0.3997889190861054  0.5880452402249464  0.9918614815543407
  0.4133141804453648  0.6629906881249771  0.2520875321927810
  0.9953891171723922  0.3309724590064169  0.0113545228288804
  0.4140506856961384  0.7515976730776013  0.3409062068364410
  0.2428566168246617  0.3300061007034655  0.9190541858874907
  0.0797564463072488  0.2460481385084611  0.0045897951821879
  0.0790912351735081  0.0794367687511912  0.8344734815342948
  0.9074471395152589  0.0913867408143808  0.3324097057818938
  0.7396975063703950  0.3327129696830708  0.7475951884918021
  0.0754459982670121  0.1764656580390471  0.5889268944098460
  0.0813599410532194  0.7401483999129275  0.3350775326052380
  0.9126422273227258  0.5030429191774795  0.7539908513327028
  0.9126633658709054  0.6671802508803794  0.4164459930037990
  0.2436236796980173  0.4159465043365245  0.5045554987040206
  0.8309537600052960  0.9988339317329892  0.1588427470776909
  0.2570708117094500  0.1612521078247330  0.4244670663319657
  0.2471275767465829  0.6663222034367023  0.4167989017929714
  0.2494552403527204  0.7452484961484035  0.8316234188792881
  0.5855071213350161  0.5855733302826996  0.1726880527911804
  0.5797537389722223  0.5874501962769714  0.9951053561547381
  0.4150552362073209  0.7558129038173199  0.1621965293776572
  0.6753015775424315  0.4993063868309113  0.9993763834090005
  0.3236027956550693  0.7519332947121069  0.2514597292165422
  0.3365513525896213  0.7454016231713759  0.9185973220593358
  0.8273560160205587  0.4197552584771745  0.9178968075196530
  0.4930134995727340  0.5827417212510659  0.8996262564116783
  0.5852328456100704  0.6799436371616561  0.9151992016301640
  0.7453824428057803  0.5850297069972381  0.8296255043271162
  0.6638425438251180  0.4200616342055608  0.5788177887102102
  0.2461181542419662  0.9245969719628720  0.8333079768116837
  0.4142847975850964  0.3324937365004237  0.7420694954110074
  0.5821718503855582  0.3319251862774981  0.5779359024707867
  0.5004019841142719  0.0787246852682788  0.5821436288524899
  0.6657496545606606  0.8320815217791266  0.3340306268135284
  0.3347249110465079  0.1894484944018576  0.5057926776141373
  0.6660708858579510  0.9146873933793367  0.2511887390962696
  0.3472297251048441  0.2529193833862227  0.4076605200967350
  0.6659934767256039  0.8341831799519763  0.5008920463467789
  0.4989303399358839  0.9897704118988970  0.1677379463738067
  0.4145315892857553  0.3366563863268373  0.2491075064923123
  0.6665805320514735  0.9162848528938032  0.5811315086246491
  0.6671143479590125  0.0805443662813356  0.5819296539135861
  0.4056262113336296  0.1646776524547387  0.0849331458360981
  0.7472501403320506  0.9995488298442696  0.7485921224129022
  0.7483257214058922  0.4165389812495763  0.0013144761729258
  0.5761574688308922  0.3348852796000469  0.0848478727068821
  0.3359896881964851  0.2535765713699219  0.2496505057699786
  0.6662794273905108  0.8334426173912705  0.1679512289453189
  0.6646299271682921  0.0748347397270663  0.0855599048571482
  0.4969344383857519  0.2560868317473847  0.5807231116113846
  0.7538863604360427  0.6676062717824388  0.4163158851162422
  0.8311493563063319  0.5872750514182746  0.0902592394346360
  0.3332615227810822  0.4139131728549802  0.4143633406933638
  0.4278522315373895  0.2507074373078050  0.4845509674656794
  0.3322029882216223  0.4162195794230539  0.2490879627871825
  0.5843232699819930  0.3290494437145279  0.4127192937928730
  0.9205751413851473  0.5853553586050863  0.0049534510004024
  0.8247962081082038  0.7512338324575053  0.7460218087390407
  0.4101338046719968  0.3319806830584784  0.9207888251929407
  0.3314489986970536  0.2507335514929273  0.0843895641994903
  0.2437842492338226  0.5034110860169834  0.4169062925462252
  0.8281007898502772  0.8413320263582217  0.8336718092860707
  0.8271224793758923  0.9107524590564134  0.2499613404770002
  0.6656396033513785  0.8385290938680999  0.8298609369163010
  0.4981371646445866  0.0802717573444717  0.0816704608152274
  0.3373222186318885  0.8340575529947070  0.8317372711869609
  0.6651490359014511  0.5771951921273067  0.4154273547819531
  0.0835790730966982  0.3298883987666648  0.4166162055481362
  0.9133719796053130  0.9160406502860848  0.1588203078532343
  0.9964429485404752  0.8355343179352875  0.0038511827817611
  0.5744187674907637  0.6681673395042955  0.4170031332521085
  0.9136368059532131  0.9118360108463311  0.3375636774730902
  0.1643645523270937  0.6685735011486814  0.8306191755263420
  0.8301618459970281  0.8323920744460236  0.5007883467936064
  0.9967697388933191  0.5795775147930545  0.9186866001733385
  0.0743869170952139  0.8362021295387222  0.7489530217279414
  0.0816209980433021  0.6660584383525548  0.7535227700187137
  0.9118046820739819  0.6591959883271579  0.7479868303442173
  0.3296786130575807  0.5918176547673436  0.4176345672078203
  0.5807496793900704  0.8330673860187822  0.4173314965661964
  0.9144467006617971  0.7520154210437883  0.8361605139047327
  0.5023344390392250  0.7524457080985036  0.2517876711105083
  0.0810109427446242  0.6682378782411272  0.5757567120339658
  0.6659213905982817  0.7529447242526207  0.9184006405380631
  0.9961338359087185  0.9984907529031859  0.0003006002054039
  0.6656118659399379  0.5011886141607179  0.4982296872092136
  0.4129428356890833  0.4239328723085694  0.8302654668706526
  0.2539772007367790  0.9992653576121191  0.0857879396664286
  0.4073141981310886  0.0809897694626832  0.1696530346366804
  0.1645409718702603  0.9999150166629706  0.1740759360811580
  0.5820580650049892  0.4987900844379450  0.9080086101441652
  0.5827428759512809  0.5864101803800490  0.8139222188149980
  0.9127760542983915  0.7503362742240431  0.6575699664138840
  0.9930951903769254  0.8287545054767776  0.3345907051305257
  0.1671552013920159  0.8322522943581731  0.4990723432762281
  0.5021014021174633  0.7577013977136063  0.7439100077728409
  0.0817589390950734  0.6659513128558113  0.4183500227074495
  0.1647002274433025  0.0891802039034133  0.0849263936365155
  0.1630575843096060  0.9107534185067176  0.0869019928718762
  0.5056808139598199  0.7589216684617953  0.9172036694367753
  0.1648276338965792  0.9262172571854825  0.7487939978474665
  0.4999743388739129  0.7561171974821923  0.0874073154850843
  0.9954361812943817  0.9061373472588246  0.5808099657406014
  0.9951995258853632  0.8327156468494599  0.4982808274768299
  0.3326809416843816  0.9924022155027710  0.3318817808659007
  0.4999344940577636  0.9942129504674099  0.3349082038172596
  0.1597643767608504  0.3355520402719975  0.6699043392622939
  0.4165604820186643  0.0002308276857051  0.7482109313002909
  0.8317687880004392  0.7497370167481640  0.2505669421508502
  0.7424208971881301  0.5889048304466056  0.9988082599452637
  0.4947457801524719  0.5864695766816664  0.0811721392535931
  0.8313176124780621  0.5867176223579071  0.2496376446735397
  0.4230283914646752  0.4156887631509766  0.5006360041148917
  0.8304072682875256  0.5025433844758158  0.4973145158689538
  0.1653608315275982  0.3383467129038682  0.1698461878892497
  0.7491130854271306  0.9148935902854359  0.9997705899636539
  0.2442156909309207  0.1646488732073201  0.9218003899549602
  0.0846839328225132  0.9960905021601970  0.5815045480181001
  0.9935042161258312  0.0849898561042659  0.5830642398863933
  0.9989563243766059  0.9974454704974878  0.4943248691806357
  0.1653210952089565  0.1648821306470819  0.3386656427570948
  0.9970259024346118  0.1637903854853521  0.0024190051205640
  0.9085228118766024  0.3339126267275104  0.9244360147959936
  0.0813725582975162  0.8310049685142077  0.2436645156770555
  0.9030071235069212  0.3329442796409469  0.4149866532612652
  0.9951627312931904  0.3309435482923210  0.5033735783721204
  0.5834969609599913  0.9151718651206440  0.0004133602753650
  0.9938800124534529  0.9176300330668650  0.9206814686699564
  0.9963401831705445  0.6695251111170913  0.0074547352605667
  0.9962790878807442  0.7595347456779038  0.9202327864966386
  0.9122652594415270  0.5913540086288660  0.6629061776212946
  0.8310539926118166  0.3320164834156463  0.6572555252064325
  0.9972816512496244  0.5110954406791721  0.4987439883235916
  0.9959093500470866  0.4196549222621140  0.2468120879332702
  0.1631855219739920  0.4988861463113580  0.1710382946789762
  0.9959739823803238  0.5026666800432671  0.1729178267300990
  0.0741636263245969  0.5849842160711662  0.0050446191700395
  0.0013547181866978  0.3341433105227086  0.8341449138898893
  0.0799277185023773  0.4993940309981693  0.7487331965861905
  0.9970832963863284  0.4236647757061200  0.9191281671939182
  0.0859970314291278  0.4177170092467610  0.5023742716816856
  0.9131477075390468  0.3320497155183473  0.5816768768281292
  0.5788809749960623  0.5861319835069804  0.6741977608742730
  0.6663461024426653  0.6712584161492939  0.1683510693737693
  0.8251447787569085  0.3336666867312323  0.8352631052010432
  0.2451199108103374  0.1641709584129567  0.7431698923743507
  0.3308992362261906  0.4989014518066166  0.6647785415274414
  0.6667164349659753  0.9948088478393082  0.1677164636371325
  0.9071981049205461  0.4197048725009809  0.0047433132731131
  0.7472015461304974  0.5846021582046234  0.6630493187812029
  0.0849864225473265  0.6661506092452423  0.9198245470755070
  0.4989041973442769  0.1688434590125315  0.8398230881158411
  0.1602707355386142  0.3328316003982910  0.8321138438923866
  0.0916362195215696  0.2478175014732960  0.8354602721520208
  0.4988872097408967  0.4153283306505863  0.5839551837493059
  0.3313596471449382  0.3146864094764179  0.5011965753177019
  0.7464545364361389  0.9994690714409491  0.4161844819607987
  0.6649570289463262  0.1630244170815670  0.8323522063827618
  0.6670694953218528  0.2518428257383167  0.4119223006727341
  0.0795942200907449  0.8365781567150343  0.9282979943173246
  0.9964763976898464  0.1549710963507525  0.8347700382240001
  0.1622974890821932  0.2477373658510940  0.0773954852044906
  0.8256168590863364  0.4970749341213699  0.0001494003468934
  0.4965942546184440  0.7527038394592465  0.5829824365976063
  0.6647854516178066  0.6684080812225213  0.3286020900534785
  0.9174830534781427  0.3317532972925111  0.7450008875164829
  0.5837188006619807  0.9981343493156863  0.7467118548866807
  0.4080196776858948  0.5834329990001087  0.1706701516159583
  0.3277896601263015  0.0040036401161752  0.4919489228999255
  0.4112728544997276  0.1687749933088697  0.7478152478729588
  0.8260099560707589  0.0003470686312187  0.3378381871613940
  0.7379595971266044  0.9983707557915262  0.2502374814814614
  0.4157134481762083  0.6679023598213411  0.4164508666939298
  0.4144859403615875  0.8354330445355025  0.4189751329147550
  0.6662400625121465  0.3355147239408917  0.1742673724924133
  0.4152056301046498  0.9141243216936017  0.4969921406198215
  0.9957110770808999  0.4208687555176368  0.4132006996873407
  0.3298580680285005  0.9182841321387728  0.0854959075556506
  0.6678680221481348  0.4276801021293895  0.0865739194835927
  0.8316577423585486  0.4191209568467229  0.4140095012061435
  0.4032630490754818  0.0829923393484717  0.0016635304520756
  0.7480716003227396  0.1680917119778081  0.2494879921575304
  0.7476558395811496  0.0804350565706320  0.8319423942330886
  0.6654445381746409  0.9994534445208909  0.6641134246817658
  0.6657660873361838  0.4193990117112308  0.2492890484817204
  0.6569034892211911  0.3337633116542953  0.6617701396516843
  0.7474499766572462  0.9993141190529892  0.5815823267863716
  0.7460180133321163  0.0831609965247211  0.4990068187452710
  0.5819809730954565  0.1664796353535222  0.0837039632489111
  0.5027861807913241  0.9175685947689814  0.9158806380723697
  0.7452372685648267  0.4206701654675958  0.6610472214556949
  0.5839471328450788  0.0811511374019304  0.8299433605084658
  0.7489440210523964  0.2505426645218891  0.1684625411376716
  0.7486873978131284  0.4192098337826213  0.4964860481884881
  0.6656272517155793  0.0800085342293342  0.7483586411083647
  0.6650389369523063  0.1668179748347161  0.1735274039340098
  0.7525420750431394  0.3336539858661045  0.0863582286470725
  0.7485527337730163  0.9974393793917518  0.0834419889682229
  0.5811662980685288  0.4176835399578810  0.1679089720685677
  0.7512049446085781  0.5038032108484767  0.0885135266475689
  0.5836232940561846  0.9171914754365685  0.8296306011663146
  0.6720363682753504  0.5847307121238988  0.0849284440893238
  0.7469197647160598  0.0814953824258981  0.6654754364831849
  0.7484819510314282  0.3324598424427412  0.9193489279144433
  0.6648872464299254  0.2480825155930553  0.9175007513147492
  0.6659860199707615  0.9978096931110290  0.4991907189235626
  0.7382812093321195  0.2469455423825491  0.8321059031965136
  0.6667003646523550  0.1678354295378475  0.3314184493195072
  0.5836298448135878  0.9970858917826922  0.9143172436464583
  0.8278101753851465  0.4233782749094998  0.7487677575239295
  0.7496499849365132  0.3352151185986423  0.2498593493794165
  0.7477336941530577  0.9154144954267976  0.4992836674400741
  0.5815618867607083  0.8343866046977249  0.5820825457228233
  0.7458228001333530  0.2510058267345491  0.4966227219195890
  0.4166944194907504  0.9184751136014152  0.6637185498455903
  0.5858789361605172  0.0795761113469762  0.1695658570076359
  0.5825460777020339  0.3353854365340161  0.2483475647718987
  0.8268599572989532  0.0853009564217471  0.4158919036098620
  0.6662126643978943  0.1672086234496978  0.4960288956299779
  0.7450209927723795  0.3350993150856051  0.5724094061520314
  0.6653463360503419  0.2509211368563944  0.5790274698544091
  0.7454316584075296  0.1653550410615261  0.5807532088683425
  0.6668164305822111  0.0828929851377579  0.4152586620574865
  0.6667045646969743  0.3357642669402842  0.3312901555220399
  0.6662477283150465  0.9973125569377485  0.3353158121649951
  0.5838414418423665  0.9147452653878468  0.3344483375659327
  0.7498331311004639  0.4191733557026671  0.1699703677623575
  0.4981775235910484  0.8336874752653320  0.5003221309800104
  0.5839298235535444  0.8363756746249295  0.7446682194542116
  0.8283003647120928  0.2480387432263599  0.5817995151479123
  0.7565990028417616  0.0820876113671541  0.0017513306917783
  0.6655601232259044  0.1630823157120754  0.6644986285760078
  0.6658822803781383  0.3322075427224123  0.9965865356325709
  0.5013159065201901  0.9181648182558579  0.7457921298027399
  0.6660040475837907  0.0823411361614618  0.2498893560056779
  0.5834999864240878  0.9177723685642177  0.6630467126352285
  0.7483706846470556  0.2491020755074295  0.0014002245311311
  0.7460523542706506  0.0844732908778336  0.3329360047317113
  0.7483356163199422  0.9989821781547569  0.9175831143583473
  0.9091762290913588  0.4187995581065511  0.4989800647985228
  0.7460242463125639  0.5024607717111482  0.7473556278250736
  0.9963220309395043  0.4195703111206119  0.0946884517127759
  0.8315683633192369  0.5031929225061279  0.1701919268528027
  0.8295032767301983  0.4189827618483365  0.0872058827489882
  0.7489001390776019  0.4191266875843287  0.3314115721574341
  0.9126147416293134  0.4195581405993776  0.3312151650332826
  0.8299987729855045  0.4185998246208563  0.5794880434826825
  0.7465229830567590  0.1677931299206895  0.4152634774399154
  0.7490333459219704  0.5025977107532070  0.2502920988344255
  0.5827426047296047  0.8343838152584855  0.2514423130739713
  0.5842098439507590  0.9150927105169108  0.1685880103456334
  0.5851835570240148  0.8362213210135482  0.9159822335859733
  0.7478182072493554  0.2526364649940722  0.3317320126127132
  0.9106343211966119  0.9991988278528904  0.4245177324803400
  0.6634929256709959  0.2472358076643531  0.7474391032295093
  0.9141447290036330  0.2477968977809663  0.0049185552138096
  0.8313605542454404  0.5024523602472091  0.3314369360320708
  0.9132526336876400  0.5025426256484218  0.4144570011134164
  0.9127297171065958  0.5025744095167305  0.5777819848444375
  0.9126060507693767  0.5850880909906596  0.4974074711193552
  0.8247314315615599  0.5018022753103877  0.6639920117610378
  0.9999269124898589  0.5013292266732545  0.6659851365628378
  0.7467701359210537  0.4182910137581889  0.8326951799251121
  0.8316615586583511  0.5848107968759612  0.4157841649395378
  0.8279654919673666  0.5025600862773902  0.8316489326327938
  0.8288035833082621  0.5830964882493844  0.9115180834575727
  0.0870059125896968  0.3310044251213514  0.9210579506680733
  0.9121832094994872  0.5012716697881134  0.9180516690425783
  0.5787366396542241  0.5049745517321633  0.4152580818517194
  0.9133232597963385  0.5024509331446529  0.2506826559141641
  0.7463724892337963  0.7529378641094630  0.0017526520883756
  0.9966917962800076  0.4182900729151005  0.7499835639019443
  0.9131757736850935  0.5852008956853785  0.3326945355341647
  0.9134971184275573  0.5860168267304318  0.1700024483614043
  0.9125679388457721  0.9995721019904359  0.9189576422729246
  0.6652760414400131  0.9980202385399778  0.8302945572148096
  0.9128661085727936  0.1681348172585295  0.2478255502741538
  0.6665807611806605  0.4170842386983861  0.9155872574169629
  0.9977291706384260  0.0844540284845888  0.4068045430445871
  0.6660267844531969  0.9183928148446034  0.7467023893058049
  0.9953249845052887  0.1742948443540444  0.5014782842396175
  0.6701928809107869  0.3346163270324917  0.8350036375677292
  0.0778061724677467  0.9982341214990418  0.7513728201546515
  0.7476597856895513  0.6703254879655091  0.0864081948097226
  0.0774492911962968  0.1705508365926457  0.4212785795841882
  0.4988605473535406  0.8334957410658811  0.3354204346058303
  0.9956437844854504  0.0824589025594663  0.0844948148911138
  0.4992598151821939  0.9168667185781942  0.5803459748031136
  0.9962984387282525  0.9996364581119822  0.1671816834180757
  0.6661699559775857  0.4182060888428635  0.7466049377678442
  0.8291912239421505  0.0809936576464922  0.7486141107693736
  0.7560224106469721  0.1666243255864698  0.0847330997169029
  0.8299341882174963  0.6745149058348889  0.0029728104379542
  0.8299781565520428  0.7499014100308428  0.5817179352307320
  0.8298066075251187  0.8343402314992244  0.6646776555176930
  0.8293049432685865  0.9188875672923739  0.7485158033657536
  0.9114051028761629  0.8389458644255816  0.7492294550792640
  0.9108247042654463  0.9171337600326711  0.6654420997534571
  0.7396467023969516  0.7537713042033359  0.8312143066191270
  0.8296493797150338  0.9178692760682663  0.9185146152153888
  0.9115844006456006  0.8368273780130547  0.9201698900401217
  0.7478452486447051  0.8335844275508671  0.0843426617560838
  0.9136320909448068  0.9168267019355512  0.0029811057182656
  0.9151316881139969  0.8248426624476992  0.2496591212010235
  0.8295264057618928  0.3342508599413233  0.0043388387058455
  0.8296744408476923  0.9142825686635769  0.4177987850021748
  0.8311363497844201  0.8319451391206055  0.1667007038331033
  0.8293250552445527  0.9163468164816427  0.5812076435094430
  0.8315319781099050  0.8309392509461010  0.3341441986083685
  0.9114282861534886  0.9144951417885313  0.4990548754964476
  0.9110475128986821  0.8333449420030545  0.5814378960129141
  0.9133698786328532  0.8311594583997978  0.4180836006557135
  0.9135099129305472  0.7480286453245500  0.3349808664205278
  0.1639156127585003  0.5833500007668231  0.0954283371471143
  0.8281739050162389  0.6671927981903150  0.6645440504789417
  0.2453680783225479  0.4960711181444716  0.0881921462223053
  0.8283333794451159  0.6626909661123785  0.8303956050851595
  0.2470485397779402  0.4996729536980087  0.2499468398469133
  0.9073271014131236  0.6675984180698731  0.9174546812333242
  0.4108803739667846  0.4959652393713413  0.0822818932988012
  0.9131083532427251  0.8323102670467190  0.0841939872668392
  0.4140547448348616  0.5845380946264428  0.5005917269973738
  0.8295905304500114  0.8343938001856125  0.0015821315217279
  0.3327060633466464  0.4999263678628000  0.5042907666162889
  0.9146804026621645  0.7526130835414370  0.0027418582311554
  0.4151489984704160  0.4997323329420403  0.5847547552842962
  0.8305196459577371  0.6691123151344370  0.1686589273182497
  0.1622864742563611  0.4135158242211855  0.9179833501333445
  0.8317194715217966  0.7502626858438197  0.4173542444139659
  0.9127547100253642  0.2499115836971383  0.1665424965777928
  0.9868519049394692  0.8384120885454545  0.8341892293754224
  0.2469010782989734  0.2492827534965860  0.0025880935251984
  0.1638949571112305  0.3320708925473886  0.0039339331865751
  0.6649670362589338  0.6702040091711219  0.8282558244254952
  0.1634833160813743  0.4158491242921978  0.0883046432345191
  0.7486814395219967  0.9136638651368869  0.1658529986649724
  0.2468658544167863  0.3325757624137741  0.0863019392509324
  0.7478010260893810  0.8314810956057599  0.2505365407829303
  0.2455533975654257  0.4119376697065663  0.0037095792092065
  0.7484348046229466  0.6689334311656645  0.2507103267509785