 C Cr Ni 
 1.0000000000000000
    21.1200000000000010    0.0000000000000000    0.0000000000000000
     0.0000000000000000   21.1200000000000010    0.0000000000000000
     0.0000000000000000    0.0000000000000000   21.1200000000000010
 C   Cr  Ni 
  69 259 605
Direct
  0.3361945587816009  0.7424610518520942  0.8277592688266241
  0.5774255895680729  0.3318512794493887  0.9971781216990516
  0.1622574972017163  0.2530318382753343  0.1636339776636529
  0.2390244211808836  0.9243716106046228  0.9233860445244076
  0.9171997807725011  0.0006877768142219  0.3376360729497594
  0.9986503177102516  0.3320744561687763  0.9189830626036113
  0.9115365396792635  0.7520722451464066  0.7486401777284256
  0.4065176131457927  0.1699444148238388  0.9932523829252262
  0.3347486504205391  0.4138726051039422  0.5032185465848716
  0.6659697288841465  0.7532358468121931  0.3303355218927517
  0.0811250250606506  0.0893643561983255  0.5879487228499541
  0.5052106472518086  0.5778162545541221  0.1756559127380069
  0.9917043528414778  0.4227078210891659  0.6744798545266435
  0.2386939024162599  0.8343334878610452  0.8242941141742113
  0.8317171545670217  0.5849479436919918  0.0014959720539042
  0.7467711030831196  0.2518177417014661  0.4159143348595157
  0.9094390905436858  0.2423761176245823  0.9235963717437562
  0.0041856842458532  0.2401354775185887  0.8282498439366313
  0.9118539650734206  0.3374757770340421  0.8271418358322706
  0.5027153483413611  0.1717859363469663  0.9056740202151261
  0.5076525163466448  0.1695664079946559  0.5864241000182989
  0.4178632191057637  0.0783734104908938  0.5868233342267829
  0.0792327637830154  0.6728595641424829  0.6637885434893003
  0.4167082220374843  0.7567631124536707  0.2558481283373507
  0.6670036691934582  0.6628522607927836  0.4207308084510404
  0.4149016672334256  0.6670525383361136  0.1644465629897205
  0.9937303975896071  0.4216622184505269  0.4933473883185849
  0.3272220208113090  0.0801990488133489  0.4929231881630487
  0.3352951311863525  0.8335669561449321  0.9204444902350373
  0.1671972172658291  0.4164004163625667  0.6677357039489250
  0.2409988692776946  0.4134304112744821  0.4123664739146473
  0.7458258815433707  0.5022308164633559  0.8306079329271518
  0.0857435115975766  0.4214991206644714  0.9173445426245629
  0.4988311119071779  0.4169356096866388  0.3328905404901101
  0.2365225633421734  0.5980586280819701  0.4082682006069124
  0.9896052710535919  0.9952930552365434  0.5862827553467119
  0.4981015569323336  0.0747092531045993  0.9938951591594271
  0.9961206644009444  0.1676701150612149  0.2502966014409709
  0.3243396378240751  0.7561060994405503  0.1650197704698702
  0.4979658654210499  0.4947737542331093  0.9100509310992623
  0.4099244709306098  0.1696481780397074  0.1764483133261402
  0.0791772928941208  0.6667506655308091  0.3367709781924813
  0.2505300849479923  0.1612356317771668  0.3340004906185760
  0.3337824008164588  0.5049965829198499  0.4123720652344481
  0.3370330037590701  0.9250148138155034  0.8270780063813383
  0.3255719268172113  0.1714319663940736  0.5872516222370535
  0.2332876831033296  0.7354904021034164  0.9194582378547262
  0.0785801691752619  0.5824915242397812  0.7528043195712314
  0.0922650481794073  0.3232722440459361  0.0120984205839841
  0.8204756829962023  0.2439300049319106  0.8301378735033073
  0.2523256594257993  0.5843016955343823  0.0900379507373660
  0.1710315245861972  0.9977863095944800  0.5820747747887034
  0.5871272786699603  0.5888581592537916  0.9081304870134342
  0.8262536372123607  0.0011599224550941  0.2479534814238921
  0.7485308142009490  0.0824432757610130  0.0832965708511283
  0.6666078602968334  0.3317085026313842  0.0882975710925327
  0.7453319852859247  0.1647100684965188  0.6658672668753298
  0.5009622177606404  0.1686000634133505  0.0864124013685746
  0.9961177393530197  0.3289136585694671  0.5852174853916240
  0.4992307469998011  0.9968492878718119  0.7484054382339151
  0.3453405357238181  0.0163146052384943  0.9298497194628663
  0.2453854125663366  0.9166420455300606  0.4179663068767059
  0.1627933624117092  0.2555922334516803  0.3380067399827272
  0.9927625921131865  0.0867901206783400  0.4936509094756013
  0.4974982278029632  0.5882409154898981  0.9972685974635106
  0.1623316977280404  0.5855385260879937  0.9989505259065165
  0.1725369018475492  0.6756650874640240  0.7609247227043252
  0.4056962679484887  0.0752171083939999  0.0831316724640044
  0.4989971794627849  0.4982605207722677  0.5831307889781835
  0.1602878825491060  0.9984820811404027  0.1674732115899946
  0.4159436585277986  0.4995694302588693  0.7459238079213393
  0.4134825918393856  0.0776608885533542  0.1731306991604246
  0.0806465509517934  0.9984563723729170  0.2484431998898467
  0.1583595570865149  0.8350424960301048  0.1706501651119656
  0.5882036816494178  0.4983457376276297  0.9146047726074785
  0.7450452866985221  0.4126339554579414  0.8308539939989615
  0.9102201237454970  0.7519328766954089  0.6597373944327417
  0.9957880630897205  0.8327987859935331  0.3319667488017592
  0.1600874057504926  0.7529701148658320  0.4166408720724639
  0.5007019110246569  0.7515878876228542  0.7476265723715511
  0.0748229132873253  0.5782942891900013  0.3316659838518644
  0.1616322555260847  0.0002184789588598  0.0008123543678745
  0.9937625220452139  0.5105257971784327  0.5001880945815205
  0.1638777976593787  0.9983446701378597  0.6738363263615759
  0.5843602755919911  0.7529819697407536  0.0019988186151027
  0.9954115803076885  0.9067494666255541  0.5820346932578674
  0.9940977006669794  0.8341041778446445  0.4987006893939280
  0.3340670337437529  0.9970673946529585  0.3310866077621482
  0.5830341047903138  0.9183985365482876  0.3335814978232965
  0.7549062852756978  0.3337899131582197  0.0881068770900819
  0.4158768345545855  0.6684390475046252  0.4189565381742488
  0.7480336835391578  0.2485339899475446  0.1705404463423621
  0.8264299979200010  0.0007231349233692  0.3366423280505315
  0.4142538947608418  0.1690765713672856  0.7508103600368484
  0.4194346730231647  0.0823668525554773  0.4947309869157525
  0.5897047115677834  0.9965255315564930  0.7476390340683656
  0.6676164359380470  0.4224745985768676  0.0869404434216537
  0.3314430050004339  0.8355196220364663  0.0091881298776562
  0.9960516653962467  0.9994207020892993  0.9991151454318710
  0.7472612968837199  0.7497286722039375  0.0011654431176855
  0.0789923129440354  0.6715455096315441  0.5748052514737894
  0.4994233160879233  0.5052439287162652  0.3357541671917111
  0.4200720301755556  0.2494552073655013  0.4988932188286119
  0.3330275585242526  0.4152245087650443  0.2490041932370721
  0.5840634982419031  0.3326116276281932  0.4173636551112894
  0.9211016552347527  0.5859551419605008  0.0021525724318130
  0.9113815293607604  0.8413893894911839  0.7519296359942319
  0.4086575422036270  0.3356560049439836  0.9136320086376157
  0.2418005787148066  0.1696900614324694  0.0842829532237745
  0.2425152690747476  0.5047054449826621  0.4155124722701215
  0.8299112279103493  0.8353654828877431  0.8347459794633965
  0.8292051707398101  0.9111589422101326  0.2496641569711917
  0.6657964053400428  0.8329691866070911  0.8320553291820099
  0.4974829369697223  0.0769805745219196  0.0848333681330817
  0.3320338326703193  0.8338916607365414  0.8300806989825927
  0.0757410925911743  0.4207233220517498  0.3304491595746373
  0.0756294551708007  0.8381577134593855  0.7500194133315370
  0.0819784186085647  0.6716644081430289  0.7536061866252939
  0.9097448056141060  0.6622901432398109  0.7494646516616214
  0.3297499234076055  0.5936237132047039  0.4171129184888935
  0.5760943776635721  0.7517984851894003  0.3369198912551388
  0.9120921689077447  0.7539700905675466  0.8384395971076121
  0.5039500585623991  0.6701852392332250  0.1670805613882712
  0.9130178043685635  0.9162349850691809  0.1670404778396074
  0.0768401816782835  0.7504142276241765  0.0038292521164204
  0.5773227865670564  0.6671628721253691  0.4188356367034881
  0.9133539571571304  0.9105010661078975  0.3330971440186957
  0.1456663753555788  0.7589532678696952  0.9182758302518478
  0.8292682954015085  0.8338547917008783  0.4994242596692364
  0.8311781865032201  0.6752906096126823  0.0015169948892147
  0.1644758394821905  0.3424454973198409  0.1700091805890140
  0.7469185276069732  0.9145573468496707  0.9991249580270471
  0.9949156539581411  0.4217830935618175  0.9189292124910814
  0.0806707458310632  0.9977209442623454  0.5833907080368348
  0.5009056125218521  0.1705395477071523  0.8176635769355555
  0.1746730061627392  0.4210106960324423  0.9144559414976804
  0.4063881842442973  0.0779691905690446  0.9924945246248281
  0.4163691862047901  0.8369283922960772  0.4192082099840044
  0.4180139645390500  0.9144392996072152  0.4990949199083961
  0.4148481138757912  0.5777933592492948  0.1699792380087062
  0.7568553330604276  0.6667229958997477  0.4165170843545766
  0.4989046259990100  0.5878800457987046  0.5845749238796625
  0.6653673855062557  0.6676915594878097  0.5097220072698314
  0.6660985141305512  0.7528216373535392  0.5821475776506708
  0.0732694384557902  0.2489541016701574  0.1682704383982926
  0.8294785247123732  0.5873638788203391  0.9117510810464290
  0.4990191683201675  0.7514456098508581  0.5829711649261209
  0.6674414660622158  0.6632418877754896  0.3311758154940025
  0.9089437806474683  0.3318768859388738  0.7377159401606529
  0.2576827721030572  0.9958529169871215  0.5842465681903131
  0.3410372721580293  0.5821347965781077  0.0853064483409346
  0.4260529449027178  0.8337624657672336  0.9164978562500020
  0.4168296842545056  0.5847780422282646  0.6663288441380371
  0.3371910641310967  0.6547108054093141  0.8305082261075128
  0.7474549811562500  0.4187907729607068  0.5001341117339831
  0.9130493989366187  0.4187562921400845  0.1708751185250026
  0.2497434418377340  0.7534599107182742  0.5056839152238727
  0.2518835592704649  0.2505964081841187  0.3317971091409276
  0.2451599494859594  0.7449463052410988  0.8287707158143642
  0.3353795119734750  0.6689827854864010  0.5026290876340744
  0.0809305159405671  0.4192105043057553  0.0073997300899681
  0.4997924753642909  0.0819911032028891  0.4160286578750069
  0.1622052238268263  0.1628867864462713  0.1652873519082961
  0.1547928533981756  0.4213234697396822  0.4161286750256011
  0.7507908188999777  0.5023440658210291  0.4158238077871682
  0.5833177139230060  0.5859870582199509  0.6664055920272696
  0.7481764295145329  0.9165565538129730  0.1669540099660639
  0.9922409068276781  0.0846054337443633  0.5835460108399795
  0.9980861765017459  0.9957908575204583  0.4955853333324954
  0.1596392946610939  0.1641098322638840  0.3350155053999051
  0.9135232117939550  0.1648321812986014  0.0838910551090011
  0.9092610702814052  0.3347876378904858  0.9184017266475297
  0.0791288870705238  0.8328674877269581  0.2490588536390556
  0.9952181417358307  0.2517646338770350  0.4150407366976227
  0.9942587137457095  0.3315727047633383  0.4957613355681897
  0.5846064765021391  0.9130639815883204  0.0004022413762443
  0.9121620355119487  0.8355309690494711  0.9178439716449996
  0.9936994662778322  0.6706186751921753  0.0025265343233721
  0.9152736558939292  0.7517532176940197  0.0001896860861354
  0.9088442521793260  0.5867615193172691  0.6652579892589572
  0.8260318183618880  0.3333064585077464  0.6644876871203501
  0.6649813295944882  0.6687844996375026  0.1686746473307533
  0.8230169943433778  0.3353950106852139  0.8298966820229053
  0.2443538091757630  0.1678078579018255  0.7503518123870802
  0.1653814817356906  0.6694550053653128  0.8512252078168868
  0.3315311313641987  0.4157863376271190  0.4135098072382060
  0.9137445317501143  0.4178600631838018  0.0038565979349810
  0.6647694337093225  0.5842890146660330  0.5837088775245470
  0.9939148442429706  0.4192016046847062  0.5846188400455908
  0.9940895189619707  0.4181076661064749  0.2496968802364270
  0.1620688135341325  0.4986901478195069  0.1681522773333556
  0.9958022327299104  0.5848231034486087  0.2500377624449496
  0.0723154448710848  0.5869158114798027  0.0023272679672685
  0.0002150167337455  0.3302307398960105  0.8288153693669822
  0.0814313533870972  0.4955039720426398  0.7535803912300866
  0.2489936228884772  0.5042172201446917  0.5784058241357635
  0.9038707032402518  0.3333766336922899  0.5844162586067227
  0.9967646698932227  0.1511612949051121  0.8332630264566621
  0.0733932028452603  0.2536935875703324  0.3326791100135709
  0.7445562213248885  0.9974979454577400  0.7499933301688479
  0.9965878539911311  0.1647117042937849  0.1599735748931726
  0.1612503278490914  0.6669494885386639  0.1695463256346163
  0.8296496372734918  0.1667233440281631  0.3338362228844491
  0.7503106954405996  0.3340297727310642  0.2515666683218213
  0.4125066479551646  0.1720101538803986  0.9050930622293563
  0.3300976170923202  0.9191811679618643  0.2536602501825187
  0.2466319136697205  0.5887985968973306  0.5016840249470261
  0.4978656911831845  0.4956631650505559  0.0016169273511800
  0.8217522883927992  0.2486081174023518  0.9211295541578193
  0.9046775533798493  0.4175923253694547  0.4999240887095757
  0.1611560307548052  0.8317181485540031  0.3325936454174645
  0.8304011206988677  0.3332681203430080  0.3307653593232386
  0.8285654115810582  0.1540651919075067  0.8326552758543078
  0.3306300110585489  0.5052358582862699  0.5036535998079927
  0.4142984570875577  0.9899688087017195  0.0861245359840319
  0.1647872871873470  0.6767300458962620  0.9916709954375524
  0.2595151108006359  0.6647170285502083  0.7474087872208764
  0.6668919219586376  0.5016309188406589  0.3322263767931468
  0.9978476645181700  0.2420625210749047  0.9177712161910526
  0.4167769884596908  0.2521464303622431  0.3339013125895187
  0.2440578510630423  0.7560494613254468  0.0073169479536594
  0.2537272609415850  0.5793649505920667  0.0002625072884947
  0.0877004237951405  0.3312571644420531  0.9205732824543240
  0.1707086826133303  0.6704048994606308  0.6668233145604897
  0.2520573292235150  0.5007489761389526  0.7493422247571562
  0.0787418698024928  0.7618834568778508  0.6650553449351908
  0.8319945296084081  0.0905790971134490  0.2502119360059980
  0.1623293081080146  0.5845418340877382  0.0887318125112713
  0.0809268563589006  0.5832719738818711  0.6632155983060452
  0.2430180758422709  0.8327173385373754  0.9175690927209816
  0.1670508287494043  0.4935431954697141  0.0013069668254714
  0.0848609666175725  0.1652539700580659  0.2494673811206918
  0.9957574630971424  0.2442318487102841  0.7403188447441875
  0.5831282233217235  0.3338626519883010  0.9084027865147369
  0.9109492130159416  0.9967473034908829  0.7503196080216481
  0.9950713338647166  0.9166471972573874  0.7514172366274373
  0.9018526330937726  0.9993851943789790  0.5791945815343809
  0.6649802367863772  0.0790417542033549  0.9150793320777233
  0.1638734404243123  0.9084428596437407  0.5820133760376931
  0.6664212823750741  0.1650926617588741  0.9999974111884109
  0.6624922081588754  0.0840011378393480  0.2514936697791430
  0.0829144857806463  0.0819236211040699  0.4964999986448548
  0.6682675287432925  0.3337034048438607  0.9983035746553038
  0.5002362272980095  0.1654653801051199  0.1746433299912771
  0.8284864365627355  0.0788260196309576  0.9165904154940027
  0.4966727862356455  0.1656501535822319  0.9959245762080934
  0.8345420722041165  0.5033518059320188  0.8341555486037485
  0.9037564652141717  0.0824399625208567  0.4999120150017092
  0.3306107646008000  0.9233620377851235  0.9187382930301426
  0.5003791710922976  0.1667900124325411  0.4944217815603037
  0.3287384610253213  0.0826400616871398  0.5835457653746444
  0.6645265210268914  0.0826128177783766  0.4169560634420524
  0.8335393086030181  0.1617280946360898  0.6652616602410396
  0.9981177416855010  0.3321647277619025  0.6749123354621359
  0.9091128881648902  0.0901580157749170  0.3318493547331822
  0.9971570061084769  0.0793048996587069  0.9194229690290623
  0.1594357054658481  0.2545359233933968  0.0740042548216634
  0.3325525722454049  0.4137327070912927  0.9140380526525103
  0.4166547365538071  0.7532866954550066  0.3443882268412670
  0.9971588636850457  0.3359045045754957  0.0084316218610358
  0.9103377116916530  0.6675438844062355  0.4171493464039366
  0.9166968217537005  0.9977735897080263  0.2469360739605866
  0.9104961014461200  0.2446137699019314  0.8313789356459306
  0.2441337223514402  0.4186574856951828  0.5029938713746822
  0.9938341575420757  0.2412052372596331  0.5870414918333038
  0.4158318359407542  0.7561037774340794  0.1666592350830729
  0.6662175666997336  0.4986841797627691  0.0014091707497395
  0.3262116837125738  0.7539552701650449  0.2546891464726438
  0.3290739371679511  0.7454626302603867  0.9189147620270348
  0.7465060130811546  0.4178146931601293  0.0021293675982760
  0.4986422565388333  0.5842661388579412  0.9097847598185866
  0.5854942608189839  0.6751469688902243  0.9152745674969915
  0.7462097452982599  0.6689030064592304  0.7473136621078668
  0.6672293834729892  0.4166740184212045  0.5824562190902567
  0.2443597859021707  0.9231113848969539  0.8318094750200301
  0.3318646514697781  0.3332659620644162  0.6698811693081433
  0.8293776966807080  0.5866949626503548  0.7483111510047999
  0.5056737134003104  0.0802337807486651  0.5831279156915397
  0.7553248508012411  0.7486374670697930  0.3343133627446440
  0.2513743950205543  0.2526864920355620  0.1656144308180813
  0.6634812577160412  0.7516234332714005  0.2417033905328702
  0.5031341297058517  0.0809711407736143  0.9058584262862327
  0.1692478289108580  0.6659370487035752  0.3405116219200751
  0.4992628307532206  0.2577284408784173  0.5832497590264782
  0.5927380656182992  0.5829470523691005  0.1676650482269001
  0.4168698004693496  0.1701854229042628  0.5864004336946295
  0.6643807222756020  0.9165667453334193  0.2498664577551818
  0.2466610900809167  0.2515137706904821  0.5009425825089621
  0.6647690187460273  0.8340803314129919  0.5007847522404298
  0.5004635201669980  0.9979223691450307  0.1687503583013830
  0.5821950929637072  0.3318865782400004  0.2501011107091350
  0.6649428883042316  0.8329833351257770  0.6642506942219687
  0.7446905935201997  0.2506080078526868  0.5047511294634383
  0.6598513691273280  0.0816264001843039  0.0838847233479150
  0.5889174826012851  0.5850797494317155  0.0006031381412339
  0.8301027963383344  0.4949443888385881  0.0026794059298894
  0.5779800752025263  0.3339768245218924  0.0871473733417812
  0.4102058458440074  0.1662241579908863  0.0845034159211182
  0.1660728642129279  0.5798923973779226  0.9104321494394861
  0.5064011527014755  0.7505822739181977  0.2511562098207473
  0.8307290988571868  0.9955267121623940  0.1600818378504321
  0.1619577943802668  0.2499302302871765  0.4267027013268930
  0.5841815887313937  0.3336030679326362  0.7469943662431530
  0.0783248632559019  0.6677376383790854  0.2457607777578372
  0.8306784430243076  0.5856894227958849  0.0911583209752384
  0.6674920710441858  0.5733462556628821  0.4171697333462007
  0.5007772978488335  0.5001616665551890  0.4947900315359409
  0.8314731841878504  0.5843996708193218  0.2483596731679889
  0.6657785162922795  0.7530992502438528  0.4203943572513079
  0.3263519400765922  0.6655459193242635  0.1689892730393958
  0.3333855836026809  0.4149120321543600  0.0857672182268721
  0.4079598157598692  0.5814579894554375  0.9992531702707719
  0.4134400995082156  0.6660824996719230  0.2565148553054761
  0.4997566103113305  0.5821985702316099  0.0851063007366947
  0.9927392541333722  0.8336847951093463  0.0011218754147172
  0.7420691982891610  0.5863109193270108  0.0017605657269404
  0.9141479206597501  0.7506948791334729  0.1676366289679320
  0.4172012100999889  0.9130704303594479  0.6645554715213599
  0.1651848294210138  0.3271117037813766  0.6671575670001003
  0.5002315050517440  0.7519106512977545  0.9161686415084597
  0.7336758105494124  0.2480070798582276  0.8310268565447644
  0.8316389391521511  0.5837012910170769  0.4162946219780889
  0.7475132238985454  0.2503822869954860  0.3262026511460108
  0.3328727110059274  0.0122201629110198  0.8351566816794325
  0.2409489689191923  0.1686123491488921  0.9150590145936082
  0.5005142859925747  0.4091928155616846  0.5832079907081853
  0.3336843327435859  0.3242996433515680  0.4988450329807371
  0.7442751420373940  0.0808181749629826  0.4993012958922227
  0.0776123688467554  0.5855062139128230  0.5028002823375697
  0.0789779078824292  0.6683567660160842  0.0857949843987683
  0.9942657202160062  0.5869559763021225  0.5835464871793590
  0.0773487906895392  0.8339668845316205  0.0851981047672395
  0.0773770847111140  0.6688421173683586  0.4236182118977653
  0.9937607222074685  0.5855286721733385  0.4165954803768053
  0.0805993491833767  0.4198235516413926  0.6675921364760385
  0.0790283199526939  0.5029879832709842  0.5825913000466932
  0.9948119614624438  0.5036146135208333  0.8348196835220094
  0.0776245676588895  0.5072439791349517  0.9185596104222756
  0.0788466796244072  0.5850823734469699  0.8390307615953173
  0.1646193349737063  0.5865259900757607  0.5833027699256147
  0.0750086310899293  0.5011814190988046  0.4167919326463307
  0.9131767945665387  0.6678967791845903  0.2492219914929235
  0.9134231060488114  0.6693016138271534  0.0859901772810693
  0.0789875252572951  0.5832593906308923  0.1682748508786345
  0.3330514104908879  0.9161376200603791  0.7416100489806581
  0.9928142790631495  0.8352471750420062  0.6661888499228759
  0.0721879931958601  0.8387387938640625  0.9198140053116624
  0.2482307907164708  0.8291278439449034  0.4167186038175473
  0.0791109921142726  0.9135440507908025  0.3318463387074728
  0.0773579080062498  0.8334284535911394  0.4155452587576488
  0.9958842543840869  0.9161242894194974  0.0840780514880120
  0.2439598499933559  0.9134458465384262  0.0092445214146668
  0.0778923043230331  0.7534742850386856  0.3341912352165589
  0.4162993396741769  0.9154117886474985  0.0005828815098810
  0.0832112582074767  0.4152882662434349  0.8306901793398935
  0.9955989804442109  0.8332260628568249  0.1674801727047375
  0.9122831731703613  0.3359057003072906  0.0862383499741366
  0.0791918969645539  0.7509580613020336  0.1680981206634541
  0.1617437531985826  0.7500639503181022  0.2526249121642147
  0.0782866016609048  0.9171542103095613  0.1670633507690003
  0.9967723642279582  0.9145614877850480  0.2486071020503853
  0.9959763765726140  0.9143828883353826  0.4158735394777598
  0.9961320277816939  0.9969717010380206  0.6725052298830643
  0.2486344593514140  0.0008999832479386  0.7492231063196358
  0.5819255873872984  0.2521576136563747  0.6657079390265522
  0.4979005381181907  0.2584715579374778  0.9123875245173794
  0.5892745784317019  0.1658370240612735  0.9144628352722205
  0.5848714001626403  0.2509936641449251  0.8304226391797231
  0.4969561326165041  0.2554143793835957  0.0836479967594008
  0.5008674926599496  0.0838349197801495  0.7495512175279410
  0.4998724428016686  0.9964410829124447  0.6617522777286651
  0.6647540238754438  0.0793816794091584  0.5811350277780792
  0.3333999588243988  0.1712682716832751  0.4976080616346350
  0.3308745750495089  0.8355674724782329  0.3345861518341066
  0.3337636434701250  0.9163972034028290  0.4154177269387463
  0.4142470862371059  0.3331522141457673  0.2512641832794783
  0.3344794919264220  0.8330734212815504  0.5020839271132340
  0.5023891090837559  0.9890799939985834  0.0000857906860627
  0.4168333696293286  0.9176114362277578  0.3356344328348274
  0.5837403905969371  0.0803957608276614  0.6669509181281693
  0.4179588483773581  0.8331105980388128  0.5823454738368781
  0.3343962311113359  0.9139123634147497  0.5838618850005697
  0.1675455863067536  0.4995278914307274  0.8321392328492448
  0.1601324053888813  0.5834313461916226  0.2502748401302164
  0.2462222120295539  0.5828768733982970  0.1757252689242271
  0.3326158448062527  0.5003603379900302  0.3256683842654793
  0.5831682897428688  0.9969389318194439  0.0844115330168166
  0.5829219183586967  0.4203758877739631  0.0005020423442155
  0.4914178598529074  0.3347217995222313  0.9992548638053993
  0.5050226965183703  0.9949959010169550  0.8345229660911097
  0.4997399067896822  0.2550203804043158  0.7484473353059439
  0.6646434700836451  0.9969716704217059  0.9998700641684144
  0.6650398284104759  0.3340606595300518  0.3316958928989820
  0.5808390802001332  0.2499743787576647  0.1689524906866958
  0.5002541020257637  0.2502003892256214  0.4153384855170015
  0.5826353281496573  0.0814073760647098  0.4972250653934354
  0.4162563236765154  0.2524871140707682  0.6687053885469286
  0.5915587461334996  0.1661576139526403  0.5800743062503547
  0.6655402314804397  0.3352139347508027  0.4992114748300239
  0.5859054354703548  0.1660088907219543  0.7490682205309419
  0.0767009487522165  0.9183617067660581  0.0023242717785770
  0.9954304235277287  0.6676519533449299  0.1676683353696417
  0.8304886619586708  0.6677129877242178  0.5010165169347899
  0.9930187800663575  0.3356604622408771  0.1683974628065857
  0.0769487988687893  0.3393527161028181  0.0954309169539028
  0.2536151749600600  0.5001134539872381  0.9157056123029775
  0.0767410474175438  0.2383882634089914  0.9978620161010548
  0.9922832619846841  0.5020840581468673  0.3318798133535048
  0.9980399366771316  0.2498044318446393  0.0842242392819582
  0.0775578899973565  0.4207206262535764  0.1699959584195286
  0.9125391892130265  0.2497475374010411  0.3333090211880285
  0.9944306120808531  0.3357649180598406  0.3328245115665595
  0.0780468565380152  0.2517964756746804  0.4992612969104926
  0.1647639093859820  0.1674057897823541  0.6694510258676065
  0.0808469147963388  0.1649819864343472  0.7510568024050621
  0.0830372764508978  0.4187904535885384  0.5014888807481528
  0.0811354979754372  0.0802593179959177  0.8322732127742123
  0.9944631431445342  0.1617588803881566  0.6673691600072427
  0.0791013009077710  0.0008462099524983  0.9179520384992790
  0.9118410944109051  0.1555000497810221  0.9165575264987900
  0.0832276055870269  0.1746327817489412  0.5832768373055871
  0.8318249663469089  0.7521039746020789  0.2490161709407114
  0.0787393054697961  0.5011185646520608  0.0863594635901562
  0.9912460403798526  0.6679488637344198  0.3328370713716203
  0.1588382819680590  0.9134794323064273  0.4144744097070093
  0.0751335286940287  0.7536164144985683  0.8330803045754590
  0.1623874699532029  0.5031315046033292  0.5023046229622639
  0.5867181428933234  0.0799617716334343  0.9981650548699418
  0.1696693705548418  0.5830317978990662  0.7511347319870154
  0.8298808263465204  0.5854152016909435  0.5833198745266369
  0.2421264190522142  0.9971332383500414  0.0873735806956146
  0.9118217386093207  0.7515677064378939  0.5003131647091300
  0.2517429970908861  0.4177230393775955  0.8306100591677301
  0.8294001509732973  0.7516871926052737  0.9167749194355777
  0.9964716274947862  0.5852785962954664  0.0868046550443108
  0.9953128954798462  0.0005269253691704  0.8341524589020700
  0.9946169201295332  0.5021658465560614  0.1690891533593726
  0.9996770807403965  0.7531692940917492  0.7494995812356718
  0.8334317577607304  0.6670079547075229  0.3310047179365371
  0.0787503108750477  0.3353570372826259  0.4165985782350120
  0.1631901481069927  0.0815190444147131  0.0839892215499477
  0.0802849838303245  0.1607876930803427  0.9161509134061562
  0.9939415444971571  0.7509340926395268  0.4174454045344273
  0.9928866206677469  0.6680561614275481  0.5003141318241169
  0.9954662761991993  0.7508941382696663  0.2494012152411919
  0.9113362984014475  0.6684215486247870  0.5828644996235357
  0.9943312336382374  0.7533283687566247  0.5813214672495440
  0.0782773133685402  0.7538274764896926  0.4991318705890016
  0.9911873519945302  0.6696915273846327  0.6650817150273572
  0.9956547160505184  0.7517480950048722  0.0858823887048367
  0.0805916551363588  0.0818757834412485  0.0011478014426068
  0.9127315719637588  0.0802388618091029  0.0006994249129306
  0.9945280485000342  0.1614679925317228  0.0017104947958316
  0.9109161213905188  0.2506610271558946  0.5005045311054549
  0.9108688992225272  0.0792574953264699  0.6663621767008707
  0.0800996435942604  0.1637317263270898  0.0833135568715497
  0.9951944660300309  0.5004788362122038  0.0041920895243688
  0.0839574306647429  0.3321784186470778  0.7498596550104915
  0.9941445148709211  0.2554626304392274  0.2500842209441054
  0.2449868672020568  0.9981845300175659  0.2497617932215423
  0.8271291444945352  0.1663606459201915  0.4997926163998379
  0.0031186497172694  0.9969875621410424  0.3318988676421255
  0.9092422469780642  0.1649042568007367  0.5818679928519243
  0.0805635714501335  0.9969703639734226  0.4154464825894121
  0.7446281002375895  0.1621439433728525  0.7528458467710016
  0.0821926681382555  0.2481086680882072  0.6686281538582263
  0.9117462352787095  0.9996562913170272  0.9179411752891639
  0.9946808841308298  0.0790124874889652  0.7497293176716215
  0.8310170428052469  0.1664905491138154  0.1654997300756547
  0.1626935611043866  0.0825031706639863  0.9161882427901813
  0.9132254597662544  0.2501881744556378  0.0092116645224498
  0.0806553440521326  0.0820927733303762  0.6742780490333515
  0.9139855102846549  0.2499306452802442  0.1636617898083048
  0.8263795051215007  0.0820174658838861  0.5825221868260021
  0.9114405455234541  0.1670534693746326  0.4171216963128930
  0.9968444483100698  0.1661108787346531  0.3368963713703150
  0.3337342259523697  0.4966979138244158  0.0010136673850745
  0.5010303991850089  0.1664864232913473  0.3351860069081007
  0.3160957451735319  0.0832427898066285  0.0855928805550170
  0.3317390504969827  0.3342499247916512  0.1678177506974800
  0.4141414850994128  0.2556775605752726  0.1674738606149004
  0.4112438952476050  0.4955421654817740  0.9152616953984783
  0.3326614775989346  0.6670150126821813  0.0009660294162142
  0.3322056920052771  0.7504999997713557  0.0791803845911168
  0.4176727943902537  0.6686247050465549  0.0774054257064627
  0.3319320598364255  0.5843970773100128  0.2508126343635175
  0.4138619023172079  0.5851897701668040  0.3360427983958399