 C Cr Ni 
 1.0000000000000000
    21.1200000000000010    0.0000000000000000    0.0000000000000000
     0.0000000000000000   21.1200000000000010    0.0000000000000000
     0.0000000000000000    0.0000000000000000   21.1200000000000010
 C   Cr  Ni 
  69 259 605
Direct
  0.3397626667674879  0.7465389091558182  0.8296443412454734
  0.2435001253762920  0.4138774931199526  0.4125045868307080
  0.4333201947558812  0.6493243765679292  0.8456382487486768
  0.5779883134811888  0.3322536351274670  0.9971566412933439
  0.9160072067125840  0.0026698543302037  0.3378532420695854
  0.0004403224867555  0.3334085618103667  0.9187852290308359
  0.5039189323388223  0.5785622275837805  0.1743585699784157
  0.9094042918992407  0.2419615755181993  0.9240985649479720
  0.2407760161066083  0.9286394585327233  0.9230461336198756
  0.6681834586706648  0.7534509004634834  0.3284628269323614
  0.0850637865181746  0.0874755611064224  0.5879192001255480
  0.2419441776326595  0.8374608370172834  0.8248386713576061
  0.9970961110241284  0.4201494192542627  0.0085891286424166
  0.9949716540734742  0.8322274835084262  0.2474768345614647
  0.8272509318983096  0.7533399407867498  0.6614315888323031
  0.1613101690729166  0.2555513410192508  0.1657372550622179
  0.1695331122444331  0.7581242393192662  0.6617398993832393
  0.0763525332095136  0.6661982814002447  0.6633585581025324
  0.4131349225708571  0.6711455100717924  0.1668780754424189
  0.8292881253829060  0.5854512586352245  0.0006358043383109
  0.5083624150639855  0.1678070094095855  0.5853976831865230
  0.4175811859082875  0.0782733002035312  0.5881048822845367
  0.4084956401181536  0.1691854435242885  0.9883212838048968
  0.6666729729692151  0.6622367876068367  0.4206513516964974
  0.9154316082391452  0.7518316031643842  0.7525314374912819
  0.3370841433750724  0.4117992748930924  0.5031326636389453
  0.9906040055515627  0.4170701049693165  0.5026313297779610
  0.3277591354238445  0.0820793618372668  0.4932445788766159
  0.3382719164024968  0.8377161820396527  0.9226958869945113
  0.1631655292118607  0.4141225119900028  0.6672666014673730
  0.4134816777205366  0.7585417137355421  0.2538025970643410
  0.7463907083303020  0.5850635910911185  0.7469708718867161
  0.9122302342498664  0.3381455141928635  0.8301943421035322
  0.5010724510167945  0.2489795832440164  0.3313525820313146
  0.0033077740393366  0.2426012714577506  0.8270958871029087
  0.9915666719150628  0.9960049859825811  0.5861665443044071
  0.2503590413497239  0.1622916098145470  0.3337257579386059
  0.6657485106126981  0.3309226051795246  0.0886809798417657
  0.1669524808850892  0.5802467020646636  0.0057078723243486
  0.9935584347520772  0.3299319891940899  0.4129504619313889
  0.4134059423803960  0.1682512732199286  0.1723656136013315
  0.0776481089440851  0.6606228882403512  0.3332450970562320
  0.5783691548593215  0.7554080617854698  0.4209267065761434
  0.5840906749533527  0.5912178097159252  0.9087811665717146
  0.4945715151757725  0.4967776464587926  0.9080858564946788
  0.3257213231293855  0.1702121412908310  0.5879229258470207
  0.2434869830849669  0.7471923797725998  0.9234548612852282
  0.8210375534679678  0.2421049498398925  0.8317129276919010
  0.3477141683723383  0.0192432669370806  0.9287338540677673
  0.1603896784465177  0.1651529369380104  0.0786608198788962
  0.1650399578145676  0.9994883354682953  0.7520417889104724
  0.0739640694380396  0.6692825033372601  0.0059745487903929
  0.0927287479243294  0.3229108314671179  0.0145215479493156
  0.9949121973572447  0.0888564329195524  0.4954514481086878
  0.4085596104614791  0.0750443512009589  0.0778491750708313
  0.1613883012791235  0.2547304679729602  0.3389626529289269
  0.0812190381441291  0.5023678368897161  0.4998370421161304
  0.5028001983392717  0.1679121445821350  0.0793824810408518
  0.8239022392714888  0.3353208953098000  0.7425188863188412
  0.2491896303333022  0.6560132661074621  0.8325177975594690
  0.2486213015524521  0.5844202672302026  0.5827273179714444
  0.3401142741997495  0.9271504846146639  0.8268536352308852
  0.6660681970239336  0.0807785398950781  0.9990668215179590
  0.3370472584554071  0.5050437441087269  0.4132626981801149
  0.4957168618228950  0.5901087585582387  0.9944226702417027
  0.8267031282722608  0.0014725781279418  0.2466910271301705
  0.1653190459880253  0.6659172446293216  0.7514968764503660
  0.4084233399146638  0.5806827760698848  0.0841323993824891
  0.0832719371589338  0.8397226915273726  0.3365161068438879
  0.2452121751374949  0.9999852667438499  0.0872628710444844
  0.1617414981359879  0.8367360927111696  0.1675774985656423
  0.4147260599457798  0.0771905262771075  0.1695627658613422
  0.0795238972319434  0.0020833554881391  0.2497916341088920
  0.6641020100424068  0.4994674558319539  0.8287098517541098
  0.9159246853301387  0.7521475490821559  0.6631276954933836
  0.9930913270457457  0.8322948095682769  0.3363890588899084
  0.1667314554838004  0.8356688031960170  0.5000587892583981
  0.5036018143779322  0.7545680771446640  0.7454603692185972
  0.0772071530552253  0.6692122258958282  0.4226555962818390
  0.1632214074000409  0.0754860084761460  0.0831734156339843
  0.5004996960704308  0.4130191041282761  0.7465210583668970
  0.5856485728932286  0.5000029230318775  0.9123842622330616
  0.8288730925976726  0.5850700379680167  0.0904153028391032
  0.2545344144688743  0.0028451185357826  0.7478357899314706
  0.5836418956840762  0.8364516903109092  0.0855911016644754
  0.9948458539086188  0.9078057162885563  0.5817092955504446
  0.9942329661443343  0.8349926053245540  0.4989970035947237
  0.3319861804555568  0.9968917513062558  0.3320258768835244
  0.4989584952819185  0.0007490636751349  0.3357378277335381
  0.0809094567215330  0.7500580820338758  0.3354304879907332
  0.6632371735465147  0.3342121679392789  0.8325791286284651
  0.1622885748595855  0.2485595907799284  0.4272859864557751
  0.8297682961395969  0.9979421279247840  0.1584089025971447
  0.2468206202000020  0.4150163173261203  0.5026909965359858
  0.9104373252439532  0.6676861592999884  0.4168297246978122
  0.9127889507843637  0.5021576149704633  0.7485566181243155
  0.4269415239750220  0.4148551827964927  0.5015375854518522
  0.6652275959525957  0.5722915987795221  0.4183529032732772
  0.9961893485797222  0.9993086000233850  0.0008661721667867
  0.5001854465405400  0.4973637114445814  0.3338054048623674
  0.0783408395300368  0.6704438460244624  0.5747052593959115
  0.7477051382602106  0.7514982575030910  0.0012668098526547
  0.4202977882677605  0.2486731927447539  0.4986664600055850
  0.3333681193984592  0.4162197742262470  0.2504558177940828
  0.5858464302782316  0.3359045189462179  0.4169096127501630
  0.9184383333855001  0.5834008257598493  0.0008898079357690
  0.9129365346021373  0.8419742173262209  0.7514613100364355
  0.4115341075295565  0.3331477982889315  0.9117878988639384
  0.2506899618260700  0.1716761607938727  0.0846426623530129
  0.2455014032503967  0.5045063809292143  0.4148439407052960
  0.8293182799362091  0.8370401813181831  0.8344021224045801
  0.8310609348086405  0.9118765371406509  0.2489600160540470
  0.6662518606268225  0.8361332399076248  0.8320000447810284
  0.4995330715265550  0.0762644582737746  0.0824701229344785
  0.3347927873233353  0.8363916090628232  0.8312977962410739
  0.1651215603168682  0.3441636266818562  0.1708373364730958
  0.0756695731124605  0.8382645099881455  0.7505505522253342
  0.0768303519228054  0.6658030100128108  0.7529909299880301
  0.9133573053053672  0.6618202840655921  0.7513668869014078
  0.3320555540995123  0.5937894762841700  0.4179173741343309
  0.5765825923469610  0.7538957207175284  0.3315668274786761
  0.9127043771521594  0.7544420433063461  0.8412997102738349
  0.5040412059457819  0.6704345345151742  0.1656646157334913
  0.9112245213738650  0.9189978517059874  0.1658353645925099
  0.0796380750872059  0.8355985033826435  0.0873500686097013
  0.5762546431611651  0.6646144677838002  0.4186512272493889
  0.9109458992545404  0.9127318657940211  0.3340247799424180
  0.1535423131134780  0.7503611164318321  0.9205059020891042
  0.8290447707483125  0.8349550478947463  0.5006257900279013
  0.8316477708982634  0.6756449010689650  0.0004096908511434
  0.0760632828515015  0.4200301607746869  0.3303792700129649
  0.7474710545201131  0.9162842857370134  0.9995826785179228
  0.9929502325599555  0.4187141253326250  0.2496170891666449
  0.0836068313992568  0.9964335480366007  0.5821780639782543
  0.5025497523239275  0.1671743662384797  0.8285938268032543
  0.1659876279767957  0.4178096878079301  0.9135676996047596
  0.4992625721349626  0.5827284834535014  0.0834193020729783
  0.7402922107672625  0.5860884691113901  0.9996587299656932
  0.9111660628285622  0.7493671138791106  0.1657447635153382
  0.4184617670764557  0.9163613860175854  0.6657496768721375
  0.1645314266096474  0.3254862301053445  0.6660676013665761
  0.5033212847765223  0.7535446538788888  0.9186737305350607
  0.8304295131789694  0.5011559686477636  0.5000351493287822
  0.3351589876910765  0.0142650983413556  0.8338308772925651
  0.0709847399312928  0.2470965551266170  0.1719829394841008
  0.8284468674794664  0.5849037080839956  0.9107536935147414
  0.4979005497631195  0.7523627141875592  0.5839477948218317
  0.6656534284894485  0.6637062531970822  0.3306743892163944
  0.9152798930435331  0.3321066989185290  0.7402422052965075
  0.0912400389111814  0.2486940640558532  0.8333016968706942
  0.4996109208732326  0.4148163906699339  0.5841281662886327
  0.3353281425750542  0.3221802267371602  0.4992051524054780
  0.7440763113257255  0.0826684162688183  0.5004691103297932
  0.6637378788297008  0.1618288170058898  0.8324929591923155
  0.7452774110191634  0.2518426958646852  0.3328822625933565
  0.7496381587520038  0.1654839169070013  0.0846813990603899
  0.0770704018534128  0.8356638061680969  0.9205514416519452
  0.4183320292262102  0.6674663457383274  0.4167042807797706
  0.9963618049562137  0.1530986129128541  0.8317677373822303
  0.5840998844737293  0.9977396265395811  0.7477045860633679
  0.3341010807704204  0.1726946416920847  0.4976866913258254
  0.4187713081564283  0.1705640285577739  0.7538372455603181
  0.8248035020027702  0.0025228438548098  0.3360613483963404
  0.1633874998092399  0.4983647049897187  0.1699070761127788
  0.8293519037813021  0.5843241892835986  0.2496971369989049
  0.0779003505150812  0.5797001340339855  0.0035349478889721
  0.6649684205481047  0.9977412161627244  0.1653625474524645
  0.9946558070081599  0.0848936102284600  0.5852115412582969
  0.9970070006138823  0.9981753768442273  0.4947977096273341
  0.1593247425102479  0.1632729644780260  0.3325561013181418
  0.9929157940020260  0.1611098711254300  0.0018775783493518
  0.9097755442721139  0.3349502035885224  0.9205758313881847
  0.0844060150625079  0.8352477210444387  0.2457841868971926
  0.9949059493270935  0.2424353562139444  0.4133995053330830
  0.9927527600373148  0.3271788218011483  0.5039141148133492
  0.5830861281458538  0.9154896342578874  0.0002923753944380
  0.9111814708368805  0.8362712933417943  0.9171432357799367
  0.9846678357502856  0.6689652527067815  0.0017115595513692
  0.9134031932475676  0.7532221287715671  0.9990970589223364
  0.9121297484070182  0.5835736988697425  0.6661269224584867
  0.8265371986755901  0.3324745721171027  0.6548674074739034
  0.0008294505431140  0.3335437427697086  0.8296262864014496
  0.0788485141667601  0.5001474243834030  0.7503409521047286
  0.9988231765695514  0.4227110316395902  0.9174914318900006
  0.0804359060698176  0.4138545061732826  0.5011595978975578
  0.9102817406026344  0.3312646586778672  0.5851444514699099
  0.5793337607879007  0.5832503946050708  0.6631035193113227
  0.6647466073623142  0.6688651328071041  0.1679108723537842
  0.8242474400307600  0.3336673549534179  0.8316491128383745
  0.2465630101296325  0.1687525361802119  0.7496058387459271
  0.0782361252896841  0.6649350504119294  0.9155855505362684
  0.3338946269881638  0.4154227585756403  0.4133054373835290
  0.9068567160732265  0.4174900728589234  0.0022192034845013
  0.7456826492323643  0.5831995594526808  0.6577607089207422
  0.9912794446942098  0.5060149100350739  0.4989733579723346
  0.2518186532941558  0.4955487985128605  0.5804088508214138
  0.9937776106827223  0.5844295426014322  0.2497821114484971
  0.9976985376563549  0.3325855574449098  0.6669182717890557
  0.7540339321453881  0.3337763964992992  0.0883027802765671
  0.6654078469962023  0.8367063595090954  0.5014585171660905
  0.9944114103180338  0.1648428222015170  0.1690108801113654
  0.1643715104334972  0.6672702113397099  0.1697370241317935
  0.8257267958471178  0.1699670857367238  0.3351384625562348
  0.7483876388941371  0.4172989513224783  0.1694743430483883
  0.4150857005522485  0.2532179221219120  0.8279079479277063
  0.3291953069065083  0.9187566801488229  0.2521717045228027
  0.2479412122568331  0.5865057834557952  0.4935533117197087
  0.4970287382216990  0.4963034652484088  0.9994658822350367
  0.8221430103625843  0.2494528359996399  0.9203920223392095
  0.9016483846666122  0.4160820020389585  0.4998247710626467
  0.1716858941453226  0.8344034425159267  0.3358519062405922
  0.8276948548692111  0.3305630873539723  0.3326508665638152
  0.8267204162656403  0.2438299238396637  0.7422219756864937
  0.2509117018543817  0.4951209264586066  0.9163470654506162
  0.9161552253961978  0.0009016386013595  0.2474900444390931
  0.2478714140259517  0.6582872998051653  0.9212382944038116
  0.2561598498870689  0.6656715612810906  0.7436789485380065
  0.6655007673600726  0.5000235993782193  0.3339917387552099
  0.9978897712460952  0.2435733398205924  0.9176553759345906
  0.4121867370408858  0.2516122011302924  0.3327067547180249
  0.2459464158822275  0.7540761045977228  0.0118721782143174
  0.2559433902316804  0.5802074411517806  0.0027908587166681
  0.0900669379885007  0.3327417012184299  0.9191852366542055
  0.1666838694777987  0.6677145742610588  0.6632775182372762
  0.2519491321512938  0.4959201058152729  0.7481758974366015
  0.0782695350845434  0.7567397628759077  0.6627576821471399
  0.8287820112487002  0.0909455352809388  0.2517784498710048
  0.1642166222717707  0.6705255496111263  0.0050435389080392
  0.0781826526156069  0.5762277556679225  0.6688720368294117
  0.2464054857462354  0.8373183282701787  0.9181206181819864
  0.3348414048826316  0.5024639614805962  0.5037823327211061
  0.0766075196943369  0.1652476961193186  0.2500841183464966
  0.9925397282651679  0.4190358927201571  0.4106979654272500
  0.4982056922435726  0.1650657277328261  0.9895999572197762
  0.6646913963994051  0.0801945926989649  0.9090780874473028
  0.9962510799297334  0.9156944292543209  0.7520491829458683
  0.9092494625562884  0.0001341901244223  0.4265450239091984
  0.6679471353278233  0.1693138444799457  0.9989662119960631
  0.6648854624463201  0.0842648622695860  0.2496492526648582
  0.0849063223533202  0.0816348460306092  0.4975257775654476
  0.6681185136975418  0.3328894121944731  0.9987917399307097
  0.5027536959050255  0.1657658207496156  0.1695077000635142
  0.8293595494403659  0.0778129122578329  0.9169550175037208
  0.5822513592893498  0.3320795883220611  0.9078870809978515
  0.9113045792563844  0.9983501939976283  0.7497700337768048
  0.1656303540292018  0.7523862692088703  0.5720958333905771
  0.7560096309879522  0.6653014975572731  0.4183928132161844
  0.9052231727479696  0.0856028161566877  0.4980767115366896
  0.3323787025674921  0.9265229717230166  0.9182541185167782
  0.5022874479992377  0.1668881477870485  0.4938993022613526
  0.3288590265100718  0.0810496224397515  0.5836344417759673
  0.6659785263136402  0.9171324252425760  0.4182957785462529
  0.8268876286781990  0.1619317555656222  0.6641927476024415
  0.4135328232207905  0.5813880925315643  0.1729773175094097
  0.4162903167232668  0.9159101688085628  0.4979949350295458
  0.4133793984937844  0.8392434477812590  0.4189189684431333
  0.4090060156438403  0.0779639056562299  0.9872203160796089
  0.7482149488342958  0.4992565387854070  0.4158695314900135
  0.6665203241615661  0.4217875398253677  0.0871728457517328
  0.3312134326583601  0.8358547742611639  0.0120946501964667
  0.4991009206182903  0.5821218354187132  0.5846035400056727
  0.3185113126498298  0.0829568985828740  0.0855666873811340
  0.9119793659718949  0.2453151070398250  0.8309835111879180
  0.6641799084364028  0.6663473725140455  0.5102329728293877
  0.9086293513644323  0.2519897684979938  0.5046543037257629
  0.4154792354414072  0.7593522158720295  0.1649572170169557
  0.6664979132321701  0.4996130872763240  0.0002597837604051
  0.3230842583184184  0.7556824709266501  0.2516185046390160
  0.3341732909646664  0.7493806398527321  0.9215335439300065
  0.7453435290329156  0.4180064455759531  0.0007320798909152
  0.4943235057687609  0.5873374210342961  0.9066657694872708
  0.5854932531057099  0.6805204943156643  0.9171204736862579
  0.7432219019814733  0.6736637172123779  0.7494379000615710
  0.6618917402808099  0.3326834508257001  0.6622931741794359
  0.2475555668027616  0.9257246908686865  0.8314357777800381
  0.3329258543520606  0.3320932685077377  0.6694286760201859
  0.7431193694629844  0.4956769824494221  0.7484783372758511
  0.5057150341025598  0.0785120842578707  0.5831833779996553
  0.6649737326766740  0.8433406208676379  0.3316542609237137
  0.5837102692025203  0.9984151110141113  0.5826756613553691
  0.7434277846914009  0.2501562434577877  0.4996623611651968
  0.4120203730220737  0.1656519321327088  0.0802247904439569
  0.7467370002974729  0.9993950883730033  0.7491020071564801
  0.8274279443140827  0.4953215275814960  0.0023637777975201
  0.5772956530629038  0.3348026655621233  0.0868286732596565
  0.2514369019227228  0.2521801232276378  0.1657289921115745
  0.6639958903842127  0.7525052141998305  0.2400396006841650
  0.5013002346269989  0.0819538200569342  0.9137500765169838
  0.1682678515299305  0.6673855236760453  0.3339514185145662
  0.5013197980229811  0.2557192744274737  0.5824752577210051
  0.5916952169851131  0.5835637376427139  0.1679893294871501
  0.4172472420372130  0.1692509093810353  0.5861613622000215
  0.6643277166287648  0.9165441035013955  0.2489415586343572
  0.6658275145760987  0.0814476508080430  0.0891538573742159
  0.5862060374012872  0.5848679886651683  0.0002720289647683
  0.4999919761679615  0.9995961176966449  0.1679380857974976
  0.4143021466428685  0.2580348128104765  0.1674047894472656
  0.2474111858973163  0.2505795174739137  0.5012283244382494
  0.1637020024615300  0.5801008739905126  0.9149859362585363
  0.4987286845281648  0.6675877739682174  0.3360885217734613
  0.6659811880736178  0.7533567313665936  0.5806597515367633
  0.2478096810711832  0.9958709940475307  0.5833208112621682
  0.3200668855701238  0.5819896375864303  0.0882391382958829
  0.4284621167406292  0.8346015476332445  0.9165190139977590
  0.4194299565831437  0.5828957941681463  0.6665342355931405
  0.3401786461855619  0.6582782362481886  0.8342036868623376
  0.6663701316263830  0.4190396840152103  0.4164091339839513
  0.3353825501064315  0.7517465467094421  0.5804054517682820
  0.6669442724082878  0.7530374383845141  0.4185135224367649
  0.3303213681804580  0.5849478260717967  0.2526150935532952
  0.3310245904092602  0.4143463046842558  0.0848290703381434
  0.4068991834412264  0.5794409786573177  0.9971966628160298
  0.4144751238577873  0.6674292691303793  0.2581000877318937
  0.2492450947547374  0.7479718078824990  0.8332333682223355
  0.9082519438694197  0.0914681616771217  0.3318715355391266
  0.3372457642443589  0.6676534270380642  0.4987481355834102
  0.0872842816603894  0.4167135367320989  0.0031121825581098
  0.5006510539861838  0.0815261633593284  0.4157436975442674
  0.1611427151202365  0.1652715875222319  0.1698412374805444
  0.9106647372677299  0.4177797854993621  0.1724199092640143
  0.1587737358560673  0.2556110821556499  0.0768228007637427
  0.2509745737991627  0.2513581945779256  0.3323537322973213
  0.0781077837121927  0.0841215092270292  0.8333750708925982
  0.0723806314389719  0.2498956061838933  0.3294176945633371
  0.9947739101111506  0.2477748713688832  0.7383107351698260
  0.9995838023101878  0.3310083982191925  0.0078099573823930
  0.4138777956902858  0.7546015624564537  0.3422453338674260
  0.3293859220847801  0.4123043108009263  0.9146803850560847
  0.0779640615882739  0.5009047504618348  0.4119362488178980
  0.0796490436212932  0.5885681151459899  0.4988544494175872
  0.0766592401274785  0.7563754587112009  0.0051266229709887
  0.0781790256080067  0.5767954308375320  0.3323368581078882
  0.9110246783450165  0.6671353355031449  0.2499196745751550
  0.0778611438443364  0.6664164084502061  0.0929984817602769
  0.0759098436411810  0.4178634030404609  0.6678147406386021
  0.0821773207516462  0.4992847456585744  0.9174169204010439
  0.9976123106610195  0.5014039436613679  0.8327713652129369
  0.1599442121073944  0.5841102364592251  0.5828575033458757
  0.0790521237561023  0.5007306260207576  0.5878876719024015
  0.9115120549604019  0.6678107071590037  0.0866779430839812
  0.9927427573543848  0.5849283826224657  0.4162732721850610
  0.9941885444196976  0.5838639169798159  0.5829381413750856
  0.0799517047219390  0.5810259896436227  0.8329330457064368
  0.0801545994128238  0.5828236666491087  0.1699593219757170
  0.1681983701760040  0.5014154594159029  0.4998253464563347
  0.3323390935393774  0.5015289628647737  0.3266328339610022
  0.9956215557598983  0.9175996666474940  0.0834450206418122
  0.1655657075206910  0.9176932008299679  0.4171224627470203
  0.0795178161640327  0.6667469539313546  0.2463879337657643
  0.0810586292711096  0.4170014697498587  0.8327156719006732
  0.9110000010194643  0.3348451924426130  0.0870082518030232
  0.1657239814185004  0.5768541342688125  0.7500981982326421
  0.1649031514994121  0.7515756437664824  0.2509646949075863
  0.1640429281328793  0.0005788057504094  0.9990028182201079
  0.9961188380603287  0.9207928407203382  0.2487549727629435
  0.2482349041559596  0.4150757708695131  0.8308776307929520
  0.9950562890315374  0.8357431002228718  0.0016252386878621
  0.1644066187639991  0.4982689015694244  0.8326928314564676
  0.0817553480163036  0.9242626719463796  0.3340012461349110
  0.1631864576818631  0.5837747088980486  0.2506814314493714
  0.0811374079886222  0.8344522051745117  0.4227434091365156
  0.2466127123906134  0.5829920289964629  0.1719909415641375
  0.5824443561493197  0.9983368872016026  0.0835901397770061
  0.9936260432403902  0.6664792205077397  0.1683939646574525
  0.3330170278449959  0.9164026545559998  0.5828465513897674
  0.2501488227307538  0.9183719264869997  0.6636510807071837
  0.4144921014632710  0.3351556308413050  0.2515000757050995
  0.5009296072413691  0.9978023487833345  0.9988198327013695
  0.5835411538483312  0.0806781682254956  0.6675723207111252
  0.2487616784108275  0.8344170180748870  0.4183360179411089
  0.3338764840944279  0.9168937432185326  0.7413500313347198
  0.2448935793754647  0.9151171246026379  0.0089537305311557
  0.4179436907471081  0.9167582684014995  0.9997377745311078
  0.9941024851314739  0.8350431311456480  0.1616568998128154
  0.0801764808710126  0.7509216239412588  0.1687152771600238
  0.9950310450114451  0.5838413481483643  0.0873573097008376
  0.0794579754322977  0.9202207368558387  0.1669630470046649
  0.9939755843313575  0.5029115210059378  0.1704615697959069
  0.9963072800421573  0.9160889393674155  0.4174364758130920
  0.0798350482777044  0.4999179404663496  0.0885488197170020
  0.9949344017738236  0.8354353523624317  0.6657782092305967
  0.9960479456155045  0.9978496648559658  0.6726522509851547
  0.4180466629325768  0.2510046980578500  0.6689183970827443
  0.5926140550697465  0.1654647161949438  0.5817754960356352
  0.6644960714617459  0.3349783461312363  0.4985317303226977
  0.5841655714404052  0.1653966130693187  0.7496075550860558
  0.5838523975858849  0.2498928746357233  0.6652960886317757
  0.4986455841830513  0.2508390202264580  0.9113065053606778
  0.5834534427354984  0.1658575551805738  0.9131093611175954
  0.5839080479847368  0.2486528769401794  0.8313350623918041
  0.4963891706528030  0.2550456963998300  0.0848016287393950
  0.5020306662592547  0.0815053288967239  0.7500021373817409
  0.5010518792952121  0.9988146850378041  0.6666906637112289
  0.6652397686268098  0.0803110142640545  0.5830543300975118
  0.4187353219663942  0.0829057837715764  0.4962703435995865
  0.3285829463167925  0.8368291926830849  0.3349913245640583
  0.3301547349270098  0.9178349675531386  0.4163332145178374
  0.3333008664534043  0.8350843141084942  0.5006524178106503
  0.4145660831575414  0.9192362184217647  0.3356295209743356
  0.4173988531669546  0.8351167851731351  0.5822665147131558
  0.0782433032346497  0.9180152736941524  0.0026313561339850
  0.5830362135103849  0.4210239540527212  0.9986470801360435
  0.1635672448353186  0.8425356375921215  0.6638837506935820
  0.0813778909890407  0.1732433356039214  0.5837615757910015
  0.9955640261643550  0.0802798599772239  0.9190384309199374
  0.9123410350984671  0.1555675525510610  0.9158801005502981
  0.0778315282093322  0.0021123219068539  0.9185759341254266
  0.9912424245669154  0.3335742049115155  0.1713645205580051
  0.0757365539716390  0.3378814381325372  0.0983736108309858
  0.1680319724554788  0.4936019907285989  0.0021767857503615
  0.0774300397268599  0.2383146474062870  0.9979634858756741
  0.9919539123334807  0.5017765271457310  0.3313996397521657
  0.9955166499907523  0.2483316874583918  0.0866011819472933
  0.0779621921206563  0.4206863695175930  0.1720730419950108
  0.9104367005794458  0.2485584956104863  0.3335989927714531
  0.9928342822799129  0.3341520875332871  0.3266578978465380
  0.0782849597114863  0.2506974715427567  0.5005860587119179
  0.1648008949392993  0.1668974766116306  0.6673811124536291
  0.0808109535618741  0.1659457032396835  0.7495795097792689
  0.9954046073453867  0.1636267827470377  0.6666144358379257
  0.1571282568482216  0.4185917103345064  0.4157938935252912
  0.0779236995097784  0.5013478356120793  0.2504407927687485
  0.5018967865248852  0.2514043671545654  0.7495881291276562
  0.4185283732700704  0.4992507838693111  0.5846337381673316
  0.6649149424655247  0.9942631530205464  0.9997916879568696
  0.1661119679745577  0.3336657299402966  0.8321009292015056
  0.6658190218423902  0.3350359953200026  0.3332364908938568
  0.1654418987355515  0.5815667797994054  0.0929535788411584
  0.5823486425956107  0.2498488219648157  0.1669593154216724
  0.2485882983708699  0.4963107954097544  0.0872379625335053
  0.5028804354668076  0.2511399411499045  0.4185449761818188
  0.2470069683389901  0.5008371077344734  0.2499158714174638
  0.5836883580156684  0.0809589227189046  0.4979092694398621
  0.1634733483973665  0.5014058621105097  0.3321722699548452
  0.4918810822580826  0.3339865630307552  0.9983283641535661
  0.2471183102319159  0.5852289375947892  0.3332345800008673
  0.5044082111233448  0.9983697116056715  0.8287862098999113
  0.1663025863260559  0.5011010888702557  0.6664605513290263
  0.0810350980982785  0.9164336157571735  0.4991915033965287
  0.0821528855495381  0.3342355864402234  0.4160690477715891
  0.9949625976138633  0.1653449524953859  0.3310774648253442
  0.9912279506319331  0.2499108661094106  0.2505339402126854
  0.9108159530989525  0.0808475980107483  0.6657588668118922
  0.0819026359272310  0.3321658938367005  0.7489274414899605
  0.9957882598682555  0.5056995010956481  0.0033284086000288
  0.0797351427603773  0.1620254999579900  0.9160595595182423
  0.9937623736986282  0.7502181857222180  0.4179298248813633
  0.9926835187838158  0.6671608308924530  0.4994921822146405
  0.9951932133809408  0.7453410418878880  0.2494398264630098
  0.9125867688432869  0.6668834552188921  0.5827396555369636
  0.9950287576538245  0.7528281773757707  0.5801029769466113
  0.0781109311574649  0.7528699821208377  0.4982530378401863
  0.9901811190719702  0.6663339928518972  0.6655159108787735
  0.9942484189283132  0.7513041544965160  0.0858417930089624
  0.0787070479853205  0.0823243447879501  0.0008240803790471
  0.9117403404644456  0.0808624287241044  0.0017221367085728
  0.9130945589813255  0.1647867958539044  0.0848456856090002
  0.0729482751334700  0.1640110505056747  0.0852296431547542
  0.9955156234538524  0.2489392968407712  0.5876793998611584
  0.8262135091601471  0.0830116344544911  0.5820285577580293
  0.9938731003526263  0.1748838508299091  0.5012055876423752
  0.2469050862519705  0.9996444138094941  0.2506395002417798
  0.0775180028006286  0.9991374558506265  0.7522562396419596
  0.1617273940560268  0.0004781543383677  0.1682819462909831
  0.0799614450330608  0.1666261925749596  0.4167316295511868
  0.0018818231091304  0.0006756415116039  0.3344581115790404
  0.6651423697749456  0.5836866004437733  0.2525815130609146
  0.0820980904130989  0.9994822299298178  0.4176169129182262
  0.2481582166272279  0.3318912330916217  0.5836536682315929
  0.0816183969007143  0.2491011378106362  0.6670636349180504
  0.1612155557503793  0.0824160531569382  0.2496782323756186
  0.9947806051473322  0.0805312075216106  0.7486349726861040
  0.9114416183927682  0.1683386276833838  0.2495767198407909
  0.1625308818641779  0.0841800870773096  0.9154466877830624
  0.9956550760683921  0.0857643366747427  0.4098045270010899
  0.0807461925064056  0.0821949451275140  0.6731278048611594
  0.9903518890600385  0.6671840488576180  0.3335490643873461
  0.4999198668956595  0.4979884690135148  0.6651653088832822
  0.5822662543047626  0.4144863800812082  0.6650849798645779
  0.4150428477640491  0.4141943630563126  0.8295932637371609
  0.4174096918144446  0.0801036686324330  0.3333108499331917
  0.4184200320282478  0.7506842415994327  0.6650526978352073
  0.5015097490022010  0.8355131741695077  0.0024873723928450
  0.5804447137763370  0.7514146536667645  0.5070305850115876
  0.4977637476527689  0.3364176948177780  0.1683207565384175
  0.4992840266755583  0.6682812913635743  0.6653402229643985
  0.3292341944716493  0.6690890330388167  0.0053020960192515