 C Cr Ni 
 1.0000000000000000
    21.1200000000000010    0.0000000000000000    0.0000000000000000
     0.0000000000000000   21.1200000000000010    0.0000000000000000
     0.0000000000000000    0.0000000000000000   21.1200000000000010
 C   Cr  Ni 
  69 259 605
Direct
  0.3372468467260623  0.7420587128704471  0.8261211434479202
  0.6659576391411111  0.0831427947287996  0.5008942830043274
  0.2414183425462360  0.3293100805925798  0.5026591363642574
  0.4101780387604523  0.0790662131122692  0.0891820870061937
  0.2427657977561268  0.7481392664822820  0.9190220355403635
  0.1618655761813624  0.4941272696837753  0.9131715907229926
  0.8283064564798012  0.0005475933447635  0.2503183488243684
  0.4987061504672538  0.4157999190471838  0.1676422023637443
  0.2403515539096610  0.8395017255352439  0.0112508136570794
  0.0824414649583259  0.6689988626016019  0.3349345268189116
  0.5805993830424283  0.5882687536539418  0.0936124312122490
  0.9922019388143039  0.0823891061804571  0.4961428247800371
  0.5048389104676105  0.0781892634198373  0.9972689240854418
  0.3330145274710068  0.5043677448403527  0.4088991803245576
  0.4242276470186441  0.5057861207151312  0.5040565206673379
  0.4089439802565211  0.1741584770589011  0.6682585098176407
  0.3398977670166973  0.7425701422623781  0.0130982016933358
  0.4965974256810722  0.4954501281942760  0.9071943783247578
  0.0803234002298054  0.0742507156391832  0.9161536515543579
  0.2405675216527942  0.5116545648953549  0.5046742611690460
  0.1538117617240680  0.1623169213777144  0.0799495549428280
  0.1695973607309837  0.6690186914501327  0.7499549070266081
  0.4994486792217487  0.9183222684886768  0.1688122940067907
  0.6703963964862660  0.4112521497528743  0.9993191287731658
  0.1569547749013203  0.5844858896627857  0.0040343106943143
  0.8289065548486587  0.0799495598226243  0.8326066684914595
  0.5810986262092255  0.0820003722484904  0.2504917793022282
  0.5030323145757434  0.0803826248800316  0.6699200252509773
  0.5036351807466357  0.1727893522070822  0.0921204375643517
  0.9081186518272504  0.3291168233041435  0.4983408842659984
  0.9123323616571311  0.4173052919587954  0.2526635922751189
  0.5864072699588810  0.5915750957482575  0.9082954163370368
  0.7501849077801193  0.8346209218094657  0.9971346608847086
  0.4928037408993018  0.5913486978561315  0.0026403248690466
  0.3377982392631607  0.9292084903886532  0.8267357963154822
  0.2496401691272562  0.1623024905659475  0.1716788043387728
  0.1581987391372088  0.2543795442674613  0.1708564663484466
  0.4124008108370704  0.1731744852998907  0.9971982215423913
  0.6644654573986867  0.5000921598428067  0.4175406609359727
  0.0775369997957775  0.6677127180455030  0.6628890376225526
  0.3998450967580919  0.5937901724136082  0.9033048005975071
  0.9976510864722044  0.3368180963206408  0.9204190041922971
  0.9072137166053775  0.3372045129066028  0.8258958959518186
  0.2481452110491591  0.9168452606365850  0.5820256373459121
  0.0003334756574585  0.2444439503258448  0.8266781065209202
  0.9075224386579676  0.4217861918320205  0.5868347606464769
  0.0803814053799569  0.0832309981495907  0.5864396603719251
  0.4228395189984683  0.6607571560227796  0.1535426102189492
  0.8308837406367219  0.5866846847443202  0.9999993088657817
  0.3333723366993599  0.4166464901690610  0.5005332912589241
  0.3371781483101665  0.3293575638956642  0.5917570158121972
  0.4161918659443127  0.7545743501532332  0.2529963784090185
  0.5032278334253801  0.1714673324974683  0.9071024005089344
  0.5853414067295304  0.4989434463510036  0.0017778727148544
  0.4033764073146641  0.4935890487186488  0.0012269406660501
  0.9069473539868733  0.2442843594255559  0.9208863702200039
  0.9926160077934487  0.6683676458055605  0.9145526618994227
  0.3390383361146245  0.8386494143553989  0.9204338231483288
  0.3244964387310201  0.0821199181746120  0.4935422144536737
  0.9992926384376754  0.4200626801036456  0.4983009258533986
  0.2467102147213240  0.2442891037121399  0.4118011622758235
  0.2354756774781792  0.6034369545360077  0.4028066067436733
  0.2423581954015291  0.1611145243972551  0.9878920448792147
  0.2403863012866471  0.8389815298874966  0.8243022255796513
  0.4125162721472603  0.0777223116103813  0.5814306576636074
  0.3187419561320974  0.7450639859181259  0.3469241925587958
  0.5042868270092183  0.1722363222981584  0.5777476718087957
  0.0938248674054844  0.2410818773188697  0.9301627569995158
  0.4032740722196513  0.0737645297998847  0.9024663359366136
  0.0814102668481972  0.0814770235320968  0.4958801552492141
  0.6668783841522379  0.3237638277218081  0.0032610512767935
  0.9955325065545179  0.9163174776261515  0.7490530646839486
  0.9108275147583553  0.9965270002574911  0.5833983958749215
  0.8279090843232159  0.0805609748152655  0.9229990052901195
  0.5862655528128429  0.3327725561284777  0.9141762608945555
  0.9177308665084624  0.0778608696550114  0.8295596553873020
  0.5014823999898237  0.1700840927076806  0.9986868271926357
  0.6677302215218348  0.1667954799096073  0.8304061913721438
  0.2488521288856262  0.8280770515719542  0.5851924920986533
  0.6670220294187857  0.1672049115804506  0.0009917012550398
  0.6719365062155873  0.0843895214784175  0.2523014774962341
  0.5826014279154782  0.1713846502843465  0.2529010219344670
  0.4132660372100214  0.7511288038748219  0.3422946084001183
  0.9044841447398970  0.0821059856723591  0.5000750552359019
  0.3311816745858163  0.9267023797863548  0.9192669369613333
  0.4999311115040125  0.1666924711244278  0.4889981542114494
  0.3232602422273316  0.0836350607290492  0.5831282048637485
  0.6664811254489511  0.0829793344208862  0.4122279917448753
  0.8272120280230513  0.1643578661680551  0.6629750277279840
  0.7486614095927510  0.2491414712980012  0.1686968467008315
  0.8305337855563543  0.9988284997911392  0.3395615010261438
  0.5038006607579097  0.2571699524063984  0.7488854219042175
  0.4165231607051724  0.0816811787102704  0.4919742259052165
  0.5885839565692906  0.9960106126663681  0.7503641806869188
  0.9932894347827109  0.1551978690920989  0.8268119669258862
  0.9919219124888683  0.9141104908663319  0.9175605719465518
  0.9951599929615235  0.5094552752463863  0.4995354368117292
  0.6667574365004248  0.3294761158844728  0.1689305456658248
  0.0765389591111382  0.1644784669079772  0.2531534923891874
  0.3334038431401147  0.5052354678347951  0.4994350412692315
  0.2450945371848694  0.8382261533920793  0.9186872035187940
  0.1624058690900360  0.4946146767719677  0.0040560235452865
  0.1551286664303662  0.1747026753071207  0.9912431744906196
  0.1606635896085417  0.6671706105493063  0.1678740606308813
  0.8308046299968166  0.1671873214318675  0.3351193470966322
  0.7479157846360740  0.3310268036541732  0.2503927470615818
  0.4126625043750565  0.1668981114031524  0.9077503688129354
  0.4097730476053840  0.9190676377767852  0.1700894116316583
  0.2490266965394648  0.5998755415807764  0.4969142195643149
  0.4953127670101282  0.4987402927122745  0.9990683182810028
  0.8187060983416669  0.2471939398656712  0.9155793768615449
  0.9096606968351808  0.4189965954534471  0.4980490615784385
  0.2442184144314240  0.9142366361487297  0.4926420078629913
  0.9114194614686433  0.4185125318261618  0.3408918912731511
  0.8263272012408579  0.1703596705804107  0.8288289299824940
  0.9177627340459297  0.9976521262328368  0.2508981132688337
  0.0863030138388673  0.3327236033981446  0.9184835999307597
  0.1678517046342599  0.6682943208071385  0.6613977684372613
  0.2476109886402956  0.4993135044565345  0.7460966478215052
  0.0779626720131804  0.7581572020057943  0.6644810381130761
  0.8308213049651862  0.0899259631057600  0.2509416198627386
  0.1620174109770543  0.5818819573781187  0.0937326473404981
  0.0790604055078648  0.5773065923655560  0.6657391160823863
  0.1573399066606768  0.6737569572515951  0.0030056624436228
  0.2589875620001596  0.6674804627164163  0.7514074306966277
  0.6667430089822542  0.5000990656073632  0.3277957926161118
  0.9982879157415853  0.2468661914599927  0.9175580692541710
  0.4169427663734582  0.2516297897982680  0.3321627575217725
  0.2447322349774443  0.7488757315215003  0.0084660461992596
  0.2419889835707482  0.6593545793831446  0.9140976881793683
  0.4144593874722832  0.9891221367156295  0.0856277181588990
  0.9085230035593699  0.2449691627419962  0.8297507324920712
  0.5841579256208091  0.3302567483082214  0.2524705753539137
  0.9959788971930248  0.2505054960766070  0.5876743278039555
  0.1613074438726266  0.5839100066084738  0.9138686638862418
  0.5061766620617226  0.7524370992447353  0.2545584305945749
  0.6681788277813130  0.4151244851664951  0.0920220679827297
  0.7544321694823346  0.5023218921600628  0.4170122199072940
  0.4136937358786377  0.0815594586766642  0.9975968678238673
  0.4147324395824507  0.9167556813066482  0.3386908474840525
  0.4133877806848271  0.9945718530179914  0.4136117203406200
  0.4125900947384724  0.5738724900891485  0.1709318326891058
  0.6645818913258476  0.5909073202394859  0.4185506321752694
  0.3338374442018443  0.6678163407117716  0.6635311897554163
  0.5845439263171838  0.8329968805980333  0.4190498039410904
  0.3294576609254347  0.6660168268834835  0.1702387630561501
  0.3292804132226504  0.4132901790936979  0.0840649237265038
  0.4050575719718710  0.5833636605889700  0.9970009331931201
  0.4168581033412442  0.6639564521793181  0.2504297856870751
  0.6661601610829614  0.6699918622169713  0.5022566896090628
  0.6663490082479600  0.7499239866566556  0.5810526369272069
  0.2444687112315742  0.9979082993667471  0.4154702636479781
  0.2441565470106150  0.4978086485714687  0.0894291622513787
  0.4265470136158299  0.9162745207994316  0.8298814499876040
  0.3326909985640971  0.4203788831698820  0.5908316227107567
  0.5768623319946869  0.0793014196074233  0.4944009988486079
  0.3372566221875072  0.6534188035408417  0.8408737532301263
  0.1589422124761901  0.1648005790936178  0.1704753245310804
  0.7451623006695617  0.4199109180560401  0.5006238366082238
  0.3351075587061167  0.6705138287808931  0.5016498840757349
  0.2471818607366762  0.7491176737872319  0.8296485904474205
  0.2575985518102608  0.6897361589031874  0.4130759399995395
  0.9927012289950899  0.3362603031587689  0.0111498377661862
  0.6668663073552388  0.8315136817297107  0.6643321253663416
  0.3315600629959599  0.8357423237315637  0.0090743404044440
  0.4127894079436423  0.1695609474928746  0.0874114405296000
  0.5828495005050237  0.5883584348928349  0.0018262380780816
  0.4176120727117096  0.7518266719483895  0.1638410284950180
  0.6743579023273852  0.5010614118649734  0.0019273962736192
  0.3256041352973760  0.7513970429669856  0.2493419921907271
  0.3327877375397318  0.7497855739383721  0.9194562644861444
  0.8294863177206888  0.4969524821419065  0.0020037303162676
  0.4954706292372867  0.5868608156406889  0.9113522598560376
  0.5845050436087053  0.6805668750557214  0.9146126441688598
  0.7466375309281783  0.6688912706974868  0.7474877588149977
  0.5850035793529802  0.3358191358443670  0.5819391565335582
  0.2468124491189441  0.9274785580559183  0.8318163644876302
  0.3301827491460261  0.3344010288837140  0.6788113495203950
  0.9108537688486260  0.5032680281646879  0.7487123694274153
  0.4129407876959991  0.0831889706733060  0.6708793225869166
  0.8317383437656936  0.7525123654113539  0.2523418275927723
  0.6664239944586359  0.0808383736854006  0.5889340431591187
  0.9113284905501772  0.5008115648250969  0.0859555862686627
  0.5806289175801513  0.4091691240434237  0.9998437390147353
  0.2489807284911533  0.2532606344610465  0.1701995645021675
  0.5897180765553108  0.9164693215145165  0.1690203440320048
  0.5004181603875042  0.0813904057559815  0.9083893322457186
  0.1737412986147883  0.6606834077462039  0.3419475136446843
  0.5015572194459046  0.1706632367631929  0.6683594574268337
  0.5856010479337088  0.5850168623564275  0.1800413783298838
  0.4134391028858093  0.1692442114912642  0.5786785767181309
  0.7397197317273724  0.0000637351660148  0.2510188205334152
  0.2431627648312038  0.2412232066377837  0.5007066359093927
  0.8309275802194385  0.8332549163902683  0.5006154272056076
  0.5872215525744879  0.9931677575276113  0.2532722002555955
  0.5948621737408936  0.0821539071652670  0.9992580243642746
  0.7458147120311677  0.2502994786354979  0.4989376152549429
  0.7479698507668895  0.2492483041768009  0.3337005850920972
  0.9121819596844204  0.3267845766927569  0.2519842269918898
  0.0780420500927754  0.5011638173201960  0.7483516336235155
  0.3318339638704764  0.1725416245611181  0.4968163967307692
  0.3318925015981724  0.4150246551692373  0.2501458763059661
  0.5824018735748009  0.3323700304477901  0.4155407143848693
  0.9203177927415639  0.5832840646477951  0.0007911865325859
  0.8292155359813976  0.9147445008201651  0.7474436211059422
  0.4110049350025087  0.3341535661789178  0.9108081905021709
  0.2449460602229115  0.1660107048289011  0.0815245042772246
  0.2428432811506477  0.5060210390422617  0.4139317147117552
  0.6654511576003759  0.9967624664681309  0.8312301042186953
  0.8305227953006488  0.9109708297054167  0.2513277878204372
  0.6662848020306705  0.8331565892809879  0.8301340768456360
  0.5017712512217363  0.0822528317683683  0.0866262655594254
  0.3337227583004618  0.8365583180340833  0.8303777927232731
  0.1617094631959656  0.3425409189529656  0.1704983485177772
  0.4227154863084223  0.5021448645252393  0.4123478543774279
  0.9942703467713636  0.7580942358453664  0.9165358273344805
  0.4164561225454088  0.6681976745643363  0.4159203802054307
  0.9126282398879791  0.9157914688825872  0.3344814202570616
  0.1534823582451040  0.7503268488586565  0.9184595206587780
  0.8308356943789528  0.9147599040844906  0.5822008929453283
  0.8318125568552476  0.6762301877831824  0.0014651404625688
  0.2468130389013927  0.0002625497313976  0.7490865204378321
  0.0786169528476803  0.6687069715155748  0.7520206519396440
  0.9110297793108777  0.6692150639593321  0.7478733010935437
  0.3318727266610237  0.5954642188735269  0.4125861186170218
  0.5848761386638897  0.8335634257799253  0.2546024349344217
  0.9119608413094475  0.8340476154984936  0.9141848247087222
  0.5101687056700088  0.6727616423676172  0.1740320091902286
  0.9130990671981394  0.9164854151004620  0.1687875848698061
  0.0782685296779743  0.6695238374972758  0.5745622113868193
  0.0782560837117251  0.4182479799349087  0.3328582242343373
  0.0751773209287108  0.9873031930711426  0.9175402163845805
  0.2477969428519714  0.2505203258117463  0.3246379723749310
  0.9111639000905507  0.7511554832862070  0.6657702794124560
  0.9944017840604907  0.8324542856870174  0.3347637844001031
  0.4116497528732432  0.0800635138837412  0.1783627836025965
  0.1607280560832542  0.9969331304851444  0.3348653849231040
  0.5011745560484200  0.7523346973576367  0.7456006015522241
  0.0771565617278361  0.5796603406853302  0.3320922248368405
  0.1580668396669000  0.9964677438037787  0.1691857582553221
  0.4203659350052691  0.5821039468822035  0.8162843890908916
  0.1577323153831600  0.9972782637211430  0.0017664498758358
  0.1576129325924661  0.8350148502689881  0.1700566442265707
  0.5853843631889883  0.5017060237451489  0.9110123933804821
  0.7469572659080891  0.5017853462343834  0.7474362117263794
  0.0776309994748188  0.6701570460826157  0.4242913498430126
  0.9123803760356299  0.0829606204823795  0.3323173546771056
  0.1685459577058723  0.0826616267804587  0.5849611617134197
  0.5025381276021335  0.7546513245670925  0.0864880183732765
  0.9946683376461208  0.9146293216331588  0.5829097933351668
  0.9946375436569399  0.8342673112785314  0.4998795727972496
  0.3294306473510203  0.9954097962758248  0.3344844916777772
  0.5820428874747178  0.9973201525544304  0.4183931757516852
  0.0785826981823521  0.9939714147364900  0.7488908433089371
  0.1623293032697010  0.2541271662198393  0.0804107608220028
  0.4084061623004798  0.4992967997556069  0.9106019591253414
  0.3308645466197287  0.6593588157196538  0.3242268075990095
  0.3318627312905534  0.3350099905680865  0.8295325219910529
  0.9952128742844840  0.2487503424260051  0.7378385644186054
  0.9941154889575804  0.2517315592961044  0.2507577014556736
  0.9982366587288650  0.3333692928173752  0.6663779409294113
  0.6689004190463621  0.7533035381413445  0.0864319817647334
  0.7488206325619372  0.8321304212389068  0.0876260474593554
  0.8281239122471696  0.4173946956563817  0.9145437670587414
  0.0775663726638366  0.9917502471993640  0.5843951824289830
  0.9908281165225118  0.0794668455984155  0.5855957401139764
  0.9945541028324802  0.0815951526987615  0.4078001827577249
  0.1562891287661891  0.1635274219413740  0.3313328789258235
  0.9138430989151352  0.1637168444723175  0.0841839441906523
  0.9075088215701528  0.3353271787223672  0.9165580796634948
  0.0795057833123169  0.7581321449941633  0.3350794474494418
  0.9969549519094172  0.2482500780496417  0.4156905150734669
  0.9986324886996353  0.3292229998430383  0.5010682092194269
  0.5881135418168972  0.9165364373494529  0.9994440405514536
  0.8397633882325859  0.8310703938454276  0.0003354334669743
  0.9937936369692025  0.6689037794188163  0.0051459832345382
  0.9144047269689896  0.7505571005616374  0.0026004855607227
  0.9106559490773766  0.6694078551306172  0.5832272733696785
  0.7456108895785856  0.2497483525025916  0.6645988562287310
  0.9113864825244782  0.3302837875303030  0.5889114414682360
  0.5021111097173701  0.5859958003642564  0.7434199158139995
  0.7488268709465513  0.5851362012801784  0.1715179360668585
  0.8185867384152733  0.3340026556044274  0.8305008666553403
  0.2439970263429686  0.1662289475936133  0.7516822598835614
  0.1617110939352527  0.6670593433209677  0.8382515105569058
  0.3309334848890673  0.4136272007992855  0.4108324072804986
  0.9103216594589376  0.3348359511164003  0.0850233876915243
  0.7464569902396904  0.6703949364789606  0.5823630296450487
  0.9980812143286767  0.4170020517911379  0.5891434999672948
  0.0021015296133101  0.4178532490135994  0.2516029372730304
  0.1614572100932066  0.4968738520452443  0.1662756811617394
  0.9970042904371985  0.5843990670193675  0.2517012624864595
  0.0665593149689593  0.5831790592838836  0.0028691623301305
  0.2487847583873903  0.4996406778392007  0.5921378301438192
  0.7490437820926700  0.9991162306006521  0.0842462894793470
  0.9949314866060501  0.4248366013605772  0.9156516315705044
  0.1609803655483184  0.4188450321986303  0.4140894970764342
  0.9971616338032749  0.3348946512447420  0.8284189346013382
  0.5024138017465825  0.0811058968596051  0.5798154519222530
  0.9939537864196288  0.5791239359801205  0.9151362879537619
  0.9110282947321845  0.6679541912027737  0.4166220989928138
  0.2419443519708173  0.4192149124423319  0.5003504094020867
  0.8309083101629728  0.0000151946224137  0.1607549263069055
  0.2445608261634927  0.3361927002998732  0.4114153364949474
  0.5846419183332512  0.3331007766508890  0.7484612402061658
  0.0781436460797865  0.6669567859071869  0.2452025035298019
  0.8319833030632727  0.5838104826133087  0.0906055648999277
  0.5817207712628755  0.5028672095357147  0.5853932003974300
  0.8304379276531486  0.4174997704017990  0.0868681148305928
  0.8273095602207837  0.5846517714462676  0.9098449215624452
  0.5014490819847895  0.7525881463679955  0.5825087426396341
  0.6675134456990315  0.6687093275805226  0.3372742677515218
  0.9108149332865491  0.3303261899536259  0.7374086921755036
  0.5122408005023755  0.5021108026688528  0.5022433042052790
  0.7451288540404333  0.2489071291232401  0.8304898672448077
  0.8295727621934067  0.5865837659701637  0.2506943737722861
  0.4893931232090468  0.5975411300656245  0.0938729454519801
  0.7421608960662318  0.5886625123923133  0.0017289123355056
  0.9132401494596007  0.7509424496354499  0.1692871897031151
  0.5032285944855368  0.9904967762293336  0.6664400017971583
  0.3322219886926029  0.3285040928991469  0.5017099026388533
  0.1619777951632221  0.3331740199958402  0.6681851866905156
  0.7547623360555653  0.0807039881728406  0.5002102111721675
  0.5052240824984887  0.7547559387210347  0.9135956916001001
  0.8301052237858084  0.5861389138954380  0.4181594996412646
  0.3392830190066294  0.0169287855439424  0.8405068880225561
  0.2462041401266448  0.2556275856105892  0.0006920610954809
  0.4237554658137277  0.4153912178249939  0.4991187158802091
  0.6646118300700217  0.3350820759835304  0.6645500070966724
  0.6662104611578019  0.4139572645780894  0.2508657388250128
  0.6651643688102078  0.4127923958110644  0.4156752164673674
  0.7494501546895517  0.9969909819730481  0.5828280171643352
  0.7425284687019520  0.0811082028963091  0.8309569446478733
  0.5834805336699144  0.9973122430106014  0.5821775566165248
  0.7487301290816416  0.9984810708510613  0.4178707527897940
  0.5897021814780274  0.1672130312607730  0.0839214524828560
  0.5077968431456871  0.9155858198395258  0.9154338375624989
  0.7451505243083127  0.4194424311783973  0.6667607168932075
  0.5881556612345710  0.0823009382529837  0.8320143704386830
  0.7481892032700675  0.1662273731548039  0.0842341907265129
  0.6670105779301791  0.0818703531621269  0.7479997549642146
  0.7481294018364082  0.1679817541272808  0.2517136603110732
  0.6671468908539627  0.1676842188347305  0.1691981256251811
  0.7496999754994729  0.3310204645347787  0.0867572021343987
  0.6678291832509576  0.2488258482417826  0.9159415896214097
  0.4962679960495263  0.1650921224848589  0.1774928845700837
  0.8284538865278948  0.5018414772248969  0.8303979729488555
  0.8316154540342187  0.9148242292638481  0.0849706871962421
  0.6692001492224321  0.5855607792301797  0.0880498902606515
  0.7472463260829819  0.9970399447720243  0.7485342999121382
  0.7461466015770689  0.3336824688726244  0.9188621449516602
  0.6676460986306003  0.0813379785748401  0.9152219197910637
  0.6661390756302498  0.9941557371193993  0.4997167594431011
  0.5863205490150509  0.9990215523090585  0.9144653360368327
  0.5858358466456449  0.0832226303681131  0.1636858657636196
  0.7490207845509587  0.4155287493299383  0.1695929844779214
  0.8267932207262856  0.4186676585685775  0.7476916247339052
  0.5839465627045000  0.8324637057196473  0.5823584125582365
  0.7484858398694694  0.9140940072140959  0.5003399667972690
  0.4172616398586587  0.9970672911640849  0.7474756730743165
  0.6671145323836020  0.1678678988510754  0.6645517322702432
  0.5861504562593914  0.4152392035742448  0.1706439549147266
  0.6654750475105493  0.2509014690204659  0.7472489025198195
  0.5847924977236393  0.8331428872582896  0.7464752958287521
  0.6657634323784679  0.1717061678648484  0.4977066095909706
  0.7447683107232649  0.3330124148269186  0.5821038925652740
  0.6654492228351286  0.2517242002155954  0.5814495584738618
  0.7468975399952791  0.1660681322157677  0.5820787380718330
  0.6655991125382106  0.9148034032276917  0.4178216518063201
  0.6656181946236220  0.2514509309598145  0.4159355743413664
  0.6663151777793528  0.9973163159355638  0.3367368348691165
  0.4995947935563985  0.9966907118238565  0.3352613810099508
  0.8302600288714352  0.3313991233026318  0.1695214962960927
  0.5012380321743849  0.8340715691498690  0.4991996471950301
  0.8263506175953884  0.2493513770451727  0.5831636188027035
  0.7468684525194351  0.0822918920697276  0.0014039529995036
  0.6668016744867574  0.9960432360472867  0.6653885738888764
  0.6663696835181541  0.2491367504489563  0.0861201352690568
  0.5037526692667808  0.9153782600788700  0.7481693046953862
  0.5858136726334550  0.9144512993664500  0.8311805522220437
  0.6664553392013657  0.1682705041933913  0.3345806189036460
  0.4988565957192543  0.3294750905509121  0.1705935470000535
  0.7497619073484292  0.2484473438373600  0.0031559370623493
  0.5827713544872077  0.0818237665739465  0.3390239091252810
  0.7478350607487282  0.9985822183797302  0.9160578767173496
  0.8217905289358314  0.3336822327914351  0.4999661414038366
  0.7461463260846708  0.4196025830274073  0.8305645143319751
  0.9937895989499205  0.4184044775629474  0.0863908778538375
  0.8307831245934049  0.5004132818244980  0.1700058302439289
  0.9126991411623833  0.4167171152410195  0.1658045355381994
  0.7473676218421297  0.4164030905737663  0.3333468414069117
  0.8290704761061997  0.3309802624376258  0.3343526459170548
  0.8212890006656812  0.4185619506254045  0.5852280179517675
  0.7490921206220690  0.1666756936493492  0.4169459700947927
  0.7492250442169708  0.5014036543404885  0.2520257764911837
  0.6663707649870025  0.7521497311345383  0.2544061224642056
  0.6680175352769161  0.8339642759357475  0.1696653759010718
  0.5862949763407633  0.8327591318973681  0.9144394831741839
  0.5820979926804878  0.2507087785030644  0.3343376442880237
  0.8306455020636027  0.0835069583471771  0.4156269090107805
  0.9125332974348843  0.9983377336107181  0.4169853305154238
  0.5016278772294808  0.9148823941286165  0.5814465226181423
  0.8310643855069411  0.2484771375110257  0.0854717820491008
  0.0714448716522961  0.2545696214269843  0.0128698537988859
  0.9110449963792051  0.5869835640921489  0.5000151379022026
  0.5782411930804291  0.5015708216956529  0.4135367140007492
  0.9941608827926578  0.5026327866028077  0.6674318593796812
  0.6680340565985333  0.7522287395107966  0.9134918189032391
  0.8293590564829155  0.5026334315877728  0.5010090896818779
  0.9121539642348431  0.5848483263365039  0.1702648334397189
  0.7489871641478177  0.5013805092647274  0.0889615135704664
  0.9123525961046444  0.5858398499324886  0.3342500059333552
  0.9102580021448122  0.5005131861667895  0.9157232538057216
  0.8301725692064309  0.5024959142970223  0.3342373751465570
  0.9124113279528736  0.5050617346903494  0.2519864014417875
  0.9120626745040289  0.5076945470913360  0.5830720350992009
  0.9960275932287393  0.4181708541834451  0.7477567406950816
  0.8279703803418238  0.5032957349032393  0.6667400722925697
  0.9109025505447317  0.5039247581140471  0.4174197867092746
  0.8288715179433357  0.5854133451788075  0.7477208958181533
  0.6655109396155219  0.5021527780837113  0.8283496557356309
  0.9954332829342279  0.0780947483990571  0.7460438826109106
  0.6660573594831338  0.4177437280038040  0.9111646986945120
  0.9126136271674429  0.9972014436005058  0.9171490057018983
  0.6672275711435754  0.9141824701410657  0.7485867750898465
  0.8315884838786836  0.1663150600459687  0.1671513831732937
  0.7453486776119048  0.3333948493119421  0.7462397892189353
  0.9126495949893314  0.2486610458305166  0.0069875120856033
  0.7481882408858114  0.6696428288243157  0.0876469445962411
  0.9116703016561825  0.2490760709146419  0.1676930475641140
  0.5012477258807707  0.8345156499068372  0.3369293864615435
  0.9120913906910098  0.1661306660801721  0.4167769334648450
  0.5858350023734282  0.9142007318237719  0.6648312363545715
  0.8282305000671231  0.1671019017032404  0.5007439656749811
  0.6650541850035112  0.4184450238452412  0.5829258919795360
  0.9111571403613334  0.1642976250305668  0.5835685196037931
  0.7500628365930561  0.8344350295472558  0.9105791670842559
  0.7465525587208184  0.1659545025215433  0.7460076963105774
  0.7555787161578500  0.4141569572453260  0.0024542464314997
  0.9062728451651785  0.6691291989957316  0.9135682656085280
  0.9122606266021011  0.7518435541304430  0.8306426705259630
  0.8310588086826697  0.3331970704056155  0.0017396745094305
  0.9121599764098401  0.9145409683454352  0.6656261588643292
  0.8316089834944510  0.8330146177427145  0.1684493505216617
  0.8319147513552188  0.9161667351170942  0.9166180166539816
  0.8316940391846156  0.8329639288823070  0.3350359108466156
  0.7498453035019887  0.9210832558197904  0.9993021896149720
  0.9130507701946903  0.8328623906603161  0.4174158894812271
  0.9138742293797170  0.8334129307236418  0.2510576365241081
  0.9123826072426054  0.8335415351753329  0.5828581997209585
  0.8307787666646611  0.9143920976476378  0.4177187951998234
  0.8302633841477636  0.8335404995631219  0.6654470550005155
  0.7493521011514127  0.8326368034091383  0.4182553206130585
  0.8298289753699442  0.7503288532405653  0.7480821582926808
  0.9125670975296084  0.9148409800279462  0.4992098226384025
  0.7484517129038477  0.7511808811807066  0.8299838985259300
  0.9124995181893940  0.8339976470508931  0.7482415921813637
  0.9123779754143991  0.9165160101121773  0.0017927342145593
  0.9131926248015954  0.9159510679600041  0.8314230836807135
  0.9134293341844745  0.8328594351110478  0.0861154220034356
  0.0769584965883777  0.8342801954393343  0.7491773707046857
  0.9932697726829780  0.8345969800362946  0.0023613812799639
  0.9928722643194251  0.6690198661000728  0.3343864139566923
  0.8309426495656994  0.6689784291940910  0.1698916368175772
  0.0761835099512977  0.7520079902185774  0.8328261579030805
  0.8320125145479179  0.7502918695544587  0.4176132529910608
  0.1604824644572035  0.5012388366499221  0.3321295365880485
  0.9132157899643759  0.7509126514212952  0.3344428186196526
  0.2473119006270130  0.5774422430097575  0.3199526309618697
  0.8298546990072833  0.7505779206484061  0.5830231975507784
  0.1631717240667769  0.5004434706559375  0.6662043412201409
  0.8293044570422384  0.6677636536791819  0.6660702988430365
  0.0783083388892376  0.5009128658246821  0.2499707475358584
  0.8293456388337740  0.6678453171149800  0.8293596732618245
  0.0787995256560400  0.9152547348949868  0.4992515058156148
  0.0743094567084527  0.4988539228215735  0.9163743771687122
  0.9934877677072809  0.3336080686886340  0.1678141979453622
  0.1605958370681881  0.3352185273279140  0.3325674520078560
  0.1632101419001807  0.7574909125032583  0.7475902319822482
  0.9935794323566466  0.6675033401569984  0.8272313500856333
  0.6674506859973398  0.9995845953190506  0.1659913112639796
  0.2491682795701120  0.7496694364620514  0.6648932467318606
  0.7493329825434396  0.8318148699222554  0.2524818498308265
  0.2491015076918735  0.8349064101925068  0.7390491853011448
  0.7489871083223224  0.6692080566616196  0.2526553973059452
  0.1546992453305060  0.8337443523014867  0.0016947722515153
  0.6662699606605158  0.8328706988159942  0.3364369027576883