 C Cr Ni 
 1.0000000000000000
    21.1200000000000010    0.0000000000000000    0.0000000000000000
     0.0000000000000000   21.1200000000000010    0.0000000000000000
     0.0000000000000000    0.0000000000000000   21.1200000000000010
 C   Cr  Ni 
  69 259 605
Direct
  0.3318357811826863  0.7343203814427066  0.8235020095214427
  0.2372120480839988  0.8325339205343635  0.8232103392770024
  0.2434904658454436  0.1667437522050146  0.9935451623986197
  0.5046898337569176  0.5775780325631422  0.1671552558705988
  0.4061859215207144  0.5913080419823900  0.9049644731446294
  0.0043279331232329  0.3340946686447361  0.9195841030816498
  0.1620826195318864  0.5816758233586816  0.3337815827738638
  0.3374256379054298  0.4128805812771138  0.5040427488473389
  0.9126780059614577  0.7526722913807600  0.7477442101182459
  0.9058325024064591  0.4213726975099765  0.5861426059851645
  0.0795458839516050  0.0874009679052005  0.5871288218710624
  0.1610852866557243  0.2537186786684498  0.1712896158278303
  0.5786102233231641  0.3328287508231183  0.9976164462406913
  0.2465708673399150  0.5975486814396470  0.4146552896473413
  0.4127561126276052  0.1699631723819119  0.9939086978625373
  0.9105730909465168  0.2432755310193079  0.9236678241654587
  0.2386660746579881  0.9232183985139851  0.9221549669900881
  0.9119515930440436  0.3370919952109550  0.8275525147231814
  0.4156436086404384  0.7545524443891192  0.2541809324887387
  0.0810911186024651  0.6721093106859641  0.6656963781685297
  0.5063305462330066  0.1693386058352240  0.5812597276531011
  0.4159449298042991  0.0796297100446676  0.5851167417836505
  0.4131777876313317  0.6649070278137630  0.1631637607299250
  0.5040420226170322  0.1718483027902147  0.9071044239894560
  0.8319617838535004  0.5864118413788098  0.0009804496932286
  0.6669705363376305  0.6679960987518657  0.4194625324960745
  0.9962145570418384  0.4210257206185185  0.4960815490715889
  0.3249044751263307  0.0852086777502419  0.4942311571376392
  0.3346166033373217  0.8311364427524279  0.9193657402114099
  0.1644248914425010  0.4173700359117126  0.6675497556510877
  0.7467105329259063  0.5032665246360730  0.8302201549828371
  0.0032326925414054  0.2412608791769273  0.8281499471153084
  0.2430797608006502  0.4130409525974640  0.4123818828967333
  0.6662625527694634  0.5006303086773212  0.2515978340551913
  0.1495796863822364  0.2687253622572786  0.9860819806113871
  0.1680120404059947  0.9968852888118209  0.5829076347744909
  0.2528688226718613  0.5880950223838799  0.0923269614157799
  0.8209024801720581  0.2445310760239908  0.8298155094733446
  0.2430459115570097  0.5049258315299173  0.5067408606845242
  0.0800786762884317  0.5825988916134260  0.7542799433356130
  0.4090912122750580  0.1724050105739558  0.1766927487737553
  0.0735188212511250  0.6715518437637301  0.3369819645599023
  0.3339725344877360  0.3344193473573605  0.7509424767941720
  0.3368585744519891  0.9216494104854337  0.8262266982448478
  0.2448985834698467  0.1609210096053595  0.3335974813008942
  0.4184586721404779  0.9919161328271421  0.4939477795639565
  0.2321350385388020  0.7361070721175805  0.9180295909472278
  0.3229442373444459  0.7540329079898248  0.1637311639935475
  0.9942259053005883  0.1661391519871023  0.2529985992894889
  0.1583818229247210  0.5839503398654921  0.0014069287356713
  0.3381129316119796  0.5035543790089776  0.4118749077385361
  0.5882847856016119  0.5902958137619472  0.9128036299436476
  0.5010906689289213  0.4958576435136478  0.9129599689675468
  0.4134691391420057  0.1718896218953807  0.6731562908496266
  0.8264850476790317  0.9990597023317099  0.2496232208788867
  0.7484077247697558  0.0814520088394735  0.0844300845096821
  0.7452565055759618  0.1628292679159801  0.6642671466607177
  0.5029840113259757  0.1697548929310021  0.0883644435489292
  0.9976565890938355  0.3292542497626038  0.5867134791697719
  0.4996542761486306  0.9976663943243853  0.7481075432802852
  0.6679927026553801  0.3316894829286468  0.0885425856527915
  0.5028467901207754  0.0756627361663980  0.9956799670317312
  0.4094648067669742  0.0753345807913852  0.0850401798058480
  0.2468921525430948  0.9134568886681502  0.4170515642993125
  0.1562303508583051  0.1625242863282707  0.0817353032030152
  0.3450306254822964  0.0137093080405502  0.9275993543815438
  0.1780695893419810  0.6793216062270458  0.7635220693526753
  0.9929800338949958  0.0836371017226808  0.4951312575468938
  0.3362902895081494  0.2503514787198131  0.3307460663826925
  0.1600069149817109  0.9999529650308975  0.9997463497914479
  0.1573565144029676  0.8364672446333100  0.1697143708662160
  0.4143720238376094  0.0795939274813362  0.1758808046308475
  0.0779585368900415  0.9975785539517442  0.2515351769865383
  0.6630457913556882  0.4156684653543223  0.7467269904741456
  0.9109026833926779  0.7530422727951190  0.6586112467443843
  0.9922435325944335  0.8342836634377575  0.3336477891352893
  0.1593901686523020  0.7513142147518601  0.4179783945729338
  0.5002648093123675  0.7507529000508913  0.7474367929592733
  0.0724304162751197  0.5821768674570128  0.3334538221481532
  0.1589827828412609  0.9978338977332275  0.1685881435773735
  0.4202972596265296  0.4978951677852341  0.7433496682160404
  0.5896123213405617  0.5007781594590270  0.9166099968662298
  0.8305707706727610  0.5864146237048904  0.2495376120718137
  0.1632640585089227  0.9975904209569890  0.6741828494546432
  0.5012376076150322  0.7531423005253493  0.0843964154703223
  0.9931612312551467  0.9170822341804056  0.5818890327945914
  0.9937087336746093  0.8350387815407757  0.4988824381226439
  0.3326158638371091  0.9959546138688928  0.3289401840543638
  0.5837680735093730  0.9163467934090876  0.3325897641307358
  0.5016246069944765  0.5009000784916529  0.5024337721826686
  0.6659893562006031  0.5784403412883913  0.4179351113658455
  0.8318737828414945  0.5861737077822353  0.0907561195373525
  0.0750934754390928  0.6692694292999219  0.2453173510513593
  0.5857706578574482  0.3352506606554167  0.7471042073296761
  0.1608929713145646  0.2485218737719086  0.4158196960032026
  0.8322891391103899  0.9958913853014771  0.1609243331729940
  0.7429351086330687  0.5870119302554865  0.0013910130859652
  0.5011100838925107  0.5825543974711316  0.0738083814213118
  0.9954193255427434  0.0005601670017607  0.9984672694097575
  0.6673124500947080  0.7524282687945092  0.0847155009923479
  0.0787042918274729  0.6711101666026191  0.5769390662129075
  0.5009730476976300  0.4997226595537056  0.3344049136954574
  0.4204070816224200  0.2509327296197832  0.4987134059135760
  0.3341685935209795  0.4163461244113658  0.2491096170123586
  0.5838510075478092  0.3345743471257943  0.4160543866464688
  0.9210084277211797  0.5857988857553297  0.0017718837500873
  0.9114693547533117  0.8421010802729919  0.7505106061330428
  0.4109748844959140  0.3355520676180290  0.9150744129706649
  0.2468191456688540  0.1675989251914766  0.0854599885573478
  0.2467522988263288  0.5047170537081470  0.4156805656681326
  0.8296888977562052  0.8357009844272421  0.8328762476840661
  0.8294205764326377  0.9100539397236779  0.2506348755023760
  0.6656928927925098  0.8324970160187399  0.8314341620566821
  0.5013966842134369  0.0783066670048910  0.0858906607606291
  0.3309523203963498  0.8304912858795487  0.8287174483518842
  0.0757164892883286  0.4176384856085838  0.3320744711341710
  0.9121093762051107  0.9167052067609054  0.3339958127773426
  0.1442670985050769  0.7578656074173417  0.9188383950848109
  0.8291235693345853  0.9175240435011788  0.5810620946890623
  0.8330105983706396  0.6766282143346554  0.0007490015140788
  0.1614932962761140  0.9174820112743236  0.7469086097598063
  0.0849838885883827  0.6717551485429993  0.7555023412543946
  0.9110185888532981  0.6640404460395556  0.7493222591064690
  0.3369430528531003  0.5922948557325111  0.4178279590280730
  0.5824488672046522  0.7515756434662544  0.3346109698345476
  0.9121087521755666  0.7547554672771720  0.8370949464284628
  0.5028738470845195  0.6699305590537887  0.1651434395606182
  0.9128806533362838  0.9174841743076276  0.1674479251825221
  0.0747790244527561  0.7518037079477369  0.0037683991323528
  0.5780274934190425  0.6677144968283798  0.4177435029290067
  0.1614565954301533  0.3419984332316151  0.1695296078121578
  0.7496227214772626  0.9124459776299466  0.0002317872528524
  0.2443703042819045  0.1659895364825657  0.7492143577331394
  0.0760755725750738  0.9955509810597529  0.5828915039427617
  0.5052980737619451  0.1679050804681499  0.6716878973693089
  0.1613141247565438  0.4192689632474216  0.9149359347298560
  0.4171964178273180  0.9125673913628958  0.6638559499998387
  0.1644028672234933  0.3274653245103913  0.6667666853596848
  0.5015573029711889  0.7526421086371228  0.9161442202355665
  0.8308837697000531  0.5859815424014517  0.4171025772586078
  0.3335411091200696  0.0098863557329952  0.8334590365794458
  0.2440793248032049  0.2580069266882160  0.0001406527204485
  0.5021793475241966  0.4174127716382451  0.5813159042286049
  0.3335136122488845  0.3235134372508929  0.5015383707487374
  0.0713392369831198  0.2503023364649991  0.1678816652007371
  0.8304103597346278  0.5881149647709647  0.9112399800375236
  0.5000654115831645  0.7508060418623964  0.5823453427377180
  0.6679472519763521  0.6702221322589430  0.3303248730241801
  0.9097554018914159  0.3308837591514311  0.7384121620184912
  0.7446387793683000  0.0803084818629509  0.4980975638010212
  0.7340003549986386  0.2475370048882209  0.8309580651189870
  0.7468798422011311  0.2496458455304268  0.3327937268205002
  0.9931189070060876  0.8347304119894422  0.0015755139691366
  0.9956134636842343  0.1517811454632622  0.8311294079677730
  0.5901107034997238  0.9962176473600809  0.7473947416103818
  0.9957514953639270  0.5103366250839977  0.4991434738585166
  0.4161701346421731  0.0821955960628529  0.4940973927419215
  0.3305771198722534  0.8348975178306376  0.0082268242754635
  0.4145706718479510  0.1681974127074871  0.7598187191732487
  0.8280187602792692  0.9989249998881726  0.3388848345033090
  0.7490254937624413  0.2487281546123001  0.1720734517813903
  0.4177963301021752  0.6677736936705388  0.4178977353797098
  0.7563392982861937  0.3328976570600540  0.0876824359639035
  0.1617453374355480  0.6673207285690301  0.8525484077816771
  0.9126270678765441  0.7520419618535406  0.1680611100922896
  0.9130327439474255  0.4176250301115860  0.0030220693560185
  0.8315143705724508  0.9143846322861370  0.0832315253387772
  0.9900715407936660  0.0820649372803346  0.5849855253095790
  0.9959986430867412  0.9924180961227752  0.4994916506926241
  0.1558568012609471  0.1655455890378628  0.3366352684874060
  0.9120362756114021  0.1643016498802513  0.0843446042166584
  0.9120354295376192  0.3356119939808782  0.9185901291282671
  0.0783563316764919  0.8342156670348048  0.2488156878863851
  0.9941115419524920  0.2498078982326397  0.4165028325085696
  0.9942940986347989  0.3302363673446212  0.4960058671672789
  0.5859334578680211  0.9128074329317961  0.0005974064214586
  0.8306858515708647  0.8340348796846135  0.0003610937636130
  0.9923583685117165  0.6708551618121965  0.0026475729669573
  0.9149587836443076  0.7527602102205643  0.0001061853889926
  0.9118924237086340  0.6690150263644966  0.5831559885141382
  0.7438968899747844  0.2530121623756248  0.6637144622767521
  0.6654629294077690  0.5850424224858666  0.5827768434586418
  0.9955005769146070  0.4193152620110311  0.5860835601357166
  0.9931235462046047  0.4171638388682629  0.2520579224813908
  0.1596893831598827  0.4981965620972086  0.1696860136882137
  0.9939835960977678  0.5845374027510545  0.2503591798150772
  0.0692310688838657  0.5859344754391808  0.0018960526020939
  0.0006629073219606  0.3319359243145435  0.8291145538607295
  0.0794098094272314  0.4951251695751347  0.7530552285231427
  0.9982570437121356  0.4229948485444294  0.9189794719098094
  0.1537312245967720  0.4169875310139967  0.4146273134203188
  0.9061792548225426  0.3303446992392844  0.5845112007212789
  0.5841646711539510  0.5847383519236822  0.6632595566556840
  0.6660843293011321  0.6713615603641103  0.1674756550559894
  0.8230845361347245  0.3352329585176907  0.8303669105738934
  0.1627506479523180  0.4180235533709496  0.5791588867988943
  0.3334252576415476  0.4147449749413056  0.4137559034375117
  0.2462575253340694  0.4152245347427699  0.5030876197476808
  0.6693326612463966  0.4219488358053435  0.0860692911003564
  0.1637584635586581  0.6720123841864872  0.3347193960268723
  0.1555258086101770  0.1693528445505411  0.9934524462448140
  0.1590784300736100  0.6689636399036960  0.1700299973115331
  0.8291162996504776  0.1663281792409486  0.3354966629107289
  0.7502633565117681  0.3324238768777176  0.2527510188164758
  0.4142998675766107  0.1719294014403720  0.9052178991220582
  0.3296637735727742  0.9175993778444237  0.2517810615030721
  0.2496463957834748  0.5936667860295862  0.5049441379389152
  0.4995303854648243  0.4983464630501834  0.0048733940260147
  0.8223821080503669  0.2482708989092878  0.9210482548580959
  0.9060243063157188  0.4177739917984937  0.4956207879031054
  0.1571152276223797  0.9131498858211006  0.4149929674293022
  0.9105702408129126  0.4173251244076618  0.3351538015926505
  0.8277909155228541  0.1546176898624020  0.8318948170422368
  0.3352672383013380  0.5038021137850854  0.5033199328035307
  0.4161310923011229  0.9866054969969380  0.0869858635314026
  0.0775083187837352  0.7608840568123690  0.6643633025473011
  0.8304651786042447  0.0882762883973497  0.2520411216039720
  0.1606500235278830  0.5836865232065271  0.0913895308789589
  0.0798827598063696  0.5823802604683971  0.6644532065815435
  0.1593493975344327  0.6755149406348047  0.9942136641426074
  0.2660718993984926  0.6646003244730957  0.7513846038714819
  0.6665529852546344  0.5007162924696885  0.3402898726467782
  0.9987056125482073  0.2445595607000303  0.9176047915520582
  0.4245967591247253  0.2538425521834466  0.3350146719259539
  0.2415932068854499  0.7551545858731824  0.0059012355630503
  0.2483659824784005  0.5781311975865472  0.0035058791129887
  0.0944396419855492  0.3312404866238834  0.9242001414564233
  0.1727677840638937  0.6709894350070527  0.6692437378537200
  0.2506667116595752  0.5009932723870036  0.7495088707827530
  0.2421287893285778  0.8321576507210328  0.9161588132525867
  0.1615896837991776  0.4917900401813143  0.0033591068222993
  0.0826385564503530  0.1650024830257207  0.2507189961428107
  0.8286842131846116  0.4165681550935187  0.4154944947254832
  0.5006269118303855  0.1666844617881126  0.9976756684461349
  0.6642974290787926  0.0780816903360576  0.9147915413205382
  0.9935640876188253  0.9187557242570931  0.7502886582097320
  0.9111775228413848  0.9988253018598576  0.5810218473644544
  0.6659651166183318  0.1658404271591272  0.0004179360357801
  0.6633311409129761  0.0834854036616089  0.2516764123897907
  0.0819616842242286  0.0827441824457471  0.4971047731185909
  0.6696360480470931  0.3339460666810800  0.9983051157635540
  0.5002461761465739  0.1667739455567371  0.1768755315592791
  0.8273494197718583  0.0794661088130783  0.9163026131519069
  0.5854550466086410  0.3340370820110714  0.9089185773722677
  0.9110153126707922  0.9962085148258700  0.7496249787915287
  0.1633511059242618  0.9085462681068907  0.5816259057815950
  0.6660423980276782  0.7524467288761818  0.5830254923904608
  0.9044783203504881  0.0814153447655131  0.4984613168816935
  0.3305367276530172  0.9215273634261318  0.9180044349010178
  0.5013450258152751  0.1663018918070549  0.4910023004658924
  0.3262097633891295  0.0848532349312417  0.5849322730093989
  0.6661627108909989  0.0825230246777322  0.4170969485553646
  0.8333150908071417  0.1608456204126079  0.6640308602538364
  0.6662520205758213  0.6690932285766914  0.5088652344798424
  0.5004471884908741  0.5833444247091427  0.5835585074077184
  0.7562785224749625  0.6692621989376809  0.4172048035958885
  0.4155950878778549  0.5764409060837165  0.1677863795415357
  0.4165735192629174  0.9047021556828451  0.4995075180731279
  0.4167644311985360  0.8348480964313143  0.4165247349970059
  0.4112258171213494  0.0770497002953940  0.9936461808194499
  0.2377701564665403  0.0824827501439298  0.4988633863556207
  0.9165086727657844  0.9973902789474184  0.2518143918471002
  0.9107521298650596  0.2450383082594573  0.8318157769086972
  0.2476798873829420  0.4950810620498193  0.0890311043660087
  0.9937623954750419  0.2410626506368637  0.5863519437387859
  0.4148292219383116  0.7541592749378699  0.1646510852025882
  0.6680285059865307  0.4996265953770476  0.0020827155764864
  0.3254440581653611  0.7530668635629978  0.2532060066474973
  0.3270072787110618  0.7430344341751806  0.9167922118041082
  0.7480172358480142  0.4181219435331404  0.0016878266282293
  0.4982576580935730  0.5862012148787775  0.9155903454593954
  0.5836473907397913  0.6790968250967252  0.9162404968672011
  0.7457582746943490  0.6692011930166060  0.7469765863019630
  0.6689047696236726  0.4176063317960605  0.5806862501065361
  0.2443636545737665  0.9214736497850319  0.8302791718764893
  0.3318035772490591  0.3326102765414780  0.6616223326150742
  0.9108486946312760  0.5034573759097277  0.7493950986699245
  0.5051243791149679  0.0797855413465595  0.5817462824325238
  0.7486822141293503  0.7502704383154474  0.3334383169265917
  0.4160962081406158  0.1704142580341667  0.5828838253978290
  0.6645067325716096  0.9138688748562055  0.2510513929186460
  0.2457812266592695  0.2507776525532830  0.5017752515702437
  0.7474826983755323  0.8336380909675886  0.4163365077751572
  0.5003817992417782  0.0816804887434108  0.2511281453903472
  0.5810440858098240  0.3333387265475466  0.2524803165835630
  0.6657024139174674  0.8326602007012087  0.6634321176700143
  0.7451101859334667  0.2499538327644371  0.4972256436561924
  0.4118221773666765  0.1655171078273687  0.0854090625716892
  0.7447156710004204  0.9975053036129095  0.7493806163897295
  0.8307271326707666  0.4961451354446700  0.0019130643632955
  0.5792833301143188  0.3344635488082584  0.0875163018901182
  0.2503819207428673  0.2532017348904354  0.1652224172871439
  0.6654129878249014  0.8336625540416861  0.1676835237230372
  0.5940701231739410  0.0797921363782040  0.9980769796572504
  0.5882880039167374  0.5852126284732218  0.0047837780685534
  0.5023893380745311  0.2585387470951078  0.5801299988590131
  0.5921067332351825  0.5861351707345688  0.1658120018393277
  0.5053775442554477  0.0813228081140227  0.9072854110880758
  0.1631508738136496  0.5781256305975468  0.9125563579365621
  0.5052104350501235  0.7494328657012296  0.2505372982890905
  0.4254051222260841  0.8318365889675294  0.9164758785134614
  0.4192962766061551  0.5833232422579246  0.6658496127770497
  0.3422675487311727  0.6478398784797824  0.8403935102798635
  0.7476406204756315  0.4185840802677233  0.4974221167168584
  0.2493185866111631  0.7500722451753724  0.5057203578801016
  0.2413109391738349  0.7431341124088732  0.8276606906729324
  0.2460065420727644  0.6861591649022785  0.4193354588722287
  0.0751870539713420  0.4195625765619723  0.0041858344093087
  0.5824518009094862  0.8344351794080319  0.4163826127118990
  0.3244186696152378  0.6636556149500051  0.1656420460066055
  0.3328647856095356  0.4165654616719601  0.0861357901087317
  0.4156372236257056  0.5817825787403490  0.9995872822808632
  0.4141977131023799  0.6641849607278928  0.2546345273347735
  0.5010711176699981  0.0828171070654944  0.4142934088085919
  0.9086235490794691  0.6686482366117954  0.4177881319910286
  0.1604472226246629  0.1641157778861546  0.1713161117751424
  0.7562203140838714  0.5020504197158547  0.2510219684823621
  0.2453384464312897  0.2512159363453287  0.3322206346009285
  0.9942838595617346  0.2556868792786199  0.2506646721300652
  0.9955071719725340  0.2449190954145614  0.7395127534543001
  0.9981801174197248  0.3326199425903714  0.6769318513367879
  0.9941711378546727  0.3373480743698991  0.0092913028364432
  0.8357214787049121  0.5027301490445222  0.8326876104140483
  0.4166382889321629  0.7515146538679894  0.3428762910288007
  0.4123533555888758  0.4974643781383208  0.9153416561150942
  0.1604216699292317  0.2542702020314904  0.0796730503805786
  0.9960040873868462  0.0799417541416784  0.9179704842281308
  0.9095690132937543  0.0806174741655996  0.3334900338667104
  0.0777186455252459  0.5866711571793517  0.5028194569923206
  0.0771073222680936  0.6686396297668109  0.0859471605895913
  0.9951141910319631  0.5865674680689513  0.5843438030974044
  0.0761138037153762  0.8354450170603304  0.0851245617314535
  0.0767252144437497  0.6704111247967480  0.4241375912714738
  0.9930659483637877  0.5871417032439338  0.4173328899950740
  0.0759578964760513  0.4198772019872856  0.6682827948016263
  0.9130991512396434  0.6701160346118245  0.0860164235302087
  0.9951790201763024  0.5017948123305417  0.8328764406577361
  0.0774324342832368  0.5834704400133338  0.8402410655144326
  0.1645948521033344  0.5871265384202488  0.5852475202573251
  0.0787104754532078  0.5022130017169819  0.5835293594470171
  0.0761961978886340  0.5026306405183416  0.4162069644337040
  0.9120746748316154  0.6691595951391865  0.2494133152112863
  0.0775511904283895  0.5005776764867947  0.9183989855498875
  0.0760884671132943  0.5832488971700519  0.1687287865012139
  0.4925405754544754  0.3351102356744022  0.9996412380836300
  0.5840480909653711  0.0816221896404831  0.4962570002458664
  0.9101186448989306  0.3356541526208482  0.0869965830784013
  0.5845333463588859  0.4211651874372812  0.0007232607800695
  0.1600888810477427  0.7519480100531832  0.2505417417288460
  0.9956054644772624  0.9153478087396867  0.2502273204077122
  0.0716395429652343  0.8392836145934949  0.9186713210533169
  0.5053071035716268  0.9947950241100572  0.8344120809522454
  0.0772021590626884  0.9139357766686488  0.3325416332152429
  0.5022120600581688  0.2542607864061066  0.7484047765715816
  0.0766076651735083  0.8339609771439194  0.4169087973452002
  0.6656595447164143  0.9944456782473711  0.9997662321850144
  0.9947429609989208  0.9169743789279506  0.0839855273679630
  0.6655644138099228  0.3338327381269430  0.3337400986679390
  0.0765075542107581  0.7573860024281155  0.3339596118170694
  0.5816340639552805  0.2511149229625870  0.1700176629367803
  0.0802432425890742  0.4168979680912202  0.8346344052132052
  0.5011755290357057  0.2516494355032136  0.4160679288515846
  0.4197854492173090  0.2586033987559139  0.6653461120871245
  0.1582550030759090  0.5835601534239204  0.2464919079423441
  0.0772599591162104  0.7524455204971807  0.1678217894687329
  0.0767006189277011  0.9180650402190846  0.1673917042380494
  0.9952001747847135  0.9156730599679008  0.4157563050490228
  0.9929860630904106  0.8368789320036419  0.6646882618510920
  0.9939515736035867  0.9970575792741485  0.6650321048705607
  0.9936795721895192  0.6685489646366251  0.1679480173940597
  0.9950835463433136  0.5853566434138412  0.0873216914504632
  0.9928585992578920  0.5014213219523269  0.1705224212603055
  0.0761804237508639  0.5005660989254932  0.0876709420253156
  0.1607248783281858  0.8336382523728997  0.3330298907171105
  0.1562179853775542  0.5027964606280635  0.5000878710031934
  0.2451888500910138  0.5813196285466538  0.1770624766474666
  0.1705859230692927  0.5851868578220535  0.7530979448825650
  0.3338629138732271  0.5000865616736776  0.3253075882729370
  0.2418892351772370  0.9966494780014019  0.0867510031852358
  0.5847531611856517  0.9963921356589095  0.0850548589004985
  0.2483105110367350  0.4197928539129674  0.8324232269321158
  0.1636250033717804  0.4995259106368319  0.8327798203726021
  0.5006468359642413  0.9960361875593940  0.6613699168866458
  0.6650715139114262  0.0799905231198294  0.5802566656125090
  0.3324642354805800  0.1735487967352960  0.4996607595762478
  0.3304666553486079  0.8339470444675997  0.3342054692243849
  0.3338963222590968  0.9151402504859901  0.4144940566871333
  0.3321481156747138  0.8308149026415971  0.5014922799914825
  0.4167064455585606  0.9152519051807640  0.3331058652471098
  0.4178403196988284  0.8314509069585767  0.5833592470496709
  0.3336500805390577  0.9137529058609374  0.5831616154586013
  0.2491291556312400  0.0002510784196639  0.7477615561334908
  0.4169346798888273  0.3358842050044087  0.2515195642401558
  0.5027193022781538  0.9895535509199549  0.0009005472415615
  0.5838181967323450  0.0799399544902790  0.6663274299405811
  0.2474895240113320  0.8258053990444584  0.4175801897959003
  0.3329321387469276  0.9156484520256372  0.7406108686151365
  0.2435325055266163  0.9141736533648758  0.0081251930032548
  0.4164508401549106  0.9149079252521413  0.9998513637426611
  0.9948316411779584  0.8343635517857400  0.1682894703121991
  0.0757863346616321  0.9187387922253063  0.0016448224692326
  0.5911509330127787  0.1665329976492704  0.5789425709069201
  0.8301321430369971  0.5865063585178237  0.5838944024424341
  0.9941104425519918  0.3332833150152953  0.3349453990734437
  0.0772342368141350  0.3368674829837162  0.0870067786542517
  0.1652489652036097  0.1665960331529244  0.6680022504020925
  0.0682240295281358  0.2470094828737779  0.0075114062936880
  0.0829639822215154  0.4160305548217338  0.4997237376209298
  0.9915312435354945  0.2504588571852353  0.0881310188733690
  0.9933611996918681  0.1620327010821207  0.6667763637861519
  0.9117704022386447  0.2495279251766241  0.3352236796208046
  0.0824282429348144  0.1731477467198348  0.5831865264754608
  0.0789723714639036  0.2502093861234528  0.4988322784990051
  0.9109999916902880  0.1562236699006235  0.9156033983430204
  0.0800897347886469  0.1636047498348872  0.7488731720661884
  0.9927197781907687  0.3351483666222912  0.1685440350261632
  0.0798657381389632  0.0799919714716153  0.8311779883521859
  0.2455546184425186  0.4958891361742734  0.9178163549700835
  0.0780516099534612  0.0007356227200614  0.9165831855783091
  0.0752226095210248  0.4178010547425405  0.1702683752893755
  0.9919937883376094  0.5015095728735467  0.3334924105982850
  0.0744669602205853  0.7540058485918913  0.8334560148696356
  0.5831754056558642  0.2532439105611370  0.6645976515855931
  0.2464315812024669  0.4974425124792650  0.2495402275219243
  0.4992185898780054  0.2588301637153324  0.9132589261387909
  0.1610651564296357  0.4958189979099057  0.3314717550015199
  0.5903755434959813  0.1670731237154818  0.9142725698471992
  0.2500391015204066  0.5844380001502565  0.3266207309281122
  0.5861812470569594  0.2519560612325419  0.8310804570230403
  0.1650891137638707  0.5051121637885567  0.6685607887739883
  0.4978510023960466  0.2564433213308783  0.0839831783289369
  0.0746792848642302  0.4999913387302923  0.2509610331955696
  0.5021330347734456  0.0845927534271325  0.7509377825558475
  0.0791449067768039  0.9134840144167780  0.4987861635212532
  0.6660245674609282  0.3344291287158098  0.4975617355429811
  0.0749762959652660  0.8388692619868179  0.7493755949611611
  0.5866328037637252  0.1665624050446383  0.7478292972673753
  0.9876560277531238  0.6692245492501799  0.3329596002773920
  0.6622605825761914  0.0809344474749553  0.0870603130158520
  0.0785093914543015  0.3316138257293113  0.4160756772072015
  0.9931635654554607  0.0782557420188526  0.7484391058794524
  0.9946425811303744  0.7525589661024084  0.0861754108239032
  0.9931780906644138  0.7515273599009261  0.4181563075088198
  0.9117642628332218  0.0808496955517569  0.0001260536269807
  0.9940487799939459  0.7525722462895676  0.2497692953733306
  0.9106397221878579  0.2492797597995804  0.4997920052640201
  0.9945606589283366  0.7531118431269404  0.5814870458064484
  0.9915597284436750  0.1637646667889157  0.1651668613729872
  0.9921850957889862  0.6693869133348243  0.6656372903037432
  0.0768346928047735  0.2512331983835250  0.3343090907261421
  0.0775782277078498  0.0818483883583671  0.0001243491889248
  0.0832230942442394  0.3338941581734455  0.7494380975016409
  0.9927332252943850  0.1629234005491801  0.0003171371881118
  0.0772183593914140  0.1626089408677474  0.9140376848226267
  0.9109592201463986  0.0785004545581938  0.6665592383255609
  0.9924910143596800  0.6688979229580676  0.5012487525261747
  0.9944898163963006  0.5004774625970846  0.0034609316593557
  0.0775955929209805  0.7541180184308475  0.5007691836001019
  0.9118361358957014  0.5859629868289482  0.6660899354847550
  0.0820118656649676  0.2475674400638170  0.6683737997960075
  0.9952605709811213  0.9989471596157451  0.1677402883931867
  0.1610535789037167  0.0817732741148742  0.9158105917228667
  0.8281260156964966  0.0783497098355383  0.7483062205061920
  0.0784623966594656  0.0809969568327660  0.6727966162559720
  0.9106323920271178  0.9996815029083143  0.9178118181138274
  0.8281346266061895  0.0800828328747466  0.5810911069268273
  0.9951798220351311  0.0799038181145816  0.4098095586015293
  0.9946227525353649  0.1655985630664090  0.3394689872220360
  0.9941831613770697  0.1712790878756401  0.4978715211380798
  0.2439195308739177  0.9971877248064075  0.2497775126234905
  0.0775068204515898  0.9980405022796023  0.7498448122611653
  0.1605297447675916  0.0757971106181905  0.0844702565261955
  0.0784113243857941  0.1669615260988491  0.4176869933305080
  0.9954642077080983  0.9968785663028864  0.3335552634837564
  0.9942479217149655  0.0797061528731861  0.0839273073850221
  0.0791482460010761  0.9968741180815441  0.4160260392974774
  0.9114347533870566  0.7515443841846556  0.5010726164359711
  0.3282871712278432  0.1712745995766448  0.9988884699967514
  0.5003172970754342  0.4919618491289356  0.1656987550821352
  0.5009163434033284  0.5849512255014404  0.2553372303411829
  0.4163531963150778  0.2580371098185100  0.1668440779522814
  0.5796875108446550  0.5007340365501697  0.2499799919359412
  0.3302697723287781  0.6654942653443062  0.0014422829322311
  0.7506417393263888  0.5857415519316093  0.3342886925625972
  0.4169401769430778  0.6669992601754021  0.0762387385240476
  0.5833883956301852  0.4174583761194826  0.3348344782948873
  0.4168423257267398  0.5842080844976753  0.3342782195239437