 C Cr Ni 
 1.0000000000000000
    21.1200000000000010    0.0000000000000000    0.0000000000000000
     0.0000000000000000   21.1200000000000010    0.0000000000000000
     0.0000000000000000    0.0000000000000000   21.1200000000000010
 C   Cr  Ni 
  35 259 605
Direct
  0.7496637068567109  0.3272119839106105  0.8407620988873550
  0.8370652412477602  0.4158499382416091  0.8454652794097011
  0.7516190265885405  0.5845070969367603  0.2502336077653292
  0.6674060543232286  0.0819389358115453  0.3331986139031048
  0.3253030995279191  0.3322069445371370  0.2538558368418923
  0.9985214154151306  0.2468659418377061  0.3321088418780206
  0.5054412487686304  0.3309272562383221  0.2556748164580861
  0.3363395098752692  0.5079242414666846  0.9231353162643929
  0.5812403429890803  0.4177216291750469  0.5792498995867337
  0.0762441819120601  0.5883658904987255  0.2513901595944143
  0.5813512726758762  0.0820295105869854  0.7496011694581651
  0.9180705605947722  0.1623471716908864  0.6619734522704788
  0.1622778700682479  0.7502203722806211  0.3310607361884015
  0.1680530678078869  0.5000678761600517  0.2511312203726975
  0.8274706601476941  0.4146192798172261  0.6606860935123228
  0.4879990462760496  0.3325172440239783  0.7499952275208015
  0.3324355055594524  0.1610376505523508  0.7498311843794369
  0.2459282842318458  0.3250687880380483  0.8319912578181403
  0.8302599393235175  0.1615512009024261  0.7551109127781483
  0.2474501899129136  0.7498945008933435  0.7515473754371120
  0.3400133504892586  0.4183005827482935  0.8338111809010775
  0.2533484348933268  0.8373556950390669  0.3327193700017513
  0.2446941676860128  0.4228854012667923  0.7406104917442056
  0.1659458731942504  0.9190729466213469  0.8344692067533380
  0.9247772723492509  0.4114478849305711  0.7518984137995290
  0.9221047326690009  0.5082104050587731  0.6605518326919876
  0.1535744507032953  0.4202620367062253  0.8345068498661110
  0.6553476870081171  0.4221064687353179  0.8388092457386198
  0.9238445302919585  0.5083459090199406  0.8434972857555492
  0.3368925620666778  0.7497600376855358  0.6601736974982000
  0.8287612335359728  0.5084428109711223  0.7516873182799713
  0.4165415798562718  0.3333168448471526  0.1619154451192175
  0.9198228773826814  0.4134149528471714  0.5705175342933451
  0.6654859937014094  0.3294754611812324  0.7451149323296489
  0.2451931577632034  0.4153695842717537  0.9276879895520689
  0.6668828779431720  0.1716725366372516  0.3344937104616750
  0.4168683097226309  0.8337956005885961  0.4181707857604667
  0.2508884006501482  0.8401554897218032  0.7486486289648169
  0.9968579894425064  0.9148492393184310  0.5822232661751976
  0.2444095733308494  0.5062120634503645  0.9232633029952448
  0.2481453576878156  0.8357642044854450  0.0844259061253597
  0.7472786283728535  0.0788264319443766  0.6644020066418206
  0.5810221149622459  0.7516214668299684  0.6660616618711966
  0.1641313105555402  0.9154721183943766  0.7450996161084912
  0.4159351828619548  0.7512484130129294  0.1657787781210409
  0.1650678217850401  0.9173200409900875  0.9239981671037300
  0.4988494320950544  0.9172098976435192  0.5830288101973626
  0.4174092508339343  0.6698861263149720  0.0851985495703050
  0.2482666894301521  0.0788862910933560  0.6641568377869803
  0.1627843314798089  0.8400331532950956  0.3321263958990353
  0.1666691839910686  0.5894302784923648  0.2487411732703772
  0.0810340880123538  0.9162437629292540  0.4993731913813070
  0.7475194753666003  0.8341806794652269  0.7492571443290412
  0.2570381859632271  0.5022109170235095  0.2479585279907930
  0.4997451672937411  0.1637777288811782  0.1662960664724411
  0.3343445571798020  0.4217185201828689  0.7443321206383666
  0.1682313511869150  0.5008898204149651  0.3420394789815813
  0.5813687251355752  0.2490465804158413  0.4977487223730091
  0.4999188998596141  0.6670295894761381  0.4993221726901848
  0.5823313696408287  0.1664841333531053  0.5794971596985080
  0.8325139982281212  0.7540392907032452  0.9168928517929243
  0.9858102664563364  0.5856871974495914  0.2517499936762517
  0.9134988573182307  0.6722665337092202  0.2497135423900703
  0.1653535812166282  0.8293456444194451  0.8353279490720824
  0.7496729138280781  0.0814411852190244  0.0014675308627737
  0.1650289946767356  0.9177254294691678  0.0838541622954987
  0.7483534482778353  0.2447897618321310  0.0022902491674201
  0.8328172826465086  0.5063442388581151  0.8410520004315430
  0.5829608002327269  0.9150927661807503  0.9999500911124406
  0.5832929939190765  0.3314189509350561  0.4182541642280976
  0.4983982077547365  0.9156393349918037  0.7507327114847159
  0.7454744465762781  0.6704363319545807  0.7501845906055403
  0.9168304283364312  0.5981326497110058  0.6640711397498870
  0.0734423811618709  0.7535360018435359  0.3341425343615073
  0.3309786246367318  0.2402877398616663  0.2519902449142353
  0.4157388021818186  0.8354035817959959  0.7519720872475172
  0.1573683031486675  0.7517286927397890  0.7491456326280505
  0.9961244935474848  0.9176309387307301  0.0833980547159925
  0.7509343782702278  0.9148191985152472  0.3325900898955641
  0.5820665251747533  0.4196119404337475  0.1678067615300355
  0.7479928554405746  0.9138820584781653  0.6671142588850199
  0.9136782283502793  0.8339892639239307  0.9188015908831315
  0.3337697986495347  0.8405325159945276  0.6653493855013567
  0.2497447208771414  0.7527250195960828  0.8409090267495981
  0.6663374628570992  0.9914832065399142  0.3334725266373842
  0.8306427087694259  0.2493700240434852  0.2474831889206753
  0.7491139425886831  0.0804659214595755  0.4979794569599550
  0.8315535686180561  0.0804935975512149  0.4170194547821177
  0.7572088977890500  0.0810932480347554  0.3324599184783498
  0.7478667847569809  0.1628279714342575  0.9226051431806228
  0.2456641974035065  0.4177392386803340  0.0174905456098617
  0.3346958107524716  0.4180231059620673  0.9236475862293080
  0.7496522035573140  0.2500639897504064  0.4981436107873892
  0.5809533407957936  0.8352187312917057  0.7520359823537540
  0.3323687911035640  0.1631441892203385  0.0018380646435914
  0.9199779126906207  0.3208333348574327  0.7496848272548688
  0.7492082064749597  0.9993700107209794  0.0823943501157557
  0.2522722274713350  0.7473505337640833  0.3341755548146808
  0.2424319677090935  0.1603993020071147  0.7470751248980235
  0.4988851167057815  0.9158319009575722  0.9190101477065079
  0.9980241744564182  0.2465194773224362  0.2420652424795373
  0.3311472533621945  0.3314056523742615  0.6582640469178618
  0.2494083656389441  0.3298048722957987  0.7416122244109729
  0.1561592757083148  0.4171148352310761  0.7452989053537707
  0.3341586097815794  0.8358184794766188  0.4986578289620489
  0.2478444248456070  0.6597781977902759  0.7498513345870322
  0.3426218078746169  0.8341769754854688  0.3330121925962446
  0.3277203099054908  0.3320799677368175  0.4968706575130820
  0.3331482960163575  0.5964472140296067  0.9207587704681016
  0.3359669352491717  0.3281156656467533  0.8357946150041226
  0.4155504710844810  0.3299232143120883  0.2518673214123556
  0.4990672892878767  0.5863942861056448  0.2514581477024912
  0.3274934721580394  0.3301573935981188  0.1634546758225143
  0.5001519995222953  0.5877371703452048  0.0843143496254892
  0.7467271981955516  0.5021782087199000  0.4142614360745048
  0.8291788217996202  0.4179188731239650  0.5723376017754507
  0.6645587737551910  0.5865290212395192  0.9177840710048212
  0.6648685697467583  0.3348714367367897  0.1655730481368868
  0.4140330197598249  0.1635942534104089  0.5800544508022676
  0.7458451540769906  0.6689357335280561  0.5801165845706523
  0.4004138102938389  0.3337460633657185  0.7451665500200890
  0.3311944657043529  0.5863138873751903  0.2495102502961734
  0.4142480341122229  0.4180744047101801  0.4968398376698815
  0.4913405375235474  0.4171097079545696  0.5789728524360509
  0.4166180940847635  0.5027991191821877  0.4156891218374733
  0.6608196587618790  0.4198266617116583  0.7478628457599850
  0.2509885405414271  0.5001004967712802  0.4142077202365173
  0.3318430394203314  0.5850690883111619  0.5792540958277663
  0.0796092681030192  0.5851338712729118  0.1606065448786476
  0.6605251758551025  0.3315648736368842  0.8372027201086707
  0.3309831244168522  0.2511260170062664  0.7463895729319390
  0.6648018157818980  0.4178340086496360  0.2510313012857243
  0.6631867374759851  0.5116357333098162  0.8370065572753219
  0.5017013713707191  0.5076533620003083  0.8342028674762388
  0.4982535972153672  0.5871854825522994  0.5797753779061011
  0.6643708478645390  0.5872402130195672  0.0834342558445384
  0.4983189324094149  0.4222783654879746  0.7453749094070958
  0.7483741196709026  0.4947652467772277  0.2488253619593362
  0.2459033731378235  0.4167326080672228  0.8340426326999576
  0.8305201950636368  0.1642582417982189  0.3329975044712278
  0.4132679242258192  0.2458130637041464  0.4974549981933329
  0.6645984656917061  0.9148842679288969  0.4171109190214051
  0.8302521310121874  0.3328980973646914  0.1667142752710822
  0.1642981033552084  0.4115124228082528  0.2479603904395207
  0.4152706327565683  0.9184550394544518  0.1669330830319284
  0.5842534079590077  0.7532076181571363  0.0015374077226150
  0.3328675482904291  0.9990004208237202  0.0033532859591034
  0.6645189227961728  0.7543156444984359  0.0836450486781072
  0.2493135989949922  0.5038020897060137  0.0846799483840322
  0.6703946586370506  0.4182305303319662  0.5778088877668807
  0.5829880521269256  0.9980640877244331  0.0825018598558130
  0.5810265372524207  0.2468691170428882  0.0009945815126786
  0.9146949461293978  0.2485930690776563  0.4945624325945164
  0.1639684131754185  0.5018014799413528  0.1598078378953932
  0.1660628380890144  0.1618543148762814  0.3338722649824046
  0.0802943592725093  0.4164133349366629  0.1672694306932783
  0.5819983219164133  0.9986297296391380  0.2495086699403463
  0.6668420411201039  0.0816966747936019  0.4242177890352252
  0.3332800026298784  0.5089519892076262  0.8328331078003055
  0.2439484173388559  0.3247020473904883  0.9228256658217465
  0.1559829337877406  0.4155990683024320  0.9242610026884345
  0.5804521424881012  0.1715827262319642  0.7501762564587804
  0.8307448352762106  0.8344066570019100  0.1660270630146638
  0.4970751886337342  0.9178800737595377  0.4157191242419360
  0.5058184525330182  0.3334136857182806  0.1651856569744851
  0.3320619600474411  0.2431795436124112  0.0815356723521547
  0.2482779668387656  0.5025595469547428  0.5798802674881341
  0.2477092932014012  0.6721281116570826  0.0839702849255043
  0.1630104879327364  0.5898103776731637  0.7502207617411251
  0.3341653976936775  0.8344167818140706  0.0020193926680212
  0.4154464320636284  0.0002495416461712  0.2478299884371575
  0.8310100905615250  0.9971627635014557  0.8354269064831122
  0.7489935021215430  0.6742668967312087  0.2501157910101646
  0.0813863218210929  0.2471909310720584  0.1670178333552603
  0.1559318754569687  0.3272272181025658  0.8347070499082421
  0.0812243190243544  0.0793495663212341  0.4970712966253859
  0.9178278205479683  0.2526174775776315  0.6647867524986542
  0.0841548157195365  0.2481817274361369  0.4970728655337008
  0.9170735204048678  0.1630446592821641  0.9215891078085413
  0.8320261123622823  0.7530360279950626  0.4163244603601622
  0.5660986403531590  0.4204171600347321  0.8335861659972031
  0.9127582490077155  0.7544869500463252  0.1646501378677600
  0.1632159759237076  0.2451423076626500  0.2485661213933200
  0.2501581188999160  0.6691011967281949  0.4179667397689569
  0.5819796706011194  0.8331651447652029  0.2501053340592689
  0.8274551779246784  0.1637825579273298  0.6630907929187141
  0.4154117092668518  0.7500730326903465  0.3332439202440619
  0.6643851743194676  0.8349774362298870  0.4995758361603932
  0.3321766088624871  0.1621176145106485  0.8401314696304018
  0.3388000697133210  0.7522912025146726  0.7512703069544617
  0.8314831791735056  0.9144413532261015  0.4151076595054426
  0.6645589172070430  0.2388969292849506  0.7490873224893566
  0.4178537997185767  0.0791773377584386  0.8365498793392989
  0.8304240826851040  0.5059562706681182  0.6619808713505986
  0.4971945559536919  0.3314159221492458  0.3417916311355050
  0.6668287903250918  0.9976435182828304  0.8361670648669142
  0.1598586103469326  0.2454707102443452  0.9196978674916322
  0.4984192490501935  0.0813425269622435  0.9191590275825250
  0.9148212585096013  0.4977799599539645  0.2489927486829924
  0.5802282105741713  0.3265224024464229  0.5781870956217150
  0.9141521698956059  0.5032722995320047  0.4159897015152019
  0.4148633224424165  0.1645492245996911  0.2496325188693518
  0.7475485116621048  0.4186287330900331  0.0056733632479910
  0.5769403440094135  0.3292906838917804  0.7470805342058685
  0.8321600432851209  0.8345870507494625  0.3329914586529619
  0.2469740714497315  0.7509502995715666  0.6611372885059206
  0.0820314236609505  0.8350546633138869  0.7472992609747099
  0.9973367997676652  0.6708429020370604  0.0015850772331594
  0.1644926423801850  0.9164537513272629  0.5806227129163717
  0.0808422123807669  0.7539352363690334  0.8361486779787659
  0.5814499655986169  0.4188950185146372  0.0029877372303977
  0.9131444995440376  0.5855375075786263  0.3367569302160855
  0.9957174350134118  0.9158186578484907  0.9177618061582771
  0.5829067187107716  0.8334757508191117  0.0832413398997700
  0.2498203207184365  0.0797380279632402  0.8359616769346369
  0.9995207608199899  0.2473035488847439  0.4223812910561641
  0.9144078214247702  0.0791018249460888  0.4959898325430724
  0.9195746667637773  0.1639182038821405  0.7521314771976322
  0.0815850484787334  0.0792404726715954  0.6653771130759102
  0.0796751524735238  0.1626444731159303  0.9201385039689447
  0.5007623412448232  0.6686586392097723  0.6650755043381609
  0.8315357973350849  0.1645720148141062  0.1666827795682809
  0.0133186975464444  0.5044048606625195  0.6626875167878696
  0.2468551145331905  0.3307796335629751  0.4175477186921812
  0.7460827478107034  0.5881461074787245  0.4978885902971097
  0.7468141724506633  0.4190944966414508  0.8383894582396099
  0.4163274461287651  0.9975674559733165  0.4158428375111832
  0.4202738595402671  0.4246091637269042  0.1698366193418251
  0.4993592859480878  0.6714069931420550  0.8340579252367145
  0.0826391753726584  0.1604827750582826  0.7484938796581184
  0.7486593843763526  0.5847792594761957  0.3407731809754923
  0.4162126502152755  0.7513979320323375  0.8360373008061165
  0.1601082761081181  0.4157993995351563  0.0863160429821260
  0.0825221846886605  0.5906525306223294  0.8370824859547527
  0.6634514216677518  0.7526190674494869  0.4161167256939630
  0.9969918911563069  0.1630916823620657  0.0016193996714003
  0.9150865444506358  0.9986941390781118  0.2496469142208761
  0.0842410825730359  0.2481311945480254  0.6629527993016927
  0.5805887545168377  0.4176174284622317  0.4887925456992848
  0.0821629594964377  0.5873765805519929  0.6629669622534232
  0.9979839355072512  0.8355580633149986  0.3331610020289121
  0.9973556446887794  0.9171498355172060  0.2496278033440361
  0.7470277453342759  0.9130486951933764  0.4992141533416449
  0.9155765268374241  0.8350762527175865  0.5815634531612607
  0.5817851522865832  0.0819480716909684  0.6608543887975863
  0.4997013132240821  0.2400318716697221  0.2514879153421550
  0.9180534334141690  0.4167658265340017  0.6617905217357144
  0.6655104467414482  0.1642235581359642  0.1647284235776044
  0.0777368276467934  0.4974476095593997  0.2494838011986013
  0.5002027158629611  0.4208725916014297  0.2518164363907688
  0.1635366816187268  0.6712708305519853  0.0030213956033918
  0.0834492519854698  0.5866012433442881  0.4968236176406653
  0.0811959071170717  0.6688139701650271  0.4198204169172680
  0.9985247803981938  0.3373215385730031  0.3338026760327024
  0.0849515245533402  0.5018582293574213  0.5785398868169063
  0.6610572313819623  0.5850488350570823  0.2515686886630958
  0.9207656865224960  0.5032203224781647  0.7516564082378179
  0.9247456664008046  0.4170205683400462  0.8405571394589942
  0.4206971597319771  0.5039609618965565  0.0846269425648522
  0.9172345404748729  0.6704355141412649  0.7495707725027070
  0.8305552255708305  0.5899333682836295  0.9210178628036967
  0.4162699055208913  0.9988411335565789  0.5826668828112049
  0.9152696555074650  0.8337061650686601  0.7495213554795342
  0.5805477939783364  0.5865222342434173  0.4986596562443673
  0.5777368493974101  0.0799885921683765  0.3315660955104440
  0.9145752020231251  0.6694339196534980  0.5801017448459419
  0.3334594277200211  0.5043614115149251  0.0126971007417509
  0.9168538440695003  0.4157045772781708  0.0054894274779627
  0.5807380913317730  0.7531337255520946  0.3318448528564814
  0.8428550688211363  0.5842911681518371  0.2503259244059444
  0.2474280490869421  0.9998752100692406  0.4172205949522486
  0.7494609959957304  0.3309451214851176  0.4154775966383992
  0.8330665194792386  0.2512845576550179  0.7515473743029190
  0.0790844534604343  0.7540469949682593  0.1646450012734079
  0.1635307677265571  0.9199982067910993  0.2485527136217820
  0.1626221115675482  0.1626634765661783  0.1684436245842677
  0.9979397507197674  0.1622441040727959  0.1657877412851967
  0.8319819812588639  0.5854549924367808  0.0833258236403166
  0.2483318786038698  0.9992658216537570  0.0838000491645822
  0.2457051527242856  0.1630828552902394  0.4152863580930183
  0.5819098957606881  0.9972219154417820  0.5819825887249072
  0.4145020672474113  0.1638168456405482  0.4175718558062653
  0.9154476220644721  0.0726575094620463  0.6659559580289599
  0.9966648307392125  0.9974007193316191  0.8334929381269647
  0.9177780290349768  0.5047430128900586  0.5715874664934418
  0.7531918837348865  0.3317476352542421  0.7501646812291636
  0.9149190974553627  0.5877593342660554  0.4972961103831409
  0.4155176539667851  0.2455005865374305  0.0020255160485851
  0.1619961525749987  0.2437181474866168  0.0863516335391910
  0.2472820655390688  0.1630001920151546  0.9196017279255024
  0.8319499301607800  0.4162129299844893  0.7521157649952694
  0.3302162904319527  0.1620787398820231  0.6589691660098251
  0.1638951537986078  0.0078258255154092  0.8345335436219526
  0.9972296148041336  0.3327774478896493  0.1678765705645756
  0.7485059035014920  0.4167808870901816  0.3323954781735239
  0.5822447596841049  0.8341676108969991  0.9182610552513609
  0.6657049424232450  0.9982925180913297  0.0012361890803633
  0.4153718968431886  0.5853573847752791  0.4983204792828957
  0.4171108548578745  0.8349798341099861  0.5813424452112257
  0.5001597369009376  0.6688511967832207  0.1677058961113557
  0.7470665266774377  0.3329165000920596  0.2485083636737601
  0.6647102752099879  0.7526559183347101  0.2502618314478167
  0.4996609006529352  0.9971800179369025  0.8356627499883194
  0.6643468431992792  0.3309542583573528  0.6576473313792357
  0.8301184361316047  0.5038396601090882  0.0041041022017350
  0.4991675250324530  0.9978006634986704  0.0014133632613603
  0.6666181491388737  0.3322213454473770  0.4979179542165893
  0.7489586664420653  0.0813920233852510  0.1655561423944483
  0.4991172549378111  0.8338979726526735  0.8352071123689464
  0.4980340833713884  0.7520513908810164  0.2497377589890998
  0.5820172986790992  0.7516004119829922  0.8337674285664539
  0.6660041358166173  0.1658417796228047  0.4994740310365019
  0.7477747377291766  0.2409084623017693  0.8368468952144492
  0.0024468124473014  0.2449792160470797  0.7492698215562936
  0.5826432350153635  0.7517713569987579  0.1670683930138091
  0.4990698397685735  0.7526026896876198  0.7511154295876891
  0.4997577951445346  0.8348852116612805  0.6672236862071854
  0.5811387212467073  0.8339805339501281  0.5824882226894816
  0.7484637544314733  0.9164135249632489  0.1661642027757864
  0.8317411812045764  0.2473568587324045  0.5797212980222043
  0.5818846947203892  0.9157239099266673  0.6665738003922099
  0.5807510076393634  0.9162721308533954  0.4989646696892163
  0.6636554599783854  0.2477040049827035  0.9210371227798206
  0.7489396817458820  0.1635165876018250  0.5799473410190723
  0.6635071336598984  0.1637166203202206  0.8372767201279092
  0.4982023432069150  0.0809838063426571  0.4165193786604789
  0.7483163379116202  0.2468311339674662  0.6645000419432239
  0.6660987144729398  0.2474430079191341  0.5798307180304255
  0.6646968477875358  0.7520624650119244  0.5827327051062345
  0.6666467754515777  0.2488213024709899  0.4180470784854671
  0.8313866432567164  0.9966716666373813  0.4997800467869976
  0.9149737587661469  0.4160273090200710  0.4859090661436561
  0.7470111439079605  0.5046397334142456  0.5792235026205292
  0.9145000322594280  0.3309560395260573  0.4138356557688771
  0.9145923105675315  0.1636339825353758  0.4164234426060400
  0.9101148216937063  0.2487351029911720  0.3312078637813772
  0.8317659799627694  0.1641972730179556  0.4981137062978824
  0.0008062188057533  0.2468747676389389  0.5777218452753154
  0.8309556732336001  0.3269232557529841  0.6633979249521054
  0.9981261948615143  0.0796537897375724  0.7501031982808145
  0.7439092018488942  0.1610030918258368  0.7505932178494611
  0.6637775522154576  0.3322645559458402  0.0025241134058951
  0.8331576341416759  0.1641848020920760  0.8422006853815550
  0.5840422325721645  0.1642152949070210  0.2492845879395152
  0.9144002905249745  0.3311478082528110  0.0860478710071931
  0.6653127135392837  0.0809312216457432  0.9196775435718174
  0.6648687897759563  0.9973238884341792  0.6657097512495033
  0.5830555847310143  0.6699278524184430  0.9181125821721765
  0.6651625490616172  0.9159921707855339  0.2484166176817231
  0.8320715523105192  0.7529065345816979  0.2501260883421795
  0.5822793120190572  0.9165664734160072  0.1658774177323589
  0.7488184987679022  0.8335068081631726  0.2499804542920855
  0.7500579777115544  0.9976449244068304  0.2494176417645305
  0.5824732308642956  0.9159170663096170  0.8360651774285306
  0.6651684077442279  0.5025568334017633  0.4963912114001650
  0.6642915244239483  0.5870404893391304  0.5807461102925615
  0.8303940033374518  0.6698300096489972  0.4985972387933338
  0.6643250351798196  0.5886057263903097  0.7497783918063776
  0.8308139133302593  0.5953370781350584  0.7492696850498618
  0.8333579366886325  0.2469241390759054  0.9223350091378134
  0.6636507773110527  0.5868159088918555  0.4161755436573141
  0.7474543053822573  0.4172515132513919  0.4955276115477829
  0.6664423700968515  0.8347886867825436  0.9997255116892653
  0.6650231227448974  0.8341197389284483  0.1667360762741009
  0.6667557979849800  0.0811712957066262  0.2452572654752602
  0.9128189918176847  0.0814826623520569  0.3321259801356234
  0.4998800301124467  0.7524076871757176  0.9181147488122825
  0.6646087430137249  0.9156993877181741  0.5835813068429353
  0.7483184481017527  0.1648767577722847  0.0838687607305400
  0.9165197816416601  0.3262048827479088  0.5777881283370633
  0.9144292474778672  0.5010531140449024  0.0828292385846368
  0.9179740609035305  0.3320906863263205  0.9228303819660945
  0.6645461730537578  0.5017715356479080  0.1668059330404138
  0.7478801318213562  0.6690817663548615  0.0835863230583829
  0.9138581685668113  0.4167245240969750  0.3336278648806362
  0.9161308816741842  0.5042989509239233  0.9291809794256386
  0.9966246731255203  0.4994890277951622  0.3347943922960452
  0.9963068790852341  0.5004425446878787  0.1658397218773486
  0.7492641679983983  0.3315829532313249  0.5796034453616224
  0.8291536222543299  0.4174853031956419  0.4144453094920755
  0.8384506411008177  0.3269444531685129  0.8396491302257223
  0.8305973026681652  0.5879691973583469  0.5801152874900413
  0.8314896646718584  0.4172768125658469  0.9312969924523048
  0.8284508569009272  0.5044399917210888  0.4963952017080300
  0.0107177821771730  0.4158095215671942  0.7427343935066956
  0.6655290495431972  0.9157830079227607  0.7507386159878499
  0.5812844743809306  0.6698306236243128  0.7495141601110481
  0.7481122342205909  0.9973489617914026  0.5816804400744607
  0.9142744110678265  0.9165809396630253  0.1667244673961243
  0.4155278984354999  0.9990103591122836  0.0841103070610483
  0.7483451951777341  0.9969928811156479  0.7502657744034956
  0.8312039365509638  0.0749820401850742  0.7498566217190454
  0.8322443974204325  0.0806055917998117  0.9190091641010327
  0.9146394290452425  0.9974371252268482  0.9167485599066831
  0.9152898881803895  0.0798798987683113  0.8351470429389827
  0.8324038595859239  0.1638274550222288  0.0019263084613364
  0.7482946239815368  0.3316993548715714  0.9280250853598296
  0.9146346044024737  0.1646978901360069  0.0850741033350692
  0.9143677190009770  0.9968384983348288  0.7510907546443383
  0.8324359849858429  0.3312496521928116  0.0044310127341379
  0.7490411458153737  0.9171493108446156  0.0009496896018888
  0.4985039186739351  0.9170221283741019  0.2487892887129093
  0.9145331326322300  0.0810186314728764  0.1666998100272394
  0.6638711414166487  0.5006505828822702  0.3342424023722051
  0.4987806318212453  0.7516992816583677  0.4148881183224483
  0.8313550841736983  0.4157646847228986  0.2496225892147502
  0.6664349810373548  0.3319534126056692  0.3350905824490953
  0.9159813567693177  0.5947830574759021  0.8363849973635324
  0.9143983450928911  0.8345749654079908  0.2487952728629313
  0.8308639771439518  0.8342880539337487  0.0007103636751357
  0.6634105274069032  0.6698858413994604  0.4979487747039595
  0.8321399667733761  0.9161316945023388  0.2491180534378021
  0.9973379433199275  0.7521444833569073  0.4177745392176408
  0.9147108985346447  0.8342436489059694  0.4165361124661541
  0.9145910872136149  0.9147369798836684  0.4988898622418669
  0.9149142873548383  0.7525847012559672  0.8337128302111534
  0.9180882565166774  0.2454801096158562  0.8369389283195053
  0.7479034131184581  0.8325312344671673  0.4159832910652558
  0.9140315299329463  0.5884548924915319  0.0027669011298093
  0.9147779151930138  0.9149656700192312  0.6662836727419340
  0.8312252375844389  0.9167758778711722  0.0841574479344196
  0.8320322416952450  0.8325598323617279  0.6665368617605161
  0.8308785857681892  0.7530546291770215  0.0841053585749845
  0.0091369326099058  0.5070857336509224  0.8350770204394381
  0.8306612485729866  0.3329991889407206  0.3323256824907613
  0.9969647762763352  0.8337149207730089  0.8334481214656667
  0.9138430153752662  0.6704869649604844  0.0834132474558678
  0.8310040834722500  0.6718228213223139  0.8346952647868052
  0.9986930686786035  0.4163248302270239  0.9255455950241039
  0.7485076148327241  0.7519090067030039  0.1662687688214065
  0.9963650035916134  0.6692176213548298  0.3350460994361208
  0.9137472177973887  0.7527733306604927  0.0013182128015799
  0.9142712998622539  0.8352093187030578  0.0831848227876332
  0.8318356778395247  0.4999270430628018  0.3344637606719668
  0.7494841278595272  0.8331005887590039  0.9170273890407414
  0.8312097175529835  0.9152914644094456  0.9165988617130900
  0.8308158160067908  0.8334066431880264  0.4993352651471163
  0.9155612674455592  0.7531623166388312  0.3334237166709704
  0.9141078343718232  0.6714730254715091  0.9197466124839183
  0.9150878538366427  0.0804651676747139  0.0010547470059618
  0.8307570899574461  0.6704814564226466  0.0018978178781369
  0.8313931058025624  0.2478640325129842  0.0850838571932500
  0.6646360947504620  0.1639787163347313  0.0020558888473868
  0.9142684957437883  0.3325387698062289  0.2484957526549490
  0.7491741337236933  0.9152333141870812  0.8334505324921011
  0.8313170078931014  0.9985623164659619  0.0009095265758911
  0.8317154450847901  0.0817339562413415  0.0838062624716580
  0.6654941657262308  0.8337360232990740  0.8334579195776632
  0.5006947462145225  0.6707906107671351  0.0023535265666524
  0.5824202726013588  0.1648207128365934  0.0837285870921314
  0.3334871139895230  0.8352204844236399  0.8359500597054194
  0.1651398922991972  0.7520968065910372  0.5800842300589357
  0.3332873402777560  0.7508313286666251  0.5743445862930732
  0.4230297667018851  0.7521841294564874  0.6652576473697158
  0.8311952609068768  0.6707048966497724  0.3350533394839963
  0.0018123811270174  0.5892875526741552  0.7495412030331288
  0.0829490252626654  0.6685727511012300  0.5796541635346056
  0.9149003072598744  0.7508998808045116  0.6657060760920986
  0.0818490831468869  0.6698355397535648  0.7505966605866320
  0.9967580177087393  0.7528076551037429  0.9183842130444460
  0.0800371405837891  0.8348361802365236  0.9193681323125951
  0.9144965838992249  0.9981752108155926  0.0840704210608714
  0.1648726329584453  0.6638706302942129  0.3355004905266603
  0.9982175236838325  0.6694182263475894  0.4986186657226875
  0.9972464424238344  0.7516956716317196  0.5816585441202877
  0.0808918809112198  0.8353409313348467  0.4164846399687099
  0.9992975278776939  0.7525075402403621  0.7491298987326384
  0.9990676144536974  0.6716379562054132  0.8344892844006312
  0.0809762333783757  0.6710406084244558  0.9195511772690458
  0.9135356420759519  0.9166867661234218  0.0003710391750066
  0.0002493629627838  0.3319134530127894  0.4965766331223700
  0.9971481397311689  0.8354440926820302  0.0012388867168125
  0.0690129532807839  0.4139390719482127  0.8380914536300890
  0.4143474611708075  0.2442216198984182  0.3350125171107917
  0.1670730960659931  0.4155862047602791  0.4162272560924853
  0.2493008454014620  0.4173796495456045  0.4976662265525211
  0.0783231843571017  0.5015682859444192  0.0841010757786124
  0.2452767958556499  0.2388022545554761  0.8339705430420403
  0.9963661307340453  0.7538088923429302  0.2483343328628081
  0.9141065696509367  0.5856415111577405  0.1641257779672005
  0.2500449212263755  0.8348986728459654  0.9206902408133293
  0.7470224295906271  0.6706288439359736  0.4164964821003578
  0.3338101289289926  0.9995763111602226  0.8357437091682427
  0.4173329489002501  0.9175189839928195  0.6655585240159161
  0.4173059250681964  0.7511390986434728  0.4985147986443682
  0.5838522350967693  0.2468188722160627  0.1666229555166769
  0.4983021177150953  0.2463619074564082  0.4172435670593875