 C Cr Ni 
 1.0000000000000000
    21.1200000000000010    0.0000000000000000    0.0000000000000000
     0.0000000000000000   21.1200000000000010    0.0000000000000000
     0.0000000000000000    0.0000000000000000   21.1200000000000010
 C   Cr  Ni 
  35 259 605
Direct
  0.7520861155718194  0.3249211847642875  0.8396774918726619
  0.3384040578642316  0.4124231977692583  0.8321848915372255
  0.6568356718878805  0.3266171089121704  0.7462228248949071
  0.1525699244576980  0.4165517397659359  0.8286271039506593
  0.4271653786959498  0.4148961094846848  0.7393499433796413
  0.4256998945503506  0.5961502210528460  0.9242931058055064
  0.2506409831662199  0.6646984412515246  0.6619134178849024
  0.1545723198870092  0.3231745141653627  0.9226426303055807
  0.9124138815440774  0.5859831609247855  0.0827638443371365
  0.2463833916105665  0.4112621024988123  0.9245844633478293
  0.6556572507355326  0.4179935730127090  0.8391044047246802
  0.2420424656894433  0.5063687384588632  0.8266755999028241
  0.0768246974268293  0.5920865716948542  0.2458648918163381
  0.6653755981021430  0.4997745070143206  0.2501398970560242
  0.2505291238578568  0.7540223410825325  0.7533297686744540
  0.9198477019136629  0.4140022079034550  0.5753430255521821
  0.8262467741761652  0.1594689365399363  0.7556206944916172
  0.3363889701234484  0.3223370057881731  0.7402453316619938
  0.8316459209150890  0.5065471504788066  0.7553553897988570
  0.9191528899039781  0.2520105397980921  0.7570159990234521
  0.3327138452445882  0.5984946477087179  0.8244479318577494
  0.8259381453433641  0.5066014315591927  0.5740307261932779
  0.0775055966004300  0.4072696601535555  0.2476322762313132
  0.2477321792335492  0.0844431967879860  0.9183929942252784
  0.0769603622849008  0.4991170183635996  0.3388002655083156
  0.7431777403430874  0.5102719835518656  0.8410160768014695
  0.1712174939904613  0.4991378573502121  0.2450148122288446
  0.8276678169215421  0.4126969220199973  0.6656286706575912
  0.4983785316802671  0.1628949259360901  0.5790180371823116
  0.1708152968030601  0.5917258532085949  0.3375389053833662
  0.4294251228080135  0.5054224644309971  0.8302906301350078
  0.9173637436306376  0.1608454198351467  0.6623969968406409
  0.3357331695704591  0.5039709760763124  0.9238885816709839
  0.2434094538553432  0.5061034887703523  0.0116568819683009
  0.2458168917584174  0.3204562469648580  0.8290907841639267
  0.5838765563493266  0.0798832870192463  0.4972947663492396
  0.5819667188594650  0.4136889573330832  0.1651823493867619
  0.9121285588706810  0.5867188751735629  0.3341321654550881
  0.9978364315774182  0.6750815033985231  0.9979823239395904
  0.0824767874341392  0.8348722570602946  0.7495989292066912
  0.5819045358213562  0.4138721818601950  0.0072692948196080
  0.8315476681962635  0.8360246646070046  0.3340264194419308
  0.5673580538574819  0.3259785464453306  0.7487284272459397
  0.5813978883757341  0.4166387899768574  0.4947670848370229
  0.1692310043320462  0.5004944867537784  0.3368415993643522
  0.4998238614740090  0.6690398578820721  0.4969280735928017
  0.5834520523271488  0.3301657698015276  0.5764511803768795
  0.0813614898078666  0.5005065596793322  0.4276414741902511
  0.2441679601725716  0.5933346327996731  0.8377588705301210
  0.9955395047508535  0.2439972811446546  0.9212032055803020
  0.5002372880992650  0.6708607648503995  0.6636323035076167
  0.2483697254256305  0.0812702733025580  0.8282932358685464
  0.9967540174482877  0.3306759744214180  0.3354299230282268
  0.9147727158545079  0.0785183306959001  0.4967605199716951
  0.9161963547619756  0.1617180161847228  0.7536214524384423
  0.0070487860455673  0.1624796829589145  0.6632337296167857
  0.3318645007319082  0.4137921831484951  0.2493289728081533
  0.8305354292590874  0.3308194909824743  0.1669579945980457
  0.4994126552429575  0.0788319981287948  0.9202270591287639
  0.6663028525831719  0.9991201840469049  0.8337373641755578
  0.0804242378240092  0.5864795136198865  0.4968673588543409
  0.2502040441053537  0.6757324349223843  0.0854300410591622
  0.0788824120848022  0.5887977711326013  0.8358901470710741
  0.4138580452356994  0.0824811040080737  0.3330454858564179
  0.3326883699505880  0.8372780396940200  0.0031570050508543
  0.5821444462815706  0.8354000137270866  0.2512353451379150
  0.2474975663505906  0.9990590515041790  0.2494368479575051
  0.8299078749614386  0.9953295856365557  0.8366345961770756
  0.7497744810979896  0.6701478662909691  0.2512770472111364
  0.0795286029522858  0.2448595595211008  0.1680686753174839
  0.1570738057736319  0.3258927879438018  0.8311453635375374
  0.0835692381133284  0.0799739828202497  0.4977733087025820
  0.9160046455917549  0.2519381513419920  0.6655205688285507
  0.0828536187986371  0.2472195798124486  0.4989811918393354
  0.7483708849654945  0.1627321380154254  0.0860130114897672
  0.5182040661508484  0.5059544602837769  0.8348629890925660
  0.8319939299727024  0.7544975365840761  0.4165911115190338
  0.4282645300516819  0.4149831392178451  0.8324931933230333
  0.9147963901984500  0.7528746840094389  0.1668641206119567
  0.2488050794136565  0.3293219179670214  0.2497236510325539
  0.2513833092773944  0.4994809799528661  0.4184220409562379
  0.8275089266901119  0.1659012341402530  0.6639506498954740
  0.4150122793041753  0.7533941951433505  0.3338745953288230
  0.7481067386614091  0.8350954539776780  0.5810187082341657
  0.4144762019846744  0.9975017039658571  0.5804907020854030
  0.3422192378445682  0.7561421869454474  0.7482523302989914
  0.9144672569651314  0.0001502829423283  0.4168266493878811
  0.6622368715799499  0.2372860348192667  0.7498750551414938
  0.4974048056808727  0.0794927331289214  0.7501682750896879
  0.8284703050217527  0.5046032425922680  0.6653650271406094
  0.4978643037647953  0.4170580974314470  0.4146249697963748
  0.2506742527982077  0.2445617825970064  0.0060299486057673
  0.0802489720466064  0.1607488937249483  0.7482644284258809
  0.7485719060078960  0.0825135391293049  0.1660484221029270
  0.0797365969822935  0.5001418529662588  0.2483997313220046
  0.4161575936500637  0.4150040016917608  0.3342006355115688
  0.1625653792713184  0.6739119180074657  0.0009195689763261
  0.1645030041733936  0.6702016064622202  0.4978595954894086
  0.0789865411916854  0.5891589518488175  0.3368473101112991
  0.5831765332845513  0.8350450969221875  0.0851810996247883
  0.9973624057772413  0.9175339017937856  0.9154879837328838
  0.2491196708902763  0.7553314795117049  0.6628879269102143
  0.6630434522808775  0.4143055679907833  0.9305826312550198
  0.5817998680150946  0.7544113241668038  0.3323325946837476
  0.8297533706223202  0.5861033319988980  0.2518059260291851
  0.3319777423611731  0.9994775974715039  0.4977410433062315
  0.7487428911169332  0.3300985220858070  0.4128656657138829
  0.8275284137201485  0.2509894481138431  0.7519671760140832
  0.0796197252098286  0.8359643851277275  0.2506981320864791
  0.1636158919856546  0.1640667693641570  0.1681481039357963
  0.9972434924697401  0.1622935657067481  0.1666368928322434
  0.8231927281939823  0.5859584383325490  0.0835634560985317
  0.2484159375803435  0.0806112513417396  0.0086774296890462
  0.2463139198681468  0.1641972190014849  0.4153986761159684
  0.4160177334471792  0.8355578061585842  0.5804059920851257
  0.0808672907801130  0.9981496707918588  0.2507076219461740
  0.4141594035287983  0.1629455599752068  0.4124392577916701
  0.9970666898351501  0.9966816824285162  0.8356557067105882
  0.9169758419584355  0.5061814821953197  0.5823137951163222
  0.7473334015623020  0.3323498112297255  0.7489295013361047
  0.9140208189981307  0.5884394287840365  0.4986336671851486
  0.9154349474343461  0.0703544089501812  0.6655135596881372
  0.3318954210523791  0.1644105861088571  0.1685014706302574
  0.0760806608860919  0.3262271950383851  0.0858693147497456
  0.9972304965972025  0.3274284287310262  0.1645181310616068
  0.1586377515321447  0.2340081565853486  0.9194227337848615
  0.8304439805820668  0.4162868545279372  0.7546860519068438
  0.4083428109385899  0.1621231360459425  0.5789908565269938
  0.1633584167232909  0.9992447585907012  0.8342965663815457
  0.5820618835302109  0.0814949114618211  0.3314259595931471
  0.1629636112127915  0.8365770761876161  0.4991536818421979
  0.4172923902638458  0.3295035781856683  0.0865887113280531
  0.3325821717662710  0.9996062004444819  0.6652448432504550
  0.1537400305843769  0.5015006454290418  0.0072330296573357
  0.9972867367719411  0.7524877610978828  0.9178695861836750
  0.6646378458457737  0.7530420411430182  0.4148190706229097
  0.0799148819549202  0.0793905205492069  0.0019851511043438
  0.9155685521066583  0.9995474547360886  0.2504604324631859
  0.0636007825708665  0.4171284018083787  0.8333061664412843
  0.5830049857103609  0.5865587851571789  0.4957381083295422
  0.1588070364277473  0.6685637660257094  0.6653350683716029
  0.9963294326702826  0.7540210815148564  0.4175987417156450
  0.9975863592844146  0.9181489800590819  0.2511012422705570
  0.6646457819948144  0.9990402706193983  0.4989678239731623
  0.9157896121946351  0.8347268959820847  0.5820197497580026
  0.6644828402405302  0.9977144044436261  0.6650704445732792
  0.9158239876012418  0.8344488283813055  0.7492250802065318
  0.5810027950194409  0.5877570101780215  0.3336516660552764
  0.4990003137259690  0.2458225566202792  0.2492602965403299
  0.0814088359243321  0.4092795247695030  0.3372002562810641
  0.1636105432201346  0.4151190171986748  0.5805767097979726
  0.6627943837558591  0.5003751879524935  0.3399045401478995
  0.9222726078377642  0.5052635780508692  0.7471776864379372
  0.9995409045925356  0.4185400518632078  0.7473556720213940
  0.4187801479483077  0.5889291725371110  0.0138779063245283
  0.8318680306171872  0.5960702516313877  0.7492193795048548
  0.4186927255504311  0.7588593878413695  0.8334137399709657
  0.9159712845471137  0.5890841488777816  0.6653234560005427
  0.4251620766293244  0.5045351600045483  0.9228567342745326
  0.9132932201162429  0.4953994973627369  0.0829248681294250
  0.7510344736894525  0.5877729228747292  0.3330453497866736
  0.8305093902565456  0.5894974184490254  0.9183028373649025
  0.9191472316413984  0.4178126611974098  0.6666511648144207
  0.8301012398940175  0.7536414927306505  0.9169113681160527
  0.4150806093162265  0.9985757851578850  0.4149238808895850
  0.6640784826188332  0.7545586826601286  0.0861874339464267
  0.0805933278565538  0.6803330922683466  0.2515487940549824
  0.3311757488364261  0.2473343230043707  0.2509470369080626
  0.4154666859355146  0.8364881492543627  0.7502688704674043
  0.1593685327236455  0.7517046792564609  0.7491049468356341
  0.9975753747677821  0.9170932786188520  0.0843950846402830
  0.7508120846106960  0.8361984828997153  0.2505038024919483
  0.6643565672421399  0.4134422560914697  0.0854865669055033
  0.7476835437481932  0.9164689648498338  0.8335444586759959
  0.1643923227581475  0.9167688231095200  0.0845099225277759
  0.8295638752689392  0.9177262194177355  0.9166157268495922
  0.4170824126673096  0.1617268193514989  0.7493939323325488
  0.2472585066045219  0.7570813931584712  0.8424947607020805
  0.8309202218250192  0.9168247058297123  0.2498103424133042
  0.7475327962661932  0.9997038523493900  0.5822130522117512
  0.7483121608319814  0.0821827762408059  0.3314663055692997
  0.6662733747981999  0.1641011552893323  0.3310574159829976
  0.5821730797010221  0.1640686144603770  0.0858260680743174
  0.2490616798541406  0.4132191122978362  0.0144465422206552
  0.3368555184588788  0.4131816060568562  0.9231448677696446
  0.7469699397024916  0.2460399093889369  0.4967363689583169
  0.5802327577043727  0.8372059103174170  0.7496171876085358
  0.3324572067543006  0.0808742489330302  0.0864974346404844
  0.8276927637251253  0.3222893398568620  0.6639073561396391
  0.7479512504397238  0.9168554007658722  0.1665976526057294
  0.1642214044501260  0.6798728845057883  0.3328594586179845
  0.2489881479762046  0.1739950625996845  0.9226970517685449
  0.6632860991161597  0.4151355052591942  0.5744201267285910
  0.4994315439815745  0.9987528691563695  0.1692082586325840
  0.4983513231348117  0.2427861960709293  0.9232580205750422
  0.9155498471766166  0.6680175718935546  0.7495589894431742
  0.9143536710330519  0.2466620189955832  0.4961950205173262
  0.7468063930703336  0.6718780145690366  0.7478346393309873
  0.4993573492964298  0.9164210802965286  0.7497275590382780
  0.7469250446510007  0.4181421852282025  0.8380386102687803
  0.0829050682744756  0.5871828825007251  0.6631803018656103
  0.4977820258822312  0.9181470881361568  0.4146661531568775
  0.1642144773520185  0.9192881282363425  0.9174255038377289
  0.9977476628230392  0.9989283088938333  0.6643789043778994
  0.2455094064478741  0.5022607781756050  0.9213641591394219
  0.6650464031034864  0.2483908628210609  0.2491904098438093
  0.7473220325680459  0.3325186990691917  0.9288660848082507
  0.6546058139279912  0.5071932079529219  0.8354752719151149
  0.4984035556319415  0.9165022567434730  0.5815072281886440
  0.9160747581653094  0.0822427932023224  0.1679002789084350
  0.2491639695570000  0.3308091849135616  0.4171530189573905
  0.6639947028864149  0.5892380972333763  0.4128526997000002
  0.4160652549310295  0.7552193723945966  0.1681250347783763
  0.5793961329449067  0.8362120722420290  0.5804823009715606
  0.3362887266422684  0.4136955725029010  0.7414171683272723
  0.1653735512438450  0.8355494773691724  0.3329132981822366
  0.1674377165052527  0.5899654312151018  0.2473433374429271
  0.0831025484138009  0.9158079667612754  0.4989470897874004
  0.7482476453361445  0.8349137159314379  0.7504455923803185
  0.2609679645392203  0.4994602090556056  0.2463186930619553
  0.4976174506875460  0.1645776918111706  0.1688939850166067
  0.9862692671273338  0.5002539789876532  0.3356177435228156
  0.9117322476970815  0.5871163594080404  0.1725346774809449
  0.6654491475814844  0.9990329914473539  0.0024002593943312
  0.9142357840984585  0.0804229123337698  0.0010142102339235
  0.8333354692493342  0.5040750070731520  0.8444304123271374
  0.4998572788029240  0.9994332556378480  0.0020906951595625
  0.5814493564249118  0.3307412544105911  0.4131722434166232
  0.8319075159272582  0.2469624639438102  0.2496717760597809
  0.1637624358076184  0.5002168324527037  0.1544263960393740
  0.1636596289942410  0.8331582081267828  0.6662314700557918
  0.1653036824694560  0.9984811152779389  0.6646200638690249
  0.4224436935798623  0.5938532315501130  0.8338543773661503
  0.4167460163937759  0.4155341821800851  0.4954807315716385
  0.6655039244991193  0.5880759230214418  0.0862298929739677
  0.5157062911218018  0.4201204167071754  0.7442143481190646
  0.7545982093705104  0.4998796038647340  0.2517053056401171
  0.2460037155198302  0.4148840811610914  0.8327991187687822
  0.8302650772617232  0.1631659954364316  0.3320960376348638
  0.3304545426865861  0.1640568953341777  0.4964228503268527
  0.6651924938160901  0.9181557591746489  0.4159122004097112
  0.9129943955539893  0.2472855546501465  0.9993844939326469
  0.1688579488524894  0.4087277607427344  0.2481480666422826
  0.4165175023847205  0.9188450353242892  0.1676837573273467
  0.5831985700656557  0.8368284818880884  0.9190043554145406
  0.8307720055407743  0.3298182546060569  0.3332550219599253
  0.3323595706576202  0.9998168962507361  0.0056100495241670
  0.1662518260958513  0.1640977331952493  0.3352343226940802
  0.0763022098706016  0.5005110330998275  0.0837516099184850
  0.5826119531513275  0.0002442912326718  0.2510344155883072
  0.6640454897114151  0.1628219473829039  0.4957636366758498
  0.3356632370697152  0.5046093954543186  0.8328021503042882
  0.2466616403213152  0.3206547936225310  0.9201241524860823
  0.1561043280697608  0.4140859238304059  0.9206827887474881
  0.5000612782142381  0.9175313185066706  0.9192133518603576
  0.9986859945614196  0.1631417228074852  0.3348836581165667
  0.3330467681315492  0.3288859993468356  0.6507920060243755
  0.2446087759862334  0.3303645070535678  0.7396282140233317
  0.3334056504274769  0.2330664755300633  0.7463292664825703
  0.3324039782158723  0.9997289515619150  0.8325095112932380
  0.4994842392477145  0.2403756883844099  0.7501149188526587
  0.5667974838573593  0.4124204234795788  0.8396257986545625
  0.2499519749443778  0.5054882648658802  0.0988213955936070
  0.8305474774630615  0.9176132611463615  0.0850251377740443
  0.6604765107028722  0.3280525859438010  0.8382544688057397
  0.5013576518344230  0.5879329427542065  0.0866232960627829
  0.2484340578394229  0.7540390180123007  0.1661759047481031
  0.2475296194676945  0.8428569762980833  0.7507326444746375
  0.1633486239954738  0.4159379265729468  0.7392257189394086
  0.3332652472383975  0.8349547508292616  0.4985810509829859
  0.2523543918423325  0.6644216291652316  0.7523228041376332
  0.3333567234080484  0.8351649237778915  0.3320795983602328
  0.3312162223647767  0.2448941850039864  0.5784055174525118
  0.3336235611383889  0.5943579785567461  0.9202772023175877
  0.4981352564096940  0.5867415986353449  0.2504581732730142
  0.3359707096192338  0.4117409927637524  0.0846305276472104
  0.3358374089751420  0.5014407111219333  0.0134975413333426
  0.7467524993153544  0.5008260127710846  0.4098362591290561
  0.8286278645107504  0.4157630231611252  0.5760838928864599
  0.3358025203127463  0.3231628582762893  0.8319609089661069
  0.4164595878267336  0.3323213079896162  0.4139338270196201
  0.5849111363347528  0.6742830009184552  0.9192546889035164
  0.2497993419998656  0.5761717830344825  0.6587766808757997
  0.1668141178722562  0.5867439623274074  0.4271608086361864
  0.6559833232641381  0.4174476073571705  0.7469054735775130
  0.3351537693836678  0.6678122807207855  0.4980044873240203
  0.9954973668536665  0.6749457822116370  0.1673251977786686
  0.5030118780481944  0.4169749394370099  0.5739509257022051
  0.7365497099051956  0.4173241681981772  0.6650052397134332
  0.3345054482057743  0.5867020296380289  0.2491633407857778
  0.4274721437861098  0.3239556700930562  0.7478262494142792
  0.7450733470888051  0.6710852623785228  0.5804363545288972
  0.4998223111046008  0.2521058684346615  0.5764474558953044
  0.6654703836076641  0.3310749706502359  0.1650918557387145
  0.9996296761644031  0.3319182121722956  0.6630013027303903
  0.0770733123281254  0.5032198476980351  0.9204759750213425
  0.2496140363032822  0.4987903726804985  0.5789330632550408
  0.0054630166818945  0.4164499786546544  0.5789321663926668
  0.9952166426457763  0.3286210192746161  0.8326188351461051
  0.0808074679930490  0.4170600244152590  0.6638282403676403
  0.0798489296459538  0.5894662564715181  0.0023085119314042
  0.8322443607258199  0.4133654887136943  0.2506153638813645
  0.9992759282302592  0.5895663670408362  0.0826671599143713
  0.9909084454814440  0.4152181556588550  0.2498569872519894
  0.9903066061835116  0.5851697446969321  0.2505447406342293
  0.9958799415570633  0.5875979023721176  0.4176436415374755
  0.9988318788152758  0.5878052012216488  0.5811344497117954
  0.9967711729920572  0.5012542157430349  0.0022254961016972
  0.8298233734840921  0.5007590813099921  0.1657764563328004
  0.0800820947854572  0.6738618716028337  0.0826261447401144
  0.2482600445670559  0.9982551368065103  0.5818543196172392
  0.1651465000175106  0.1637723583175408  0.4973678075512055
  0.1627598400109535  0.1625722296962759  0.0054514714428204
  0.1646862741213726  0.0802013671780044  0.5813103763088140
  0.0799235537907137  0.7560489980672518  0.3352625662765173
  0.4990522122026583  0.2454963384633709  0.0869254495605362
  0.2482214633459237  0.1636150014591117  0.0867842617071907
  0.2476373857339505  0.1642422019881414  0.2504314008091168
  0.2481250642768730  0.0809248697479363  0.4979672103755253
  0.2482526847957149  0.2459569760091870  0.1684787048710238
  0.2481267660771392  0.0795046799904083  0.6643944605786801
  0.1648930376585095  0.2476897296851435  0.4159816341285566
  0.1636556557780130  0.0785853575855472  0.7475887162486274
  0.1651892344672339  0.3311494414085109  0.4983754037595398
  0.3326091552269470  0.9179610423640202  0.7492722486657278
  0.3309463309501429  0.2474645303932883  0.4153057026245735
  0.2479947062698746  0.1629296614499373  0.5797909691374389
  0.0818620708028419  0.0818152711179040  0.3334166188113426
  0.1641492149220997  0.2459642547093406  0.5794340379073751
  0.3320218638211901  0.7577709351252649  0.9217459425580137
  0.9984533604823200  0.9175487371234248  0.4171335308327618
  0.9976430064959901  0.8354825076059740  0.4992798663734391
  0.5835655984486889  0.7541899389110893  0.0027641124603585
  0.7475814723549382  0.9152539079416655  0.6653856692949399
  0.6654336212956090  0.9174849876257577  0.9175327984088393
  0.8315225200351988  0.8343669488286530  0.8326989274317448
  0.8308579492158022  0.9163491917094606  0.7488239275809635
  0.8312993554094184  0.9983166503046889  0.0019912847390831
  0.8318186032537471  0.0816967193877496  0.0843148448216177
  0.6652782741411699  0.8352934185855821  0.8328853229345800
  0.5019627374404267  0.6731000277088611  0.0043157071987281
  0.6644879443482966  0.5916261678071124  0.7478118177775038
  0.0801714948283950  0.9174578261489482  0.0007323171065125
  0.8300970178017330  0.9966215330587277  0.6642868758261264
  0.3330278730529453  0.7560711109995113  0.0855734795153582
  0.9985854207872775  0.5890798181250283  0.9187257876292190
  0.3388628610898044  0.6692478586479514  0.6634688904312831
  0.4179905270650024  0.6709018332328296  0.7479221267476953
  0.0003557392923497  0.5047207033180970  0.6632128209621035
  0.9987820782307142  0.9984623141043129  0.4987203252437454
  0.0815110970862874  0.8352475364364655  0.5819801611921001
  0.0814435616188421  0.7539299561730746  0.4991427221222920
  0.9971561537173513  0.8347155880037969  0.6663363393920656
  0.9979439514893401  0.9168257044449787  0.7491005263297592
  0.0801702904298646  0.7525942352863922  0.6643151177892773
  0.0815441038506135  0.9166960359157793  0.6659666990694488
  0.9138875783853271  0.9154368866599424  0.8338727020061437
  0.9969306891127018  0.9979737177689397  0.0011427900220842
  0.0803808166463100  0.9172007059379016  0.8332420269114261
  0.1630667887233992  0.0811392929641373  0.0862984924372530
  0.9972103675215952  0.0810548609853749  0.0841937891416992
  0.1637296815598575  0.9988833472039957  0.0023118784394912
  0.1631375252443474  0.9985840118100242  0.1682524830339082
  0.1639968165959823  0.0823742851592681  0.2509726229918778
  0.3308085908734474  0.0822448880630353  0.2500350960341542
  0.1651632789494907  0.0807047799878452  0.4153852061498229
  0.9968220611141103  0.8362198432725843  0.1669159707453488
  0.2475812244070958  0.2476871993717640  0.4976149792313429
  0.0816638493710522  0.9169152242271688  0.3337490562802702
  0.2486507352014275  0.5937581474289850  0.0038599985951055
  0.9968773506282080  0.6705760418296036  0.4989764830695810
  0.2522171883731801  0.5844607398313295  0.4993488882083866
  0.2575648987572965  0.5847846632695024  0.3341572256154667
  0.1634097607115815  0.7549489586425302  0.9182315713811289
  0.0805497557176053  0.9170790808774306  0.1678491511362875
  0.0800285278241360  0.8371625399377283  0.0830803872181869
  0.9991966062255051  0.1634804186868160  0.4977576816095988
  0.9964397984250962  0.5022781262804538  0.4989183678051597
  0.0820865080529045  0.1641384718839539  0.4164866049523975
  0.2486810357555977  0.2480574777161304  0.3337772725870894
  0.0824750666147023  0.1624664025450681  0.5792661719413431
  0.0816091493740428  0.0779204676126074  0.6651578127185401
  0.0829789775228877  0.2470855953744853  0.6629255872557472
  0.1630606862118620  0.3308809678740311  0.6619730672126708
  0.3333377125264670  0.5905632435952926  0.0879166813702442
  0.9151366327747741  0.1634097090463015  0.5753881348980203
  0.1637660668411137  0.5922675017479990  0.0840299027100778
  0.3303343961404284  0.0812925600179292  0.4148313168928616
  0.3328381144269042  0.7526805781598562  0.4165056779966473
  0.1627612258365134  0.5018592429165123  0.6619135801959296
  0.1543512354141627  0.5057196445330370  0.8359780016541569
  0.1616222003495475  0.5879294828846341  0.9212305089931092
  0.1627092200414100  0.6709148542709842  0.8348997853181005
  0.0803187830587716  0.7553607165349379  0.0004139569557157
  0.1645591379613835  0.7549287505010017  0.0840565156362285
  0.1650815862406723  0.6742025254206089  0.1670027736847760
  0.2503169633733895  0.6729624207789385  0.2505291717708612
  0.2485948294231193  0.8364477642447574  0.0845593774109235
  0.0796811054212246  0.6723779769095271  0.4168931612768214
  0.1643934755584247  0.9983694401616613  0.4987057642470600
  0.1653814006607711  0.9166817619895933  0.5825145474157083
  0.1622841637706922  0.1623865043325728  0.6640294597132180
  0.2491128826989318  0.6690188796064449  0.5750584219924429
  0.2480282606750040  0.0814192673130287  0.3323283994469230
  0.9146065653624237  0.9176090081035299  0.3340062730799007
  0.9973898310111284  0.1619178585648068  0.8345769624627886
  0.9949814196184625  0.3301614404671244  0.0037332060680241
  0.9982256594548577  0.2462110303325695  0.4159713340625031
  0.8310456573057963  0.9177281513077294  0.4161777514075144
  0.9984147415361924  0.9168167799783902  0.5825151007159105
  0.0822328674201537  0.9981475864429086  0.5814798860505175
  0.9989458403369361  0.0812039616713776  0.4165017705923710
  0.0807295023471691  0.9980269725960059  0.7495721216294077
  0.0804051127275425  0.9984721508505564  0.9182771962947172
  0.9966077299763656  0.0790717958827096  0.9179513363197016
  0.0796191604636007  0.0790944922566569  0.8329643818944750
  0.0765728107167721  0.1607193538441611  0.9185634334118639
  0.0792911383234446  0.1631656395417690  0.0847608170162559
  0.9152444751164155  0.1638905374492702  0.2509689269998300
  0.1640937529861667  0.9165468648071959  0.2508604833171608
  0.9964261017787481  0.4138302355925161  0.4168120999864551
  0.0819201475272064  0.3302726435021737  0.5803214442713518
  0.0820315256500015  0.9988588889455575  0.4168465487682912
  0.2469772585069239  0.9981647000380230  0.0869287956799434
  0.9982228238108218  0.9992452513021660  0.3340385115497045
  0.9963958229955735  0.2454824526796672  0.2512336115783471
  0.0777635184175044  0.2447902534286283  0.0024815771283100
  0.9952808881169060  0.4147341343678358  0.0846448928088019
  0.0798753763042708  0.5885753081706703  0.1597715351489047
  0.0806901658971027  0.3215464449720112  0.2508966810951589
  0.0806322119691787  0.1643216471346413  0.2512993485630505
  0.9126866721291421  0.4140043413443902  0.4902105905753552
  0.0833875110576439  0.4137134443763614  0.4976035236296418
  0.1654407097962435  0.2460591334914642  0.2513889155518912
  0.0810587628672355  0.3291293904037317  0.4170458304201675
  0.9147965130130076  0.2468223095356968  0.1677790523609184
  0.9946322460630428  0.2443901001783703  0.0837139644257991
  0.0803627602585655  0.9986325424816204  0.0842230662221062
  0.9960144072148477  0.1621134426770230  0.0020255019628558
  0.9978383905108325  0.9990183096167844  0.1670002413075383
  0.9986557652623997  0.0813589704072271  0.2517991486502251
  0.0804170283582956  0.0820108756540018  0.1687451980813255
  0.8308001658454507  0.7530759539046362  0.5822673695454592
  0.9148384107705527  0.0814373735675360  0.3335108224216166
  0.4154807797989910  0.5848775427665424  0.3315608749569910
  0.3342821145973298  0.4987809832268499  0.3337220375168771
  0.1638547295859568  0.9184114813133092  0.7490399469391907
  0.5008091540609719  0.5872799714049618  0.5781937677913259
  0.2483948642135118  0.9170709660309764  0.6644828793591474
  0.1632085871609820  0.8374174225947368  0.8344223779238047
  0.2471831402814086  0.7559693430417261  0.0021063435678422
  0.2472198140733876  0.0815618477548705  0.1682519560438312
  0.4162203846406920  0.9993088702434376  0.0856652955746653
  0.7467766979131240  0.9976733000632451  0.7499514051188759
  0.8309198077091909  0.0730647055886964  0.7494214628308516
  0.8305910211855979  0.0789372483461348  0.9194561030396555
  0.9139725045072162  0.9974465252068697  0.9184635468784936
  0.9146878120356914  0.0780023516559338  0.8349436512304478
  0.9143247362584742  0.1611070512485844  0.9199070865761589
  0.7442829011037267  0.2388551418576073  0.8364050762471599
  0.9135555569214429  0.1634506904454127  0.0835536094765831
  0.9154079145199745  0.9963232667639530  0.7518599668327136
  0.7479207819892293  0.9169774108211398  0.0016623184626293
  0.8320375235479029  0.1638208820303148  0.1671556222741872
  0.8321916746987312  0.8351712574465447  0.1668152841707629
  0.6659576964498014  0.9174831763101057  0.2500738119489049
  0.8313792246862162  0.7537313481116211  0.2509725503659848
  0.5824440072594551  0.9174783333247812  0.1679860155492138
  0.7485291878397126  0.9179115600062513  0.3334929386817873
  0.6657575809255868  0.9997915394293305  0.3320556621303273
  0.5831314510519189  0.9178839896006159  0.8342974927046120
  0.6647137448338606  0.5018805424715241  0.4927801621289211
  0.6637627849974677  0.5886665833238263  0.5790130035995817
  0.8301470720019584  0.6709762019241629  0.4985560850740702
  0.5814537630361193  0.6727990322443002  0.7465140163744740
  0.9993392824591731  0.6693993467272988  0.6652628279602647
  0.8299623427611115  0.2472586105943512  0.9215650992519576
  0.7460593238917570  0.5873460353214467  0.4955867157802506
  0.7462697457367133  0.4146562946218199  0.4946011646943783
  0.6656056381749428  0.8352818176664758  0.0021342700762562
  0.6653249662793412  0.8350475273327622  0.1684881881227791
  0.9143107941324108  0.2463177454518633  0.3330623882750066
  0.7474223486795825  0.7539992779102472  0.4989586301352260
  0.8307839390298885  0.0807104538009870  0.5813791107381125
  0.9149435994979707  0.9983727549586946  0.5797607782590110
  0.9996772451225601  0.0798708997592678  0.5799104489176344
  0.6637004916137372  0.0782572793322375  0.7494806883229720