 C Cr Ni 
 1.0000000000000000
    21.1200000000000010    0.0000000000000000    0.0000000000000000
     0.0000000000000000   21.1200000000000010    0.0000000000000000
     0.0000000000000000    0.0000000000000000   21.1200000000000010
 C   Cr  Ni 
  35 259 605
Direct
  0.2517156226591985  0.5001340334218433  0.1598217808474562
  0.9973385248917317  0.4963613281150682  0.2536981790920111
  0.8309691182379968  0.2526696215511918  0.4993424531173404
  0.9968008539310570  0.5874696493465879  0.9985754665743494
  0.7486158320338625  0.7498581785109005  0.5849012470632362
  0.7485985309475796  0.9198245181294226  0.4177129917655228
  0.3373735074576243  0.3248725830165355  0.9173676108478706
  0.6554686084098171  0.8301897983076326  0.4165108875804159
  0.3345839368170521  0.5069029377411943  0.9161254441402084
  0.8393466896472175  0.8288729405544563  0.4172333963097893
  0.6651788775848497  0.0815999834791461  0.3329253025490057
  0.3311833662632167  0.3311476443855449  0.2506058541206506
  0.2452309772768066  0.3301356668074149  0.3397999694806919
  0.7522390353570876  0.3276447724975203  0.8350151210253736
  0.1680077005774530  0.5007323523005380  0.2541532811629660
  0.5800177059813306  0.4174306695714060  0.5769745728422709
  0.5019458716434869  0.4238529886607842  0.1679917424537974
  0.1616158158988142  0.7480241267267753  0.3308357612898942
  0.2500658826427166  0.8379146371017885  0.3275133678762495
  0.8263500109491966  0.5039642285920566  0.7491971989907182
  0.8320564896735697  0.0788112146341325  0.5011364222700948
  0.3358636026661047  0.8354959043831862  0.4201137202081791
  0.2448320544361580  0.4161634534207873  0.9163944434721354
  0.6643748700541043  0.4186466998016674  0.8379068664742823
  0.9191813377745606  0.5036680597520370  0.8405098368525448
  0.1554528145706271  0.3244510005195848  0.9166340045773912
  0.2493143841351539  0.7549953742631093  0.7509987137232859
  0.8319966789155884  0.2490146559710920  0.1650288420672480
  0.9111230285225294  0.5878294578096847  0.2505539861095556
  0.5764412153063703  0.4176042365287321  0.7492242123746496
  0.2478090680629369  0.5849109809373434  0.5835731478010839
  0.5939621685606205  0.3296414657163020  0.1674038440248788
  0.4146543598394103  0.3291726284413365  0.1614389224536171
  0.9187860253904138  0.5023036599921874  0.6581084144215327
  0.7471577619044188  0.5014930317836597  0.3334061074637958
  0.5759396775975479  0.4168133054811667  0.8373848938071604
  0.5002462039776430  0.6695641697980114  0.8339761377499468
  0.1644446831775168  0.1631711910161078  0.5016722912582420
  0.9988903897882093  0.9167171713822828  0.5854375613218243
  0.2441370866353814  0.5047129189239991  0.9207321118577285
  0.9191223003688843  0.1651495192060297  0.5842139421991791
  0.8319192544402152  0.9983805332842299  0.6692815154936137
  0.6584506160583864  0.7518418038632189  0.5861463618727173
  0.9170334486609973  0.1648944391983728  0.9172998678434678
  0.8330775038847408  0.7407267851941002  0.4156148317973168
  0.9127242206294246  0.8338795757568844  0.0818973357695664
  0.2417994058614362  0.3307243237115500  0.2484851728538025
  0.0809023796330649  0.0819004364662933  0.4994082352502128
  0.0678621211972474  0.3287272128535337  0.9175274248319911
  0.1667661621415681  0.7497595085016940  0.4219881455514276
  0.7481795098924263  0.8354105815367255  0.7508930549600702
  0.2561235012259823  0.5028880064838221  0.2497198529443141
  0.7421356474821923  0.2454844128521496  0.1653343175625200
  0.3318065505502639  0.5005971600498499  0.6661046219912413
  0.1606607644219847  0.8379342631914174  0.3309995578837671
  0.1651430102685641  0.5918411221997095  0.2477389869964881
  0.7424646627055347  0.0831535395857410  0.5029871161038131
  0.8342777077335937  0.0817645998998107  0.4112254769371408
  0.7548565494396614  0.0824593621875241  0.3327289043753715
  0.7504282769648248  0.1625302192381711  0.9189991966577654
  0.2461469421049543  0.4132663833043222  0.0083477070311959
  0.3340137828708516  0.4159859712846944  0.9180123347521445
  0.8332615568675461  0.2477375825251839  0.5890333559962053
  0.0797418317831202  0.1637771702990956  0.2508790846231309
  0.5823782715253304  0.9184419746308060  0.8332046233039637
  0.2464355118585648  0.3265106218108010  0.9163670582455475
  0.3310738982211576  0.2426094319166116  0.0837585881893229
  0.0003908510625460  0.2460585236681188  0.7482545341704734
  0.7485577864522015  0.9166071016755964  0.1651334448383314
  0.2515622149530653  0.7463412632884258  0.3323001140036348
  0.2470082678767347  0.1633579602016369  0.7480033989638072
  0.6702508166867819  0.4176288446266707  0.5816846100569667
  0.5824218275029865  0.9986093639027268  0.0807351288653337
  0.5838393237567208  0.1624213769522543  0.0812540680371819
  0.9226153978381743  0.2471521395084263  0.4995497843898778
  0.1622878468366779  0.5007577573187791  0.1626625079572607
  0.0814454227322221  0.0820632677774769  0.3311518889409166
  0.9141776545597519  0.4163091665103696  0.1668179584643072
  0.6628274806023906  0.9916927953926209  0.3309556326164905
  0.6629111942752707  0.0828550748636700  0.4241347846324948
  0.3327921461038783  0.4999329207192025  0.8264483363467521
  0.1565431836387342  0.4154920474948492  0.9165961411997505
  0.4145796207048275  0.9982523725228003  0.7512444433459969
  0.9161817640119913  0.1650321923522065  0.2500896184396978
  0.2495082884417009  0.3295798338422775  0.7486532739145476
  0.1635232459007672  0.2464833040718337  0.7464624287650446
  0.2478084684516086  0.2472576790504038  0.6678739207538716
  0.2476942316226523  0.9194492526025074  0.8377280830558701
  0.2488114585662576  0.0818319032927437  0.6674510555777998
  0.4170780001888060  0.6724960892511515  0.0825726776837178
  0.3336519913468193  0.9177659115062099  0.0827456995491871
  0.2503308436635258  0.8447952219548611  0.7507967149910583
  0.1648639929939050  0.0007432732959254  0.8334488883957757
  0.3331876721116291  0.9199374299113742  0.5833725006395027
  0.4167276655189077  0.7513166281901804  0.1635583768854524
  0.6646092196608984  0.1709653631471172  0.3355351543245565
  0.1646438560156742  0.9193883921030096  0.9173390469060316
  0.3345785375005028  0.9258918280265548  0.4180122786453112
  0.4957503712830060  0.9196452302364015  0.4184236175604057
  0.1640498245466730  0.5854109040655654  0.7515804593569526
  0.3332658060052530  0.8368346700373909  0.0002981061648389
  0.4159122716170460  0.0009155617426213  0.2488214058987323
  0.8316429128105240  0.9987659048496662  0.8321946074017091
  0.1640726017459146  0.4167017768743863  0.7488676403461455
  0.2454228497674364  0.8351775006950922  0.4193692371817422
  0.2497484707338480  0.6648476578934308  0.7521051210495530
  0.3391081237962403  0.8345964340023272  0.3297727910568266
  0.3342813559652782  0.3319063214620022  0.3391688825791516
  0.3342705824197421  0.5953336471335076  0.9187663416830544
  0.7468820880389492  0.5036174079515058  0.4240189859937011
  0.7449142586558298  0.5030406482837657  0.5803630302480642
  0.3324616071030697  0.3299282713263848  0.8262538748249997
  0.4210606277170730  0.3286874777326871  0.2523540357362846
  0.4986108356010114  0.5866253467151498  0.2507122390277564
  0.3273642416654877  0.3272089207694309  0.1611968204338871
  0.5828356588840188  0.5876161321394254  0.0011229696445131
  0.5805071224370740  0.5879688851093640  0.8345628954574394
  0.7464571322219413  0.6604367499235758  0.5824676066255611
  0.4153727124267279  0.3303430131292823  0.7496547596365583
  0.3335859610854783  0.5865574899352936  0.2492917482326772
  0.6811643126007354  0.3335390734230428  0.1660654860299343
  0.4137861944334580  0.1646761432233045  0.5816990212404288
  0.4133676438909812  0.4156688079026922  0.5000775199406805
  0.4898976212130849  0.4147985332229585  0.5814041152663676
  0.3372253286335223  0.5842528127184087  0.5847326383557105
  0.9131254062483272  0.5844763455078438  0.1590071137338021
  0.4155302894427760  0.5015653903209593  0.4174493236164848
  0.6669808413771381  0.4159134560249604  0.7468831233713842
  0.2502974134284133  0.5005411914280058  0.4189966277205919
  0.6617513723128867  0.3273220435403352  0.8362562934507604
  0.7471400109280741  0.6703642473369017  0.2474952651348035
  0.3328466859985449  0.9998991443703179  0.0023603967223679
  0.6655383347990078  0.5087980265979789  0.8361419393301333
  0.4239039259612315  0.5030493527504905  0.9173181946712116
  0.4964255725359664  0.5849123952892662  0.5825120766415235
  0.6649152860508717  0.5856931493908831  0.0815462044500491
  0.4876329640921598  0.4149870692474907  0.7477548467080413
  0.6655508449457114  0.5048630214014234  0.1649866654884770
  0.2493553664448887  0.4145771478633119  0.8246276451979849
  0.8337903228064613  0.2501180775896275  0.4096961482997253
  0.4128971910963750  0.2459937039972986  0.5003389769533962
  0.6590421484242397  0.9196255951030026  0.4177057722856476
  0.8285744955703140  0.3384738796176743  0.1673154797184780
  0.1573355120450469  0.3328077348929174  0.3354243303856120
  0.3318127427148700  0.0011203072089020  0.1638059344786950
  0.6642772747289659  0.7529545683037309  0.9157171568366242
  0.6643071745928781  0.7527248540333925  0.0822446643523447
  0.2465835134749539  0.5020448759096678  0.0703488990498214
  0.8321253131135588  0.7550075549997645  0.0831022387916665
  0.8334403108620465  0.1589500532995819  0.1663443295511576
  0.9998488008569812  0.3320857793481328  0.5011898689388306
  0.1652931402568627  0.3312999746671844  0.5026851953931071
  0.7466013917993579  0.5864811214155259  0.4987628184278843
  0.7538522889276040  0.4179799265706082  0.8365964947990804
  0.4163954926822234  0.9195626085982573  0.5025767850984979
  0.3403701621199676  0.5049701841504329  0.1613414512240154
  0.9102062123980499  0.4968168107915360  0.2504084600032322
  0.5004790944392700  0.0816233220797807  0.9152761353879034
  0.6651878357791751  0.9994860524131838  0.8326486741942589
  0.2496474500044442  0.4949016918754769  0.5854273805392197
  0.2496139813512222  0.7515132465102803  0.1630327291371370
  0.5830689793119891  0.1675784100873528  0.7493996660920432
  0.7482764029143973  0.3326708904138691  0.2526265105710302
  0.2493802564733760  0.6707446750622059  0.4169146237765294
  0.8316962410884660  0.2507266665517988  0.2557522217768979
  0.9172718530825014  0.8333797647998913  0.7506844105264936
  0.5812351934708964  0.3322977438020897  0.2565958023573161
  0.1619225165963127  0.2360156346883771  0.9165153518752595
  0.0829383800509497  0.1628527395815754  0.7482984546630848
  0.6670221985060213  0.1622366908660768  0.1644804490124820
  0.9962892986219871  0.4976327159053449  0.1620728158800974
  0.4994921763456919  0.4156771458745265  0.2575074246904074
  0.1645497388013733  0.6725499756886808  0.9994579772687695
  0.0834143351339275  0.6700030474410329  0.5827720341266234
  0.1646398683957456  0.6591222826895105  0.3344110079116188
  0.0032700593250060  0.5001203126704679  0.5009074168017977
  0.0841571577504679  0.4155487098596166  0.6662838520353990
  0.5817325715221511  0.6682262054030933  0.2490031038724373
  0.9168144187331483  0.5023620157323021  0.7489450694457499
  0.4171801517633728  0.5054355757104353  0.0800906022896629
  0.9170950251814541  0.6695379429100945  0.7513919078002856
  0.4154071298594342  0.7525725221460464  0.8351353851389673
  0.9185954802518117  0.6672798037135576  0.5826506758617224
  0.3360962162710553  0.5028304794370960  0.0072360651958949
  0.0833985190484861  0.4998774542640356  0.9175531528962372
  0.6575785549758707  0.5020290103393367  0.3343858452581089
  0.5002677764883312  0.9174225336474628  0.0824096779061353
  0.9968162736008744  0.9989713202189682  0.0012307269986062
  0.1633411835724338  0.7522537159003891  0.5825546673925879
  0.7494263515095368  0.4174062931424196  0.0005113194013910
  0.1640448545696569  0.9192203873412153  0.5842934657822032
  0.4994028495201437  0.2446322263959463  0.2515967779349351
  0.0813948395285977  0.8355967662246166  0.9182121496935607
  0.9178870782152898  0.5011346137703782  0.4230184106041799
  0.5827694869221920  0.4166953443186446  0.0020511327988562
  0.8279326359736694  0.5022947729333752  0.6608203826199807
  0.8321697486635847  0.6698002955532930  0.3329769018476678
  0.4147138986143542  0.1628278850950914  0.7491156681581065
  0.6640925351061427  0.2463345773716877  0.7501712134406597
  0.5744622628998037  0.0819099119472517  0.3331200768050660
  0.8321986747512393  0.9179196179762323  0.9147043545203315
  0.7495673314419816  0.9166824423730954  0.6697844327378041
  0.7491939607909374  0.9168070143604394  0.3266995235430731
  0.5825618529681010  0.3239481878924830  0.7484942358220100
  0.8317796542601011  0.8329962052821457  0.3255198001104962
  0.9156669792298926  0.9975006839691132  0.0820846998808522
  0.0836370953274593  0.8361529759246031  0.7518996969671979
  0.9069168828483981  0.5889464681093415  0.0024154803441037
  0.5861535327841427  0.3302395114596026  0.0763812937398095
  0.1639467165594151  0.9165740802455130  0.0829153603656101
  0.3344187864421789  0.7507860158673416  0.5844628641556799
  0.2501694174870442  0.7547601868810027  0.8413137612229351
  0.1588810399098617  0.7526914186592052  0.7511092174409829
  0.4148218527878211  0.8358521123492717  0.7510300224588461
  0.9225321457316468  0.0832195158995731  0.5011294253595078
  0.9169075015969155  0.1656970519840683  0.7482851769296446
  0.0813357035814693  0.0810663113913698  0.6674998925784988
  0.9175910035219217  0.2459344834598080  0.0002440908295856
  0.4989178430166227  0.6691353998328055  0.6676142854959140
  0.1631443137420239  0.0799364368756243  0.9159672262150910
  0.0003425792198307  0.1648490266090392  0.5002921544372383
  0.5797830310973419  0.8337618162818318  0.2478868710076994
  0.7484677720314329  0.1652367459269805  0.7492857985013273
  0.4168887006248941  0.7490733037407004  0.3309555001119902
  0.7470782632224690  0.8302415319939642  0.4170316195839396
  0.3321735023650011  0.1633715991405646  0.8320055561693442
  0.3404399528237936  0.7546888742236928  0.7514737380580236
  0.8376757802046857  0.9179400996614508  0.4156480447412960
  0.9160209649776035  0.4123317340026191  0.8315231477649392
  0.5810897001794679  0.2465264384812811  0.6661248472420023
  0.4173826158869741  0.2385714526718462  0.1644188902863377
  0.5805083033395522  0.9175966105874378  0.6701719175749372
  0.1597410021983339  0.5012727618572264  0.0001915867404664
  0.0843864296519932  0.5878950280289920  0.8333411638752055
  0.6612088575705808  0.7422151452024263  0.4165169430984402
  0.9959524674487007  0.2440890530756877  0.9157235530275147
  0.9153780985953747  0.9986530040203772  0.2481396969955262
  0.0833116766572622  0.2473385637797439  0.6677084841078882
  0.5795913690566452  0.4158537394166302  0.4887011234794083
  0.0848539675169520  0.5858867749202722  0.6688852741731467
  0.0005178492481137  0.9181515452927766  0.4156119718060228
  0.9991727176802749  0.1626740731782340  0.3320251574813380
  0.7476761435010641  0.9173337171021587  0.5084417279516181
  0.9191046306700225  0.8363403466964092  0.5844115907731147
  0.5822676494877927  0.9997501351556458  0.7505448552521362
  0.9158988548149809  0.4119416350835570  0.6668255221086575
  0.4250130794066382  0.3296126297305332  0.9185887890237535
  0.5038142708631493  0.3325017892638379  0.1649344283653171
  0.1626471249063041  0.4097483163391328  0.2497273695128323
  0.5816740643862487  0.3257994420274060  0.5820185040095899
  0.4979280229359495  0.6671448117338616  0.5015689179191996
  0.5816417186165724  0.2502682455724746  0.5013215636160985
  0.8315203812910150  0.7531684723889516  0.9156579721819001
  0.0007900773328595  0.5874727934861904  0.2482557892417809
  0.0008787597338092  0.6677933186657882  0.3342317457568336
  0.7492683681992339  0.0810568913634391  0.9973409823289288
  0.8358635600438536  0.3308507746622977  0.9988091204985944
  0.8281249809194189  0.5042182304074659  0.8385550553174999
  0.5811694587191880  0.9174796550960831  0.9990645446899580
  0.5807538291555120  0.3301049763010009  0.4192937575054592
  0.9999784514537706  0.4971246610447308  0.0009116686287463
  0.4148405921506130  0.0838830554093100  0.5016632007917888
  0.5778805822798492  0.5865737288615207  0.5004463605319807
  0.4166693951475043  0.1646774016284059  0.2504997489953811
  0.4995665105906721  0.0845991415425808  0.4178315858832131
  0.7453886672630554  0.6702476864838386  0.7519943627862457
  0.9169366591972752  0.5930173663744148  0.6654082282721333
  0.0726702799988547  0.7508550453086262  0.3326397203735018
  0.8311198328333789  0.7513248528666575  0.2493073947349187
  0.8226509080925246  0.5892866767884578  0.2500007372076966
  0.2474464384936905  0.0008992744639361  0.4178738368926811
  0.8314497696831532  0.3406832330451214  0.4999847294771480
  0.8320166831207206  0.3325445349443702  0.6650967229740240
  0.0807007936027669  0.7532247113355929  0.1634144764884974
  0.2469219378762276  0.1630578436218162  0.4184099616462141
  0.5808736747779690  0.9993251356501617  0.5852267679765913
  0.0819161951691430  0.8363196463939881  0.2463697108746639
  0.3321908604821356  0.0798118994655168  0.0846783267683713
  0.9215551923229621  0.2480966218582576  0.1674898590407529
  0.8306134972519170  0.5846812530065153  0.0831939864118301
  0.1624524099778386  0.0810505131242885  0.0850105808497523
  0.4992958669321024  0.1652973654644152  0.3365139418923483
  0.9189770375189533  0.5010739318523745  0.5701956527985484
  0.8409458211895648  0.3303271115919482  0.8329190693463729
  0.9160405513931629  0.5869898551491358  0.5000113043405996
  0.7492443261109702  0.9982543464633317  0.7493406374425714
  0.9982502715827526  0.9992205721818542  0.8337147430851050
  0.3329821401993849  0.2366300750161516  0.9167809505020285
  0.1616520452229360  0.2446748747511881  0.0857894912455827
  0.0796840930077795  0.1631736541955792  0.9175337195391006
  0.9970454382354451  0.3314446222078547  0.1665968829615103
  0.2493383737597028  0.0806666051682263  0.8332842240841949
  0.8331539628312635  0.4126986430309338  0.7492157655289834
  0.3334239834392752  0.9188082798562111  0.7512444498760202
  0.8301122914044250  0.5008513438712580  0.0009928391724080
  0.7485825407219511  0.4136049146386050  0.3358552610119467
  0.7492846593233341  0.0815602099614257  0.1652483033126573
  0.4149449153899260  0.5849765954931591  0.5005156989418049
  0.4157518237348220  0.8346566740536479  0.5848684807456760
  0.6656776693578665  0.9985574937581542  0.9985235227801063
  0.6655732114835418  0.4175489979583832  0.2523523529638687
  0.5001448927435389  0.6689954137040668  0.1655551884218928
  0.4995827421032668  0.9999266448868939  0.8329195012196827
  0.6661736664042248  0.3306477704849705  0.6651994452244860
  0.4983038347895360  0.8351868116659602  0.8338715975359093
  0.4992794957594012  0.0001802396657120  0.9986648154723525
  0.6652838408041656  0.3328807205589642  0.4992982135775284
  0.5794512349172912  0.7506307909792306  0.3310488340383186
  0.5823898033067709  0.8349079573709558  0.9163287728814973
  0.4986517903544738  0.7506558981683009  0.2476891391384083
  0.5851287632992740  0.2416981792330678  0.1656162344344226
  0.4984098421293182  0.0839125315426610  0.5848459517023838
  0.4961763251693832  0.3305718778664741  0.4997800467551656
  0.5009444327338680  0.3300469034225088  0.0009591954435343
  0.5821040552091696  0.7515274830270017  0.1654662170534037
  0.4133962039936547  0.3296480347698329  0.5821265526731927
  0.4963656245098825  0.2474251048462002  0.5828088760837514
  0.4955040422654606  0.3294837729777866  0.6648231229569321
  0.5895972673641091  0.4207888122542546  0.1663487352979113
  0.5814148399887169  0.1665529700659965  0.5832228974821467
  0.4984904831223640  0.5017401482876370  0.3340693624288477
  0.3332878223311552  0.6686567714638529  0.5009434252325260
  0.5812649424095395  0.2484984345366402  0.3351780383976675
  0.4157674363871607  0.6668470969088560  0.4169785102144176
  0.5000428529983241  0.4179197350107024  0.0796496667942645
  0.3316038241661208  0.0017988208257085  0.5020643123342187
  0.4971642485287797  0.3304002650823003  0.3370507074370624
  0.4151819952634861  0.0016412283156193  0.5836608477589240
  0.3324081677185258  0.0001611032047477  0.6664692964475650
  0.6646754059596058  0.2496547149456950  0.4177354745958892
  0.4175572322141988  0.4163560885265617  0.0009750324643321
  0.3339626166157738  0.4149200773289994  0.0827084605397400
  0.1609321871532699  0.5836218574826980  0.5833800167863482
  0.3331273695256438  0.6695716503738168  0.8341682638981459
  0.3320753673336136  0.1623649742465140  0.3342493223272365
  0.4166804684510845  0.2430496502697473  0.9997528951927642
  0.5797901787212849  0.4143813050062942  0.6636462085156595
  0.4946185536364025  0.4159833409743556  0.4163021719187264
  0.4974757800038458  0.2467453873675216  0.7492125901700101
  0.4978146175165257  0.1648769803087171  0.6665410947878311
  0.4982561593490679  0.1636975459149715  0.8319465625696835
  0.6667358947758479  0.3313951982033637  0.9988556544386250
  0.5820994620314114  0.1625754781364900  0.9164561966418125
  0.5827570025852414  0.1648510608459029  0.2506190573591068
  0.5802661661510300  0.2455618494937314  0.8342964159169072
  0.6659950865031292  0.0815426635303795  0.9158839681036048
  0.6647003191242205  0.0002132386863795  0.6685975049507215
  0.5827291475081845  0.6700662953715150  0.9177061225218150
  0.3306540411443799  0.2467453704930516  0.5835166697530392
  0.3336028451901763  0.0020636610637118  0.3325652787776595
  0.3328507483207577  0.0818646767331353  0.2493086035766949
  0.2483221044147376  0.9186340592713403  0.0012118236580237
  0.1646516947757362  0.8347660290468785  0.1642421938204718
  0.1647686715165274  0.9181802649135599  0.2475799030854233
  0.2497898530009928  0.8352201194121487  0.2407056481370828
  0.2486982355784986  0.9186574042524543  0.1634481323112976
  0.1640620532293375  0.7501295530284047  0.2428796924567879
  0.1650759969595997  0.9188217594684213  0.4166230924398192
  0.1646183361641026  0.0003321854451742  0.3328937720539928
  0.1649985436078217  0.8360402480336367  0.5014308606093658
  0.2484599262499775  0.8362805521607269  0.5837759907634974
  0.4143072374247219  0.2459265675746305  0.3352716130784822
  0.4167808410430319  0.9183803725737539  0.0004588831144670
  0.2463467252807613  0.2433600155185032  0.0010664153241613
  0.1609287008723803  0.4142840943801082  0.0833442570757132
  0.4996017196365480  0.2452851837340041  0.9170095662529358
  0.4997415957825528  0.7526995672760073  0.9161619706114086
  0.3325131617432502  0.0809227573376613  0.7491008238990371
  0.3311829283902115  0.1615490396353024  0.0012420463716213
  0.8324382026973998  0.5853203098090531  0.5823223991873987
  0.8340125567178404  0.4158678827517296  0.9182210200350926
  0.8307427640710239  0.5012401663808496  0.5006602402372938
  0.9996167705092907  0.4157151848122544  0.7476332808147421
  0.5802426397820530  0.6693221803069477  0.7509295193864076
  0.9135093389605113  0.4985363919086873  0.0813256540451072
  0.6651857150521517  0.9165669089274481  0.7500627139217702
  0.7491356404836474  0.5020676948126814  0.2461834044169516
  0.9170967526527897  0.3325133242556298  0.5830961023934906
  0.9157429018237384  0.4167621816755603  0.3364146590994994
  0.9183033054513072  0.3313376711650056  0.9172176542438750
  0.9991210011798038  0.5006156114387492  0.3411020271286328
  0.7477192114646389  0.6705344001463153  0.0822410727225072
  0.7484472198734398  0.3331297090327608  0.5832012424796954
  0.9141497278909506  0.4998734417083543  0.9261170149167335
  0.7478348209217751  0.3312691186367261  0.7460517189390308
  0.8329689005019779  0.4182049563580168  0.4185936343958738
  0.0822644761313257  0.5005614626020085  0.2499774325167179
  0.4158670398380187  0.0005169741473186  0.9170592954781677
  0.4166880769353952  0.0826536612953326  0.3338321805485657
  0.4151048409668668  0.0824655922598849  0.6674578173565479
  0.3327664342666800  0.4212189572193084  0.2495753932414267
  0.4167516447472199  0.5888835657420497  0.1649166573555405
  0.3328450906786581  0.5841089925095468  0.4170247664395600
  0.4156990678706246  0.5845631216236262  0.3329063890948311
  0.3332095155829156  0.5017864858499548  0.3350373146237445
  0.2490405752418894  0.9184917558434157  0.6655352112958591
  0.4146437114851497  0.5009146428650459  0.5833307186327782
  0.1650887147482413  0.8362320808206682  0.6663528205003081
  0.2501766792334328  0.9246560470377347  0.3317889046544984
  0.5807964714230964  0.0829954119921403  0.5021304336409201
  0.4140695504883413  0.1643579924366910  0.4186294461387179
  0.3311016272974342  0.0834120254822329  0.5844241853065862
  0.3299631276380313  0.1637872291428671  0.5008952575243366
  0.2491492859554860  0.0009663143567981  0.9195647440980619
  0.4156745558335457  0.0816516500227183  0.8326645889469121
  0.8307662072399518  0.4162224056662281  0.2518842052297531
  0.9185037429602909  0.7509553880886811  0.3324338139764194
  0.9165116787752431  0.9157412945755787  0.6693319462291416
  0.8323367423565345  0.9170247073401028  0.0824715675221465
  0.8341799846447587  0.8331582787257653  0.6691390322401940
  0.8311307315842495  0.8346888147721248  0.1659693685926832
  0.8331809303114763  0.3345023895411622  0.3352804027269551
  0.9163577883532333  0.8338617239766878  0.2485265823591555
  0.0057009120109217  0.5006109969699807  0.8313223210107089
  0.6611348987119444  0.6669398275005743  0.5015023695241702
  0.9150514494534997  0.5916013406163630  0.8344346954043259
  0.0006486294088755  0.7498828428598012  0.4184127720561084
  0.8305285599754693  0.8349613516690597  0.9989712490581113
  0.9188212327630224  0.9156795297480633  0.5009767100197382
  0.8327197471412081  0.9169248487175401  0.2468137840364568
  0.9168212635698816  0.2457160148320943  0.8321283396836741
  0.9252069571958265  0.8328581838775801  0.4165136030280085
  0.8304219042880080  0.5879702349547880  0.9182293785087768
  0.6622232988615535  0.8345399383964875  0.5061967570671716
  0.9155453916540369  0.7527734654111246  0.8332692467725695
  0.8319072834757197  0.8335450370132179  0.8330884709378209
  0.9128245404983186  0.6712071926705877  0.9174091673265733
  0.9152792750856636  0.0805402079440363  0.9991510537491080
  0.8297615484945032  0.6725488990250873  0.0008249952088573
  0.8318995214304408  0.2473058191195733  0.0775304613431392
  0.9128045551165652  0.6717102849594248  0.0828543436955883
  0.9990776908940308  0.8342508622102673  0.8333444269871764
  0.9156532045412670  0.4140264886792525  0.0009708169667370
  0.6646821887966745  0.3323742795727666  0.3355825657260111
  0.9152203628806758  0.6744440317088906  0.2484146809885817
  0.8309204296364131  0.6711815500014524  0.8336946706652582
  0.9141277310434835  0.7532618455028837  0.1650222193052634
  0.7475686932906818  0.7524721803019432  0.1646195784149005
  0.9139339640534789  0.8348089325961020  0.9163119389699026
  0.9131438325257866  0.7539938179424074  0.9991425686933953
  0.8329688935708068  0.8338262659201902  0.5053510196225330
  0.8343558410680783  0.5016158019480174  0.3370911438118992
  0.2464562406341024  0.1627481818134652  0.0836239381731600
  0.1644162752378731  0.0000218247392030  0.5005898596275411
  0.3331196065223892  0.8371393413984877  0.8371695489879571
  0.2490120843218426  0.7535650101645015  0.6630958460921191
  0.3327768566357420  0.8366498220312265  0.6659500404585043
  0.4154613381862545  0.7519645320624961  0.6668726967751221
  0.9153736049024678  0.5851776403924381  0.3390127060877443
  0.1641761305611102  0.0826005032998547  0.4164151607214666
  0.0004400838761341  0.8361981563471713  0.3309184834698285
  0.0010812989050342  0.8346251073044466  0.5018273485367297
  0.5837435487641683  0.7529314884036344  0.9997251103058064
  0.8336294824919347  0.9153611157167765  0.7517311965121368
  0.6653233037851706  0.9172664542203345  0.9153459621194224
  0.7483956306389398  0.8343318112142951  0.9161759803827778
  0.7486605844210770  0.9163719744288205  0.8326462369357520
  0.8323870453061929  0.9985055901640217  0.9989038586561463
  0.8328147751557895  0.0806094862159903  0.0815823440177460
  0.6648687826166665  0.8347082600191478  0.8331099243405237
  0.5007019535103902  0.6709926663180985  0.0000927974157405
  0.0806665580234863  0.9176381901460676  0.9998920733280638
  0.3327465266861129  0.7533032398903825  0.0819088794073877
  0.1640476131188031  0.0815022576574463  0.5838104944154652
  0.2476432700359376  0.0001272416827940  0.5836782049743349
  0.2470760627384767  0.0822045796603716  0.5003912782397731
  0.1651042665303480  0.9992434046279729  0.6674103138103666
  0.1653507783481152  0.0809145079544394  0.7494399559024709
  0.2491756505653310  0.9990803927130467  0.7500453546066025
  0.2473790554563884  0.1641767409960280  0.5846575166052059
  0.1631803927017471  0.1627910061692135  0.0023618912503688
  0.4158996379048407  0.1618629290185020  0.0818660229962673
  0.1633125431235558  0.1628852367188799  0.1671807216435563
  0.2470008772483454  0.1624593226039626  0.2497139494386552
  0.2458235869313641  0.2440097680093954  0.1663070437705811
  0.1637944758108796  0.2460586176390720  0.4187825778082599
  0.2473388442952059  0.3307820502928873  0.4257578496285614
  0.3307628833456635  0.2462023441518999  0.4184626547600903
  0.1638494137983407  0.1629799056399962  0.3329437445005233
  0.0824043696464733  0.2480677588193251  0.5008537387835855
  0.1648581116333191  0.2475677844187042  0.5841206582073908
  0.8364045862730769  0.7507633342557334  0.5853705715570999
  0.7472856623559622  0.5883519594194440  0.8350265684823179
  0.0803989273714932  0.2453244389015988  0.8315706020095789
  0.8319786095879111  0.4160711471008510  0.0816621660848446
  0.7378307653750632  0.5028502078907530  0.7492712951882233
  0.7484813291835936  0.4206613156458514  0.1660308942345610