 C Cr Ni 
 1.0000000000000000
    21.1200000000000010    0.0000000000000000    0.0000000000000000
     0.0000000000000000   21.1200000000000010    0.0000000000000000
     0.0000000000000000    0.0000000000000000   21.1200000000000010
 C   Cr  Ni 
  35 259 605
Direct
  0.6658891758093524  0.5050308441879079  0.7462591563278971
  0.6697284763861290  0.2466818864689481  0.6649327406152225
  0.0827501618962415  0.5848455426963063  0.9165644426804546
  0.8321936611398781  0.3375622394981763  0.2527953319796949
  0.8302835394732823  0.2501375397735507  0.1626688542345485
  0.1600645869806302  0.8349675013025212  0.7440470385449757
  0.4156837507176149  0.5019730153570499  0.8347518220939363
  0.4089457819800700  0.3322742429716393  0.6664476567318026
  0.4171174837555246  0.9187832874981897  0.5838298965533917
  0.1598423534722590  0.9234814220297052  0.8370618188514067
  0.9195950361458257  0.1625384755293603  0.1661465139940051
  0.6656938962556863  0.4166290923803265  0.8380899810786621
  0.2538890695737668  0.8336264341819751  0.8372148087520602
  0.9988977477885905  0.4176754333026267  0.3340434625953956
  0.5009676377691891  0.4211257813942578  0.1635225221666442
  0.2517683436018137  0.7446740229444052  0.7444324086926036
  0.2491955893823589  0.8365878696614772  0.3289353803928772
  0.5822208922237666  0.0827412604086211  0.0840039213265148
  0.9149022891701092  0.7507024213174853  0.2498309348272733
  0.2505129149579912  0.7467157164867467  0.4191897306195899
  0.9993807254553058  0.5000423053393288  0.7493819901777962
  0.9985691923161341  0.0839039345561139  0.4979989469671294
  0.4983125445391289  0.9982506060129589  0.4169608562465280
  0.9981921479766417  0.9934003485367353  0.5876780254065185
  0.6660866089675771  0.0813383410604196  0.3341208995660245
  0.4992201686481442  0.3315241699059027  0.2534439346628960
  0.3294546951971800  0.2501469252525396  0.1655303197820734
  0.0852577415218798  0.2512448625366326  0.9155372771968928
  0.5812212656752864  0.3371757310777038  0.6645757540107179
  0.8321459319679367  0.8344407711037225  0.9158309540269661
  0.7473022316486199  0.7506350036284308  0.4153107245308087
  0.0830454390284570  0.8328053145198208  0.1661585704162958
  0.4999436123781787  0.9153763498933849  0.9970772672288098
  0.6657859468469774  0.3338496461333805  0.4176845993048837
  0.9182435748501517  0.2470186989754459  0.5830521745776799
  0.9962134936769360  0.5898461779420221  0.7482165363386910
  0.9990229955391463  0.5021694031280148  0.6591943712581557
  0.0831384005751299  0.5852941749128519  0.3340914481821330
  0.5818517729857335  0.3324513684125321  0.7560822860866709
  0.0825321962606659  0.7472549020630002  0.3343133792528994
  0.0838001294490102  0.5023059663960963  0.4163428797570931
  0.0802790046647721  0.7496563134751120  0.6645443860436884
  0.9134739041483594  0.5007555297351216  0.9193943086355809
  0.9985253094276294  0.5028648972373371  0.5022255593961833
  0.5826114419938235  0.6665551986648561  0.2483558167388897
  0.9985202051690505  0.4997760169297631  0.8393440322625378
  0.4987996879731374  0.5100585976872738  0.1642603725711450
  0.9965754025826028  0.8328039247832481  0.0020617370316678
  0.4987116973290024  0.4219346278871731  0.2541630194278878
  0.9995607058509457  0.0820720995245585  0.4088797423796079
  0.0007213810870823  0.0830329286455731  0.5883924204314116
  0.9977159338765457  0.0844396842664524  0.7503230557975582
  0.0830839910631306  0.0832167507119115  0.6680049662283882
  0.0014015227974049  0.1658097567063695  0.9991909637699626
  0.5000595391880852  0.6672503909944101  0.6661612601213921
  0.1650422351537983  0.0812342270134840  0.0867335840647526
  0.9160883934635635  0.1666866586430054  0.2565783168789588
  0.2477981408080012  0.3339870625142153  0.7497032007083272
  0.1680945859230090  0.3329430067494870  0.6657831579612651
  0.2467944287237526  0.3345266029346010  0.5806604974889726
  0.2508355300308541  0.9235103178261310  0.8334845616214317
  0.2470479613911479  0.1651579527885136  0.5810526060076066
  0.3324218228033847  0.7480478032476824  0.0833285958677526
  0.0817662200672557  0.5852067494243018  0.1668222442479480
  0.4090153149679925  0.9164901620420324  0.0011258833571171
  0.1646285023850531  0.5024434132514667  0.3315366394303672
  0.2507474428103525  0.8350361225398333  0.7470481217560021
  0.1647151731134836  0.9237777250948699  0.7469302051545645
  0.3272724578137792  0.9186678704170559  0.5834849084463830
  0.4140236640169860  0.8330330880885580  0.2481664053317974
  0.6648015989989096  0.1700963480341361  0.3343511581156084
  0.1646204777331724  0.9160931389722862  0.9257067009152187
  0.3302159375214753  0.0843990291643117  0.4165311831696097
  0.5011994612381387  0.9112176441879104  0.4141356788109256
  0.8290207286084725  0.1606993251386143  0.1654081390177000
  0.1670301110408058  0.4186850673737121  0.5810227098933649
  0.1675481835677220  0.3345418345958117  0.5019294562493606
  0.8326414155764658  0.6678454158417094  0.5022838548032427
  0.7510579898751899  0.3316090369057141  0.9188508364847039
  0.4181274800938163  0.8283437853123070  0.5835389334687455
  0.3302146479715614  0.5001732571947626  0.1687746930199616
  0.5826591859993538  0.0820939779597264  0.9942599882164870
  0.4981654911885133  0.0048597443699763  0.9985054806730899
  0.2505132107110958  0.5020995484264805  0.5809010550494569
  0.2501347789637198  0.6676345729703136  0.0828950162335699
  0.1647841075844491  0.5839652290023546  0.5802133241533179
  0.2484297479261580  0.8356629830741709  0.9257638095981847
  0.4121107348648748  0.9986202157496029  0.2488720437775911
  0.8316159574559906  0.0001908088728133  0.8326146708169850
  0.8302880324745477  0.6659878838387120  0.1638819529105327
  0.0074059162530384  0.1664580795359686  0.1682664661724466
  0.0841943912359539  0.2493633807389373  0.0068847902369093
  0.0903409288249752  0.0828445717930865  0.4996598794711234
  0.0069800177866346  0.2503259753680138  0.5826896855463853
  0.1660835343421783  0.1662116034040320  0.4999237405947785
  0.9949354856986791  0.2492953912575327  0.9185155512194272
  0.5002080974867689  0.5866829810445809  0.7489420021290990
  0.9160802367548705  0.7505064041030441  0.3390036824457006
  0.5750876445553559  0.4154894480013838  0.8349310936792976
  0.8340095058784410  0.5862247215700315  0.7495262560287924
  0.5889804304469096  0.3340534671482362  0.2511479584516496
  0.1753989648290974  0.2505240965225091  0.9178655997824579
  0.0813719702093984  0.1643807350034804  0.7485162314037116
  0.8322869829908633  0.5028838159635017  0.1647373785317023
  0.8305959358176547  0.5060161438593469  0.3337478108331903
  0.1650175678503515  0.9996788848679427  0.3319908556745478
  0.8338822165063488  0.3343069464534458  0.5007947700005339
  0.8339841694301346  0.3338940448243812  0.6661090376641274
  0.9928444685748551  0.8336520830089358  0.1642206017595542
  0.2449726139388037  0.1651126969527064  0.2526816607905031
  0.6641800901590852  0.9164130419532118  0.5855640785784409
  0.0824408414345465  0.8328810665975308  0.2560441559939243
  0.3323736109342799  0.0836725208866666  0.0825012429321037
  0.8310022367723964  0.3345268961283403  0.9974286171462674
  0.9154730858288911  0.4168578119226530  0.0008248079812529
  0.1665478583270557  0.9987508644753210  0.1659720548359203
  0.4973593697392559  0.1670378056938210  0.3339982169808103
  0.3331913137112976  0.0023515201034846  0.8338865304991872
  0.8329542384505649  0.4158721608115905  0.7499243037309237
  0.2509703217598735  0.0823521129791861  0.8344497796590339
  0.9234949664083750  0.3342656816625023  0.2504560413594147
  0.0815282346611701  0.1615230265728296  0.9179505530892026
  0.2461897449412987  0.2492817471858047  0.0027570296576082
  0.1651400471593392  0.2498608409956007  0.0848977121224566
  0.6650966026579744  0.0838504975496813  0.7530380241350915
  0.9165915027032973  0.5834791894356312  0.5020802080363513
  0.8333920887718079  0.3304205430989604  0.8355820698662922
  0.9161065794187270  0.5005431470935648  0.5834311433306756
  0.0796667958164479  0.0016355186940697  0.9187373332314062
  0.4978728285200827  0.1643730110779200  0.5018694497113877
  0.5825387357896504  0.1657968176873134  0.2506123614201902
  0.9162145194759526  0.3384300520916881  0.5824804640131046
  0.5072329538359353  0.9155046393775770  0.5861456312606607
  0.1662733446802550  0.4993913255488281  0.0046286700460228
  0.0903380787644884  0.4995247265864401  0.7485205030393465
  0.5829694356765119  0.6661959795308343  0.5839746417309549
  0.0839155260420286  0.3409021009615797  0.9190142297446963
  0.9162182495388631  0.9986539703918970  0.2510055243536859
  0.9998679260291858  0.2495648770256571  0.7493673750152107
  0.5816231898036069  0.4211891828694422  0.5008259203059325
  0.0000468610611813  0.4110221331850030  0.7503886474997288
  0.9158380051197778  0.9167144392726702  0.3337987540884419
  0.0017990111659549  0.2500431336598982  0.4175885282828157
  0.5851258823360216  0.8327293477000091  0.4157583926785977
  0.9128495949121257  0.8304905335758587  0.5841634038126835
  0.7480999751535723  0.9165606108897492  0.6684044887276581
  0.4974926585419145  0.2486624760533305  0.9178137390118103
  0.9971889953794568  0.8304725081487068  0.8342284704746700
  0.5819058318843484  0.5863007902124887  0.5007857110816560
  0.9159604561801674  0.8329347078700302  0.0815505750412624
  0.3308025852359097  0.1605552042819899  0.1675795588719933
  0.3417293382695322  0.7479531546197168  0.4162470947794675
  0.5831805379838675  0.8330052209320233  0.2467763657662041
  0.7511367666434051  0.1631393975867161  0.7517817421502883
  0.4178616798648232  0.7470552824696711  0.3313902995404091
  0.6574663058019490  0.7505766600509640  0.4150875073737573
  0.3327707606329618  0.0825997411054643  0.9160177464211299
  0.2500834735367586  0.7480275925387042  0.6554408443032307
  0.7477233880353910  0.7496478967607698  0.3263557737591562
  0.6658415614890929  0.2473934132380813  0.7555018329487682
  0.4150171042688536  0.1664602361775818  0.7514951411999033
  0.0825873668660121  0.5853524242429393  0.0061211891820430
  0.4139506852121854  0.1664461698953058  0.2516384102334614
  0.9143745512423878  0.6675313536676561  0.7502955537607963
  0.4172331357236720  0.0019966876927243  0.7504523314385571
  0.3324564799825806  0.0004315588755027  0.9991395125651670
  0.4987646416663309  0.2418301497674878  0.2505639772886185
  0.1617770466594569  0.8325300643904289  0.8360026388883439
  0.8333732898642245  0.3348215769545149  0.3419223238010118
  0.5825536110169695  0.4167940261092689  0.0000297360420326
  0.7493890143183300  0.5835380155786151  0.3312817130616750
  0.5791271875303984  0.2454107325994215  0.6658199574604377
  0.5910057749613081  0.4181625121034130  0.1651209335146773
  0.0841785927785834  0.4177122732638243  0.1672173898583057
  0.5789129520400872  0.3346887634202689  0.5737290827735497
  0.5839291898816479  0.8321508620197459  0.5847918911764739
  0.5820931313878978  0.1636617193920084  0.5817911961558198
  0.8316854964303206  0.7446024467342635  0.9176889467994215
  0.9986666862789593  0.4192229370401239  0.2443011627033327
  0.5829010730757760  0.9142044534110008  0.1670748242196572
  0.8337595813522667  0.2495535186761808  0.9181815071846731
  0.8329348428578234  0.5850944499531220  0.9177190709871565
  0.4988405704717857  0.8263738949699216  0.0016975569185839
  0.5765363132727770  0.3348936413606081  0.4190079474322563
  0.5829693149396816  0.7506683123298928  0.8336945790905055
  0.9144035115885865  0.5863486011122553  0.6648269034147840
  0.8319234833806378  0.7516642821085526  0.5840336162088881
  0.0825526051556019  0.6633878383601419  0.2501751537058087
  0.4191179492111790  0.2473930540691044  0.1663826391614956
  0.4176338041199510  0.8334251137653926  0.7493452142837440
  0.1606152145888051  0.7456764659316569  0.7491008276229969
  0.9164056433234761  0.9990934645587807  0.0810178734509481
  0.7503887252164169  0.9174560980207467  0.3322630793343231
  0.7484801525845407  0.1651125651616010  0.0807157475430172
  0.8306136611722519  0.9140695555274152  0.5854835308715217
  0.4156011128172450  0.8314244503285564  0.4173140300677145
  0.1652558292870909  0.9195804766157110  0.0824937274632405
  0.8349736524272009  0.5004216791450853  0.9990202594810264
  0.0823455919350264  0.8330683955314548  0.4165942464543235
  0.1685979013643349  0.4169256727705527  0.9184459107287324
  0.7502891857520243  0.0811569533385852  0.5005407897996156
  0.1671118987695231  0.1657691775105004  0.3329971199085024
  0.1654995365683448  0.5024731146928003  0.1669380764344388
  0.6645282933467965  0.7504735789651789  0.5850460610622925
  0.7504670146587807  0.0809782340806947  0.6676129087502524
  0.9165678540772657  0.2496911532976512  0.4927654711697451
  0.2498761004116234  0.4985161492526909  0.9199384228392455
  0.9975662234082795  0.9933572752889296  0.4977380308769706
  0.1653558567849729  0.3330630724119267  0.3339938329545986
  0.6656331034073951  0.9916892885263520  0.3308662039645486
  0.3252555460596188  0.5010059585850889  0.8327474940404198
  0.2484930715314872  0.3347234955995289  0.9170245228103926
  0.5807595550101489  0.1718083307344710  0.0801179160847541
  0.5832379255683782  0.9927424276770886  0.0843537604702185
  0.1645528295050798  0.6651063587225640  0.5016564560221538
  0.6651615445821315  0.8317023832102378  0.8328332960360482
  0.2487469878383972  0.5000270621197295  0.2505572652248402
  0.7399130941878789  0.2492051525877956  0.1632296817974253
  0.3306642361827897  0.5015083707813920  0.6654380366472303
  0.1586780221491139  0.8336308914615640  0.3338588814179100
  0.1679605553862692  0.5848829126311286  0.2493838533941993
  0.4170965012391051  0.7463043527948946  0.8348509760863343
  0.9155688498596313  0.7505359618291608  0.6667272259624837
  0.4992334333579236  0.5015671389476422  0.0002486528396267
  0.0849536768898571  0.4944552480087010  0.9184786115931135
  0.4968423145457575  0.3340683066989133  0.3432005477929958
  0.5000480102708723  0.9162667790025868  0.0884977819392187
  0.9970570106818416  0.0012029676356463  0.0003883549534137
  0.9993836573426680  0.5846089158416256  0.2490842783062600
  0.9151755944815608  0.0810328243710164  0.9995639005301934
  0.6693980455577916  0.3364677122077998  0.6649472321442721
  0.9154454624757264  0.2504019106395948  0.6730505476931564
  0.4137457656164000  0.4120259459853086  0.8352091436073875
  0.5009669115020886  0.6657920527625422  0.5001725032395052
  0.6649799038006469  0.5858026872638576  0.0824990221509475
  0.4151606172598162  0.5020225567013246  0.7449128011947729
  0.7490967774500772  0.5017600096552273  0.0833290376500524
  0.3312344776836049  0.4188839430114106  0.7505293982594324
  0.7557192127590328  0.3339622866167565  0.4182348619008270
  0.4114692880383450  0.2485792513058191  0.4988892789596223
  0.6645838605407454  0.9161045497440310  0.4161433458859318
  0.8315549295543355  0.3381987575970853  0.1633655906526623
  0.3301984756235952  0.2494118175574569  0.4171237184440815
  0.3337717419453288  0.9182481692178698  0.2491528461210369
  0.6645504044050133  0.7503367400095700  0.9159024145362813
  0.6662355860393718  0.8310665239087865  0.0003719093542030
  0.6652384842408142  0.3338496593773289  0.3289841092299338
  0.2501770190409855  0.7476706946102631  0.5080639818319679
  0.2498914329186338  0.7436205494537391  0.8356663506400455
  0.5767687555285498  0.0843919846939194  0.3292391892945080
  0.8312576526757223  0.2460613368420039  0.2539391123095323
  0.7495776966043191  0.9956875087350238  0.4181922237186977
  0.7548799553598317  0.0797833471382366  0.3350738156755010
  0.5818315862285857  0.9969537050366308  0.2475111767326804
  0.7498529109238384  0.1657660164932938  0.9158720910873021
  0.1649917964915194  0.4179725922458279  0.0858309701931053
  0.3311528599288794  0.4165167627263657  0.9173514353077529
  0.8288683167108379  0.2493871851733211  0.5811355116325465
  0.5833914750891231  0.9160149152438684  0.8324294405008608
  0.4981998418328873  0.1668032287785011  0.9977558080070278
  0.6665876942298364  0.1568766561223896  0.6668051254661762
  0.6651932731623504  0.5060285112007143  0.8359167219609146
  0.6657611873017634  0.6679616997435923  0.0004167719027455
  0.2482346964789430  0.5005357538012459  0.0853876186580559
  0.6661301797754695  0.3270859772170444  0.8359001048897190
  0.7496468759073079  0.9973106272960633  0.0818130984339381
  0.2505889011998504  0.7470264084315869  0.3297236371383371
  0.2483918408601494  0.1647441293342149  0.7493947091269800
  0.1671204775301285  0.4169476809271245  0.7481138272858808
  0.2487948694001474  0.8367352461654504  0.4196026937013209
  0.3334334869069083  0.6667206095904999  0.8362977622404706
  0.3394647925126516  0.8332901860644307  0.3318790340308517
  0.3324534261671609  0.3361310307379935  0.3341982980720665
  0.4143077171801763  0.5012343869487198  0.9243990958277275
  0.7507507666302744  0.5026816756351482  0.5836205093223528
  0.3278715719042332  0.2504118483944381  0.9184108505825246
  0.4084784497185924  0.3345109612699315  0.2519583989675501
  0.3319389656489082  0.4191822437538468  0.2529188444588287
  0.3315479863439176  0.3392045167417707  0.1668637946566819
  0.3311146916329126  0.6688756611065587  0.0024852693530906
  0.7497560051669199  0.5039541476285248  0.4156183600987381
  0.6678095036512903  0.5025935267970623  0.6571969319065010
  0.4144924004229394  0.2413804263988774  0.6657311653519628
  0.7477963456210156  0.6693391506428901  0.5833662779721444
  0.3205864304653409  0.3344992934791106  0.6660182998328583
  0.4167913233750246  0.6660007879725824  0.2497167451659075
  0.6628720326575122  0.3346169691188187  0.1640764358272659
  0.4132710828071129  0.4189193951844431  0.4993623475831382
  0.4128203397934258  0.3340510490653519  0.5750294508132424
  0.7487752525247788  0.5037003491041263  0.2491358394137296
  0.4162325636623776  0.5846043782108339  0.3318570472231628
  0.6675175360930414  0.4138066851524450  0.7479072900020254
  0.2485832853641607  0.5025911585350491  0.4148707985367216
  0.3325517230855437  0.5821447104730189  0.5832435269924700
  0.9987429261279692  0.5057681049123521  0.3343512936183440
  0.9983587821573271  0.6673738306301235  0.0015410930743155
  0.0815506471236888  0.5831037574781159  0.4989750283197159
  0.0840764281574771  0.4164565371858974  0.6643344772595842
  0.9998390604130974  0.3335622624848077  0.8338009885470477
  0.0005309047619660  0.3333856941140975  0.6665809302579829
  0.9991590193366471  0.4998911190010347  0.0002414126083805
  0.9985983411819114  0.4168689677825874  0.9182046546001538
  0.9982995101290794  0.5839504485755120  0.0831019043271710
  0.0822059554790064  0.5020767742085432  0.2495782289452902
  0.0828523145549324  0.5011175792920890  0.5817023103551098
  0.9986128266997464  0.5848660255860775  0.4171762290444109
  0.9997786014505484  0.5865336054280256  0.5827893885087509
  0.9145211803776286  0.5843371590846526  0.1649071729107427
  0.0837255200589918  0.4179395015545899  0.4995392816906949
  0.0822693992738052  0.6671755469650650  0.0837979024139878
  0.8320993994145164  0.9997436924866717  0.0001426597175541
  0.1644363215646707  0.1647859795322237  0.1676593978262912
  0.1663885784745763  0.0834690316929863  0.5842572708389222
  0.7485170301933483  0.9167334465250477  0.8331237705438990
  0.9989566717098265  0.7500559079164418  0.4169333450908140
  0.2485572573210752  0.0012874699062858  0.5829275243652365
  0.2473171210455883  0.0833228332296125  0.4989553000662729
  0.1662468601154457  0.0011399132369204  0.6661327905246468
  0.8312631432046479  0.0805391646702860  0.0819439715977330
  0.1660648045680996  0.0839340114250209  0.7490467954444755
  0.6659323018678690  0.9170715215670462  0.7512652795128959
  0.2507708665004088  0.0022959526628696  0.7491136671715961
  0.5827339103752878  0.6673271639061432  0.0826187792101795
  0.2490214756018388  0.0842786284924752  0.6667121988885080
  0.0798599886501156  0.9175928123835204  0.0012437946440975
  0.1657213976894881  0.1650597376371702  0.0019478674576710
  0.4990675954322338  0.6685170778294693  0.0006349874756672
  0.3310015920434757  0.2487581176998174  0.0779188182030438
  0.1649816816546805  0.2505879206909711  0.2518244701964895
  0.4164732698394440  0.6661349934625064  0.7494526437964838
  0.1650663887067903  0.0015712136891671  0.0017573921485325
  0.9996506500889742  0.0827366085309873  0.0839564805784859
  0.2493448201994862  0.0011935388450264  0.0834663405528895
  0.2486144793410685  0.0830724891878215  0.0014293463237378
  0.1651035377995307  0.0816378462146608  0.2503443863645990
  0.2488357704758402  0.0002054246845074  0.2489939163699029
  0.1664541206181850  0.0823352158277579  0.4147666251369029
  0.9992063712656309  0.8324087968127509  0.3341207627855045
  0.9979890130977270  0.8328238983621620  0.4987030526257087
  0.5835953829050546  0.7496836003344187  0.0003457591543644
  0.8315560750487632  0.9163327392027204  0.7510386623097156
  0.3334683735243436  0.7496422703517992  0.9187763032948313
  0.6654051038871890  0.9153922094700311  0.9160398810805758
  0.4160216050674266  0.5891160671608500  0.8346478650743998
  0.7444535740280420  0.8333679751337113  0.9165253923081876
  0.5830390264453839  0.0003545807036294  0.7513185759001886
  0.9945240143070032  0.5844115230366091  0.9179850487549582
  0.3333747761863021  0.6655234732796217  0.6641752512322229
  0.1667696950238542  0.6666521655973374  0.1663337910504707
  0.2498116328294498  0.6661617275576829  0.2488484195911763
  0.2500176648305518  0.7495033791903303  0.1654499323681846
  0.1623309876465572  0.7485966765399863  0.4185766654434919
  0.1636257159429453  0.7485026423555486  0.5814002287904469
  0.2494208546747557  0.6626687227075104  0.5826784852840611
  0.3344583472350163  0.6656626046242295  0.5012202085847400
  0.1640872854332074  0.6660622416529570  0.6632500290485585
  0.9982443600620712  0.9077954227419501  0.5836419968358945
  0.0817235872733960  0.8321560214850062  0.5822164371120768
  0.0826169016455503  0.9158770854919758  0.4988529116660201
  0.9971914338041513  0.8313541231022802  0.6671130083752944
  0.9956558803281015  0.9150785233578880  0.7516514888403071
  0.0738967538454011  0.8329992888407097  0.7493747373032631
  0.0814054012363863  0.9161351882584222  0.6671068130621030
  0.9155229438815864  0.8314621135498524  0.7503924379256328
  0.9973287874741670  0.9169595217947318  0.9188203676952976
  0.0733274347371118  0.9178589141892097  0.8352737822527699
  0.0826009371999135  0.7451393792377823  0.1663343300189256
  0.2429190952548569  0.2490356260863572  0.1691906572748895
  0.1661743837100934  0.2497121267766926  0.5830484140468437
  0.0834723458299460  0.2500675717116881  0.6674133616021579
  0.0843414288015274  0.1658164548422105  0.5844766374482192
  0.2496378776059228  0.5833738755312657  0.0024894219671333
  0.0840992829534660  0.3340645812194115  0.7484037504875329
  0.1654527591151302  0.5846481666610076  0.4168933478363054
  0.3322798653975486  0.5845688621053495  0.0837706975255184
  0.1652867044612328  0.7501264482275168  0.9185713929407817
  0.1661417620023267  0.6662127019544474  0.3342132557184847
  0.0814058071741518  0.8337065768314781  0.0795798362003436
  0.2499463346915931  0.5839787014178620  0.3329586174370874
  0.0008770242040255  0.3336165401080973  0.4994595242223028
  0.0816845808565555  0.9209251876509535  0.1661267939336150
  0.0840800106531381  0.2499410322400224  0.3339069066877958
  0.0004470411719322  0.1672919674170685  0.3338887605247747
  0.9988735626180697  0.1669897544407799  0.6669987732062761
  0.0847083769869462  0.1662416596765293  0.4155810046485250
  0.1663876420405730  0.5842688103842429  0.0846126669539970
  0.1670913694496337  0.2481484491133720  0.7487450727742878
  0.2482953816964457  0.2502832924222358  0.3340826284686825
  0.1668255348746396  0.7487842929298298  0.0834413959715564
  0.8333539080858534  0.5854997066887822  0.4184778117350051
  0.8318180661530840  0.9988825682319560  0.1657359948519012
  0.6654380581397548  0.8332503352117288  0.6685497724378415
  0.2479021635508525  0.2478599312439406  0.6651538336673838
  0.0841392464425759  0.2505518367531693  0.8280013810060367
  0.1649519545622742  0.5842813441910939  0.7493220039012269
  0.2474770126842738  0.5016647526919114  0.7487467124028725
  0.1659456495538351  0.5009333458432257  0.6637410453707892
  0.1671401820133839  0.4994140748399290  0.8349806017784873
  0.1710561694520237  0.5839267482322584  0.9192420904253175
  0.1665817100889351  0.2501911201265540  0.4159712024178079
  0.2486670848221026  0.5843465109725597  0.8345273204184166
  0.2476160563720754  0.3338099036398977  0.4161307770777031
  0.1665437280444548  0.6670017127490253  0.0026425050689612
  0.2472236056121943  0.1660279359511418  0.4159863822755017
  0.0854649016638910  0.2504876174159346  0.4991120787282358
  0.9987144578469139  0.1668376685511264  0.8334705841209428
  0.0828202805918940  0.9994448520400873  0.2505630635305953
  0.1651547767324696  0.0837639962811375  0.9184190369896558
  0.0010294955140120  0.2495565774114776  0.2511531096741976
  0.0835980253111015  0.0826365394180572  0.3328231411776500
  0.0867497875529481  0.4170952745262568  0.3339262671687726
  0.9974719502807288  0.9975371689148301  0.6736359321627331
  0.0829859698941759  0.9997967756014796  0.4160924384290036
  0.0026017993945378  0.1706348954037500  0.4990252064865475
  0.9150277223218549  0.9974679724076009  0.4159640456409251
  0.9975448125519211  0.0016916531140787  0.8330934593377542
  0.0867275758796483  0.9983810005405933  0.5836787377273128
  0.1641334367091995  0.0093888845138496  0.8339126185437951
  0.0800553816912036  0.0015340674688378  0.7503677803804067
  0.0831331714562166  0.1645866751845412  0.0840873002587922
  0.9979259035369579  0.0828749424086681  0.9165118545503945
  0.9979986628223986  0.9163392119656842  0.2505379488159687
  0.0807123903133667  0.0849624567297726  0.8324823438775801
  0.9982361526911520  0.9982856014227457  0.3334095214476660
  0.0846713379509470  0.3341202392593010  0.5826286399664746
  0.0822843803184087  0.0807988888323875  0.1680235630214064
  0.0001913427157033  0.2491607989717773  0.0833950336135047
  0.9994010834863066  0.3335248746787594  0.0014485434192146
  0.0813633818152031  0.0823688593295834  0.0016563817991587
  0.9991448414024613  0.4179307032604042  0.0846346784070022
  0.9999149310300151  0.0820573280459879  0.2517521264546332
  0.0827048583037727  0.3341185096723158  0.2496687161576529
  0.0824634186646400  0.3337638710885523  0.0846818791037487
  0.0010371099092598  0.3301894359982254  0.3347615066486394
  0.9998087161852651  0.5020968557214579  0.1659991103760572
  0.0836593844512580  0.2501190696333224  0.1674499761177802
  0.0009870451460778  0.3339344908239821  0.1656441552728356
  0.0843785654739418  0.1659753315791456  0.2517762351761755
  0.9995086485829007  0.4182668258548309  0.4210265183939055
  0.0812980289378460  0.0003022570479451  0.0831265770238986
  0.0849472498098196  0.3334700608052541  0.4177969123373843
  0.9982554685700693  0.9988300955692525  0.1671287171092812
  0.2478161573707423  0.2491768560736420  0.4989155866952856
  0.7549385710247088  0.5020545297102796  0.7494345088404261
  0.4145134844225655  0.0830212032528878  0.1671389847958700
  0.4139155054456388  0.1656552304345188  0.5814539412448897
  0.3308146749115071  0.1654454971586379  0.6663297216395443
  0.4154420291543376  0.0846198045617195  0.6680935839628763
  0.4151310415993669  0.5024436812798011  0.2507089447477254
  0.4989724507965097  0.1649914811726814  0.1655134198499721
  0.4970782528090513  0.2475914962446978  0.4189677653052313
  0.5808473410775719  0.3325246883125473  0.9168213919274902
  0.4989593472525917  0.5853638826144576  0.0817382478463306
  0.5820955418879469  0.5853732237463095  0.0004643716234888
  0.3302198969239751  0.2492853712445953  0.2551055038430544
  0.3332987645289572  0.8328046480170119  0.1659596193784791
  0.0803454820777605  0.8329835871221779  0.9192122637067198
  0.2484019409268057  0.7504502222620045  0.0011227160159630
  0.2480158917611575  0.0820728666298732  0.1675870326536311
  0.4145441056954142  0.0003194076414754  0.0827158762133357
  0.8320295300661976  0.0819009764978780  0.7513401098549706
  0.9154125325674115  0.0819349186912476  0.6691588589816643
  0.8317548610148368  0.0815089342615261  0.9166291831043355
  0.9160767874187214  0.0001194356189428  0.9163937670039644
  0.9150489077387234  0.0831031234416149  0.8343039892586861
  0.8315351905662445  0.1645951925994353  0.9985906488216881
  0.8308166019240262  0.2498215575265699  0.0759221908983605
  0.9158002767390621  0.1658141060912751  0.0781334605167497
  0.9136566603924913  0.9988855200555721  0.7518504316121629
  0.7485803343516275  0.9163143589014626  0.0007532737364214
  0.9159761178632182  0.0755546684798024  0.1662640356284358
  0.9151564838730546  0.9177963267328684  0.1653702928388368
  0.6673285320568835  0.9148355836815723  0.2473418041319237
  0.7496436554977602  0.8334460051224398  0.2489692893255480
  0.7498940434958195  0.9159003896241257  0.1641279103674856
  0.6651922113959453  0.8340019760268057  0.3302315356691323
  0.7505255398732358  0.9978111512142341  0.2502166946171965
  0.5837984373798953  0.9170115601468948  0.6691156691530071
  0.6665709538950202  0.5031885766945272  0.5007811490503883
  0.6664702646478015  0.5864052853227794  0.5820257184872164
  0.7491139744074683  0.5851554120490836  0.5007998658894631
  0.8319565433107173  0.0802743575705639  0.4171187762877638
  0.6662983125306862  0.5026950167386950  0.1653187856496333
  0.7495268035315151  0.5845074195868332  0.0001492896417563
  0.6655234742091424  0.5845449467162558  0.2487640928182676
  0.7487011418995918  0.5846797273450218  0.1653693785865951
  0.7510690091037776  0.5025658657025136  0.9177589757094406