 C Cr Ni 
 1.0000000000000000
    21.1200000000000010    0.0000000000000000    0.0000000000000000
     0.0000000000000000   21.1200000000000010    0.0000000000000000
     0.0000000000000000    0.0000000000000000   21.1200000000000010
 C   Cr  Ni 
  35 259 605
Direct
  0.7542490735858689  0.3263735694398954  0.8430700439900759
  0.3376485286019813  0.4114163285488839  0.8345613175383835
  0.3313177733503027  0.5020546532610749  0.5772098135410505
  0.1546368787810367  0.3284132523107494  0.9249872267934488
  0.3385750609106969  0.3232744865172446  0.7412436447962195
  0.2499189777872965  0.7533554577029823  0.7511876821062478
  0.4998769761613401  0.4231338912305538  0.4920275020150109
  0.7440217515368270  0.4218596438381306  0.5719231550364532
  0.4273603613241343  0.5922884357988182  0.9219843616820470
  0.8319821026210892  0.5861289461653573  0.3324891466813371
  0.2428991223841747  0.5096057723846725  0.8297767660243054
  0.6558995889937245  0.3265012271184807  0.7508358049876094
  0.1521537856864024  0.4202630545698310  0.8334240605143728
  0.5645544072078368  0.4315076745079189  0.7580188760027492
  0.7475897688235441  0.4198094302021062  0.7531960813653776
  0.0753609580757375  0.5908074334204122  0.2445932617469777
  0.8262161994535728  0.1607380678380111  0.7551500935492123
  0.6598673467648435  0.4214311508921605  0.8465639516171150
  0.8355045333863597  0.5094570587042319  0.7549712840804679
  0.4993194418063662  0.3294774645760515  0.5795849136387128
  0.3365429975425779  0.5957508003794031  0.8277698410480751
  0.7492767960770801  0.2453188128008762  0.5841298870809400
  0.9208450347048236  0.2518838505835277  0.7566248202537815
  0.3365060864422135  0.5010157331269861  0.9230426497235130
  0.2449917923530063  0.3242243470261500  0.8309579388663483
  0.8382529616322250  0.4152565557367029  0.6619788226877814
  0.0748061406968724  0.4973941102748209  0.3369591921095706
  0.9183918726846397  0.1609602293638405  0.6618123481531455
  0.2454046286246888  0.5025060279289706  0.0115973690022302
  0.1660647500182650  0.4996270100421614  0.2431550598168937
  0.2454853195569242  0.4185105092938380  0.7379935048690849
  0.2515960619428847  0.4093276258294872  0.2492964179055875
  0.1684210507322195  0.5907843204373595  0.3359297251043273
  0.2501482790827292  0.2385658528370290  0.9225476826599890
  0.4326417444971570  0.4962739758413354  0.8215144048173412
  0.7466316821997219  0.2459809902171266  0.4924282010810796
  0.2487241665362995  0.4102292892164652  0.0069351536614465
  0.6651886189736019  0.1637770271942591  0.3316456253819590
  0.9963912536977211  0.6728769971525516  0.0003289971145153
  0.0820148285088876  0.8354244428681323  0.7492701818704092
  0.7484082234463585  0.9980865944960965  0.2496898011941943
  0.8311468332830122  0.8349459413536314  0.3326217533985796
  0.5666135392713342  0.3331862820825029  0.7545742673336200
  0.6655495901091376  0.1632976033305173  0.0042440174745079
  0.3321877009278070  0.4102738552721466  0.9261962101323605
  0.5812518604387152  0.8358195893151513  0.7496076005564812
  0.3324421837772971  0.0793755430305676  0.0860362279559088
  0.8320419757047148  0.9983343255479958  0.4975447868324516
  0.8325956847558972  0.2463367420948203  0.2507499890687275
  0.4998730358922276  0.6729445226467754  0.6636897625493394
  0.2464378318424754  0.2351693207199048  0.8312805222037786
  0.0806362658148535  0.2467947750798345  0.3321053082860028
  0.9138028950044792  0.0775648583425133  0.4960079934384101
  0.9162308058813499  0.1614532312740513  0.7525554065620188
  0.0816776299180835  0.1606580550877867  0.7488093465320604
  0.9966584567577241  0.2441329737593971  0.9215494229449640
  0.2502861211179372  0.2437814422566492  0.0116048922854720
  0.0812773055947409  0.3319148805120892  0.7456459611887990
  0.6654923890514999  0.1643441878273737  0.1668431898566963
  0.0756522738647875  0.5001050825885650  0.2464600607600794
  0.4153994889807058  0.4150101888642779  0.3341529943901931
  0.1633810184608653  0.6737824325228469  0.0008611729189761
  0.1643297126509967  0.6710305871151868  0.4973513198375086
  0.8308371793002834  0.9163032060701358  0.2493299207149748
  0.0762781367867571  0.5883826424408602  0.3359649880538299
  0.7487231833468895  0.4183613743444560  0.0070460324789871
  0.0807358014076941  0.4078346684857467  0.3327407930918733
  0.1616277638793299  0.4145188261045632  0.5786210918931948
  0.6653226998603987  0.5015120684678548  0.3300014803192287
  0.9251845732871767  0.5058205350639626  0.7480690015179001
  0.0015851881852900  0.4188391706171300  0.7478742646096678
  0.4189876186175514  0.5872780289106631  0.0117554224975083
  0.7437697516240733  0.5092404982018612  0.7519498527983453
  0.4181864842887892  0.7584844113330750  0.8329447686670756
  0.9161782266985722  0.5878927977416459  0.6632102528927224
  0.4266921972121051  0.5005750008734973  0.9190046219315887
  0.9117450298858459  0.5026963974873030  0.0831714052556047
  0.5833008761790168  0.5876340071454820  0.3320370024529285
  0.5830390731135554  0.8355966888456337  0.0842530689751322
  0.9985328756441531  0.9173923059866702  0.9161093211535949
  0.2460784941312941  0.7527514243982384  0.6606625164508798
  0.1627877564237229  0.8373521842618258  0.4990586768434244
  0.3311166162842106  0.0808215614474963  0.4152058809976072
  0.2465425813478009  0.5961387387741927  0.8363064102532713
  0.0789935684595170  0.5006173901454646  0.4269641712884438
  0.5836145388104693  0.4137348584265498  0.0103682979788685
  0.9210650203675443  0.5874499016912772  0.3336095472511408
  0.5899772013250418  0.4193690093232869  0.4929054846100330
  0.5834512193994319  0.4148615920671447  0.1675984324199939
  0.1659230440965826  0.5000001538089315  0.3349249120312231
  0.7471697514927914  0.1566784005528481  0.5812761603915033
  0.4994314466395910  0.6702990158565585  0.4967394142266672
  0.5888543953585351  0.3319393492371186  0.5792518139905795
  0.8309508890627436  0.7521930660858925  0.9176126723100140
  0.9851879292311033  0.4991354712804714  0.3354101772014478
  0.9109882019596863  0.5853457363547929  0.1627019818366348
  0.6652680387591040  0.9983482318567638  0.0015045246732951
  0.9140356050141166  0.0802954976284620  0.0014740150735268
  0.8320377190690413  0.5044927037977326  0.8450284057426087
  0.8310062929798268  0.9165598108219949  0.7493707200753023
  0.1641808743535427  0.9165868209281469  0.0845377913146045
  0.8303554902906218  0.9176603432045902  0.9163087278320375
  0.3321225767011644  0.1635742292326413  0.6624952203033410
  0.5810090793319936  0.6695406917714983  0.2502463827975819
  0.8307807086062211  0.4957998097305513  0.3310158873946552
  0.3321782372392825  0.0006727169653878  0.4968010640586500
  0.7490762753512380  0.3306220716488653  0.4109587156957777
  0.8302100029838301  0.2524316453589043  0.7520364671788524
  0.0805355881586797  0.8346297344996423  0.2498247120877488
  0.0810753004018364  0.9989617347768817  0.2501228160117936
  0.1625444955068033  0.1628468523677336  0.1669592943456194
  0.9971535259947236  0.1627441963720829  0.1660321515561723
  0.8316156888768581  0.5854326554017403  0.0840498215275464
  0.2475026845931294  0.0784468099660269  0.0039691636200605
  0.3310905432897805  0.1621065043287668  0.3351898598527880
  0.4148123388978314  0.9179029028707251  0.6638740112079562
  0.4154138172618715  0.1621699394939765  0.4144598934559612
  0.9162218278560857  0.6702072648344672  0.5817401553616998
  0.9154730633357987  0.0704973741855638  0.6655233095108027
  0.9974855789638876  0.9971772563489641  0.8355249126905322
  0.9968044402893673  0.5008851317723022  0.4980526179820203
  0.7468578230403733  0.3297954755032158  0.7527799408326945
  0.3315697136128316  0.1623938687481775  0.1688086955116495
  0.0750477497195440  0.3280921653148294  0.0863051152191967
  0.8370892156322154  0.4186668540132090  0.7513979201759039
  0.4153274686794184  0.1620682434307826  0.5813633592378818
  0.1636704007459554  0.9998639913022990  0.8345996134851674
  0.9966446424389728  0.3291645378107633  0.1646369062485460
  0.1582270056165597  0.2388919575517395  0.9200739150791066
  0.5822373348506819  0.0811301641841305  0.3322537493245005
  0.2472508853887134  0.7556941892263654  0.8415231402879041
  0.9271559799796009  0.4192291729872222  0.6636498362264655
  0.3328299438058478  0.9995913294787597  0.6654742930674776
  0.1558627861576618  0.5025014082845841  0.0079488268684773
  0.9976692439876930  0.7530843829087317  0.9182599729200018
  0.6649576688621307  0.7536012933119693  0.4155150818709900
  0.0806067234728553  0.0784651679259644  0.0012148446904233
  0.9144001041177754  0.0002452775214301  0.2497782827592713
  0.0635433902448758  0.4185515746394677  0.8354302437026856
  0.5837263348264874  0.5888943753792798  0.4961290033799980
  0.1619539591384967  0.6697477750826788  0.6638492710746819
  0.9969339679971245  0.7555470530791077  0.4160507741563158
  0.9960717894493867  0.8368217239901371  0.3332537045163921
  0.6647525789002693  0.9977688675313460  0.4982345059611279
  0.9149496128021259  0.8360759430303054  0.5824883072060775
  0.6635270359505311  0.9970008111796208  0.6659611090973303
  0.4183071708030932  0.3291028508893329  0.0879019084471196
  0.9152028653383882  0.8359988478794088  0.7503997273160665
  0.4994372294875435  0.6703732865047547  0.3310789305222649
  0.4986710220325757  0.9966549165166227  0.0012623239481736
  0.5006674221632517  0.3304726509146085  0.4889877290931416
  0.4990819631925498  0.9163672194443552  0.7500351647973165
  0.7469181230385329  0.6739302482662423  0.7499736357284166
  0.9162581108927843  0.6717167823870761  0.7503490805118195
  0.0800267636593377  0.6794138215489232  0.2502036093257886
  0.3323161617044689  0.2458462826253692  0.2505712501045254
  0.4168047180268998  0.8379016223963276  0.7491855047489600
  0.1589702270691620  0.7531803412270163  0.7502166045618717
  0.9981992353994492  0.9169769619879025  0.0841430748616268
  0.7502819464900288  0.8373115859763662  0.2503474013095537
  0.6666765297249165  0.4149998770082218  0.0863090169584575
  0.8308727432621300  0.5876584934174351  0.9185583317902659
  0.4990562363191365  0.2443236195738598  0.2495385064895286
  0.8307400234049274  0.3232021472761386  0.6641172701842584
  0.4994574279203647  0.4181390082299238  0.4026649926410355
  0.3312000093290230  0.9997421889782133  0.0036182507574503
  0.6678533109840099  0.9973396633408690  0.1686029199525073
  0.6638978998766960  0.1624655622750745  0.4967056338938847
  0.3372689215970576  0.5027974271067499  0.8326124127342310
  0.2465869195067235  0.3297206566347869  0.9219749212710747
  0.1606604694878102  0.4187370634411717  0.9246366079068069
  0.4990990948742750  0.9180966555568764  0.9190489959161039
  0.9991127524197119  0.1639051796764637  0.3342967836872756
  0.3315615517334025  0.3262732180056092  0.6519558788121835
  0.2464980482456015  0.3275645771648797  0.7414026745235799
  0.3312401434932752  0.2338310638352847  0.7475034049494591
  0.3321292409640695  0.9995948484266509  0.8337532692414140
  0.1642537760622683  0.9988850644402866  0.6651303864494653
  0.5017132152320581  0.5865835011338962  0.0858465912236399
  0.2477154986133679  0.8422632946664785  0.7497510206888750
  0.1640401951415902  0.8336786546705652  0.6660789381314107
  0.5814228256317279  0.8357741200460211  0.5811060611605737
  0.4159238601423906  0.7553740696141937  0.1671988546561053
  0.6656407754397177  0.2464286373330093  0.2496620743758708
  0.2478972874241133  0.8377475313970607  0.9183595737840099
  0.4986938667701291  0.9160608059386501  0.5818318395581791
  0.4977171407881638  0.9177011063523197  0.4153736603112200
  0.9149408915705185  0.0814960419159313  0.1682937070314904
  0.0823866025769170  0.5892480380498770  0.6622441339116757
  0.2469636217429357  0.3291952225929679  0.4166922438750462
  0.6646805341197862  0.5881011615691932  0.4138569401698720
  0.7494676655834832  0.4185854938332190  0.8425444789057517
  0.4155015034622578  0.9987585197614659  0.4156343860136212
  0.3401122090737961  0.4137358541648946  0.2495405860368430
  0.8321797078058178  0.3311234110334426  0.1671507578467387
  0.0752040488109697  0.5001570513865062  0.0840168338864020
  0.4178651532220536  0.1598015823394401  0.9200297259911349
  0.1623494650151180  0.1644001226480072  0.3337210438504878
  0.1603842875604440  0.5005491124139915  0.1531750867217404
  0.8328829450777453  0.5086467237564357  0.6637189946948834
  0.9143236634470218  0.0000492049333949  0.4167732321235895
  0.4166046709186151  0.9978222117001707  0.5837734691322443
  0.4156275334650095  0.7530725958442035  0.3331891819897163
  0.9987118751157487  0.9991779966704200  0.6651502364198616
  0.2453516151552289  0.5009520328370932  0.9212979760342025
  0.8279355306454973  0.1669799225293014  0.6631361530950551
  0.6633445463727538  0.2419222591059182  0.9254731842380473
  0.6626744396050047  0.5119610025309566  0.8360901088303766
  0.7479600606679975  0.8359291266145022  0.5812004455100853
  0.3406815971075464  0.7562282642064209  0.7479227951960048
  0.7376383500926053  0.1599939112822668  0.7519151904839720
  0.5000713034111607  0.0787574160099289  0.7506407246414640
  0.5811894327900422  0.8350106526981196  0.2504373915199314
  0.2480269803786170  0.5005072247172710  0.4163657273783949
  0.1649151732601392  0.8358255030437963  0.3315409239632244
  0.1658535155347253  0.5901823261514385  0.2458684291560805
  0.0830404382976811  0.9155688526491738  0.4985568327478745
  0.6648590596209896  0.7528087137884524  0.7487192768846372
  0.2572130841979699  0.5005458958345745  0.2430898890286508
  0.4983003558663363  0.1638411504978808  0.1692890823090820
  0.3372165062362918  0.4144696748997085  0.7435869734571851
  0.7471080190652521  0.9166622594344038  0.1664829458193957
  0.1644892534181416  0.6788715591273918  0.3317156653241837
  0.2490245904082133  0.1500048678918375  0.9202202302414246
  0.6542214656881629  0.4198343182703702  0.5802627889504962
  0.4986510707770836  0.9968775834788612  0.1690786501128560
  0.4977040989861026  0.2408811492053187  0.9244852583018617
  0.9159454862865548  0.2481097930561611  0.4953707662054454
  0.2481524774933638  0.7541523557047335  0.1654315627728177
  0.6654109801964792  0.9975178382756229  0.8341181325478524
  0.2478751093585978  0.3200791145523412  0.2497611883363222
  0.5213092449300486  0.5010104766868461  0.8312595208059114
  0.4255139693005734  0.5876815085489568  0.8315980273971878
  0.4107102409832625  0.4140056378254366  0.4898332976808718
  0.7485754244160033  0.5001342496595940  0.0844818170557987
  0.4774614942405599  0.4220958063495348  0.7483795672647656
  0.7475422079517137  0.4990741075740184  0.2486134904593292
  0.2453487029474354  0.4173188771492691  0.8310338460469161
  0.8322415859365663  0.1650575042492042  0.3315778354020624
  0.3309399091111866  0.1624584516083868  0.4974604678545523
  0.6645163222294583  0.9181152758433710  0.4163201337158323
  0.9135670148586222  0.2471537037953116  0.9994590274817751
  0.1607084223220310  0.4093982891443833  0.2478055565918027
  0.4164744955741029  0.9193075759017165  0.1678444949530451
  0.6643609223511800  0.7523029715932722  0.9180265565067109
  0.8313877029787258  0.9176145909213478  0.0848172072908929
  0.8306833437187564  0.3307748840168567  0.3330050634742972
  0.0805539779124934  0.5880092228619094  0.4965155437351767
  0.2503598880388674  0.6750068080238387  0.0846896948926522
  0.0777409215420814  0.5901140796528483  0.8369800164112432
  0.4177635564482511  0.7564868524698167  0.0026862345044558
  0.2474551040546742  0.9990568841732727  0.2499717541784749
  0.8310469816062940  0.9963168303416906  0.8365331147014534
  0.7474422770804208  0.6717966950949854  0.2477645065345051
  0.0784971776950713  0.2452139898634231  0.1678173771634986
  0.1553686290336615  0.3291628243547695  0.8332341830864299
  0.0828741781419016  0.0792409817159873  0.4982858222280459
  0.9172826268774519  0.2524691499451155  0.6645547842264312
  0.0820015505335362  0.2466332793516147  0.4987762553122168
  0.7491187898419784  0.1639647619771852  0.0854349274032052
  0.4999377025516054  0.2412164733382479  0.7518358007288487
  0.5714290509731245  0.4087876773098365  0.8462121565627734
  0.6645316278707925  0.7538842470829223  0.0850106630759029
  0.2506275686204031  0.5046720692101538  0.0992266084476248
  0.6612679967855299  0.3281044767519612  0.8429694933216894
  0.8318674094028052  0.7543501944530345  0.4159750604614210
  0.4266588378032781  0.4076899717068705  0.8427222395239720
  0.9146886492840348  0.7528235723958689  0.1653368632257459
  0.1537664253128859  0.4176901790564254  0.7430389085165178
  0.3321769162009390  0.8356334271526339  0.4979452156239654
  0.2458713400991376  0.6641766183040109  0.7460722581791782
  0.3333208424159608  0.8354473955159775  0.3314736646081806
  0.3311505321592347  0.2422105526792321  0.5785728139743166
  0.3354862770921514  0.5918858484067433  0.9209122294695538
  0.4147824449534835  0.3296663019961233  0.4145966404441787
  0.5005385516853712  0.5877917807337251  0.2479994219792963
  0.3380712801880496  0.5019001189027644  0.1665406683321209
  0.3365909530351606  0.5007595698305182  0.0117069764307302
  0.8308277615586981  0.5869235606597267  0.4223229350677284
  0.8336594759952021  0.4160022816392988  0.5733328158862168
  0.3358621774210211  0.3230792662620581  0.8329515679852452
  0.5850739360947669  0.6739899919956235  0.9194616683495753
  0.3329696619773694  0.6702226043104784  0.4972626699411993
  0.9935792697348153  0.6737258380242926  0.1639283426153442
  0.2437358779166133  0.5921528067698169  0.6618152634091429
  0.1659205100137419  0.5874947632275341  0.4253914337671418
  0.6571070864893787  0.4189902363449168  0.7546494961124198
  0.5018949849940836  0.4202329205873663  0.5811630252658325
  0.7472060804160353  0.4191779292100238  0.6629468308232926
  0.7477495947515909  0.6711739224012367  0.5810089459800875
  0.4996400685959301  0.2392183089807273  0.5798410269381061
  0.6667437363683955  0.2446834000851020  0.0865268554601822
  0.3344785743381231  0.5869173259721279  0.2478344847851021
  0.4284065250192563  0.3253925621031856  0.7521781428577112
  0.0773033826916732  0.5044486870503965  0.9219470132543830
  0.8296521425024622  0.4993795182459619  0.1661951526867398
  0.0788864366858836  0.4178909927684492  0.6600919354212859
  0.9985673153651675  0.4167922105030207  0.5773636258535846
  0.9964363478160292  0.3284251423860436  0.8330386325543645
  0.8319217464536892  0.4139738040200096  0.2489309435821813
  0.0792926990463446  0.5890025517422121  0.0030854406992776
  0.9953507172452698  0.5027766531030151  0.0029939834434032
  0.9945643147487800  0.5877419112795679  0.0826002763852740
  0.9960789973392399  0.4136922707367056  0.2489156402517680
  0.0009038096804855  0.3312499532796155  0.6616954685836052
  0.9955688013322848  0.5881455534298049  0.4185480536470030
  0.9988533187375960  0.5878640451549683  0.5806904334567013
  0.2437268636559008  0.5033913483950586  0.5799189327423087
  0.9890515052218213  0.5857760487239013  0.2458936454468205
  0.0794749306047214  0.6735355508734082  0.0817458852934147
  0.5130447443927063  0.5867567079813186  0.9195292870072389
  0.3381164851014595  0.2431231675554388  0.9211136349532989
  0.4157825821885784  0.8354430928191211  0.2497429191438423
  0.4168295494276907  0.6733367623896248  0.0852126782629240
  0.0804541396882152  0.7559209351339973  0.3339759410910157
  0.3340910308614068  0.6708606516606127  0.3309096668146281
  0.2488924024092123  0.5927565913808842  0.1662155321991075
  0.4167561742211274  0.6710382167602773  0.2483288739353469
  0.4162586330423992  0.8371928368195438  0.0849163295331491
  0.4192982817132813  0.6791432795454524  0.9201838259779387
  0.3334654692938477  0.6738407660189240  0.0030717903114591
  0.5008340280421160  0.5006848444383947  0.1686140201455624
  0.3322474164917166  0.8368214003216533  0.0015006551543193
  0.3339255799287635  0.0784213915531607  0.9194176515024655
  0.3331494947746067  0.7539944042392355  0.2494972195521810
  0.4171080450392438  0.2407118200873609  0.8358714500575400
  0.3339986470971004  0.6730110836478147  0.1667282151992882
  0.4184310945403676  0.5926299582266712  0.6610261193116367
  0.5017280157171459  0.5005528029576449  0.0070436316175796
  0.3323298661583761  0.6721824752449127  0.6629115319918265
  0.2469155513485766  0.0814275332286792  0.3318440045561076
  0.4158957433161715  0.0807159672102953  0.3322221193668329
  0.9141579412728424  0.9174802836085310  0.3331509366639678
  0.0812356479842082  0.9166008247431344  0.3324367893174520
  0.8319334367309619  0.7533601418938762  0.5829521392659619
  0.9139282753797286  0.7541609753171455  0.4996782378723522
  0.8325030731077635  0.7527033021464538  0.7486357740463163
  0.9142585620770017  0.5875130692116319  0.4996642781366518
  0.6650810043772208  0.8348285008735372  0.3327155745156485
  0.3315568851806004  0.3290124331454055  0.3334113269316145
  0.3339674914717935  0.3276009798214298  0.0063630468919487
  0.4175172682087175  0.6719623723344027  0.7481296582393817
  0.4988809973923183  0.0787035462116978  0.9200114485262936
  0.3329416898178403  0.7561445289832209  0.9199787588441856
  0.3294672750022006  0.5029293919859056  0.6634171544359331
  0.6672979618382856  0.5935595396398254  0.7482791169476403
  0.8304772118368010  0.9963954174191159  0.6657039703766404
  0.9971635880210008  0.5893438163709717  0.9199494375704943
  0.2480074212340500  0.0797729349911433  0.6647219442690486
  0.1641055856919635  0.0786479169183443  0.7488912149426019
  0.3322806410198377  0.9181945358145349  0.7497590008187128
  0.2475183414081983  0.1617627663631057  0.5807483380755951
  0.1628806679280914  0.1608950586968633  0.0036820272490160
  0.4986187329814822  0.2446698527691232  0.0881509183812121
  0.2475069514481149  0.1604899328350372  0.0859983460786459
  0.2471543874825405  0.1643454173710853  0.2505489205143744
  0.2474884616891395  0.2439246219385867  0.1665707037472909
  0.1632435576323523  0.2463579767118732  0.4157855868755064
  0.1636105564695223  0.3303211406043376  0.4974075917012276
  0.3307769774310352  0.2448326968584081  0.4155221758401151
  0.0812252837223185  0.0817440088016648  0.3327744931495004
  0.1631414772050793  0.1629974613867914  0.4977724638563031
  0.1632493820684282  0.2454702104453273  0.5793843369076278
  0.2469726507248540  0.2453286206369256  0.4974484155765910
  0.1638563266239767  0.9984179291122455  0.4984525675175324
  0.1623100149972758  0.1622996923743859  0.6644882636138075
  0.9966485577241039  0.8359968557897675  0.1667005766969253
  0.3354460589580363  0.4127185785994792  0.0872557564382782
  0.1622149682992972  0.2445458502089990  0.7482307931634407
  0.9158716453152909  0.5033716163494467  0.5803994864047449
  0.0806028618226385  0.9170969275116165  0.1677052212817565
  0.2474630243568175  0.2454156345239044  0.3345292575901033
  0.9991684875135890  0.1633007029555582  0.4972480551850532
  0.0820079995785779  0.0781751551779333  0.6660337446649627
  0.0810085412441496  0.1641253193143757  0.4160377963251491
  0.1620800098089386  0.3300537827516947  0.6620249835157160
  0.0819533228178715  0.1620258823922727  0.5793297173172790
  0.1638204239556181  0.5925312901364281  0.0837914869302402
  0.0067276589220899  0.2462082883288345  0.7474296355145286
  0.9155100075278697  0.1625891844238008  0.5749185755073827
  0.3338415043231190  0.5901641283405618  0.0868951772522046
  0.2488469840085560  0.5916725128975966  0.0038667109558106
  0.9969756195324633  0.6716765610583795  0.4988800252683346
  0.2503537917707609  0.5875857442405424  0.4981520311152851
  0.2556917915113099  0.5851156185503997  0.3319821619983474
  0.0800529519327258  0.8367641428634326  0.0831664894447270
  0.1633703029087980  0.7544678193865876  0.9180351412712483
  0.3310611150162137  0.4136723363489352  0.5748576381773868
  0.2478524901533883  0.0806343028061073  0.4985573522131190
  0.7470533442582293  0.9157934965405725  0.6656098665370628
  0.6653310681764500  0.9178299099347780  0.9180313362065569
  0.8312331525418810  0.8346535090765468  0.8335442050440404
  0.7477596324682578  0.9156384814190653  0.8340365506898729
  0.8319850859655959  0.9974872837986855  0.0013751063845388
  0.8320752117482364  0.0810347398958646  0.0840636976688009
  0.6651756418473228  0.8338737131592350  0.8337435849102834
  0.5013020934082189  0.6722791421620062  0.0035331219833115
  0.0805453264850431  0.9171056029003879  0.0008979394840990
  0.3332365108404505  0.7560610203170450  0.0842605386515373
  0.3306781018273413  0.4146080998819573  0.4131192199440489
  0.1641285032804542  0.0798342219821016  0.5820541552792639
  0.4997120103219846  0.7549302142342488  0.0852608917331470
  0.2482761412402404  0.9989377445709141  0.5816847492045584
  0.4988272466140691  0.4158561617220469  0.2513812602260038
  0.4148106715831500  0.2457687762086817  0.3328045452476026
  0.9984316669257617  0.1621375248832244  0.8347784709888546
  0.1625858248672531  0.2454665225543685  0.2499121811901178
  0.0801203842660662  0.0791628327836652  0.8334438974585601
  0.0812173765722353  0.9982532453628288  0.7500430638482363
  0.0792673495800736  0.1627144070796404  0.0841566069531398
  0.9971846820977920  0.0794183177791073  0.9181567811072795
  0.1642401287629511  0.9166679713592171  0.2502781323029251
  0.0783984101367403  0.1606685956322577  0.9193423458554107
  0.0808883655575651  0.3304479108892669  0.5792710787576246
  0.9159396891535887  0.1641494343258032  0.2506762079803180
  0.9979483241014687  0.9989685068287424  0.3328246091082767
  0.9957522803794939  0.4137672311400094  0.4164922020269308
  0.2468034852061924  0.9983945615686457  0.0865443160341343
  0.0817242539076146  0.9987860053979519  0.4162167318713416
  0.9987966842257381  0.2469237595539935  0.4153486771897992
  0.8311026617353217  0.9170379631000435  0.4154566163300898
  0.9985289867069617  0.9168967128612949  0.5824154206852212
  0.0819537066977415  0.9981513460022576  0.5815352646702598
  0.0803928010385239  0.9982196154515693  0.9179073903323143
  0.9988628924817431  0.0807694103302810  0.4158023931757545
  0.9143154479920483  0.4159997145944785  0.4967025844141984
  0.0798894615673666  0.1635295373660603  0.2502788187182854
  0.9147712880389285  0.2467019334202234  0.1675121648314714
  0.0809498718964894  0.4142685009100245  0.4978741730386925
  0.0802663550577112  0.9983866406242446  0.0841269242726393
  0.0803936006013147  0.3293323841450803  0.4163418018038478
  0.9972651570815454  0.9990078111037086  0.1669988741073253
  0.9947010355121374  0.2446967591145720  0.0835823055852209
  0.0800192309649779  0.0813842969722595  0.1678243410625042
  0.9964180812520812  0.1618677378032241  0.0021406492905274
  0.9967834726606721  0.2461902537745714  0.2499619706689894
  0.9982914160687866  0.0816148321286929  0.2510376431274512
  0.9948864223507426  0.3310021991987148  0.0041290572205733
  0.0781151620695877  0.2453352816641522  0.0031986368370375
  0.9945214366386090  0.4157716933075405  0.0848249758315924
  0.0781192969487157  0.5895788780637949  0.1581164104557574
  0.0786574329592646  0.3284490250494436  0.2484425862778397
  0.2458393937908591  0.2437313902467910  0.6624898309640557
  0.4990950533352244  0.9167151620110451  0.2503805526247460
  0.4991132884583561  0.3291497158945713  0.3312821901533812
  0.5806333776566713  0.1592473715478980  0.7520542784999666
  0.4996607351097588  0.1617659492959827  0.6664231988415361
  0.4994600563476045  0.1609473948666206  0.8362446524007296
  0.5806027699291431  0.1613989891124328  0.9216723991936165
  0.7472397714410772  0.9984777260261575  0.5816581813471442
  0.8320364245080099  0.4158138691309138  0.4142710454558156
  0.7473884565277913  0.5096692057492165  0.5803762150963837
  0.9144452701232546  0.3302576578904184  0.4145818342185181
  0.9156720187372752  0.1639273341556929  0.4157724487128560
  0.9147164700233700  0.2467034844250217  0.3329872716834534
  0.8315035843049450  0.1629047613735982  0.4972477592418086
  0.9992514514178580  0.2460726051479821  0.5790676516463155
  0.9191881616466633  0.3388458351089888  0.7496560477126738
  0.9985281696415265  0.0786860067762244  0.7504816158103151
  0.7464763887051878  0.0786650929517565  0.6666306684320262
  0.6589819867799599  0.2401640574068250  0.7535710989457933
  0.9134291630030225  0.4151764032973700  0.1668021928675947
  0.0050871049842686  0.1620293936179736  0.6631570574514621
  0.5831494416387850  0.7537321521572151  0.8330908007728227
  0.7483902178921742  0.9992345120694570  0.0841416448574428
  0.5816620500316222  0.9162407328748673  0.6654324143473266
  0.7480951546259127  0.3300420982159500  0.9292490144593804
  0.6620683423120373  0.1613737052676711  0.8387958557661491
  0.7406680269547270  0.2461446154699281  0.6716148269528273
  0.8305879383343096  0.1621233543003703  0.8420445224729971
  0.4990048848216510  0.7547730014560604  0.7487143600346051
  0.4994259697556915  0.8348975607559382  0.6652588861346987
  0.5819894951393600  0.9170958581304796  0.4982779216321684
  0.8372612854957450  0.2483562668896550  0.5772367884358728
  0.5814361775924778  0.9978724053892792  0.5820335531049197
  0.6625567672621039  0.1605147569265711  0.6657863997588555
  0.4980508722667540  0.0803899034942662  0.4150177757202807
  0.5819474415605276  0.1618492581298036  0.5810038513414693
  0.5825440601084741  0.1625088412430245  0.4135843195868560
  0.6657411420802880  0.7539044483955512  0.5815719993730226
  0.7481261681127860  0.9166533631181398  0.4984857111801543
  0.7458412961259190  0.0790059159486147  0.8359902991248139
  0.9144351323929342  0.9155508730162872  0.8345080874905725
  0.9971669852595262  0.9979460592837438  0.0009588975048219
  0.0810149085282793  0.9174055631133398  0.8330358990233845
  0.1630638570966461  0.0800158710537266  0.0856248422807949
  0.9971222735418062  0.0806856149936111  0.0840859285872531