 C Cr Ni 
 1.0000000000000000
    21.1200000000000010    0.0000000000000000    0.0000000000000000
     0.0000000000000000   21.1200000000000010    0.0000000000000000
     0.0000000000000000    0.0000000000000000   21.1200000000000010
 C   Cr  Ni 
  35 259 605
Direct
  0.7533008656934342  0.3278151882214765  0.8386705144342892
  0.3278469925627641  0.5975301598835308  0.8255815167399659
  0.2482216106883440  0.2347409580553300  0.9219751855041222
  0.0759608355110766  0.4992126855824485  0.3390349689878894
  0.6637831708253732  0.4175405778574264  0.0118870305447116
  0.9195472333780783  0.2522266560678151  0.7551460206585278
  0.3352741766741456  0.5038067263541021  0.9234839089323902
  0.2437492305037335  0.3245793927391099  0.8295633986281156
  0.0765524727457574  0.4073233681931168  0.2488790167423497
  0.4265764384029552  0.5064169595341391  0.8281808438891818
  0.9177530222677213  0.1606700227293297  0.6614991902009790
  0.2440678917179155  0.5071819267145651  0.0110352018084626
  0.1705344722557036  0.4989241746889800  0.2447137480671759
  0.2440573153273312  0.4238448157163631  0.7378735816941777
  0.5004488374090399  0.3299619160870849  0.5774874272800393
  0.1697698177646826  0.5913143008725864  0.3369227441364303
  0.8308389500308573  0.5066282033905232  0.7527949857848577
  0.8314464543227595  0.4145736094673517  0.6615520036266547
  0.8272993639808696  0.1597712551207904  0.7545847091872443
  0.4199331365089350  0.2360329046064869  0.7474179327655006
  0.3370332113921783  0.4137591774469715  0.8334873971983416
  0.4242989608700968  0.5956142250344255  0.9234583527660508
  0.3327092354235386  0.5016193133957125  0.5790950506116793
  0.1526742336273660  0.3265665504724762  0.9241947064569825
  0.3332522027782616  0.3254895718808682  0.7387892862827231
  0.2502976892854615  0.7504823509302520  0.7516338679010579
  0.4292433221775355  0.4178257081943133  0.7381114844380782
  0.5171973133026229  0.4763381963231081  0.9209805431985029
  0.0765385172121602  0.5918544524070460  0.2453905693253594
  0.8317568383473597  0.5861287929977955  0.3350163207163330
  0.9117637069378052  0.4165351901339670  0.0835563556082441
  0.6593416609557439  0.3274026101893489  0.7458076508903416
  0.2460042039368306  0.4159095405802278  0.9248649887869217
  0.1507359660889061  0.4206487302339141  0.8311517197071215
  0.6568295888356360  0.4217381344539744  0.8334167940515366
  0.0831688424094051  0.0785380887155738  0.4982167748399209
  0.0791718322990416  0.2443335126188527  0.1679717742892398
  0.8300419114143137  0.9955145200097311  0.8362987994857235
  0.9983043509497859  0.9987565994734402  0.6643545236276134
  0.2447437696187985  0.5056105243707599  0.9213145761651795
  0.2476510091383431  0.9986201748377039  0.2498441151946958
  0.6637857375952008  0.2430832085616792  0.9221661973013542
  0.6644448178717088  0.5112983087377254  0.8325483446703165
  0.7475649515201545  0.6719256303271895  0.2498225983998143
  0.1539241725816078  0.3279423198480717  0.8317291351060473
  0.9162367955634586  0.2519985365600215  0.6636463467954488
  0.0818692369549470  0.2467816757543571  0.4991691125751250
  0.4174678286362155  0.7576580326127454  0.0037173854936905
  0.0784470107506105  0.5891521536783308  0.8363498265445046
  0.0834284806521405  0.9152136956694283  0.4991001336047474
  0.7485932687597061  0.8353843054612926  0.7499457876296399
  0.2604477570437870  0.4996933896661153  0.2462592609407856
  0.4978864880815466  0.1643866492768387  0.1699174322484248
  0.3356194215721954  0.4153639223608280  0.7434512786736098
  0.1649908179393766  0.8355073285939214  0.3324026402749277
  0.1668539228102240  0.5898728187675019  0.2468231797129770
  0.1637495338090452  0.9165467207262115  0.0849977707935898
  0.8298822798760245  0.9178437689967005  0.9164998197378146
  0.4176512519149349  0.1478903965233341  0.7497042945152408
  0.2465316485871319  0.7572797026777449  0.8412303117628738
  0.8308408816928982  0.9165207537343586  0.2499906398259541
  0.8321015933116290  0.2463649612833627  0.2516210794870119
  0.7471872728693528  0.9996670853177539  0.5814918936669107
  0.2502392556890964  0.6765027527492135  0.0858589613789587
  0.7484494458362847  0.9983842441760299  0.2500499732787059
  0.1632180939545491  0.5010930898981817  0.1542478137561652
  0.6652197592568450  0.1642661196661573  0.3320528837868849
  0.5837662768305686  0.1628624034686975  0.0876032799141980
  0.2488791885118690  0.4141347032522721  0.0149984183156595
  0.3364122834944147  0.4135304342903194  0.9238150657729338
  0.7472169116063169  0.2456940138692787  0.4958631135072645
  0.5804006274730630  0.8374054073403071  0.7495615389900888
  0.3327416739736710  0.0793975038986370  0.0863182815822679
  0.8297554549873077  0.3243001509673526  0.6613707036649800
  0.7472879114417618  0.9169558929368150  0.1669795723496996
  0.1645492477551931  0.6792735421112697  0.3325930135507597
  0.2483289666277705  0.1469225847987069  0.9203432376559788
  0.6651180791239582  0.4175747183084516  0.5756963416718978
  0.4985865899751350  0.9970804809245090  0.1694640520109523
  0.4975412070776288  0.2418992079091221  0.9225251951821167
  0.9135924021038221  0.2478968673887370  0.4968294376878171
  0.1647830529308200  0.1641413870882527  0.3350397290117144
  0.0758756361158599  0.5023772204020881  0.0834718156274204
  0.6679322778535830  0.9978335964572838  0.1686481039870414
  0.6644505806726512  0.1635401694266823  0.4956626667027595
  0.3357580016630301  0.5054988763288242  0.8328819873680128
  0.2444075627473525  0.3256222260240982  0.9200955441418540
  0.1562717835970266  0.4170522652486824  0.9212381968284046
  0.5006958726827603  0.9167451946887490  0.9187795149755094
  0.9992878213209361  0.1637036474021021  0.3355144695771879
  0.3308486507261487  0.3271586235871660  0.6487278239201112
  0.2434916254803667  0.3306330271508832  0.7402710487037391
  0.3296539394711389  0.2363133909827595  0.7459978803156424
  0.3319214057838659  0.9983969516269294  0.8339664018446863
  0.1646119691574699  0.9986994088118216  0.6652332763237957
  0.5022189390017530  0.5887820542401627  0.0868007108806468
  0.2479380634841374  0.7543858929398252  0.1661840459763740
  0.2472864915939351  0.8406669879775838  0.7499991197843693
  0.1644080620616840  0.8325059176385649  0.6666373365091365
  0.3320580418074749  0.4147775290035648  0.2494923902879067
  0.8299297805797252  0.3288555890304259  0.1703304258344879
  0.4179043431722761  0.1594327822435484  0.9199426529907009
  0.6668057825613616  0.9984670129585247  0.8340114346685042
  0.1551233499352343  0.4197487200682630  0.7420323643833333
  0.3331418885062137  0.8345989535242581  0.4986978770401674
  0.2509345350126669  0.6602125936001573  0.7513289530286328
  0.3333217183335816  0.8351079472482472  0.3319383926110768
  0.3300927269740126  0.2424239548646565  0.5779452386358412
  0.3328404572348965  0.5936731042531006  0.9202157021199782
  0.7457515325850024  0.5881053670096418  0.4983484367372541
  0.8289428267613503  0.4157874416431478  0.5725967364477692
  0.3352636660021476  0.3240299160060202  0.8319488879441802
  0.4153295258962376  0.3315840481966841  0.4136142645565085
  0.4994626208728580  0.5020375574151377  0.3309794949673405
  0.3355699316945266  0.4121712037690393  0.0855806628652045
  0.3365556260902312  0.5018917010480808  0.0131335241696820
  0.5859409408128229  0.6742181555906144  0.9190532562503161
  0.7467780776971017  0.6706255893667623  0.5800287827000336
  0.4234683074201977  0.3269056083171546  0.7465753528150583
  0.3344037990834623  0.5870897491022127  0.2487218094875238
  0.6656021954625542  0.2452841817062633  0.0877404515961546
  0.4987770477038774  0.2394166325366931  0.5766679990205914
  0.5027504836392134  0.4204585113033231  0.5735176556467785
  0.7405799661483961  0.4177349838712097  0.6649476730025765
  0.2452445357455554  0.5918371262339277  0.6639828245003645
  0.9936711670250479  0.6735619240783118  0.1647921925011227
  0.3340980274173600  0.6690013267155915  0.4978697204452538
  0.6588625609621833  0.4191412703743419  0.7447364679219465
  0.1662367843354099  0.5872389126498730  0.4264982365920190
  0.6618310397910669  0.3305117468970899  0.8378623716130839
  0.0809924214237294  0.5870836933961801  0.4977927122695144
  0.3316476521028487  0.9993027569221952  0.0042624163874696
  0.5669924865643238  0.4177114612325716  0.8471173465554133
  0.4200022249867969  0.5950548953740524  0.8329065453497846
  0.4174428633171642  0.4156379163272395  0.4903274030264951
  0.7504317609119923  0.5047476789908605  0.0867110036097200
  0.5174919505671468  0.4210095783517766  0.7478462762885387
  0.7474425623839682  0.5006122750158557  0.2515231716538986
  0.2441004968636512  0.4163020925941026  0.8312988452178659
  0.8319404208562253  0.1641817451475538  0.3330801927297210
  0.3307791904268867  0.1633802258516204  0.4972730448897709
  0.6645208759082339  0.9178549767845620  0.4165196026655162
  0.9121835548705594  0.2472049063940251  0.9987715694498833
  0.1678840849625925  0.4085183184707996  0.2484742354145116
  0.4168173844578751  0.9192834538123441  0.1681594862125056
  0.5838217358051403  0.8363410206586437  0.9185710007474136
  0.6648316352754572  0.7545551789007199  0.0857877007003860
  0.2497321790850908  0.5058853172526323  0.0984138198217793
  0.8313316954081813  0.9177846912107063  0.0851158791032293
  0.5796665259005832  0.8357109509502875  0.5807001308063502
  0.4161522006572867  0.7555172836684119  0.1682426988621223
  0.6649852772665000  0.2466858196967635  0.2517866767530905
  0.1645950409721905  0.9196171643877668  0.9171219600869912
  0.4982774741488132  0.9159799903814247  0.5814645070905090
  0.4980030294025519  0.9174287094476103  0.4149575274196615
  0.9146423577923956  0.0820170041044142  0.1687849637407092
  0.0825602311307167  0.5891466138001554  0.6629959536800238
  0.2480308893834917  0.3306452288185478  0.4170103617198996
  0.6646283360186365  0.5876416384704637  0.4156472378586260
  0.7496465523435035  0.4204458564101433  0.8349496245969819
  0.4158505741606100  0.9980802909145857  0.4145097687344426
  0.5082002306763858  0.2392076912301344  0.7488187185531495
  0.8304726219417332  0.3311485336769260  0.3347606357136492
  0.7476915790968349  0.1646759844972977  0.0856198258651953
  0.7480500821725352  0.9165746809040688  0.8333762990371383
  0.9159770759850567  0.8348836307764088  0.7490296660158784
  0.4156485320629690  0.9973818287839432  0.5796734354321011
  0.3409426298824551  0.7556906074010760  0.7480399984118464
  0.9150365928371347  0.0000034594607287  0.4171230525731975
  0.6619452451378316  0.2375269165400495  0.7490554143688830
  0.4996040749962916  0.0777781320103806  0.7494215942703398
  0.8304917840409654  0.5057519356169902  0.6619790277243036
  0.4993366256976594  0.4187245718481172  0.4130901808195115
  0.2502151257534078  0.2437667727272365  0.0111200050451797
  0.0834254727624077  0.2470326624321768  0.6613949409149626
  0.6640163931730271  0.1648073132456810  0.1679748550852650
  0.0789142968010186  0.4999844511640173  0.2485356503732899
  0.4163134081418724  0.4151714570066389  0.3357217799983645
  0.1624619229394356  0.6748665468462515  0.0008491660075450
  0.0777198061139714  0.5891789326945532  0.3365737911600949
  0.0799055519378877  0.4097303969430986  0.3384214540938418
  0.1614742194398450  0.4153567822762865  0.5794468249232810
  0.6666337947963579  0.5003169354385107  0.3307711712698088
  0.9215993126644239  0.5054975361781027  0.7467645014041248
  0.9986486033747041  0.4194780795084930  0.7460997398400544
  0.4183968574858186  0.5892577085385863  0.0132926168860479
  0.7397694584757722  0.5030410050427560  0.7484825970981083
  0.4181795326347288  0.7585032240219913  0.8332410200975928
  0.9154619509354345  0.5872999654411502  0.6632691833189606
  0.4266009851807566  0.5038208578894944  0.9205204183933354
  0.9113201108433168  0.5083786050636722  0.0817056975978773
  0.7416568293941819  0.5859332704015917  0.3339725755970626
  0.5838222193300472  0.8352736236338599  0.0847213985626602
  0.9970729042525832  0.9173257376165037  0.9155824953682596
  0.2477639130327632  0.7509511320875706  0.6616846392292633
  0.7482791377284718  0.8350427634031370  0.5811059430557547
  0.6657970262199101  0.4175619764903560  0.9223185107214633
  0.4161960126285558  0.7521317918165272  0.3334917187278837
  0.8276561300603946  0.1658687478218573  0.6630476238391384
  0.6644886402517559  0.4155839535145101  0.0989182406412882
  0.1597728689247193  0.7505263315030377  0.7497777078159283
  0.3308549231869810  0.2467931157263410  0.2511112469304339
  0.9162889648038514  0.6699125093838796  0.7491905766738304
  0.5704293153834862  0.3276341956468726  0.7507553554323655
  0.8313621175301297  0.8354322650209973  0.3341535608240810
  0.7478186554844004  0.6719148927348060  0.7477726587666716
  0.0827223822910364  0.8346273908367475  0.7495176235972860
  0.9959738961970396  0.6733425731440770  0.9998992812325378
  0.0803130328233366  0.6800513019102926  0.2510685884752352
  0.4153723692446540  0.8362258242893005  0.7501573512738459
  0.9973178592218271  0.9171680406320817  0.0850004125887297
  0.7506414309171492  0.8375100925101661  0.2510913445632546
  0.4995167485665462  0.9172115400488411  0.7496168825422606
  0.5833132326137391  0.3320527847351278  0.4126115549362197
  0.9142331670360402  0.0777924793589219  0.4961814299721714
  0.9170044882540791  0.1615622470265716  0.7521193404656216
  0.0810362646872892  0.1593206761854781  0.7496259905580763
  0.9956165728910992  0.2436045661044361  0.9208356389749196
  0.5010826585700437  0.6717718169493199  0.6637781628141342
  0.2474715208835248  0.2350992895409509  0.8305757176958676
  0.0811621978880191  0.2457159390556670  0.3344543918030342
  0.5155271847716630  0.5104571506065619  0.8332743663057820
  0.8320190817836045  0.7540917563508791  0.4168221809793177
  0.4267173838470723  0.4151661787003453  0.8307277537197515
  0.9147517683288842  0.7527456108435913  0.1661713622364133
  0.2481389972973898  0.3288932310208705  0.2494644360800320
  0.2490407674879437  0.5000611210084414  0.4173493094863016
  0.5813410610696141  0.8354653428641644  0.2509058782361608
  0.1649624847601431  0.6705186661087952  0.4983378740934632
  0.1634205488119486  0.8365781939802135  0.4998310642867101
  0.4996278168460080  0.9973500781787208  0.0020817700674384
  0.9119064504375829  0.5867849691234853  0.1648860775213085
  0.1538031373523735  0.5026837419853982  0.0082451305430882
  0.9968498190373828  0.7526662328054794  0.9178503064937897
  0.6647150530514148  0.7531570943391301  0.4157527560450079
  0.0797439651148806  0.0785785368439535  0.0014921043734516
  0.9143234174410855  0.0005819597955901  0.2502470913145247
  0.0616476282745606  0.4181784559294305  0.8332986396967687
  0.5839093339846816  0.5871855501157209  0.4959571260687980
  0.1634265802104501  0.6689958043679707  0.6648312186948677
  0.9966517159486553  0.7546259526693108  0.4172407809666098
  0.9962812551795819  0.8369929758309090  0.3338862983082362
  0.6646557516876063  0.9976913991208621  0.4982857917325172
  0.9159897505237840  0.8351323792124000  0.5819288335232509
  0.6647132296054690  0.9975971420087604  0.6638681965023510
  0.9218451316444884  0.4194929443573429  0.6618830149731010
  0.4169995337579748  0.3293940529071011  0.0880329035715263
  0.4145435190777007  0.0819523280922581  0.3337109070333822
  0.2397251789166860  0.5885253898316268  0.8388344859925253
  0.0803497641202367  0.5011285137553028  0.4280386522299495
  0.5747137764160719  0.4155228003968578  0.9988481715461034
  0.9207781620965253  0.5870911843972703  0.3354741760077206
  0.5832496006164138  0.4185362651319627  0.4942539977096130
  0.5810152451619083  0.4159177880121134  0.1696109039288461
  0.1681163343530713  0.5002347652827439  0.3365601468147463
  0.6633113336841001  0.1623168573516270  0.6628801951513971
  0.5001050214840572  0.6696719081671691  0.4973948056199394
  0.5895465287834857  0.3314778217064566  0.5753935012075406
  0.8310419925585433  0.7532481809038034  0.9158202717233525
  0.9852888398540116  0.5000742386034271  0.3373385062027268
  0.8302042613141009  0.5896617988940175  0.9173706277660097
  0.3321564055140795  0.9988457850453439  0.6648605429755453
  0.4993518524758764  0.6695781543095571  0.3308654266719249
  0.4980862238607816  0.2462615499479704  0.2504982285357967
  0.5823291428959416  0.0814965682881085  0.3323842301482766
  0.6657267453665754  0.9989175205203986  0.0017531325754409
  0.9133869752434240  0.0806864818594691  0.0016762908236729
  0.8311284754138660  0.5049446019949464  0.8422592198147459
  0.5803380876116008  0.6696928166456825  0.2514240338508039
  0.8307130441510606  0.4963492627600226  0.3345608253865754
  0.3320219796444485  0.9991491243953612  0.4980687775062823
  0.7492919955851175  0.3312088464010204  0.4130501324305818
  0.8287039172770738  0.2510523455626078  0.7495798100934469
  0.0803335098115695  0.8346342029153615  0.2505907526393463
  0.2460971097971950  0.1632652340900202  0.4157055022815878
  0.4156126849125625  0.8352299459636578  0.5806321251790169
  0.0812695226371590  0.9990995286388361  0.2506906596872130
  0.1635884173489862  0.1630609845337716  0.1679957058943506
  0.9973183219776984  0.1627871385033473  0.1668426445743346
  0.8299482776883299  0.5865110769224706  0.0841210747565411
  0.2475457276938442  0.0782678360987959  0.0049559905047878
  0.4146510120053456  0.1626187400339995  0.4128427773523978
  0.9151228341645292  0.5028673269713912  0.5825792794346476
  0.7494408533880812  0.3327410509789795  0.7474338083614279
  0.9137721821879713  0.5868161237962100  0.5022786622003931
  0.9153025912363310  0.0701950508141194  0.6650659730064423
  0.9967125594016952  0.9970166021755306  0.8351808910314540
  0.3317698696736207  0.1630807115746457  0.1687875830082585
  0.0757397156051914  0.3261433346499055  0.0857398535257949
  0.1633069877962759  0.9980542524076630  0.8352455019598173
  0.9988110011628735  0.3253953210191285  0.1656794219377875
  0.1570414680661447  0.2373795193894410  0.9192454522047406
  0.8316152863899634  0.4161565226866649  0.7512732196585292
  0.4139380242303567  0.1611026440746244  0.5782286613125961
  0.8296026665173540  0.5047982641477619  0.9988638448654663
  0.6649983259058480  0.4161643403480303  0.2494151234582598
  0.7483512330302369  0.0816989442042947  0.1679978869144742
  0.4170833084213963  0.5029661789493256  0.4138425977357337
  0.4984361024273142  0.8353461711792469  0.4978479869988290
  0.7473466133820507  0.0809192002484788  0.0024330539366143
  0.7490460384361275  0.3308396808190572  0.2517349532527652
  0.4995441848449513  0.6717583023639877  0.1680668993197544
  0.4999026589243100  0.9972165666840573  0.8342675345621041
  0.6631259332930557  0.3297199322507344  0.6582536050979639
  0.5009564613486555  0.8366005039913093  0.8340907373887877
  0.5839006237188082  0.9173607232905641  0.0018054014448142
  0.6659501669668828  0.3302822464111471  0.4933853029924858
  0.6647853636236113  0.7531930735411008  0.2504562468279481
  0.6662933565966160  0.7541980241218611  0.9169756743098403
  0.4987462632430928  0.7536415093785881  0.2501556155345061
  0.4159483158858353  0.7523511908276107  0.4976738954319099
  0.9140678422218790  0.9975930456141725  0.9183352476357475
  0.4159633077275545  0.1618402946302365  0.0878662284485979
  0.4153294071232184  0.9171929305982840  0.6652188911055744
  0.5827468190569871  0.7535591812224294  0.1689036988182236
  0.3323125070445618  0.8359539241556579  0.1681261254830198
  0.1631260408395560  0.8371225485085866  0.8343788080454884
  0.2467237734701095  0.7554220227318116  0.0020552218176469
  0.5811633786604641  0.2483889784723283  0.1699396480328881
  0.2472275991619019  0.0807094529774136  0.1687435668996093
  0.4990948082934483  0.2470235984294547  0.4129002360593054
  0.4165045927934242  0.9984309672088739  0.0857297262208849
  0.5809485033839639  0.3254561470667185  0.9217316705155615
  0.7468261897019836  0.9977443612751792  0.7494757618277343
  0.5862743596880949  0.5904898872062863  0.0068219334479488
  0.8307776249697751  0.0733762864153474  0.7486982363031242
  0.6665439177222269  0.6726739140287331  0.0032312345835810
  0.8308326881961126  0.0790392151267812  0.9190856851935992
  0.9143578480189045  0.0782257750382450  0.8346038521822935
  0.5820096902373226  0.0791971635704360  0.6634740582877582
  0.5826688474119329  0.5870381585416846  0.1688809397655152
  0.4980455052719918  0.3227603000110654  0.8376894182908777
  0.5822217657936489  0.5015543238608410  0.2507129422499924
  0.5829862652909047  0.5011200197459437  0.0881435989367418
  0.4988877329629763  0.9987988656116975  0.3325937581176747
  0.3314077482512087  0.9989442713176288  0.1683092645158122
  0.4147446761186657  0.9163798153313997  0.4979169266577542
  0.4148551659286489  0.8346786739903993  0.4155500915513369
  0.4149875976068361  0.9167360001182350  0.3333707878889012
  0.2487637970118710  0.8343296731738713  0.4163841839295997
  0.2488204077538893  0.9157297905380913  0.4989696710956560
  0.6679483859330372  0.5940067750085215  0.9175312614377419
  0.2482636760890419  0.9983648360220960  0.4162131489890823
  0.6655609789252988  0.2469108034347832  0.4130387565862433
  0.2476265990663840  0.9189210843125305  0.8342462853298800
  0.6632769585842085  0.3270909847866668  0.0042513696228189
  0.5816315673866527  0.1638115540527861  0.2499496586629449
  0.7465847606048974  0.1626258255998997  0.9201338744649418
  0.4176375572542785  0.6706318488196382  0.5800969750918571
  0.6654304299607990  0.0811152556206072  0.4151967271756243
  0.4228621075414393  0.5061558756364424  0.7394860443874881
  0.5000165673822398  0.5868084273928755  0.4137464871028746
  0.5005568386664726  0.5028851991673685  0.4947258309236024
  0.4990495469620720  0.5861508486261774  0.2495839614553133
  0.6650484074802570  0.2445814624240719  0.5781294494601680
  0.4990196686005792  0.7532757461710228  0.5807530060614410
  0.5834815350147509  0.5035776768068854  0.5772100614072427
  0.5042132268566849  0.5032403684840423  0.6594895859690615
  0.5858298401599020  0.5105992884852945  0.7435582828177368
  0.6644032318196004  0.5044137336964757  0.6603348052087816
  0.5828555008169646  0.5904383676090412  0.6620729709455874
  0.5014573329644245  0.6752187696013295  0.8339781863252026
  0.4209030293491487  0.4999456302490561  0.0878599066065555
  0.5944528119539279  0.5125430677060070  0.9232806228637993
  0.4883698550209052  0.3956769198033678  0.9247125018566514
  0.6651850284445427  0.3288732080915557  0.1696887136138898
  0.5024827650903255  0.7563983511453278  0.9184083210453047
  0.9139311221600878  0.1612076690654531  0.9195678753219103
  0.8319462468556256  0.8351440581962910  0.1664832537316671
  0.8300766083228222  0.5881980066365593  0.5817300804661021
  0.8316309134082206  0.4193107139120447  0.9178236521052342
  0.8294813906303283  0.5033018045894720  0.5003706134617725
  0.9187112901962340  0.4199658185920254  0.8338745931906294
  0.5816883239306755  0.7548036163926560  0.6643542512516369
  0.8256406638870025  0.4165150250295521  0.0866567428240688
  0.6652030394406131  0.9161978469831239  0.7485320431315843
  0.6659744538024494  0.5035593629247576  0.1693661242593666
  0.9151447485017891  0.3308006864263783  0.5788882066504089
  0.9124400206994298  0.4138772786625665  0.3347331544576604
  0.9162090819352496  0.3326345067186868  0.9188063176528287
  0.9971413228596084  0.3295349881524217  0.3353112523111399
  0.7490240673436912  0.6710350194052013  0.0850787583067411
  0.7457966414449078  0.3297351089093538  0.5782018173262469
  0.9147849837609454  0.5053275277101908  0.9173772369446878
  0.8393386234597426  0.3345470551086389  0.8359381908633873
  0.9125916513557741  0.5011798888386956  0.4208101386700007
  0.9939201097013507  0.5024779236692754  0.1650945212181243
  0.7483730837981702  0.9171391665152110  0.0015639819946126
  0.4155700537946567  0.2428395041557219  0.0056091766018259
  0.3313684152229327  0.9165881866525175  0.4159703408550156
  0.4149053467847874  0.0803553558317670  0.4961658867229073
  0.4979382219722088  0.0803899617372778  0.5788924809279944
  0.4151683664820505  0.0788571436698561  0.6622411289909385
  0.3330247913407240  0.8357425046663794  0.6646147583250497
  0.4977187859585219  0.1630645230751219  0.4944031945184792
  0.3311432740479902  0.1605882755258414  0.6616040092213055
  0.2478970180430813  0.0004878497406294  0.9181646314888705
  0.4164687830987717  0.9972800102657952  0.9193006025162558
  0.3335808263573524  0.1571366136930827  0.8344536930031160
  0.7449287484261939  0.2410784631843302  0.8359973936164931
  0.3338092591675324  0.2445127292709441  0.0878421078890231
  0.9129376410696126  0.1636725139555243  0.0838340467475595
  0.3327482659246619  0.1596697746147351  0.0049204310473605
  0.9151872540664460  0.9964170036362591  0.7514888669138101
  0.8315314534302070  0.1641452651463463  0.1680994519598697
  0.9116157060346778  0.5006446949269031  0.2500789744978089
  0.9142640558988188  0.7540899878922334  0.3340485287931323
  0.9149843079102461  0.9167533014797150  0.6658004134728430
  0.9141051059670460  0.9174850124947764  0.1675169014910010
  0.8317721600285279  0.8344281402374970  0.6654105816018613
  0.8311751924560061  0.7528692862649999  0.0849162717860698
  0.7481373693626721  0.4158915292531011  0.3324340017602023
  0.9138365126735885  0.8357297601452028  0.2505722587938192
  0.9966782208243178  0.5081164277875972  0.8338134011269384
  0.6644401103848052  0.6717787931670681  0.4978991021170975
  0.9143971779039183  0.5901733561456092  0.8342084139396446
  0.9977096200138382  0.9181283251887166  0.2506797773740680
  0.8310065986614527  0.8351317622945560  0.0008655042586522
  0.9143160792631415  0.9161916054127486  0.4987105839152437
  0.7479226006517102  0.0819155274845437  0.3326745603104541
  0.9146009148132609  0.2459455156058426  0.8419444847547002
  0.9145843095577898  0.8355685251756226  0.4169465791258192
  0.9126605771657647  0.5882938352017356  0.9996419184791745
  0.7477439843632901  0.8347296000941127  0.4160325865565034
  0.9144315134850022  0.7534177647076677  0.8327528400122912
  0.9135660491696372  0.8352195589636112  0.9173875803217265
  0.9135480774169495  0.6717499780253742  0.9171485290693487
  0.8308518907489545  0.1638205531900614  0.0010919394801756
  0.8307776589721735  0.6712686968137300  0.0005369484858221
  0.8313125488342206  0.2467535408776561  0.0856896199508016
  0.9126641940721730  0.6707624945130253  0.0824855027968276
  0.9970346996121413  0.8346658857189797  0.8335756383162595
  0.9949813912648408  0.4196756068932235  0.9208957762422526
  0.6651975362682675  0.3321819751032744  0.3322823897680400
  0.9968056702896897  0.6727624816556185  0.3347504233162462
  0.8313274392183456  0.6723013309248115  0.8325390311833015
  0.9141128919406674  0.8356175335557303  0.0829495643230686
  0.7482041513358554  0.7538540185196395  0.1681405727564505
  0.7496682741339531  0.8355883029404807  0.9174259736965168
  0.9133754978341320  0.7536608874556181  0.9995350505316234
  0.8310928919573064  0.8347970180837637  0.4997085691288891
  0.8304356974738183  0.5870758303892067  0.2467426304768924
  0.6651605132518892  0.9166228353692342  0.2515407877108834
  0.0783409101308018  0.5062811008605633  0.7479665836696779
  0.7482062082863677  0.5889434037308845  0.0016275213631542
  0.5817233350340454  0.7531925619884466  0.3327436459736330
  0.7481149317849870  0.5869534654159054  0.1688923970387698
  0.7455395538204596  0.5057788361571022  0.9183040005791497
  0.5818314791215554  0.4163942023265392  0.3316462714151533
  0.4168940943388335  0.6707159598797240  0.2493454963067841
  0.4179549189765365  0.6819515368014363  0.9215805261605351
  0.5001636831312425  0.5007858293416269  0.1691360734233913
  0.3345612144112484  0.0774531024220257  0.9200015756100106
  0.4168764300945112  0.2405063632790734  0.8372770346781809
  0.4218271278405327  0.5895420705067137  0.6617664134287693
  0.3357352650604737  0.2397759978823479  0.9195908658371887
  0.5023305542255401  0.5039233941954322  0.0075584149516706
  0.3379474249777769  0.5005824774211005  0.1653343345896935
  0.3315226885976084  0.4146921089385216  0.4150694007129379
  0.5001761488344038  0.7553579847418243  0.0859904069622409
  0.4980507696295768  0.4165186568764537  0.2526124951268545
  0.3328977945735402  0.4138723395320197  0.5739415255662021
  0.4141035652836573  0.2473714770959220  0.3329470590543746
  0.1612386691867611  0.2441959800749062  0.7475340622593895
  0.2457897077122113  0.2435362015215496  0.6622706648014103
  0.4207179560886364  0.5043452646979218  0.5783315357118849
  0.2506162057409852  0.6710873217509521  0.4168216972293181
  0.1615273782269556  0.0788357953944400  0.9177937001292773
  0.1670551132684136  0.4987878571671408  0.4999447600105699
  0.3343807566065802  0.5010873225412680  0.4925397041033250
  0.1609281891059796  0.1600130658226473  0.8326785755735437
  0.0670521555140358  0.3309054645593722  0.9181071876555389
  0.2499065189886011  0.3272390610140394  0.0877367542123441
  0.1632806947301323  0.3276522797876805  0.0105195630951129
  0.1636696654070226  0.3275451907028356  0.1650121218959806
  0.1663220952169239  0.3304496963853543  0.3357447288864694
  0.2502484694079417  0.4123996633229068  0.1647510100714341
  0.2498512184124841  0.4145948487780213  0.3331861097798852
  0.2475246318163530  0.4152535630285211  0.6523662592734349
  0.5024165507434354  0.5920027763561693  0.7472233498453946
  0.3315760882041116  0.9168199205312993  0.5814150487205058
  0.4151318591115329  0.9995139862438317  0.7492425617279209
  0.7485513677160247  0.2474822056908532  0.1697362047629105
  0.5813403482028348  0.3308193797260487  0.0877878690039540
  0.5829253152434976  0.5025742460902242  0.4131757257957137
  0.5814060115157937  0.3314511010989302  0.2510535859356297
  0.5007395241190954  0.4152514806900975  0.0874032957481101