 C Cr Ni 
 1.0000000000000000
    21.1200000000000010    0.0000000000000000    0.0000000000000000
     0.0000000000000000   21.1200000000000010    0.0000000000000000
     0.0000000000000000    0.0000000000000000   21.1200000000000010
 C   Cr  Ni 
  35 259 605
Direct
  0.2482283737940514  0.4991426823577519  0.1665950777355172
  0.9951195504510647  0.4959142319231420  0.2524934805592250
  0.2448381990481378  0.3302322513259505  0.3399376250312342
  0.7543969230756139  0.3281857590063809  0.8398739661171662
  0.3361350766953301  0.5064339148972008  0.9075444825701623
  0.8306282723037921  0.2517084101364017  0.4974011273152326
  0.8307809315059805  0.4125627017455973  0.6623740286050441
  0.9159883779799983  0.1642336866936674  0.8340512460856219
  0.3295907920649663  0.3312605347964347  0.2507168511534342
  0.1612598452106561  0.7480831848815351  0.3317183528970379
  0.1649726210310635  0.5007324662661414  0.2561255476893561
  0.5792841816381773  0.4178160151951584  0.5759689188604377
  0.8394789185531321  0.8289583785448940  0.4176188095337928
  0.6642563965985266  0.0816024405101201  0.3322658912286025
  0.3385792494646495  0.3244771411196996  0.9154481556211324
  0.6555118688909607  0.8299612998087116  0.4186093608215994
  0.3382588077087262  0.5028577810503968  0.0858570797621016
  0.7487823441755186  0.9197131422246332  0.4188813624985709
  0.2502970882183648  0.8374158070330970  0.3282444397256330
  0.6644923674458428  0.4220526752708609  0.8381995310208429
  0.8319726117100200  0.0780616074106406  0.5002376086215469
  0.5917521984455923  0.3344919654922222  0.1668696383421547
  0.9203572686482815  0.5061324538414064  0.6586854159854648
  0.2494523819084266  0.7544972501546721  0.7501045489871629
  0.3365958644170881  0.8358986329964722  0.4206228403747514
  0.2462808815398967  0.4169955310000263  0.9160106392669729
  0.2494098280843305  0.6725038006621979  0.9999659702087588
  0.8276784472980818  0.5071838548783443  0.7519719165527428
  0.4140297533395559  0.3345773782406710  0.1618661304684077
  0.6641809272753306  0.3278182173618965  0.7467437923860235
  0.8318054838149824  0.2488686777395537  0.1654299805963521
  0.9103505326323157  0.5876364622662611  0.2507221350285901
  0.9200302495860379  0.5043616116054156  0.8421030556538880
  0.5740910314007389  0.4210673997418966  0.7487195924645894
  0.1563399565015402  0.3258465584983542  0.9161525849567907
  0.4139081887968095  0.1631971523491551  0.7494311774376512
  0.8377997450777601  0.9179336104189956  0.4156823771893465
  0.3323646897137148  0.1627646889090270  0.8317571944858055
  0.9987840061062425  0.9157167124864058  0.5851499800049611
  0.2455377864117959  0.5054340965499772  0.9166262638884576
  0.7474291568311813  0.8301433862649458  0.4179769807157104
  0.8326024028509430  0.9978629766736568  0.6671490101288784
  0.6642126624570461  0.7506213687735591  0.5860038027563318
  0.3405074182823087  0.7546049195058575  0.7506462960001193
  0.6634352712168077  0.2378196006704232  0.7499751564702566
  0.8296513240466100  0.5028024657139385  0.6632638998883595
  0.5813499439961546  0.3343069766288592  0.2563652439725878
  0.4175869349201946  0.7493102122707486  0.3320867189886000
  0.7493631722606391  0.1627407132013881  0.7492095901974750
  0.2530685985314354  0.5027757300687152  0.2553683648177867
  0.5832021719515154  0.2422761067243764  0.1653103320222981
  0.3298264449771988  0.5026212794973716  0.6634183347953968
  0.1607406967574469  0.8379072796273143  0.3314068766224262
  0.1632499930713663  0.5927022511221484  0.2491105290876652
  0.1666306014951207  0.7495979914755749  0.4226888435976657
  0.7481428564807132  0.8342611226369629  0.7502023270617399
  0.2470736593120808  0.1628482850150080  0.7479199872095096
  0.6695021057744102  0.4178606829175199  0.5793858430963319
  0.5821221599561869  0.9989535865247368  0.0811000147042683
  0.5838872255382488  0.1637880771874513  0.0828661343610207
  0.9224895204230722  0.2468375757844861  0.4987594612073902
  0.1599082276101530  0.5017493848064202  0.1652576629831847
  0.0814468210867674  0.0819038280882038  0.3308937712307742
  0.5804876949572361  0.8335040107557139  0.2489453158020351
  0.9996915153742644  0.4064992049946430  0.2518597225495982
  0.1652985314240655  0.9997629440025709  0.8334493706707737
  0.5804187010139547  0.9990511172763120  0.2477382401674680
  0.6623969139087869  0.0822733815408656  0.4235106658919630
  0.3321546848936319  0.5002300731407511  0.8204997035736712
  0.2467748198740524  0.3275799303384599  0.9162907445617891
  0.1576015671973227  0.4173860116382357  0.9166330292053750
  0.4147050095941461  0.9976685785785625  0.7512609066764304
  0.9166564452086566  0.1652584573468235  0.2496159436065455
  0.1656459106064724  0.3320944745896449  0.8246829190877717
  0.1640338662445514  0.2469480915553896  0.7464851619272227
  0.2480961248847097  0.2456448882318240  0.6663940453591010
  0.2479830710133419  0.9191052046070282  0.8373591618669715
  0.2487471794562254  0.0814107692846515  0.6674117486527046
  0.4190199312474364  0.6719061587764490  0.0847100049690469
  0.3339045457152883  0.9173179693413260  0.0829907256829458
  0.2504310373637524  0.8443772773158563  0.7504985860728323
  0.3322823877066163  0.9198220659114034  0.5846656206468496
  0.4172983435793245  0.7508799646170110  0.1644592645287991
  0.6638786567451819  0.1709623225023197  0.3348168959700306
  0.1648172940556092  0.9187291891681701  0.9174014993597036
  0.3345235802919275  0.9266815620970903  0.4172303326425695
  0.4962340633081522  0.9203577701155268  0.4171403753566074
  0.8333145841945421  0.1588130174834821  0.1666772960868332
  0.9994242770632715  0.3321329212159677  0.5004880691022378
  0.1653219878392433  0.3307831858129253  0.5032755350376459
  0.7467244417462857  0.5868210566631470  0.4995949926789452
  0.7547774456402853  0.4191110724883688  0.8385170222994467
  0.4169241606853453  0.0016774221355633  0.4169431613558355
  0.3375736244238164  0.5048781892041079  0.1736505380239021
  0.9078415123998681  0.4980758743371086  0.2502686671654549
  0.5826195516198911  0.0810613093771100  0.9996354066096163
  0.6634305057893803  0.9982159819828922  0.8329794062195366
  0.2490000708013866  0.4996825729889390  0.5846220349490721
  0.2497125649698829  0.7518816648551656  0.1643736632788924
  0.8322531104999669  0.7408609232312143  0.4162608189506945
  0.5751045125908899  0.4173003816590712  0.8375858182098853
  0.9129194990927068  0.8339231432162211  0.0815671777732762
  0.2408968402551775  0.3296025613940241  0.2490667557293559
  0.1652083325992316  0.4170505870386041  0.7477013964249269
  0.2459413197188930  0.8349962047553046  0.4199552372518993
  0.2485375885950031  0.6644385799140421  0.7493733965365763
  0.3392389334234520  0.8345758940803867  0.3303224200911510
  0.3347009880615759  0.3309087610014408  0.3393781119806257
  0.3371069829720075  0.5942826380518272  0.9163121243048301
  0.3267428104589631  0.3276270022884555  0.1614414417499552
  0.5829482947672706  0.5879162572373624  0.0014098194014073
  0.7461430303067328  0.5036238733906881  0.4175510588037927
  0.8308202305407111  0.4183176364555024  0.5754735506969280
  0.3317855327974272  0.3306975796929988  0.8250857541866540
  0.4194480442488066  0.3313585690197269  0.2519725986852989
  0.4999409367781435  0.5853566723807944  0.2516462231610659
  0.5810269743919719  0.5885493009711149  0.8337582442819008
  0.4135543368475136  0.1641076164943424  0.5814140997738357
  0.7463188809180232  0.6675910388175806  0.5830941295033578
  0.4152955814370823  0.3302337355073362  0.7485359984254196
  0.3343251134907402  0.5872166235348656  0.2514890896520609
  0.6785950731779320  0.3351963715222603  0.1659611758624197
  0.4130242120884307  0.4165452582372344  0.5002194109821649
  0.4892672397217834  0.4155314759568444  0.5803866462919993
  0.9141054734875871  0.5839890355894940  0.1584533784074047
  0.4155417189133195  0.5020678102885987  0.4183855049079770
  0.6634345105005343  0.4178844018755184  0.7477765184446290
  0.2499696373142684  0.5016262331120012  0.4193246309763310
  0.3315096481649020  0.5841457391102662  0.5840899199805466
  0.6641524051218167  0.3304716759402047  0.8376471452188670
  0.2488296332129510  0.6706277074832687  0.4191375154730678
  0.2470229685070315  0.5015764466020977  0.0766860320709249
  0.6636640119149066  0.5123226032187724  0.8368976410503317
  0.4254324519738534  0.5037399285132175  0.9152219619344136
  0.4973044537129563  0.5857007882788976  0.5816698510269376
  0.6645449662599693  0.5853183809480051  0.0823429958995602
  0.4856847889905881  0.4156094113728952  0.7460480870916988
  0.6653603923134072  0.5037245991210545  0.1665896631547150
  0.2490946167748997  0.4156834857458889  0.8247622359824713
  0.8332912968049402  0.2497982327198200  0.4080136417234950
  0.4127813637850715  0.2457182934310865  0.5000698911727041
  0.6594096226889271  0.9194427796709858  0.4173551247668568
  0.8275915037499431  0.3382414710363363  0.1682605185824375
  0.1569922147156980  0.3309311275800611  0.3368019138979041
  0.3316329257325822  0.0007394633456933  0.1635874064431133
  0.6644356750625298  0.7525803181936948  0.9159173957597051
  0.8320404852677128  0.7542292122672828  0.0831739727074540
  0.7473490059551997  0.3342441089562625  0.2518221700981152
  0.3330433601290482  0.9994977830960183  0.0024433213876756
  0.1633608175549552  0.5858519108132962  0.7497678290334873
  0.3346231401000423  0.8368967630142254  0.0005718560441668
  0.4156565416808811  0.0010585367722539  0.2481178914461000
  0.8305412254974508  0.9970578887308768  0.8335594535725077
  0.7484314007263706  0.6686206014230455  0.2482871017278562
  0.0797140910454040  0.1636818835428599  0.2504967300522944
  0.0694381544310588  0.3323960458607523  0.9175103270836310
  0.0809713803832239  0.0814926458390541  0.4990685194398912
  0.9194790217731280  0.1643995784326469  0.5838282261843750
  0.1643375238682376  0.1624145890050138  0.5015837442961625
  0.9162051742940698  0.1629946611112646  0.9242124143735287
  0.5006074231341183  0.6700178928092284  0.8327139428369066
  0.5820089809602561  0.1655817068290104  0.7494095872370125
  0.6649950797036787  0.7522045074182490  0.0835792796695654
  0.1632689252412116  0.2369828435569913  0.9162839293835758
  0.2512895044315093  0.7458837853877348  0.3336720397927759
  0.4156721012867415  0.2442255935516197  0.3333578777136810
  0.9191408135596892  0.5041151541998348  0.7501909336391820
  0.9171851777667597  0.4135369937088492  0.8320204013824560
  0.4264761687063508  0.5040799961573379  0.0825885510258959
  0.9176554481581520  0.6697175825980098  0.7514342616569127
  0.4159530076110578  0.7524270774749628  0.8343335599019099
  0.9171134531799590  0.6688225357646460  0.5821174265213613
  0.3359449985628616  0.5030193994193694  0.9980870629061899
  0.0827954736494199  0.5017059945387851  0.9186028539167407
  0.6650858521638274  0.5017872395827123  0.3353641572082818
  0.5004792469446162  0.9169722151039953  0.0826492032252000
  0.9972914119498155  0.9980770950134287  0.0018570883180855
  0.1643187771486087  0.7523953572412414  0.5823075419094865
  0.7495399038619078  0.4184442293884187  0.0024844175473761
  0.4991995875787971  0.2469651652334499  0.2507720749654502
  0.0814363760219183  0.8350374203697866  0.9181907948915980
  0.9160878853552095  0.5012800619181973  0.4213742177569700
  0.5817794562982183  0.4172497310724251  0.0019247476075185
  0.8315586624696324  0.6688469612234664  0.3328026457332332
  0.5794127722023404  0.2447066760569288  0.6653619818115812
  0.5022386194066262  0.3330326855291745  0.1662001577984510
  0.1651823017971412  0.5031188682150783  0.3449290609734227
  0.5806215972730832  0.3258366767458170  0.5804849440958386
  0.4984468100730760  0.6674053403712844  0.5017217573929015
  0.5814443879884885  0.2499371247751335  0.5007456307936353
  0.8318280596743065  0.7529596748418003  0.9161801050893645
  0.0000710556606479  0.5869623886839657  0.2493418988152906
  0.9129490271665149  0.6758529661772206  0.2492250050622472
  0.7486134648334778  0.0812887847504763  0.9986725164669888
  0.7498843500663761  0.2462699426720612  0.9996842662032540
  0.5823768923185557  0.6673277030654083  0.2500271263321445
  0.8295389426173935  0.5056901536101754  0.8404364094111176
  0.0840590814594240  0.4155627801002371  0.6656242007501861
  0.0019309713039596  0.5004998938541767  0.5009433547815763
  0.7486822345809023  0.9164885224662457  0.1648958659691186
  0.5827255565714128  0.9180359150543589  0.8331929618716173
  0.3355683596550821  0.4157582595838161  0.9166133053570519
  0.7492291854386012  0.1619764968701332  0.9204030016568302
  0.5745248145207357  0.3273660476795960  0.7468641501639371
  0.8315587651290146  0.8334533377000179  0.3264256400773534
  0.7540940273005282  0.0825911267131303  0.3317201308288297
  0.0837012830215262  0.8351061078812517  0.7511083672618333
  0.9132451678356932  0.5893035531462447  0.0033561803738987
  0.2458863060473176  0.4154281058817102  0.0074809128665421
  0.8332821001051087  0.2461930192052440  0.5867635020230137
  0.3324451177160417  0.2439166015619480  0.0844193383689979
  0.0025217526546656  0.2472151560428517  0.7471753888594878
  0.8341524737976629  0.0814282776319675  0.4104267420951288
  0.7423141387523651  0.0827451674030316  0.5021357631595457
  0.0815280417396791  0.0802129959228278  0.6672818411487703
  0.9176707183000735  0.2486114472478019  0.0014696060751259
  0.4992525718688634  0.6694457285430928  0.6660798398095608
  0.1639228461239370  0.0792291947575282  0.9161097215266035
  0.0002882923098846  0.1644831777943663  0.4999112334664640
  0.9225105072700553  0.0828219137408231  0.5007178257090792
  0.9169843769847984  0.1638900264154140  0.7445436766216952
  0.0836157194527030  0.1625483489758062  0.7483912379424940
  0.6647227215812583  0.1644407401337316  0.1636691741752487
  0.9968634429441338  0.5015191337055445  0.1609131811892122
  0.5007332796650275  0.4173939613936956  0.2540364279410740
  0.1589367895528666  0.6707744918118029  0.9999769219858489
  0.0832398745888434  0.5849743518294835  0.5011742347933421
  0.1638854097637789  0.6591186235481542  0.3346361498196429
  0.1638997558067869  0.9189751951137135  0.5841434382956883
  0.5810304827982833  0.9169061168272591  0.9996215562030503
  0.8306971574541251  0.2496742370056195  0.2555244177197794
  0.8316378773190370  0.9176541759594516  0.9149443721183338
  0.1610006672143094  0.5017855470112622  0.0000775615330211
  0.0829369605533022  0.5884332876574568  0.8337716239858677
  0.6631161428377679  0.7420462122386342  0.4160181844035887
  0.9989105761321203  0.1634364501107392  0.0009884618895049
  0.9153023960459266  0.9985824210578345  0.2479562054921516
  0.0833818059652010  0.2473815423048261  0.6676766890972122
  0.5801836010062326  0.4162950375862096  0.4875857362914757
  0.0857770038072335  0.5867019992276791  0.6666631414088903
  0.0003102724172652  0.9178906550544662  0.4155759632927323
  0.9990439444908458  0.1627583082542526  0.3315101214383931
  0.7481908867500201  0.9157662363230724  0.5096185062967299
  0.9187391604313814  0.8340865498282158  0.5842009258030405
  0.5818674839720218  0.9993579829270189  0.7500792574620148
  0.9161690778090121  0.8336135736997188  0.7506488919377037
  0.5794594232126202  0.5869672281751579  0.5002914714840339
  0.5804513548983757  0.3304261795732836  0.4183807406655747
  0.5805845118279735  0.9165978731277211  0.6692328594786431
  0.7456071008295679  0.6711879532640274  0.7514487968975896
  0.9162944790556679  0.5963343813111442  0.6655487561970388
  0.0725834337114504  0.7514611627934089  0.3322367260328793
  0.4169091873975551  0.2414486375543685  0.1651744187363649
  0.4151416383987395  0.8353441528891781  0.7506694730748686
  0.1589143803763306  0.7524482930247225  0.7505961347915769
  0.9157099027058112  0.9968442192475270  0.0827656795392982
  0.7488600994823984  0.9159056529639991  0.3277428109716749
  0.5842634861383339  0.3313765980609483  0.0761476125451202
  0.7490702635811322  0.9147084552959847  0.6681656755980850
  0.1639472497227212  0.9162804649774262  0.0834599457084786
  0.0004706862276346  0.5009075814320952  0.0016917717373469
  0.4150247876122564  0.0810693502026146  0.5012076585614567
  0.9206430613249701  0.4154144879036621  0.6656205923626647
  0.4181037142743618  0.3293881095476180  0.0742247068532013
  0.4976181550041953  0.0823856981962434  0.4191328117641536
  0.3336460337960057  0.7502740744039846  0.5839712925682149
  0.2500235282579067  0.7549392208857729  0.8402976329036491
  0.5735721681915091  0.0818673529463403  0.3332619643188658
  0.6631921828206023  0.8354247831018015  0.3266906323959187
  0.8211891028463295  0.5867182863045742  0.2516503299759043
  0.2474494457272604  0.0005781373799650  0.4176281877317226
  0.8310723258695638  0.3395351859617388  0.4966010818867894
  0.8323846823649996  0.3235758329324315  0.6651576895568997
  0.0801318461587938  0.7530798956700548  0.1641568492022304
  0.8313250798846391  0.5852045467958797  0.0826596940648691
  0.1629997352624708  0.0810998743477209  0.0849223845526024
  0.2469138382232359  0.1628747188879908  0.4181161189878125
  0.5818890697995504  0.9981150670912646  0.5857828991252572
  0.0819839678675255  0.8360349188410746  0.2472800223732451
  0.3322293271750431  0.0799483866156760  0.0844041685562047
  0.9217106808595780  0.2477286136231243  0.1672065570348505
  0.4976100523531515  0.1656885056630558  0.3346722586259795
  0.9993658304790645  0.9973499802074528  0.8335161988215297
  0.9183623077941558  0.5025170459749638  0.5692553731286817
  0.8423453440227960  0.3311233912921155  0.8343446748073805
  0.9149341808033331  0.5875313378974021  0.4998613083046403
  0.8312410749212635  0.0782659503448935  0.7500354422120369
  0.3323650922342209  0.2365999440127230  0.9160601465813552
  0.1618018444703249  0.2459757780433426  0.0855599394392235
  0.9975517753414339  0.3331835370254432  0.1676761907936366
  0.2493465504319676  0.0801805018453867  0.8334054360457749
  0.8331651140620145  0.4156266837206025  0.7551747422477630
  0.3336120412412424  0.9183360341632268  0.7512161065787418
  0.0808900423806093  0.1637057168424341  0.9179963491002586
  0.5825969701423973  0.8344051057532370  0.9164626090332816
  0.4987785447202494  0.8347325135648902  0.8335043313083336
  0.5011385658535371  0.6685249212666009  0.1670196661204802
  0.4145919701325465  0.5852678829413772  0.5011825671723195
  0.4153537951561184  0.8344432719259236  0.5847272206397855
  0.5800150862296465  0.7496684734685194  0.3312557782192362
  0.6654539413778947  0.4185791729634576  0.2523950374971427
  0.7488892323474462  0.0816151401189393  0.1653396904238540
  0.4996443823867808  0.9993735894691773  0.8330425179446194
  0.6652952152574757  0.3291932276220066  0.6598184650225084
  0.7481400408378707  0.4187088178610603  0.3344251634416083
  0.4992624061708604  0.0000892201680699  0.9990151411669955
  0.6652020945448776  0.3327079855267110  0.4979675514451127
  0.6651191106096936  0.9982230980533348  0.9994908491287793
  0.8308143251518544  0.5022978614888214  0.0018016591680979
  0.4990861922452319  0.7503090998261516  0.2486020447666799
  0.4160193028579983  0.6670251494236690  0.4179135839104781
  0.5806249707024166  0.1667436707653451  0.4182567794972488
  0.5801858979680977  0.0817074906729210  0.5015855808271805
  0.3322146923858677  0.6682186344223197  0.5016644873139990
  0.5827818174405692  0.7509380140226947  0.1664470913014341
  0.3311321480189184  0.0826077667720750  0.5842574655802042
  0.2495704664248941  0.0002223726212089  0.9197145850804599
  0.4160251385903492  0.0002678061447392  0.9172185247956590
  0.3311861368107716  0.0008194364140790  0.5020123387370999
  0.4157725456285290  0.0813140994039212  0.8327081614452202
  0.4148645005776579  0.0003742424126523  0.5840890052868346
  0.3311438708640885  0.1620211320115656  0.0013013395715912
  0.4981445151674478  0.0827335485953473  0.5845114172338188
  0.2467188500382570  0.1630563443176779  0.0835786008258801
  0.3323377603092530  0.9997399081751001  0.6666925590930348
  0.4998682342880852  0.1631107998117428  0.9996762827281206
  0.3325578125213027  0.0805224024620651  0.7490919963246893
  0.4157019448363208  0.6682414970869247  0.5841530157383275
  0.4164317515538056  0.5037665374967359  0.7469155218820822
  0.6639515716953815  0.2494663787848600  0.4166249234550777
  0.5804501632363211  0.2464094686481012  0.8334276912758639
  0.5010946209974786  0.3303847299535347  0.9996286973582896
  0.7444850308030158  0.2462687419875215  0.1660790859200892
  0.5833611316158774  0.4225243510463967  0.1676554321715363
  0.4990747743967108  0.5014695805034257  0.3356951470002383
  0.5805778289960354  0.2488182357391497  0.3340723087503724
  0.5007063582567294  0.4167585519565974  0.0820823613092390
  0.4970829046271409  0.3320831458961243  0.3363066894858858
  0.4956887408578217  0.3304161906472475  0.4991281221415795
  0.4127392170082475  0.3297901164867205  0.5813656663882860
  0.4958998321287051  0.2469067422505011  0.5819832897820775
  0.6658305288876377  0.3324252543900569  0.9997842566172572
  0.4944167331699473  0.3292686902365642  0.6630412013782458
  0.5824859822340374  0.1652570132141212  0.2501173113811287
  0.5806565706333606  0.1655594114882709  0.5821608884376709
  0.6648861295309948  0.0808506606320959  0.9172602496191855
  0.6645339503417186  0.9993262561218486  0.6679823942588536
  0.5828895351263866  0.6702977824234517  0.9176007068359970
  0.2481696644560122  0.8360688637927337  0.5837682732319610
  0.4153911802478597  0.1631601303843749  0.2494795566899928
  0.4173399337786778  0.9181862864116225  0.0006486592426493
  0.2467802595163538  0.2439314043366227  0.0010969641373877
  0.1614701893843032  0.4154379786801644  0.0836996602938642
  0.5001575394589857  0.2455254500483277  0.9168861888187099
  0.4186196259482642  0.4179457317387540  0.0005128437917978
  0.3341800516499129  0.4121726994910956  0.0828990779461687
  0.1657190198989608  0.5838562202285513  0.5833368445749400
  0.3332634424784903  0.6695781684523135  0.8323400409561663
  0.3319331039758040  0.1625048494733239  0.3345094612686960
  0.4159523848984376  0.2439738605461212  0.9995623550694153
  0.5782591179707822  0.4161726266541994  0.6625687553506648
  0.4945521702111891  0.4160853109935256  0.4169668169909957
  0.4964142997420912  0.2455880507312420  0.7487872629938880
  0.4970973240823039  0.1639936040821504  0.6660127118910947
  0.4981858555414847  0.1637288045406108  0.8321553778156253
  0.5815857335514476  0.1631716924261755  0.9167386306313158
  0.5002382926845138  0.7524808490827607  0.9159610873706895
  0.4983144289865727  0.5850511514901078  0.4178112663047867
  0.4966264440826166  0.5022417595342792  0.6637288416506842
  0.5812036789426696  0.6693751990474918  0.7498608238992609
  0.9141219374727427  0.4166507032064092  0.3353114418747323
  0.6650751900668705  0.9160140603804735  0.7494476374766903
  0.9976720424551849  0.5002795713952518  0.3407332798369107
  0.9174601943699044  0.3318150065643287  0.5819088291976877
  0.7484082013825697  0.3319084679965316  0.5812145372982526
  0.9191211314025541  0.3330621492707936  0.9187572671229056
  0.7525715741084857  0.3288284429720785  0.7490642839774906
  0.7478155416773480  0.6698515208874743  0.0827592276037037
  0.8348734603943658  0.4172954066099107  0.9198246885892380
  0.9156840244319374  0.5017754327073970  0.9279700505541258
  0.0006388276592283  0.4164968666881461  0.7479932449109871
  0.0801887787094919  0.4997448588432658  0.2520942850464730
  0.9142608001905953  0.4993681330640774  0.0813716591653938
  0.8314668278522769  0.4193864371190413  0.4169238506225624
  0.7471775463641062  0.5014684892226462  0.2511812316456902
  0.8293654596087321  0.5028397805675245  0.4988866267092517
  0.8309413221159625  0.5866070580072270  0.5822539768702221
  0.4986886861885069  0.7504249375831247  0.5848618456804819
  0.1648829638308771  0.8358070552024660  0.5014960943319572
  0.4163897476678665  0.0825392312997727  0.3335531914656781
  0.3305584600811853  0.2461176719595561  0.5827399181506588
  0.3334464637416585  0.0019069119686359  0.3319171421822119
  0.3324663585772796  0.0815126126147193  0.2489414315009329
  0.2486284096426251  0.9177767583165886  0.0014524997880254
  0.1644705425992555  0.8344836368811059  0.1650149854517362
  0.1646603861035558  0.9180528791358238  0.2477817829357943
  0.2497925010158297  0.8352750428896963  0.2414677957069303
  0.2486743913798570  0.9185293685116418  0.1638739012705099
  0.1639069772650237  0.7498749535013782  0.2437355971290114
  0.5807891381255823  0.5031614584949987  0.4164632224188021
  0.1649628963610872  0.9185156076919404  0.4165965411138158
  0.5821198329116360  0.5852161213429198  0.3326688026617925
  0.1644676558409211  0.0000253108057491  0.3327246826792461
  0.4965190091092512  0.5011513118702521  0.4987720069888474
  0.5806233170382677  0.5057690516187282  0.5818989094721265
  0.8295039002135437  0.4175052421431402  0.2515970803143195
  0.8317579872167997  0.2478939373339050  0.0782482643870356
  0.8316499055988609  0.3349977451041762  0.3342803315157012
  0.0005583181278605  0.7496303396223608  0.4181045332708274
  0.0064754991473596  0.5028130025538577  0.8324601640723973
  0.9186477796677567  0.9149124305431897  0.5013236682802691
  0.9168439205761257  0.5921850871271964  0.8359303034901929
  0.9196819201140108  0.2515554546543761  0.8337114733658900
  0.8306125397696010  0.8344937725429684  0.9992560819608332
  0.8316622322465905  0.5884716313176311  0.9200572240462257
  0.8323142821689168  0.9168170093608485  0.2467359418528858
  0.8321593491284595  0.9165836000422544  0.0828074863227375
  0.9251421420910857  0.8330417204969879  0.4170629129291248
  0.8312847735669596  0.8344943215766202  0.1654540086993602
  0.9154989151103460  0.7527104085663483  0.8336939261385744
  0.9154313152173564  0.8337898302697352  0.2486510869896914
  0.6640255061778915  0.8332720567446527  0.5066226352895401
  0.6627904077963183  0.6681755795732826  0.5014336833551372
  0.8327546984996329  0.8320784435498375  0.6681352354440772
  0.9161864568042071  0.9147705984453521  0.6687429611940741
  0.9153337264016294  0.0791025548791444  0.0003894622336369
  0.9975487750641872  0.6676773159588436  0.3336218660301838
  0.9988917471089661  0.8338264572256847  0.8334225767937999
  0.9138931470462706  0.7529996291457816  0.1648726511451423
  0.6645993174699165  0.3331694861921854  0.3349359705767956
  0.9138246199432657  0.8346073521879637  0.9165616588931502
  0.8317549633685588  0.6714556627351866  0.8346582275163920
  0.8322472523412404  0.8323324098053779  0.5058359956899977
  0.7472832153462819  0.7516487443975826  0.1652397129737727
  0.9144661877470669  0.6704766683287646  0.9186525734760532
  0.9137821126630885  0.7532777573497689  0.9995159036291175
  0.8306817202307154  0.6716162160787135  0.0013984976351672
  0.8299301269879075  0.5021055789802340  0.3367093248631387
  0.9140838430924216  0.6709215428307806  0.0826848303784992
  0.8316513358280039  0.8334847887968030  0.8330279252617521
  0.9166510067343935  0.4152762251294096  0.0024851441088125
  0.9170286470362065  0.7515261939996786  0.3330202664853815
  0.5808938053346107  0.5086502791800578  0.7485323654757987
  0.3301134141360603  0.3286771563740283  0.0038177404418683
  0.0824449042988386  0.6672246787090231  0.4191426562486988
  0.0006864107730059  0.6681880604892174  0.5014705701029734
  0.9987866386835964  0.7512850733392263  0.5842245496258812
  0.0816232010927876  0.8348248877014437  0.4165933446491542
  0.9999535942943049  0.7525573008001166  0.7504959211498079
  0.0807965241442674  0.9172446994991277  0.0002158635402871
  0.3339916185514549  0.7529668160000230  0.0833354461806457
  0.1640242352077330  0.0809772500866307  0.5837165321979038
  0.2474302441924787  0.9996916977019282  0.5838376469687887
  0.2472997272475610  0.0814968478636501  0.5000926739539047
  0.1650367918176973  0.9987601217945401  0.6674446040400082
  0.1654496228123306  0.0804751115384738  0.7495604207570166
  0.2492620192473466  0.9986975465168827  0.7500269254828524
  0.2474007751122033  0.1634430975269212  0.5842999222396490
  0.1636161061306589  0.1629816725494420  0.0022763162256690
  0.4155448518937290  0.1629074406444841  0.0819732011799571
  0.1635825121318982  0.1630125577963135  0.1666348422832293
  0.2475514202905780  0.1624555252038098  0.2496610840256069
  0.2458371842583265  0.2443618643191731  0.1660403120573465
  0.1636358765824998  0.2456842621988737  0.4189651652610208
  0.2472174125459098  0.3306011666562442  0.4259205558831693
  0.3311716282882664  0.2457796460438927  0.4184633665863808
  0.1639956909421527  0.1625999395138539  0.3329773599406049
  0.0823123887432873  0.2477863118033648  0.5006189575880288
  0.1648197620746555  0.2470142508651728  0.5840157385461993
  0.2469250598639961  0.2457790863025850  0.5013482449043835
  0.1642657511683203  0.9997250566521748  0.5004288535400973
  0.1649565267960536  0.1619010730549416  0.6644125634823654
  0.2480405553575387  0.0810081297031164  0.3334563622108552
  0.3315125504825662  0.0810597268237991  0.4170745938210962
  0.9165700106521277  0.9165258143602897  0.3306334834935741
  0.0811946550634367  0.9185222317168810  0.3321597125908398
  0.8323972768751304  0.7501785247603882  0.5852123547298044
  0.9166831254862178  0.7506902984936197  0.5014726033485114
  0.8323523535976809  0.7509083682561710  0.7501257581226489
  0.0019049707118494  0.6700257651498214  0.6668828323798773
  0.6639251045785346  0.7512123660498415  0.2487931576041104
  0.3368990114217979  0.6716317951327233  0.9999599014703503
  0.3316199456611040  0.1634898744174155  0.6669232180899015
  0.4149593436160022  0.0816433133769638  0.6671849773045327
  0.3326548405542400  0.4212405695905723  0.2520804930713529
  0.4193668968865656  0.5867965342065153  0.1680197613910557
  0.3323098319049978  0.5847452283239541  0.4185348033732951