 C Cr Ni 
 1.0000000000000000
    21.1200000000000010    0.0000000000000000    0.0000000000000000
     0.0000000000000000   21.1200000000000010    0.0000000000000000
     0.0000000000000000    0.0000000000000000   21.1200000000000010
 C   Cr  Ni 
  35 259 605
Direct
  0.5836793884614758  0.5839933560412283  0.5840337037740112
  0.6669818248761649  0.0810577770572755  0.6684971894118403
  0.7444661210626712  0.9112336016535366  0.0826757575318793
  0.6655357660865486  0.4187576792412224  0.8340141282934130
  0.1651604353876117  0.7458525576817631  0.6585905471939447
  0.8316001484892301  0.3359866199188080  0.4196576879416934
  0.4155248025077398  0.9170384192102107  0.5837931604127092
  0.3409241566045035  0.8337147047795499  0.7502679279894394
  0.0792407046480892  0.6640979052088901  0.8336817553974183
  0.1629634218181422  0.4164887646160812  0.9972196096868672
  0.2505900702975368  0.3330470660465245  0.6670770646095151
  0.3345080674006187  0.5825288526285236  0.3313231437236970
  0.2534335489921874  0.4164328335869595  0.0869761830569933
  0.1584696415321556  0.8383062460153924  0.7486368969156602
  0.5820922425982249  0.3339300823790643  0.3325655690988467
  0.1635135908226124  0.0008885620500944  0.9205354758617244
  0.0795956982626043  0.6686580892763401  0.4990162747349670
  0.8324730507935330  0.1599083271810003  0.4181674908111889
  0.4172574231528624  0.8353989635989859  0.3301742713356488
  0.9987001648887444  0.0821736029419698  0.5000966567784046
  0.9978201681203555  0.5012330638940266  0.7489589716421657
  0.8329849462720226  0.8326586073763036  0.9174347197886051
  0.9988341443882374  0.5014980809414238  0.4176453430306312
  0.8342517867005249  0.0017788007362951  0.0851126593517199
  0.4155664899730672  0.4185845752008135  0.4190374023009460
  0.3303370786139012  0.2498567732730499  0.1641763604980256
  0.5785082923253357  0.3359439246984658  0.6654672965458432
  0.7500472307532610  0.9984133998776336  0.3342591282900251
  0.7485411166392468  0.3338683957708976  0.1639331086312739
  0.0813775392098582  0.6675627900104706  0.1645633042800086
  0.1664338124622373  0.7480262756881820  0.8421630558559183
  0.8353452299743792  0.3304778232238949  0.7482872982469907
  0.1668660434550043  0.1632477311129638  0.4164367594098472
  0.8308538657793649  0.2516071977036691  0.0017563507287647
  0.1651986367863120  0.9996826517717312  0.5824460226453594
  0.6679934658712806  0.3333006798603350  0.6673117378661991
  0.2483983473123461  0.7516016020064126  0.3318463908537136
  0.8323506726196991  0.1654168633343556  0.6662241063148583
  0.5799484461985545  0.3315748767676805  0.7555727178647245
  0.0825198272011063  0.7531740055706134  0.3331908781242372
  0.4997139664126983  0.1657932057420704  0.9989263540206412
  0.0754194736234001  0.7525068630243603  0.6647578161298027
  0.9139111482775202  0.5026630018356530  0.9173839857191080
  0.7438100733725911  0.0025218025331629  0.0842733025972565
  0.2504691540286136  0.1648129791262302  0.7509226070582112
  0.6642833066792576  0.0848601854466502  0.0836425970515030
  0.5793804340651755  0.2489269404334694  0.9981150021258487
  0.5825552590661696  0.9154664825508014  0.8332191664885178
  0.8322501291900046  0.2463882101067146  0.5840159980860270
  0.0787802030161956  0.0827908448740234  0.6701530385623646
  0.0019309769034581  0.1647496042817454  0.0005663322929418
  0.4994186609226465  0.6682570456785489  0.6681726058195646
  0.1644029477635982  0.0829910021642207  0.0860919932883031
  0.9993679791274226  0.9980474504804888  0.3321331544673459
  0.9978714377948869  0.9978353134730213  0.6681452649606670
  0.9979319088346169  0.0815035166254654  0.7493994285385811
  0.0824359594451047  0.5863178632722189  0.3319768173778820
  0.9971257830123093  0.5010672466797669  0.5075544448360726
  0.9972100632561790  0.5028138666114033  0.6584906459816434
  0.5018384366315360  0.5840387981322668  0.2480707084307615
  0.9938818610692457  0.5909540632454969  0.7458203759651748
  0.0886063774184313  0.4998416796447038  0.7501314773684131
  0.5005342242061724  0.5038915034524422  0.1653529403199606
  0.1636767356500810  0.3258940916683570  0.9985280699818816
  0.9125622603360342  0.6685965692822217  0.7481291140129737
  0.4958956228401693  0.1652241850383678  0.6666764665331751
  0.4994364240367482  0.6676996193565170  0.8327021068888654
  0.9151612954019639  0.7512257844107519  0.6644913009017586
  0.5001254311409644  0.5003718767983333  0.0002529715647299
  0.0005976066894019  0.4213501334869841  0.0873521898575955
  0.4921354269843672  0.3319502725913837  0.3320834178170253
  0.5005762945636795  0.9167064655694351  0.0844257748837426
  0.0810133224140301  0.9164513716552214  0.0027291415412700
  0.0808251233731932  0.8343253961574674  0.4131959362360201
  0.8328882614856978  0.5013868384724600  0.0003980994188451
  0.4171210848490726  0.8306742976090067  0.4194311670964168
  0.5822759385900527  0.2423994012561452  0.3322375859219546
  0.1644146359793999  0.8384390913794684  0.8393511986970804
  0.8315713865500318  0.3323128021474219  0.3289054240127410
  0.5796298970207341  0.4187412570742587  0.0008750333556127
  0.8307573815976415  0.5843794469900897  0.4161537239829825
  0.5005750466389370  0.4190150236002101  0.0804327939747993
  0.0819301907621399  0.4173667992953601  0.1692962845737780
  0.4973288376729650  0.2490162834022052  0.5821612255360024
  0.5825987670561865  0.8319509161034421  0.5845122494284901
  0.5801081805725022  0.1652333918038938  0.5832093607020935
  0.8319457643070960  0.8344790598053186  0.8264851729134952
  0.9961326596906886  0.5003187901274442  0.1698787563750952
  0.9965587046337325  0.5833616591042861  0.2502998584965426
  0.5814901556787341  0.9147558898419375  0.1676756337450742
  0.9182476546885046  0.1635341809302436  0.9156216480773809
  0.8327976464010884  0.5846320262611311  0.9177349284217974
  0.4979919181032645  0.8351704712523458  0.0019993607491877
  0.5815953514398791  0.3343838650653879  0.4225990998016243
  0.5820611189192370  0.7512394638736796  0.8342379656288217
  0.9124817983610887  0.5861888354706511  0.6633526161503445
  0.8325178299935891  0.7516910353045757  0.5837098185522092
  0.0817693763807088  0.6700771821060143  0.2553997641243383
  0.4215782301304518  0.2489707774563926  0.1664109254484402
  0.7464694003686176  0.9953039828289324  0.4237265173256907
  0.6629596231306545  0.0853600444258216  0.2478107839520079
  0.6635943523121650  0.0008813013735724  0.1685405126082550
  0.7456831082025996  0.0832680248429237  0.9985481668923654
  0.8315451280315507  0.5011189839570791  0.1646029876016658
  0.9131979192356964  0.4151450178782131  0.3306691156309401
  0.2508152141851441  0.9981176236781125  0.4154221778035982
  0.8349035685238313  0.3314459898376927  0.5097549623188742
  0.8333093207092247  0.3316934565389418  0.6575600503460891
  0.9985143807654790  0.8320114136206925  0.1662729329017341
  0.8342042308167832  0.3411252119148679  0.9987810916326541
  0.8330001325456309  0.4190604283892919  0.0825839713611047
  0.1646603195592919  0.0809178750236200  0.2499894400286492
  0.2475887410952764  0.1646086169981429  0.2501008233895644
  0.6624671681111511  0.9141767703215211  0.5811013002626293
  0.0828235899790524  0.8328753086548571  0.2502477910515887
  0.3338801032186945  0.0832235931164516  0.0834465080050628
  0.4974097716012193  0.1661436462049543  0.3355315944089820
  0.2551494058505727  0.9999775559366701  0.9189942370583704
  0.8304701187033274  0.4199138589860766  0.7492377889255694
  0.2515588012817242  0.0825534521095649  0.8349767589245559
  0.9172095618485888  0.3337104630646791  0.2508144442358787
  0.1674580541686506  0.0893016025545900  0.9162732424171033
  0.3335665279868936  0.2482762908708063  0.0753686585241666
  0.1616007321962679  0.2503955112846383  0.0837183938102328
  0.5803924731387337  0.1668240508867694  0.7520666773714710
  0.8294274104932324  0.5866442514724143  0.5821020275444631
  0.8321927254998791  0.3324835431638793  0.8388147398865091
  0.9127970931704014  0.5014814509324923  0.5842709942287083
  0.1658759686831094  0.0007242102315949  0.8302668065738957
  0.4980139002698581  0.1661223337035735  0.5028838763159064
  0.1615631535379799  0.4170452709716519  0.0873368345295061
  0.9196172876299878  0.3350537331956481  0.5852335528514229
  0.5054718852896526  0.9166156645636266  0.5846411390747450
  0.0813375528941924  0.5036136330535534  0.0809603779236628
  0.0825174199029958  0.4160785165770359  0.8321939974641650
  0.5007295863015565  0.7491703541237725  0.5848868784061810
  0.9988408712621891  0.4162144140392255  0.9142718813034764
  0.8330533560521298  0.0008684887070854  0.1745198814490553
  0.0834345723761563  0.3309428110053628  0.7504629020025294
  0.5056785543500906  0.4198924578266390  0.4178281165715099
  0.0010398477273867  0.4121104266824822  0.7521579668530476
  0.9163271627353344  0.9160710130843307  0.3314665500635390
  0.9988974182293807  0.3310441129841011  0.5009352998919506
  0.4994429185481475  0.7489568663249569  0.4165906806319449
  0.9128868203449786  0.8324719250980721  0.5843858944159985
  0.8308088217236683  0.9175423334966335  0.7515518935467761
  0.5000492347449895  0.2489171467298927  0.9174272071283587
  0.9162846031681448  0.8336698192665718  0.7508077832473656
  0.5843170442635702  0.5854166924311776  0.4942994424146561
  0.3317683408286340  0.8330960882195830  0.6598180267182291
  0.1667259104350822  0.7489229983875382  0.7503127290263182
  0.9231982619468364  0.9988378562458701  0.0839513379536864
  0.7461772529582286  0.0009623550025733  0.2441800498768270
  0.7443533128362005  0.1643673293690175  0.0808983706557255
  0.7500746838292677  0.9138158772777627  0.5019965073777795
  0.1651612081819066  0.9153312184418809  0.0837713065549760
  0.9179533331251191  0.0860949422135133  0.9983356599920370
  0.2503351242803291  0.6709778198697265  0.4170045824909851
  0.2560867453057417  0.7501815167839827  0.8365175382713195
  0.5812241684205226  0.0872664477149908  0.3351806327671051
  0.8318784498857946  0.2478731881879999  0.2490491887471427
  0.0809563865955120  0.5833268479109275  0.9982966977679710
  0.4187818210990139  0.1664088729278778  0.2494370373718617
  0.9168574787062387  0.2476446121926531  0.5018755347360919
  0.0888802121208387  0.4993888878597466  0.4129339242073878
  0.3329078634766056  0.0002123831886111  0.0030567262387094
  0.2499015271585789  0.3327942977114361  0.7569724747591310
  0.1616763548739443  0.3318270007903835  0.6673172370132989
  0.2476991393217705  0.4154029357549294  0.4993837975328412
  0.2495384536326949  0.9179304041928450  0.8346299789767211
  0.2512695727067329  0.1655440995974298  0.5838501631976936
  0.4172647623997070  0.8336560374387837  0.0836061442663316
  0.4175590426420002  0.9171005728813696  0.0013791322816207
  0.2504890174461771  0.8344679694278345  0.7516885418386756
  0.1668207684345807  0.9254191705459329  0.7501795962041732
  0.2504539670210450  0.9152330532110068  0.4957164134445645
  0.4160650286062270  0.8328833482559727  0.2409597916180585
  0.6653612237493390  0.1647476988260560  0.3351338930838370
  0.1657259187212813  0.9117806989675922  0.9211690968314508
  0.4157643733790739  0.0021690859665790  0.4163290401602762
  0.8354061411921658  0.1671961718357616  0.1697656152749641
  0.1676999506866289  0.4177389043578757  0.5811415305860760
  0.1642687510941817  0.3307747949703623  0.5016785608323671
  0.7489158254216900  0.8332800799727098  0.4162658037103792
  0.7474729610690298  0.3337576405509110  0.9161030250408663
  0.4181389975441547  0.8268485798448959  0.5837859332526052
  0.2488277667281490  0.5832801603516624  0.1649661082369155
  0.1657147188752950  0.4995852819737737  0.3322453847039807
  0.5817463941972051  0.0829310954191670  0.9983260640637420
  0.4976776597225486  0.9990315006494603  0.9992740406569196
  0.2505804287622809  0.5002752176464601  0.5819439347014207
  0.2503541855043587  0.6678467704725223  0.0823204062341890
  0.1691648267171088  0.5798546040284033  0.5821277629530054
  0.2525664538425909  0.7488883281469060  0.0032159053785447
  0.5003100115418398  0.0013500684799690  0.3327291238999163
  0.9176630433938784  0.1678638064333341  0.2496545293138020
  0.8317510676951761  0.0002117505283281  0.8348329905482801
  0.4993047578820929  0.9997243280537468  0.6701930887809369
  0.1689431594286178  0.4175280303827427  0.9085430706891117
  0.9188593298704002  0.9181192368683415  0.0015696436517215
  0.5804764888595250  0.1674082814322812  0.2460828984352653
  0.0812799044522408  0.2488221107787462  0.8348411299721030
  0.7493769135623083  0.5861175383074453  0.8338050614169780
  0.6650048383776688  0.8336277576473856  0.5002459133371183
  0.6654099897749847  0.9913865085138187  0.6662832101058181
  0.3301601948142581  0.0835422908352802  0.5829702117935857
  0.2522041481419472  0.5017035904715327  0.9162145114659819
  0.9974949506361144  0.9923654237418909  0.4988121059702963
  0.4993412006874858  0.2505159062991907  0.2467104084466558
  0.1649478791232278  0.2498350269660008  0.7502191306672358
  0.0816980416173657  0.5775188501367126  0.1679802842603733
  0.5013413378715746  0.5035986693154485  0.3305278160462812
  0.6651767072065823  0.2487053742708524  0.7514777150673031
  0.7486406785566379  0.7500207425907216  0.3331759540571576
  0.7475626863546837  0.1684834442458809  0.2491500957880273
  0.2520501954694628  0.5814804913691749  0.6659310937913483
  0.1686031312319370  0.7517620629054789  0.2495455438397128
  0.1687849998743598  0.6695575836523566  0.3333177116688856
  0.1707283644773816  0.6679648878563204  0.4975983455096228
  0.6641465664064190  0.8303391028307980  0.8343336075284280
  0.2471871152466321  0.4990029698317334  0.2490593310153525
  0.1655958010771879  0.5017099984903116  0.1683279912696660
  0.1653062623209468  0.3311593132989920  0.3327153863907172
  0.1650955061575476  0.2545777001476371  0.4166655008900766
  0.6594105480071786  0.0019016906233769  0.3325577455963858
  0.5798396813314051  0.0824596451076400  0.5017315154000627
  0.2525255376604957  0.4174560053338531  0.8348773440402448
  0.2512999855784621  0.3298752832295059  0.9161498873958837
  0.3343101953082962  0.0813429376821628  0.4161998447672655
  0.7485963834142471  0.6666527005631141  0.0826990228465388
  0.3337195222444225  0.7501763462421289  0.5834038181867067
  0.7492090765373410  0.2473361447929728  0.8345468186130381
  0.4148162439944139  0.4171963978453992  0.8334886949795383
  0.4167412138252347  0.5849891225717114  0.5014550621767014
  0.6660122729311496  0.5871206638355408  0.0805180185456118
  0.4162686068292142  0.5018743436566669  0.7508082743969391
  0.6666413223918326  0.5017032669061635  0.1658944730984280
  0.3368625023419985  0.4191481482155691  0.7530579100445465
  0.7423559981264547  0.3320154156436586  0.4188168123970382
  0.4153577215186875  0.2472731415573825  0.5030184605941039
  0.6637558489789570  0.9159578061149842  0.4172579317194165
  0.7489285599338801  0.4244825426320911  0.1641813676896241
  0.4154169447242018  0.2469930177191614  0.3351647391042124
  0.4172347291921751  0.0008567466625846  0.2478732237998527
  0.6646535693007803  0.7509483951014588  0.9172162099767627
  0.6633939440055902  0.8291865553543224  0.9985251403131060
  0.7450179352499494  0.2474267930205444  0.3329041805677748
  0.0005728027782742  0.2491975708706931  0.0840654115679261
  0.0797854000237431  0.2475491623246660  0.9995488043001159
  0.0000497769500905  0.1735432059295495  0.5011753766208131
  0.9975379507441667  0.2475615385825730  0.5853355583554951
  0.0825763763455122  0.2507608137374232  0.5012385154066004
  0.9969850890707067  0.2482344490931846  0.9178122082113493
  0.5819911155007229  0.5874901279603414  0.8335729525656826
  0.9135960499369790  0.7507725504197287  0.3324024318040081
  0.5760155528768540  0.4175501286292558  0.8318165113044896
  0.9180477066769662  0.8311729220909950  0.0857794386930940
  0.3317354043191169  0.1597367437964610  0.1662148299313682
  0.3346418146662354  0.7499176438882513  0.4165353127113735
  0.6662662931082092  0.7496335594829534  0.2489099116646341
  0.6640938751988399  0.1708788257119066  0.6684133052136345
  0.7556931733817162  0.4172567725767413  0.8355433931531686
  0.6664253808734130  0.6671172060976034  0.0010759398536732
  0.3338328820382988  0.5855150743048548  0.0820432080831287
  0.6653659326896743  0.3275598497041967  0.8343838826426994
  0.4174930255547834  0.7447358081916952  0.3311475047788111
  0.6661123780135799  0.7522238667254632  0.4149592207370659
  0.3322041369415382  0.0814026624158488  0.9175369143349723
  0.1650817089136416  0.4160289090043773  0.7542431459340725
  0.2497700141148055  0.8341290981867931  0.4160066913874481
  0.3338081436971564  0.6658555566986497  0.8358936910380473
  0.3262185881755071  0.8343672745175259  0.3312722534990524
  0.3348347675392439  0.3310195750618672  0.3315970762126604
  0.4174030665213397  0.5018292554563070  0.9169786730916060
  0.3364224595837185  0.3392128241565318  0.1678434520962926
  0.3332602095831020  0.6671008488690864  0.0021088626123475
  0.7480361023252697  0.5026618175472256  0.4158526859305084
  0.7493133420163735  0.5024550893778236  0.5836453557707436
  0.3349508337283325  0.2494645165657526  0.9180765106395855
  0.4178429872222275  0.3362621425305441  0.2459199934984243
  0.3335426018812361  0.4149749077303461  0.2513960252521484
  0.6666559645549158  0.5858893244817186  0.7499117241581579
  0.4163614182904806  0.2471233281047275  0.6655275286385191
  0.7503731177392865  0.5854574495110227  0.6669827944329952
  0.3342899360996298  0.2485283843970864  0.7519732829418124
  0.4192910658197658  0.6670289522658147  0.2463574395147890
  0.6587938866407738  0.3340980785671034  0.1628462942297004
  0.4164722780625218  0.3286513593209666  0.4172825724906892
  0.3304492241251602  0.4199931672934156  0.5820207751002622
  0.7478208089751355  0.5016003073359322  0.2504069569555886
  0.4239178198570188  0.5865272466774495  0.3299054682885602
  0.6668581333622073  0.4178250826012242  0.7444200629866631
  0.2458266693136821  0.4989687119655169  0.4167756424635632
  0.3315127823521479  0.5828886128664952  0.5830335716303090
  0.9976806474067332  0.5000490817042800  0.3299863035907910
  0.9972755735901572  0.6665114933857819  0.0003985538333340
  0.0838948587555775  0.5803166083920208  0.4999134237833945
  0.0830759760603128  0.4173175936736090  0.6663030922656978
  0.9986905909259031  0.3315982863761449  0.8351563403953296
  0.0014398277815496  0.3329759071396970  0.6668912933355075
  0.9978156851062208  0.5010708775272216  0.9993356323863527
  0.0815974121367999  0.3315532614219306  0.9158700378114948
  0.9983693627719833  0.5827374244007586  0.0835893176593091
  0.0831647409205159  0.4997490991984976  0.2514244510629804
  0.0840311326735980  0.4996320797056606  0.5825303122548449
  0.9976456788398141  0.5886509409898687  0.4153835144201651
  0.9980600089322781  0.5863678465278432  0.5823107951914805
  0.9142828669686327  0.5833611732881091  0.1661850347246877
  0.0834636924161965  0.4159000397286376  0.5005013955342434
  0.0821420887938498  0.6655016751824909  0.0782929824578203
  0.7485245897508029  0.6674018241250588  0.2496577892866859
  0.7486826167739222  0.7517549655412216  0.4991394299003574
  0.7484302851613718  0.7485225925339456  0.0000956676605685
  0.6664338835165438  0.6664189315652916  0.1656123314566562
  0.9962901795399091  0.7524434604595022  0.4140860926576261
  0.7487781601569349  0.6691641890636418  0.5827890493617205
  0.6673262656506583  0.6681314025727797  0.6675241177910749
  0.6651789076677501  0.7507148371189524  0.7513010787235712
  0.7482204600316061  0.7483619743538737  0.1670873208108251
  0.7483194642077493  0.6683846079802324  0.7508524161401885
  0.6663170083936246  0.6680868254123031  0.3328453963682903
  0.7486604702986775  0.7517177158753737  0.6663990997204068
  0.7491594646908947  0.6689736518203057  0.4158569583139348
  0.6649607337229338  0.6682587500749548  0.8342053018692922
  0.6668606828639548  0.6692310481224462  0.4979058794881622
  0.7479384708869458  0.6672305261433685  0.9166799410003958
  0.6659498635086498  0.7522456443069865  0.5833249130121062
  0.7484786491103195  0.7504896457245890  0.8333256478378551
  0.6579955818476514  0.9156999288944782  0.0827006672665115
  0.9958544503665995  0.5833384460586913  0.9178751400202553
  0.0806474102540651  0.7505559249601087  0.0021738139175689
  0.9978167425315919  0.5017684222820334  0.8368078945546400
  0.2488800918908614  0.3319463475243529  0.2507369729929139
  0.1653511621105087  0.4128724174847811  0.4161537621266700
  0.2511183326134268  0.3308499073631197  0.5800330388229917
  0.1651938347487819  0.5037997368761657  0.9988926896585406
  0.1659876788327594  0.3300464530761488  0.8353645555194027
  0.9979394882586976  0.7508683040435017  0.2505653346487215
  0.9939445164731838  0.6662015925478696  0.1674613871895526
  0.3347115093271700  0.8339281440562613  0.0019620258902666
  0.8328247695452402  0.1657580341809654  0.3299376634115969
  0.3332321040092863  0.6656680125079609  0.6655652533397912
  0.9177458404783633  0.2511512909946400  0.1668872082368945
  0.4166883757437651  0.6658489839166266  0.7505165168356061
  0.9196703758057688  0.2497422091626706  0.0016379993394821
  0.3351371138033450  0.7503906337589129  0.9193052425475478
  0.4171256728263189  0.6673779883126100  0.9175635889049415
  0.5825562464506986  0.9988542965341362  0.7512230720474939
  0.4174182657333528  0.7485637812812825  0.6677186176995831
  0.9964789764075157  0.6690435219071175  0.3331710254819619
  0.0830394637807722  0.5817885596932674  0.6643546246445365
  0.0828383876922830  0.6662810006795182  0.5860344098207542
  0.9976010488289320  0.6684418711394738  0.6635982823570306
  0.0811902582170604  0.6643314928277646  0.7455454363911677
  0.9964503498216178  0.7508811167669375  0.9195264588410098
  0.0767331693029503  0.7523681735085942  0.8348791864896759
  0.9998718164389069  0.9155450303793801  0.0848000395848297
  0.0816139831712799  0.6691513842577759  0.4110157447130330
  0.9931838934088673  0.6694454083110704  0.4986280149334518
  0.9964126409675517  0.7524444929071509  0.5816589699893974
  0.0799711421786303  0.7563044078283185  0.4972928873046890
  0.9958631472263793  0.7488300031802767  0.7493128884672654
  0.9927674403245991  0.6670241306195044  0.8350074716204859
  0.0817266000589091  0.6679389767458956  0.9210533989430836
  0.9980189481953722  0.8334615528959924  0.0029879117111326
  0.0005374305636117  0.4160987477246118  0.5828324493189732
  0.0838935315656188  0.7544533888378635  0.1658437945775848
  0.6646560388419789  0.7481763303761932  0.0823234617819864
  0.7499435962683191  0.5846520484671812  0.9990022809623120
  0.0817777845071648  0.2475690799656418  0.6668952476966951
  0.0820685990644889  0.1658776763615538  0.5854018971215924
  0.2509180114634332  0.5839873465531930  0.0005271199337878
  0.0005538496483808  0.2481433961139710  0.7510326986052399
  0.1670212590782336  0.5851204344765515  0.4159012667098541
  0.2496934599608348  0.5041566598575135  0.0827726037043538
  0.1669120672028946  0.7513689660102062  0.9275823991121965
  0.1657034602371772  0.5845624909690462  0.2511901761084316
  0.0821710873028542  0.8334450385445574  0.0837803818130517
  0.2467291343543426  0.5839536672893881  0.3332953982049632
  0.9996144053212923  0.2504999015375678  0.4162545321347799
  0.0828789990659870  0.9154587169008639  0.1666407452846319
  0.0822703379338196  0.2504630163958239  0.3324118072150681
  0.9996842344979825  0.1662218866844085  0.3307502616292440
  0.9985590297792336  0.1650794414860925  0.6693376873184613
  0.0789909306909261  0.1667580835441527  0.4147213541961386
  0.1665794615071358  0.5837970330167438  0.0822913476576981
  0.0826088134074498  0.1663758226310307  0.7508887205264205
  0.6643565718847182  0.5032824947051404  0.9989351060000599
  0.3348881719414757  0.7454211433435803  0.7501552310311934
  0.5807097439415860  0.0003584498635303  0.4170494527827507
  0.4979837067920427  0.0821352013975219  0.5851418466012214
  0.0813532731869439  0.4991015979123640  0.9166686610704957
  0.5784036666714824  0.0827597495630461  0.6675039264126702
  0.4987193187661275  0.0822632705803426  0.9169924151095763
  0.5810109386223783  0.9988204144313915  0.9166624409370023
  0.5804026590185708  0.0823255043315277  0.8335795339985669
  0.4997152415933725  0.2496799983774368  0.0812037366623988
  0.3347723613822957  0.9167427180779235  0.9186999326960370
  0.5813516018231905  0.1661325939052557  0.0812415841427445
  0.6653354529176392  0.5856454488375548  0.9166450088906447
  0.3344200516600381  0.8344294356956409  0.8377635353844061
  0.7502597330450497  0.4178804242106177  0.6650773647347736
  0.4252283201170780  0.8325093464997797  0.7513610477908468
  0.6642511854666919  0.4182265282114363  0.9210353060813656
  0.7474045689786063  0.5031448035404446  0.0810726588858228
  0.9992351385326550  0.1655187445209679  0.8331241732249755
  0.0823463803239995  0.9981717412760734  0.2491732110457311
  0.0814411690812123  0.1651255664000005  0.9160418712369549
  0.9986320012698833  0.2503878553184035  0.2498796345824970
  0.0816261356784431  0.0808178418124959  0.3312401523362963
  0.0831928831688010  0.4149441647111868  0.3327667264958112
  0.9979018975039741  0.0825089167859716  0.5886692438331926
  0.0800967870908714  0.9974104587308464  0.4148500237089284
  0.0855860692029603  0.0823992838964129  0.4996220748059713
  0.9170675025551203  0.9969075713907515  0.4150938980239139
  0.9978734825999898  0.0007271288092322  0.8329088479029139
  0.0776800423477507  0.9986469344511495  0.5839609655664068
  0.0769218918089200  0.0004418626018693  0.9171695974411439
  0.0803452989434211  0.9996781306382907  0.7513451435778336
  0.0830999255840694  0.1655675152906716  0.0851520297599883
  0.9992671238916947  0.0833022132721338  0.9157378742410445
  0.9986866190751623  0.9149169511605089  0.2493199204852207
  0.0820714609596821  0.0839432937899197  0.8319734769148396
  0.9986833856589011  0.0822446634460698  0.4118273749600443
  0.0820256286861282  0.3329954865194796  0.5841034135969255
  0.0827805070192955  0.0827301581083248  0.1677068938487028
  0.9997366695584190  0.1670007257467825  0.1670134835943976
  0.9992623738437495  0.3324126653366578  0.0004592221346259
  0.0833755585348609  0.0836278781241605  0.0015568700645468
  0.0748539828903647  0.4162549113941267  0.9993462815171994
  0.9996350447448552  0.0821637444570748  0.2497890077468025
  0.0817964310631230  0.3326072240585775  0.2502473655934093
  0.0801790884362273  0.3333371985434792  0.0842576562034528
  0.9986125314155607  0.3330982149959816  0.3321983010790792
  0.9989593140500326  0.4172719384561174  0.2508194070867268
  0.0819074783007253  0.2491789964851625  0.1671719895251285
  0.9997024074612557  0.3343661446069243  0.1667229137535268
  0.0826844221633744  0.1655218403700050  0.2496174403432107
  0.9983731952061673  0.4130785301477656  0.4157544631618474
  0.0820921373682418  0.9999554281181986  0.0846847929522880
  0.0815646308126906  0.3333715690414443  0.4163384849101616
  0.0003966546060110  0.9990088345586317  0.1673845903255589
  0.6668075074103224  0.5839547534594757  0.2487250925277434
  0.4177004615729651  0.6667982850867622  0.4166471732452011
  0.6674890067155789  0.5850678055339241  0.4160182404019022
  0.7485963893100791  0.4182237231230320  0.5011618117014386
  0.7476259275285281  0.8260566680698138  0.0840722001714311
  0.6642580603599858  0.8312122872308475  0.1671027567729583
  0.8337876627851604  0.0745765757001018  0.4162755994487393
  0.1651900915583205  0.8353087547442031  0.4965020540088565
  0.2497975079016082  0.8339665567778777  0.5808479454474664
  0.3322358489136257  0.2484588541027371  0.4174193323855190
  0.3343079446964195  0.9168966726163295  0.0843795894001296
  0.3348797342724760  0.3315532679372895  0.8352223807523664
  0.3340925914880154  0.4173099039715581  0.9158737090026139
  0.4166336783434081  0.3324679915353745  0.9174971416793622
  0.3348136197887924  0.5013215658176863  0.9984743721184693
  0.3390647964044010  0.4175980989422164  0.0815495768207530
  0.3335312729831665  0.5001410559563499  0.6675173404809849
  0.3342390501781666  0.5834717392040115  0.7512187653022495
  0.3328858898589158  0.1646929327973512  0.3318688221216088
  0.4173343031013333  0.2488251838379041  0.9992565049565590
  0.5807359976707422  0.4227116113462832  0.6679548478439561
  0.5835567603714504  0.4187693152554711  0.5008523438881840
  0.4969749392683110  0.2483049671906045  0.7509875353547693
  0.5789775174037746  0.2467919950014690  0.6665235909141318
  0.4976795550696592  0.1663399279948910  0.8346317681512065
  0.5812043514155358  0.1648178475976240  0.9156268380888017
  0.5799637895585108  0.2484052859015671  0.8342939982015467
  0.4989412348595587  0.3336046600726945  0.9987728736309328
  0.5808856151550508  0.3344908169471665  0.0804846964944268
  0.5003561326969241  0.3352431377310045  0.1634652568687849
  0.5006274952122262  0.4202174008184200  0.2479709470137498
  0.5808813796308766  0.3344192427945661  0.2449978304534532
  0.5826266942317752  0.4197956849455214  0.1645135525617047
  0.5843314614459875  0.4217766851111486  0.3319327975415793
  0.4979813847700391  0.3334190749978987  0.5008828383067994
  0.4984267600882496  0.4181939056428699  0.5835003392102263
  0.5810785913606435  0.3339066724805992  0.5791310373983408
  0.4918277599917474  0.3345089170447094  0.6671356506037436
  0.5821159950837493  0.2489834070434086  0.5017410745388935
  0.4170184809960752  0.0006695862831695  0.7517061901851583
  0.9981748812552588  0.7494398127237125  0.0841083801190534
  0.2519031081618072  0.6670483051871045  0.9193051647062156
  0.1659913405287060  0.8344432547152275  0.0032784262270297
  0.2502357799497636  0.8335304468447873  0.0833650619471343
  0.4178100832665232  0.8331592327295083  0.9182699714939830