 C Cr Ni 
 1.0000000000000000
    21.1200000000000010    0.0000000000000000    0.0000000000000000
     0.0000000000000000   21.1200000000000010    0.0000000000000000
     0.0000000000000000    0.0000000000000000   21.1200000000000010
 C   Cr  Ni 
  35 259 605
Direct
  0.7553448748095735  0.3272673947329428  0.8391294435609474
  0.3358353839289003  0.4134580236500537  0.8328533207643756
  0.6617779849759887  0.3283267621008519  0.7439441473009454
  0.1534912225107377  0.4162745746105325  0.8313201533356195
  0.1623560519759979  0.6640927546307709  0.7525927326243100
  0.4212526617592862  0.5950292907132230  0.9210773037049729
  0.2534423446272477  0.6648993235702978  0.6605835350344388
  0.9207412031767505  0.4175225160833398  0.7545270847063095
  0.5812049356512925  0.4166394404987423  0.0865623300862612
  0.2436845551530293  0.4134037437354792  0.9281086281160001
  0.6624015934261205  0.4232022538334634  0.8374693939778584
  0.9203144587604386  0.5076526598508038  0.8421655422117517
  0.5739398060525430  0.3253499843056426  0.8391939225700983
  0.8275050383103937  0.5097840329857236  0.7514494180283682
  0.2539681441813058  0.7567370517420889  0.7524850433738015
  0.9189622498153889  0.4162057617426179  0.5716362852376168
  0.8280574776359941  0.1556854599289048  0.7555673507805836
  0.3355488781011125  0.3254232760987090  0.7412666487860980
  0.5836780069996967  0.6734845808926050  0.8323331001814070
  0.9208093294637538  0.2465335035756012  0.7559289938150823
  0.3230208296928490  0.5984189852651061  0.8225580639758537
  0.5825943309522296  0.4189420240791425  0.5774060904951951
  0.7506480412651697  0.5837929488685808  0.2510734925476752
  0.8292620237531604  0.2435390730210270  0.6596349045306352
  0.0766486380454896  0.4945913643217075  0.3391110078093468
  0.1697422579574611  0.5896968070011246  0.3374125013839972
  0.1703718668757195  0.4970458702215431  0.2464658961560175
  0.8278605438296017  0.4227999760963570  0.6605312525930542
  0.6653501518646191  0.2475566830990431  0.1685613202594380
  0.0765603026356042  0.5894128970924627  0.2461018270783521
  0.4221680219698267  0.5043367256853953  0.8269899800287861
  0.9220051390462225  0.1559306536589373  0.6616649195632169
  0.3313834047616465  0.5041767124628268  0.9241921513002777
  0.9969225728224005  0.8347866217640511  0.7501723027984674
  0.2450913549654408  0.3229774669139270  0.8330203246926156
  0.4991462357367156  0.9176598570640248  0.5799514845236118
  0.6654180791623657  0.2473660267080837  0.2582359106006471
  0.4993885032206379  0.8374267265447508  0.4978214572720798
  0.5715085236617817  0.3289489115044782  0.7474968284592185
  0.8313722589420981  0.8356287217300872  0.3340231218929527
  0.1642381757528594  0.9183101166213413  0.7496786793032629
  0.0870002246133250  0.8362470559284277  0.7509063819892683
  0.9961034634445449  0.6713964637909067  0.0024770379944555
  0.4158370043992945  0.7526367465488920  0.1664608096936273
  0.1653846902775194  0.9190457722506373  0.9184144307265685
  0.4970081129040140  0.9183324969297507  0.4153012403969379
  0.9162603080331791  0.0826646650005557  0.1678518112890208
  0.2496620094314753  0.8466940559965641  0.7511416942476452
  0.2483537752330054  0.7525485563859662  0.1657141491613638
  0.9187906917041209  0.1577980130657337  0.7536428729305369
  0.0115442575534270  0.1622299545323936  0.6641181323067223
  0.9978300389211551  0.2447972849511869  0.9210616708409323
  0.4991241207004797  0.6703811526364485  0.6627923262327420
  0.2486834269497918  0.0807494693170939  0.8339236569314803
  0.0829465759785876  0.2481471444297528  0.3317389433117754
  0.9151615068481233  0.0789710906867977  0.4949786606600613
  0.4992791391078851  0.6689602074934085  0.4972917390485810
  0.6643261050096630  0.2435911032692380  0.5755311272742049
  0.8299417723978004  0.7537498542599307  0.9185920054655696
  0.9862097268238698  0.5861554364148561  0.2508054412404606
  0.9133682212657731  0.6724158272185745  0.2497120097514476
  0.6634962814260443  0.9998373122629324  0.0039522962360927
  0.9152902474580641  0.0800111265911765  0.0026570028593195
  0.4160506375405436  0.6733378485575225  0.0874274489842049
  0.8293055863780028  0.5057500564369266  0.8415107282953892
  0.3318117778179816  0.0803957243942692  0.7482340241252330
  0.4990711940278090  0.0007732006648348  0.0028005035967075
  0.5806626603506719  0.3315000894842434  0.4144236313837992
  0.4996154607699545  0.9171372295485817  0.7492230948186938
  0.7455935144746911  0.6712258067023010  0.7478242848950425
  0.9979762303009627  0.6691552708939569  0.6631480402340626
  0.0787618409780161  0.6796710706304002  0.2481586226626247
  0.3320838664918738  0.2488095968358649  0.2510662822920629
  0.4160452031751817  0.8392931731305613  0.7481659052833550
  0.1629757428153213  0.7552410717713219  0.7496537903933042
  0.9973664229448228  0.9164634580993107  0.0849848620689754
  0.7492820743580885  0.9169698355416626  0.3322609510205755
  0.6715172361310804  0.4146511843406106  0.0851913992503446
  0.7477285195078978  0.9167615403946864  0.8346178586974922
  0.1651166365241213  0.9172525709423132  0.0848791527562643
  0.8297917526588346  0.9173430611767922  0.9187638802627665
  0.2470429840821169  0.7564196198983024  0.8422989804137259
  0.7499645874200369  0.0010692944789214  0.2496867402023748
  0.8336089639427443  0.2478001575386421  0.2522160475263969
  0.7467609433497130  0.9986021392719705  0.5796529756233166
  0.8333801081007619  0.0815802306644480  0.4146722659289084
  0.6660163651084655  0.1637684987811086  0.3325888849391573
  0.5811321793892583  0.1635970691843708  0.0857633831853090
  0.2458427455046616  0.4164399896504683  0.0182827496304322
  0.3338597649266115  0.4145514816784706  0.9233450610614209
  0.7470688768210830  0.2471511947083593  0.4948364917489816
  0.5795685168588022  0.8378277276960449  0.7484062274937738
  0.3318516402314209  0.0809695447604509  0.0849570138502094
  0.8262363178275288  0.3325619732478325  0.6607801154292700
  0.7482105513518312  0.9172747323519223  0.1685285107554819
  0.2512180319561046  0.7541847502079206  0.3341217436749756
  0.2481117399467130  0.2336658055824942  0.8333022906186807
  0.6709272265857528  0.4182488807512654  0.5755937278800043
  0.5819210491732582  0.0016706784659099  0.0846476181862750
  0.3313634090831252  0.3297563901598219  0.6522496266049402
  0.2436621786748421  0.3298707487681921  0.7426197905863201
  0.3301176758938753  0.2363361560328323  0.7475623481229013
  0.2484708542549043  0.9209988011185702  0.8370883649044654
  0.5805676297385740  0.7523164364763990  0.3330849839014548
  0.8414706871100751  0.5846282286295957  0.2500993686544202
  0.2473196592086681  0.9987831117570811  0.4155107938312094
  0.7492181851418949  0.3318820069872190  0.4133982371785498
  0.8295802586007667  0.2468525886379780  0.7513439579641099
  0.0804043561202441  0.7529450297496293  0.1662853096747897
  0.8318555711678511  0.5858032402492065  0.0836582781162174
  0.1649673270707727  0.0829078249347245  0.0864262715675620
  0.2465373236526134  0.1638468446725794  0.4146760762154765
  0.5830316332742173  0.9995718738582939  0.5799900606756249
  0.0810630230948521  0.9986040907898375  0.2499728765233167
  0.1638522300690014  0.1651116650920500  0.1665604541847389
  0.9980922415887742  0.1630713371165295  0.1659829186164191
  0.4141104838587967  0.1626936986895989  0.4158650141561528
  0.2484008749174408  0.1640416288627280  0.9201923005333271
  0.9960984413074900  0.3303216306484409  0.1659900969184185
  0.1652122883153320  0.9983779008158556  0.8358064332937810
  0.3293314867959611  0.0795571302206209  0.5807269981324140
  0.8292501583325392  0.4185851744976073  0.7505457301612349
  0.4982328685133688  0.1626522549075866  0.0028560343423141
  0.1626967107508688  0.2438241833841726  0.0859732424545475
  0.9180392428508413  0.5080570250874518  0.5819358436231653
  0.9981913851792652  0.9963595522866726  0.8384340379846964
  0.9169162819949854  0.0661357862551835  0.6652072923612243
  0.9151315932181344  0.5879403618112515  0.4994333090616759
  0.7521425330882092  0.3312503035380386  0.7486235162855260
  0.5801646110419962  0.0815427021345671  0.3323855448164042
  0.1661454079736544  0.9982492664631440  0.6652622332015282
  0.4157339669807352  0.3293523356108886  0.0862449799009593
  0.3321674936490883  0.0000575340031381  0.6648691968842579
  0.1601779490693518  0.4135195698841349  0.0860168868609697
  0.0818698169058508  0.5900693504197719  0.8379202280169197
  0.6629625105486774  0.7515902983152462  0.4146876513502903
  0.0814260562101491  0.0805018414758857  0.0019899086515606
  0.9167024249863500  0.9991714503189815  0.2501300506934576
  0.0836501247036801  0.2476300549107531  0.6625672617793483
  0.5788246073472904  0.4175593539655755  0.4860138764438631
  0.1624463861235819  0.6691035014647517  0.6619910807782887
  0.9982394680947545  0.8356976308033353  0.3332151347032134
  0.9989027394574560  0.9164921830170369  0.2498843344163561
  0.6657159183934178  0.9986024534911894  0.4969669569372014
  0.9147786855201414  0.8357629588904278  0.5801995279028417
  0.5826938598151472  0.0804249755079632  0.6637114196866549
  0.9081036271018273  0.8349088884863188  0.7496785894461804
  0.5799400339001630  0.5032802122682729  0.4142677315961835
  0.4957481829868119  0.2472567661822765  0.2511248049360417
  0.5798008344978341  0.2428262305168439  0.0024189529125395
  0.9155420354614755  0.2475716817105136  0.4949322355057031
  0.1647746734066171  0.4998290341257650  0.1563552892294452
  0.1658462813840954  0.1653302354802639  0.3328824911399937
  0.0789198357124732  0.4142900076866420  0.1653814352100627
  0.5821176173798946  0.0007370595820732  0.2508354385552622
  0.6649395275776170  0.1643101503158748  0.4960561348100724
  0.3312495523586996  0.5041083141869888  0.8317516947831747
  0.2450755569856828  0.3219712011611026  0.9233538302632649
  0.1547651144872286  0.4158266710755135  0.9231464609788056
  0.4994937745292002  0.9176893908133085  0.9194813798173568
  0.0003655611320462  0.1648334631314635  0.3336607383677865
  0.8292703282163824  0.5898205210877311  0.9205029712795880
  0.9196043178535647  0.4186062023761947  0.6627204204419050
  0.0004532372548981  0.5043816164413960  0.6637001738986579
  0.4970247488373312  0.1636711756194933  0.4976089518620516
  0.5816324712167849  0.6687471759088432  0.0855388369172146
  0.1648446261623599  0.6729350150804865  0.8423004892829277
  0.3326814813161370  0.8377527606936696  0.0033032586453712
  0.4136486927092829  0.9999539248809037  0.2503153881505106
  0.8293257756476701  0.9946106312329721  0.8380401412636176
  0.7497556691343095  0.6739746449080539  0.2511951892038768
  0.0808766994601448  0.2473436193229661  0.1672845898019389
  0.1559369181892180  0.3249006635283449  0.8348446502148470
  0.0832604919207290  0.0790072341765649  0.4967331057021719
  0.9200228835675281  0.2469451584383875  0.6644231375488198
  0.0838266757748551  0.2476880823616465  0.4976917175125998
  0.7496052092829136  0.2453979052905722  0.0030842765427404
  0.5104398060535106  0.5053977533156294  0.8323370770872714
  0.8318976032380359  0.7539446209380481  0.4163006593081738
  0.9128131880508777  0.7548516383402789  0.1657757829396960
  0.2518928660343265  0.3303247989458392  0.2476331714282942
  0.2524279334420963  0.6703174871089616  0.4211928756587579
  0.5812617778354380  0.8339372911176109  0.2520450987931239
  0.8313259304192264  0.1560645577345762  0.6647213998287863
  0.4146078907542206  0.7533123505383026  0.3338973384224631
  0.7461864093226434  0.8362800763746948  0.5802033633470370
  0.4981924905844586  0.1612637982269815  0.6629369258789221
  0.3445467633488105  0.7578360162771052  0.7478312538870517
  0.8314116892742305  0.9160880536987861  0.4137509704136432
  0.6632264190673942  0.2372793130006348  0.7492154006591207
  0.5003235312552307  0.0818640362110547  0.7499794429580846
  0.8324193398127290  0.5114266541694223  0.6610790241119842
  0.4956344314619254  0.4165039873952330  0.4163978057651110
  0.1624220546801610  0.2448239719734380  0.9198604986676953
  0.0811523378868232  0.1590440129323337  0.7509904203601793
  0.2490924894922101  0.6732764487554583  0.0849711280700294
  0.7507241027605761  0.0799851264211956  0.1694382078562393
  0.1641594934202037  0.4156050524594910  0.5791614451887148
  0.6654516270267761  0.9979561581203641  0.8343302366622964
  0.1683838566455931  0.4984974463225920  0.3374426069946043
  0.9154446465190473  0.5884412727054003  0.3356054021031721
  0.9874554896641881  0.5008532343585907  0.3347687956899572
  0.4137777643200490  0.0812311475280812  0.3325356739313677
  0.4944190758062270  0.6753039885171412  0.8322145802897331
  0.8310154484117215  0.1610562502662447  0.8452821688402191
  0.1642539966506813  0.8370987228394734  0.4990253811458871
  0.2416020090705443  0.5054515225643865  0.9229151938917785
  0.9992281005947317  0.9983475427205477  0.6636039414260483
  0.2365875062215498  0.5834686721613519  0.8380966583508722
  0.5802860829246701  0.4174493753061683  0.9983411213605883
  0.5792438412780841  0.3267803544936477  0.5789906635463542
  0.5793233627010576  0.4168894674477363  0.1759067509602049
  0.7487188929949948  0.4175618338803778  0.0042277869875421
  0.2503344027790783  0.7555089993899459  0.6615882015792258
  0.2599954872345098  0.4979002134597706  0.2483515764408107
  0.4969310454596350  0.1643413548748115  0.1690357419233065
  0.3322009648434643  0.4164118833418307  0.7426444985120765
  0.1660095731924817  0.8339888930920447  0.3323130555886845
  0.1676356502960958  0.5877018692908010  0.2475369866302084
  0.0831174117584745  0.9157692215759141  0.4981281980430334
  0.7479261287702994  0.8350171841547842  0.7497668734829237
  0.2484921520948068  0.3311105889658219  0.4174327393145564
  0.7467963326385224  0.5878586444294684  0.4968870790256876
  0.7528183218232153  0.4190114337085377  0.8366944791733708
  0.4137754969368767  0.9994928822181396  0.4144610936840054
  0.3328377912326785  0.4131067686858054  0.2492643262192842
  0.9153635837593116  0.4133150959206096  0.1662625057850444
  0.4996790063916597  0.0806198879579332  0.9192212027215750
  0.4250377876946794  0.4145634253464712  0.8299879207556834
  0.0792431785190004  0.4980024418777728  0.2474107642741954
  0.9969664739556530  0.9177957017944840  0.9186353465848088
  0.4212827546161238  0.5041221957333907  0.9200301600802635
  0.4160283129119756  0.5933730030717084  0.8307596167690025
  0.4160522506043475  0.5018476712745329  0.5805151741839433
  0.6640935272988877  0.5870874719862617  0.0856884022172003
  0.5002455310693386  0.4171059602325560  0.7434882258428419
  0.7510389734157995  0.4937181126724198  0.2516759229256130
  0.2446756711326635  0.4142011759535109  0.8357710464918657
  0.8326966664172110  0.1641460112953320  0.3327017227464591
  0.4134632103796407  0.2453955140454493  0.4960351785772999
  0.6650466886117876  0.9174895226692238  0.4136590145459882
  0.8331111908580162  0.3327482542079030  0.1676511079774876
  0.1678131585941481  0.4073400856253931  0.2466997271886050
  0.4152949290058385  0.9192248972735448  0.1684112708393615
  0.5824810239005560  0.8374256815213891  0.9193986697443967
  0.7496819820926538  0.4163262669520246  0.3339516236658871
  0.3322434506855749  0.0004592625992540  0.0038580319434414
  0.4948203644551852  0.4149787633707085  0.2524243262528994
  0.1632939777209049  0.6723940349549431  0.0026105361337570
  0.0806441856963167  0.6727241309836910  0.4188720836073872
  0.0785369816772774  0.5870064755320663  0.3366401773428945
  0.9997720492687954  0.3302012003735053  0.3338528238231865
  0.0811975399273204  0.5021825151216025  0.5796923581776539
  0.6603987635539389  0.5853892876900788  0.2523273284859104
  0.9190040111971796  0.5071353899605253  0.7501027753359496
  0.9201731119026483  0.4169861710263866  0.8433949364139108
  0.4198065586629900  0.5036421031792730  0.0859959505792186
  0.9160709638204994  0.6691213483680681  0.7493866631826740
  0.4182584992742697  0.7593348741572086  0.8345744581593184
  0.9166887251966503  0.5907114158131497  0.6633270878097187
  0.5814741203765598  0.1584918292518436  0.7495763236393874
  0.5718062067990933  0.4169577811607010  0.8344451391969941
  0.2482803854338477  0.5043900407379293  0.0856982688297774
  0.8307212900224821  0.8349453568330013  0.1667909221002281
  0.6636633490774240  0.3314155360350169  0.8362021393199924
  0.9148051047899648  0.4159642301530780  0.0033141633504267
  0.7493720148168305  0.5840379958805342  0.3415694671958676
  0.5832105955447064  0.8351000004404876  0.0856113938275680
  0.1638890183931447  0.4162008656039534  0.7415642713731134
  0.3324759246462731  0.8363087998650487  0.4993845163141206
  0.2535786687166698  0.6654018613279994  0.7526833941921127
  0.3314673120510248  0.8346690887509899  0.3312599243952522
  0.3299271517366554  0.2440979843620063  0.5804364773453936
  0.3294900162376793  0.5932113220553920  0.9184245200112661
  0.5004233641795042  0.5880693494338359  0.0861200414916975
  0.7489317177650278  0.5012006542254894  0.4135900283072951
  0.8293946235694124  0.4175857175415861  0.5722421802129097
  0.3352040380924359  0.3241999535303295  0.8320182019964131
  0.4124355630366422  0.3310772682334994  0.2495480736839768
  0.4972985963856061  0.5862104308255561  0.2518321767371302
  0.3322791413073508  0.3313935965418951  0.1656293064322100
  0.6659223450088296  0.5873178036276878  0.9202056575746752
  0.4260674207196691  0.3294748646182862  0.7437011105542463
  0.3321311305441973  0.5859883221640062  0.2500875091346806
  0.6664642269171074  0.3377603552397665  0.1699093116563880
  0.4978796865230659  0.2443729026825728  0.5778854199052795
  0.7458377666945638  0.6699320984723199  0.5789464860541242
  0.4931977070332118  0.4157748020813531  0.5776188662139614
  0.4979660010025306  0.3261708473412576  0.6583622814630504
  0.2524135911114241  0.4977441787616619  0.4182885184173489
  0.2482867143850832  0.5753584872153796  0.6591165658811435
  0.0792492171534227  0.5854868148801160  0.1572794042374432
  0.3330224263739257  0.6679266713840096  0.4967811185765728
  0.6622515604120238  0.4191698422873712  0.7467688230076576
  0.8344906882310766  0.4140389400966937  0.2514141878922320
  0.9966326345660902  0.5014601265027629  0.0036351091477273
  0.0814992325533368  0.5006284053424537  0.4244955013473276
  0.0051517138134089  0.4160075365794958  0.5786087503804076
  0.9980100194622956  0.3272508045406284  0.8374502703776220
  0.0015138762153418  0.3298073335065065  0.6617951445586413
  0.0795359450865661  0.5885977713313381  0.0048809164634756
  0.0796226303602151  0.5035065203792702  0.9243336449728370
  0.9951674077769727  0.5868835657950306  0.0832666017747188
  0.9971867851198475  0.4140049307670587  0.2499107027049546
  0.0830671275135741  0.4158159781774254  0.6612833763392855
  0.9970667927742639  0.5874735743981936  0.4180761326296047
  0.0003770607354543  0.5881201333806396  0.5800208514525080
  0.8328008455789572  0.4996160561034276  0.1658536594183671
  0.2487166593925602  0.4979500266715770  0.5790252282459049
  0.0801656280531366  0.6722233080401921  0.0842029282192061
  0.6699997722588651  0.6726673544733561  0.8349380033144697
  0.5790633267342725  0.4164753594830642  0.3340901235335617
  0.5858014713562951  0.5864908765799285  0.8311389754032941
  0.7471983960265077  0.7534220636621227  0.6644615731409604
  0.0813064582984657  0.7539941390372512  0.3341913760258446
  0.7407742947781478  0.4178365408108398  0.6629729119875830
  0.6654550206801839  0.4170452073246150  0.9259072522166953
  0.6654385382827284  0.5030083560338223  0.0036704519708414
  0.7481250431144436  0.6706931221223128  0.9198011439973197
  0.7483411707090314  0.5016388052254006  0.0855456226938202
  0.7481944270824418  0.7542877743364781  0.8330887278681740
  0.7473901184409952  0.5871230273816539  0.0030442018873887
  0.7476801624683592  0.7530020672682313  0.3342338897708513
  0.5809213307447633  0.6693264569279119  0.2515754219212181
  0.6644414956875813  0.9174706060263941  0.0861594099957879
  0.7487028688352598  0.5858071824354765  0.1636202219593209
  0.6642157043385317  0.7529239231166921  0.0862012263014434
  0.7474288762214079  0.5036098946524676  0.9217370739639914
  0.6641334340495251  0.8355414541747134  0.4970485327382662
  0.9984026187781747  0.5888865938453803  0.9214071434591367
  0.9150511937126833  0.2461990922108539  0.0009427023261933
  0.6638486738935691  0.6690554675555550  0.1684731902609822
  0.8315233770567217  0.6704290722125156  0.1667297224994907
  0.7482572630751980  0.8353916622058115  0.0852169820783770
  0.6644042248801524  0.6692091648201710  0.3335591982971860
  0.7479201497690768  0.6704338759817454  0.4160396349830515
  0.5806987644177074  0.6702947790466552  0.5799470710462685
  0.5812961000880789  0.8350554795707525  0.4144500471007674
  0.7474729396972425  0.7527596200507315  0.0017902727775352
  0.7461634794439570  0.5892131292291674  0.6624290887679601
  0.6649321383078045  0.6715170756441481  0.6635844706065231
  0.3399950108315483  0.6698864871633143  0.6628716324571833
  0.6649287504919105  0.7548152655550188  0.7480226873336961
  0.4174453419390773  0.6712085252722237  0.7463893042480981
  0.8300581272851065  0.6712058050477726  0.6635550044520901
  0.3319768821495977  0.7576455896384533  0.9220233184248973
  0.6651542883801003  0.5092681007382737  0.8353952168496427
  0.8289711040382685  0.9964648389675338  0.6631471952354664
  0.0826625776469725  0.8348042542699190  0.4159420698244486
  0.9975509656107663  0.7477482966318563  0.7497961608199585
  0.9978952719984211  0.6713110376993734  0.8361659383470962
  0.0799573617329924  0.6713610603817517  0.9210304954875482
  0.9144396553983016  0.9168141833866482  0.0016267141917199
  0.0005683933417318  0.3294121168204242  0.4967030468365519
  0.9974105517278267  0.8361235365966032  0.0016588997631102
  0.0690692624368827  0.4142284768718986  0.8365939388655284
  0.4137145044690725  0.2475633151689864  0.3341818013432420
  0.1675936496379554  0.4137480436432959  0.4166064310436881
  0.2492250356785598  0.4142278392124559  0.4989132520477662
  0.0765171817595540  0.4999348987830298  0.0836659022419936
  0.2455797407016187  0.1597023248138277  0.7471017078924420
  0.9961096054606799  0.7543567208779441  0.2501276760164613
  0.9134227720546630  0.5859642326865545  0.1640596539895806
  0.2482414684708516  0.8386713868822090  0.9204336968859433
  0.8329846619435808  0.2466875686188842  0.4139498450001528
  0.9165775792727608  0.3305529870140153  0.2508133691734941
  0.9978809570020617  0.8353229782647323  0.1668745739063002
  0.7469413705431022  0.7531713002027834  0.4985072270559608
  0.8327011809784092  0.5873862669035920  0.4174740417286412
  0.2484764668644339  0.2484750393747759  0.3333515540182794
  0.0831108930624822  0.1628036881811745  0.5784322836611959
  0.0827549957662351  0.0768520913470320  0.6658022286936571
  0.0829902272319820  0.3298289923618085  0.7460028547011666
  0.1646050862309466  0.3306514867439492  0.6621133427348209
  0.3333275410658720  0.5891647765891946  0.0858532213744184
  0.1652246954794641  0.5898818912761719  0.0835602711161859
  0.9977587596158377  0.6709287899502202  0.4989121278155734
  0.9165646410803027  0.1618101517069833  0.5740390981696643
  0.2563229786112592  0.5839916183964985  0.3360289933859004
  0.2482231576888370  0.5882827903128462  0.0041340993336933
  0.0813252146133089  0.9170654082138313  0.1672303689752052
  0.1678059488298310  0.5868697825895387  0.4234848785190158
  0.0003789778487153  0.1637363404255294  0.4967902512379263
  0.1638294657575759  0.7552141046086058  0.9216308916505780
  0.0828525610548348  0.1649992249420956  0.4152815127390287
  0.9981554377201649  0.5028746938360787  0.4988750507899671
  0.0807932629284943  0.8362797256642645  0.0839637338061694
  0.6636012274436198  0.0789577836324906  0.7497013106534846
  0.9976680261745843  0.7530234881558100  0.5818483504926691
  0.3337315102301437  0.7536680590231093  0.5796683789696671
  0.4185438426491325  0.7551423459520762  0.6620531432785995
  0.8313833363201268  0.6710637925060952  0.3350172763653246
  0.0003432147882286  0.5875896713734051  0.7495141973682649
  0.0817956821068753  0.6704622521059109  0.5810178977168343
  0.9135281038678517  0.7520235989961080  0.6651495598515705
  0.0760197308865447  0.6695626447345410  0.7505774267922335
  0.9970337665302519  0.7521534257776444  0.9196401684187336
  0.0810729634029343  0.8369205422417657  0.9198980816125018
  0.9150028058333214  0.9990213203390392  0.0849007501549943
  0.8321444194290539  0.0786305251612349  0.5787518961585492
  0.1654921805854813  0.6763099879143977  0.3340717491685506
  0.9154888556695493  0.9975188657788923  0.5777012066426188
  0.0815665987873869  0.5873157661044479  0.4987854845345038
  0.0007697952278439  0.0797633004879212  0.5791913410060021
  0.8328891971198704  0.9994012430085970  0.3326431850730627
  0.9992792209105891  0.1609079705384369  0.8364954568002494
  0.9153388961686496  0.2478944390337389  0.1683179899436041
  0.0796465242325154  0.1631636131477172  0.0837661146954403
  0.9168758469799397  0.1648723016266163  0.2506974440983755
  0.1646832680482289  0.9167325322165081  0.2504638098075348
  0.0006839182002393  0.4147436447829477  0.4144401896208193
  0.0828159006145460  0.3301473592120985  0.5795261593550177
  0.0823564141006212  0.9984449306684354  0.4152494810920052
  0.9992000228421672  0.9985242343024993  0.3322515197417287
  0.9158570059655915  0.9984279760483050  0.4146025957841784
  0.2479864669112745  0.0817666813721535  0.0032903333057919
  0.0821049464076538  0.9981555324006223  0.5804717813219504
  0.0006360723115200  0.2468672285615925  0.4150797970649054
  0.0824241925032937  0.9981908762281519  0.7511060496056181
  0.9984923549107924  0.9170235855855625  0.5812857539553471
  0.9977183126842579  0.0797327813094673  0.9193895315714073
  0.9999714369297805  0.0814280998222779  0.4155311385690760
  0.0807181732873694  0.1619564672820257  0.9198649805752644
  0.0811497923484245  0.0786405741124905  0.8358325845067139
  0.0813404404657690  0.9983657519049336  0.9199284268941789
  0.1651473386214896  0.2486943385513076  0.2494653860116125
  0.9966758067464895  0.2463363974516185  0.0851389326157251
  0.0815484303210081  0.9992884764886010  0.0847060732329161
  0.9978267793855362  0.1624399124966286  0.0023257062861310
  0.9986701410198199  0.9995097134762869  0.1669934758028205
  0.9995143858999884  0.0818397700709214  0.2505492905406665
  0.0813305127352251  0.0822212727994821  0.1672501883421123
  0.0789140055898701  0.3288454845073779  0.0843023616594600
  0.9983304109984056  0.2472287825842882  0.2501770910774995
  0.9949018144555880  0.6716147807237218  0.1653659490404445
  0.9972003141245039  0.3298267254395312  0.0030229970747666
  0.0813485835156881  0.1649027748184950  0.2496330283127919
  0.9956593666794085  0.4148221100835844  0.0845570274090382
  0.0842975990449706  0.4147158481831884  0.4982066293241943
  0.0807677545343362  0.3301566101100087  0.2480268070482124
  0.0829261945492191  0.3297686838347170  0.4156893744535585
  0.9167674949235955  0.4152851179308080  0.4874381548041625
  0.8330781111083655  0.9992357103676934  0.1675050373252588
  0.3319225853154489  0.1626388041266007  0.0026221654313256
  0.8324205006375008  0.1628635868509181  0.4956061790677277
  0.0007244697557313  0.2462696813258039  0.5787600165365036
  0.9165975819600101  0.3317880537590029  0.7485032994282137
  0.9997556895548203  0.0767750379000443  0.7516431644835935
  0.7464160022038429  0.0783856695976443  0.6637688724179300
  0.4141164081526538  0.3292837606072271  0.9208667530804884
  0.5813840888850077  0.4163728081425001  0.6651300646992412
  0.4957773019124738  0.3320601850366412  0.3339802536495364
  0.4983644061745844  0.2405443280468945  0.7465941591080839
  0.4153620499953128  0.0804135345515903  0.6641934314998053
  0.4979055101322811  0.1612349982302148  0.8342219370387706
  0.5820600767213249  0.1623518371861172  0.9191546274282490
  0.5804501489219018  0.2390694293398790  0.8346865267649473
  0.4972644164974485  0.3301748945680571  0.0028550765926380
  0.7537554370426830  0.2477059445811689  0.1685322300371419
  0.5809115773154150  0.3276436462665279  0.0851297213817387
  0.4963845920192394  0.5003633397137901  0.3327678102421192
  0.5791185111787562  0.3315603154856705  0.2529508224532712
  0.4939516398076462  0.4163705812480346  0.0858509023207370
  0.5798304685283245  0.2475255787929057  0.3329252246149048
  0.4965298539904703  0.3297393434999457  0.4964752743640610
  0.4157800702258750  0.3288090011040986  0.5783816246318326
  0.4133551438161989  0.1616576488584879  0.5803453233879717
  0.4165363351592729  0.4146216380344381  0.6605360525588558
  0.5815797898201298  0.2427379322209856  0.6636531638112457
  0.4160676707861561  0.5856658808701108  0.4981241536755350
  0.4154794209826830  0.6701457803705686  0.4158397779524354
  0.3310347517682658  0.0001072035505905  0.4975357782479194
  0.4141621871047533  0.0810039206209589  0.4971775762508189
  0.4986351878930068  0.0811901393824862  0.5801625069567228
  0.4154520317012829  0.0002328273424139  0.5811408061149723
  0.3340288703926108  0.8385429489783390  0.6639924307509013
  0.5819914833695145  0.0811749571658912  0.4970465029132758
  0.3307742140573052  0.1608172935134954  0.6630046252421640
  0.2493755949080707  0.0013901101245237  0.9201644057562310
  0.4156841630164665  0.0000371103475696  0.9184856807124961
  0.3334360027309071  0.1599500755106453  0.8342212662611687
  0.5808955554358614  0.5861578489955329  0.4968245050058742
  0.5811859264410957  0.2471374745818194  0.4952924822616601
  0.5818328243257898  0.9993787030795532  0.4146331117454763
  0.4990455188702304  0.0002463814945616  0.6652365676045827
  0.0795997929209134  0.4143593226275817  0.0048624227462207
  0.5809096391873945  0.9991880251485455  0.7494919493591428