Cr H  Ni
 1.0000000000000000
    38.7169076500286806    0.0000000000000000    0.0000000000000000
     0.0000000000000000   38.7169076500286806    0.0000000000000000
     0.0000000000000000    0.0000000000000000   38.7169076500286806
 Cr  H   Ni 
 1596 106 3725
Direct
  0.9305822031480677  0.8550949189180763  0.0093095458887294
  0.3298192895140719  0.3711025368609115  0.2923465609788578
  0.3441485220660975  0.0497388718277622  0.4220737109085381
  0.3865213128558027  0.0056580569690391  0.2821407460168784
  0.2769270902264250  0.3734630264604694  0.1622668594673663
  0.0234171949846606  0.5152239645595024  0.3183433393762129
  0.8956847839685892  0.3847316862504587  0.9695666990130780
  0.6445409413613115  1.0017323916519898  0.2448233116811322
  0.7821098247491985  0.7216163597998835  0.4433456153465173
  0.7196815123726010  0.6911275360101752  0.4389363616435924
  0.1909739941440050  0.6254086863465589  0.5170364587941324
  0.3754610202838925  0.6837686010756853  0.6807074176152453
  0.1055681601842626  0.6515893724100370  0.6506874763081039
  0.8149933334535615  0.5936273225158067  0.3994297121980392
  0.9256286494624086  0.5915583593072453  0.2024403329074269
  0.9789677937963417  0.6070538360338809  0.2738078394517949
  0.8666520853104296  0.5647033575812104  0.4219554239241691
  0.8632886930118362  0.4991741624472406  0.4369040024786254
  0.0201353155313967  0.4524332781723057  0.3344758588864050
  0.6497861723586492  0.9313942436649800  0.9595617961917638
  0.9135901635331826  0.4382940655185645  0.3590034200448956
  0.3615920870494242  0.7286283423851156  0.7283101267994390
  0.6078415520786056  0.8507186281097953  0.8465160611288366
  0.6961200100348670  0.0157258871757649  0.7666573016988628
  0.4709176037895797  0.7591016982432184  0.8198332331725712
  0.5593185821388146  0.8136775437935266  0.7828522892397339
  0.2591107982831836  0.7538010473374496  0.9154810452439386
  0.4833476798019871  0.7473837468370479  0.8793634117054424
  0.3599957615934203  0.7988891620406560  0.9463187439844827
  0.4366836608815057  0.8290266816986471  0.7411060950122819
  0.6161913048372776  0.8184145971232293  0.6453245379600346
  0.7911846356527198  0.8205614284140532  0.2437603002107004
  0.3196829358548705  0.7513167847038222  0.9363755935245774
  0.3831916218523126  0.8230884535952256  0.5562916738019442
  0.2819027505465491  0.8557295643955577  0.9655926286983202
  0.0299992099201201  0.5487741845118751  0.6481524181172502
  0.4027935604029751  0.7463704161128164  0.6297987709849501
  0.2669017430533506  0.6525644328206078  0.5909358520574173
  0.0773258046418482  0.5869391695820100  0.7097275850763978
  0.9900996941947705  0.5320334082649633  0.7478831018756249
  0.0879558452031290  0.5755213968399111  0.7709668838925090
  0.2492197495356904  0.7656176397630904  0.8521076964733970
  0.2286144943412636  0.7863373965737385  0.7288623080171674
  0.8293050810984673  0.7022002045676657  0.4173131990017374
  0.5481504762205948  0.8913303773445149  0.9317925486525556
  0.3811079065017014  0.8500391605906186  0.0496195377158601
  0.4261321981459183  0.1849563974829284  0.3738651492880960
  0.5185761803923584  0.5807362327214777  0.6377129785034557
  0.0114724155907805  0.9456359371367263  0.2836083180478737
  0.6688291086824065  0.1084360032384841  0.4991340658765866
  0.6560805894933693  0.0528143707220127  0.5274723752650486
  0.0215127263408740  0.3606151773712685  0.8076033713437671
  0.3259887063380781  0.3581197963879015  0.1273080962682785
  1.0052967201938963  0.2533911012656788  0.8237183139702006
  0.8406115826285736  0.0646132820881921  0.7531965311000597
  0.7710053272044016 -0.0022096451010518  0.8634130288051103
  0.3515558805427831  0.3754559941324971  0.9562001290700199
  0.8355497296737788 -0.0133201651414862  0.8949677312477252
  0.7900718434149484  0.3421678616960328  0.6779611444624697
  0.6315983288593513  0.1876686662915498  0.2193230671925656
  0.6272160534393865  0.1268461530213027  0.2377584045922525
  0.7554485268269915  0.2539768682422557  0.5767983488912730
  0.6231051520224520  0.0802409999842969  0.1905094880672473
  0.9389506767420418  0.5619385609624121  0.8928315584406789
  0.0754452968806995  0.0206565770017514  0.3426457596746227
  0.9529538990327044  0.4817464898731272  0.7444868721770946
  0.9032463277565800  0.4421625675578945  0.6801872002928905
  0.1117078593270586  0.8830831980584454  0.3415132902091071
  0.8231668645488841  0.3934370544217701  0.6818571646406643
  0.7586658529032895  0.4024651071605800  0.6474581136875448
  0.8152534030405998  0.4046061850967794  0.6207811192633236
  0.3769677733460537  0.3266652505209198  0.1522370488790512
  0.9369963144424996  0.2251177469207521  0.9721819718708180
  0.8861082707175166  0.1361992444616817  0.9225229822430177
  0.8070717268575435  0.0193787837972292  0.6554896109538511
  0.6175035523927430  0.0339056383894953  0.1440411528503506
  0.8329778553562724  0.1389831474764762  0.9038322790086971
  0.3729757823723382  0.7161055944752311  0.7896030044465144
  0.4094153824655953  0.7652982625788863  0.7982053599547757
  0.8452649786286756  0.8205680564172382  0.1493514718951875
  0.7641216769429411  0.0061882418844773  0.8056130254107180
  0.0582410376828746  0.8672895170283761  0.2682902483392072
  0.6217281603157864  0.0363918866179952  0.6817953435529341
  0.7110169948002930  0.0771722764344913  0.6604693828618642
  0.7141092585503616  0.8937397340109083  0.6488125042504359
  0.0927628695751166  0.6843058210648584  0.2301930569648523
  0.1930206721697947  0.6371018335010594  0.2231816369085849
  0.9677388276392376  0.2368035568346614  0.9273247905263675
  0.8965731720028792  0.2547630659752284  0.8414297075994753
  0.7742510951744903  0.2691038275731915  0.8018890906502697
  0.8073892987341215  0.1665570235093564  0.7775879120159797
  0.2942205522944843  0.5783674381237893  0.0553057311036589
  0.8342450157830323  0.2276195450668571  0.7179188318033056
  0.2388951487636803  0.5581851035911377  0.2075429821692038
  0.8075048228618265  0.1309842938201384  0.6707268436372398
  0.3370939246069189  0.4651870085840555  0.1554995597508937
  0.2818896855706893  0.4353783296850601  0.1458142050289234
  0.7917955724693491  0.1336978734974951  0.6108769167025708
  0.7855738402776216  0.1134151338169748  0.4617552170252473
  0.8887167476611390  0.7296082778684265  0.1959312927122669
  0.0293899291314805  0.0147797536025344  0.6764488584071057
  0.0202003629779757  0.5926430572625048  0.0161063469123208
  0.0747918212734600  0.9364419340065887  0.8180464870995707
  0.8531592895322099  0.9153996734635085  0.4692325764234051
  0.9106459311373488  0.9589742389713973  0.4192103868307868
  0.9850434582896026  0.6683796551867639  0.6081125605451957
  0.1779264139071133  0.9875595148796722  0.5065588217338440
  0.1863532433770022  0.2340275910457763  0.8898915978863344
  0.7504713600667043  0.3905593724596477  0.1480857655988450
  0.8094166589315991  0.4533931140428076  0.2614692277363378
  0.1727663508197994  0.9270610472182927  0.5208249059471480
  0.8568398221282638  0.3902949446018711  0.1836954959735697
  0.1363538484993745  0.1952624053261351  0.8236733449487604
  0.1517375791285264  0.9048494841215059  0.5762254955202676
  0.8561656370090821  0.3754748210251587  0.2428797473151224
  1.0012966878200684  0.1880032690635901  0.2299110745883702
  0.5774728038108373  0.9529853318209831  0.8746097447042381
  0.9565296061656932  0.6021327242746189  0.6688539573990711
  0.8236994504077780  0.4782229397135724  0.5384926383508921
  0.2902947897969368  0.5431783299969076  0.1744924743764745
  0.9195724465003376  0.5527206202133287  0.6672115884963494
  0.2455030283421204  0.6520453206890080  0.2943855776870170
  0.2091022401290518  0.7902271396224168  0.2899028761689533
  0.7502549963440568  0.2535412232405605  0.4631274002259676
  0.1083761010601830  0.3808333654604475  0.6690386596225839
  0.3059353803663372  0.9219621919244801  0.8470150015069013
  0.9702059675838004  0.4837507179046214  0.0814310309228066
  0.2960213589320255  0.9669503758157800  0.8932061122381285
  0.3850972842703120  1.0046174444023037  0.9478459336692701
  0.3886576091568585  0.9329359767688238  0.0430314397334199
  0.8025099806935023  0.9464800404702954  0.4425880868605182
  0.3998296649100004  0.0434465752642651  0.0059561759833299
  0.8500800578313815  0.8846259536614546  0.1338836217540309
  0.7384546577167281  0.7946152118450168  0.4619614751410751
  0.7796288406154624  0.7332799109547972  0.3840977200649826
  0.4989568424028990  0.9266017340100340  0.0765531460530199
  0.4394065010798737  0.8926302988015348  0.9532798807278018
  0.6467516869666821  0.9713267844272941  0.3730748760994019
  0.4984781959258994  0.8537269916135464  0.8672993029978813
  0.5857819640520942  0.2810594824278752  0.1772174976719041
  0.8551389755583317  0.2521910493984977  0.4978280979911279
  0.8506061385614202  0.3059111847244650  0.5405938775737943
  0.9383113364558555  0.3585595133601022  0.5624932727050915
  0.1404429577900112  0.6212602715992996  0.1522995392117847
  0.9480320131744641  0.3443982788965770  0.6198901687545940
  0.0408104740097407  0.6681893543158676  0.1589866787095331
  0.9146578857782599  0.4310727750790245  0.7396714378106117
  0.7651757373859830  0.3635597117953071  0.5555066084342298
  0.8078948570955803  0.2052386240241768  0.5514172806752466
  0.0052838257485300  0.8490994623316827  0.1960073764619507
  0.9858128918583706  0.1772371732198605  0.9449029612966325
  0.8707600294600917  0.0343063579289505  0.9381436076605623
  0.9761315162462219  0.0730448638885763  0.9643973384535801
  0.2292807723245482  0.4191952634819414  0.0740058593167107
  0.9750462232668372  0.5283471206308207  0.5254604427139732
  0.8879780662270452  0.3863728605942814  0.7041070641199297
  0.4235458576784443  0.2514058206938797  0.1307374506464078
  0.9942370100335244  0.2983043316696427  0.8659230424236859
  0.8016391633316863  0.0472802504139050  0.8557699637777737
  0.7520800084476168  0.0444056219105320  0.8994758295121256
  0.8108392341624941  0.0339720181045960  0.9233278011640197
  0.5768134111924121  0.1565342586168559  0.2090374694698398
  0.9796590027192148  0.6850599209146953  0.5468250591686112
  0.4329197663979967  0.3574514788391463  0.1612848209871448
  0.8352459410727638  0.9622810720072259  0.7291732475666762
  0.5727164695591087  0.1484480206018637  0.0387935316895175
  0.8271583607382720  0.1494533162211316  0.5620319589358276
  0.4682279780701874  0.1899327670377042  0.0474932445735173
  0.9439897562789580  0.2260279647502307  0.6984245042679630
  0.9437021525249560  0.4607036700558950  0.5812589000874101
  0.5294176055400658  0.2663222634249662  0.1071674450698990
  0.1373192670416226  0.5748099703975467  0.1120032605298314
  0.1760146132606364  0.4359288085072004  0.1128958806062066
  0.9286031202978189  0.1525631495980866  0.8194897016033783
  0.8510123677828286  0.2988095950255106  0.5980199705362065
  0.8604949525051870  0.2882437497603726  0.6582498351419654
  0.9210506043292399  0.2820576230733738  0.6801179285085204
  0.5118488485478967  0.0539325767558315  0.0354071584079353
  0.8647818200115790  0.4261988292245770  0.7801349756040943
  0.9710628458664892  0.3218682245423992  0.7434585819911568
  0.9983489893664196  0.3839198110040283  0.6845750030755685
  0.0973032514974341  0.4095241955680444  0.8035901330397551
  0.9972735544580703  0.3997447574271171  0.8849242061758653
  0.7361162464996980  0.1299911340287267  0.4974781289142074
  0.5167807814101298  0.0984300945564731  0.0890413668737215
  0.6272810587136520  0.1742151808785937  0.0525462159176792
  0.9751566588651517  0.4242230907648865  0.7611147129568623
  0.4696918748356521  0.1737124582393050  0.1104513610387554
  0.7837133828722196  0.1848907054951885  0.6552644984513412
  0.0010316957783570  0.8149588069768219  0.0913277550084618
  0.4613895356661644  0.0845491844069269  0.0165282806033721
  0.4103183375840885  0.1020668837637726 -0.0066701274054531
  0.4162237294402263  0.1608916490046967  0.0352856220156550
  0.9100899367185220  0.0464947963518090  0.8359386972023932
  0.8988487326366257  0.0920496359151053  0.8803907867392533
  0.4139854031185142  0.2408271977689998  0.0211281241766608
  0.9993192442361480  0.1348955146939530  0.9053937458431134
  0.0486513746557592  0.6289736501939298  0.5253530734228086
  0.3857843330847554  0.4188027108721500  0.2412335643684750
  0.9617672409070632  0.5717093746670757  0.5659771134738093
  0.7412566607024739  0.8563616309294959  0.4459303104929566
  0.8018554339363744  0.2832596705051408  0.4749902194563777
  0.7936317370101797  0.4438509234324897  0.6977266040847226
  0.7936126218926749  0.1898191790569566  0.3831584611419406
  0.7299070359732045  0.3482962709683499  0.6586403571836669
  0.6702420348593724  0.3572134208683555  0.6385205473684461
  0.7185694967094878  0.3608077607943543  0.5991823973947458
  0.7049109779885929  0.2619503209702574  0.5571713810310985
  0.9640005173344158  0.6539129305769112  0.9399743741472237
  0.9186247757607868  0.0205870591971381  0.4021881931304955
  0.9758773115721703  0.6097657684459384  0.8969153605500926
  0.3300808328085618  0.8916137608996030  0.5811712025878593
  0.8910833024101769  0.5230342387450889  0.8269721402053084
  0.2114359657651031  0.8038440062692753  0.4537810521795138
  0.4047042780803849  0.6654544313647588  0.4000021176749863
  0.9371403779411746  0.4078572580389428  0.8638415568693689
  0.6745455432443932  0.1891131221292946  0.6759064019596495
  0.3139538931535074  0.7896404745377642  0.3239885854758320
  0.6392078200206585  0.1404174191744141  0.6650083646472413
  0.6513379250769290  0.2205540690192977  0.5567181134205940
  0.2066050023099395  0.7734003204012236  0.3504338687124610
  0.0338447375675841  0.7028496858901424  0.6739039158525816
  0.0209396395262266  0.7389361882920989  0.5509767430322010
  0.6985837431672182  0.3451630040398341  0.4239110032767870
  0.9149198671752696  0.4967559247991631  0.9467210620607438
  0.2724434279141748  0.8963946739545375  0.4501207297291001
  0.9288836632068986  0.6762654953082635  0.5908638687917863
  0.2237575138831105  0.9149498112924929  0.4864467362068389
  0.2171684904432757  0.8662914222443526  0.4397655182093349
  0.8055604716102933  0.7029777338162477  0.4915610731766582
  0.8313845551955168  0.4965117188192143  0.7018553353145564
  0.8798572946254680  0.5341532281251844  0.7681587840942349
  0.9364922830216151  0.7995900919580620  0.5768334613331098
  0.7702413833882980  0.5373459560032139  0.7851416165807237
  0.8507316034216232  0.2040213616732190  0.4533656854908367
  0.7397347543454362  0.3374161745760562  0.7212343644925847
  0.7023908618797259  0.2872882054176057  0.7184681652302749
  0.6423502136682387  0.2945425128000340  0.6974615777553459
  0.8938346191841348  0.1257289907595555  0.4375491888898785
  0.5906183240304570  0.2568808168375704  0.6357905534223622
  0.8718356979511905  0.0860301391828202  0.4793293090441787
  0.6388812902983024  0.2607516516813374  0.5927947546189025
  0.5422604761391280  0.2061349704332450  0.5768663521712094
  0.5488200860709980  0.5115244615374595  0.4949179470168022
  0.8874570383952934  0.5516001342757976  0.9398517850196919
  0.6499733442379797  0.4683653393484878  0.4819426958580661
  0.8538182158907487  0.5052190064248220  0.9245253443685713
  0.4535059530991548  0.7334689928123013  0.9840342226392584
  0.5729252436628084  0.7248015058980618  0.0834423817193369
  0.9225080790567074  0.3515344110573489  0.8852029291580985
  0.4393412118358764  0.8966898521149674  0.0573110017889357
  0.7049065863827551  0.0054242930397387  0.8311913679816954
  0.3988215192915808  0.6069017852400562  0.4182370828033042
  0.4472775555454294  0.5429243510985620  0.3371690733815786
  0.6890577196647995  0.0899479329854419  0.9256917825163880
  0.6806688990555626  0.0602885278220952  0.8145947720700356
  0.6100996367611504  0.1158225034808347  0.8367590639820115
  0.4434087184620644  0.4654327956854190  0.4138363732535060
  0.6333052697600378  0.0243587221890353  0.7464461165322379
  0.8012592507178981  0.2442123159581821  0.9233737390874046
  0.3183953071182354  0.5612596383303853  0.7961806643316197
  0.2562792146088635  0.8827909991396176  0.7793433470895964
  0.8099615617270916  0.1994655825917158  0.8816465592761745
  0.7090450190199565  0.1239613451157046  0.7560874150681711
  0.7198383101216109  0.1115811900847969  0.8179280952244318
  0.6474450801556385  0.1313937879422318  0.7337529796969320
  0.7215142510126564  0.0765262291042754  0.7173195526693426
  0.7343758719811321  0.1289335649886683  0.2702851745348508
  0.4989193733954102  0.0509571684929841  0.6397096965660886
  0.5384203507139487 -0.0381481824998768  0.6334570123015154
  0.4884794521141756  0.9373240292420527  0.5642802032555404
  0.1717191523671962  0.5111141755189839  0.8098935342261221
  0.4917772746702445  0.8874240596036503  0.9714817088699146
  0.1619005383241787  0.8522812742975032  0.3679407988551854
  0.4642635841041182  0.6770624741945507  1.0042686633816509
  0.2691289731415622  0.5562571356890854  0.8359476498711210
  0.4212783092785657  0.8528374914704769  0.1114964542356255
  0.0905507121877313  0.6767429384584552  0.5233747708627492
  0.0973273280355361  0.6635461677078640  0.5895645971259177
  0.8491646736269427  0.7385613001074796  0.4669712912734569
  0.6560236199434665  0.9298436352000891  0.0185095630334324
  0.3382167105312469  0.8541040483225163  0.9288110835811690
  0.1407012256085458  0.5175045517809790  0.5248139058777795
  0.6518409615353659  1.0066068096522733  0.4822070647470770
  0.1791139205784514  0.5980932478699712  0.6298084264037976
  0.2379441499492987  0.5913090459521743  0.6503305827225834
  0.9203425050958809  0.5289026283015887  0.5055342765447591
  0.2478515646483971  0.5795277015214606  0.7119233222468330
  0.7860302200615084  0.7422286676003998  0.0917299994965098
  0.1040942245152376  0.6827858225274503  0.7572706370554669
  0.9723378402284274  0.5610858802463781  0.4572668711593882
  0.2956355459972113  0.6173599008864190  0.7791610454872731
  0.3554525014712920  0.6104720991353917  0.8000706235291279
  0.8595126114218390  0.6119906647099573  0.4629216733414515
  0.1914921478595165  0.7386628738090388  0.7210431327323360
  0.8318482501809467  0.6647099727670960  0.0770137782722675
  0.9278278719342145  0.6054780161129285  0.1437183339104606
  0.6239097533073439  0.7110648039972953  0.0465239453597617
  0.8323674256706977  0.0500849984422397  0.3837466589167666
  0.1799235572332742  0.0798505971517555  0.8640414420535117
  0.5049734555522881  0.9388758836478190  0.6846339901946987
  0.8768852815106855  0.6683013313884281  0.6314981807885143
  0.9329911113337529  0.4376513939131881  0.9699477107338208
  0.2992922224768120  0.6679016486667593  0.3651657353111975
  0.7169492998617044 -0.0272661012327733  0.9662168377140017
  0.5891993123584643  0.3122609741751373  0.2831555657827665
  0.7500980252162278  0.2069729500607320  0.8624468099781818
  0.6218711355648759  0.0849587368892849  0.9594359155774500
  0.8622972128360592  0.3576339063436355  0.8651400806821301
  0.2920711382716771  0.5741120102734726  0.2792506869392830
  0.9105946867085909  0.3624316904408845  0.8269999029718919
  0.3989167327588829  0.5892827622840194  0.2506562233478806
  0.7618397176709248  0.3136251594989507  0.8424568952421102
  0.3459129998303174  0.5900659916676518  0.3489353116239000
  0.8608213293324203  0.3243477632018325  0.7619221698984530
  0.8002653610736381  0.3312348987466073  0.7401243981578848
  0.3386593358289127  0.4957629248816153  0.2603398470066348
  0.6917440627289303  0.2986151876586043  0.6560076653904808
  0.7212177281102188  0.1896843165724046  0.6359851274555872
  0.6620775232724183  0.1989091123202644  0.6187476801414853
  0.6462346871978469  0.2377676527141984  0.4929580684702990
  0.0866772720978577  0.1535292205067025  0.7603099766923416
  0.6898296741523267  0.1490971120546788  0.5431271235517179
  0.4406715267617221  0.4342859716473625  0.3109692905164418
  0.4524851534856051  0.6374978132868284  0.4283122510134306
  0.5427677469494849  0.3899427205193568  0.3024304752439816
  0.9852780563003493  0.4440853215837449  0.9243946122076758
  0.9246535589258215  0.4516117738892904  0.9060511936152384
  0.9750994229645503  0.4573211321846161  0.8653411282288536
  0.4826837718178926  0.3102908732332957  0.2489125457859463
  0.7513997980964189  0.2910101053878361  0.6770967424583865
  0.2136297565082023  0.8363618276554741  0.3327397072936817
  0.3958301960198496  0.6141682331566579  0.5327227239562590
  0.7502425105769761  0.3141538568697579  0.4510377555281706
  0.5565048747267536  0.0979271136059044  0.5286081630578263
  0.8002818234818102  0.2982934772178277  0.4150414741005894
  0.6795702144604325  0.1368410737294390  0.6244068627967330
  0.4895373396464593  0.3695970484928024  0.4623952142589532
  0.7558507055395265  0.4289098187026103  0.8000743600064149
  0.7596826967102933  0.3925730487966869  0.7019003648767212
  0.6248597033792007  0.4201309291995243  0.5936105786657393
  0.7076252954059222  0.5025891006440961  0.4938361763075796
  0.7172435054171334  0.4710152841578599  0.5583394891014238
  0.7064697691111406  0.3842231601483040  0.5329261063453270
  0.9923873779654204  0.7174093888715805  0.8835547164120641
  0.8439831399257344  0.6687025794959942  0.9005549500244782
  0.5123769687376678  0.6826353728838078  0.3689568259186913
  0.7159628342997745  0.6082364957454248  0.2920789451839234
  0.5011663052886095  0.5602114887082471  0.4078389440461107
  0.3831413640018698  0.7061546539063284  0.8529746706408691
  0.9462057060389579  0.1733849948759529  0.1572493312806417
  0.1670537702850767  0.8297090743827016  0.8126413745590569
  0.8880672023366806  0.6949233086201847  0.0877696034028254
  0.1755546071400149  0.2103767112015801  0.7229591797924425
  0.4769034267139985  0.8506306190490786  0.2436265897775808
  0.1258967750144480  0.2050648822552043  0.7624386335438856
  0.4335493244300532  0.9441946176821144  0.2000898719381688
  0.2246517256857356  0.2500465835840101  0.7880467308112872
  0.2024833726025364  0.3062429025334027  0.7708063097661320
  0.4796027631893098  0.8968070369225686  0.2875753340793599
  0.8231983339727854  0.7964015019759800 -0.0172954090859385
  0.2963917124263814  0.2314598799719458  0.8716341212267519
  0.2748464307582288  0.2888590714929644  0.8541105013385766
  0.0490627115753835  0.8095273837490298  0.6561026416842467
  0.2805907671028117  0.3259403142198394  0.9596086789748627
  0.3467108036454110  0.2716371675339110  0.9368928042899630
  0.9951721481504588  0.8255454796720255  0.6448444353128238
  0.0433951436539276  0.8604763094424828  0.6123373261632442
  0.1507551639529498  0.8198031733273680  0.5814203599104865
  0.0229315650035455  0.0429599626262245  0.5434182422205357
  0.0474688551713827  0.1054079003984501  0.7570340341101230
  0.7757746963063986  0.6859074701781491  0.3445050086721333
  0.5002555030777212  0.5422482909772780  0.4724914949039635
  0.8574870618434148  0.5914240156787478  0.7521492517917513
  0.6896162845407439  0.1600782814185601  0.4743604770744713
  0.8100147026838088  0.5533403272464797  0.6850836761127954
  0.5448791875861037  0.4209583678868029  0.4060961057811698
  0.5940690996317144  0.3298156449972776  0.4498550663011438
  0.6410976268423573  0.2675386491527901  0.3691824875966890
  0.9555391713824934  0.6350949420754612  0.7743191990976541
  0.6871588100536338  0.1904975096745608  0.3497380792994790
  0.8508169223775738  0.5715808609831929  0.5835916140264759
  0.8984462727190839  0.6099539863814134  0.6491839699923436
  0.8375200642827622  0.0820822874661219  0.2597376354634703
  0.7905211338163581  0.1454103523651847  0.3398585251979599
  0.0996655241178150  0.7144652540014441  0.1001465209218592
  0.9663887638673841  0.2032227853629725  0.8216534001490037
  0.0157138838386426  0.2077568250980669  0.7820347391350170
  0.9478347498522874  0.0956419868980806  0.8396632177906305
  0.8782993436697615  0.1141464344604968  0.7545282286455888
  0.8673344005403536  0.1240292138177312  0.6927596902821289
  0.2325561717274455  0.4845330217665494  0.0551000509898290
  0.7618258356055687  0.0598973549566255  0.5656348743897083
  0.1824953523210987  0.4474293116535282  0.0519864933634017
  0.2653172993090365  0.3502940586281315  0.0529138662903502
  0.8928813284610423  0.1831233980153925  0.6339141556008502
  0.7370285319236286  0.1443462286708706  0.4355475413029202
  0.0729699921031471  0.5020890557118609  0.8888807922969294
  0.6132177426309177  0.0233918141347813  0.9682432151515969
  0.9506098340213406  0.8206372612864020  0.1871571893881592
  0.9961318060277118  0.7081466119323276  0.0661592301707672
  0.1099264731214871  0.8555034328645119  0.9767932384395227
  0.1070152046752557  0.8355652393807034  0.7889340822333231
  0.3465281662475089  0.9767148826745413  0.1891839110054569
  0.7926297379538872  0.8334170048255305  0.1817508192803376
  0.8740467431321317  0.8779981072849788  0.0380481797002485
  0.9475252536779835  0.7713988269334392  0.1433852377839931
  0.3785553169437257  0.5527602271277496  0.8178781624578302
  0.3527604514579994  0.4922984086425788  0.8753390770690432
  0.2275052749932768  0.8548724021475641  0.9439081191050206
  0.4516149969124040  0.5354933448852881  0.8977470484642163
  0.8779512725158234  0.0048928293264364  0.0122483331988889
  0.8322980095948845  0.0844377671166815  0.0257922367674895
  0.2802872704255655  0.6078332518899038  0.5464102244855811
  0.8197262946230802  0.9573299066284465  0.0669430184733786
  0.9455351916781788  0.1892220013720180  0.0968642279758721
  0.4167101611367344  0.8040068746168774  0.0661297769531512
  0.1061329229998690  0.8685141934669462  0.8993699883586108
  0.4719262781855841  0.8197766763869888  0.1367093446974043
  0.9518597221201534  0.8345757211143208  0.1259963478781159
  0.8384131268668772  0.1915828882581145  0.0604603447456475
  0.9858167619795812  0.6522035460049396  0.0929375326486879
  0.3645014559661454  0.4823325690312916  0.9336088669675614
  0.1952167427848311  0.9237921205941992  0.8640046737439960
  0.8922715581658326  0.1598015834858801  0.0878177482283216
  0.0975933874640455  0.1090968203624901  0.7158265614483917
  0.8476194591086429  0.8663039560147094  0.1935236300864784
  0.1549640058705455  0.6943144994555347  0.0654224659159590
  0.0472511020526460  0.7455808813101348  0.0108184320046705
  0.1623204272196750  0.3525061724487614  0.5262715178845466
  0.3799772287855284  0.5180927924051297  0.7131006805557720
  0.5198318816056255  0.7417206643961904  0.1189266333825045
  0.9354602922340444  0.0336839490898927  0.0219904530007731
  0.7746702577084962  0.0699207691798483  0.9559019327378060
  0.8868029960779352  0.1110253827895076  0.0419149369429428
  0.4038850819490373  0.6493836470015915  0.8689202359274647
  0.4226213409707013  0.8366863750526694  0.1725885010325535
  0.2459840122723723  0.9599361581311064  0.9879585840937753
  0.8699393374176573  0.9265534453668994  0.0908662364765134
  0.3124963911900399  0.3042847305935804  0.7518580772436382
  0.2443548713531815  0.9625071627411486  0.9308016594392865
  0.3367697980972610  0.9369947483282416  0.1537588585654467
  0.8359786369217829  0.7116522131152918  0.1213005452106202
  0.2676600889766847  0.9100396230001516  0.9463195861422093
  0.9958578886245825  0.1583677863909481  0.1217889882016377
  0.3614215076806896  0.5430245121495325  0.5922556558114703
  0.8924822074124681  0.7556359032629877  0.0701821661326974
  0.8137089771664207  0.4979044314136571  0.0800750914945671
  0.1535805428021689  0.3015723558143005  0.8099889561815298
  0.4923464179661000  0.5365401782357231  1.0167620697844415
  0.4179517294311577  0.5695521428107960  0.7163980803252092
  0.8153385678022059  0.5093966800998230  0.0219108115534527
  0.8587193255950998  0.4202357706247761  0.0642750671324008
  0.1147628879863703  0.2504874528260795  0.8058743856546420
  0.8388934995096500  0.6769752391580510  0.0143893803331306
  0.0008113737274398  0.2619462164398910  0.9891625644320294
  0.3923893418871300  1.0048743335214159  0.5164398239982739
  0.0376429405024488  0.1160047887998737  0.6969906188311488
  0.8545635068217824  0.3608815081088259  0.0781288697323334
  0.7881587755335511  0.2824547352136895  0.0222186510127799
  0.7061186987649162  0.8968019875762772  0.0497840407818063
  0.6814627917441699  0.8038662592380746  0.0373055452257051
  0.0463549753098586  0.1557497763920357  0.0264050717240827
  0.1153800464743047  0.2864944390895552  0.9096776463981154
  0.6614661340284098  0.8748944608444865  0.9772529883240068
  0.4274980487453036  0.8982417195238422  0.1556196483929838
  0.2535924222519650  0.4807239638522369  0.9580990737306452
  0.1552471555626753  0.4375920240764746  0.9304294353021048
  0.1457752415096532  0.4483352719291538  0.8693587659906195
  0.8760453759944228  0.5889856116224432  0.0707084650201860
  0.1311700916316217  0.0749892248141792  0.9053384220998495
  0.1586923566812307  0.3861818758715696  0.6283828610780675
  0.0204170814258647  0.0443629252302736  0.8160988752650941
  0.2039485455570298  0.3402076481112170  0.8770533809210869
  0.6641879523908455  0.6044368605735160  0.1587804560172400
  0.0792044605893582  0.8064600153306715  0.9499024232129520
  0.9833278965927968  0.0049053194403272  0.0489539936311523
  0.0672855482672279  0.3443239349133719  0.4442950955970651
  0.4830124628605596  0.7117126877454623  0.7733359757814267
  0.8971761857247531  0.8183659833029103  0.0544996461325164
  0.5045881750703751  0.6559889552208361  0.7889776969025033
  0.9426676588836472  0.7962035899135178  1.0174944354871720
  0.0799266978694172  0.7732890796499895  0.8462144949622562
  0.0221187264129210  0.7467624599469918  0.7192193857826923
  0.4452772021876000  0.6645663741683573  0.7679119671530626
  0.1223331406714177  0.2990077372287079  0.5219438472191110
  0.2312722938451566  0.3685813016152512  0.7115070547210876