Cr H  Ni
 1.0000000000000000
    38.7169076500286806    0.0000000000000000    0.0000000000000000
     0.0000000000000000   38.7169076500286806    0.0000000000000000
     0.0000000000000000    0.0000000000000000   38.7169076500286806
 Cr  H   Ni 
 1596 106 3725
Direct
  0.0002930231669047  0.8535995674152367  0.9722392022909887
  0.5655588324325217  0.0654474891662119  0.1160035466554413
  0.5098872530966235  0.0360313965533369  0.1032348305348773
  0.4084842778514742  0.0796308743344748  0.1149514219476713
  0.0755398346144184  0.4679958318922088  0.3991815039946166
  0.1266206004389069  0.4500499847168761  0.3701424742671250
  0.4647403684933508  0.1110371187622597  0.1238576674666464
  0.1218872331590330  0.3891290252854033  0.3847374166766616
  0.2232380905640944  0.3397593435849379  0.3791208886744515
  0.1712625530751138  0.3098679917623797  0.3671051285106482
  0.3636379892212055  0.7274030510173081  0.7292628160921166
  0.2196207487507471  0.2930829393781306  0.3332282044814958
  0.4190143127731489  0.1886967325566575  0.1434004685514858
  0.1746633034749987  0.4180242741389440  0.1691451918701221
  0.2161136666429625  0.2287952192105109  0.3491775336756323
  0.3129301004356455  0.1371051899501034  0.2951201025359743
  0.0012651099826167  0.2982961974332985  0.0282212005507106
  0.4025816335542087  0.0347151202140322  0.0616521847976926
  0.2095586349607395  0.1632075936905799  0.9697322706081626
  0.3120099109550528  0.1872985424311469  0.1119113509313020
  0.3836793871242309  0.2479406682772044  0.4536569135289119
  0.1929441670988989  0.6273778064639811  0.5128249079278481
  0.4517434651114434  0.0955549438863070  0.5006843501692853
  0.2695956375277598  0.3273841779486060  0.1156557001831083
  0.4716555021385011  0.7575165987822370  0.8183051592328190
  0.5483558950460837  0.8589715694784401  0.8258263505420922
  0.2724286320619937  0.7077141135351153  0.8694542416017198
  0.5319929735213750  0.7510021706756068  0.8397340822600003
  0.3443678344927678  0.8420471129396606 -0.0057035843602035
  0.4383260491280755  0.8279807516029174  0.7396176641415111
  0.5468821320322788  0.8257895307862116  0.7186953428218387
  0.7895357080620401  0.8177289219736555  0.2450165318541783
  0.3230985113896987  0.7486345895553862  0.9375398052424521
  0.3314034716137156  0.7815865879513574  0.5510700568976178
  0.2819193161310176  0.8516077329094889  0.9651415511793761
  0.0353058976037544  0.5479991103578451  0.6435944659898111
  0.4044239208470824  0.7465353466012986  0.6309495085917873
  0.3168492005760778  0.6908178629361980  0.6601384712949367
  0.0809803505912204  0.5866354705635277  0.7034520141221742
  0.0305612628844175  0.5811500172351218  0.7437395290999341
  0.0894172351057809  0.5759244246483038  0.7650854520793461
  0.2501253226217838  0.7620333670265347  0.8519718897491999
  0.1426254040732065  0.7328111425637097  0.7586196733304067
  0.8324475652332589  0.7001314484750749  0.4176873132800118
  0.6045369130659779  0.8813061498505642  0.9521732761321097
  0.3906646815091774  0.8859977941063769  0.9968439755442640
  0.4013221382742718  0.1277563754813968  0.4779377244124887
  0.4563405535788766  0.1092374692603471  0.4385303484755964
  0.0099975984957007  0.9444922190828396  0.2832541254373491
  0.3670026770404225  0.8054626611090333  0.1634869193290659
  0.4588807729499820  0.1463882327255538  0.9990984835932429
  0.5749199757331034  0.1424864348453686  0.2697432015036356
  0.4792183114925832  0.2084339206624653  0.9466001428656017
  0.9666850273882752  0.4363520463738310  0.2647665143300941
  0.0064966372132731  0.8825194361188058  0.3013638294553179
  0.5036727501020926  0.5728175888608671  0.1144218566098530
  0.5497414722230310  0.6334346718064060  0.5198134160133969
  0.4130283157368071  0.7284565315492865  0.1477202684427293
  0.4066350152054898  0.2264672781744167  0.8551268585813486
  0.0640184305728358  0.3563083514073574  0.1511724247958436
  0.4267302117520916  0.2633423047048152  0.2995144464598463
  0.0070331826241836  0.2931715153436473  0.2646427475998301
  0.9653077496702743  0.4039131205857910  0.3877274466789808
  0.4308825718850785  0.3251479519086063  0.2832927980774649
  0.0153694504090482  0.3744560309462723  0.4156749112507179
  0.0117486464289879  0.3252654526986967  0.3676354085460107
  0.0636773305804401  0.3087259640962742  0.3343739095777667
  0.0097827123003896  0.2630500100610942  0.3856003418452575
  0.0598616115087091  0.2459287987451657  0.3510284575198099
  0.1640473721739879  0.3475450868019080  0.4695311187173575
  0.1105268506089160  0.2146115707631159  0.3768976220934885
  0.5311972435683853  0.3435056685592733  1.0268314026038066
  0.5003258927914797  0.0310652626421531  0.4186994351131289
  0.4437291114661946  0.9854047947477341  0.4756743710495195
  0.2112188032404557  0.9948024168365563  0.7451834882745817
  0.1338399986486162  0.5830291446077845  0.4982625050746588
  0.0748047779985485  0.5669058431924324  0.4850474200016101
  0.1322410494915331  0.5424076287464044  0.4603784165646401
  0.2109865322837338  0.4606035625984199  0.4948838821800317
  0.1397388907046333  0.4737897694915150  0.4790444418639194
  0.2743610732293550  0.3528657261142470  0.4462760263229168
  0.1029019560926500  0.7872948070351418  0.0122763263694392
  0.8742673447452719  0.1276229540058655  0.5260387952863409
  0.5016744638111335  0.4758578711998288  0.4939718552897567
  0.1681203589187509  0.9126254209180900  0.3505048385856507
  0.0735958492070108  1.0009544254370475  0.4047700925314829
  0.2999323422992881  0.0665358510992612  0.9094887716656432
  0.2484834308520865  0.0277836267525291  0.8443471693783089
  0.4001629960548068  0.1088778166637024  0.9316984642290594
  0.8772194182948143  0.0352169069397946  0.1223622909790938
  0.2336265362668257  0.0202839545951533  0.2791796583422521
  0.7657212548307456 -0.0974062509445345  0.6079055632023079
  0.3883725745270638  0.1197683548393992  0.8705844701992440
  0.2645494804611649  0.8496078871262069  0.1727180661945973
  0.2187350150188151  0.9131281232480346  0.2509603598442280
  0.3113917895778037  0.7739742619402762  0.1554680933978199
  0.2895147760867625  0.0439362699438842  0.7415207901578555
  0.6202534166894142  0.6607702416042255  0.0047999956054442
  0.4505803998111170  0.7325260720972967  0.9848058042467002
  0.8361100665715226  0.7419500107410073  0.2302882417851174
  0.0299068502454281  0.0133145169538755  0.6771110663382918
  0.0357581038045285  0.5861339341104095  0.0149956597644183
  0.0538398175805165  0.9893043010581051  0.8036895334189489
  0.8627965919396048  0.9704154575045174  0.4513663691652194
  0.9132794442541260  0.9546429680635635  0.4189787818953050
  0.9558565528688271  0.7993303378614455  0.4863104591387851
  0.1769938107368794  0.9866208389889400  0.5070085977453186
  0.1871285446651839  0.2336347553468797  0.8904538587397804
  0.8065213778298431  0.4209833161067309  0.1563012952445428
  0.8077941711347292  0.4521055592753676  0.2607465894653360
  0.1211990750497408  0.9559704411548211  0.4958306427096911
  0.9075008946385492  0.3575052848680190  0.2086927127350799
  0.1379338576537859  0.1933881865753830  0.8261483506119797
  0.1445701728249077  0.9113648564960484  0.5755903738875610
  0.8566152110167240  0.3749787004018039  0.2429108810915887
  0.0542938625249832  0.2477115154211738  0.1225900178670900
  0.4230204981995018  0.2332068331571318  0.1912820772937377
  0.0134402119966223  0.3719892681977583  0.1846894673122324
  0.4232008134669026  0.2167677551509234  0.2509874890505953
  0.2464444384871995  0.0198371339719811  0.1917741172549303
  0.5397546199360603  0.9582062496891571  0.1702917775971024
  0.0528768573819351  0.8060407359857743  0.2851582497343450
  0.4676770012746666  0.2194990318585866  0.8780882225618214
  0.3267765577671812  0.3275650277851198  0.9185857115355530
  0.8633881036187664  0.3252662746992537  0.7629347333740046
  0.3462829664643781  0.5889159377362653  0.3469575579148370
  0.8127694619645780  0.3195407175219972  0.8045266578558503
  0.3986551098102442  0.5883611886650210  0.2490963552685721
  0.9119775562652997  0.3629218580740525  0.8270043207867497
  0.3473826327806620  0.6021842533441558  0.2863707975597843
  0.8625530059154343  0.3584786258965871  0.8654835357136345
  0.6679560428613606  0.0490394685301182  0.9799163023027402
  0.7494283344725338  0.2066894636623044  0.8621590682847263
  0.5875284087643742  0.3110438045470153  0.2834375329239962
  0.7140062077057182 -0.0265048773966885  0.9695508075803942
  0.2992407852357614  0.6674582772822086  0.3623232369702704
  0.9963911062260086  0.4370559585564068  0.9894400492999454
  0.8672385617432991  0.7153546099176080  0.6828676439365973
  0.5063086272247653  0.9380544101232762  0.6855520125520690
  0.0880228901016824  0.1530789964178161  0.7613752382381644
  0.7159702154739404  0.6054937406127207  0.2927131651937699
  0.1190557191064155  0.0862625516639219  0.8456059206029697
  0.0481172368652933  0.1045005597356009  0.7589965664894001
  0.0233463006195709  0.0441252478810575  0.5431177296116056
  0.0499495002186086  0.8213934209464583  0.5724655736807589
  0.0432037780765219  0.8626247245084545  0.6110201023560610
 -0.0152120087743622  0.8343743032794599  0.5774556426084156
  0.1181905891432402  0.3709991411068582  0.2211701951783513
  0.2821633329469568  0.3243602501409362  0.9583638307096216
  0.1009659164157869  0.8152871458937528  0.6133013318760328
  0.2978140844710267  0.6161522839824295  0.7782146074841811
  0.9729114638591879  0.5634514664374168  0.4632577633926153
  0.1052932552275101  0.6842687698334831  0.7517914796134776
  0.7808941894928746  0.7242138758495755  0.1575080485771834
  0.2508933696838344  0.5782144617777369  0.7099303002904687
  0.9196378351060909  0.5306255830512212  0.5074190968532757
  0.2410127838557027  0.5906794371487494  0.6491445999907314
  0.1949664884502714  0.5509267243053426  0.5848967167301200
  0.6986616748851885  0.9259356316015703  0.4652792711074451
  0.1433490635669284  0.5168921755116216  0.5218898038131849
  0.2756084175841069  0.8594622436452793  0.9046276805643911
  0.5470606582941455  0.8643343562514582  0.9940419671585886
  0.8493478709416528  0.7355748373254818  0.4686705857463188
  0.1013585760634417  0.6618539186562714  0.5845219904126645
  0.0938268897973233  0.6746840819071693  0.5180132251292846
  0.3873763619155390  0.9084760869347814  0.1037378897636736
  0.2698851693627754  0.5548958019050604  0.8340000522252781
  0.4404245941567737  0.8945153352887129  0.0579966839501951
  0.3201202037819428  0.5601168631799387  0.7949833252267390
  0.2953850608768876  0.9321162309853521  0.7855509367269746
  0.2235935542948745  0.5143657382818172  0.7691818631270547
  0.4420143010428267  0.8540610468668198  0.0077700971276737
  0.5701317437123592  0.7258706139475553  0.0832776935653049
  0.3571993937725642  0.6096087832936752  0.7993079683683623
  0.2759715600178512  0.2877912326861413  0.8537080499204251
  0.2970665700784594  0.2304120558276052  0.8720389620804622
  0.8341886442225411  0.7387502984003027  0.0037832438377033
  0.4809358642302718  0.8967703876392621  0.2861039974395432
  0.2047736600097886  0.3054709309811846  0.7700710267303144
  0.2258889159508508  0.2491654140754437  0.7886705620107917
  0.4271249519507326  0.8833925379403877  0.2177065572883718
  0.1270014171764543  0.2040997415515439  0.7631682234593407
  0.4763686664718865  0.8512837748644282  0.2426706457345613
  0.1768486347173783  0.2087776515979920  0.7238347619529990
  0.8343611792496416  0.7269874781332555  0.0624923174737801
  0.1679551244942553  0.8275932160462924  0.8117355163804090
  0.9442310002902440  0.1707795361335108  0.1594043639303200
  0.7266439263837051  0.7126708102528511  0.3162280505114628
  0.3443478213387711  0.6560994382103851  0.8465683249472883
  0.7422432042457293  0.8495245088658682  0.4475929442911892
  0.0238086858957680  0.7298958848997067  0.5401977930670145
  0.0361741175125234  0.7015107517007225  0.6640237313049647
  0.9279521074939778  0.6046454440821237  0.1416352711967964
  0.4443340646039440  0.6950929669387660  0.8763645173715942
  0.8310491001755858  0.6647909755659849  0.0781730095052403
  0.1932290923008551  0.7376293089267598  0.7200038455649628
  0.8615946411361937  0.6122579340683332  0.4650937863594410
  0.9744468160495773  0.5592937926488949  0.6316069818215876
  0.3848345140006645  0.4182990133152290  0.2403999192607768
  0.9655898459481183  0.5739685257441441  0.5745118650516633
  0.8585549695186999  0.5948301892136739  0.7561690867533363
  0.8038866507612836  0.2829306624239986  0.4774619999414952
  0.7852550091388789  0.3913244256574700  0.7269572594379632
  0.7921546509191210  0.1903744929032296  0.3879125529336113
  0.7292337021140547  0.3514675924902129  0.6568882839168287
  0.6704884719973138  0.3624063307455806  0.6370620345467364
  0.7208296583197626  0.3639848643066913  0.5936261842670607
  0.6806748110463061  0.3110416969254761  0.5974385427745988
  0.9562738225542603  0.6564276111427869  0.9546883901369120
  0.9190693043678640  0.0168792343822893  0.4021736171426688
  0.9380268586647161  0.5627950399812184  0.8960438783983244
  0.3255198813369531  0.8653579020349904  0.4742425460071869
  0.8933136598409891  0.5247426909418575  0.8282125220817264
  0.2709722700397496  0.8337539645431009  0.4673771870470789
  0.4038725119856337  0.6657214689293500  0.3976300252672016
  0.8782484348421430  0.4143343986341769  0.8429068528143799
  0.6768352528944762  0.1945334035855965  0.6738602974479984
  0.2628254054271247  0.8050339547577861  0.3582946571130349
  0.6401108649306285  0.1424582948087386  0.6677169632156456
  0.6271599115067396  0.1535234699153493  0.6040726213890982
  0.2072545187617260  0.7756292260427681  0.3468921575952440
  0.5007391626540221  0.5583549439294535  0.4087285837252577
  0.4991348912060404  0.5421109351225164  0.4713588336324939
  0.6982293695074548  0.3445357417873651  0.4248366960652446
  0.9151322100542120  0.4981071008293309  0.9458716208474461
  0.2719073121483217  0.8959782093660328  0.4511561887317473
  0.9308988847845778  0.6796209038604358  0.6016418034373625
  0.2247597647780860  0.9152316896641188  0.4866110163785367
  0.2169456733867940  0.8666202301773508  0.4388930419224302
  0.8101932376001282  0.7002903349958607  0.4939020202899694
  0.8339637461939422  0.4995018833064507  0.7034835421666289
  0.8823988924073356  0.5369296513370340  0.7705861809511937
  0.9042728117230683  0.8163909241060755  0.5135602863565526
  0.7720619078993847  0.5388238389370831  0.7861549758733217
  0.8510168488257603  0.2053620702659934  0.4568708722074941
  0.7415113113746745  0.3408063269947129  0.7249615238138432
  0.7028964975142808  0.2902272745509717  0.7202945770861191
  0.6433093419284330  0.2970599622359896  0.6993690563549835
  0.8443038281684188  0.1454869653607332  0.4747515362467792
  0.5919754824944662  0.2590009130177113  0.6367472391799041
  0.8724849099334373  0.0800057072269365  0.4773200175035238
  0.6420293899257123  0.2649304884985258  0.5954130907049857
  0.5449589199091684  0.2165795169763263  0.5751461165321630
  0.5534106639015026  0.5133358863098924  0.4947203597955114
  0.8856912418118846  0.5533449701814790  0.9479145982904298
  0.6531021423489491  0.4663213098583278  0.4834700575749096
  0.8547394291839194  0.5075415249408750  0.9256427259548675
  0.3380531545584332  0.4948053122536225  0.2579948408535859
  0.6924663306632584  0.3019452997217449  0.6582785337993432
  0.9230707313723052  0.3515693178953397  0.8864278564234036
  0.4393969657089973  0.4335559435296227  0.3106771555673833
  0.7042303873493888 -0.0010885211030126  0.8980635430107303
  0.3995149789355932  0.6068590383557105  0.4169024911973092
  0.4484206843545345  0.5422379192797223  0.3370095246314820
  0.6886357169271373  0.0821448876145678  0.9209304883426327
  0.6892967135942871  0.0497135167649537  0.8721729698286670
  0.6097140447006126  0.1155592961623613  0.8361602621773093
  0.4431319261217310  0.4659655671632837  0.4135536872639589
  0.6321764292462347  0.0229822683824446  0.7493100970771469
  0.8000205698416260  0.2468873575062115  0.9236567364700426
  0.6675617533528261  0.1607121300168700  0.5608056301373241
  0.6479945549712656  0.2381667612106493  0.4912563088397847
  0.7709663667382824  0.1507553238052596  0.8813321203973783
  0.7087650240915659  0.1247387706299170  0.7541866404780218
  0.7196523311898696  0.1121900149879924  0.8145718530613288
  0.6484817105544979  0.1318405034145664  0.7310884207930244
  0.6606272439744514  0.0859094413319006  0.6886540195534835
  0.6812536221725294  0.1582679438999528  0.2473389615652318
  0.5002207256024627  0.0473858545352884  0.6403697627028708
  0.5420235373555699 -0.0372283521223675  0.6344655048675617
  0.4974918662085696  0.0012093350103152  0.5451613641734803
  0.6632969991063987  0.2041980786135938  0.6140030448895148
  0.7253546034541913  0.1972116426358666  0.6392008987356221
  0.1620798794315408  0.8530399836500169  0.3672889952406744
  0.4508500673667564  0.6397100602096950  0.4265776073000855
  0.5363997696850855  0.3410708706312395  0.2574661306911295
  0.9863875017293827  0.4463203099934426  0.9275317539165295
  0.9268601938358157  0.4527789019396159  0.9061102780884309
  0.9766189137792329  0.4587749327937617  0.8673553995268827
  0.4814547568206150  0.3095407215143602  0.2487520444319069
  0.7383201634355421  0.1867504879809314  0.6964224603194805
  0.2124804507364224  0.8373937759705680  0.3310101531763551
  0.3959047115550357  0.6563035914181284  0.4724358816980197
  0.6968426293157409  0.2839175399926485  0.4409602974486480
  0.5593705428214323  0.0985558694500700  0.5338406535451686
  0.8002101206334626  0.2982321848416634  0.4179148487018436
  0.7178295315205766  0.1293208752087197  0.5751070417150976
  0.4874226392600505  0.3716087126727189  0.4579271526651983
  0.7575450077035202  0.4305392106216300  0.7997098552799334
  0.7394623642280960  0.3943347547209488  0.6967653813066906
  0.6341136075516769  0.4212250916848125  0.5968162709246814
  0.7003383822951216  0.4412573299315083  0.5123927292864996
  0.6982436686141005  0.4249156931645093  0.5756201879973378
  0.6623891289213457  0.3718186774677694  0.5763248371660002
  0.0500880580072474  0.7091726642274832  0.8965932175987688
  0.9515872188521595  0.6710215721200896  0.8928649462961374
  0.5014586648777902  0.6077115771790039  0.4524562123966520
  0.8028473192463786  0.3320107922891487  0.7436251211564987
  0.8190891893427853  0.0094265962285861  0.3512202708891625
  0.8170189609474424  0.0892581608531720  0.6274926747634896
  0.1368690851475143  0.5750147099820030  0.1063250400036439
  0.5290012127454714  0.2652531449554860  0.1069198174182159
  0.9459328487234113  0.4638896549886577  0.5824873990790296
  0.8953553012785056  0.2213885195515179  0.7396110652984981
  0.4653948162443879  0.1909956178877711  0.0431909526931008
  0.8472320930221986  0.1820707387146073  0.6769585418653151
  0.5187983432096828  0.1600626061107458  0.0747187823958785
  0.8360983929903221  0.9629117522513210  0.7307168936919847
  0.4332198105925251  0.3580712060810259  0.1611758203732838
  0.9844898156582109  0.6795901772051548  0.5353079371519194
  0.5179973518675324  0.1242063127261543  0.1977149804677182
  0.8005854297970091  0.0418330032213420  0.9285260634596366
  0.7475614587170573  0.0454964649605752  0.8961007938048743
  0.7928817046170289  0.0939829716403407  0.9002894710194195
  0.9953513073364982  0.2989064681078726  0.8671483609200796
  0.3705981931152577  0.2816415548955274  0.1059880230073657
  0.8919699381453300  0.3880607111989388  0.7053651873754995
  0.9338977982778865  0.4774909318912721  0.5225329438991766
  0.2326730101973437  0.4834959323430819  0.0527628359202601
  0.9183177602254672  1.0158942258414121  0.9650617090606916
  0.8645444872883606  0.0322184025163515  0.9423793048524416
  0.1765635777643330  0.4336910768430901  0.1100532957313206
  0.9855366672383006  0.1847916789147627  0.9464923594515720
  0.9406895851148577  0.1412134954463694  0.8841658714175866
  0.8624444956471690  0.2918602544409541  0.6603206460639757
  0.9992946570186462  0.1349525356240480  0.9053802670082186
  0.3577928726453442  0.2550404053328547 -0.0017406008470926
  0.9485863037134064  0.0952030890409252  0.8408859720979670
  0.9098464925375229  0.0478094790835408  0.8372355331394219
  0.4152755137575462  0.1623970168621175  0.0357524848889498
  0.4077774139871748  0.0968846664744092 -0.0052927823584482
  0.4602783655461543  0.0843693431499907  0.0163202566658400
 -0.0014902000396214  0.8162995127532471  0.0898788805157133
  0.7735755566097561  0.2053949726208421  0.5971009760740229
  0.4699265361182421  0.1738190419113804  0.1079851614974209
  0.9762678721826732  0.4258065332862855  0.7617717804720308
  0.5713776020072394  0.1465851136888838  0.0386529048223586
  0.5144119951166242  0.0968091957747860  0.0887768755640703
  0.7199508319362501  0.1390655004819247  0.5101828579617291
  0.9987224522752620  0.4018797585506503  0.8869580489191045
  0.0391018972457062  0.4178531297747184  0.7829651073400647
  1.0005797636974760  0.3843363584234608  0.6843098214328192
  0.9726355816035189  0.3221462695936019  0.7435718097581101
  0.9015769964727212  0.3757691819376394  0.7670028222459734
  0.5110289720384669  0.0531612682457250  0.0351033732548988
  0.9230732493984258  0.2833629649771658  0.6808452475844987
  0.8541175716697341  0.3036677616555659  0.6003449637299341
  0.8212042256069190  0.0925890887171542  0.5015947036967978
  0.0030094516863923  0.8484685340673275  0.1948889456481900
  0.8121997114808315  0.5562850924847356  0.6868503910015845
  0.5926210958752355  0.3287446699352532  0.4511106905725277
  0.6404047580685654  0.2674962582667167  0.3690848264233287
  0.9571966549227557  0.6387207108355561  0.7875967054124710
  0.6862524404011902  0.1906304239358768  0.3510643194259970
  0.8542670803041690  0.5756760525253316  0.5868385357466558
  0.9008703755391168  0.6131889734723663  0.6560664882114048
  0.8310430788253459  0.0817462745553080  0.2664510608776852
  0.7772885985302630  0.0860245385220417  0.3666390575532137
  0.0976157225137391  0.7144253856965371  0.0999444154770709
  0.9676328297808549  0.2036279168150957  0.8222536538027607
  0.0172404053191316  0.2076594780500102  0.7833760867200720
  0.9387132969557626  0.1066844284235087  0.7780965830881852
  0.8677007916017125  0.1253298690266340  0.6935125795188375
  0.8291823617070527  0.0786729604375644  0.6912893095054899
  0.1871425272062976  0.5240450441197623  0.0297435065501517
  0.7642237154341676  0.0516740977564745  0.5585154802717399
  0.1842316536177439  0.4470177872994065  0.0508909890347668
  0.2555916567014036  0.3568673364681629  0.0410107872556092
  0.9561938675610644  0.1796228539788834  0.6573748020048090
  0.6862528451472822  0.1645151159374034  0.4736238630854764
  0.7327056546684778  0.1479103910632934  0.4400476415244814
  0.5443811707000766  0.4194993869253410  0.4072077466784453
  0.8140673214430117  0.2071093534491966  0.5578125684775499
  0.7515259034074028  0.2332841392707787  0.5313270729458042
  0.3050884788958907  0.9200204754064746  0.8475699102015146
  0.9161730504088266  0.4329214421123628  0.7418555954164293
  0.0390939459611834  0.6683591710772151  0.1572533190782343
  0.9501490951973488  0.3459811717420121  0.6192987325599431
  0.1390022334224666  0.6204628546856825  0.1466160578267869
  0.9384996088511556  0.3617153160579253  0.5619291589651362
  0.8530717878346921  0.3114152228519706  0.5412678867164342
  0.8557699145346895  0.2535289462793645  0.4998573758102602
  0.5842659243525523  0.2798154767545180  0.1779125996472877
  0.4980865781442400  0.8530618196801916  0.8662710559539287
  0.6489469112503836  0.9700120027930975  0.3741118225447965
  0.4304502490522260  0.9317031949625182 -0.0027382668726178
  0.4952091305710106  0.9243969761329580  0.0775295447816694
  0.7810735814720553  0.7285597498042562  0.3856730038344624
  0.7386675009175994  0.7898855993775630  0.4642290371375133
  0.7901904431162367  0.8309844126756989  0.1828114691998205
  0.3822974961996902  1.0014475844215749  0.9492598858125071
  0.8057037945136896  0.9397800625881313  0.4399050991471994
  0.3917199605916101  0.9282102249859829  0.0467201229209710
  0.3576263189260381  0.9586689007310684  0.9137465020151592
  0.2946307450680389  0.9649151414759574  0.8920595332574236
  0.9701005673745227  0.4808443385439238  0.0834052414921408
  0.1262260593931979  0.4358218320777343  0.6413615211634218
  0.0637311790882140  0.5128071218101584  0.8272591008753351
  0.0501304199700310  0.1870418893445148  0.1367973505654738
  0.8963301446278239  0.8199562550767003  0.2830079600056786
  0.9470668256078520  0.7885057875734006  0.0792228219348164
  0.3809974359694139  0.5521469219404685  0.8173748348590603
  0.3536184808586211  0.4909813885666326  0.8739133634120682
  0.2262410450558484  0.8515878730059167  0.9442459957322127
  0.4529822092760164  0.5328436860007868  0.8970878049966436
  0.8832764821831408  0.0949477347078379  0.1050087925864384
  0.8777465390544836  0.0640910711175785 -0.0033766662615308
  0.3044092177163634  0.5529832495366338  0.5682339080675358
  0.8164911856077312  0.9577152966677652  0.0724598841613808
  0.9428985995354656  0.1876058533646497  0.0990812568481390
  0.4163659268816218  0.8066115054624474  0.0671155397946656
  0.1050829082994121  0.8654369617888962  0.8991383509922402
  0.4176477969245893  0.7900060070275765  0.1269893264559460
  0.9501628021075853  0.8357662029560263  0.1268783880629365
  0.8413658337936102  0.2344809985290914  0.1085535801437636
  0.3651965258592815  0.4802742848197389  0.9322243441290955
  0.9865189693429711  0.6517010339021456  0.0854800673586276
  0.9923298126246618  0.7080032779070866  0.0604630804517774
  0.1006306146910219  0.8560239445155446  0.9871633622341521
  0.1083862973057283  0.8342260012511765  0.7869574285212305
  0.3384324457991685  0.9828943275143210  0.1933350486806032
  0.8615764884769477  0.8808157082875547  0.0514249981382871
  0.8409348431050653  0.8180778257082905  0.1493412519275842
  0.1939565359035986  0.9206736867800834  0.8659097830764544
  0.8898345365364605  0.7575457000886712  0.0724583209091400
  0.0977497834420172  0.1075742421158746  0.7180660814769168
  0.8493868053519620  0.9061945022741160  0.2351315679926220
  0.1549389397112147  0.7016195385927553  1.0067480238867310
  0.0488377698781568  0.6988011936526720  0.9666737029501977
  0.1637934421941078  0.3478181315729739  0.5256356083346754
  0.3823435179923562  0.5180191240830214  0.7125460000170227
  0.5191023548736436  0.7421006555662559  0.1184845943142235
  0.8733812158829801  0.0065566201160397  0.0137267392251204
  0.8282533992117757  0.0812898572058066  0.0308150171370505
  0.9344576035371489  0.0991552767593801  0.0080841568099300
  0.4720385643835811  0.8053484563633023  0.1978751619585014
  0.8687828194292440  0.9461072950434343  0.2683782951843962
  0.2413380398852653  0.9567107220708808  0.9866285144462574
  0.8660897533952678  0.9272391893354069  0.0956896723797826
  0.3524540436937291  0.3534872211891076  0.7545696764644422
  0.2437223288346447  0.9601080980346963  0.9301224974490864
  0.3300272967604789  0.9385847534090481  0.1569549209577809
  0.8388332417393859  0.7728681514612969  0.1061580640548567
  0.2683841090440611  0.9086339967468123  0.9475672518386826
  0.9952337792618549  0.1553922035529898  0.1248274818400283
  0.3634658296955899  0.5443459462086156  0.5913283539563845
  0.8881275067597654  0.1569284166814074  0.0893322526318853
  0.4049432203156988  0.6473958477432271  0.8717776420721896
  0.8134451875850871  0.4962022501468594  0.0794719491555343
  0.5090882440375800  0.5835067766520683  0.0489059583160092
  0.0279742354819469  0.0314666047229457  0.8831066832480524
  0.8155035121976897  0.5073489540151438  0.0219911616325181
  0.8587374655712176  0.4185126822361470  0.0621499874776399
  0.1555524782540237  0.3012175854630682  0.8091072355973568
  0.8358915092850780  0.6776847485928874  0.0164649764043715
  0.9537262712861425  0.3118879710601793  0.0692659637822271
  0.3930248709017484  1.0044968928572062  0.5177857883666432
  0.0374957426348985  0.1148008427981496  0.6983926670396045
  0.9034853854017056  0.3271778322491805  0.1037676213268572
  0.8462647959992549  0.3132179822004038  0.0337955459249400
  0.6865282146098953  0.8468338407384247  0.0845268007993750
  0.6762470334844611  0.8050071682137918  0.0403301582618076
  0.0450230643203432  0.1416329353741685  0.0898724031786209
  0.0945997789240441  0.3421453177365164  0.8920202506565293
  0.6583250205312077  0.8086338867264394 -0.0192999566852348
  0.4425034164083151  0.9413592064184061  0.1099067799379399
  0.2550966198896961  0.4799354501482190  0.9538046739942426
  0.1565522237049643  0.4379937162418441  0.9304895191752237
  0.0987683454450625  0.4436008608721743  0.9086412951529070
  0.8689425344244330  0.5275541680429605  0.0890561875522294
  0.1294715512934945  0.0736789831391887  0.9083233852732501
  0.4212207303265616  0.5681877040599622  0.7160910216355738
  0.1448656135262913  0.3468221489218353  0.8530734612055163
  0.2172551345302146  0.3281008839139710  0.9391436831210098
  0.2122349252219327  0.7134783107267467  0.8446099313968716
  0.3289205299684292  0.8299444826454532  0.7583805488428974
  0.9800929935943961  0.0030602082457255  0.0504109894832121
  0.0669426577225763  0.3436526356710651  0.4421189466629060
  0.5441345171282784  0.7072510034183963  0.7948899120567318
  0.8444520275637986  0.8348439621962248  0.0891895574759014
  0.5055077807746855  0.6562626911137672  0.7902229287717444
  0.8945679142204440  0.8196608859351328  0.0559845869948335
  0.0794308152585442  0.7717528754738863  0.8415094840390508
  0.0823568054167765  0.7405532011828854  0.7327589506745137
  0.4468974891888448  0.6633491427702107  0.7682858572126443
  0.1217012784227353  0.2968746377727428  0.5220087623871941
  0.2317754779807278  0.3672673426068426  0.7104275206888164