Cr H  Ni
 1.0000000000000000
    38.7169076500286806    0.0000000000000000    0.0000000000000000
     0.0000000000000000   38.7169076500286806    0.0000000000000000
     0.0000000000000000    0.0000000000000000   38.7169076500286806
 Cr  H   Ni 
 1596 106 3725
Direct
 -0.0005804067704926  0.8498919381607858  0.9707095101402436
  0.1107716900581562  0.8216783460490079  0.5291495462870555
  0.3254396366321453  0.9575773871653703  0.6191351966571889
  0.9167665970560788  0.4720947124215398  0.0109884867778971
  0.0936584498863916  0.5412245700384699  0.6647598832605903
  0.5660602552829261  0.6637536714658492  0.1014925208878328
  0.3526665922428283  0.5233597202836781  0.9781543851942567
  0.7774636409712671  0.6320184516208027  0.0703820506287343
  0.2804355912444680  0.5442407980773308  0.8945180744363413
  0.2470673119501741  0.8592647947331835  0.6152797004600383
  0.1931716756561427  0.6255469244297281  0.5139333813211073
  0.6647295951351284  0.5707461842538931  0.0518966399690797
  0.7188214629908779  0.5530906990957356  0.0167120956460078
  0.7580723337961263  0.4671729754586256  0.0678455915716795
  0.6735895015123282  0.6780921310652593  0.0750530535785470
  0.2567139590674707  0.4464765751781578  0.8511821636919871
  0.0629413081306269  0.1278000485707158  0.9250699307079978
  0.3315960135943390 -0.0420134580541015  0.5658191260114270
  0.3784381140024625  0.5881685644667420  0.9217515001188831
  0.9178907145743332  0.5155482126375577  0.2839903112629815
  0.3935709325989634  0.8136948891576000  0.0090138601956254
  0.3632917798060447  0.7278459868379088  0.7291323557529390
  0.7376368864268019  0.8206715736998457  0.3404721141457388
  0.8719027682947179  0.5920062104188240  0.2981454406499637
  0.4716844370410031  0.7581807292134157  0.8182022089653207
  0.5587781891142706  0.8132473035815437  0.7819907205132256
  0.2735417307074753  0.7076985361698086  0.8704218451320976
  0.5325219295806226  0.7515531893617309  0.8395496943744049
  0.3450756700823382  0.8433646181293381 -0.0069626380219884
  0.4373227027121485  0.8285271303794776  0.7403691439021834
  0.5474906321652038  0.8253189023117595  0.7194417806640067
  0.7894022845205030  0.8181941090332477  0.2451991040500479
  0.3261181830079695  0.7472736632651868  0.9395697503907242
  0.3313113825772278  0.7874507567768250  0.5560514926303848
  0.2780623792793436  0.8535076057701003  0.9641886799299191
  0.0337699703860336  0.5470344065553900  0.6444918529612249
  0.4042282653650128  0.7465861213158496  0.6309118550318991
  0.3168250562043529  0.6912155296349717  0.6599637136075807
  0.0801580057094017  0.5869530056387157  0.7052755450814812
  0.0288384491789753  0.5806018478151728  0.7444112488199046
  0.0889359895826644  0.5758942331464897  0.7657540665184878
  0.2501411516336164  0.7615033447406148  0.8529775340924950
  0.1428061459519810  0.7329329321030086  0.7584827498436522
  0.8335381753235923  0.6978329676469359  0.4184111361194451
  0.6034480256759238  0.8841763824618816  0.9516282219261640
  0.3906103948151039  0.8874247341683734  0.9962987237808159
 -0.0281302948685720  0.4363059294043242  0.4943070539949176
  0.8389635459206682  0.7743168305894885  0.3359266844887404
  0.0101736397223492  0.9450753827236748  0.2830947854913499
  0.7389652729364744  0.3001395218618511  0.0553527629197013
  0.2415413851393184  0.2885820831248994  0.5651757246312284
  0.0632725393745593  0.9469488642131997  0.7564033055149936
  0.9444811696897019  0.6282510975790504  0.0126759879534386
  0.2734218534172821  0.3501898794330712  0.5032599732223904
  0.0690656200666227  0.9760089550885520  0.5311858677499062
  0.9518347181597108  0.8510116844499916  0.2930511093635834
  0.4790928851643419  0.5938559305730484  0.8462348818510128
  0.4896264860606467  0.5811240634206439  0.9096406730286632
  0.6952022457173058  0.3736771275020135  0.0763548268374994
 -0.0323286813990425  1.0043454197438342  0.3676859838559709
  0.6741796249321940  0.8345175089001581  0.9296977228913191
  0.5702801568136276  0.8013822490992113  0.8423486705635495
  0.2705924193946408  0.3852454994339317  0.6076868329530304
  0.3734283192964694  0.5317458188179933  0.6533862411864321
  0.6115894364499056  0.5875428865983359  0.0867228989424770
  0.9438258022206029  0.7595479767182020  0.2035600812758125
  0.3343140258150060  0.4819741792079584  0.6476898175993170
  0.9676552782658623  0.9864770769081476  0.4303889479919553
  0.1090163413101713  0.7023334207147331  0.9219356897116986
  0.2470917289823389  0.4244560417293933  0.6852583794645204
  0.2866945196468949  0.4419536389035690  0.5840596205230201
  0.6600715810820946  0.5581538216799863  0.1169194358454385
  0.0052172382572053  0.4531886600369718  0.6029264966545609
  0.1155786007186648  0.4494195236731994  0.5811663046856919
  0.2029728448394622  0.3736472646600926  1.0142063361318523
  0.1380373715821122  0.1251461692501399  0.6161995697842122
  0.6083897031024852  0.5415177069029297  0.0495600457952279
  0.1242255985793584  0.7585661408999087  0.6315212959888963
  0.1224386167252517  0.9739088762462910  0.8849452441379270
  0.9775388336697406  0.8898727055535932  0.0176157744578127
  0.5109936753124403  0.7765406292047334  0.7170971075799050
  0.9304280029783860  0.9199094312235380 -0.0034482105432798
  0.7053172886260782  0.8942421767413529  0.8740707059551074
  0.1969359719452040  0.8885942442056362  0.7583967510221864
  0.1000558852480445  0.1971950667991080  0.5283670021474813
  0.5819585614346547  0.7555979775036864  0.7991335486932042
  0.1737824223606066  0.9451619585159540  0.7395499941047464
  0.9751123775147759  0.5426200013288535  0.0690280974641258
  0.0782356359335743  0.8018148209045330  0.9459786999184757
  0.7496992256731476  0.3743897471065610  0.2074264884362471
  0.6640571140128091  0.6026964325692437  0.1573590161906255
  0.6545411429324878  0.4955973276689340  0.1373035529308704
  0.9236422032382428  0.9698054842637823  0.6540910449265410
  0.8368684279218319  0.1891460440660750  0.0622717354833618
  0.8081823270955703  0.8980156808004932  0.0869100345429167
  0.2412823632081028  0.3745464700482090  0.9768371689028656
  0.9053627378662743  0.9043929501739504  0.2051937489051268
  0.9719474882632160  0.3228403815021866  0.7438464560445293
  0.8675161913899158  0.4278826940348182  0.7824435236385190
  0.8358464272815760  0.7429523112223878  0.2308544164499108
  0.0295223386131084  0.0132966979226749  0.6749318707496601
  0.0335685059588173  0.5888523160535866  0.0156181531676692
  0.0735072461007872  0.9354072730431280  0.8171518043602910
  0.8552379438578511  0.9108568472500166  0.4694708600641125
  0.9122763890847180  0.9564496761798115  0.4193366140822006
  0.9789134163894939  0.7088075939378750  0.6396117453724108
  0.1777189754854104  0.9879120617181087  0.5077240693103108
  0.1865441655781034  0.2337265737634323  0.8899364975986516
  0.8063964965645768  0.4214515582360921  0.1568146347785350
  0.8077866637635512  0.4528121961600319  0.2614582169925451
  0.1225220283813324  0.9571896569076842  0.4936970967408649
  0.8569767295397164  0.3899469318662680  0.1834133984185038
  0.1362509557284269  0.1946763682154861  0.8240342469825160
  0.1558084479969038  0.9094294326643905  0.5788078780023665
  0.8562132773503183  0.3753136654648079  0.2430451549687798
  0.2697305260179019  0.4553457424475670  0.5265499884771551
  0.9153797339009618  0.6181286500232078  0.8868205478911783
  0.2848633243347645  0.4752393353725148  0.6881153903802566
  0.2237372061978597  0.4487089592390174  0.5613333826666809
  0.0632753153116435  0.6656949790852937  0.8525625755028474
  0.1006148052221434  0.9956665860789807  0.7618369623299177
  0.3452894499447277  0.4679492084852641  0.7100527303248175
  0.5120395931281453  0.6655659647066385  0.1999610104455198
  0.9192435585795832  0.5309455758032769  0.5076507084800022
  0.4330378945637794  0.9446954325062257  0.1997713528711186
  0.1261777893294884  0.2044184853522649  0.7621371268551251
  0.4767180427542180  0.8517075939684590  0.2431730979131948
  0.1764198665327654  0.2098215310815188  0.7227535159357803
  0.8355545704286007  0.7271526748771283  0.0640359366580333
  0.1675350748873124  0.8279447226173685  0.8116369375124540
  0.9441275548997164  0.1710777805432144  0.1590164707072612
  0.7263392185053866  0.7138304108355663  0.3164873902987500
  0.3446232717839591  0.6565919936822459  0.8458716944679834
  0.7423093573222870  0.8511049561288407  0.4473416387994031
  0.0207999512248619  0.7290410654944353  0.5408774256320191
  0.0362762543149459  0.7022294693962172  0.6645190537169595
  0.9277016237936043  0.6051075138691164  0.1430804768318406
  0.4440445236599680  0.6960276743195353  0.8763469730813073
  0.8318821291438808  0.6643185586624609  0.0792798509209154
  0.1930768558477766  0.7381177259326460  0.7195559741374261
  0.8605494276285124  0.6095554142529073  0.4647161015591161
  0.3575997666643966  0.6098959676366990  0.8000074682144115
  0.2974817536083090  0.6159161974718358  0.7785298237197321
  0.9733630561112330  0.5654628040042670  0.4632409668035690
  0.1053238909518473  0.6843276184111128  0.7515292842166699
  0.7813555542056823  0.7241193296278311  0.1583039655635535
  0.2501226557347780  0.5786773845139569  0.7101737211078890
  0.7914635719285473  0.2662247331647744  0.0832721871365763
  0.2406731138632992  0.5907482195748548  0.6487503003220754
  0.1823385410469995  0.5972582333157547  0.6274414625486274
  0.3969851984307003  0.0422320266658046  0.0039513094372894
  0.8474257748062936  0.8356908737110901  0.0886787641734839
  0.7385451046163309  0.7920090948797949  0.4643082985173320
  0.7808824464511449  0.7299085815140899  0.3856941882639924
  0.4973359081877937  0.9253588469498281  0.0764638419366303
  0.4327873355388260  0.9318958564046215 -0.0028050111017992
  0.6497267788403911  0.9674900161187701  0.3731016317252702
  0.4980905279942394  0.8537778609908607  0.8666832550968642
  0.5842867208562991  0.2804574282049997  0.1775251581626953
  0.8566868856156027  0.2545797300020985  0.4993466635393019
  0.8531877674679986  0.3113121819825225  0.5415519003012177
  0.9385571991071991  0.3617840894295688  0.5625063293575987
  0.1378457237194400  0.6198839160923503  0.1505087918963700
  0.9493302231191110  0.3458174944493703  0.6195103275078172
  0.0384126383087223  0.6683720157027054  0.1584541015462155
  0.9170445997224853  0.4331156719334956  0.7424652485366228
  0.7539592887285458  0.2334563702762972  0.5307060207859563
  0.7539160145257450  0.1727985603000720  0.5504807101937360
  0.0052764339738005  0.8492822653111620  0.1947455260523134
  0.8531611189433147  0.3022327341139628  0.6001046526793274
  0.8613064884062585  0.2904190458896974  0.6594856267471191
  0.9219203695289945  0.2837125980028168  0.6807600846431662
  0.5105260811568414  0.0515399879711412  0.0355280075379245
  0.8054126509963326  0.9419143815279283  0.4411183189243477
  0.7043095618416920  0.9869073268547124  0.4471672709723652
  0.1429971370669047  0.5165031178878794  0.5227850984290263
  0.2753347743693036  0.8595854611631998  0.9047631765370484
  0.5472700133055132  0.8645270667083333  0.9943822528379453
  0.8491606610118529  0.7352590027223695  0.4675863410753409
  0.1010705075021886  0.6619198832961555  0.5849571018066860
  0.0932385261587474  0.6736127552099890  0.5192929872712246
  0.3892588126943153  0.9094073052222573  0.1024452725198754
  0.2700821629440801  0.5551095251444861  0.8343894003766715
  0.4388766415541243  0.8950548068357391  0.0564286852429895
  0.3198624972962879  0.5602992510519987  0.7951937599069896
  0.2562124960090066  0.8815792380258616  0.7800546129810485
  0.1731710067843738  0.5108294702444708  0.8084736664145877
  0.4410221481229660  0.8539278370601916  0.0070029191171807
  0.5706445259107024  0.7252281001393536  0.0837195384051698
  0.4516710277114306  0.7341994766536373  0.9841257882316597
  0.6217583920246418  0.6611415657242101  0.0057946832483293
  0.1263353110780938  0.4367298141772263  0.6418191284104175
  0.3046799303992165  0.9202909569054617  0.8470678321509537
  0.9691591562416654  0.4820609492945348  0.0836097168159348
  0.2953485936588241  0.9651047699337295  0.8920619269983205
  0.3565730995222645  0.9593010655266834  0.9134805901701537
  0.3892745874531476  0.9288395772444544  0.0435679706630238
  0.9742399666512391  0.5595086295332844  0.6318075534267242
  0.3845597375549849  0.4183522993966329  0.2406492116998096
  0.9624199181958576  0.5741610830691062  0.5765913721043372
  0.3383988823405057  0.4946942304789805  0.2593475239431552
  0.8038228198441502  0.2843696125065266  0.4771109079908192
  0.7959399542176633  0.4471921561338253  0.6991655830235171
  0.7924283607464585  0.1907339714745168  0.3869816312899189
  0.7296313209624103  0.3506751406244122  0.6566989290814624
  0.6702271243285509  0.3625943416602740  0.6355596691079385
  0.7192861034288649  0.3646712761775497  0.5933261415504811
  0.7023307594819127  0.2638665452343778  0.5592603519806871
  0.9582918721940041  0.6547964642749522  0.9533343328001199
  0.9187225711801918  0.0183734155808560  0.4026629221684939
  0.9386435002180941  0.5623244384053735  0.8963330770964815
  0.3269287131879037  0.8483789437832910  0.5353044326073441
  0.8924583428546530  0.5245606448672379  0.8297782557589737
  0.2694149655370969  0.8333724751153108  0.4680553613292774
  0.4038643165523987  0.6649334988233453  0.3937499984334983
  0.8781077631755616  0.4148745903818021  0.8426551299990405
  0.6759054566994875  0.1932981686214959  0.6740215410501111
  0.2621633685871969  0.8047993248215658  0.3592791431837241
  0.6389272545846744  0.1428012834014086  0.6648747967590460
  0.6299715313881775  0.1532181352991893  0.5987796758061187
  0.2067015710160035  0.7748248019103214  0.3495427334569985
  0.8624607586712451  0.3247521198075839  0.7627623172508922
  0.8031171446044394  0.3313572300997583  0.7438892151186578
  0.6978753527735934  0.3459602420344466  0.4236063089718987
  0.2723416525573194  0.8954007724830561  0.4513637930567042
  0.8538239204440855  0.5054390025815585  0.9269029344805768
  0.9300414295512062  0.6792193197921318  0.6017858028692624
  0.2253362686668833  0.9150540873634213  0.4869462110484746
  0.2168640863644392  0.8671048454325254  0.4387790444122864
  0.8084421730834884  0.7013001259049411  0.4936406696043711
  0.8337416053526395  0.4989155920681039  0.7042899118043459
  0.8818229492768278  0.5364598212653326  0.7717796984543586
  0.9483461037329434  0.7833459677379632  0.5596536087017144
  0.7712314686304862  0.5383022006167298  0.7869595060255477
  0.8524164219092476  0.2056607955817914  0.4561528269599742
  0.7417243163660637  0.3400980336503759  0.7243307788614531
  0.7025553040469047  0.2894963037017935  0.7200446236278253
  0.6424386936277483  0.2963587260966021  0.6990200519847681
  0.8366508527077168  0.0964704744692991  0.4330725217548337
  0.5908481006963218  0.2591117929253415  0.6354617600367116
  0.8738909595034845  0.0821274655002775  0.4781378856677074
  0.6392653009511002  0.2641786675084101  0.5950579229976503
  0.5448633126447733  0.2181232005287168  0.5746087574886641
  0.5556699400668784  0.5177444926739642  0.4952853052221440
  0.8866800819945192  0.5522368820600977  0.9455881189223511
  0.6516940589925704  0.4654893927441329  0.4821822453043949
  0.9150924787851791  0.4971228767972681  0.9476973048333267
  0.2042418038079341  0.3057498468933077  0.7699713955763636
  0.4823102430602710  0.8973538146373006  0.2872192572054281
  0.9229601918567277  0.3512794738791706  0.8864911449504792
  0.2789846682212275  0.3245600808733174  0.9573421872857193
  0.7037996457301851  0.0049150309109117  0.8347992829471459
  0.3993710853414534  0.6058598092789770  0.4179993641775324
  0.4483933840062452  0.5425283543742797  0.3373004132818129
  0.6813620014920916  0.0892311274093835  0.9185232072240703
  0.6898372674796428  0.0497183745592446  0.8779478371709702
  0.6092073399041312  0.1158020884612602  0.8358487901399234
  0.4443104135884064  0.4654761033989985  0.4145964501098436
  0.6266290956522607  0.0246560078173084  0.7491792619018660
  0.7996012221605687  0.2453260827893851  0.9230136703233354
  0.1010839892608213  0.8162338460581253  0.6118479698499897
  0.2747457334391229  0.2879280844988716  0.8534360923413886
  0.7704870298404396  0.1498545392857286  0.8813994100967173
  0.7080577912918631  0.1246325504654851  0.7543995654769881
  0.7190388698225024  0.1124561595820557  0.8162959990843298
  0.6483742584221026  0.1315794660986811  0.7311152755525954
  0.6592759482602391  0.0861286751401347  0.6890353340601030
  0.7312658997137347  0.1297797877036166  0.2741545544690496
  0.4998100373493888  0.0496701077009754  0.6402406699482746
  0.5418666782994761 -0.0416321490887046  0.6336829196133950
  0.4971402264601308  0.0000412435457187  0.5451157195128236
  0.2963626568842753  0.2298223218660509  0.8713767884676445
  0.8370550633379585  0.7409774173073619  0.0055024573287802
  0.1624117554609964  0.8523222504794224  0.3683907806394517
  0.8124208506265331  0.3192010074701433  0.8037774871091489
  0.3465237178529313  0.2694920577557978  0.9368342515757496
 -0.0216029190086452  0.8326584929637953  0.5779306095932253
  0.0459595983195413  0.8648305402046417  0.6077016252741442
  0.0485591083354539  0.8225085976666315  0.5718437813225192
  0.0234826188994716  0.0442296734793560  0.5423884418884324
  0.0465537121862698  0.1045647803582297  0.7581729028418761
  0.1185405479918286  0.0866550553627953  0.8433105090905701
  0.7154835397286466  0.6065074394326327  0.2931340531935396
  0.0866996235696642  0.1529445786765966  0.7598734195070208
  0.5060938453245889  0.9375598196240218  0.6849821565062560
  0.8680219269387253  0.7150377360136119  0.6838425888421591
  0.9964764429203050  0.4356951713608297  0.9902397022895273
  0.2991381192729065  0.6668467207705637  0.3639891255856157
  0.7137945573546912 -0.0243596066677410  0.9681857582208873
  0.5876773345595637  0.3115265535944669  0.2835214561193424
  0.7489390018591998  0.2073589500115930  0.8623139590846212
  0.6673388129512758  0.0506904740871191  0.9820206102028558
  0.8630321513773926  0.3582152110203069  0.8644725777214152
  0.3466047324198457  0.6042727885014858  0.2855334710185164
  0.9117564220988613  0.3628149953539611  0.8275622637982293
  0.3990581093854145  0.5882887889003833  0.2498844919890112
  0.3461798451247223  0.5885504483554519  0.3477125043525740
  0.2253123232708354  0.2491919707581094  0.7877546368923776
  0.8218417182946063  0.0079843366677013  0.3470503835104721
  0.6962568089836030  0.4236997059694942  0.5763138888866568
  0.9519072571288335  0.6702677021185699  0.8927212674071872
  0.4511052437703427  0.6390888784057003  0.4270978084896414
  0.5018182270488136  0.6081958550675350  0.4522975159490597
  0.5012666648060485  0.5587093710652451  0.4085478617735119
  0.5007407869037670  0.5434827368316575  0.4707893503261822
  0.8585606894999482  0.5944581852278329  0.7569539025960629
  0.8118956890909266  0.5555763254478887  0.6881128857255912
  0.5452306331722189  0.4200950049042317  0.4068751114464884
  0.5929675170814594  0.3276728123317655  0.4510239837789799
  0.6406327090355713  0.2677526852325567  0.3692146085613996
  0.9574932205895085  0.6384063216415113  0.7871680699856670
  0.6866138604035282  0.1917910545731943  0.3512409630938217
  0.8535840048479924  0.5752727852306656  0.5878829522606772
  0.9010819221175537  0.6129309293851799  0.6563018837583006
  0.8318585834972485  0.0820422725590098  0.2648700530204014
  0.7782556033517938  0.0856878898807128  0.3649945978817112
  0.0966644505389870  0.7123036433967688  0.1019883683613566
  0.9668486080480575  0.2037195214585990  0.8223434619247603
  0.0163779783618335  0.2082857021746448  0.7824897409829966
  0.9389473487293263  0.1069555995017215  0.7777536833016180
  0.8775488458144209  0.1147809614642615  0.7554514565111080
  0.0490844154706855  0.7092667273248041  0.8967417061011167
  0.8183723367579020  0.1211523278160852  0.7337311074844066
  0.1860080926916345  0.5245852493144715  0.0298892297331417
  0.7517165636259238  0.0454668564898175  0.8990672860158373
  0.7621956880825094  0.0563420593975781  0.5597661194273124
  0.1838047693113427  0.4446093389303822  0.0520304966572665
  0.2602682577664068  0.3526558362089242  0.0451866100113467
  0.9546880123929768  0.1802790172682919  0.6567277319590876
  0.6874984034348157  0.1645050429823664  0.4741407225516979
  0.7348480996778014  0.1481813757496582  0.4403462247231926
  0.7914765542676089  0.1417653630601722  0.6055146881426755
  0.7759399096113084  0.1225794464570749  0.4720251519455176
  0.1751612383616636  0.4339112621278388  0.1099800226047936
  0.1360617531872231  0.5746436090477047  0.1089156352773483
  0.5287682673113960  0.2649829382744259  0.1064858418864192
  0.9453102895063397  0.4638079613306080  0.5829746796805525
  0.8949527821606146  0.2219894713156613  0.7391536852598511
  0.4661483112890988  0.1895502348344058  0.0430649143020371
  0.8456927704083476  0.1803307786374906  0.6744321236651557
  0.5186269147417482  0.1590909091481441  0.0748307810392754
  0.8343285437895950  0.9651785690720742  0.7317747248571559
  0.4330080608348423  0.3584441849792120  0.1608371348540307
  0.9826232427999489  0.6788006982917725  0.5356083974175497
  0.5744018200479480  0.1575802195870319  0.2076629358893427
  0.8100235182444744  0.0360078067760014  0.9255432668878327
  0.7994730387021165  0.0486634689995584  0.8577500595940113
  0.6604969514285993  0.3711929138848060  0.5749242906777254
  0.9951874283465253  0.2987776995285737  0.8672607952532747
  0.7392694370536907  0.3078358340891921  0.6136485014376550
  0.6630926724651075  0.2003173919766815  0.6150660335889047
  0.6489263439009257  0.2373801773051115  0.4918531274082382
  0.6815439209181744  0.1578416785254074  0.5576775676514515
  0.4397031467145220  0.4334209421220016  0.3112893926099699
  0.5365723267828348  0.3415366410453088  0.2575387778371530
  0.9859432794982219  0.4451428356355557  0.9274300568552840
  0.9262840920305234  0.4524163123344795  0.9068562578370896
  0.9762788431861000  0.4584104445996029  0.8678202489891215
  0.4813955787507402  0.3096340758809634  0.2485798015113690
  0.7371579597835130  0.1860770045674027  0.6956191603643153
  0.2126519301685580  0.8367076909526491  0.3320631942071557
  0.3962579680667190  0.6530715900341845  0.4777213190797431
  0.7514569040858002  0.3137129680585724  0.4539559026580623
  0.5590688864719682  0.0972030696272183  0.5325008267142597
  0.8006868369426557  0.2983281377059485  0.4163545821298741
  0.7298937231998427  0.1259650626620487  0.5840837729477766
  0.4883785226762006  0.3697430704157205  0.4616541203100509
  0.7566176513970710  0.4293018772261206  0.8001604401491063
  0.7384173484045579  0.3933855363117608  0.6957599051406755
  0.6326438845075595  0.4205300061299683  0.5963809263533378
  0.6986253483014089  0.4412416919719006  0.5121008056654652
  0.7237671729748248  0.1943481956742785  0.6373817145098672
  0.3706762678198485  0.2811765737063845  0.1063148342641075
  0.8909146097457237  0.3882660508232222  0.7052276535080840
  0.0371468172803731  0.4168317249702657  0.7840661019348161
  0.9326807392371332  0.4763747000222938  0.5211930026016365
  0.2287415853145682  0.4185148599071283  0.0724324192366278
  0.9242687428911456  1.0235761396149208  0.9656474007278582
  0.8688620945065315  0.0357661568292083  0.9414642916270057
  0.9857959142246211  0.1822731502627675  0.9465717287895413
  0.9396979094946686  0.1406715510445648  0.8839222257266921
  1.0000697343326872  0.1343921948715542  0.9054802357732085
  0.3572503722711266  0.2565262523902495 -0.0022627530355358
  0.8987060951006194  0.0915833221835319  0.8821824076137248
  0.9078484468215924  0.0481471928682766  0.8377872131229166
  0.4144454822156223  0.1597251692015967  0.0347767366199286
  0.4122165811318509  0.1031223553979793 -0.0083991254057196
  0.4603518354831883  0.0834228871684221  0.0163066254681275
  0.0020337049310609  0.8166064508094700  0.0897233069432637
  0.7722749284672605  0.2008887214583468  0.5972289239347753
  0.4693772507826547  0.1735013496276635  0.1071445871033017
  0.9773407623845379  0.4246154760829216  0.7629756879533538
  0.6257676958148266  0.1731486862727909  0.0520663367182680
  0.5150823750128923  0.0963199997801755  0.0884576436976284
  0.7229759423271215  0.1400096219317424  0.5113897004412409
  0.9986727931002045  0.4006720230089898  0.8861625496937346
  0.9996173364305370  0.3849518406956157  0.6844800136055299
  0.0632130599107748  0.5126045717876616  0.8278896272313648
  0.6774421992859013  0.7406256694675251  0.0576902282370509
  0.8980906743246576  0.8357808791474465  0.2209652064767336
  0.8413182046827896  0.2356415711698981  0.1079151689427471
  0.3645522711328848  0.4789728777019751  0.9325365898991184
  0.9858293981039904  0.6516878799065132  0.0884410536783570
  0.9928257580260368  0.7103148850975778  0.0599942403305800
  0.1060428567842775  0.8547072045706514  0.9747390650304523
  0.1082206687617085  0.8343390105272810  0.7864926606743984
  0.3475370212797633  0.9772132736507000  0.1904279927975357
  0.8447249387941048  0.8181042319063874  0.1494100996520579
  0.8634946170480176  0.8808883478299364  0.0469774900493547
  0.9464371061075869  0.7728430478945821  0.1422838104644652
  0.3806503255840009  0.5527971687651001  0.8177062979513032
  0.3534512226585432  0.4906015288611665  0.8745107472711559
  0.2235619950561836  0.8533417700854834  0.9451360144240788
  0.4524152406860981  0.5335540420300827  0.8977812525689685
  0.8795927801862010  0.0509455563309693  0.0585239425349813
  0.8793159209964315  0.0662134066962742 -0.0026814793029802
  0.2828839893884105  0.6091822715436749  0.5455968332209253
  0.8171943711731446  0.9589148482808667  0.0718589735510731
  0.9429330293021864  0.1873749093867640  0.0992457236556861
  0.4167963227223291  0.8061772344739958  0.0665330482804215
  0.1038299666313879  0.8663906992236099  0.8970340556332936
  0.9515342311401901  0.8355456890644996  0.1251017510099013
  0.4184219772918409  0.7906614777462490  0.1281131557683310
  0.1942538154891680  0.9215658061781528  0.8641728624309589
  0.8887137355079404  0.1582811437416764  0.0889635462918570
  0.0973973851537339  0.1088502591757203  0.7168213512811153
  0.8500067984660354  0.9065630357434946  0.2324002226006472
  0.1563770459716040  0.7627568945058847  0.0493443356786915
  0.0546766510879973  0.6976982597639658  0.9627151461621686
  0.1632869762531751  0.3515305227457863  0.5257170877879052
  0.3818197415260794  0.5183294776240421  0.7128605809428177
  0.5190653896736830  0.7421044972634256  0.1192389559084412
  0.9317042961719505  0.0337194622775437  0.0229070175533261
  0.7728300876497175  0.0524057465733560  0.0233368421617026
  0.9332127359651504  0.0945062430006044  0.0061466811746703
  0.4055680868457984  0.6481329182276930  0.8692287499497366
  0.4221734261942652  0.8373670523126188  0.1715876239045567
  0.2439187860937609  0.9598241254115860  0.9859631685138267
  0.8673262020382911  0.9261158527237809  0.0926694672521610
  0.3129769742294953  0.3038451750548886  0.7519636618427500
  0.2429520475825269  0.9612721346215543  0.9295235473994224
  0.3342347054852468  0.9372954152423333  0.1537558569335679
  0.8399893495869719  0.7725176086938074  0.1069323180125038
  0.2664631750633829  0.9094324566773393  0.9470421671692262
  0.9933756514815587  0.1554654265688221  0.1244618525549639
  0.3635353749005246  0.5441103161875672  0.5921555062204417
  0.8904067058850853  0.7574886613106907  0.0719986189885706
  0.8129372688096781  0.4975104301943102  0.0803764327975808
  0.1435337058812778  0.3466025293492584  0.8524783165697625
  0.5074185168101395  0.5833197653900455  0.0467053425247767
  0.4210998289265959  0.5685805294050679  0.7167105945176477
  0.8145916542320183  0.5105347425144329  0.0227276483868512
  0.8584906732324956  0.4199590108038029  0.0620000761871922
  0.1171065398172361  0.2486441905255729  0.8049149271403917
  0.8369282974255342  0.6809668260567051  0.0176726195314818
  0.9540325195926828  0.3119867683654622  0.0693873078207150
  0.3933708397630835  1.0044293424427055  0.5157845386318484
  0.0376531305407066  0.1160335805762774  0.6972925457427718
  0.9036599485517509  0.3281745547136745  0.1034765817239830
  0.8463121990425445  0.3142743044317654  0.0342710440039157
  0.6883040049982125  0.8474574608656600  0.0812455988371591
  0.6772812170237893  0.8022381145929326  0.0417795575218869
  0.0451313319496183  0.1555288223450201  0.0269943385416570
  0.0943794686109868  0.3422292457636086  0.8921249157351987
  0.6630533711754969  0.8140120435120727 -0.0188564080648188
  0.4460433508433778  0.9401603499062966  0.1098951244598639
  0.2537384604716985  0.4797588218381943  0.9566806559214209
  0.1562636442995084  0.4378045353080416  0.9310609663830292
  0.0982354830597268  0.4434163780265217  0.9091115378862601
  0.8679900786675846  0.5284518652948504  0.0902886777288223
  0.1295443785270716  0.0749902320899156  0.9063832904587490
  0.1602798422010690  0.3860072190416391  0.6271326529381713
  0.0281529108937008  0.0313974370124439  0.8808871024437982
  0.2047507577726174  0.3401914942848754  0.8758567279150792
  0.3801867671010937  0.3261742067322832  0.3793156320328497
  0.7148427599333425  0.0111046922455214  0.3154237352706148
  0.9811063687039973  0.0021579004731671  0.0501743325066557
  0.0675709504467498  0.3433161780618402  0.4429143591413513
  0.5443870543016900  0.7070493364489645  0.7944586252379755
  0.8612028125880192  0.8342668916484904  0.0070425682718559
  0.5060037321479777  0.6567807948453003  0.7894905845974489
  0.9479627403000048  0.8076639487870468  1.0145899202231241
  0.0790740175911647  0.7721801234491615  0.8407538541239651
  0.0827802743500668  0.7402257396580717  0.7329437940323957
  0.4468705420489630  0.6638947832100361  0.7676420477283702
  0.1217830313183160  0.2977830078763024  0.5219011775141545
  0.2315906613518177  0.3676821439043224  0.7106577366208133