Cr H  Ni
 1.0000000000000000
    38.7169076500286806    0.0000000000000000    0.0000000000000000
     0.0000000000000000   38.7169076500286806    0.0000000000000000
     0.0000000000000000    0.0000000000000000   38.7169076500286806
 Cr  H   Ni 
 1596 106 3725
Direct
 -0.0016344176634414  0.8510741589057443  0.9737214001153200
  0.2095263688778831  0.1631657347031727  0.9696837023008621
  0.3118366013272428  0.1870684192629340  0.1120536287963855
  0.3832064462691799  0.2478381129290524  0.4538497099999588
  0.4009195159317503  0.1276621197038848  0.4779204030075268
  0.4559907736240785  0.1091329735188356  0.4384307986822343
  0.4514793939605581  0.0955155635001098  0.5006899836204468
  0.2693661969163201  0.3275170917712804  0.1155123062421175
  0.4999907121060890  0.0310348636402850  0.4186724372037339
  0.4434114337539332  0.9854004719644736  0.4756700325887601
  0.3638679051962916  0.7273212654409034  0.7292479890416340
  0.1340649718294220  0.5822983317218676  0.4983954783537826
  0.0747878746285278  0.5664712505700435  0.4853274024249346
  0.1323666273081206  0.5419616768485915  0.4605038030625366
  0.2106973838561683  0.4601887209466466  0.4946666873396068
  0.1400042079922436  0.4734360930102554  0.4790276179118272
  0.2266815899882144  0.3853882629037645  0.4238462510515258
  0.1032899806734404  0.7874660257957119  0.0125422189492314
  0.8741906999545432  0.1276738884788557  0.5261140762493401
  0.5000359091697609  0.4800858504297088  0.4909658242656739
  0.1677360770707778  0.9129720678371320  0.3500113023703115
  0.1928416754260196  0.6265613006937175  0.5130862856083528
  0.2490215885008533  0.0276453201695984  0.8445917409732006
  0.4001096939126886  0.1092040784444576  0.9319185660569559
  0.4717559260891734  0.7575671520643602  0.8184840842274546
  0.5484412320935630  0.8590412770962660  0.8259668623144321
  0.2725612022549441  0.7077527438065166  0.8693128305967460
  0.5320509240551157  0.7510796123779208  0.8399283809113910
  0.3443111273199694  0.8417542690672422 -0.0050094689276921
  0.4384998596962216  0.8279828902778836  0.7397481872380698
  0.5470018265112651  0.8258887144301826  0.7189152304065213
  0.7895011893273556  0.8178644032826731  0.2448824472270493
  0.3231642114304282  0.7486238803955293  0.9374196861751810
  0.3330981319862468  0.7801251126840653  0.5510014673433838
  0.2820261825727288  0.8514427199131164  0.9652678031735831
  0.0354641890935215  0.5476863094985214  0.6436658358435629
  0.4049475552971127  0.7465444037558913  0.6308757643531158
  0.3172832586434771  0.6905484955122692  0.6596491580967656
  0.0812210727488974  0.5863645307115205  0.7035218951460476
  0.0306989659311269  0.5808662875504986  0.7437673212926452
  0.0894924793146696  0.5756216526487227  0.7651494629840564
  0.2502741519408575  0.7620524973833599  0.8517640680668526
  0.1428980668292455  0.7327093679220740  0.7581401477202063
  0.8323681752939157  0.7001245732732007  0.4176955331471263
  0.6044334642753171  0.8819122600679431  0.9524112284887862
  0.3906233634850019  0.8858347024082009  0.9969740005655847
  0.0734065642356980  1.0011708694638388  0.4042687267408693
  0.2998818844120995  0.0663784378000188  0.9095328939774027
  0.0099918807923135  0.9446741240221613  0.2828201118293400
  0.0153623785565196  0.3742480445398600  0.4156766315622318
  0.0637016693275810  0.3087915914154344  0.3342218335215790
  0.0096922924805118  0.2627760535209692  0.3856111992315061
  0.0597995674093010  0.2459695161802218  0.3508903270086451
  0.1653523002603248  0.3493006105186686  0.4696800720996158
  0.1105370173579962  0.2148149260479481  0.3768531783670172
  0.1180968817467715  0.3711189244027036  0.2210285144373004
  0.4676087187888732  0.2194784786863981  0.8780803679273126
  0.0527821056126228  0.8060971873535931  0.2852349514776424
  0.5398414228713910  0.9581769934038761  0.1703036427592426
  0.2468168363882553  0.0201729492728654  0.1917319462459228
  0.4231038892340055  0.2168239373292758  0.2510293040224262
  0.0132149462096589  0.3721701350475513  0.1847207996395970
  0.4228374690847232  0.2331779350068083  0.1913805036162040
  0.0540129105324440  0.2479158185135681  0.1222169977698679
  0.0499785395224840  0.1873844991117787  0.1364867389622129
  0.3211561817483061  0.2798954372543594  0.2024327315158603
  0.1920138346122539  0.0229014680815580  0.0611441335816369
  0.0031750471224045  0.2807020636519101  0.0923602368867349
 -0.0019960128182466  0.2361179924167015  0.0483776982044031
  0.2837377639834206  0.4646866697121255  0.2490418006027448
  0.0962470261072664  0.1280312616862934  0.0532143955401867
  0.0117220373285104  0.3251298491394353  0.3676089387549735
  0.8769257705485948  0.0355025784962863  0.1223654983135048
  0.2351303453280318  0.0198129076778171  0.2784539000889296
  0.9653303648408947  0.4038299226386565  0.3877872849296757
  0.7669816055683929 -0.0999155042504682  0.6092864178378979
  0.3882037306488693  0.1196650081172488  0.8707243817601086
  0.2651005733909604  0.8498471608716439  0.1726542324003126
  0.2186354207333063  0.9130481996247753  0.2505769008424408
  0.3115491427329484  0.7739735186481356  0.1557608376211304
  0.2113694937483273  0.9946183482791617  0.7452729505437604
  0.2896611592724820  0.0438332296759896  0.7416747279700210
  0.3671916174083142  0.8055368845200782  0.1639194969960727
  0.5312511038589697  0.3435250002863484  1.0268447029137175
  0.4587465339279266  0.1463107569078275  0.9991984735093095
  0.5747264166512213  0.1425138269776009  0.2697034978448139
  0.4791406750510643  0.2084947816114982  0.9465905275319656
  0.9666190865843171  0.4363817232057555  0.2648035187865235
  0.0063771497641467  0.8826132793296461  0.3011282894853507
  0.5036309142129073  0.5728633639849012  0.1148575009214270
  0.5510493384550448  0.6330999769974367  0.5207593678348056
  0.4130664742842783  0.7284801571197657  0.1480437099935215
  0.4066380198414264  0.2264244823313290  0.8552092702172994
  0.0637294300027312  0.3565254481276014  0.1509279965382196
  0.4267824797262302  0.2634387956339583  0.2995944148121923
  0.0069981985754417  0.2932706551790786  0.2646608081810663
  0.4310218668007591  0.3251254375452680  0.2833484731938970
  0.6983882787692989  0.9262995209946540  0.4652557123657113
  0.1952255382988031  0.5504158805644015  0.5851649047502792
  0.8360994442560700  0.7420405003949673  0.2301177168047794
  0.0298219750667573  0.0129022423403427  0.6768506304817841
  0.0353856553294971  0.5860207884795225  0.0154743862426824
  0.0538844458151982  0.9890239664172380  0.8032859506776903
  0.8624119420050020  0.9707298238305937  0.4509053508868426
  0.9129107084105713  0.9547571844893072  0.4187825239623991
  0.9560182663749784  0.7987030770871909  0.4864592472975645
  0.1765295552959089  0.9867194006488061  0.5068312281668563
  0.1871349631342600  0.2335398350737672  0.8904749674942337
  0.8063001027052236  0.4206742603591842  0.1564072817899095
  0.8077483750520325  0.4521159717436373  0.2608450044485721
  0.1208170073036939  0.9562054484032412  0.4955993982402959
  0.9073435346210967  0.3575879665013126  0.2087590794773650
  0.1379722613189708  0.1932261135711714  0.8262588380600187
  0.1441485307325051  0.9105404877170749  0.5754353695926671
  0.8565740889573195  0.3750180094381546  0.2429205701462245
  0.3291871861222064  0.3401964400156511  0.4123472851273876
  0.3403566425492789  0.6093016848080923  0.5103418401403103
  0.0767716178339520  0.1396033235679651  0.5355568179528354
  0.0383694526405843  0.0506933561785756  0.2311338436211226
  0.1513330631888868  0.0928337474277598  0.3098961539040438
  0.1603177558143636  0.1996360136767799  0.3400028365588924
  0.1825461769367785  0.5112838069004595  0.2573239579364272
  0.0350568759111014  0.0526098814662132 -0.0042149756393798
  0.6667012046400149  0.0503881113791164  0.9811311783886636
  0.3989439533351931  0.6542408294222929  0.4678061774287565
  0.2122769663955867  0.8375585514660551  0.3306452118242971
  0.7381036796705946  0.1866577572475215  0.6962138599653197
  0.4814371065071552  0.3095224062839848  0.2488164080881203
  0.9766167012986194  0.4589061761536896  0.8676450240762278
  0.9269484676787486  0.4527467175569277  0.9063070913534452
  0.9861221809638606  0.4458524689603744  0.9272632059644366
  0.5364529962244496  0.3410424258617871  0.2574469585439925
  0.4396663583524483  0.4334201542687589  0.3110591592007233
  0.6696626134970397  0.1601036973236439  0.5593590949480137
  0.6481862990104118  0.2378280932133615  0.4910965888881916
  0.6634520596753736  0.2040830894727667  0.6138577900676839
  0.7252024728159462  0.1970047751939017  0.6385906958772325
  0.6922019194325282  0.3019307518147062  0.6578327483491928
  0.3381676044475465  0.4947578656751925  0.2584825650392607
  0.8027785396161501  0.3318783270991184  0.7439525352087433
  0.8632465384493293  0.3250912734946437  0.7631165770871928
  0.3461798724434977  0.5888361958421557  0.3477175355310507
  0.8125834628902010  0.3197228540703381  0.8043850666178989
  0.3987408567544214  0.5883350189358428  0.2495048281012160
  0.9119831629500050  0.3620891299656787  0.8271310757205297
  0.3476699660076955  0.6020627381481736  0.2866938837291268
  0.8621778073127897  0.3584093989931165  0.8655715711027798
  0.2409680758303440  0.5899005753786658  0.3098894052498049
  0.7493476251650039  0.2066625769655319  0.8622507870152037
  0.5876353807974327  0.3110070214465004  0.2832895261719710
  0.4763805812102202  0.8512679529930749  0.2430044051792256
  0.1764915314522059  0.2085481165050498  0.7240011132487322
  0.8344538370875886  0.7272744169601265  0.0622265935553624
  0.1680441583331156  0.8275146637965521  0.8114369867801786
  0.9441156917558522  0.1710165862895832  0.1591733789913034
  0.7265334239640510  0.7127518156277951  0.3163000033721051
  0.3444578353442435  0.6561148591782809  0.8465590376822344
  0.7420803738426840  0.8496387698016495  0.4475129703954613
  0.0240810053356568  0.7291322473512275  0.5402698544194375
  0.0365418031452209  0.7011129700945348  0.6638985620455201
  0.9281379668198816  0.6049035441811240  0.1415774816849117
  0.4444511762089988  0.6951587817707712  0.8764915595617969
  0.8311010863916956  0.6652459146957180  0.0777804648095494
  0.1935164008390110  0.7375832181550825  0.7194661654776210
  0.8617034480881819  0.6121946940994789  0.4651610435730913
  0.3572776721185827  0.6096356169589967  0.7995920488760719
  0.2979549547546778  0.6160690746890318  0.7784205822362380
  0.9733792339172778  0.5636772153593969  0.4630422346218626
  0.1055618733218996  0.6840041398281230  0.7516647730108392
  0.7810024580582655  0.7243906612942020  0.1574370147573573
  0.2510873447837946  0.5780252079130436  0.7101958276076612
  0.9193678151981960  0.5299951580282628  0.5075771490959166
  0.2413427866077041  0.5903894006406710  0.6494930457414898
  0.1274408802846018  0.2041811067446595  0.7632020729288760
  0.7141846930790962 -0.0274297976952471  0.9702253935875286
  0.2996590591779846  0.6673191954567512  0.3622586662434370
  0.9962548645332313  0.4374982281823849  0.9895764266642306
  0.8673536214679028  0.7150902856039091  0.6825632096013862
  0.5063531000009759  0.9380502660412076  0.6856790124050016
  0.0766890156965014  0.1633052718007286  0.7000035426293425
  0.7158645384163314  0.6055738665083822  0.2929314934970293
  0.1190442096317238  0.0860075464847032  0.8452093438134299
  0.0479133066207856  0.1046604744159434  0.7582248349988056
  0.0232822228050969  0.0439114050324507  0.5430063141951845
  0.0507595319459509  0.8212490072288863  0.5725502560978435
  0.0455975566628971  0.8615925599136370  0.6117523646591660
 -0.0132945533934393  0.8339604946216097  0.5777937573208776
  0.3268166886382735  0.3275627441117642  0.9187347371438037
  0.2822414415188970  0.3243349672144260  0.9585159883691619
  0.1015104868486486  0.8156761566015164  0.6119730354781949
  0.2759992836499735  0.2877429097952455  0.8538299479464240
  0.2970240926475228  0.2304870954050612  0.8720987497016897
  0.8352400012512204  0.7393484033751577  0.0037288483927569
  0.4806020742355354  0.8968435549274827  0.2860816669045587
  0.2048054172757772  0.3053786011659801  0.7702540285586558
  0.2259018313059427  0.2490763394331437  0.7887547361909574
  0.4270913943058006  0.8835203200260635  0.2179438877861025
  0.9745925570494057  0.5589763240756459  0.6316811288777706
  0.3848796357542407  0.4183122143571562  0.2406608305144038
  0.9656096840421484  0.5734828683146002  0.5745937243851895
  0.8290347810996467  0.0792859510269506  0.6917821914536141
  0.8040006366948755  0.2827816489479379  0.4774038676263527
  0.7848981018360630  0.3910679351506462  0.7270033035396144
  0.7921944024435921  0.1905504057264443  0.3876517900239693
  0.7291150292457437  0.3513453020676310  0.6570574115520702
  0.6703198053343047  0.3625846741979815  0.6361581136342009
  0.7203678883890798  0.3641014999831333  0.5937601070186246
  0.6802325959890669  0.3111616072147511  0.5970228536303012
  0.9562755729528907  0.6565199354472462  0.9539575376632468
  0.9189056690899349  0.0170930387984324  0.4017211677428222
  0.9381205286869024  0.5629818207898789  0.8958558819323866
  0.3248859933474061  0.8654029936950494  0.4747205510801394
  0.8932569083302758  0.5245608759265423  0.8283534315300356
  0.2702802517063457  0.8344247094633566  0.4680240257883130
  0.4039206212227319  0.6658247364620470  0.3983971197602468
  0.8781722761520214  0.4147161511342896  0.8417806946793744
  0.6767260106848159  0.1944479112451407  0.6736291061584863
  0.2626113986354647  0.8051729454016358  0.3585043185884166
  0.6397135117588393  0.1425885127619879  0.6673684728028680
  0.6274999913685573  0.1539719290108786  0.6030677014247610
  0.2072487595060796  0.7758224088314248  0.3475582172313187
  0.9387236495788605  0.1064121483705947  0.7780785759832893
  0.8676081892550206  0.1253043799878781  0.6936801176581193
  0.6986131966060652  0.3443252713696971  0.4247274289102904
  0.2713792633380709  0.8961645021602351  0.4517969781319219
  0.8545238265993417  0.5069856753598794  0.9256833277977931
  0.9311237067323908  0.6792565838470912  0.6014284411599421
  0.2246222065555463  0.9172827224556606  0.4865881942775068
  0.2166093755465841  0.8680805962192414  0.4377460607735235
  0.8102466987723115  0.7004070640443633  0.4939343926081224
  0.8340454591390044  0.4995380200126985  0.7033592208359734
  0.8822178365606405  0.5371584488111769  0.7706307600761959
  0.9044767115065796  0.8167663034664079  0.5135104523140396
  0.7720801525247647  0.5386165057533415  0.7861565456807100
  0.8510220891922237  0.2054342527614114  0.4568439681887987
  0.7412144101122736  0.3405598614289407  0.7248040775220506
  0.7027367503055624  0.2900227776811657  0.7200404696007551
  0.6429750521704296  0.2970282860005170  0.6989194573628940
  0.8443916886806102  0.1456548953747002  0.4744949231064876
  0.5915408938583868  0.2594825905559103  0.6361183116705617
  0.8719000819530150  0.0803221529987879  0.4773147855567921
  0.6417717904295740  0.2650349829442841  0.5949671395076512
  0.5449284133772349  0.2173214772333901  0.5749083768845179
  0.5534336575502757  0.5139746801700716  0.4947489840677672
  0.8853934659452662  0.5531004724931999  0.9471000596772015
  0.6529060204435662  0.4661118830530073  0.4838231038468598
  0.9153010840484614  0.4975720572587868  0.9463820527677962
  0.5591224931732365  0.0986031371634514  0.5335846346127866
  0.8004254727966394  0.2982298739981403  0.4177911442595829
  0.9231436052137706  0.3513306583475677  0.8866386120441031
  0.6334495834975481  0.4215624367264643  0.5966307717873188
  0.7068235805263626 -0.0033576898419079  0.8953521163247117
  0.3993363121765739  0.6059882485734925  0.4167128071385324
  0.4485691105661970  0.5421390611739837  0.3374240401503452
  0.6868427859625140  0.0859074917405232  0.9203060293505865
  0.6897762163036533  0.0490442219046073  0.8737311885052564
  0.6096407706782099  0.1155593731978179  0.8362963329977923
  0.4440263811728313  0.4655043077015297  0.4142981169812222
  0.6319099065545059  0.0229727285993865  0.7494411145235598
  0.8001470024590261  0.2468813787412912  0.9236090901743986
  0.7390558996314582  0.3947155791222737  0.6966309760301739
  0.7457888803374123  0.4417881798685212  0.7392964329252638
  0.7708556763486638  0.1506972006054874  0.8813304336503668
  0.7085504016345212  0.1247380758250584  0.7543221175266683
  0.7195070611330582  0.1120959835722060  0.8149669707761835
  0.6483208509153826  0.1318027043032714  0.7312001468780903
  0.6602931782046426  0.0860272021369523  0.6890545436736255
  0.6811349743663302  0.1583618270817336  0.2471368173928643
  0.5000654913852204  0.0475188172265006  0.6405062345154674
  0.5418962663608358 -0.0370780740113695  0.6344533752676194
  0.4972634959120716  0.0012979324234749  0.5451963691759784
  0.4887628262598204  0.3701823275214699  0.4613322533604303
  0.7186499505528160  0.1317159577380183  0.5752171215889078
  0.1618662329916574  0.8534386304202843  0.3667735743192607
  0.9675679421286526  0.2032960283235176  0.8224634849352772
  0.7008184740486929  0.4408464143400307  0.5122599380734437
  0.6987203482806139  0.4246902415416725  0.5759321214149298
  0.6614487196270193  0.3729207037073462  0.5753461245223109
  0.0504447207726898  0.7091915459767955  0.8960591502717282
  0.9517009739927369  0.6711585382006213  0.8923419120089243
  0.4505741492653489  0.6402447684293350  0.4279208770566940
  0.5014750712520500  0.6085234023176733  0.4527179403558884
  0.5008467248487671  0.5585734411596135  0.4084191686711824
  0.4995114837133566  0.5435201456048101  0.4706046021561873
  0.8586771983371126  0.5947292068428209  0.7560479692073078
  0.8123610014078891  0.5563029187388010  0.6868597447614927
  0.5451471262335765  0.4194775055855666  0.4065348460768914
  0.5933362937588562  0.3281238815492794  0.4506563334571528
  0.6405971135395488  0.2673742324590545  0.3688432973192722
  0.9573801184921585  0.6385126617654662  0.7872766272673702
  0.6862189821041298  0.1906568676702133  0.3507956841373843
  0.8542611388240764  0.5755252025930430  0.5868600830457419
  0.9010031999628909  0.6129739854296314  0.6559981577192402
  0.8308663102296985  0.0819904763565530  0.2662859077632562
  0.7770325742488374  0.0863462550404662  0.3665517914324220
  0.0978434020639208  0.7140791023094690  0.1001489567218157
  0.0172304048359968  0.2074233401202675  0.7834549286599772
  0.6971184682905134  0.2837806399395488  0.4407743296159912
  0.8186815443164407  0.0098044432104372  0.3511888588766346
  0.7940085271452967  0.0946961983291697  0.8996053799556902
  0.8918038306872750  0.3879779668673324  0.7057113815014706
  0.9340047323146305  0.4770670072145367  0.5226211001023663
  0.2326114534831130  0.4835137202567750  0.0528810882189927
  0.9188214737383666  1.0159008678088954  0.9649557582154776
  0.8650966392087847  0.0325863223542984  0.9422700126633038
  0.9853760678957590  0.1828052098752776  0.9470115362192232
  0.9408198499568862  0.1406614441598825  0.8844279419844883
  0.9992723988318388  0.1345527338174740  0.9055271263773345
  0.3577260581390098  0.2549344803734288 -0.0016275440626833
  0.9487708636080511  0.0949206342411379  0.8409521236344649
  0.9101835463428213  0.0475415041057218  0.8371527248897577
  0.4149901450663182  0.1621361236953331  0.0357613221519511
  0.4074461251323630  0.0967687784852096 -0.0056775927478254
  0.4598769227452305  0.0842907046497632  0.0163027337983306
 -0.0006800349364232  0.8160848316632594  0.0906249111190572
  0.7731911716044725  0.2053413388729427  0.5964361457708364
  0.4696372480035061  0.1737999210792246  0.1080540304827890
  0.9275611477396345  0.4201497158384536  0.8021203121705710
  0.5709042284209600  0.1467297745485132  0.0389013916601069
  0.5141029285859545  0.0968855608788419  0.0889123707995529
  0.7180249447351581  0.1407047925674975  0.5127421376877882
  0.3704245720552486  0.2815355285057269  0.1060504505402835
  0.9984493877709384  0.4017937028045587  0.8863752002979772
  0.0394658294387550  0.4177637455631323  0.7828311777708757
  0.4953466755544681  0.9242808183113000  0.0776052117724376
  1.0003914052634726  0.3842430591865023  0.6846920305993556
  0.9725902431809402  0.3218008074924021  0.7436393439283292
  0.9015546871314873  0.3757663050994053  0.7683227427278060
  0.5109182927800874  0.0531960359998437  0.0351683716786482
  0.9229501642460127  0.2833055160978894  0.6810482511509398
  0.8623095208407106  0.2917442002157241  0.6604453600022089
  0.8540786494948751  0.3035543070940013  0.6004851773206799
  0.0031161082164139  0.8484944940758392  0.1949677689069324
  0.8145162135892976  0.2072876926583319  0.5578870958100548
  0.7512158019572318  0.2334650978886707  0.5309924568925296
  0.9160994206431128  0.4328259336356974  0.7411705956592919
  0.0391587375903297  0.6681773121704340  0.1575395523533777
  0.9501145651456903  0.3458060766880063  0.6195354714485396
  0.1391075811179565  0.6203169879095723  0.1468485385001365
  0.9385826799556244  0.3614440944164179  0.5621268733751651
  0.8530679929411477  0.3113521052173271  0.5413536871291880
  0.8557300724400571  0.2534488933874496  0.4998577508015949
  0.5841299423027225  0.2798665081907450  0.1778532709479749
  0.4982114145733574  0.8531473948597118  0.8664449108091510
  0.6486680773892678  0.9701471845772247  0.3740708759903596
  0.4304250774741459  0.9315276581684677 -0.0025402185513660
  0.7809211525129812  0.7286398188669805  0.3856463052395245
  0.9954889645234521  0.2984417408664304  0.8677515487177786
  0.7385729620465792  0.7899191900288274  0.4642060858460734
  0.1870282988920938  0.5239512694706862  0.0299193688277512
  0.1841059671589436  0.4471816661997322  0.0509416229801884
  0.2556911613879664  0.3566617151816739  0.0412029298259795
  0.9556363491280736  0.1795238310944468  0.6572258593466721
  0.6862506475603838  0.1640770153647018  0.4731905527648738
  0.7327541368594571  0.1479690736624578  0.4395434187629161
  0.8166494172934275  0.0896877413493677  0.6274867395785848
  0.8207826268159627  0.0930660288053982  0.5010639511468838
  0.1763754358291248  0.4337508330952138  0.1100213928899727
  0.1369020547538933  0.5749284785576869  0.1065103828248102
  0.5287580834019269  0.2652899919783270  0.1069411606568009
  0.9460175067140939  0.4635477157879844  0.5827357845751748
  0.8952531137976532  0.2212080552247377  0.7397502884044862
  0.4650808837024135  0.1909728871563733  0.0433109232809733
  0.8469991504050238  0.1820137337751613  0.6770538473286742
  0.5184316282416683  0.1601174347828547  0.0747936405323173
  0.8363746486045892  0.9627667743813267  0.7308320183078645
  0.4331067258598412  0.3580333305169515  0.1612934616208645
  0.9846942110178892  0.6787946437760787  0.5355549885945990
  0.5177825482108952  0.1242253390130800  0.1977563789918634
  0.8043851108965453  0.0415208196097629  0.9258452839955157
  0.7493262117473664  0.0452974707833189  0.8961528893298200
  0.7636565309746790  0.0525157294754007  0.5581093040779995
  0.7902679241070967  0.8311475658557989  0.1827060384999099
  0.3825099232684898  1.0010264497415891  0.9501018859762597
  0.2755430847316490  0.8593557724071458  0.9047811331860918
  0.8053483510024263  0.9400324633525309  0.4395899089663293
  0.3918205058439437  0.9280429980110901  0.0468966357222560
  0.3571278762026701  0.9583260462198150  0.9140488226476756
  0.2944349289257642  0.9647368100803635  0.8920891592717428
  0.9699171605239570  0.4812296662950462  0.0833719680012657
  0.3052721248314598  0.9201450507426117  0.8477444676100462
  0.1261579791813640  0.4355523267748178  0.6415552546450498
  0.6204223875882651  0.6609984186156631  0.0051349528365309
  0.4508321336587221  0.7325884652914459  0.9851140284177828
  0.5702175664524590  0.7258760632423079  0.0835868557716876
  0.4420784880461916  0.8540254514196359  0.0079013211298463
  0.2236764098511756  0.5142338633254386  0.7694027630958449
  0.2954388731227429  0.9319532246192300  0.7858003087393265
  0.3201862052962534  0.5600451037833922  0.7953337030468594
  0.4405717531370174  0.8943326757842164  0.0581045276537688
  0.2699659311332919  0.5548665308683288  0.8342451590005797
  0.3875838822060055  0.9082012954904654  0.1037826830381091
  0.0938817704640966  0.6733795903298919  0.5184229247431713
  0.1017982371798516  0.6613460029824539  0.5844365264226825
  0.8497180484216914  0.7355445905447995  0.4691139330687342
  0.5471216219285988  0.8643785448752792  0.9941483509198649
  0.1434871557060533  0.5163688165105068  0.5219748664294692
  0.0637498223624206  0.5127223333765566  0.8273803650883713
  0.0176602096248829 -0.0276732284631298  0.3954649436366018
  0.8962161298056848  0.8200094891799623  0.2828670848250699
  0.9865308248792187  0.6516325952907170  0.0855788726840237
  0.9925377661372513  0.7077959610340400  0.0611818790217737
  0.0996640377533632  0.8557324103769319  0.9876299893260352
  0.1085159633584004  0.8340545460697478  0.7864997457484653
  0.3392820885406135  0.9806372913871910  0.1926486717635227
  0.8412600883365362  0.8182462827469047  0.1491769357141964
  0.8615102783580806  0.8811802073978364  0.0514768854196829
  0.9480901800094541  0.7881715899401315  0.0793226582480812
  0.3810262419302953  0.5521422598307234  0.8177959373600797
  0.3536396903961810  0.4909800024927899  0.8742583194081470
  0.2262232493474558  0.8515455116242078  0.9443724254003328
  0.4530170684427676  0.5328178837184526  0.8974360501916486
  0.8830924020816369  0.0952015758370570  0.1048128068794901
  0.8772707719139932  0.0639423482669986 -0.0035011400176737
  0.3044640355226768  0.5523942505611273  0.5686610301885311
  0.8162203372588417  0.9583619065824983  0.0720875892481052
  0.9425726931466962  0.1875844624752537  0.0988085870822524
  0.4164758073228981  0.8065268508986385  0.0673713231585471
  0.1047647741730844  0.8652875553265551  0.8996843452486650
  0.4177565252397920  0.7899617616289114  0.1273475779340165
  0.9502667452270257  0.8357337268871761  0.1276341232706436
  0.3652370944221404  0.4802805069695132  0.9324991469812987
  0.8411256592775538  0.2347497791905797  0.1083155554213768
  0.1938048387166466  0.9204952754936349  0.8659778135976031
  0.8900697604197307  0.7578010575312074  0.0717357516265195
  0.0973952421574385  0.1070550152051873  0.7186311102676222
  0.8491658306718070  0.9064289578695588  0.2351737855529762
  0.1549690879714547  0.7017180964791542  1.0063455798921725
  0.0491694333886665  0.6988276917012586  0.9670743445690407
  0.1639018101909630  0.3473830373393641  0.5258841631872621
  0.3824437108819637  0.5179836708342594  0.7131130532420188
  0.5191566587183148  0.7420751576168620  0.1188633068324753
  0.8730912463880071  0.0067625550805330  0.0136783789461555
  0.8329301915957203  0.1439202477729707  0.0104902914072800
  0.9345074430845256  0.0990480976449874  0.0080447278088982
  0.4721120823154264  0.8053155026627005  0.1982579935718613
  0.8682546203655080  0.9463367058511032  0.2686550005810966
  0.2407433807736757  0.9562897792466225  0.9864051567535561
  0.8656378229067457  0.9276419940909479  0.0957446538681761
  0.3524626531726127  0.3534082911523817  0.7547525432777336
  0.2436104050262178  0.9598970735727711  0.9301099560302090
  0.3308965589547164  0.9382340730716415  0.1547455389349075
  0.8390963977456508  0.7730983797665689  0.1058490715848671
  0.2684107845529093  0.9084815309945355  0.9476938104057988
  0.9951009394104322  0.1555913638082114  0.1243366947212071
  0.3637078078156037  0.5439342026025645  0.5918221945118686
  0.8880752362104212  0.1568448090065775  0.0891879910405234
  0.4050427725358526  0.6474232800701378  0.8718410250989964
  0.8136459112906199  0.4964880068462778  0.0797047230816648
  0.5088587393989977  0.5837320761737599  0.0497087868785212
  0.0279429687526585  0.0314761593672888  0.8819649003418895
  0.8150508590539960  0.5078880469305256  0.0216194311492352
  0.8583957536300115  0.4189579761488905  0.0621988272487424
  0.1555840156420633  0.3010966398081367  0.8092080006777980
  0.8361845028203815  0.6780827562161349  0.0164254156017445
  0.9536084532898377  0.3117311273562438  0.0693073112830664
  0.3928563870510674  1.0044560240792269  0.5174646842049178
  0.0374468625513081  0.1144883439934762  0.6972909066646382
  0.9034113994658095  0.3273944470866459  0.1036098977664953
  0.8462077404741424  0.3135630350712099  0.0336678143365828
  0.6266516784809903  0.8193055206395754  0.0712260621598716
  0.6764992780155220  0.8050701761895445  0.0404281175717457
  0.0447231058992107  0.1420367209322110  0.0893883866076139
  0.0945962911117447  0.3420854334178074  0.8920250517973188
  0.6585433198370069  0.8089419421536875 -0.0192194569115522
  0.4428087876856953  0.9411709232430563  0.1098661883993010
  0.2550965578370029  0.4799286878770966  0.9540180268207034
  0.1565549207175836  0.4380065926133682  0.9306345218648918
  0.0986627535947258  0.4435635547717391  0.9087218641568530
  0.8168872936929146  0.5433828280992280  0.1208026583037591
  0.1296639270710741  0.0736130711343999  0.9079583958259435
  0.4213471443191155  0.5682561133118499  0.7165719318163214
  0.1448193669241668  0.3467147221416037  0.8532594529638171
  0.2172835947487667  0.3280275901968999  0.9392693433743599
  0.6355031510344026  0.8626674850335174  0.1166065409036867
  0.1011869946711521  0.3917989492591223  0.6055120291603165
  0.9797454383579687  0.0033883734631402  0.0510120162645730
  0.0667599881463288  0.3432470413585118  0.4420505722419707
  0.5441943676139372  0.7073084041668795  0.7950702117787439
  0.8447084586410970  0.8352168702101558  0.0891838011605448
  0.5055366803325259  0.6563106308872321  0.7903459253582987
  0.8943888531456304  0.8200717770552463  0.0556559845209692
  0.0797658394129956  0.7716528711078259  0.8410690141353142
  0.0828071458398177  0.7402328784430602  0.7323548391118194
  0.4470100865344264  0.6634152392894418  0.7683755773194284
  0.1219040180765251  0.2966527178720960  0.5220277648212541
  0.2317475968650397  0.3670909816282191  0.7106495443587841