Cr H  Ni
 1.0000000000000000
    38.7169076500286806    0.0000000000000000    0.0000000000000000
     0.0000000000000000   38.7169076500286806    0.0000000000000000
     0.0000000000000000    0.0000000000000000   38.7169076500286806
 Cr  H   Ni 
 1596 106 3725
Direct
 -0.0045575061924609  0.8486563539745127  0.9717321257914534
  0.6935624853735222  0.3124878781150944  0.3188296829420388
  0.4568965619883947  0.1605156188162550  0.6019832850696266
  0.5988325281623350  0.4669405840598583  0.3557389456381990
  0.4323319306595314  0.2198926585407931  0.5739751006289472
  0.5670138630750539  0.6994429698719743  0.4395097821382112
  0.5266583031480324  0.7743036810477463  0.4546666985404373
  0.8068429600839107  0.7728021446584543  0.9288036004926281
  0.8863716511290590  0.7143743300601563  0.9737690887199575
  0.5119652378807698  0.7211069979126036  0.4747378221379673
  0.1934553407828498  0.6258080944277516  0.5130797447772463
  0.4853949155283623  0.9083459098446097  0.4560679932608256
  0.9936005758357843  0.0914793151553493  0.3711506852944265
  1.0009781319790469  0.1386146303966262  0.4140343297478571
  0.6056848181113600  0.5152081618279575  0.6784467800288995
  0.8994400601780085  0.1883167128106464  0.4226447070841198
  0.5903310723486310  0.5587731840954309  0.7204033599397820
  0.9064927706918781  0.2505335964177549  0.4060997640434333
  0.6425536565893231  0.5647825617887677  0.6813448633870137
  0.6383950484218684  0.5972727512759066  0.7910249848911937
  0.7373244757869651  0.6388757449536109  0.8198100164094344
  0.3635643573761377  0.7279390647954183  0.7296606793679118
  0.8027343263225278  0.3456449544700899  0.4606351270753127
  0.7303371131174634  0.6717453527789150  0.9217388828824251
  0.4711086161503745  0.7585271746078980  0.8184684743171298
  0.5480546249335635  0.8596117563514332  0.8261187045759008
  0.2726781249372012  0.7082658397183804  0.8696937721850330
  0.5320003071696694  0.7518301538315502  0.8400932002958119
  0.3447274304962225  0.8420123512343007 -0.0065212481891765
  0.4379554532034233  0.8288064303585416  0.7402627330586146
  0.5476601786467045  0.8258696504179158  0.7188546208058527
  0.7897623670042292  0.8178627130077930  0.2451330686677845
  0.3233253615945013  0.7483911268051880  0.9385485717481793
  0.3312630452426962  0.7783088404695321  0.5511744131573061
  0.2784607131627924  0.8523238384890812  0.9641300772000195
  0.0339242188408577  0.5474971965924184  0.6431642945614479
  0.4043882107433723  0.7472205868582996  0.6308639038942934
  0.3170941829429013  0.6911093040368789  0.6598462399772771
  0.0805522352348104  0.5874782060163775  0.7047105534454010
  0.0302167126857632  0.5813309667508841  0.7433821664220011
  0.0891697922054841  0.5764282805128024  0.7652986626410262
  0.2498434106567410  0.7623516853425840  0.8528489026196099
  0.1426217446244088  0.7333764427067677  0.7587807783952715
  0.8321664028504625  0.6993304313907990  0.4178957875860069
  0.6037718339223226  0.8847514714109808  0.9528552474242514
  0.3904973837531476  0.8862152917679222  0.9970379293395369
  0.8565522744284517  0.3159550571648592  0.4847908402982101
  0.9069543329589539  0.2971541477469142  0.4545361675584637
  0.0097439436012827  0.9448956838764853  0.2831292102142157
  0.6953782157970695  0.7235027195405976  0.6742360706280757
  0.2608052519982891  0.7887141286186579  0.1913242872953057
  0.5370372503466063  0.0472720533195969  0.9398524558804409
  0.8852169111353605  0.9307229801429883  0.6964057386662922
  0.5928547158109263  0.0092429019170144  0.8517905031772817
  0.8522162323306178  0.2832757716565591  0.3792357153849792
  0.8938278709667093  0.1565244329898793  0.3171802345865521
  0.6482605112209894  0.7006752719239189  0.5540965571584148
  0.8861557705413112  0.0943197068718298  0.3345369686338646
  0.9445918004462937  0.1089300583344928  0.4043684555196065
  0.4127248099889466  0.3131285749419655  0.6719283080787436
  0.7665158159482826  0.0089512816690183  0.2147475632868509
  0.0470898089748271  0.2179365561470805  0.0141874727256073
  0.8586922368774378  0.2368993213545876  0.9461395036942578
  0.0341338231664250  0.1268685492987052  0.4689254200910688
  0.2957213063492153  0.6516296161027759  0.4253737485465887
  0.2509358478888173  0.7280747529395887  0.4399849037281864
  1.0120421744183974  0.2349884051993519  0.4981240831803009
  0.9602478421313357  0.2017967628033540  0.4946794318525365
  0.3125070873082079  0.7441266355417887  0.5097408242247508
  0.2136629168069730  0.8050279847742683  0.4514098255336040
  0.2198139580398792  0.8541966312141588  0.4965206583968679
  0.6679734946298365  0.6591147226483167  0.7339636621309729
  0.8128384243607972  0.4486662166682542  0.4905538387128044
  0.5618011370732818  0.5819295610279832  0.5393120146217545
  0.6720559123955998  0.6277806264645582  0.6269177246444123
  0.7512966920762205  0.7467197296441508  0.8039609433405831
  0.5562921193489382  0.6370680266757661  0.4592613479799749
  0.7745574908925390  0.6903641632648528  0.8217773253949054
  0.7043828971496914  0.7095470324926035  0.7383296333195228
  0.4822291771966291  0.2591525425037142  0.6522716921414379
  0.6897503652359178  0.2814624050169489  0.2137296282970635
  0.5446766073290678  0.2856410005905236  0.7790893326428748
  0.5932419104750383  0.3250751965070263  0.8431864651872765
  0.6900454530484762  0.3295473447690619  0.0298471170541219
  0.6724702578015387  0.4087531328326284  0.9484615007440619
  0.3542520918184985  0.0800811480974072  0.5313682614378477
  0.4157190118205372  0.1114998421744540  0.6016899469011395
  0.4274149134133161  0.1037206385371105  0.6629099581973216
  0.4661139737339396  0.1528002570045508  0.6638587085148171
  0.5063196779235994  0.6206700350685449  0.3908386310896225
  0.5106674976559652  0.6500999831441034  0.2627260663681536
  0.5667822670136274  0.2283477900321903  0.7994991204991775
  0.4561929278239721  0.2793276018181938  0.5274498893262171
  0.8581124729588211  0.9478290821664603  0.5751318408091145
  0.8307257084834497  0.8897883715684998  0.6337796459504272
  0.6330269496838330  0.5790271727025306  0.6202334981067571
  0.6581927222473378  0.5924762911559608  0.4544357377705312
  0.4393607309942005  0.4333587227744877  0.3108133619655840
  0.5362895487436372  0.3414291755375775  0.2573862820899174
  0.8362880816245059  0.7424490902020940  0.2310094413448988
  0.0296346456259932  0.0139278488637289  0.6773014742140542
  0.0357400372416278  0.5869807146664505  0.0153922710550755
  0.0531054553583399  0.9908789755382105  0.8022366428205657
  0.8546187204677024  0.9103655350461134  0.4691886085891105
  0.9122384696245124  0.9557716985623130  0.4191166705203131
  0.9783233198553856  0.7090902698020707  0.6387669456528211
  0.1770192676556804  0.9867618333043258  0.5077642550568788
  0.1872700752830388  0.2342244709222248  0.8903303755757752
  0.8064816492232539  0.4210367250627245  0.1570472890292456
  0.8078278568846907  0.4523792248005001  0.2616853709670368
  0.1213776424304137  0.9557958753961283  0.4932889894974670
  0.8567365828331174  0.3892794193912213  0.1839264333577574
  0.1376960914036139  0.1940775066970408  0.8256311745193244
  0.1542680240903054  0.9081537824208422  0.5786009797863518
  0.8560064930950673  0.3748421176374325  0.2434414678618966
  0.0075606051947368  0.0552780431253028  0.7563811723431568
  0.9885161768471135  0.1119748616647567  0.7384194749460793
  0.6611600158120415  0.0631382830330134  0.4606213538739178
  0.9700645026548878  0.0220708132543539  0.6575881376319379
  0.9127494309215727  0.0344502742249907  0.5718397309165038
  0.1673418135778925  0.8814486279408403  0.4749781472950689
  0.8717263426194694  0.0932230005777260  0.5914653420717763
  0.9725388554412371  0.1249405126991035  0.5598727240254096
  0.8211922775065582  0.0931749103554267  0.5012741974808643
  0.9857704917631760  0.1815396362569112  0.9459362376071252
  0.8684235969366639  0.0251284993242425  0.9416254179825980
  0.9220437068611140  1.0161969325690972  0.9644900120514418
  0.2329220145728563  0.4851919207248059  0.0510914283784332
  0.9344751545620991  0.4771344531225403  0.5222584888849653
  0.8918562509867722  0.3886910037604717  0.7060843095052820
  0.3705226204362813  0.2816822927107851  0.1059032345851988
  0.9955154990006919  0.2992658889306812  0.8675513383453212
  0.7922312435422965  0.0942953652319656  0.9004877493046354
  0.7502805177218663  0.0480771076028729  0.8983112683905859
  0.8093307340341698  0.0385396784341511  0.9233571080226740
  0.5741009532211935  0.1573408665586292  0.2075291321906110
  0.9837390126449194  0.6797879674673644  0.5350112723161309
  0.4330299581619758  0.3582120661496409  0.1611080927090847
  0.8346774073708187  0.9649679547300912  0.7309063774732258
  0.5189501557513638  0.1600671255964899  0.0751054829869487
  0.8475934299291400  0.1834974076313492  0.6778127951448946
  0.4654044985073519  0.1907918643041723  0.0436296777865848
  0.8958599514003777  0.2227265358726482  0.7399864609195453
  0.9459421230579077  0.4642226149124846  0.5828771483936117
  0.5286627702946309  0.2655036335267848  0.1065365390415551
  0.1368274317168563  0.5744756324033360  0.1073280493413466
  0.1762817121991311  0.4334513811572274  0.1100632957381351
  0.9878832835885770  0.1941070969497707  0.5516571582654024
  0.7941201636882338  0.1484764750809804  0.6007141606460908
  0.7331560416838172  0.1478569857251111  0.4394667286321724
  0.5010252570652307  0.5579805810986685  0.4091075463420739
  0.5013086509943669  0.6074491630128148  0.4528711558554602
  0.4511605124764357  0.6390568340641333  0.4262124699335912
  0.9512316157811421  0.6709929870707234  0.8930651396046324
  0.0491961001399292  0.7077598625713973  0.8982935180371622
  0.6622117060542928  0.3708306740301026  0.5757971766017362
  0.6982229997902626  0.4244969520987551  0.5754128285510640
  0.7003257461344010  0.4410912801768846  0.5126947670536839
  0.6344276447193129  0.4208327872144496  0.5966449091956669
  0.7399620175673119  0.3945037502343615  0.6964853690680700
  0.7568640360360362  0.4299046349053974  0.7999935654649324
  0.4867491079698674  0.3705360470046419  0.4581282289269960
  0.7300162942581183  0.1170205169609995  0.5879444969037981
  0.8010468806543041  0.2974071129926878  0.4169201238735759
  0.5593222556822106  0.0980704085703428  0.5346860376690510
  0.7521769514097120  0.3122150891539367  0.4544785207034902
  0.3966697056311592  0.6544293632180110  0.4710265143910466
  0.2124279709075650  0.8366499143682454  0.3309736641713996
  0.7386316207686092  0.1866957214385052  0.6959713510661336
  0.4812945938771127  0.3095970832235024  0.2485418612520095
  0.9765290621180367  0.4591536916701411  0.8676278944000714
  0.9268578862800277  0.4533838511821602  0.9062950942766981
  0.9862009477487530  0.4460318575023688  0.9273457816827690
  0.4992996082062270  0.5418312036419801  0.4715334890420417
  0.6875326200452725  0.1626240488804234  0.4739567757249394
  0.9563860849501251  0.1808553693482639  0.6575910876405323
  0.2611827161512016  0.3519329221929337  0.0464123919352388
  0.1850228246871201  0.4487229386222458  0.0513364172968142
  0.7627790618495496  0.0496923662735875  0.5620252877271886
  0.1866126356218259  0.5219966296295833  0.0309728496356741
  0.8184876160353960  0.1227333802761933  0.7343360193672634
  0.8681084899197508  0.1269166322043802  0.6940562101724764
  0.9395989085310458  0.1073185442301514  0.7782337145795645
  0.0174868944636187  0.2084011869600189  0.7832844182422302
  0.9676077000902751  0.2041993712079345  0.8226537997329265
  0.0964084618785352  0.7123776161313352  0.1035200206081809
  0.7779541987529879  0.0863961261413835  0.3653826077821473
  0.8312928976333488  0.0817092995585190  0.2658410422448846
  0.9007086912116469  0.6131618236921454  0.6566972737916589
  0.8540373266258017  0.5761753202576556  0.5874169785935044
  0.6862526133837195  0.1913016541665914  0.3510218043706287
  0.9568479933960455  0.6388443780044033  0.7879253407914444
  0.6404053639630110  0.2674313156668097  0.3692220069104259
  0.5923471666356438  0.3278306479347386  0.4511098497112956
  0.5441726158448388  0.4192522212705274  0.4072919957036237
  0.8118794571568420  0.5565297331541106  0.6871364229365176
  0.8579513380346484  0.5950498189323271  0.7570823718118557
  0.9744600799884672  0.5597971713772204  0.6326643411132292
  0.3844966797803464  0.4180745046369177  0.2403948334570253
  0.9654921051780740  0.5742923802525869  0.5754082559487999
  0.8559532358446178  0.2531888964109435  0.4998243434564779
  0.8042328785998688  0.2813598946209256  0.4777551431674361
  0.7860912934090546  0.3918187650926648  0.7259588470327172
  0.7925960660907025  0.1904938877771370  0.3873648871130842
  0.7299721169709286  0.3515524531695852  0.6571165966426467
  0.6710553490088601  0.3627677407717494  0.6364112686454947
  0.7201332684183217  0.3636955294881352  0.5932988967472723
  0.7009390448370729  0.2609837563547107  0.5590050917842548
  0.9575195259748001  0.6558815600244400  0.9540366199024060
  0.9182249131683232  0.0180073680809789  0.4019783481708400
  0.9380011930507333  0.5631017034302279  0.8968189647639595
  0.3245235258597994  0.8460280879330133  0.5339250956798725
  0.8931191659190100  0.5250271866022939  0.8285149968180798
  0.2685862734531611  0.8326896152245131  0.4674723177122524
  0.4035463305228015  0.6650161186514718  0.3965449977321137
  0.8781290896113798  0.4151807577233116  0.8425203336943676
  0.6770908254860472  0.1943967994804963  0.6741129279546221
  0.2621646167979710  0.8043536115246509  0.3583513669919403
  0.6405710182927481  0.1419915708309955  0.6670929276763639
  0.6291619167866763  0.1526535721320074  0.6030047511432435
  0.2068932469160218  0.7744164021023067  0.3483404278505662
  0.9393781482493585  0.3617589588866704  0.5629857015477538
  0.8528345546186665  0.3117689910287619  0.5412043355381848
  0.6974046566266324  0.3455381539736874  0.4240259488060694
  0.2716202549335586  0.8949239542933549  0.4507160570495503
  0.8549580267004518  0.5083007055219866  0.9257642500050401
  0.9305243504185424  0.6798002127027435  0.6021679521225481
  0.2247487710230534  0.9148522145825120  0.4862804314548842
  0.2164734041474907  0.8671954429680879  0.4376591513098806
  0.8100176085287402  0.7004699982912009  0.4939010718100437
  0.8339395855331592  0.5001526517340112  0.7033520182384493
  0.8820922231247621  0.5372191455143828  0.7709750682094945
  0.9032618225985207  0.8159032336506249  0.5137920015581414
  0.7716665704012637  0.5388333078530468  0.7856081227133502
  0.8514821536662012  0.2050409302557469  0.4566325611736172
  0.7419847479578926  0.3410923550374848  0.7249342356640494
  0.7032930271893555  0.2903118504262118  0.7203781498356544
  0.6440973886292789  0.2969673036034640  0.6989950693232909
  0.8450945165683046  0.1452357432587301  0.4750800647330431
  0.5922596833507058  0.2585664344081976  0.6361308991851709
  0.8725861482774977  0.0804548942789476  0.4773881547337190
  0.6402653072825957  0.2638254020702689  0.5953412722503600
  0.5452228131441699  0.2155958071901116  0.5750071494306476
  0.5533650803651278  0.5127901831215325  0.4949435813960398
  0.8859822222704350  0.5534704596160182  0.9478580691051638
  0.6527148491586848  0.4655226781624965  0.4836406181208471
  0.9151313616336263  0.4987402772750786  0.9467420865837554
  0.9992495426062845  0.1343327118653339  0.9050006862984674
  0.3582222704996095  0.2553580837006282 -0.0020919384783894
  0.9229079233524969  0.3521237558711064  0.8862484185570958
  0.4610165954069276  0.0849010857609673  0.0159494511184715
  0.7078745066975388 -0.0011525258665621  0.8956356306209406
  0.3992164928432069  0.6060890048188564  0.4175024415993953
  0.4481776726253690  0.5423101315183588  0.3367439527183338
  0.6934192108470686  0.0838424402798066  0.9244765949226660
  0.6911072301131339  0.0506571888515624  0.8738953935002267
  0.6100837909200986  0.1158484882650202  0.8358194583864421
  0.4431106061104264  0.4655975859212007  0.4136128599541449
  0.6314199362849848  0.0237110597878259  0.7477446464147423
  0.8006180454555553  0.2450940525252996  0.9236144136854092
  0.4084921810870530  0.0991922014229189 -0.0068015925423839
  0.4156988605145067  0.1613251818407783  0.0352599870415804
  0.7711010159785726  0.1505387799947828  0.8811101305938965
  0.7089858979812996  0.1253552659615330  0.7544400377907438
  0.7196448860059120  0.1132818082823235  0.8150979080833625
  0.6487748485076479  0.1320083737887910  0.7306143344179988
  0.6613464471754247  0.0856082971265540  0.6876419855957397
  0.6813573016669895  0.1587574928440944  0.2469966340798442
  0.5011496605257447  0.0480280412836473  0.6391148988056168
  0.5409995876309132 -0.0389792106275194  0.6345532753068505
  0.4957506405114653  0.0000456052628395  0.5453641695809612
  0.9104292755048117  0.0472708549041753  0.8362731571149989
  0.8996106604679328  0.0916066034314706  0.8811607269323650
  0.1616024397199507  0.8522004786939299  0.3676135618662641
  0.9506011528297067  0.3467872089730764  0.6199044791074583
  0.0016148934031574  0.8164595837836557  0.0901183456543193
  0.7735568632844689  0.2052274213763661  0.5978433529264319
  0.4696584680401987  0.1741378107663021  0.1077435903920874
  0.9773497295642002  0.4252817521030766  0.7628704814426449
  0.5711975673702415  0.1470803273734439  0.0380871863565411
  0.5152686870759240  0.0969588362962966  0.0890998019689869
  0.7174385638315844  0.1393054035716436  0.5167543991655857
  0.9989205039376301  0.4012382917993685  0.8859957493215856
  0.0374604051260511  0.4175631037460553  0.7839874188022550
  1.0006847898871281  0.3855682349435056  0.6842659358859664
  0.9729599582253777  0.3231895102709059  0.7439540396021908
  0.9020282322342377  0.3764537663160916  0.7672071437111966
  0.5117768636387358  0.0536630323426420  0.0343331388166731
  0.9234761634291057  0.2844479407248418  0.6810275531880308
  0.8624488209623230  0.2925228404543935  0.6602748707966157
  0.8542658176139056  0.3040609613208825  0.6004147426777665
  0.0037784026905453  0.8486202104127146  0.1952258226818191
  0.8139432912523104  0.2068145753375313  0.5577325396230219
  0.7525503964896565  0.2323655010210182  0.5311563192833891
  0.9164230788066693  0.4336035250119715  0.7420920908686754
  0.0388238874187374  0.6684746951145113  0.1584845405966498
  0.1387775204457563  0.6198328131501114  0.1480363711316131
  0.9397904215534467  0.1416455423516699  0.8831334509359713
  0.8193661092973723  0.0092573381715625  0.3499793350683945
  0.4402790357890455  0.8943738191845355  0.0586301217374449
  0.0935802506987187  0.6747997399406662  0.5184001514561476
  0.1013336476832620  0.6628739380852970  0.5841476656846029
  0.8500146592695454  0.7356125939512419  0.4689249333264342
  0.5468607788065980  0.8647773054708017  0.9951432312260918
  0.2750425937313107  0.8594063385801305  0.9044032384505376
  0.1434987772341700  0.5165944185318337  0.5224628631735613
  0.7036580408372909  0.9864461736089141  0.4463967387319497
  0.1825995811756040  0.5976803391475809  0.6264296113132902
  0.2406532661134591  0.5915797210769216  0.6483971795899238
  0.9192005642124293  0.5293395541545236  0.5074832432710938
  0.2507935610046252  0.5785624157976075  0.7101590536035797
  0.7815628353437938  0.7239012829081607  0.1584768694174460
  0.1051790805824610  0.6847122833169377  0.7517970659124956
  0.9731011396014596  0.5640065303399403  0.4634924816754470
  0.2975801767146552  0.6162119210023400  0.7780769727034850
  0.3574553995681225  0.6101164496937569  0.7995635063056311
  0.8628289767699431  0.6121951610349925  0.4660469264838891
  0.1930103189611126  0.7383479534773464  0.7195738908392747
  0.8318605586149060  0.6635793879634445  0.0795961832477090
  0.4437888029330354  0.6964981528117217  0.8762359545998103
  0.9280675913454535  0.6046504294329424  0.1432195381530260
  0.3885339838830975  0.9086548574575090  0.1040677913466191
  0.0360027589844754  0.7023276903744681  0.6641629875975752
  0.0225803548856712  0.7310587488985915  0.5397056241792957
  0.0503218485419214  0.8223111041404125  0.5731961249450593
  0.7418503578774049  0.8493311526902273  0.4480197489886417
  0.3444487005310319  0.6569184080153273  0.8456951264320168
  0.7264201728418127  0.7126361995699506  0.3170394189628984
  0.9440505897167509  0.1707724070726569  0.1592394254429556
  0.1672545259830488  0.8279741520898700  0.8119026439444178
  0.8350836194594040  0.7250154276106238  0.0638997855245188
  0.1769253430679549  0.2097385740623961  0.7232598810889928
  0.4768843384716375  0.8511238804228350  0.2426259585880058
  0.1272808802628881  0.2045996745957783  0.7624961501300875
  0.4281550756880809  0.8833160549183104  0.2179659609274454
  0.2257666423835010  0.2495924228879450  0.7882725691658282
  0.2046546689566829  0.3060967465248319  0.7701932450599257
  0.4813872871445154  0.8968662037619909  0.2858981939314698
  0.8355404199786913  0.7387538696898887  0.0049147645467495
  0.2974013393718811  0.2302493988941837  0.8716305273312612
  0.2758803535667815  0.2883492513907699  0.8536534768170451
  0.1012479260106492  0.8169833664194639  0.6135706855291594
  0.2817439299002064  0.3243988938202010  0.9577281392220836
  0.3274021922710137  0.3278253035541489  0.9185063222196194
 -0.0161888067247115  0.8351782572415112  0.5773033268856327
  0.0466168958178466  0.8647387391869262  0.6081212999113846
  0.0232036964477223  0.0439601133986603  0.5431488429190582
  0.2701512058933487  0.5554035990125719  0.8342946802158127
  0.0474463179030554  0.1047414280356586  0.7588674820450227
  0.5842276420235967  0.2805606593280117  0.1774419863358426
  0.6503330942096132  0.9679717289229602  0.3729540054870089
  0.4306040887397029  0.9323270081381700 -0.0028191649776625
  0.4955988743139100  0.9242141036397482  0.0774406631710295
  0.7805185460087901  0.7289734572634848  0.3861295733884505
  0.7381166732966439  0.7901152093293550  0.4644783878896725
  0.7917678012614965  0.8308935017548866  0.1819037894820975
  0.3819910198776131  1.0019375023266797  0.9478685646066379
  0.8048700876253404  0.9407126820739378  0.4406256759748114
  0.3912264938981705  0.9272685816181229  0.0462680173370973
  0.3570971328485849  0.9588140308331063  0.9131571842907824
  0.2944486717034757  0.9652189878344534  0.8904071453408845
  0.9698796203120286  0.4814927908003151  0.0837342722237307
  0.3047684589551757  0.9206736001618856  0.8470895712616431
  0.1269056917165073  0.4370588312262619  0.6418614704885621
  0.6225793460626281  0.6624904222404989  0.0064129650005906
  0.4514460494872102  0.7335745333960899  0.9846801930109513
  0.5705248745411547  0.7254941416303189  0.0837535470885582
  0.4410396778643201  0.8536613792235646  0.0080026281739602
  0.1733821585840145  0.5110916064995003  0.8080908799992200
  0.2559931169683827  0.8820325548589942  0.7798622915843315
  0.3200593374112878  0.5605975685781590  0.7949694403713262
  0.4980268496416280  0.8541089175782955  0.8666020417067239
  0.1193187945663951  0.0868906353213529  0.8450018236022679
  0.7159639645213224  0.6056710895279528  0.2930256258306527
  0.6483990919197420  0.2375042723950369  0.4912759547924430
  0.0879451586868381  0.1533144616442535  0.7606206033977919
  0.5064784677289340  0.9378290915254793  0.6849741936897840
  0.8673531938902754  0.7151475736722972  0.6835281860575231
  0.9961635013285457  0.4367177459966201  0.9896082015761561
  0.2992742476109586  0.6664355541237875  0.3622870473756242
  0.7151912734707996 -0.0270092464922547  0.9698338151402577
  0.5873630121973679  0.3112660101520516  0.2834821967779929
  0.7491587152368919  0.2080858610617416  0.8624750786069652
  0.6669963666086237  0.0497253506327584  0.9797139089751741
  0.8620767471096267  0.3596467809872528  0.8642273227340586
  0.3465572376015782  0.6044128038687808  0.2837029268739066
  0.9121219673773298  0.3634694253910260  0.8271637295586741
  0.3987773380655183  0.5882175765236772  0.2488109783869549
  0.8129523252731762  0.3203463569565643  0.8039366972935487
  0.3460515749200934  0.5887297880917783  0.3465310076072028
  0.8637047958645261  0.3259926298772988  0.7629960518997636
  0.8031262073819957  0.3323866099117057  0.7434088950237231
  0.3382301783849352  0.4946870518905421  0.2582377244318068
  0.6928674286018111  0.3022887000874723  0.6583946932539746
  0.7258985164321916  0.1973958546033129  0.6390599060057023
  0.6637707438468566  0.2034772979215086  0.6145439169699880
  0.6726455755427108  0.1583438356488930  0.5593247329029628
  0.0633443273258190  0.5130414807187406  0.8274129639645159
  0.9315940532714945  0.0057318236384268  0.7593449126404664
  0.8977746976234379  0.8356173893999918  0.2214038441908468
  0.9504462080604098  0.8337993837713673  0.1271688711243276
  0.8411076961734556  0.2348892386438759  0.1083671882387992
  0.3649156788624083  0.4800911587051133  0.9322186107002749
  0.9861715598992450  0.6513258840983365  0.0883660772506688
  0.9911718774440724  0.7106660307088210  0.0611305700890047
  0.1031801839382586  0.8563175135600460  0.9776938852811403
  0.1077821214642284  0.8349318187643879  0.7863939554457798
  0.3384315388756321  0.9825694207234100  0.1934181148245900
  0.8440905278162898  0.8177215886487300  0.1499455756912352
  0.8600732943687552  0.8828693638256947  0.0546844348899324
  0.9461181594513274  0.7720738945647040  0.1426108508422735
  0.3808575794097231  0.5529650008117215  0.8177081400178787
  0.3534679075939547  0.4913718238063500  0.8742179233010211
  0.2232415791724641  0.8522041106453209  0.9453501045778269
  0.4524692277696279  0.5338091928631691  0.8976896074403166
  0.8794835476422638  0.0506179481698309  0.0580370513486744
  0.8774446572477433  0.0649377905882194 -0.0027717037269650
  0.3041563230802735  0.5533142007039785  0.5678656612755689
  0.8168539179870755  0.9587754791859802  0.0715938133727806
  0.9428790252652814  0.1872999185154735  0.0998625916992749
  0.4160380265964315  0.8057694332052083  0.0662649747275132
  0.4179873713320190  0.7901219035139669  0.1271044044607304
  0.1033696090271542  0.8660321957717666  0.8979199826387599
  0.1938326341309816  0.9211458143425417  0.8644756396292085
  0.8883064182930446  0.1577782607708386  0.0894603698303011
  0.0980253386646461  0.1089865470644877  0.7174641406273369
  0.8500670812666339  0.9060010582650836  0.2348072352260052
  0.1609134880408962  0.6964359147634961  1.0087174242460049
  0.0498353632384503  0.6982017650608278  0.9647024240373131
  0.1639233065889056  0.3511360870357141  0.5257563901950153
  0.3821842284326509  0.5184906672711516  0.7126045050764727
  0.5194982005780632  0.7419904134511676  0.1189894211071573
  0.9318742393718282  0.0345794440657726  0.0232755155001872
  0.7719742083011563  0.0506272245470509  0.0224919873798397
  0.9335404443077450  0.0974415015364830  0.0085996869735374
  0.1443744656580898  0.3473971511953765  0.8532182309733333
  0.8133006296218551  0.4965053650488534  0.0800848987100209
  0.2436893907421527  0.9589483845667288  0.9859036307929658
  0.8668723384460253  0.9281339975076645  0.0962906906060343
  0.3136027922914020  0.3042447321809312  0.7521523329129797
  0.2430471373779648  0.9601815757720434  0.9290885493382639
  0.3317530867378464  0.9376379392222508  0.1575922672217435
  0.8394811182911569  0.7704718650968430  0.1067806226255151
  0.2659553283445112  0.9074436503538642  0.9469411160031003
  0.9947740740514490  0.1550242358701177  0.1245219226090874
  0.3641233177170393  0.5441860902082224  0.5917781488832533
  0.8900075358668224  0.7563040636501402  0.0723551145937304
  0.0302080623999956  0.0318012713617953  0.8825353693386977
  0.4212278251225250  0.5686225727262385  0.7163281525236916
  0.5081916987994705  0.5839968348343441  0.0523229214444234
  0.8697272941893632  0.9459358910307217  0.2672319569435308
  0.8152964664089242  0.5084751051840093  0.0222951676954941
  0.8586112776250098  0.4196381537068040  0.0628670628297787
  0.1554964350207419  0.3019085179317485  0.8091562696762543
  0.8365740579108845  0.6780428504594423  0.0180361102183803
  0.9537858497879121  0.3119255694271134  0.0695092746338025
  0.3920578718333871  1.0035498829055320  0.5167272629873555
  0.0382376657087031  0.1158850804668149  0.6980124372776892
  0.9033731741702169  0.3274669649579123  0.1037957800228947
  0.8466683206554476  0.3135997045893346  0.0352852575343791
  0.6876244420560642  0.8470061923763839  0.0819186038155694
  0.6770042898302288  0.8016966444902873  0.0430646466468329
  0.0451980593055273  0.1417575629475593  0.0894300330580720
  0.0945245520703600  0.3425031356167216  0.8922418548300821
  0.6615318665449713  0.8110015477118315 -0.0169540524962852
  0.4434926297335729  0.9413796936789811  0.1105313632299425
  0.2540441506629095  0.4799054382783654  0.9559122476199285
  0.1565781429100462  0.4384071397072978  0.9316910005807435
  0.0985376245571119  0.4438895062299448  0.9089939508756956
  0.8688075129449155  0.5278391667387835  0.0903932124036962
  0.1300798637220978  0.0742838130427252  0.9078359860314453
  0.4725720230126724  0.8054542774103265  0.1980660314321899
  0.1607044784690441  0.3862845184739311  0.6273829933213855
  0.2047178777809877  0.3405596813956265  0.8756126988471652
  0.4227981008920669  0.2331940013545698  0.1914299363338591
  0.4229891818446290  0.2167670548776002  0.2509240812900890
  0.9809061812866172  0.0026419660271851  0.0496548219625923
  0.0684247667070687  0.3434348713367503  0.4428127127968078
  0.5442397477134626  0.7076097802007022  0.7949321150909182
  0.8535470901099634  0.8398256417079679  0.0173875307717899
  0.5056975986774574  0.6571119041946476  0.7898958626416637
  0.9466039951801332  0.8089077956097032  1.0145472746091999
  0.0790693819257241  0.7718330495151630  0.8413079653659948
  0.0826349105814374  0.7402196503586730  0.7331355907426388
  0.4469057064007094  0.6640297169256756  0.7678901056120622
  0.1224258352146515  0.2973936752636198  0.5216524840642683
  0.2322325771574782  0.3679859600047110  0.7107127089772289