Cr H  Ni
 1.0000000000000000
    38.7169076500286806    0.0000000000000000    0.0000000000000000
     0.0000000000000000   38.7169076500286806    0.0000000000000000
     0.0000000000000000    0.0000000000000000   38.7169076500286806
 Cr  H   Ni 
 1596 106 3725
Direct
  0.9332007351163262  0.8523700583089958  0.0096152243829703
  0.2888030250567285  0.0448381013736631  0.7399128126370946
  0.3687605493080039  0.8054384895193878  0.1654465862705903
  0.5309343919685955  0.3462762809303933  1.0259017175118543
  0.4608023682753100  0.1484087415845909  0.9996806245671885
  0.5754730262060839  0.1451660654209041  0.2712088467048740
  0.4779166344811598  0.2096206482423434  0.9428259267623385
  0.9658397945899034  0.4366449095282644  0.2649734629247923
  0.0069990696419991  0.8834036791958024  0.3024016610708228
  0.5033608449329420  0.5734727930454356  0.1155948942438187
  0.1912086093966604  0.6252786590201552  0.5168324959066349
  0.4969459691037252  0.6543054354537953  0.5580428316817067
  0.4676428832936185  0.7132637940133699  0.1120532357289224
  0.4056627929135592  0.2287189199796319  0.8543730303138967
  0.0651083516189222  0.3579382600381327  0.1514275771488588
  0.4279831294604644  0.2645494472048393  0.2983363433787552
  0.0079118837492785  0.2952190117094177  0.2632933625999949
  0.9177313601564108  0.4693145476584177  0.4610134302165145
  0.4323388569679004  0.3254434349399251  0.2828970422814808
  0.0156117871877397  0.3746851402832440  0.4157925071478121
  0.0673213542799584  0.3728917616957453  0.3169380420944078
  0.3618947899516978  0.7286717250250292  0.7283421909195474
  0.0594495370024357  0.2472878309967545  0.3499619265518685
  0.1625945198872425  0.3362554193852096  0.4738767047670433
  0.4713815452942949  0.7592774792257686  0.8196603363320212
  0.5596316329724232  0.8139048041079385  0.7827546081605609
  0.2613111139954209  0.7518634162944948  0.9176279135699780
  0.4839456219295613  0.7477603028292009  0.8791274558635527
  0.3608519627682975  0.7997861682265980  0.9465209039630518
  0.4368892571237854  0.8293245983366649  0.7407668151090786
  0.6160955443932191  0.8184115714646818  0.6456333209079760
  0.7911458472012267  0.8198410827034693  0.2438590960023819
  0.3218717368844534  0.7520182605180600  0.9369072885422783
  0.3833446410110791  0.8230264735073232  0.5567457832750833
  0.2819446869667034  0.8557057327101184  0.9661913720317264
  0.0302277488365132  0.5486960245527812  0.6483022194010132
  0.4030705899351294  0.7467592138851941  0.6298782319064752
  0.2669328160856518  0.6526128539995514  0.5908482079046457
  0.0777208448713984  0.5869997324839087  0.7100525307633875
  0.9909363970346816  0.5324016999841102  0.7481032515777546
  0.0883590970941258  0.5756642967635361  0.7708363410592270
  0.2496806643105387  0.7650756067616110  0.8526714701696964
  0.2288790181592536  0.7862782885479139  0.7292816374705631
  0.8295680502131245  0.7023585428722595  0.4170884163154137
  0.5486610185821502  0.8919181899847567  0.9313948616008894
  0.3814642155922423  0.8517481659460695  0.0498917643834846
  0.0634269717254179  0.2933574596417101  0.3951079106044575
  0.0088308710833850  0.2638801009165487  0.3877266884382939
  0.0111137865890835  0.9453954721428915  0.2835615775740390
  0.3296596658986110  0.3380866274867317  0.4134175218042905
  0.2515518821450655  0.0517479746863533  0.3141263036244966
  0.0326007244276905  0.5794865243761449  0.0748267737157740
  0.3295433273367885  0.3708835569270487  0.2918782299927256
  0.3442846237493956  0.0496866823866006  0.4219274398311482
  0.3875202749695134  0.0058152979014015  0.2821169973682821
  0.2764440947544139  0.3731548837827348  0.1613952224637745
  0.0236109783239664  0.5148139838202588  0.3183472978884599
  0.8966041046433140  0.3841626332875385  0.9702965079594964
  0.6539853272496838  0.9981081436121946  0.2434588788633863
  0.7820717215287771  0.7204008613112181  0.4439176537629292
  0.7193852043716034  0.6906092094596462  0.4393663279511161
  0.3756064770698034  0.6844731528281839  0.6809467447948812
  0.1058922717535451  0.6515315540012918  0.6508633852856338
  0.8150419513688967  0.5936140077694666  0.3999837879845703
  0.9257973786068293  0.5912427154078999  0.2025935568547708
  0.9792449536186312  0.6068092175755339  0.2740093212197037
  0.8669084898562248  0.5645207319117687  0.4223544496320524
  0.8632215303260931  0.4987731825969657  0.4369578901943474
  0.0201061475643848  0.4518659647149150  0.3344828666090456
  0.6519495743979407  0.9341379427587847  0.9575745079696372
  0.9132309098327169  0.4376457011692671  0.3590945312013458
  0.0739650130387864  1.0035378387401892  0.4032126281711559
  0.1098583777179143  0.2156486324791780  0.3741169555653825
  0.1191925719825565  0.3717575722040630  0.2212877169543421
  0.1042142059945023  0.2281363882524086  0.6386995623607287
  0.4558228981195671  0.2686777978808941  0.9196266070589101
  0.0552021921805631  0.8189891847967083  0.2249927834359524
  0.5409722529786276  0.9590709077260718  0.1699543470023835
  0.1980239847352863  0.0494642097220159  0.1680806418750577
  0.4231070676354080  0.2173890103059984  0.2516440772493041
  0.0634664862561914  0.3425666736646341  0.2117881370497934
  0.4787329265948555  0.2649001569483788  0.2029817587646851
  0.0545313514206384  0.2487240122022452  0.1219752495750948
  0.0511784248370586  0.1879759490041587  0.1352360864515787
  0.2160641852177347  0.2799709609318198  0.1668839593839922
  0.1992393399804183  0.0381451233530514 -0.0007963645331609
  0.0091305009714785  0.3282980572585024  0.1402332579259467
 -0.0014466043119028  0.2377753199476987  0.0470073236869003
  0.2845437690733487  0.4655035697951325  0.2509612242266708
  0.0990359406561159  0.1270311625003719  0.0507506262428382
  0.2404298818544909  0.5906490728105367  0.3127179325350948
  0.0448367328510864  0.0457898203807838 -0.0025959178117758
  0.1823855215662591  0.5116595540240718  0.2599948585961805
  0.1581884608269209  0.1378735847117701  0.3553416485149498
  0.1475756276913905  0.0479577900549349  0.2648130881225464
  0.0340647802044495  0.9904641800769514  0.2458615306705751
  0.3412215440238190  0.6087014866279145  0.5111138799689251
  0.6461627056738153  0.2380437790811796  0.4935547808426558
  0.6912211343448673  0.1484565390176784  0.5431604554628480
  0.8890422433105342  0.7288110652240630  0.1962640860704817
  0.0295991353615467  0.0147484187399158  0.6765128552785943
  0.0229453451523568  0.5909659641909457  0.0178116814824013
  0.0753010059536311  0.9362885854936681  0.8184951384516901
  0.8517034619795932  0.9149940517900945  0.4681655062615507
  0.9108360978796233  0.9595597883414627  0.4187342642938298
  0.9851662264078694  0.6673865458307880  0.6083523541415241
  0.1782257559536509  0.9878586633021170  0.5058079369688362
  0.1867942656407401  0.2342842390325241  0.8896600152776312
  0.7503782252708897  0.3906859206297544  0.1484813906915813
  0.8091789287545986  0.4533455507628221  0.2618402423073493
  0.1733700703172030  0.9272271374182933  0.5215402609001597
  0.8567407168029560  0.3901355997937167  0.1838591875819155
  0.1365657880171997  0.1956958528571317  0.8231543862708159
  0.1552195534073682  0.9071861235500164  0.5760022538599472
  0.8562608398063279  0.3753190980157372  0.2430349407119189
  0.3734736509104299  0.7160234937607025  0.7895672247955262
  0.8322647610923243  0.1394562424174977  0.9040685427095806
  0.6184743077380731  0.0346120490336527  0.1458582914545747
  0.8875465196119042  0.1357979868027649  0.9219439795732712
  0.9363704012813230  0.2237468152842610  0.9728538591411625
  0.7593760240187295  0.0150138850531698  0.7523029782499111
  0.6081466150157361  0.8509539304717452  0.8463767809542830
  0.5188355383019866  0.5808039171510766  0.6377566438382924
  0.7362848515968490  0.1447196496916142  0.4360642237489789
  0.9772142495074942  0.0731430171380695  0.9643933795838001
  0.2296276815989798  0.4203015325283280  0.0740625676171916
  0.9748899064145238  0.5274966959508522  0.5255532235973032
  0.8882779158671659  0.3864147542708767  0.7046264871993672
  0.4228930144681551  0.2524106382539486  0.1295169044793848
  0.9947992246779922  0.2982285741080952  0.8668124369544317
  0.8020408503126308  0.0470859591489076  0.8562051256751206
  0.7524403990129794  0.0435635081900991  0.9029073705653393
  0.8110724818085329  0.0327320960134326  0.9218119846448055
  0.5758809608205497  0.1586371607153854  0.2086059420894367
  0.9787797436821776  0.6836324451780001  0.5477328628544827
  0.4326765002994817  0.3577236569468664  0.1607645862553156
  0.8354769279469705  0.9619060892687580  0.7290511798269466
  0.5722308668205568  0.1496762301501018  0.0394984099988546
  0.8283134988385435  0.1496363642253438  0.5621759176715272
  0.4678416113757403  0.1906704403932062  0.0471894936258597
  0.9443773515111320  0.2254872062684880  0.6993534717068285
  0.9437533094092275  0.4603675424332147  0.5815770628878191
  0.5287721234155915  0.2671216837542656  0.1068856970588355
  0.1377767169630309  0.5750445663103295  0.1116126512229253
  0.1755935631480084  0.4349511799762425  0.1117025107163119
  0.7847252665137694  0.1141425321206284  0.4625750310606833
  0.7929686548144012  0.1368366991611449  0.6116115172327028
  0.4258176073384531  0.1848735507429256  0.3731574674244725
  0.6894361821226203  0.1603100678520924  0.4748482633615103
  0.8930613750419536  0.1832670393971087  0.6342032866471252
  0.4521302726844374  0.6370677774851909  0.4274716478875288
  0.8442517416515336  0.6686140042947788  0.9010782697715936
  0.9922986471919276  0.7178156119837362  0.8829878638619273
  0.7064389739233358  0.3843628922951343  0.5331800451509274
  0.7172266962017850  0.4708541080404535  0.5584835428359944
  0.7075302386209182  0.5024171043508274  0.4940522531854944
  0.6248337688405278  0.4202728621229129  0.5936986906312928
  0.7596467047259708  0.3927663452670209  0.7018685946660934
  0.7561481492247724  0.4291866364377607  0.8001262561978871
  0.4886303002788406  0.3691834217142896  0.4614046201446628
  0.6788648305674412  0.1366554152715719  0.6243675157103817
  0.8000007239600566  0.2983126529023871  0.4152172057818447
  0.5555638849664195  0.0983208885231464  0.5291581745270562
  0.7500052082021025  0.3142027476049430  0.4513522149619883
  0.3948926500797721  0.6140841735426018  0.5327646447109156
  0.2137629872818500  0.8364512738913105  0.3326395663304610
  0.7514847496033020  0.2915727248205213  0.6774393903449221
  0.4823708171292526  0.3106791498684463  0.2486394980010063
  0.9752818659682574  0.4569078259459914  0.8653122462231304
  0.9254351306379901  0.4515247629056795  0.9071798959760279
  0.9861801077413141  0.4438843742680913  0.9250553798237582
  0.5427574811817929  0.3902031725267563  0.3023369318079664
  0.4401491262116474  0.4338839148699750  0.3106677797171942
  0.5120597992820346  0.6822556217953887  0.3689752387864801
  0.2576906424696281  0.3565947871314389  0.0456080056511031
  0.1836065369150853  0.4475845589558086  0.0516946219397854
  0.7606634997685032  0.0579240619690520  0.5652934900390781
  0.2330638709019217  0.4851692586186138  0.0557348974951958
  0.8671839170869272  0.1241858586864233  0.6931067410104731
  0.8778119494698365  0.1141201595491360  0.7546932591460499
  0.9483849872873079  0.0956968493462329  0.8397414460080268
  0.9564450375503979  0.2145404578008519  0.7598822760635191
  0.9671438573178890  0.2032771610353852  0.8216688041122094
  0.1003237329210406  0.7136170383924582  0.1009518981592522
  0.7888303312335389  0.1452003765980121  0.3399042039088321
  0.8348267996427381  0.0815003420309879  0.2600660832707361
  0.8987258727180514  0.6097381633448926  0.6496450503334146
  0.8509059670984263  0.5713083471440050  0.5839051690187457
  0.6865125556037140  0.1912135623623930  0.3500810659985310
  0.9561417068713102  0.6348812879965170  0.7746868214138518
  0.6406924232009308  0.2679986416071006  0.3694517872814326
  0.5937085528365472  0.3299039404011453  0.4499786960926918
  0.5447021119940502  0.4208477880576270  0.4061112792761302
  0.8103736688504459  0.5531828148309580  0.6853322564006241
  0.8580026778709895  0.5913028135791903  0.7527498563716026
  0.4999480752058479  0.5412438072865562  0.4732970672095452
  0.5011575344371710  0.5599336185431661  0.4080010793485081
  0.0480150212838764  0.6286492775621948  0.5251731358713644
  0.3855934675665473  0.4186439245017452  0.2408401548574499
  0.9615006748068027  0.5711818114731650  0.5663636298872597
  0.9385852663296014  0.3582256141776607  0.5627014652710403
  0.8017066039579042  0.2832421996955244  0.4751992155157481
  0.7938754490571799  0.4438683189678424  0.6979280437039467
  0.7929677153623004  0.1897919776430736  0.3833695356639185
  0.7299872475563111  0.3485195028998868  0.6587817001963919
  0.6702811419553548  0.3573705727535538  0.6386556743341626
  0.7186027682675298  0.3608930966441704  0.5993524497133660
  0.7048167988377534  0.2620726147515765  0.5574103108875398
  0.9651134554241138  0.6534323424212907  0.9397084630958208
  0.9171656982550501  0.0205980507454059  0.4011522935220916
  0.9765232135601147  0.6091522527640229  0.8980933642055173
  0.3296549503368353  0.8911956901330516  0.5812576426619046
  0.8918909145293039  0.5225399753507861  0.8267188807784593
  0.2116075616465457  0.8039126979207732  0.4538563738803523
  0.4047147082889596  0.6654714161051724  0.3999275610020501
  0.9379964088354941  0.4078914288764249  0.8646497270806420
  0.6747828631632707  0.1892449561852644  0.6762221507005961
  0.3142084807632587  0.7893090130218506  0.3238278884676867
  0.6393864172487023  0.1403291832904213  0.6658022591563137
  0.6513319160049005  0.2211054202120978  0.5570226222142998
  0.2071757344564822  0.7736652148492794  0.3504503923019063
  0.9483384082953253  0.3442626119305636  0.6201646060996968
  0.1407670129802560  0.6211211112233211  0.1517943607271987
  0.6983405254824107  0.3452721964894138  0.4241502274302861
  0.8543829967783386  0.5058893199463650  0.9245868495133770
  0.9153088781703802  0.4971929163515213  0.9471359484159836
  0.9288486882141345  0.6761468960706156  0.5912124669653585
  0.2241338925032089  0.9149416501360483  0.4865872389601721
  0.2179118560483037  0.8662027541747606  0.4395807390593033
  0.8053527692636341  0.7020488305629863  0.4920258895194876
  0.8320314718678685  0.4964877496532873  0.7020821181463865
  0.8805789169674365  0.5339311242947588  0.7685432055581454
  0.9364096409342509  0.7970938629037344  0.5742628839760983
  0.7707572997519375  0.5375389634597723  0.7850720394269766
  0.8504780898023632  0.2039300254592197  0.4534959748707961
  0.7397872347299679  0.3376162412270605  0.7215211651221702
  0.7024916435478259  0.2874475325199542  0.7191005715779971
  0.6424755869590647  0.2947002484467717  0.6976866797688582
  0.8932654932200164  0.1253614267226440  0.4375477219002707
  0.5907048439228332  0.2569468895240556  0.6359703115128050
  0.8714218925817213  0.0857106421627482  0.4793445360537472
  0.6387881453813491  0.2609212438951190  0.5931676955452944
  0.5421365308743831  0.2054099512456513  0.5771331660533323
  0.5480248741295934  0.5106715691733943  0.4950827545957698
  0.8868013005548475  0.5521141958161633  0.9424992254470486
  0.6497141543325530  0.4682601202266455  0.4822234006713190
  0.2727407241866426  0.8962743146224230  0.4500834700505890
  0.9853337029580964  0.1816541546556418  0.9466022211512578
  0.9290103652929499  0.1527111449998604  0.8196052208896792
  0.9230588105014786  0.3514675498742602  0.8859013140772142
  0.4162220569147881  0.1618680611706405  0.0351234372606133
  0.6539599721325129  0.0014831632908106  0.8709193303334752
  0.3987436577952686  0.6065377929606258  0.4181727203562507
  0.4470092821581488  0.5426018547821019  0.3369351985592784
  0.6870085940772153  0.0925954703925395  0.9265905718874784
  0.6815606283358209  0.0618200834697286  0.8158094555190252
  0.6096164984784295  0.1164089821762968  0.8369132623314194
  0.4433212795189472  0.4652281641824754  0.4133624392070361
  0.6336060086758291  0.0249964844703515  0.7438143988417374
  0.8011891776178571  0.2445639649530508  0.9239990832143103
  0.9106557270033975  0.0466050858941474  0.8356077214438444
  0.8999251553507138  0.0918537711036281  0.8805055504375564
  0.8094940013495638  0.1996746836517695  0.8818200982138255
  0.7089645999966516  0.1240459399176501  0.7567618374978803
  0.7199434494152332  0.1113068009594572  0.8195235700697036
  0.6478848303949944  0.1311701841536642  0.7344994432974445
  0.7205992779296000  0.0774175726046318  0.7178684204291839
  0.7323217738462694  0.1290077807810004  0.2702480926905994
  0.4992397001571545  0.0512830294346800  0.6394965537923374
  0.5408019977759018 -0.0381707242489552  0.6333666704090446
  0.4371453775864493  0.9483402476227326  0.6016116613196705
  0.4131704251075213  0.2397173167503061  0.0208893994161356
  1.0002193656456499  0.1355551624171938  0.9061458228393717
  0.1621018840449717  0.8521400668739092  0.3680720798684585
  0.9143283245663607  0.4305448204170352  0.7405571879758408
  0.4126800583564794  0.1035710002232265 -0.0072593708229179
  0.4621652252409714  0.0847292286061521  0.0165541956557017
  0.0021475847681774  0.8149655034179588  0.0918364258485272
  0.7839605962957609  0.1858575601819513  0.6557274034746867
  0.4690041842476349  0.1744459347232307  0.1100589840409865
  0.9753792085449541  0.4237739823865508  0.7618312057270665
  0.6266918053059750  0.1754432526236198  0.0527295902980763
  0.5166591617674576  0.0988565950761752  0.0893638593029284
  0.7356442318923652  0.1303939448165523  0.4989642971476029
  0.9982216468830297  0.3997002228989326  0.8854603805644164
  0.0976220811464909  0.4097204216407871  0.8040591156193528
  0.9984125111425617  0.3840490006284332  0.6849088295755504
  0.9714537092079328  0.3214918979135187  0.7439578624584970
  0.8655710836737777  0.4262572168604173  0.7804769539541052
  0.5122881160143231  0.0532575348584390  0.0357581513991964
  0.9210590583720837  0.2822045287065424  0.6803818919252255
  0.8608351124984002  0.2884970096082464  0.6586388122529679
  0.8512767369525311  0.2990075469384376  0.5982893640413308
  0.0050776210662145  0.8488603221948757  0.1960622568131413
  0.8083046597993249  0.2053977322836087  0.5518400208252343
  0.7501137623782079  0.2536757353539187  0.4634188327761978
  0.0411429342389158  0.6677448713862754  0.1588581308810120
  0.8697412013749340  0.0371815527402188  0.9371467385731957
  0.8304073583046987  0.0506946558830303  0.3845772820629571
  0.2564965262832550  0.8827702901154509  0.7796414597577496
  0.2693983609106311  0.5563727973759149  0.8359686377436170
  0.4219823265702118  0.8532732132320423  0.1130541695106398
  0.0898309932333068  0.6760043149104847  0.5224602500935264
  0.0972254222006138  0.6635413251112557  0.5893397769257575
  0.8490777822557155  0.7380174686191052  0.4667503679829872
  0.6567437297002245  0.9279482390627901  0.0194824610988848
  0.3382104396944401  0.8545104668735772  0.9288799484546620
  0.1402580029313117  0.5178565352659342  0.5244035736432612
  0.6513888129510967  1.0062272549075966  0.4816625353148937
  0.1791476498316845  0.5982359435363916  0.6296416750561695
  0.2380729203232241  0.5914604148645057  0.6502671664692377
  0.9200633703906081  0.5284384562866249  0.5057398366935031
  0.2480877962305532  0.5796982730518968  0.7119074878773303
  0.7860171735743667  0.7621885115256646  0.0281822654475098
  0.1043867549475676  0.6831074039258623  0.7577264315797708
  0.9729468766891547  0.5608885403412051  0.4575838113817197
  0.2961659799328137  0.6175590370610065  0.7789462502783104
  0.3559183903271221  0.6106754212073409  0.8003859224496491
  0.8588475859872802  0.6121196963827104  0.4627954211018541
  0.1917702556955770  0.7386816385317627  0.7212065836450641
  0.8322845649591079  0.6648009257612260  0.0770670356652685
  0.4398762707706416  0.8979646933918209  0.0585290006092858
  0.4549657867529036  0.6863861177668847  0.9397014173674009
  0.9280838229837555  0.6051145924830738  0.1440779903962831
  0.9952593551341943  0.8260468215417838  0.6461619308860185
  0.0340071666574904  0.7026200553297760  0.6744809569545925
  0.0183684734762846  0.7343892485653016  0.5493427644416149
  0.7414590973686950  0.8548860317419478  0.4465133490116294
  0.3840700960275695  0.7063060106253489  0.8529111440101665
  0.7761450668337935  0.6857159578934938  0.3446446590731911
  0.9453920459416728  0.1730024408283883  0.1576494535219161
  0.1673269866649859  0.8295880813455973  0.8132450098922027
  0.8882621767994716  0.6951083501746964  0.0882871911384130
  0.1757670180007301  0.2104225611823622  0.7228620099723642
  0.4774624996310853  0.8510552556837524  0.2440056698621129
  0.1263403762207603  0.2050181254751569  0.7626294607520858
  0.4342129112115292  0.9447390088757863  0.2002089272898467
  0.2249801642053461  0.2498481735014069  0.7877836062018815
  0.2029938130731164  0.3062941162849347  0.7704853594143437
  0.4806298367933083  0.8970560498197684  0.2875672373593010
  0.8243390828695351  0.7961854334448365 -0.0170062190363025
  0.2965555431994049  0.2316073298769685  0.8718192947819148
  0.2752972462011075  0.2889580233933023  0.8537104929345537
  0.0494913298357732  0.8089200200747566  0.6566362344540927
  0.2798948576604319  0.3264657051309277  0.9585277948383387
  0.3460636384032879  0.2720009126282507  0.9374156409239269
  0.0424905740610913  0.8604966584154556  0.6120833228143532
  0.3185914637134549  0.5616456476392266  0.7963410426498458
  0.1509848903391327  0.8193984803498698  0.5815352631709317
  0.8508538442461733  0.3060435038996550  0.5408026498121999
  0.5853723305713006  0.2820686630002688  0.1770928893518257
  0.4986815151908013  0.8539953907324436  0.8672114744849230
  0.6483964905331581  0.9680156275670474  0.3714059997929758
  0.4392703414547693  0.8938036386887873  0.9533270997033678
  0.5469102481847548  0.9135394140841341  0.0379655529656412
  0.7803504659990356  0.7326832629039783  0.3842720321596625
  0.7391059069898123  0.7938047354433506  0.4624895846764135
  0.8511322631547538  0.8848661296308377  0.1337484725974080
  0.3984216794844619  0.0458940061557429  0.0057520270097361
  0.8021019190782002  0.9457267934136172  0.4423366505131712
  0.3874783082142887  0.9355256975786281  0.0414311173285582
  0.3850632238013718  1.0047856813614675  0.9481443641001077
  0.2960542868164694  0.9670780241619040  0.8928778815180639
  0.9700463158910179  0.4838018541781929  0.0815178768940344
  0.3059913057747833  0.9219848737639786  0.8469484891374024
  0.1084523617081640  0.3809145701898001  0.6691883878725261
  0.6250205546534894  0.7114242131995639  0.0461929437207521
  0.4531138142288577  0.7355674176977421  0.9837759436552568
  0.5760658799221313  0.7901990966175892  0.0638616625572306
  0.4912213234955937  0.8876042440023243  0.9714121867138144
  0.1716671449137596  0.5111398058275641  0.8102468553299227
  0.8551170332146962  0.2522010415998891  0.4979957789657967
  0.0227604569153542  0.0431228414622764  0.5428245454994459
  0.0474839943325067  0.1050075060589560  0.7576631743635601
  0.7213923160428153  0.1905954673999673  0.6365630991023653
  0.1803655937710130  0.0800194769213634  0.8646202182448630
  0.7160255684246726  0.6082324348673896  0.2923146427506869
  0.0870105213131868  0.1531498274103992  0.7605806737109838
  0.5052298391047479  0.9388385527592890  0.6845639628978504
  0.8773490843288313  0.6683144900400334  0.6319139174561077
  0.9336162280099111  0.4375201112659727  0.9703784936587088
  0.2995424096862120  0.6677919403074418  0.3650069139161835
  0.7136820892820926 -0.0281451633974605  0.9656534674390574
  0.5890493699573441  0.3128020569467130  0.2832182245380477
  0.7497968899649379  0.2070697719219302  0.8625972089185219
  0.6259644619231640  0.0886635107047725  0.9614267986520483
  0.8625585972497621  0.3576175152097422  0.8660099549729688
  0.2921076255691520  0.5739273862480118  0.2788848346492748
  0.9109470487492676  0.3620833110652981  0.8278547184642560
  0.3988953064992833  0.5891695554251479  0.2503589947305767
  0.7624889529475015  0.3145175126387277  0.8436697610244736
  0.3459516360626785  0.5898555684236665  0.3486981946328196
  0.8609824949723143  0.3244071684127611  0.7624047175746441
  0.8003270242251542  0.3315660864540667  0.7404597951992856
  0.3385488972187779  0.4955456692339673  0.2599453352487318
  0.6918249000586434  0.2988477897828347  0.6562465616163540
  0.6621186519606030  0.1989690577077462  0.6192930570889640
  0.0500583858040644  0.5588789334406821  0.8710470321613016
  0.4097761315126778  0.7654004535021499  0.7981987520735083
  0.9508263581765376  0.8201225199470152  0.1877310965791767
  0.1064249700387260  0.8682636661167311  0.9005578665849380
  0.4718638470203340  0.8205203824598518  0.1372840529920607
  0.9524308808608197  0.8345888344080715  0.1262014803856601
  0.8374963653619055  0.1916427284980906  0.0605621962359231
  0.3652390914437750  0.4827972483835618  0.9332482956955765
  0.9859322381465595  0.6517058456111855  0.0921296320904086
  0.9966631659133810  0.7071846032356420  0.0668859223177723
  0.1124098149790239  0.8549559912002609  0.9739846607677987
  0.1075767945917333  0.8354279440079934  0.7897026804184885
  0.3470072347226715  0.9774053990174835  0.1899427363756389
  0.7927176049022028  0.8318675916442828  0.1815289898864560
  0.8719735295677232  0.8788939758588936  0.0406966953509751
  0.9480580900238834  0.7712395083976161  0.1436997484598224
  0.3787866521455107  0.5530054230359143  0.8178426453181574
  0.3533111286978152  0.4926227827895794  0.8750654695900475
  0.2274589882881504  0.8542870592132600  0.9441914636926615
  0.4525321930079418  0.5361059014727868  0.8972112215971476
  0.8772277669731751  0.0044357811640054  0.0125784277589911
  0.8313643406616624  0.0825975141271581  0.0272063283556664
  0.2803838443748016  0.6078403592200011  0.5463289079703828
  0.8193154407153058  0.9576522551146004  0.0672281761855336
  0.4175108478801917  0.8032281646337430  0.0661181299588684
  0.9445690581949205  0.1888139212725991  0.0976267279626181
  0.1954805314261656  0.9234494392556545  0.8643305362991327
  0.8917074190693213  0.1595537835668645  0.0877210844002211
  0.0977223435627723  0.1090969596211304  0.7161541155070201
  0.8479304512039777  0.8657467041898893  0.1924624050503203
  0.1555719939154479  0.6959556383378641  0.0632108379416458
  0.0481638069006544  0.7456974917907088  0.0112502135066837
  0.1623521453707056  0.3528538406081110  0.5262400490546738
  0.3802877469035535  0.5184969998279321  0.7132412660367659
  0.5196716776706577  0.7418985716783846  0.1190545356127879
  0.9348801426584085  0.0333856429952588  0.0223356337457602
  0.7695408535703664  0.0687263403500452  0.9555094919177440
  0.8861665832416501  0.1110886104752068  0.0420145143721678
  0.4182668487038718  0.5695922783077247  0.7165455623322251
  0.0205264000447314  0.0443354954666482  0.8162217169005114
  0.2461150654936811  0.9593888238614848  0.9881540718952384
  0.8695433613890766  0.9255554642665559  0.0911178594225933
  0.3028469699379625  0.3507936228187336  0.7947057391577692
  0.2442959094729458  0.9622096759391584  0.9308297961041024
  0.3345472521385178  0.9384807460796182  0.1561080674754202
  0.8360164628666751  0.7118445378252669  0.1212677096826720
  0.2676015108126324  0.9097322881745675  0.9463582841819066
  0.9923657750179846  0.1119917761823707  0.0757521688171621
  0.3615307927116958  0.5431419484758183  0.5922477893772620
  0.8930972269243508  0.7562010472923991  0.0699922086137368
  0.1588621299657548  0.3862721979640331  0.6283103774738522
  0.8894518317282507  0.9456609754544866  0.2513566598211389
  0.4935776794690371  0.5373442519560500  1.0157855105580667
  0.4041384288516133  0.6497483971716660  0.8696227815556252
  0.8156051125467153  0.5098463709427927  0.0217485371787495
  0.8585708551787323  0.4201846754279743  0.0643508801855939
  0.1150386887896013  0.2507764448629561  0.8056817051190650
  0.8396633883139702  0.6773096435557997  0.0149600561007993
 -0.0051589034687463  0.2500283208790884  0.9886095905466578
  0.3930746759137025  1.0044999959926086  0.5167578972476115
  0.0376775365766566  0.1161814902851409  0.6970847188514083
  0.8543675280024571  0.3606975950075182  0.0784743544748648
  0.7880200512359481  0.2820769350596674  0.0221866962293529
  0.7075228230489798  0.8980861525035250  0.0514862581420287
  0.6819150023396860  0.8041875185695442  0.0376749675266565
  0.0430677512278180  0.1540245304699819  0.0264089268459951
  0.1167364372367677  0.2868605708126130  0.9094411189158472
  0.6635018034791128  0.8725108752268166  0.9751270791820792
  0.4277355205673375  0.8989616855728726  0.1558269847234887
  0.2542674706399182  0.4816452800301714  0.9570552504042114
  0.1566691107931328  0.4369036711443054  0.9313981715273619
  0.1462637826715608  0.4482978348876298  0.8692990301389827
  0.8766664701948406  0.5887797534036692  0.0702737727981055
  0.1317154272428966  0.0760030433320812  0.9057396829105973
  0.8136344496595155  0.4978453698073830  0.0801264245598663
  0.4229924734563078  0.8370694371342484  0.1731462232570328
  0.2041911894523606  0.3405584625533908  0.8764006893256646
  0.7269903542694331  0.6954988010045305  0.1473493455698360
  0.6253032766362144  0.7428780532274666  0.1537434505467208
  0.9826769017253771  0.0042493652823273  0.0492211050030145
  0.0668618303749608  0.3441155514392590  0.4435212962358224
  0.4833659965340569  0.7119970967888125  0.7733404374216355
  0.8990812266826043  0.8195918554556015  0.0547044008729396
  0.5047809414391172  0.6560842494108294  0.7892863938988615
  0.9446623753569595  0.7947850407264584  1.0181033763032485
  0.1400014065628247  0.7666760194132607  0.8682845958693935
  0.9620506997595872  0.7541831193858828  0.6983802637197736
  0.4454981577095681  0.6645929424411053  0.7683820606598774
  0.1207790009581282  0.2982099200260016  0.5216499591213886
  0.2315454502226361  0.3687270429229376  0.7112347210378606