Cr H  Ni
 1.0000000000000000
    38.7169076500286806    0.0000000000000000    0.0000000000000000
     0.0000000000000000   38.7169076500286806    0.0000000000000000
     0.0000000000000000    0.0000000000000000   38.7169076500286806
 Cr  H   Ni 
 1596 106 3725
Direct
 -0.0012750396496554  0.8522028384955836  0.9711995793092228
  0.0422060179677368  0.9555659412888581  0.6980705099972203
  0.9422438863280981  0.6283278813133593  0.0126133047361035
  0.2758468458105856  0.3510481348358842  0.5065256123119475
  0.0774103028875453  0.9205292240441547  0.5500282929408217
  0.9522494240450708  0.8497913214670516  0.2918840507389097
  0.4765368070205392  0.5934493497814769  0.8513464619937795
  0.4862763396009908  0.5813458933226942  0.9156542739822970
  0.6947842430174811  0.3732797551984695  0.0762592054697465
 -0.0322535248087751  1.0031370555174262  0.3671045898126581
  0.5402630883105944  0.1683608910990962  0.8550330387125320
  0.6759509853789796  0.8334294855192396  0.9305892552923697
  0.5690029082286716  0.8022553777816639  0.8429807102502809
  0.2702802332421130  0.3847944770027145  0.6072748556452564
  0.3732611170245342  0.5311521758432375  0.6535371932575995
  0.6122077553069702  0.5871163531437291  0.0878882024958071
  0.9497212080413009  0.8196980935287671  0.1862198051078173
  0.3341888363331386  0.4810933671918504  0.6473941725227147
  0.9686313960607610  0.9864833432035238  0.4296755202019193
  0.1091021332993443  0.7018394977269659  0.9210116563427515
  0.2470450453338959  0.4242631347177007  0.6848718773698862
  0.5794407959569613  0.2156696613554700  0.8641612329994319
  0.5125189191886841  0.6645658159980535  0.2008436109328075
  0.3452247338491735  0.4679180288773833  0.7099091376802722
  0.4663363070809344  0.9540779958785289  0.8938397907531996
  0.8606200518198059  0.9554489677915715  0.5108409311996799
  0.8635078621319584  1.0055195818549700  0.5518058933639048
  0.8649485176060303  0.0655863319177277  0.5379283894662594
  0.3691190866764646  0.8039026298646984  0.3931180958469770
  0.5542197044616717  0.5893662217740747  0.4178943837834739
  0.4190535383968410  0.7901435193539521  0.3574247972703302
  0.5166725649450052  0.1913991033552484  0.7314656635950061
  0.3666735123028271  0.7740436019145478  0.2883012206976459
  0.3159465302923629  0.8043794809432530  0.2611483706748768
  0.5699149777153819  0.3178229032048598  0.6152495975391050
  0.5116700802063590  0.3233515741837414  0.5934754270973379
  0.2691312438402480  0.8660491070559084  0.3413256652123025
  0.5815737217315508  0.3036994483187895  0.6774967401003277
  0.5606370051402877  0.3620084666850526  0.6576278174456396
  0.2194466982385130  0.8973974763262703  0.3139458241591284
  0.2748445646096159  0.9274758342052358  0.3252694479913055
  0.6707471899372094  0.3730408446551253  0.8403113790912817
  0.7087274235891770  0.4219576187539432  0.8429098933766914
  0.7751447228342094  0.0675352201486998  0.1962116202351218
  0.7040075157634739  0.4591232762925652  0.9399360049541793
  0.6469729719328928  0.3892190746910524  0.3369317048980228
  0.2864353509538318  0.4416800625374456  0.5835059513617381
  0.7910605670161794  0.2649739864604886  0.0835489354953626
  0.8069501519397505  0.9116484753231366  0.5663480743163065
  0.8800713696856655  0.0498965021968425  0.2914599439293767
  0.4501632472556036  0.0797182216286629  0.7873047197706335
  0.4876852503026906  0.1291847736633521  0.7898549030751525
  0.4775627534757688  0.1751715469096011  0.8339655583094988
  0.4912708915536484  0.1638508341183602  0.8978740705011516
  0.8382070385581000  0.1428087490150585  0.2478857193981971
  0.5270622912098143  0.2132277236419687  0.8984263462824827
  0.5376134769526639  0.2030007142985348  0.9583371789174666
  0.7962958543873907  0.2663500351939930  0.3110339772300882
  0.8423528592135123  0.1888608912403187  0.2910578711388559
  0.4201970880752582  0.0174852709886065  0.8466604225272418
  0.3391184856104285  0.0833103047062270  0.8069489091901373
  0.3502175945167205  0.1389747981890874  0.5161359034311088
  0.7362161168252760  0.2048858757091263  0.1934152434469572
  0.6940540748506908  0.3119281925165603  0.3186436567002423
  0.4569488609793684  0.1593930093359006  0.6016697475644360
  0.5991423162127922  0.4660168307548594  0.3567703110275671
  0.4314074370910512  0.2201581853864610  0.5703230253916304
  0.5664585366400603  0.7001328862475684  0.4397114410677543
  0.5272060985305014  0.7733295512215459  0.4556667379807177
  0.8074727256816353  0.7724789472684512  0.9292636284714937
  0.8853751530738512  0.7133770388685604  0.9727540709477924
  0.4390086822015323  0.0916824311625467  0.7231817624039961
  0.1012308614794094  0.9965357305955880  0.7616864442579782
  0.0622652489253562  0.6650584225552369  0.8536561026758350
  0.3302178389179298  0.9420914758337937  0.3975351795115565
  0.2236584893486390  0.4476908638723390  0.5603281137400249
  0.2848615328307741  0.4749041236414768  0.6878768241445259
  0.9144594461860497  0.6180018207378849  0.8864888014332225
  0.2702361418056042  0.4569290748708146  0.5259779118683655
  0.6719759875197351  0.7511753583255711  0.9980295056500268
  0.0164528421158359  0.6267938979303355  0.7822114017995283
  0.8842128434851163  0.1719457417052271  0.0288586023843050
  0.7617135625657194  0.0155852054286346  0.4527251037811113
  0.3379779692919271  0.8181362098005422  0.8214850237608471
  0.2264910601959882  0.8358493609119090  0.5561313014103868
  0.2051635986229042  0.5982071050383018  0.9179193386235018
  0.1154165656826422  0.4818951392387105  0.6835606459429043
  0.1533180895083929  0.5333023492130572  0.6861193971679629
  0.9660250400966278  0.4496225614971529  0.2063068142677790
  0.9623399141503693  0.3865098560245756  0.2206619374137856
  0.4858688394212400  0.8990302071953306  0.9111993571800142
  0.7122462427405837  0.0656775046029694  0.5950060677157957
  0.3183023682526328  0.8353553342536904  0.3672429307211473
  0.3239652999560647  0.8811821839309979  0.4145329312580719
  0.6042205761963604  0.3134448828992342  0.9032898041937961
  0.6399641673907320  0.3513740163043494  1.0031776532109100
  0.2789459621561213  0.9567143844787226  0.4337404302319676
  0.5880716393014761  0.5940141652830762  0.8300639048139616
  0.7533009446954286  0.4198014843321928  0.2520448081475087
  0.5853101099798022  0.5336457049172609  0.5570647881422911
  0.9956982491923358  0.9505982049757008  0.7386883055177457
  0.8826354829518654  0.0031783118823235  0.7973257188404516
  0.4393153641391703  0.6645939319684897  0.5381613034129863
  0.6998752908668262  0.7877264965470177  0.5623548113206793
  0.7774378295865441  0.7845758527062402  0.5863487242411388
  0.4749629801806309  0.8034672662625799  0.4288684831510238
  0.8225187684047210  0.8359776158941294  0.6496473819245212
  0.3798855103391088  0.8957874074470781  0.4837087147070077
  0.8402181294081140  0.8795282913793854  0.6952916544698047
  0.3296808496588964  0.9288368461537729  0.4591717474301844
  0.8505483535975145  0.9452986868377502  0.8593978311350190
  0.3366255635037858  0.9887946000141067  0.4423731152607269
  0.9494256207614644  0.9825353325739739  0.8845691808108231
  0.9299494105813391  0.0164963658436476  0.3172377130688371
  0.9547178430179647  0.9706587745957825  0.9469438706448768
  0.6291064318176418  0.6089102366055549  0.7280223129802973
  0.9058642220839316  0.2498381428759034  0.4066795825602432
  0.5907580634982261  0.5611357474304927  0.7227778199437150
  0.8995011402042656  0.1883146029813962  0.4225522307833751
  0.6041741767105453  0.5151750294495875  0.6804922352293751
  1.0005713305946193  0.1393566084121559  0.4133427137840207
  0.9940896552834073  0.0919802036098549  0.3701850463662103
  0.4864723373048129  0.9088585617338899  0.4562781597493701
  0.7613779888802698  0.5629306208782672  0.3843658745015909
  0.5658756468037787  0.6790731564108115  0.2717733831311531
  0.6685363719719816  0.6813112070340877  0.8964625598685317
  0.6116162187313302  0.6869376864032012  0.8795807489479617
  0.6030139709463889  0.6990157594827944  0.8186320832919531
  0.6638797823665028  0.6923455000477959  0.8370866612773162
  0.6270687120522023  0.6416041957808849  0.8381343819066857
  0.6151268535462652  0.6539483713195845  0.7744935743683246
  0.5768447353059618  0.6056419550480223  0.7680984247022358
  0.6573564224110867  0.5274390007667983  0.2420647088934718
  0.6111019316757226  0.6039049927244582  0.2566578297929135
  0.6006982006919594  0.4959208458034985  0.2331868088858586
  0.7027974080348222  0.4507503724720844  0.2261097493757176
  0.4504225302146810  0.5631742192152154  0.5043588904717282
  0.4831488563778183  0.5301982664620538  0.6338394676963084
  0.6472248603672676  0.4034544101268659  0.2779903496818256
  0.4551369500691619  0.5064202319456408  0.5195217441901461
  0.7608651002605756  0.8809115072932658  0.9699374016460995
  0.6993877318762242  0.4045342413443659  0.1822244882949065
  0.4757189877019333  0.8361883527705949  0.3047579890788831
  0.7959475585667097  0.3115339867035804  0.1309252499865883
  0.7957417716259678  0.2964775839391147  0.1891055983711154
  0.1826811897134116  0.0192159972612156  0.5558708088210815
  0.4412565010262349  0.4168122491429688  0.9717522709709179
  0.5139119381296361  0.7189561060425896  0.4748964480594758
  0.3992913629275514  0.3767579807849155  0.9155909699146745
  0.8111493001115609  0.4824769326042105  0.3659958668664408
  0.9550669225982488  0.2496241121582545  0.3112084084574432
  0.5835437247627492  0.6256433797365478  0.9381319169713243
  0.1753240283647910  0.1732131051294017  0.6172211228320650
  0.1536094962673547  0.2307008370045410  0.6002856386562635
  0.9484135602786321  0.1860168940151297  0.3271056244690208
  0.4859044356439223  0.4786214200313392  0.9741973482275060
  0.9930713995466048  0.1076992057329889  0.3089655930604929
  0.4361509550095227  0.4277883691267433  0.9153455694452992
  0.4135281922622743  0.4848802155686057  0.8947878162816392
  0.4374904853579374  0.9558977021784278  0.3682649652249584
  0.4811710196272452  0.8638387140793053  0.4121109535479373
  0.3172265454220881  0.4057780506475041  0.7690077985139112
  0.3517094487114930  0.3202293876211440  0.6501630301983765
  0.5692103879333763  0.7136820269146076  0.3771167308875761
  0.6129250489896237  0.6356515932406401  0.3631266590228833
  0.5613317271673279  0.6219686081562195  0.9901959625406170
  0.5593904501588092  0.6193669240577372  0.2897222660095662
  0.5480752833722587  0.5723843389088697  0.9401173173919961
  0.6008822318636557  0.5698173987551735  0.9625224330014339
  0.6581404735622034  0.5589678956904292  0.3469724346265463
  0.9564313272730887  0.8120993305930816  0.9481407252371893
  0.8623287521060303  0.7469714124595410  0.7884029758599982
  0.8402473012616885  0.3948284895461979  0.9480418382769061
  0.9387100062778607  0.1085299161313572  0.1763099868247980
  0.8082558786641618  0.4224816825878619  0.3838567017195212
  0.8029483889648117  0.3749751831416760  0.3390694324743478
  0.8587016154319635  0.3916743357497062  0.4112845767581143
  0.9168764014659013  0.4842476127414663  0.4036256890129774
  0.1872289294995117  0.0678609965183237  0.9283821162139601
  0.2250338348677583  0.2136782576414107  0.6835851637439558
  0.7609461314223795  0.5501851275637376  0.4435527738160958
  0.5149686206058335  0.8533989705031478  0.6500816096233876
  0.3633859483809921  0.7735617638205401  0.0580794129585414
  0.4069974555683657  0.7504654687378244  0.0201329941082036
  0.5505474876191734  0.8006195166192120  0.6225706523525665
  0.5123779225597952  0.7534266319274602  0.6067484072648579
  0.5609565004229666  0.8007085563863904  0.0042663066218762
  0.4205494452054227  0.7552125866896726  0.4800915681032883
  0.5487647288184943  0.5080628717114517  0.0410455933874228
  0.7347324799439425  0.9564234251924474  0.8139045410740438
  0.1275712075284135  0.0251274766940187  0.5348647372794990
  0.2071158966063624  0.1065106631166630  0.7005744823127075
  0.0903074851489173  0.0192574415256608  0.2574224168188650
  0.9683588532760283  0.7727245363805497  0.8496722503063235
  0.7453167136585919  0.4738020328861187  0.8414211850067820
  0.7020336042150604  0.4357700360332567  0.2859404501699898
  0.6544653971984276  0.5125535319819601  0.3019349395718179
  0.2651794511991376  0.8356477071063707  0.2336085557486454
  0.2548329295803179  0.6940798387532576  0.0998752197151150
  0.4433781815110772  0.5127738956041045  0.7351840622683624
  0.3066875640286878  0.1850508941055161  0.8303602082401430
  0.7770496192785099  0.0825877669652343  0.1298564818086153
  0.6081841579067194  0.4820149819374512  0.5784664189771999
  0.6758096699860811  0.4600644589654713  0.6537116063788057
  0.7523263348688830  0.5639712380898482  0.6644900558440124
  0.6814103874674170  0.1884617187853600  0.1228105530402970
  0.7496608950804268  0.5942213055789266  0.7733488120561546
  0.8177459856819262  0.5752566183687319  0.8595707063389983
  0.6853356813740702  0.2336419437998748  0.1677770852535842
  0.9947602895046443  0.6572718214482134  0.0111018518189303
  0.4863964824833337  0.3711343118142734  0.2327254635418237
  0.5923039658298618  0.3874460405356092  0.2069749372329293
  0.5415082370594718  0.3866695337497590  0.5318288684349111
  0.5468503333076546  0.4649902998627909  0.2249806895413475
  0.4527472587862736  0.6024273698512141  0.3188880635145147
  0.6414853345536331  0.3987258613250937  0.7205726453946965
  0.6869643207198612  0.4512893774931854  0.7201768074858471
  0.4508328865309453  0.5720456806243502  0.2133486942561906
  0.6372269960967164  0.4434255551500630  0.7598369133142436
  0.4538304684817683  0.6183541535698281  0.2558657772797728
  0.6856532799532343  0.4822486414887702  0.8222174966467732
  0.5809620863879167  0.8195301555835627  0.4008197870683369
  0.2481954589780377  0.1917960308047928  0.8089534861225941
  0.8998834057111139  0.7996757439227007  0.7950695509801021
  0.7328544662419439  0.5187047860470523  0.8842154033486602
  0.8281086637200662  0.5611666526050654  0.9920888063514397
  0.8115768387826302  0.6076876190585927  0.9697429736638715
  0.8776901568076914  0.7205920415602651  0.9109349910928396
  0.1567880517853039  0.7895892757107573  0.1525530670361719
  0.2108380836123193  0.8039739965956786  0.2234067632937183
  0.8842364547281256  0.6902213521294869  0.8068556827929105
  0.1612893357608341  0.8496531761113704  0.1358628673971578
  0.8538185524437560  0.7408853788738932  0.5601634631291051
  0.8000247461394279  0.7325969190215870  0.6008201327867050
  0.1650433989604823  0.8984547902769727  0.1803203912110990
  0.1227244304238682  0.9179101843578409  0.1375285317222912
  0.1319075228233008  0.9603158212544779  0.1770274684634920
  0.8868770580525744  0.8253944790461761  0.6747821408038628
  0.8905001007091211  0.8117215921008416  0.7336234632942958
  0.7113056946182641  0.9940300861929209  0.1427337859021158
  0.6714085982396875  0.0962026308569892  0.0278519152750815
  0.9713597946735902  0.9263877809369423  0.8970272261023058
  0.7688324683690158  0.6406612229239590  0.5459346144978251
  0.7088658463369495  0.6673650301509464  0.5146405943708930
  0.5781295332276688  0.2539242188745314  0.0678082964271636
  0.4879068054002683  0.3859243661606133  0.1718771428818581
  0.3552447049329732  0.6693924379158448  0.2643910847416953
  0.5227526347903958  0.7584691277732454  0.2870320946459756
  0.4205078614986946  0.8045628915897987  0.2954233000214885
  0.5137410283328905  0.4910866829924236  0.8175720666915909
  0.6904852054205979  0.7551370527812535  0.7793533226219019
  0.9917781608224381  0.8656158401825245  0.9129524454202934
  0.6068300125988862  0.5449803268673413  0.5059931719932298
  0.4459096411425930  0.5247712174355593  0.1730972195201212
  0.6820352759556659  0.5847940036999856  0.5821141434069728
  0.3447163304111789  0.5729434520709217  0.1813209357155325
  0.3496100886712239  0.6191445438136407  0.2203048268049208
  0.8381801521394864  0.6506508852903959  0.7392905104834356
  0.3004230235503959  0.6503266078806168  0.1938029463893350
  0.2558366698407138  0.7276839154333328  0.2079995585894987
  0.5357833404590236  0.5860035337468656  0.8731013285160072
  1.0340211028894521  0.0071765190495158  0.1874374981889579
  0.3968801379486465  0.4407757590523363  0.5661752258126640
  0.6408101323873003  0.4399424539943337  0.5453522767805601
  0.8941586986978628  0.1874528769192782  0.1944951521186999
  0.2597146682833482  0.3953936694265004  0.5450480366391413
  0.3419164454844617  0.3324908077471508  0.5889217113539728
  0.3560557996317055  0.4237028701681358  0.6673622760027319
  0.4169934106656135  0.4155961029055850  0.6896575407401148
  0.7531686795841384  0.4050126340053178  0.3129834714985838
  0.4154081295248462  0.4490812900305466  0.7928988215574051
  0.7599984449050891  0.5309696055783627  0.5603888709587354
  0.8250230454934516  0.3079288933760735  0.8642255928104494
  0.9754427889087066  0.7601639330307992  0.9165625780931747
  0.6783707610096045  0.8004808880840366  0.8246274315763810
  0.9029880289518937  0.2823331383091197  0.2846667457090440
  0.8512102131912941  0.2970199230006177  0.3202497381235488
  0.2303291135754290  0.1198243952340797  0.9307589377927236
  0.2452643595585345  0.0630144567968441  0.9516331019022215
  0.8124911587894079  0.5803414087792692  0.4657332953531171
  0.7111335907296155  0.6245785752358718  0.4667108828163092
  0.5921411269961577  0.9099184681966284  0.4922616047025967
  0.6481631780057754  0.9260343508441812  0.5657111260114168
  0.6012410848260725  0.0043815609833185  0.5796349908841260
  0.6776657272191952  0.6935017426850625  0.4740120480651807
  0.7372995372157773  0.7247117341793832  0.4808994063686627
  0.4842998348304294  0.8340761313316026  0.5368582115435566
  0.5930880117950410  0.8947005295858865  0.5588120533233742
  0.5433799084672751  0.9403943907545333  0.4642350256028697
  0.9627236815185647  0.3294367614304405  0.4624400506296926
  0.9649126697521520  0.3894143855402978  0.4486443622476045
  0.8611788303974037  0.4272815896592461  0.5198196773318738
  0.6120890720903855  0.9340659762426941  0.6632975741508013
  0.4803126386666258  0.5620732409718163  0.7404319019940544
  0.3961940599319917  0.4737398331281493  0.6701644534470899
  0.7060258230232194  0.8617840083130086  0.7686330918006474
  0.6756083206760587  0.9646487085966132  0.7929737358868719
  0.7177996038632910  0.7186198869485295  0.9638450859624174
  0.1705340738932428  0.9445646353296316  0.2235875071652964
  0.3027705231087803  0.6189246605023755  0.0892220293118522
  0.2882903383612550  0.5089015976176915  0.0686457214532391
  0.5287344001697717  0.1023781600678094  0.5790857446881806
  0.5049730183737814  0.1249857980115016  0.5109022800511746
  0.5043640805105395  0.0667155554187587  0.5231158917062815
  0.4629280525134933  0.2563485032948010 -0.0186733778909098
  0.5168969286746214  0.2415958938558958  0.0007523763422305
  0.7833756788656974  0.2907148417201291  0.9622875082044251
  0.9243735608198939  0.9144881202674504  0.6110848638138597
  0.4852478610154635 -0.0082220019233469  0.6657297371494213
  0.8696719379314403  0.8362209138067799  0.6140668617632771
  0.9610999001357177  0.8463112137307124  0.5232991096950532
  0.8483006343254583  0.7843978788596283  0.5103856608299794
  0.9738400597436897  0.9460882531578094  0.6161099271313891
  0.9125224427711928  0.9717578153909364  0.5895720516692701
  0.0793855698115957  0.9659562516348805  0.5921184284406149
  0.9642633130749273  0.9549559546725007  0.5573815816826005
  0.9122140349911378  0.9385790618214385  0.4820035783626433
  1.0209444398036960  1.0024014765636395  0.5018763567712448
  0.5031537731294170 -0.0078347928235254  0.9953205379007327
  0.5545607397029448  0.2052915040396281  0.6329429249654803
  0.5615540404600828  0.1108896285204695  0.8736500881847754
  0.5788536293641331  0.1484627146460251  0.6464328253194642
  0.6151304203340178  0.2335891119275886  0.7589565955921855
  0.4855411779895216  0.2212932861024537  0.5495994639401582
  0.7571076041043097  0.4844774296031453  0.4587392184045986
  0.6835742461991368  0.2458654672186886  0.9441085313264864
  0.7187036259597910  0.1452920403790401  0.9227889252340548
  0.5663228323582572  0.1531569352492902  0.9793978071777815
  0.5889002277353758  0.1716657059885028  0.8169192081556145
  0.7179740756479037  0.0184278950718086  0.0136628108714600
  0.6171185430990277  0.0637956494929194  0.0198833620454191
  0.5898858533722969  0.1389149086690111  0.7086489832299728
  0.5452010622174124  0.9872636547797872  0.6890002280772118
  0.4896776401864101  0.0950509617256632  0.6845069893216709
  0.4800612551470279  0.1042536257207223  0.6225931564411673
  0.0229280428708790  0.9674748703557731  0.1497749730400935
  0.0670578996039345  0.9036586653209949  0.0738873914512897
  0.4926397607842407  0.0520198855718354  0.5803402480796387
  0.1554042889878244  0.8047907618220623  0.0892384150734850
  0.8682920877216257  0.4352151533541747  1.0038201250303835
  0.0938993788508764  0.6711097215407580  0.0617712037532932
  0.1990913413864165  0.6111079111327494  0.0483482316670756
  0.2696223882835411  0.5795920007732439 -0.0001116339150099
  0.7266537741298891  0.2636562216066017  0.8442946435368092
  0.5547686845446725  0.2411303388776679  0.7367873337168864
  0.6762570634952118  0.2272491674569707  0.7793727776081458
  0.7189054400364399  0.6658892913652737  0.6928372268017958
  0.9403784989740688  0.9128584756733754  0.6701142889776729
  0.5410164314915621  0.0041678675296215  0.8926968443578899
  0.5362339218369174  0.8805444754259792  0.4820237963687719
  1.0001711422945614  0.1526362016805798  0.3536722318964067
  0.3880511482813379  0.3209619145279875  0.9406367346637369
  0.2079489306499694  0.0698234494018308  0.5947933399053147
  1.0059949653988203  0.2004896949354703  0.3984517601851821
  0.1780969395986474  0.0456439754323124  0.7588661358267210
  0.2575351239038645  0.1466859611943298  0.7655635921163289
  0.1589764257734754  0.1021606625795939  0.7395725806818449
  0.9054784743637545  0.3094133540821045  0.3931086078100518
  0.2178279263168086  0.1300834945590073  0.8679100940006309
  0.3401350030322328  0.1173023237405396  0.9119239941074032
  0.3114498531304504  0.2007739665304880  0.0534103786139131
  0.3665976683158127  0.2131156620240237  0.9573270569212421
  0.1891292949108618  0.0345443130529723  0.8226693253571711
  0.4654457789126478  0.4201884490275389  0.6503795114083324
  0.6526991064052488  0.7040563699919619  0.7767178546005928
  0.5833242396388232  0.7241144820767125  0.6938540721105263
  0.5752600933049911  0.7589527680419526  0.4194807161073165
  0.1467157690036573  0.1117434438650979  0.6768555257504109
  0.4510084878271562  0.1145156049476316  0.8915668052857409
  0.2114896770716837  0.8188631822514436  0.1620923396502737
  0.2394347670127582  0.5465637058147464  0.0433564523547818
  0.5870499850858982  0.8661604942447257  0.4480402003667744
  0.7410828812869549  0.7589083045901802  0.7419317065947674
  0.5320314001374843  0.0149636094148089  0.8301210109335723
  0.4094920172166884  0.6971980691433520  0.2711252347236875
  0.3900881347110189  0.4614538287971231  0.0588140301894867
  0.6238110250087073  0.0807195010002767  0.9600165789333380
  0.6641519310764458  0.1490713280145959  0.9013091981495799
  0.3907065871214943  0.4932849949398422  0.1642928842981236
  0.3825578964233636  0.3987388240985289  0.0733460461044347
  0.4826233107182279  0.3537072762703464  0.0640823476813408
  0.5214009404469636  0.0276145112639029  0.7661373362196324
  0.4390363461628984  0.4307053189112106  0.0833646595198459
  0.5599615901477680  0.0759641004030275  0.7698385542303171
  0.4659792726618762  0.3078746200761823  0.0224991476239929
  0.5096750775451431  0.3061899648002520 -0.0151938535022184
  0.3897195312953067  0.0540471938235551  0.6587377348177643
  0.4398137025565332  0.0599098853760161  0.6169025121249847
  0.3956189498275779  0.2428055283974074  0.5146209946092749
  0.5463492626512451  0.2230055547449762  0.5218979806152491
  0.7802447016659467  0.7100781443967187  0.9894991930328987
  0.5139435343443653  0.5389011042129354  0.5310990861189796
  0.7536938318889329  0.3894465179706533  0.3726423040070112
  0.8345744279115884  0.8368690487124677  0.8769838157642248
  0.7569475555328555  0.7148347015535506  0.6973350863157289
  0.7789819212527486  0.8084616434052267  0.7474442379322135
  0.4378294540755244  0.4162468089788545  0.1461793217163950
  0.7934550240602656  0.7661185003446056  0.7049208794045478
  0.6384824783995480  0.5975689519417108  0.7914312169546480
  0.9153776947819217  0.4075910656495548  0.4836217027409376
  0.2348282371898153  0.9250052330912615  0.1040297219183526
  0.2387172135790691  0.1315928424795239  0.5346034849206073
  0.7260763974478062  0.1264923352911486  0.0410370062742112
  0.3060612506265433  0.1163502760899668  0.6195864819134155
  0.3346551493237520  0.2118247298768613  0.6657886972693519
  0.4062521495888787  0.1943948706810545  0.7491131332385478
  0.3356016888301278  0.2476099046549147  0.7705633683513096
  0.6775883678333809  0.2874982680468251 -0.0145299996279887
  0.5047610664196608  0.2709926342286029  0.8791733780876905
  0.5459953641316492  0.4468745640924404  0.0594757569257183
  0.5207408267788868  0.3647402543577808  0.9591280774926046
  0.4946587122245420  0.4614914867574882  0.0945966598817647
  0.1808573858461594  0.0435091063887462  0.4874047637637242
  0.5812974851182200  0.3142790159345857  0.0559285471587508
  0.2528481352767784  0.0104227394861241  0.6421743423609342
  0.2608733912665274  0.8186558901835348  0.0656160221442399
  0.4874110894139116  0.3954844119202699  0.7735034336689450
  0.2075367095541173  0.8354067640826229  0.1004795860084349
  0.4229827100596913  0.3351614594569804  0.8377819352727335
  0.2829574240764415  0.8626706580987499  0.0281208211338194
  0.6206948356564458  0.4036023649554937  0.9836998825335108
  0.1823931820967448  0.9439166727504653  0.1425506195699681
  0.5467499482619927  0.4215282233666306  0.8980031287437270
  0.5493357585405644  0.4928216479770952  0.1007240599308840
  0.4526614874218999  0.5875697574122578  0.1514657240381183
  0.4490854793926048  0.5391046965660595  0.1140418559149738
  0.3617870864942483  0.2756684637819237  0.6088941733346797
  0.4565973559509179  0.6020670070223384  0.0888241655245896
  0.3092234898479085  0.7409552755486136  0.0450361565081059
  0.6717921039338950  0.5675897066817636  0.9818372300002323
  0.5654874847009886  0.4648958345106822  0.6751169093602734
  0.4751799620073940  0.1686024682423888  0.3375791963947699
  0.6149831409392148  0.5015771730288979  0.7390528836134083
  0.5530918328941752  0.5101314084848906  0.7174154653246045
  0.6250756818021238  0.4894648230778367  0.7998832720906494
  0.4281065417881783  0.1703585271554379  0.8751661992739281
  0.3098623941070252  0.6225148529672206  0.0171330452890396
  0.6330617479175271  0.4752182386634903  0.8597653004130270
  0.7081536627464523  0.5756647454551501  0.8779113103709841
  0.6108160387280825  0.5362783750377638  0.8431756164933233
  0.1960819224592951  0.7914902537745023  0.9909596064974787
  0.7156935971614462  0.5639842901709768  0.9428507806324431
  0.6945230247259774  0.6158011626625624  0.9243003793069983
  0.7334146849901744  0.6691285301341620  0.9829472304502411
  0.1626150215799091  0.8571428369628483  0.0577798261880126
  0.0952048172093220  0.9022288345191090  0.0182310474181789
  0.3914603491910471  0.3397626126938108  0.5491536380365649
  0.3443242786292786  0.5740388334562498  0.4075676492253089
  0.4953017465227103  0.4758817017959465  0.0355783857625101
  0.3671416758914920  0.1780296138918495  0.8524911792905865
  0.5867654125933682  0.4396778409134807  0.7994447475725521
  0.5262958992318214  0.4465437853834148  0.7759309473746293
  0.5740066221634489  0.4842579587963274  0.8401705878825008
  0.4256267695574384  0.5882392623396551  0.9640855224259632
  0.6941349717891051  0.4682603722452593  0.8806525402231103
  0.6225261478471632  0.5219292871094916  0.8983384289831187
  0.3531939572373812  0.6001242411982800  0.0592327016072242
  0.6546522635480173  0.4606910879115257  0.0364733151381044
  0.3556774251187038  0.6491639820031402  0.0969938681795623
  0.3703144365098626  0.2273396958220695  0.5624958906650306
  0.5930770432894190  0.7112648152110590  0.7549497093474747
  0.4114630260474010  0.6778750642714814  0.1057016487862707
  0.3783348472679489  0.1325029080154539  0.8092378832194307
  0.6387559986769816  0.8213831549526222  0.5354418176291383
  0.6944147775140496  0.3578851922822641  0.1363656527258913
  0.6966823599331299  0.8428011619972677  0.6120776440240810
  0.6449882607323885  0.8387701128894546  0.6400379547900096
  0.7103878718926286  0.8294900406820800  0.6671954991124256
  0.5982121457050743  0.4496951478326904  0.1899429992492188
  0.6928854575463291  0.8722902185462390  0.7063217401084331
  0.7948227239792408  0.9136975770931555  0.7273051322213263
  0.5511625515306133  0.5251364016028990  0.2059569121842088
  0.8047034267340537  0.9037595527344986  0.7947905332684539
  0.7929734600502518  0.9515423102823012  0.8363842420137056
  0.4014566019064617  0.0342092503961491  0.0620930323103638
  0.3132989646600869  0.1381697294936503  0.2921372411999503
  0.5577385916674348  0.5876256272639355  0.1853569717331308
  0.4120325884745749  0.7125819161995964  0.2094963638668411
  0.4164415041603044  0.7584473244712572  0.2523916740969982
  0.3749116440657947  0.8817554837837426  0.3151945253674715
  0.7175275207817144  0.8154830009855577  0.7256340667457476
  0.6685812924918999  0.8130666574219955  0.7629749081033781
  0.3262875299586115  0.9302614896092001  0.2254721719987010
  0.7547384379256836  0.9006491965385814  0.8353742419380727
  0.7625406696431960  0.8885918693117881  0.8978467597154373
  0.3327659897219355  0.9751238745214341  0.2732343458846743
  0.7984699413699282  0.9410535967067678  0.9014069895601289