Cr H  Ni
 1.0000000000000000
    38.7169076500286806    0.0000000000000000    0.0000000000000000
     0.0000000000000000   38.7169076500286806    0.0000000000000000
     0.0000000000000000    0.0000000000000000   38.7169076500286806
 Cr  H   Ni 
 1596 106 3725
Direct
  0.0069133011199913  0.8580479961734229  0.9732506119158256
  0.8514635336714343  0.2827227972263918  0.3783522103961371
  0.8949487034487575  0.1575933524043145  0.3156158895909509
  0.6478325171549287  0.7001908973034724  0.5516680053314927
  0.8890244635902281  0.0952759123928522  0.3325741004893120
  0.9447253513084336  0.1120054848282706  0.4054426397483576
  0.3908916790103957  0.3711228395028597  0.6537684051663845
  0.7693184318567028  0.0080785838096486  0.2110117485987520
  0.0491455703859787  0.2148164722378004  0.0143140570104803
  0.8616004090035262  0.2358320736410976  0.9461467923107308
  0.3624387711301956  0.7284554710126045  0.7277742015567789
  0.0339482601667375  0.1283611492222185  0.4690617713375685
  0.2953041976195238  0.6529359339026483  0.4271366320485989
  0.2513257270493247  0.7307507347147422  0.4426771297518842
  1.0115392682114819  0.2376055990993703  0.4952370286560576
  0.9577871569674852  0.2038215283048203  0.4942740873764409
  0.3482776636786841  0.6709393364446431  0.4993628635428007
  0.2118718090115532  0.8021832893900043  0.4541163430017887
  0.2208504130961520  0.8511667569892860  0.4996001496944655
  0.9876586020283633  0.1943741207018815  0.5510306237616671
  0.9719881244241240  0.1259980502643525  0.5580534324865569
  0.1912567126920006  0.6255248839821849  0.5164324574393367
  0.9161240143282813  0.0334831014234947  0.5708326486554285
  0.9728022399470275  0.0196981768848507  0.6567845939745908
  0.4721962020616618  0.7584868850185722  0.8181069333343678
  0.5588686276516406  0.8130888638938156  0.7814589856796886
  0.2611295352618693  0.7529579828155359  0.9152194690353422
  0.5335073543100706  0.7516173030908453  0.8384611234943549
  0.3609447281188665  0.7995256181741661  0.9453742364963188
  0.4366405771704139  0.8288627106983799  0.7399850842772144
  0.5457197526873078  0.8244572312825393  0.7209153564987412
  0.7901722023452350  0.8193950092254977  0.2442855368648382
  0.3228464149753270  0.7497308740045552  0.9360983619769850
  0.3816897588384406  0.8235463862924368  0.5578227254405017
  0.2819093344084555  0.8552196962263243  0.9661119110886323
  0.0307759668640209  0.5487342529300561  0.6482807041718122
  0.4035096140910669  0.7465197142236681  0.6302298767478345
  0.2669968007817205  0.6531574107919437  0.5899441106631276
  0.0780093356012181  0.5874729681509188  0.7093074129607593
  0.9909763077151512  0.5318922740887578  0.7485092313047997
  0.0886172896815940  0.5758269528606451  0.7703285951787535
  0.2505108637075567  0.7650142824002524  0.8517963082813681
  0.2288965719846482  0.7865359993880857  0.7298386232744849
  0.8288259282889753  0.7025285850977421  0.4173986875451706
  0.6057671939813196  0.8817868313456183  0.9513340369871843
  0.3834326634578903  0.8517981591495588  0.0505241184979510
  0.9265988991527474  0.0825207661402206  0.6121697820789952
  0.1689673052443482  0.8809678381989486  0.4760109603495528
  0.0100883293396333  0.9453182247140294  0.2841318255849782
  0.0712111219455711  0.7369938083918163  0.5020653999648009
  0.3208250982050443  0.2640473479380638  0.2626725732731932
  0.0665034800691817  0.8605827948084204  0.5090038285736201
  0.0057348336710254  0.8674516600299270  0.3672108189062215
  0.3690532007112038  0.1706067608862598  0.3030575427138061
  0.5510135152436165  0.0145876661452536  0.3825429417863700
  0.4142874676115877  0.0929668703315733  0.2827551751876893
  0.5600866898071060  0.0742800733179031  0.3624356226108663
  0.5148391673977051  0.1413950994688941  0.4473279772805953
  0.5776517474885406  0.1800751170834798  0.3815879792390046
  0.3698488981166133  0.3979368938546305  0.5273216637147595
  0.3838486730186561  0.3688885536124477  0.4214950644567618
  0.1084287559485919  0.2958355929856841  0.0726761126033208
  0.1309231125429678  0.3741162498818943  0.9931935082712453
  0.2750248624759158  0.2908890407657646  0.4650861151756860
  0.3221146050989700  0.2306088938385165  0.3841622541633542
  0.1277293817491244  0.4964739165583652  0.1885896399466355
  0.3113820558385306  0.1237907378312255  0.3573953424771684
  0.1292341786395843  0.5121036722662778  0.1295914962758881
  0.0838735713442019  0.5896240465703710  0.1460891181756848
  0.3936521474238804  0.0345927547219975  0.3878816416511359
  0.0311179794915896  0.6552150055773638  0.4535920836151028
  1.0069672285596971  0.7511495166395423  0.4937117951285283
  0.6652123974422741  0.0591047573715538  0.4547805877351106
  0.9493410777169550  0.0607585390792587  0.7359115458226891
  0.1346241781155400  0.6061238713685453  0.4433736393398560
  0.0090835839996558  0.0543620019018060  0.7564975865222274
  0.9330308529336178  0.0045919192967643  0.7597872253903923
  0.8784622599830048  0.0750992615679342  0.6560143181285701
  0.9799277514139897  0.0271475790572757  0.9202988261752779
  0.9060940508626369  0.2788906731349127  0.5114865000813316
  0.9674628827633854  0.2511998892631009  0.5361749965012390
  0.9644030980691805  0.2976173803910666  0.5818041089762147
  0.5381558795249722  0.2967569924534373  0.4406177785437449
  0.7289170630302907  0.1003336682194629  0.3962300768624721
  0.1869656182921066  0.0632353671009953  0.4225526411120687
  0.3798533474201196  0.3245556691828067  0.3795697748281117
  0.2682776077319858  0.2006849896002112  0.3748660748473282
  0.4349931096614731  0.2736247294971996  0.4676749996524063
  0.1819122617555056  0.4675678319508655  0.4420758922231996
  0.2855082491244935  0.4646130390260486  0.4725878951794182
  0.2869493431325258  0.4795489699399038  0.4150740960817541
  0.0814954124659030  0.5924703384543394  0.3705841180218794
  0.0769459154891942  0.5303827530352700  0.3871480417975883
  0.1773185115274809  0.4499633418213402  0.2766251839925418
  0.2386280570479531  0.5579211049832496  0.4412112869020139
  0.1883660238449575  0.5922591927050993  0.4080576112386329
  0.0854875631612378  0.6860395147669297  0.4619889902374412
  0.0975413943468844  0.8166437820680558  0.6203874358359538
  0.2785548306745798  0.3257296122946660  0.9581325713863049
  0.8358970574493163  0.7438564598757968  0.2300433567097173
  0.0300163353662396  0.0145043879309723  0.6762198523430417
  0.0274113210018338  0.5917883176988576  0.0174390485133687
  0.0748074903724675  0.9364351731174764  0.8191458258509139
  0.8542703657257869  0.9144758535484534  0.4701696217753652
  0.9105739023846487  0.9579522010911857  0.4204392065182321
  0.9848972397798946  0.6684986398827263  0.6084401563313784
  0.1768393846861455  0.9869076008401555  0.5079900226734213
  0.1865675697012313  0.2344062709682415  0.8895325695410746
  0.7501488538465950  0.3908571088336418  0.1480707817661909
  0.8082887484741677  0.4536901743021827  0.2612369338729505
  0.1218484871307859  0.9564072511215010  0.4941555248449687
  0.8567115332558104  0.3901606377795079  0.1829363005163389
  0.1365752306642115  0.1955642107499166  0.8237545114356893
  0.1506470065019137  0.9057099020005178  0.5773615135850642
  0.8562706903582750  0.3752941127706315  0.2425322175928579
  0.1712364295088735  0.3097635504594744  0.3689142385940305
  0.2236151871889954  0.3394155877684354  0.3811807199173435
  0.1221535011998559  0.3880805983678539  0.3872756144192969
  0.4663322423004644  0.1118668726228317  0.1234781754844757
  0.1256789658211102  0.4504990104228849  0.3723500713604571
  0.0735880143649303  0.4689010755817208  0.4009061085399824
  0.4100814427834018  0.0810225621484782  0.1156826203609541
  0.5118247564819413  0.0366394600126981  0.1020025442384363
  0.7182940887061666  0.4711437731812044  0.5582301093802374
  0.8784074756564656  0.1141628017153279  0.7557491858270849
  0.9478700560706432  0.0952973987543698  0.8401183359450297
  0.0160712788619270  0.2074550760736693  0.7823318569853548
  0.9661750720522924  0.2036374803004615  0.8213410489550904
  0.0990935599898897  0.7147501901979727  0.1031769483232263
  0.7878632728558873  0.1444134917664439  0.3417860637347036
  0.8337211654874874  0.0823788480372450  0.2619756794370187
  0.8995135202372262  0.6103450322189515  0.6497810382790994
  0.8519930467979313  0.5716884098762315  0.5842731418469410
  0.6862489210389598  0.1911124605072652  0.3498538667721739
  0.9563677298563491  0.6344944455091878  0.7753773573198242
  0.6406590790303740  0.2680871869033814  0.3681315856499326
  0.5936708754661213  0.3298583702533819  0.4498691179267150
  0.5453618074096757  0.4208677873884177  0.4053894628470880
  0.8108847948724384  0.5533990199368329  0.6857083869815135
  0.8581717105487262  0.5912531327218788  0.7525889067004570
  0.5002965324963591  0.5418565686549541  0.4708592498229214
  0.5011147258243088  0.5601427905848018  0.4071683645560791
  0.5118133861559102  0.6820057686305184  0.3688930423029297
  0.4519030337641370  0.6368348879303124  0.4268645804373603
  0.8951468038755463  0.6739939956273355  0.8611492877988711
  0.9928361577651142  0.7176615694814394  0.8849555677630903
  0.7061154651902655  0.3824132295982843  0.5311494118507005
  0.5714833433021934  0.1123481973887462  0.1618348655507866
  0.7095025501289474  0.5004679803432308  0.4918472461898923
  0.6257590515151555  0.4202179361310241  0.5938881543649158
  0.3458382518027950  0.5893513535909575  0.3484849665357781
  0.7620980676341874  0.3136351676717131  0.8430539176506585
  0.3985557754766260  0.5892019866685245  0.2499166728617012
  0.9107198801884121  0.3623434267604148  0.8273939250722706
  0.2915283278158321  0.5741001812970759  0.2788058325659191
  0.8626153709044481  0.3574837065608145  0.8657315546269622
  0.6308541381411998  0.0928549296147806  0.9599885698750208
  0.7498260808904348  0.2071646944906120  0.8630284907993532
  0.5881902549060449  0.3125923011665069  0.2824103021833991
  0.7172404470981121 -0.0265611281575914  0.9682084617414582
  0.2986351316827066  0.6673472491785216  0.3651789617335885
  0.9343855573530809  0.4385306061115510  0.9707155678561215
  0.8659909282220115  0.7122903814603869  0.6752548184404776
  0.5049671535070615  0.9380171501161110  0.6848965610902110
  0.0871128409661548  0.1532912502776716  0.7604355603608834
  0.7157173388467145  0.6082924980060440  0.2927092318128645
  0.1797292581120871  0.0802063612284324  0.8652443614824546
  0.0474018499584973  0.1051203312397876  0.7573831758642956
  0.0231516468147918  0.0437166309413459  0.5425683667992304
  0.0490082814413263  0.8173465435697698  0.5705717098609761
  0.0442726092857721  0.8596433293488647  0.6127750744774001
 -0.0153774726400989  0.8404514301268000  0.5856147135272517
  0.3463003625003291  0.2705837048411769  0.9376926241978798
  0.8606457999468743  0.3246620066779263  0.7621870956289177
  0.7602368420825749  0.3931652597579465  0.7019443539020005
  0.7557506585360728  0.4287105472616252  0.8006812802745827
  0.4891663785037529  0.3691866168999701  0.4623934029438556
  0.6842222886898011  0.1343352531362203  0.6306094659738634
  0.8001076243899367  0.2983333974470901  0.4152401993257844
  0.5588121893151783  0.0978668383979706  0.5298935744161973
  0.7503103298796439  0.3140445128537890  0.4513196149885572
  0.3971335975680149  0.6141180347290754  0.5312703680948271
  0.2130845709741214  0.8367690917168470  0.3321810521077004
  0.7745152671523889  0.2337238544120865  0.6985560163057354
  0.4816806720625532  0.3107240212497830  0.2478279168254928
  0.9755560913192006  0.4574647486284917  0.8657157671242423
  0.9254919950758703  0.4512345310163809  0.9063101267022923
  0.9857183473997132  0.4445235238080036  0.9256743951287442
  0.5367227310039394  0.3427764393114535  0.2565664667715654
  0.4398283408944376  0.4341580262085254  0.3106833628418024
  0.6843415329128718  0.1534407162994952  0.5458585848657695
  0.6473517197678802  0.2386113191553454  0.4900638287519964
  0.6640542716187380  0.1990160796753635  0.6174573731582723
  0.7214720103457960  0.1896148694231780  0.6370677338584704
  0.7386083201577703  0.3045083046123431  0.6117724922711490
  0.3379389245385631  0.4956910807010165  0.2596994485839074
  0.8010673961315770  0.3313275255585975  0.7416386667763483
  0.9493652223150260  0.6159430582050426  0.6079075682339797
  0.3849389191743720  0.4187691881020183  0.2402118657079618
  0.9627230648676837  0.5721975061953364  0.5671610321261821
  0.9286124381178409  0.1531234567060699  0.8204835827415584
  0.8017339498490905  0.2841635183441535  0.4750009083769042
  0.7943551408832648  0.4439632415692478  0.6984566670844372
  0.7921527583828166  0.1893134917100336  0.3849104552239183
  0.7306124300541572  0.3482335816769669  0.6582451635555703
  0.6709096011847057  0.3573089162918437  0.6387542996304619
  0.7188258384971721  0.3610635757719338  0.5982489541716024
  0.7009645892517194  0.2617648266163344  0.5583155340580072
  0.9652374953428106  0.6539656449952407  0.9456454428740304
  0.9178467982898844  0.0185116322619181  0.4039156683657322
  0.9393014322707930  0.5604004194815739  0.8931038832097128
  0.3244225545266411  0.8488828891764135  0.5360514773678067
  0.8916187925426758  0.5228393113211797  0.8276510045469867
  0.2685287028255560  0.8350832770518880  0.4673811121504766
  0.4037822184638386  0.6652812407155698  0.3984756199853824
  0.9373544157164899  0.4076388712603297  0.8641837905463035
  0.6753616667491188  0.1897807849931312  0.6761159580527657
  0.3137423967531917  0.7904393120530691  0.3241864658667541
  0.6391336070308417  0.1398645484543476  0.6655609252261028
  0.6281582153444133  0.1544444836865071  0.6004803901981688
  0.2064759891334564  0.7746683248121544  0.3494611266302002
  0.8684889497596234  0.0362762264129712  0.9392322760520109
  0.9856758171105512  0.1839275700142398  0.9462809968909837
  0.6982407087931874  0.3460323692831907  0.4230365758301894
  0.2730059615931911  0.8962483321977270  0.4500047138844650
  0.8545031073133075  0.5051459802769744  0.9256344732140647
  0.9298738264441949  0.6769414017465237  0.5911373044278309
  0.2250615235351001  0.9133606820575192  0.4866498070547915
  0.2169902975881344  0.8663052556700421  0.4390316495739667
  0.8059668106533042  0.7011183232332453  0.4908577041308583
  0.8322069113496267  0.4966274359788618  0.7025320707787859
  0.8807761139951598  0.5338674815779479  0.7689139749565533
  0.9542826366021727  0.7455857784321792  0.5273967448243881
  0.7705207539922445  0.5372091881704256  0.7854766239568782
  0.8504717752925343  0.2039137516117504  0.4550231230164475
  0.7410216970257346  0.3371669149104810  0.7208235310718244
  0.7024648987159464  0.2874373609653486  0.7189212484893658
  0.6422543487811216  0.2950985195079512  0.6988425484373670
  0.8943382967070675  0.1265894550627359  0.4395157310790759
  0.5906547931093076  0.2573644181660208  0.6363997323990005
  0.8722054985243320  0.0851758790799277  0.4814747441677708
  0.6395642431846660  0.2620347017411774  0.5947052979249001
  0.5428703371470051  0.2137790746568427  0.5753616594716844
  0.5489253670715514  0.5124782580087013  0.4951584042044581
  0.8887790947339693  0.5516031588581796  0.9410498496036230
  0.6503260459974095  0.4675201900459522  0.4817945128144061
  0.9163981279209688  0.4965912943982251  0.9469744765913761
  0.2324648601487639  0.4857586566056892  0.0542387686842252
  0.7613458905821080  0.0593509560983679  0.5666870499002304
  0.9235030654872648  0.3514850603943251  0.8856654150777421
  0.7360534068135366  0.1451607376844655  0.4367863138454444
  0.7052921841412686  0.0038021795830307  0.8351783215834959
  0.3986270001080826  0.6059462571844760  0.4169753730816305
  0.4473811647453813  0.5427309174293692  0.3361748653759338
  0.6869188063508845  0.0931549275548430  0.9275016594055137
  0.6810155984433951  0.0602956513575676  0.8155224273818814
  0.6096508580924352  0.1149162162218922  0.8364922649861821
  0.4435430472187418  0.4652385882880078  0.4134504617157485
  0.6330860880517630  0.0239491872649426  0.7455361036299805
  0.8013130289178916  0.2445617222870844  0.9247621980986361
  0.6888289388603315  0.1604047764906196  0.4751523065101629
  0.8941027757286356  0.1830032196350919  0.6348672609117001
  0.8099386025711327  0.1992836003906000  0.8828241095466242
  0.7092562050796420  0.1236358700277724  0.7574560550230310
  0.7198247127496044  0.1112868406439082  0.8190012857700851
  0.6473664433041459  0.1310181369165193  0.7342207964059145
  0.7213691000601862  0.0767501907623977  0.7184940227729961
  0.7322519827468216  0.1294559725689166  0.2711411256075180
  0.4995351265437430  0.0495519463587634  0.6392539094004450
  0.5388089320423175 -0.0374560171237028  0.6326947727182168
  0.4893405482671840  0.9387273354267216  0.5642254822367871
  0.2584447320764939  0.3547489620169866  0.0450937186898361
  0.1849551080961152  0.4455242284247550  0.0527838963430044
  0.1615368527850876  0.8525880313750471  0.3684064930312754
  0.2287430642113006  0.4188938273195130  0.0738134297139012
  0.7916386262285171  0.1333960942252064  0.6131692271769851
  0.7847569193889647  0.1145481217254704  0.4646095516704162
  0.1748209092943821  0.4346118765197060  0.1112079468545593
  0.1357921213398377  0.5752431580339751  0.1108415049935439
  0.5284220847564779  0.2667217882819298  0.1069605094541464
  0.9443642723094664  0.4610243452150421  0.5817105655633803
  0.8942341502532821  0.2209366161734272  0.7388825173674100
  0.4665100077128692  0.1910455192815537  0.0453484881009816
  0.8307307397195252  0.1891284336307675  0.6137617659749516
  0.5196787592178146  0.1602823182586395  0.0752248811541245
  0.8349315803134801  0.9623645472718907  0.7307917158722856
  0.4317287221671003  0.3582400530326067  0.1607663474417817
  0.9800425125271469  0.6850879029452794  0.5479938700540492
  0.5754930664328751  0.1574130076076642  0.2078171177917087
  0.8104107907555931  0.0354953297941525  0.9231999352958313
  0.7522056239864727  0.0445488668438644  0.9017418742006920
  0.8019620260495747  0.0479409870608062  0.8579811769210608
  0.9950570112343740  0.2987855064697997  0.8666331767187940
  0.4231099286797094  0.2522150594210638  0.1299456844549828
  0.8878542581052975  0.3865168039974973  0.7044979377649909
  0.9307210740490059  0.4731034047035448  0.5192500726654216
  0.9227487189400837  1.0197474561642041  0.9636090558899775
  0.8679963697535581  0.1245750530570685  0.6928097472701334
  0.8264562007438684  0.0064322424822640  0.3422449457379361
  0.0056742537777721  0.8485015828750154  0.1974667458632509
  0.9147834353426108  0.4311205326124427  0.7407091598543784
  0.0395188345555854  0.6687449803124494  0.1605179678619764
  0.9486514589254231  0.3440748462611476  0.6190832683418548
  0.1392983807544961  0.6211960611422449  0.1516282784712548
  0.9379417003985470  0.3594377051720106  0.5618978309981596
  0.8520816497683202  0.3076199406887783  0.5406020830834615
  0.8545523106459700  0.2524432485599561  0.4983585824128660
  0.5846501644450723  0.2816929537300175  0.1767318635282205
  0.4989123169686063  0.8533917383884072  0.8666284757948800
  0.6462712658720783  0.9721765983913526  0.3718541915796011
  0.4387716551056037  0.8934988884970233  0.9531615957067964
  0.4994787767074168  0.9237067845123109  0.0755273410826694
  0.7797314867686088  0.7323491018965973  0.3845924787128379
  0.7388664074947137  0.7936156597396535  0.4626238651895871
  0.8457731927141080  0.8358849430862885  0.0876149878000018
  0.3957856500798083  0.0420522882188280  0.0050991864604865
  0.8030149390899457  0.9459870026663756  0.4437157529277250
  0.3916140327671402  0.9303050711898294  0.0446840616779327
  0.3845628596448205  1.0045697789982853  0.9497916834091881
  0.2964564229708925  0.9663491711622481  0.8927241846733822
  0.9692030891773545  0.4836051767197860  0.0822060953245599
  0.7495951343235701  0.2366805399079570  0.5238814657801993
  0.3055856427916260  0.9218505373766813  0.8469633825726776
  0.1248264795290331  0.4379225295152564  0.6421566562790059
  0.7844032588446532  0.7407558315381487  0.0919799928737129
  0.6219214352728489  0.7078133896174007  0.0481825652107738
  0.4528126613369076  0.7350233252150324  0.9835429931260014
  0.5720839863438082  0.7246434372032524  0.0825730604215328
  0.4938904623256533  0.8848704218119627  0.9708932796283873
  0.1724478380132945  0.5107239871094668  0.8094040746573307
  0.2565841718693876  0.8826657439626553  0.7798627042682662
  0.3194076493798140  0.5608103148081653  0.7949293262792386
  0.4457656371648277  0.8968353612505634  0.0569019322504188
  0.2700826507157226  0.5559874750254420  0.8349043000368173
  0.3903821048774115  0.9104414311078945  0.1057256774353556
  0.0899502837790262  0.6782670520511240  0.5220140717698585
  0.0971970539742160  0.6642141446445385  0.5896014082750227
  0.8487391407367110  0.7380903328224129  0.4673084756153080
  0.6002542373551401  0.9125081417527455 -0.0027811023287037
  0.3380254429085928  0.8535616942185569  0.9291664911551687
  0.1411111192667977  0.5174995356673379  0.5244268619521711
  0.6591135833040249  0.0124974555963652  0.4140184700498682
  0.1793784382618966  0.5985841102794026  0.6288023657851561
  0.2385480679578771  0.5918071673314118  0.6489696681530480
  0.9179595575070596  0.5283041679049316  0.5050168462160554
  0.2485122134979068  0.5797991904035326  0.7104913787700975
  0.1041306843867273  0.6836214783145420  0.7564306878279610
  0.7462945639840025  0.1740871704956554  0.5399638817575773
  0.9718065565745245  0.5608486820342468  0.4574530956591647
  1.0001141599672358  0.1362434304741147  0.9042586730205543
  0.8991972840787772  0.0910021588442969  0.8811993076602820
  0.9104315447201232  0.0474693365831177  0.8376257664259138
  0.4149934599302331  0.1609488306369573  0.0349708285258196
  0.4126942539744847  0.1039641858878625 -0.0082366854909113
  0.4611704848777359  0.0839233311765904  0.0162618689464448
  0.0003941481663739  0.8154835385766178  0.0920537958904371
  0.7849780345428893  0.1850148316463273  0.6564310888256669
  0.4696798700082009  0.1745848495943553  0.1080249424190929
  0.9753248357037251  0.4241356159453056  0.7618134149085124
  0.6270287784687834  0.1752916025525040  0.0519278212339033
  0.5163477886193329  0.0977671174488363  0.0885478295016838
  0.7343714836130967  0.1298957812237854  0.4995593623967376
  0.9973288317645117  0.4004020803401568  0.8853265151231813
  0.0974680319909278  0.4093067363344330  0.8043849329809416
  0.9983441327165374  0.3840355884000882  0.6843621382135512
  0.9712488141225893  0.3222840434204025  0.7434686789404094
  0.8649885837963454  0.4261545716723523  0.7808331160717848
  0.5113515264938461  0.0529420224830794  0.0361125994579386
  0.9210056504112771  0.2823584999018661  0.6802642475412570
  0.8609408530953767  0.2888170739318250  0.6589242813965618
  0.8518804923673587  0.2990861568840432  0.5987558911249812
  0.3574545400692966  0.2571698176796167 -0.0019575725698702
  0.2965949770958927  0.6172235975942503  0.7781058348880747
  0.3563891321349919  0.6101295671915291  0.7989471797001505
  0.2964092858127498  0.2309607792552734  0.8718872870920329
  0.8592801250592021  0.6111351337986273  0.4629541119724223
  0.1918284914361887  0.7387432012710573  0.7215789817336953
  0.8317347302343501  0.6636007841782136  0.0767434252487079
  0.4549768266595204  0.6857517736027732  0.9397191464703907
  0.9274117989232196  0.6057423904633994  0.1438647815766002
  0.0334745961026687  0.7035852747693148  0.6736320296044944
  0.0194962520044965  0.7384022568326790  0.5514510219458333
  0.7423242555267195  0.8549756593796918  0.4465503992885478
  0.3842840420220359  0.7061020684508896  0.8518362172138944
  0.7755303283128422  0.6851737861849619  0.3445658547306454
  0.9446975050885701  0.1719605235181500  0.1585773913705052
  0.1672404514254824  0.8296441017801711  0.8133366742253474
  0.8872546395182260  0.6944363752605035  0.0874430251520001
  0.1761117504921294  0.2103751204342224  0.7229701666675854
  0.4766617769696985  0.8500559858287843  0.2422832240530705
  0.1261705561648092  0.2051166440382113  0.7623054877450748
  0.4337753394835460  0.9451570272237758  0.2003888193047449
  0.2250727359644280  0.2498582796925234  0.7877561793123454
  0.2033074963420113  0.3063556958042392  0.7700426065423915
  0.4805427157930320  0.8960266843768452  0.2869744147768748
  0.8373998271352875  0.7377775386886967 -0.0005758178562711
  0.2746680272689921  0.2886168873163152  0.8536578394760819
  0.0738111667966831  0.5025700228160169  0.8891304670227149
  0.2193751293005665  0.2942421211729416  0.3351110454706180
  0.8983741604828399  0.8360087764220373  0.2216071315010942
  0.2274941416405049  0.8544592984083180  0.9437668101016635
  0.4525725943825192  0.5352698551343437  0.8964311145048198
  0.8237798687314869  0.0203020514184531  0.0489833626960195
  0.8247827286245515  0.0372229797107253  0.9853323529318881
  0.2811873647073987  0.6076351418570826  0.5459940030400954
  0.8183729506472061  0.9558733156085343  0.0699811593928802
  0.9434146351853516  0.1885518096880093  0.0981454235793694
  0.4191450139421449  0.8048276079930842  0.0680425154944575
  0.1069303718428862  0.8683430960030235  0.9002988905088849
  0.4741233743033099  0.8202889267519125  0.1348001592512736
  0.9511332006654448  0.8336948488117718  0.1267609319403027
  0.8423384087815980  0.2357081535753679  0.1073265836337843
  0.3647817023526185  0.4801427202400899  0.9328599598883274
  0.9850765187603833  0.6551800621061695  0.0900215148343431
  0.9969922298508799  0.7062767587584160  0.0557844670307713
  0.1115517037249826  0.8541848070704973  0.9754147267564730
  0.1076083682909460  0.8357046390628378  0.7903157442434541
  0.3473800049219019  0.9779245385602638  0.1899919828508939
  0.7922602919440543  0.8322146471124149  0.1816452303337029
  0.8672421953075641  0.8787065496360926  0.0454355827496025
  0.9474735527273537  0.7703689861777208  0.1430481020566189
  0.3533958960531594  0.4912464109892147  0.8746661033374807
  0.3790703584104830  0.5533197134233453  0.8165806650606255
  0.1955651827157527  0.9233606678622779  0.8642007812747647
  0.8908735817142209  0.7565311723018638  0.0707335943442536
  0.0975807995027622  0.1091184270051177  0.7163818029124497
  0.8475045350279441  0.9084363015900524  0.2345602439173987
  0.1545957163961356  0.6953611877640644  0.0663354771869056
  0.0467498405775333  0.7421088860302920  0.0113832116210863
  0.1620657784318975  0.3524490665713060  0.5259864174150021
  0.3803226962398900  0.5185020316730682  0.7120409554560361
  0.5197415551418599  0.7408551502325040  0.1187277161985062
  0.9305114674042375  0.0351969418206727  0.0250120929065951
  0.7752530802258696  0.0691744194104577  0.9586025769507747
  0.9374641787343463  0.0983345141668898  0.0069003329404667
  0.0202808801133437  0.0438053312915582  0.8170961426473431
  0.1428459794347745  0.3473158358073203  0.8523822203993051
  0.2454514622116514  0.9596756827120020  0.9868818818717562
  0.8680122446323600  0.9244236886520246  0.0922519186186641
  0.3128799225378985  0.3039615627806031  0.7516899568891239
  0.2447109353499435  0.9616007509311841  0.9300675570860093
  0.3340030779348334  0.9390744460793279  0.1559060434846669
  0.8395413411831593  0.7727717429873366  0.1040978686852869
  0.2679935886970883  0.9088840240528703  0.9464664397618154
  0.9943283520099725  0.1561079065888790  0.1247763690181385
  0.3622277427513017  0.5434562705304190  0.5912652420291040
  0.8891884293689928  0.1582794896148885  0.0875962480274411
  0.4193442335139050  0.5692746054616392  0.7153924499434954
  0.1589362809428894  0.3870031729144299  0.6276391150011610
  0.4896700533861107  0.5345840346852299  1.0163760493038301
  0.4227551169185958  0.8373761872169363  0.1729914705986099
  0.8147532545183299  0.5112710098637718  0.0219610823651333
  0.8582029077736990  0.4202936948333591  0.0642699772895473
  0.1155155005570830  0.2502861916793986  0.8052238076501170
  0.8381481955735315  0.6774913769983857  0.0125613620093815
 -0.0083729535251609  0.2433115892262966  0.9891780666180489
  0.3928394496114345  1.0048150540743872  0.5162479197060780
  0.0378964835572036  0.1158411101223908  0.6973364761781325
  0.8541523069012651  0.3612619145310894  0.0779761052044103
  0.7876703541289835  0.2818812022767899  0.0225368343011132
  0.7022309110175038  0.8998692902638521  0.0529160691421601
  0.6789831695622004  0.8048099261349775  0.0357842165916399
  0.0470150307587457  0.1555602311943525  0.0280673921127936
  0.0940072305777416  0.3426494226248279  0.8923535314198029
  0.6602918362844162  0.8097313479808672 -0.0229642314027826
  0.4466141556850076  0.9400551592449727  0.1091183821775895
  0.2543286777635754  0.4799952152550753  0.9553534672447616
  0.1561469377964219  0.4378170777118033  0.9317436416049519
  0.0976184000521167  0.4434903773627557  0.9100313601944409
  0.8679483775676640  0.5294178378642825  0.0898974554496337
  0.1314467699629812  0.0759209374649699  0.9065493923219374
  0.4054320699535792  0.6496571620902051  0.8674011925145944
  0.8785818360538785  0.9455218283274331  0.2603023978813832
  0.2045158443771987  0.3405984044637171  0.8757899167502707
  0.7117482881019623  0.0779335229403373  0.6619333890639379
  0.0587021183460698  0.8674195264131535  0.2686919051093344
  0.9827017952575509  0.0012626798667137  0.0517110103546893
  0.0673253924120940  0.3446909962276675  0.4419402282515640
  0.5436067034318000  0.7068991234618092  0.7937480393284284
  0.8674561485723369  0.8324349332343719  0.0010904052193272
  0.5057561772066129  0.6565903107748906  0.7897414584908398
  0.9434603576327889  0.7998540034070041  1.0176340806046649
  0.0805824714679415  0.7735475147676335  0.8468115602823990
  0.0818180184695809  0.7405822464253075  0.7396429808153772
  0.4458390355522980  0.6639780229142722  0.7673893031049717
  0.1206685731686004  0.2982960841083691  0.5217152740782846
  0.2306997875127829  0.3684414327408261  0.7112793839772873