Cr H  Ni
 1.0000000000000000
    38.7169076500286806    0.0000000000000000    0.0000000000000000
     0.0000000000000000   38.7169076500286806    0.0000000000000000
     0.0000000000000000    0.0000000000000000   38.7169076500286806
 Cr  H   Ni 
 1596 106 3725
Direct
 -0.0060328710340314  0.8483872892489858  0.9715837213574535
  0.4272361905650047  0.1034865275274973  0.6630304281408632
  0.4659492454816924  0.1525849421054863  0.6640837567304891
  0.5065081437914587  0.6204395928587270  0.3912583774984771
  0.5108785099079329  0.6498523275331950  0.2635202661634004
  0.5673341798825962  0.2283412544893594  0.7993192617573507
  0.4562673820348144  0.2794063676519730  0.5275442792809203
  0.8584212383339089  0.9482785654142908  0.5757057118366916
  0.8295868349455483  0.8924689665991872  0.6323294434361852
  0.6328839197560269  0.5789904900314269  0.6204311307962666
  0.3636498512728364  0.7277458309805336  0.7301517437613589
  0.6719992401217950  0.6274213668037883  0.6267103294889135
  0.6583822919127108  0.5923520291561332  0.4544732122986510
  0.6951280623990399  0.7234878554866127  0.6735531674346801
  0.6680591156108145  0.6589505382473864  0.7336488735397195
  0.2608441506919046  0.7883603910625205  0.1916848324433288
  0.5370412477193351  0.0467656959948322  0.9393014679122096
  0.8848573173519333  0.9311562797098438  0.6962772968769063
  0.5929561401221725  0.0088907090657801  0.8516920302284741
  0.8520155706055923  0.2832452686372920  0.3792988014948462
  0.8937882804366057  0.1566423511024048  0.3174140922995303
  0.1933109221333506  0.6258222824442283  0.5132345481554261
  0.9443655189015497  0.1088557104645846  0.4046709225989298
  0.4128309811168006  0.3130158942565767  0.6720376091449299
  0.4711815376884852  0.7582702492753645  0.8186439965342011
  0.5481276105737263  0.8593381080604788  0.8260814989173889
  0.2724534653419055  0.7084733304871702  0.8695311473860627
  0.5322030419112530  0.7515878669960857  0.8398633283772476
  0.3445157543429299  0.8420911169139167 -0.0060198286041978
  0.4379782776199110  0.8288000406882042  0.7404296212402773
  0.5476586204685017  0.8257162579092854  0.7189483984722889
  0.7897321275961945  0.8180141135760709  0.2449901155960900
  0.3219618515223068  0.7498359707228464  0.9379107505798232
  0.3329232557406349  0.7765009095635673  0.5517124908337805
  0.2787890843091236  0.8537019924180214  0.9646425345242597
  0.0339056732378537  0.5474510243230022  0.6431146170650064
  0.4044883293256678  0.7471218342551604  0.6313366914234351
  0.3172918011847616  0.6907734606376731  0.6603345619882373
  0.0805098166459468  0.5874399315090546  0.7047440430748529
  0.0302170174404726  0.5814084120714904  0.7432418584239772
  0.0891333281249015  0.5764790299161103  0.7652577003036366
  0.2494883555641838  0.7625605127711470  0.8528492850544006
  0.1425221082651409  0.7334400226813927  0.7589925332272478
  0.8320096461437860  0.6992420757237229  0.4175089835918153
  0.6041163296195836  0.8846211161728272  0.9524667703634894
  0.3908214630772578  0.8858284480685723  0.9969437911596118
  0.6484369160226322  0.7008650869622688  0.5544815679876683
  0.8860875086652978  0.0944454115794329  0.3347699062485395
  0.0100095520648605  0.9445744686160343  0.2835000465883917
  0.9664323410261642  0.2999432561901662  0.5830686329652881
  0.7133515263442596  0.0121913851559018  0.3150764949265615
  0.1868298503556123  0.0631230481759524  0.4224868142051226
  0.3799553569022735  0.3257076583094677  0.3794441978262970
  0.2677801512783504  0.1998814176381317  0.3732096001350022
  0.4352781311593263  0.2704102785055025  0.4658577634455437
  0.1820162957911611  0.4675240877892984  0.4399903239355646
  0.2849362857668954  0.4645788175714159  0.4727018187048436
  0.2869814172698840  0.4795745469824203  0.4133819379039156
  0.0828314648651927  0.5916592817200172  0.3659852643611875
  0.1292907747139780  0.5110242607817451  0.3528469660901756
  0.1775583935511110  0.4489610923013381  0.2749010091734930
  0.2402895629339140  0.5570199183092408  0.4386701579035813
  0.1888535035410815  0.5912300915411403  0.4049795479184095
  0.1370360048849269  0.6055824288228538  0.4393933164825068
  0.0894166071937463  0.6838649964687531  0.4578073028943921
  0.0775699152434506  0.7311963494129305  0.4974693314370472
  0.0642276005002554  0.8004884461880262  0.4747804879784402
  0.2698060838309501  0.2782681668842066  0.2980540255104893
  0.0672192323349183  0.8541981595863344  0.5119205432877600
  0.0038963856943275  0.8537429974827082  0.4264105844583103
  0.3686331304251321  0.1691480106191683  0.3028798445225458
  0.5384363958455951  0.2965439715910374  0.4408658820870127
  0.7666488224333567  0.0090553370703621  0.2147449437025253
  0.0470900730409803  0.2183822851828742  0.0142363934495864
  0.9070418604973921  0.2793967520696918  0.5130006444862448
  0.8594983494315086  0.2361809074225638  0.9461336652912994
  0.0341789381416842  0.1267948011749421  0.4687875338462850
  0.2962057228962349  0.6520242068352275  0.4255620083931039
  0.2503887894502023  0.7292701256174643  0.4412806359357982
  1.0118238904446306  0.2344669701850786  0.4982567303736808
  0.9599939849685515  0.2014045166570719  0.4947888720071566
  0.3131761699399989  0.7449378937413536  0.5101153054935470
  0.2140233817362314  0.8054822689640545  0.4515903856298121
  0.2189056725392600  0.8560437024958628  0.4960665867490738
  0.9878722130926515  0.1939547682966601  0.5515833365541124
  0.9731113099849216  0.1241517019331823  0.5600220680708783
  0.8731560649926725  0.0905864256015699  0.5903324030885669
  0.1669415536531037  0.8813162548026506  0.4750099166187575
  0.9100140012652090  0.0347027487438573  0.5728905780958576
  0.9715726805048502  0.0218418212086283  0.6572523631199068
  0.6616434726125822  0.0625768840553384  0.4591513171532667
  0.9888470281410542  0.1118762096929855  0.7383871754598647
  0.0083915323218075  0.0555706001500909  0.7559735405750641
  0.9316610854601211  0.0055798184194644  0.7593475962050596
  0.9596591118076027  0.0512347519776873  0.7958136103644227
  0.9683593824489832  0.0397178582778642  0.8581155238059334
  0.9710445263972206  0.2529955899439850  0.5376238586805777
  0.0961421199892862  0.7125901056358346  0.1052076930068871
  0.9675733727149175  0.2040979643286298  0.8224439917391821
  0.8363556436291040  0.7425628817815876  0.2308296539207496
  0.0302920368560314  0.0140843941992028  0.6771772277746149
  0.0348629358122839  0.5871809112563677  0.0151398221652419
  0.0529269339941437  0.9909403944465793  0.8021064942867511
  0.8546715098636821  0.9104294797250591  0.4697391166378565
  0.9124046398923319  0.9552958647834567  0.4192405844222785
  0.9565597421766299  0.7696651067198682  0.6187294864461212
  0.1773088639211425  0.9868164901892329  0.5077002312086659
  0.1873215620139768  0.2342791200949045  0.8903845832484291
  0.8064498655766641  0.4212738271298572  0.1566886530181718
  0.8078000370097899  0.4524393860383789  0.2614029378793607
  0.1217193851656037  0.9558044733634258  0.4933899471302250
  0.8567241188388591  0.3895135357269918  0.1836395697022208
  0.1379667326258935  0.1941117560869607  0.8256915337643833
  0.1545664276789105  0.9076989864832654  0.5782290554239209
  0.8560018193356120  0.3749820909078653  0.2432564946034523
  0.1179628543184661  0.4216003995711880  0.0357596975366067
  0.1085055194392281  0.2958352536117340  0.0722010925452290
  0.3837962369723130  0.3708984654370568  0.4228602046412386
  0.3298289490401574  0.3813144570773826  0.4573375583560899
  0.5768157415124435  0.1775127413162560  0.3817836863620870
  0.5120713716317845  0.1407197782915439  0.4465534311112223
  0.5579870475425490  0.0746479030862782  0.3633928883431738
  0.4138595359438964  0.0923366233540657  0.2830842648822158
  0.5150357864958405  0.0965207000213139  0.0888766350310964
  0.6483323196102121  0.9702002410995006  0.3729379247133766
  0.4980672647341184  0.8538851293661429  0.8665975856394418
  0.5840037687157729  0.2803739134375394  0.1775513164699843
  0.8554809851293982  0.2530852031606834  0.4997459210043729
  0.8529837300992908  0.3113637466989606  0.5414153133095697
  0.9391572665024177  0.3619368038030743  0.5625978676617981
  0.1388915777498081  0.6199979338547357  0.1483629127130659
  0.9504540646412356  0.3466343831792352  0.6195644270106873
  0.0389198904354689  0.6683636375479520  0.1583980920911585
  0.9164563384567411  0.4334919981660106  0.7420566591963799
  0.7513823195310269  0.2337147314113409  0.5302869453101355
  0.8142294583498955  0.2067361204355565  0.5581304186049746
  0.0035947213784442  0.8486573802069100  0.1952650992373521
  0.8542906660588947  0.3036641698798216  0.6002149025082317
  0.8625808162840604  0.2919936944298903  0.6601715571132236
  0.9234237933549241  0.2842596346523176  0.6808701240076203
  0.5108661813243497  0.0527926909259469  0.0341827774170274
  0.9019756111258904  0.3763134363224840  0.7670287723186117
  0.9729979356629661  0.3230708131014866  0.7437421544787375
  1.0006332807992973  0.3855551915525940  0.6838023208734806
  0.0377427864393573  0.4177324869021159  0.7833388303442949
  0.9984930579502836  0.4018575311309814  0.8871294895196187
  0.7165041181302789  0.1396803988510162  0.5159254514982912
  0.5491457615366904  0.0149650959696387  0.3829864048497835
  0.5710995265648015  0.1466112930272767  0.0380503018873093
  0.9773743695344209  0.4252169909023846  0.7626234064818641
  0.4329955243817366  0.3579833030662536  0.1612127881358551
  0.8352901502791898  0.9642157291135214  0.7306120151971912
  0.5187029043231590  0.1595370570058011  0.0749768451946720
  0.8474902063864120  0.1828272281642038  0.6774118776911038
  0.4654198247007053  0.1904703183810999  0.0434597771483305
  0.8956018027271522  0.2221205397440148  0.7398787446202276
  0.9459282342948148  0.4642529047729976  0.5829854507293327
  0.5287810964876628  0.2651798383002359  0.1066289398663805
  0.1364504706690174  0.5749950525769617  0.1073371760065354
  0.1760532383400368  0.4335365796615956  0.1098010399740865
  0.8212982513561398  0.0941537674718208  0.4995818419016864
  0.8204959238729390  0.0935220522201460  0.6278349520618979
  0.7336203860679278  0.1478019229340008  0.4390353711960682
  0.6874796077867704  0.1627647014915189  0.4732292131772960
  0.9565413524591095  0.1810066340896460  0.6574550450579557
  0.2612803413691853  0.3513821559832028  0.0470428928153881
  0.1846247761827872  0.4481869368655752  0.0510309370126069
  0.7631597238107599  0.0493680026899957  0.5594701580235920
  0.1863025795069867  0.5241130844021442  0.0299276619037627
  0.8306935935795724  0.0787759847838536  0.6915740654864216
  0.8681917664454730  0.1261312915027144  0.6939442562534163
  0.9390027828494734  0.1071770353067865  0.7782663517466889
  0.0173443839446011  0.2083636443147779  0.7832182546460638
  0.9842872352172386  0.6799018626576684  0.5346851436958545
  0.4695443827276325  0.1737252430998856  0.1074614071148016
  0.7734641627890746  0.2046442929129568  0.5970702067863805
  0.0012202318630292  0.8164269667786773  0.0901477352572512
  0.4594674824083853  0.0835646609084513  0.0157642024010488
  0.4080748165664952  0.0995747063467068 -0.0076758273869458
  0.4155776694253817  0.1608973185866633  0.0350837719464615
  0.9097429279862839  0.0476011454065780  0.8362326786289740
  0.9485476445764897  0.0961511764123874  0.8404738574919468
  0.3582013796371819  0.2553811037002773 -0.0021574344892877
  0.9989530740929127  0.1344744462810952  0.9044559041167292
  0.9401653136283306  0.1411839093965557  0.8837337428840149
  0.9860824673222452  0.1814683678178175  0.9458988982298551
  0.8664847225253048  0.0308761219649390  0.9412131672252561
  0.9212239662139726  1.0161712877272890  0.9635470356595099
  0.2329467341117392  0.4841194625818214  0.0508997340726393
  0.9338367847834042  0.4776196416278632  0.5227757260249025
  0.8918202803829351  0.3884671395297316  0.7058819963302118
  0.3704503438173451  0.2815582776193138  0.1059128794600213
  0.9952720135192157  0.2990913961329743  0.8677527196531863
  0.7919556416829121  0.0941710408748652  0.9003096583578896
  0.7494941966255146  0.0473186184161189  0.8978522278706297
  0.8083534102621432  0.0386808972234380  0.9226578789531067
  0.5740272147803874  0.1569862183665356  0.2074904607459478
  0.9746142482056583  0.5596454391422425  0.6319721445228925
  0.3844333977637492  0.4178643301876988  0.2406293433613656
  0.9657206399232972  0.5743235983019855  0.5747644961737067
  0.2509533555255222  0.5783308123676373  0.7104063013584763
  0.8037219413448210  0.2824232413199945  0.4772792975981485
  0.7860281536134925  0.3915822187523073  0.7257445437480543
  0.7924899986338659  0.1906025887111659  0.3873322726184293
  0.7295433773781324  0.3512391223007890  0.6565509174278742
  0.6708252817405822  0.3626232348294640  0.6365709545024703
  0.7211601460796966  0.3644861985067452  0.5933804547952630
  0.6813852828969384  0.3121599463683341  0.5978023850710428
  0.9576086122092997  0.6556186987849970  0.9534973471121212
  0.9186236444659462  0.0175960524384239  0.4018996947310958
  0.9382953816736779  0.5627162319013292  0.8961520245326841
  0.3252476178063482  0.8472396620354589  0.5342294628730777
  0.8929255467800827  0.5248421773501259  0.8288058641387772
  0.2689149026295503  0.8336365169508274  0.4678062803681534
  0.4039236285528682  0.6652440578306921  0.3986761529359060
  0.8782820554305721  0.4146261305340165  0.8422649534632408
  0.6769368211179567  0.1945572751216680  0.6745639398643258
  0.2622845157363753  0.8045199668229495  0.3586163224555918
  0.6392573736495549  0.1419408900096927  0.6696757691814988
  0.6264795365078273  0.1533021104383600  0.6061818392251738
  0.2069011679209340  0.7745634164419442  0.3485548666013081
  0.2409575803698779  0.5911168036163391  0.6490476659113780
  0.9196482932368337  0.5303692889287271  0.5073472317583001
  0.6981459470740777  0.3442357993906322  0.4247116110818995
  0.8538462589130945  0.5051905512944769  0.9262723587784087
  0.9151434734911420  0.4974086254650654  0.9470548876185042
  0.9309273034790664  0.6799166969815512  0.6018796174952675
  0.2251377409423943  0.9157051216293849  0.4860695875151455
  0.2167066930029988  0.8674085201437054  0.4374618872165503
  0.8098939354371900  0.7007922996020512  0.4941268312900283
  0.8340410790674597  0.4999268184259856  0.7035721290723700
  0.8820979382842239  0.5370333157423437  0.7709431696309316
  0.9019813759078895  0.8157355398930821  0.5144003037087441
  0.7717722252673339  0.5385969941814602  0.7862433430485450
  0.8510032588406595  0.2051089881252036  0.4567817383805212
  0.7421223378536752  0.3406598762179197  0.7248703483758534
  0.7033746342715601  0.2900436247268542  0.7204016531216694
  0.6437220190192626  0.2970395568706673  0.6994411352822559
  0.8436728312022085  0.1458006103987883  0.4750403477421161
  0.5924952566223102  0.2591682731221958  0.6368391247618892
  0.8726920649484473  0.0803031395163329  0.4775780183478543
  0.6436355212780119  0.2655733071544245  0.5964969314012648
  0.5452951581741831  0.2164934003821940  0.5749550850850126
  0.5535160232067478  0.5126875766162426  0.4951962496400804
  0.8866944692874854  0.5517840238815634  0.9453833966817107
  0.6529809574931156  0.4655389062248126  0.4838230464754495
  0.2719124951246687  0.8954033993359621  0.4507493879297348
  0.4959406566951875  0.9235040767457349  0.0775274364793712
  0.7807482612267935  0.7289711170676481  0.3860196668168710
  0.9226192258626558  0.3518621596812402  0.8863508792957862
  0.3897113929000257  0.9270159194557084  0.0447661908756192
  0.7076670883252131 -0.0016133411366797  0.8954690598010475
  0.3995449758563166  0.6063092227692005  0.4176658872183390
  0.4482086914411685  0.5420847826943181  0.3375569660158027
  0.6918494461129615  0.0834865524174867  0.9230155998674211
  0.6906180157892435  0.0499593437971786  0.8731279709274393
  0.6101830232057831  0.1156722259669365  0.8356834662144156
  0.4431892019670669  0.4654796590194043  0.4139353177310295
  0.6321644848346384  0.0235080288020149  0.7475809266823068
  0.8014681097529652  0.2450883952122500  0.9246856879458761
  0.8050369889225075  0.9407058812589438  0.4406443737627377
  0.3834983944277798  1.0026736786018065  0.9476524046379305
  0.7710016514343678  0.1507578223701336  0.8810714125681240
  0.7093045735345243  0.1246740413010558  0.7536445063218995
  0.7199288384833900  0.1127515606517686  0.8141472401601434
  0.6487832900608997  0.1320079392356708  0.7312284225296825
  0.6610261607114395  0.0856565655467689  0.6874513124210402
  0.6813543041349048  0.1584265994642836  0.2468019049815749
  0.5011048053661668  0.0476776438530733  0.6393957718063339
  0.5418810632927966 -0.0382022850036103  0.6345994465041875
  0.4971110272845486  0.0008425187555792  0.5454278572747858
  0.7917135524376331  0.8311604257747790  0.1819146726913739
  0.7381349874538680  0.7904042566982051  0.4643606389073547
  0.1617178380857510  0.8524358945277137  0.3677155807684998
  0.7039992659244221  0.9868111532735688  0.4458515634076121
  0.3576646999858564  0.9590825204892081  0.9139886097762172
  0.2947838766830012  0.9652205549972436  0.8922338053899357
  0.9694131287781953  0.4816275271801531  0.0832636848838427
  0.3049180880726645  0.9206853520779298  0.8477518580469380
  0.1267845737998156  0.4370243913744267  0.6415073791647008
  0.6218611031830196  0.6619467216836739  0.0063920471071611
  0.4523614705459305  0.7341031914865750  0.9849245386332321
  0.5688370856092979  0.7246177923069080  0.0846835513319267
  0.4406492970790142  0.8525109506688375  0.0087086186909787
  0.1734648692558743  0.5110872621137532  0.8080190123292023
  0.2560522354645149  0.8819824379938610  0.7801068202321534
  0.3202204554596825  0.5604607450448974  0.7952364800155547
  0.4394645601492001  0.8935065254500651  0.0590797638753110
  0.2703166165169480  0.5553897534274886  0.8343213920282024
  0.3897107711528798  0.9074447782520271  0.1026013747882030
  0.0942086511384633  0.6742550793780593  0.5188576592791597
  0.1016478711216968  0.6623558215802212  0.5844378695915029
  0.8488493131211255  0.7353203065774706  0.4679744195308114
  0.5469530714945460  0.8645630954496394  0.9951793163657536
  0.2749594534937813  0.8600550199915673  0.9045112077298113
  0.1433229918042646  0.5164672971381472  0.5223619316019221
  0.1826408011374713  0.5972893510866953  0.6268585133204265
  0.4328720721525741  0.9304514558258610 -0.0026613744312585
  0.8192248717139514  0.0095272531551913  0.3504007927539539
  0.2047562536250570  0.3060364365502686  0.7701347146421230
  0.2972122768226546  0.2310620682817244  0.8714431344764528
  0.2760349048444223  0.2882871533660729  0.8536423336061433
  0.1016306758810956  0.8164884323319048  0.6130984255377369
  0.2816691581838377  0.3244754389467156  0.9576615097761941
  0.3273492897709990  0.3279775626605602  0.9185568776582886
 -0.0162306323720578  0.8349821247165383  0.5776186576252160
  0.0471691275893995  0.8651376811836465  0.6077720928191132
  0.0499288051282558  0.8225676314291150  0.5731138786824909
  0.0234429688906658  0.0439748984116834  0.5431078934170973
  0.0481746330005566  0.1051251348258681  0.7584668252961427
  0.1194472190461106  0.0869242448779091  0.8446853307230999
  0.7160769563891340  0.6056031440476715  0.2929605025135178
  0.0881741390265033  0.1539845202209172  0.7608820190179584
  0.5067145757641864  0.9377490729712917  0.6851855279042260
  0.8673100537073163  0.7156931757526407  0.6830377235486467
  0.9965011467801046  0.4365466939321706  0.9897534893187915
  0.2992992528630667  0.6666958768401048  0.3629943675070638
  0.7150472245544527 -0.0270263282461375  0.9695337890757324
  0.5873605985545791  0.3110847649102185  0.2832365628150129
  0.7498350078811679  0.2072364377656580  0.8628447463644561
  0.6670877792616253  0.0497507145280378  0.9792663318589815
  0.8358745924039908  0.7395316986799169  0.0045518636436936
  0.8618607714142000  0.3590403069359515  0.8640606358345003
  0.3465485152355133  0.6043971744563787  0.2842774325750015
  0.6966390344772918  0.2835223147924794  0.4407355364129584
  0.9120194838354474  0.3632931088069089  0.8269579310978207
  0.3990805773126204  0.5878543335260413  0.2499751707842382
  0.8129305464048480  0.3200146951340176  0.8035514474830324
  0.3462636424477271  0.5887076759070000  0.3472400046597257
  0.8636772879392469  0.3257052657338031  0.7626537036446485
  0.8031162574208689  0.3319984409981614  0.7431089821233561
  0.3380830132971728  0.4946077722926672  0.2585939823853943
  0.6928607081646557  0.3017468809024218  0.6583629859938362
  0.7256677577088937  0.1961363981071056  0.6385435973747746
  0.6644287722862237  0.2049495959678888  0.6142205628410583
  0.6479816371928666  0.2373654584496791  0.4907699212193556
  0.6686992377581115  0.1636322037732848  0.5649409930248366
  0.4393838199570865  0.4331213140178440  0.3111192874036819
  0.5362919466431754  0.3412267308871741  0.2573528684710802
  0.9861245309643606  0.4459673807002019  0.9274984758736379
  0.9265164087028381  0.4528515072535609  0.9064667090780250
  0.9763835773693874  0.4589387248494116  0.8675453060195403
  0.4812087250421809  0.3094159379196783  0.2486300084761801
  0.7384426989348492  0.1863128287750096  0.6958781155614281
  0.2124780216979557  0.8367858185573014  0.3311328222812583
  0.3968668586609779  0.6553602785281428  0.4716698896275735
  0.5592852622180384  0.0976891399166562  0.5341125953783740
  0.4814138055526855  0.8964720694058594  0.2857962941839806
  0.8005658193960158  0.2978611013431520  0.4177131887310020
  0.7815597088783495  0.7240976386729181  0.1583752730564915
  0.9729128801348973  0.5636645505519821  0.4634986034627597
  0.2976941363266227  0.6160643679325312  0.7783375071297440
  0.3575127427301442  0.6099615181277291  0.7997449080328319
  0.8627224796007664  0.6121878059068475  0.4654832878919151
  0.1929462454457414  0.7382730974998689  0.7198938231086842
  0.8314488816834513  0.6637948479674650  0.0788774282030824
  0.4444376355461790  0.6958071771357177  0.8767119955654409
  0.9279379828177848  0.6047956844153605  0.1426765268760604
  0.0362278805624758  0.7023356501598714  0.6640456748186421
  0.0235858543159825  0.7305792746841649  0.5407179593524227
  0.7420422521050201  0.8495572000612415  0.4478135075262163
  0.3447187237076272  0.6567517098313599  0.8463972192816898
  0.7265361988079366  0.7126357867711441  0.3169696520313630
  0.9442130679248617  0.1709561385671946  0.1593747039581643
  0.1670798026500254  0.8281304959140190  0.8120730273526655
  0.8348126242906742  0.7258208114594867  0.0641312125600826
  0.1770604508598781  0.2096644499316473  0.7231974429686540
  0.4769219354567137  0.8507481769489756  0.2427371190656412
  0.1269816855719123  0.2049361743672899  0.7627922533234247
  0.4281487403362475  0.8829081346760626  0.2180040254721732
  0.2259645711574340  0.2494937901112246  0.7881536834677890
  0.1050465562931970  0.6848042454283461  0.7518844631882768
  0.7248312181602474  0.1293336242379123  0.5860448964297471
  0.4868801883401339  0.3704259140749020  0.4582934963950060
  0.8312234050452793  0.0819025695293220  0.2659036923915660
  0.7570205181203954  0.4297547109103791  0.8003635830660034
  0.7398862492213770  0.3941517664125837  0.6963783551137197
  0.6338903282924944  0.4215721279319296  0.5969626134839318
  0.7004412394105933  0.4410153863299420  0.5126158090057746
  0.6985993625287360  0.4249772368989043  0.5757674289990224
  0.6622113420765593  0.3727449759531423  0.5757664465425604
  0.0492833578165666  0.7077668658291075  0.8983643841621233
  0.9510492528463960  0.6706424806303528  0.8926544755726405
  0.4513186989159615  0.6387787845256341  0.4270618303519751
  0.5016146876554620  0.6072742943157555  0.4533548735338244
  0.5008956874009460  0.5580613671845230  0.4092892867731301
  0.4994140302345491  0.5417778703494353  0.4717894011492530
  0.8581288062965208  0.5950885960412106  0.7562115924850344
  0.8122478240509183  0.5566428369031912  0.6871084845900507
  0.5443034657523971  0.4191915827878964  0.4073954478928392
  0.5923894609277143  0.3280774320443883  0.4508777524478269
  0.6403082855234900  0.2673019146898872  0.3688584113231866
  0.9568741465891228  0.6389761825989985  0.7872154084639135
  0.6861716179042452  0.1908724814990513  0.3505843684773358
  0.8544554209570627  0.5763532768007884  0.5869226220219470
  0.9009996647533194  0.6136966998136365  0.6562055179330070
  0.7772232278349757  0.0862182212575839  0.3659660466946734
  0.0632792473600282  0.5131262312643075  0.8272318810272087
  0.2748241389526138  0.2904147323193698  0.4643052256754568
  0.8976064333683228  0.8358601158033611  0.2210269066669327
  0.4528231444439675  0.5336543085785777  0.8980475142614764
  0.8838653139701560  0.0954110361900068  0.1049394465766866
  0.8774452793295083  0.0638769457905577 -0.0038674062760803
  0.3040578284854639  0.5530331997478328  0.5681124331705242
  0.8167105952079473  0.9591513383743779  0.0709276779614999
  0.9429364872145459  0.1874704873633578  0.1001646853973345
  0.4159207375808759  0.8045585979880313  0.0657784095163353
  0.1031555917839554  0.8662211301260930  0.8978217059363847
  0.4178312095287263  0.7890777548281648  0.1274388855498767
  0.9503651196215260  0.8340041183587592  0.1268559004644762
  0.8410997163747496  0.2348062129712078  0.1082748563728374
  0.3651718180784495  0.4809047888356257  0.9326258951580146
  0.9866113238421921  0.6522295890451851  0.0872739023886962
  0.9926227932096422  0.7082370891056425  0.0599299052654781
  0.1080872187679415  0.8537998793783473  0.9699090986110224
  0.1078635677772310  0.8349313385285420  0.7865815455279583
  0.3378592454343272  0.9830199298513369  0.1937024673985438
  0.8440872530741322  0.8181236763804364  0.1498941087331176
  0.8593442935840031  0.8840651624559694  0.0556551938811558
  0.9462367762564398  0.7719297327353115  0.1418410233664466
  0.3810006830534338  0.5527423956851301  0.8179998057939064
  0.2244822234518509  0.8528727296244781  0.9434001168880413
  0.3534823314338504  0.4916708110807657  0.8745581377287356
  0.1937625797048913  0.9215424368897817  0.8643425040871467
  0.8902161640362789  0.7565747802163780  0.0722425949827108
  0.0980294034659204  0.1086257297821283  0.7176603268037313
  0.8500109542687753  0.9063593459355812  0.2348978482328445
  0.1551607757527091  0.6915446750255293  1.0145372156545347
  0.0496622472733729  0.6982689105325931  0.9650508462163377
  0.1640996755624393  0.3509690663376199  0.5256316805785312
  0.3823743861365139  0.5183027162125304  0.7129239647843929
  0.5192383501492394  0.7415651692420017  0.1189135388989850
  0.8734649655299886  0.0069666322422336  0.0128476422799704
  0.7717482356969468  0.0508607166029721  0.0220752996343803
  0.9339461247253424  0.0987449853529293  0.0077266548303971
  0.4725434301411557  0.8049649844579970  0.1982581125051354
  0.8695420552071665  0.9460778227723022  0.2677806322691261
  0.2440059943523624  0.9592876187649985  0.9882115538212349
  0.8666327745253241  0.9296904897249937  0.0964501613544052
  0.3137111632948900  0.3042710558260646  0.7521607481655741
  0.2432787963584646  0.9605123232683742  0.9302974750642722
  0.3302248532822989  0.9382094578972907  0.1593234337117435
  0.8395599132840665  0.7707698450624129  0.1065544603576797
  0.2664159450484121  0.9092166400658251  0.9473409641560530
  0.9955062695978293  0.1555426138251785  0.1246098372047618
  0.3641323169134002  0.5439932062670597  0.5920192578321181
  0.8877974915495710  0.1569407536971210  0.0896882217462034
  0.4052576906905019  0.6479991994155527  0.8720599499725887
  0.8129763093341197  0.4972370053122548  0.0796255326970205
  0.5082716738281053  0.5835357020058043  0.0515563931995894
  0.0300871988589480  0.0316780461887091  0.8819113703888808
  0.8150335547816382  0.5094630817845225  0.0220163436774604
  0.8584163290572924  0.4193949548129221  0.0621410758866114
  0.1556422293515170  0.3018777252648895  0.8090421663760683
  0.8371462593948282  0.6809263848206528  0.0185594384958568
  0.9538087836288806  0.3119474113599527  0.0692244391613056
  0.3923478154776779  1.0041212349364264  0.5161771968672713
  0.0380578894490099  0.1159883241040888  0.6977666805474767
  0.9033475296424793  0.3273070245766951  0.1039882922702545
  0.8460779750120231  0.3129689810802558  0.0348095776800080
  0.6874779134481637  0.8476666654310748  0.0822126602198123
  0.6776620860607959  0.8017705596712995  0.0433759966653445
  0.0452013948760636  0.1418658997244797  0.0894742504762020
  0.0945944817944002  0.3425755655350294  0.8922145254092279
  0.6621841960888566  0.8104781863764333 -0.0174706730527622
  0.4444503658065170  0.9407729879773783  0.1114226407267042
  0.2546408520683158  0.4802721312345165  0.9563966431804667
  0.1566521603253355  0.4386337505242929  0.9313974728735381
  0.0984879370700057  0.4439715967623693  0.9087139071390874
  0.8682724087655562  0.5282574818180018  0.0896749338080518
  0.1301374605987891  0.0742201805076269  0.9078541250464540
  0.4214000422038117  0.5684594370987812  0.7166535779424417
  0.1445135935370338  0.3474241683861959  0.8530954708765830
  0.2048010053914110  0.3406200081807482  0.8755204369331272
  0.0204330238435103  0.4508761882407650  0.3335761021149356
  0.8687371189224080  0.5668803858916521  0.4248149443339099
  0.9805864863911491  0.0028553782641327  0.0499118785481911
  0.0682431990073078  0.3433780072367489  0.4425822244891410
  0.5442938724596882  0.7074299044669843  0.7949157945121728
  0.8514115907199321  0.8420278127505344  0.0191321031792059
  0.5056289214189926  0.6568424029047766  0.7905023756712037
  0.9458439525386664  0.8093685661411584  1.0140662342435924
  0.0790894879467601  0.7718213999054220  0.8416360930106970
  0.0825765284115200  0.7402908489853307  0.7331523390060262
  0.4470270848526629  0.6638080164963197  0.7685674560413901
  0.1224674111450440  0.2973346378876647  0.5214753895108517
  0.2322919866015700  0.3679397432273019  0.7106358377171024