Cr H  Ni
 1.0000000000000000
    38.7169076500286806    0.0000000000000000    0.0000000000000000
     0.0000000000000000   38.7169076500286806    0.0000000000000000
     0.0000000000000000    0.0000000000000000   38.7169076500286806
 Cr  H   Ni 
 1596 106 3725
Direct
  0.0000179589298059  0.8545663214967210  0.9725895906411639
  0.9072316869373847  0.2801579473360015  0.5123494424860214
  0.9710865224780194  0.2528225699309474  0.5376299655393662
  0.9665183201001877  0.2991944123672809  0.5832615908595402
  0.5386095232328273  0.2968263611702506  0.4412446620281594
  0.7134987523716044  0.0121847322338268  0.3154436775355823
  0.1863852330485755  0.0627226490917797  0.4221709875647587
  0.3799773244832104  0.3261141506560547  0.3793366777910933
  0.2688850881059158  0.1970460997881516  0.3749750065695452
  0.4372737797117792  0.2741234715006534  0.4665494998353032
  0.3632536151573791  0.7274713712877403  0.7296947248268071
  0.1821462250878687  0.4681757603529991  0.4392217039264937
  0.2851304909798021  0.4646155638137777  0.4725883503398869
  0.2871414369570982  0.4798883494203117  0.4131341120869407
  0.0833382050393150  0.5921613663925268  0.3658944354022527
  0.1296937467188596  0.5119488518007718  0.3526163304438004
  0.1776178329742310  0.4495214691255984  0.2745576987698704
  0.2408632432343245  0.5575192461987302  0.4381086178815582
  0.1893465423900069  0.5915083922558524  0.4045451237842027
  0.1377973404563149  0.6064356324177499  0.4394882807074877
  0.0902472331256637  0.6854370812577180  0.4591512859819467
  0.1934495936868708  0.6273717958233249  0.5134314024231359
  0.2701242726828127  0.2781036120687499  0.2984232136733878
  0.0653001865858138  0.8653464247086463  0.5081998739869119
  0.4708204010267803  0.7577593528141484  0.8185660933558616
  0.5475952330775612  0.8590379230955851  0.8256880711471573
  0.2719309599391991  0.7084568551093238  0.8697400203046077
  0.5317369019374057  0.7510921078832176  0.8398014057987065
  0.3448737995486218  0.8429815019803586 -0.0061003379659909
  0.4377729725174290  0.8278251423438008  0.7402530217404689
  0.5462081874592716  0.8256016757947295  0.7189340498738034
  0.7901827538439589  0.8175376848563585  0.2449247122082226
  0.3213830294161812  0.7499307969409016  0.9380267709337942
  0.3317595129378175  0.7829707715874853  0.5531370950619008
  0.2795809289583323  0.8541267537780277  0.9661365327559923
  0.0335109655463116  0.5468533463086299  0.6429848562282844
  0.4045637849346114  0.7461956614579640  0.6315709934499205
  0.3167748590035322  0.6908220290025946  0.6599297437324865
  0.0807491218318394  0.5870346862638968  0.7042603415622297
  0.0302871747446255  0.5809421658795310  0.7431526308976311
  0.0893049086094022  0.5759795749170218  0.7649642641459020
  0.2492334518837444  0.7625088860953699  0.8524151604877258
  0.1423184200753465  0.7332374644031570  0.7585370821489084
  0.8314426732154784  0.6993354399277156  0.4178028885322498
  0.6029994506392056  0.8847570800899477  0.9528483703959435
  0.3908002151465033  0.8866528987130750  0.9974052638277617
  0.0705939067409195  0.7330628069859740  0.4980811972706322
  0.0633590082224329  0.7986943334737000  0.4761909895140971
  0.0103656494501189  0.9446136442990155  0.2829123493661681
  0.1222212302203861  0.3892228411337412  0.3848818192098289
  0.1715474621072350  0.3100405154756539  0.3670589595259504
  0.2198161161705328  0.2932595643605649  0.3331319407900827
  0.4192501133765574  0.1881423079644210  0.1428228083831964
  0.1747034936557769  0.4181729692922330  0.1692582829763634
  0.2164825271275909  0.2292579231398157  0.3491537715908183
  0.3131951974862388  0.1373603209695316  0.2947666230172441
  0.0013879819257771  0.2990071842549328  0.0273063907216942
  0.4030089097921652  0.0332280634620930  0.0664820270295957
  0.2100041011663271  0.1635105040676220  0.9694534840387343
  0.3121087028347840  0.1871593649329436  0.1116384674396770
  0.3841740461051638  0.2474853284961432  0.4536685153148581
  0.4018848998983650  0.1278917719651091  0.4773030687761701
  0.4567518916483000  0.1093139066845975  0.4380904485349051
  0.4523033339641113  0.0955711924797221  0.5001259127881567
  0.2693999313505703  0.3275084853425474  0.1156130913771341
  0.5007232123554921  0.0311183065554428  0.4178437330478285
  0.4440665253176713  0.9858532764372659  0.4747618748348130
  0.1342198503031102  0.5829939236436298  0.4984346482631926
  0.0750364668249911  0.5668235531287755  0.4855172287657316
  0.1325831247449454  0.5421550439889735  0.4608862895673460
  0.2124849775623206  0.4600743833265197  0.4946763443311987
  0.2235067145105653  0.3399547438316243  0.3790999235986537
  0.0040078687098521  0.8553380521974172  0.4263659551131711
  0.3692238767874332  0.1692760927591389  0.3023908503832176
  0.1267828109990830  0.4500638643334440  0.3704983794477827
  0.5502242192300467  0.0150531233642406  0.3825527718069105
  0.4143714829567995  0.0923500144657332  0.2828800658170763
  0.5592296268984458  0.0748141677005156  0.3628703045986001
  0.5134642874038587  0.1415955807734621  0.4479547886565263
  0.5161423521438117  0.1518440078041498  0.3768249400047135
  0.3302486940606215  0.3821262879142482  0.4569205425916852
  0.3839180610301666  0.3717808948212498  0.4227759409039603
  0.1081916987562226  0.2959326418491864  0.0720856347426842
  0.1192525948031186  0.4207249486763158  0.0357485581583728
  0.2759724003254664  0.2913899019025639  0.4643946355454263
  0.3242386423114919  0.2320647128700716  0.3832586330295368
  0.1289184799720128  0.4956463583402260  0.1867923849559580
  0.3104211185679521  0.1273234166689785  0.3619677603851617
  0.1297631418258125  0.5114736317865759  0.1278818117826149
  0.0838866878292398  0.5883429399419022  0.1439713093080063
  0.3937074471115626  0.0338087760626836  0.3883366150818067
  0.0292333030407628  0.5937248289251438  0.4617171992296375
  0.5704497031817243  0.1109654822332667  0.1614424496367334
  0.5100313545156072  0.0357619474148815  0.1034102357657919
  0.4086033260919480  0.0793540362202889  0.1148283782618742
  0.0757376657900253  0.4680476239945790  0.3996998231881864
  0.4651495476809053  0.1107890213848691  0.1234963426366896
  0.0018934788535567  0.8162736089800569  0.0897406524356713
  0.7732316424048528  0.2056133528812916  0.5965603209025216
  0.8367841621640441  0.7422670426122461  0.2306183521708871
  0.0299881423191470  0.0131394638576277  0.6767334945394567
  0.0352690286544615  0.5862469949546458  0.0148588236290556
  0.0519692634483647  0.9905486205178424  0.8024413239658972
  0.8562370715631278  0.9094371874910592  0.4691287769762879
  0.9134433436838583  0.9549463730677314  0.4186896362897317
  0.9542488049183809  0.7994545029809857  0.4858761255922492
  0.1775394173064185  0.9876306611783539  0.5062851016514256
  0.1871396511484502  0.2338388043588676  0.8902351571512734
  0.8061671155556854  0.4208903197145908  0.1566003542122781
  0.8079985879591028  0.4521644771799094  0.2613328679107985
  0.1221497439533254  0.9584003601632886  0.4950594734294114
  0.9074528908013815  0.3575732181134537  0.2089441201254738
  0.1378937513517555  0.1936274926572387  0.8257197063544648
  0.1452163607593385  0.9111719343218216  0.5757935279169770
  0.8565628744420386  0.3749787572819009  0.2431115803654297
  0.2487856267988490  0.0278445779745979  0.8442208887413979
  0.2998665864529924  0.0669449717857941  0.9091514485066202
  0.0739412340000562  1.0022276324911792  0.4040636843620457
  0.1677396443443303  0.9128168729787443  0.3495666014118735
  0.5017389563890390  0.4757128084882578  0.4943039635344317
  0.8744016363550557  0.1273127443087736  0.5255607498317914
  0.1010335276577301  0.7863878254879546  0.0125524485084271
  0.2751863446017987  0.3547573995696980  0.4473556071331767
  0.3878578791790027  0.9086615208603566  0.1042372286454408
  0.0213936778638309  0.7288769323809461  0.5400205719916371
  0.0360297647175050  0.7019421235123139  0.6638348920450852
  0.9281804489631611  0.6047202709420491  0.1422329756179017
  0.4438839630255751  0.6952531718489768  0.8766252376569413
  0.8314374924525855  0.6642869823115212  0.0789569539128196
  0.1927048685681186  0.7381784576970486  0.7192860654548870
  0.8622070025447751  0.6111210230217446  0.4651876404546278
  0.3567646588403898  0.6098852149924855  0.7994716626994919
  0.2973947390739783  0.6165425596899115  0.7782418800256519
  0.9729711544293608  0.5641584457366167  0.4635620365126375
  0.1049507028049633  0.6843834752726030  0.7516795739947688
  0.7815203735047871  0.7236200829914571  0.1582040646466119
  0.2505880610465301  0.5784595923198643  0.7096548016666349
  0.9192032409037030  0.5296141220436640  0.5077621664566435
  0.2408030117403944  0.5908601236522615  0.6487393232245707
  0.1952015686804057  0.5511291416361036  0.5847947973054062
  0.6987905382602730  0.9260010408479862  0.4650133138498589
  0.1433434435404126  0.5163191296220176  0.5223192906897631
  0.2743706000226686  0.8601187993068964  0.9058898499724773
  0.5473486873875471  0.8648603630457630  0.9960984525984535
  0.8476970715569372  0.7357090749233381  0.4678266106325042
  0.1010408722687679  0.6615479050131080  0.5847068805749073
  0.0922895531149434  0.6729762428379850  0.5189147207829624
  0.1404212142354009  0.4734804783727036  0.4794180813277161
  0.2695231898125092  0.5554563692300956  0.8339022865018684
  0.4394420164993975  0.8936532741783129  0.0589341098122906
  0.8530939530465380  0.3114898096742376  0.5414574304361252
  0.9389493981178417  0.3613742682956249  0.5627519882742519
  0.1391153120999823  0.6203083881253421  0.1474452368344366
  0.9502827016183243  0.3460349146600176  0.6196972655106289
  0.0394054429446477  0.6679285056063741  0.1580007806158404
  0.9159730655194891  0.4329208255965000  0.7423185948657832
  0.7514772775365355  0.2344217183792860  0.5299760412570022
  0.8151349909743353  0.2069786289907110  0.5578338655563514
  0.0038996479137024  0.8484383348922839  0.1947939475316211
  0.8542272052478438  0.3036459262299493  0.6006190988241514
  0.8623933013749470  0.2916630949676345  0.6604201823279529
  0.9231956187856466  0.2833826674871916  0.6809429866772111
  0.5104947702758046  0.0526775963435766  0.0345439144507423
  0.9014569611297282  0.3757153039688709  0.7674306777695921
  0.9726717530804933  0.3222173792651313  0.7436255504675864
  0.9999820505900815  0.3848262200822524  0.6840520293878048
  0.0389954737930740  0.4178947571201048  0.7830736851877546
  0.9987344210990119  0.4017255562082945  0.8871805127500677
  0.7193812684128590  0.1391932643379236  0.5118632303383889
  0.5149126278304506  0.0964616590152153  0.0887258523993409
  0.5710226765566825  0.1463191571046649  0.0380354154719126
  0.9761517014800796  0.4258456637483321  0.7620626511797343
  0.4694710411291017  0.1736702761307809  0.1073026329462590
  0.8557835412304446  0.2531243047896599  0.4997630632385099
  0.3197045749184992  0.5605394389033672  0.7950070371642006
  0.2553707604101134  0.8816301900946896  0.7812832676822395
  0.2232721832846764  0.5146997228983959  0.7690400353156327
  0.4411145166819804  0.8541022865573279  0.0076468019048469
  0.5688302871991979  0.7244878636260697  0.0848744324540056
  0.4536605308369143  0.7310803872982635  0.9838143592024748
  0.6198878341414955  0.6610921920112409  0.0054311860290282
  0.1268958403212833  0.4356066891067957  0.6408448263864421
  0.3044121239561169  0.9205035255864901  0.8484266415792585
  0.9699237085463500  0.4810265916132105  0.0835497272992627
  0.2944195786847362  0.9651303293284235  0.8927671555746449
  0.3575813947628163  0.9590020307410489  0.9141811823617375
  0.3901963777769795  0.9275278688913721  0.0465567782848186
  0.8061152982218800  0.9399629837702771  0.4397454101355528
  0.3833252418732273  1.0025936200372105  0.9481608154174177
  0.7917463555047058  0.8305551591560852  0.1821915638073426
  0.7380162387649162  0.7904115222098532  0.4646869889785366
  0.7810716413238974  0.7286268092368517  0.3862027888497956
  0.4961566652724687  0.9234645831855789  0.0775545791025814
  0.4325333120605192  0.9308191401515310 -0.0023997908166609
  0.6490710066457417  0.9702843578320126  0.3730399232319362
  0.4975262931465049  0.8535252309909210  0.8662492284288157
  0.5841120628299206  0.2801887232933323  0.1777451687834185
  0.9741412611633160  0.5590454724928886  0.6322658579295145
  0.3845965034997995  0.4180068839721211  0.2405143203368754
  0.9651079757665069  0.5736224706625024  0.5751528472782541
  0.7500054168656713  0.2069611546241124  0.8624160521506120
  0.8042020402401800  0.2827677693973054  0.4772694061826298
  0.7849731944283426  0.3908813566333464  0.7278507210728351
  0.7925552949547072  0.1904138222557069  0.3873673105211219
  0.7293050126935092  0.3512547616090022  0.6569077519075643
  0.6706519050499224  0.3625149612156582  0.6369687495808656
  0.7211259805454492  0.3644220920125097  0.5936484357114696
  0.6811575923059983  0.3123190577909747  0.5977346845873275
  0.9565289077409967  0.6567641659658953  0.9544157412093810
  0.9192980981229150  0.0172279560607492  0.4014440437661974
  0.9377574117146337  0.5628850362752015  0.8964729648981898
  0.3249459368577098  0.8653135596193842  0.4748534617349222
  0.8930577609870143  0.5246600738057370  0.8287460195649580
  0.2701180663910963  0.8343381076850898  0.4682549680766881
  0.4042682382770270  0.6654522653933916  0.3987150417009421
  0.8783622470950251  0.4143055528297802  0.8433052966214116
  0.6768077293196773  0.1942330992173182  0.6745916776067611
  0.2627276753027702  0.8050934554437024  0.3589339587225155
  0.6389202177644885  0.1420999378516050  0.6697077839532951
  0.6261114956402684  0.1538242410979700  0.6063670420077599
  0.2074046189706129  0.7752646288615777  0.3487169948715637
  0.7144196769137610 -0.0272251297055288  0.9695506365133507
  0.5875194612821143  0.3110104462707705  0.2834202488931492
  0.6983568374516083  0.3443398957095364  0.4247875764806819
  0.9149205029118170  0.4981626112058469  0.9465703313057976
  0.2717815608533596  0.8963203966332705  0.4518443714815654
  0.9303114525067124  0.6793906470641292  0.6018468389920935
  0.2253829233089036  0.9173759356865295  0.4866441695999750
  0.2171791710816920  0.8686859574191528  0.4374461628762921
  0.8096214471024695  0.7004396871102431  0.4937883620151814
  0.8338122766839554  0.4993235475113045  0.7039263294992560
  0.8821212254219910  0.5367294400848465  0.7710734634903342
  0.9029157368456724  0.8159080167003141  0.5137902580412348
  0.7717243858819833  0.5383542563759017  0.7865951204934643
  0.8511607908652906  0.2053797179860566  0.4565436413331417
  0.7416108730236637  0.3402722090230988  0.7249762230820689
  0.7029643401326835  0.2898055384485950  0.7205011603097092
  0.6434735013314239  0.2967408342789598  0.6996659145648607
  0.8438958879426545  0.1455290735424408  0.4744662369582978
  0.5923169653364129  0.2590882733538519  0.6370949927512956
  0.8726629313294326  0.0798713272205480  0.4768248872173478
  0.6435436606744505  0.2656095443680057  0.5965430785450985
  0.5449521738461968  0.2163998648566681  0.5752464920971473
  0.5535945566701038  0.5125706373193921  0.4953194956263134
  0.8857080212232012  0.5531304097075153  0.9473257450429146
  0.6531388326929006  0.4656903915581422  0.4839647689151588
  0.8542764807289021  0.5071192732529239  0.9261569933129483
  0.3438484593778526  0.6566689303536825  0.8469243553741415
  0.7268712571646333  0.7123518217757302  0.3170392483694981
  0.9231642443816788  0.3515132593051317  0.8866791455809035
  0.4769889156505949  0.8509167218105970  0.2428249287680226
  0.7043960872976790 -0.0008176349729225  0.8968089750302483
  0.3998765102447077  0.6063299809827097  0.4173536973002833
  0.4484746421976715  0.5423753038858707  0.3375850761981432
  0.6904026679309235  0.0819062107290272  0.9212982445125795
  0.6901387239596006  0.0502657905129896  0.8716599330745762
  0.6101208294427877  0.1155384950393183  0.8360430852739795
  0.4433481456188542  0.4657996220437038  0.4138625404959825
  0.6326770173906836  0.0230009516358587  0.7485620853048169
  0.8015064599028825  0.2458173898171856  0.9238910186513745
  0.1767805919825804  0.2088639220182620  0.7234153807697697
  0.8346524338035430  0.7256945299573652  0.0631786949477312
  0.7719246017247510  0.1501907688238501  0.8811399433211579
  0.7091252863154881  0.1243961886653364  0.7541572599964004
  0.7200621110807344  0.1120767440347815  0.8145895099596668
  0.6485167680148343  0.1317422328337428  0.7315154386580799
  0.6606585483793804  0.0856008845762864  0.6881852511848259
  0.6816721820513970  0.1581018536003389  0.2470303397542069
  0.4997453155000069  0.0469800596791690  0.6389627423758287
  0.5418490746294812 -0.0372912435043236  0.6339600559379305
  0.4982506820874309  0.0014079327831937  0.5447980484881164
  0.1669156289190925  0.8277882359415332  0.8116983383551342
  0.9441928836342792  0.1711705195340736  0.1589427366203978
  0.1623328068933328  0.8531176095875691  0.3673847539859486
  0.9963846921568900  0.4367501264841114  0.9896917318246764
  0.1268747512298997  0.2042154963071844  0.7628154460498031
  0.4280334859882249  0.8831727576079794  0.2180616813625173
  0.2258290545657944  0.2490654484991269  0.7881419028394053
  0.2046108755491187  0.3055615760339994  0.7699156923090932
  0.4816005740817631  0.8966138339477292  0.2858228234138136
  0.8346589439536252  0.7390325239769080  0.0042045142731157
  0.2969489189833538  0.2309423616854596  0.8717470350346123
  0.2758283636128036  0.2880309972666268  0.8537139329673247
  0.1009005348748672  0.8154362120113960  0.6118003428479384
  0.2808540806141861  0.3246071081546341  0.9578145996323281
  0.3268411619900359  0.3279925409593641  0.9188159774160046
 -0.0176486032456022  0.8335875599573151  0.5778100315551277
  0.0426399327675952  0.8649104657829227  0.6085137194421203
  0.0471677559920546  0.8231561883472083  0.5718651257463365
  0.0235469557492144  0.0445558250066455  0.5425437838396000
  0.0478752478673559  0.1044643476802822  0.7585710887775731
  0.1191830366824915  0.0865669039367918  0.8447552652638266
  0.7162536166302391  0.6053273989963610  0.2935110005561082
  0.0879387895033562  0.1532268718989780  0.7610689462714217
  0.5056421557754990  0.9378968016507665  0.6855819527399222
  0.8676150580991397  0.7152305151263583  0.6828145568611107
  0.2999781123842502  0.6669301696256412  0.3628155612155613
  0.7423103087650734  0.8501074753222112  0.4471945426316912
  0.8194527011671692  0.0095743079823683  0.3506731183933505
  0.3984374094266830  0.6546825555460574  0.4698703502961761
  0.8007528128817345  0.2979510356695453  0.4175538389257497
  0.7236985571767677  0.1368389443520183  0.5814994826462874
  0.4873421825572736  0.3712983472391115  0.4581983785895455
  0.7569712371696160  0.4294539479465328  0.8004935196713074
  0.7397872828352311  0.3940512127464221  0.6969259982207000
  0.6336792793259398  0.4213491833889420  0.5972538163861848
  0.7004547144885857  0.4410812298603348  0.5126408762381716
  0.6984800158652624  0.4247966535739018  0.5760341491369841
  0.6622798097270358  0.3727883553005669  0.5760372577189385
  0.0491297391613598  0.7077235611060889  0.8979394697556268
  0.9507543255389941  0.6709801253782139  0.8929435080281659
  0.4504892853261807  0.6407476203732192  0.4291321751349804
  0.5012779586799151  0.6074901332775690  0.4532889650034458
  0.5010836122120945  0.5579880815346098  0.4093884904127634
  0.4993701241070923  0.5416885628574760  0.4718418563526883
  0.8582233008036917  0.5946381022765811  0.7564349012741508
  0.8120763314975716  0.5560848336685497  0.6873271005162563
  0.5444863256492172  0.4192843090857715  0.4074369204033212
  0.5926755289367127  0.3286279199283543  0.4510297533640729
  0.6405507764086359  0.2673618252223918  0.3689279765061553
  0.9569374557576906  0.6386733131389977  0.7875851171863857
  0.5602831934636482  0.0980457060993914  0.5334773709866965
  0.6864856120307716  0.1905031524240630  0.3507083189271469
  0.8540033272399548  0.5756410988323301  0.5871170294000562
  0.9457008627068928  0.4636332566800865  0.5830676190722220
  0.9007343497344218  0.6130721513668759  0.6564043789859612
  0.8313164553422077  0.0817544923045768  0.2660518760914022
  0.7775668329078536  0.0859810406983305  0.3663326903629280
  0.0979281487352714  0.7126647037917593  0.1005760951930080
  0.9678548450218639  0.2036524094346620  0.8221272220109105
  0.0171711672221074  0.2076357856623219  0.7831783164173775
  0.9386044538940200  0.1065356231531783  0.7773736324611482
  0.8678326345304161  0.1254233006942981  0.6930924729117366
  0.8284518117973577  0.0805309139308018  0.6897698331022323
  0.1864010612465298  0.5243310873393774  0.0298643639217164
  0.7652773826402519  0.0505434761557902  0.5584414972191648
  0.1839655806128398  0.4473717938214459  0.0511586188113093
  0.2555335072284857  0.3568749091325790  0.0416167985269790
  0.9562592542142505  0.1795363464792561  0.6570877797950796
  0.6870205869059092  0.1637277921808069  0.4732363470344160
  0.7332221477783909  0.1475589078833744  0.4394700576150788
  0.8180650141336754  0.0899492269282670  0.6266202201831563
  0.8213150926177487  0.0926452912522458  0.5008128931629774
  0.1765082943088886  0.4338440135706217  0.1101785557137872
  0.1367228145273197  0.5749865356696600  0.1069835458603856
  0.5288998324278854  0.2649734547738135  0.1067688317736873
  0.8954299227300876  0.2214567475412393  0.7395850767600927
  0.6969853663720637  0.2837770858943093  0.4407187641785320
  0.4654096972398172  0.1903954299703287  0.0430371050265285
  0.6677275791000010  0.0486622555544222  0.9800953561107831
  0.3468526912944041  0.6047118848899978  0.2840441251373447
  0.9120892828213759  0.3628222987448850  0.8272936654392080
  0.3992225903981855  0.5880407190890468  0.2499606335408534
  0.8128482893301150  0.3196458303947858  0.8045820240213013
  0.3466202663757362  0.5889636426197701  0.3470820735264027
  0.8633904517751310  0.3252341468656163  0.7633228297913176
  0.8027539957568522  0.3318780865175956  0.7438357482886883
  0.3382553397063617  0.4948187981537128  0.2584234026154024
  0.6926082078849515  0.3017728516063399  0.6584445539116580
  0.7250643762443199  0.1969060445625135  0.6378083290760785
  0.6644312706383494  0.2046147572874732  0.6141027879321977
  0.6483985878707387  0.2376462645408974  0.4907703680865201
  0.6690651801604414  0.1634980239136425  0.5641619510214552
  0.4395009443937147  0.4332753009024616  0.3110552117005245
  0.5364400374076516  0.3411820102890665  0.2575007946140183
  0.9863236296410642  0.4461345195616064  0.9277396517515941
  0.9267351562804538  0.4527695531852917  0.9066084986064824
  0.9765501417967154  0.4587914365204989  0.8677113456524377
  0.4813686412586923  0.3094560256264844  0.2487228144579633
  0.7379265791301695  0.1864774818785885  0.6958618319025829
  0.2128312832417725  0.8374297148421423  0.3310211480910958
  0.8631817638706858  0.3582950081291449  0.8658700114981588
  0.8472027812412508  0.1820669173197724  0.6767385990051489
  0.5185714016143198  0.1593613814966226  0.0749576111040222
  0.4083394270475215  0.0999217160294280 -0.0076966683715758
  0.8350838419617654  0.9627184764180241  0.7289857676889453
  0.4331625811259902  0.3581356988668234  0.1611467721698762
  0.9833129222201952  0.6789662033253967  0.5353730696907996
  0.5742674055707372  0.1569448016262918  0.2075362010339200
  0.8010588765193949  0.0413122308888588  0.9293098347883906
  0.7485496494278311  0.0447306572923185  0.8951988550769922
  0.7962095323969561  0.0933976973702748  0.8993600638342447
  0.9955996199375460  0.2988068800883471  0.8677427968796512
  0.3703810877941611  0.2817281248130833  0.1058189183721315
  0.8914004776656446  0.3878825769716825  0.7061550669156929
  0.9337005692823342  0.4768809720386321  0.5229668581673447
  0.2323848905068578  0.4831964339922037  0.0531635752021910
  0.9179328413835032  1.0149044653741184  0.9657578551825743
  0.8647639915821591  0.0343778346560966  0.9421575080333138
  0.9856060836905082  0.1836817709851084  0.9468187769022135
  0.9408223949923741  0.1416018147498007  0.8838921225342118
  0.9998262443332566  0.1347972272117376  0.9052579374947225
  0.3574837824173688  0.2554678895087446 -0.0018811158284286
  0.9482049469400855  0.0964551449712523  0.8397641837728127
  0.9089208662254328  0.0476467581214342  0.8370899937850155
  0.4152413467008519  0.1611987980690051  0.0350518157232992
  0.4593847310759109  0.0835200568663863  0.0157755200953152
  0.0635760117583034  0.5127790746349523  0.8271552209442864
  0.4000653511708145  0.1097832175746593  0.9306034035410855
  0.8967720624520166  0.8200873887421504  0.2829472187336716
  0.4524581864561594  0.5334377937157179  0.8975488931566015
  0.8835196491809277  0.0956265265410933  0.1050720457965987
  0.8775049745623149  0.0635659584431530 -0.0032100497417119
  0.3041537938743806  0.5525881874564962  0.5678659616559028
  0.8172270132698952  0.9580674831038939  0.0718676413716895
  0.9427459935921803  0.1876968775494089  0.0992270810254060
  0.4160998287803088  0.8054349461221696  0.0663846167836138
  0.1034258813077497  0.8661117829355147  0.8978785382161010
  0.4182140535907707  0.7894733823403194  0.1272790359170081
  0.9508663302618983  0.8339401423330147  0.1275733435889408
  0.8410514510544717  0.2345864075563192  0.1080106417112852
  0.3646168069708096  0.4809278436095369  0.9323199062295073
  0.9865743625859512  0.6520198669364743  0.0860018831499112
  0.9931839219322668  0.7076035645700836  0.0589786514304843
  0.1052385541715414  0.8555330562973842  0.9775976217807205
  0.1074451368214050  0.8346250411052470  0.7863295838731215
  0.3394200134322433  0.9826184889413484  0.1938643061394061
  0.8443561527215211  0.8175924551009696  0.1501489637503828
  0.8614387225594353  0.8824009610960902  0.0534955439101262
  0.9465269188019571  0.7719657458429963  0.1420197935403860
  0.3805783472449853  0.5525240715486527  0.8175947538872941
  0.2239475653520397  0.8525960144546981  0.9446417185833275
  0.3531405322088928  0.4916586549102241  0.8740961233466594
  0.1934183807890855  0.9212079170253845  0.8651256122687547
  0.8900985741995956  0.7563137585038318  0.0724497439490666
  0.0976509085691559  0.1076881731929489  0.7177774082603851
  0.8500155002143379  0.9061083942884069  0.2350750438882040
  0.1588406567676358  0.6929452186043297  1.0030342629425624
  0.0485335898809671  0.6976678649614337  0.9631180242244226
  0.1638524155101800  0.3475541794650879  0.5254529856832522
  0.3820219298124208  0.5180933271152874  0.7128068999060603
  0.5192977023573982  0.7415392398180372  0.1191639075223653
  0.8745655262126506  0.0057792709343666  0.0144829795389131
  0.7722737529026886  0.0499352006628728  0.0217852630599099
  0.9347620340004399  0.0982862526547564  0.0080042692267513
  0.1606899198554886  0.3852768178000689  0.6260913497869305
  0.4210389429514583  0.5681974577471254  0.7164941766979529
  0.2431697074979057  0.9583648820032066  0.9876998851508503
  0.8668627594996966  0.9280907353410701  0.0963002748561108
  0.3134739513851436  0.3039226325136836  0.7522063110161623
  0.2429252274650906  0.9606271246822325  0.9303678921112172
  0.3308193668293912  0.9387010471334628  0.1575196499752808
  0.8401415416599953  0.7711908168916958  0.1065747228414485
  0.2668741347585162  0.9100650335421243  0.9476937298801340
  0.9953371301050413  0.1558259805424221  0.1244536151808543
  0.3640011882014960  0.5437576772192430  0.5919375876286836
  0.8878226835167178  0.1570939873103772  0.0892590380792729
  0.8691638058704807  0.9461436119085379  0.2682533633929871
  0.4726025201356100  0.8050976914061216  0.1983925185473526
  0.5087038995708960  0.5828760850365476  0.0500466963739278
  0.8134106129444434  0.4962581876403255  0.0801323904714881
  0.8153294622851973  0.5074906950080422  0.0226099592864294
  0.8585707557656123  0.4185446613691100  0.0624852993073037
  0.1556226941001063  0.3013637300104513  0.8087494811606510
  0.8363329074117626  0.6778247338113829  0.0174153374313402
  0.9536515852523842  0.3119652572009016  0.0691406238515405
  0.3931082313644346  1.0052589738878124  0.5172942177409315
  0.0373640389176028  0.1146774200538042  0.6980736184202969
  0.9033471773484032  0.3271747747685749  0.1038062893612951
  0.8459608680672174  0.3132248466711088  0.0337752359555873
  0.6886354555885121  0.8459945462114595  0.0828088149188902
  0.6802647102299832  0.8031397101297094  0.0413424860603632
  0.0450307081539423  0.1420677330563596  0.0893166958864435
  0.0947967234950000  0.3421766935083735  0.8920058660957347
  0.6611444896061104  0.8100492234540991 -0.0175530753223558
  0.4439740492341925  0.9407208782267797  0.1113679515071387
  0.2548820169103186  0.4805105202409272  0.9540405353036131
  0.1565728217923799  0.4382077448455866  0.9308131113934801
  0.0986533937093323  0.4435142465041931  0.9086120751760988
  0.8688890532364096  0.5275282930891947  0.0900096324282965
  0.1297200453136207  0.0742247828686932  0.9078365541202182
  0.1444918293811035  0.3470349420661145  0.8524713006878113
  0.4046299077468931  0.6478779615974107  0.8727735409442295
  0.2047796229606673  0.3403307470872636  0.8750273775347673
  0.6702381826897139  0.0648196357033945  0.1554138110554862
  0.6250102035144135  0.1274808556986542  0.2358969797271003
  0.9806922798692722  0.0040108436315201  0.0506882055401085
  0.0671693194900420  0.3438578090350899  0.4421008017115297
  0.5438959771053895  0.7070168358053449  0.7950621326844103
  0.8595457165332290  0.8376287620272422  0.0142758867600838
  0.5052312063049830  0.6562580890376111  0.7907641103749532
  0.8963091646619028  0.8195399777143381  0.0553722830208602
  0.0787667222700496  0.7717867053879064  0.8413182248484419
  0.0824194451849357  0.7398954481384395  0.7328260625772399
  0.4466058677348323  0.6633234950881685  0.7686706401950648
  0.1217514359947470  0.2968681384800343  0.5218500967335420
  0.2320478482982899  0.3674062029462739  0.7103748828849072