Cr H  Ni
 1.0000000000000000
    38.7169076500286806    0.0000000000000000    0.0000000000000000
     0.0000000000000000   38.7169076500286806    0.0000000000000000
     0.0000000000000000    0.0000000000000000   38.7169076500286806
 Cr  H   Ni 
 1596 106 3725
Direct
 -0.0036782190141152  0.8519449789672572  0.9706081274524957
  0.6600730950281357  0.6713113226639539  0.6739866501919899
  0.6680984596216294  0.6573046416710467  0.7337227655774624
  0.2622093807735662  0.7915081142311838  0.1910299147401373
  0.5372546884430451  0.0452026045260341  0.9381776330406800
  0.8640192347257657  0.9921946524603331  0.6736586301381123
  0.5920600823761458  0.0076891388436753  0.8535661194901734
  0.8511275264024075  0.2833359710225781  0.3794503932680677
  0.8940209143284218  0.1568582643343307  0.3170576304509918
  0.6492581512012761  0.7008128411234507  0.5541651401382053
  0.5776105669797319  0.2146368046353752  0.8639446370090959
  0.8860324182969299  0.0944966437587367  0.3344345426179772
  0.9364584256171500  0.0619941386089246  0.3615212582500869
  0.4124988656503483  0.3119832364022515  0.6726806286122962
  0.7674150593395839  0.0082345911273717  0.2144057154637400
  0.0460681225668922  0.2163178299614419  0.0147924098822770
  0.8590737036607260  0.2357388265787867  0.9452991385417585
  0.0346744055298560  0.1271781210460740  0.4674186950460127
  0.2975259701093428  0.6529436055923984  0.4242137172659768
  0.2518287761733884  0.7297286095074464  0.4404856565025922
  1.0132885396431672  0.2349542795991403  0.4981624754760717
  0.5396000450402025  0.1678863065113430  0.8552997783220062
  0.2140619061131719  0.8060322382631937  0.4514719620141996
  0.2205847966097625  0.8538749768599554  0.4975706718139161
  0.4658564881133332  0.9535158071845328  0.8945870126145768
  0.8614794369752345  0.9555400870957955  0.5095253690532493
  0.8644196959376946  1.0064711620807905  0.5484768060188810
  0.8643824683562227  0.0668827518176181  0.5359766757212505
  0.3684878983843746  0.8041151311498576  0.3926053169295554
  0.5538836825705176  0.5897284138319783  0.4174966740546894
  0.4186673823746930  0.7901655837886756  0.3570733044762793
  0.5164342514946199  0.1903811454185114  0.7317326784936851
  0.3664274458182574  0.7743578959059805  0.2883953077268362
  0.3157004397901122  0.8044069439009808  0.2612684745276196
  0.5710441465532632  0.3165145004557962  0.6154251015889185
  0.5123432895415454  0.3222524906616599  0.5937645129248195
  0.2689697309483940  0.8665245052053950  0.3409880712131397
  0.5821030182855645  0.3024580734537702  0.6772340286075648
  0.5609546712992319  0.3610606324125817  0.6572626726107447
  0.2197346670039776  0.8976653846432747  0.3138136316721122
  0.2750346500922018  0.9281104185130522  0.3245534056929964
  0.6710986727316429  0.3722419857683109  0.8404966159589631
  0.7090405788478221  0.4207377483742812  0.8430527895202635
  0.7757652573062813  0.0674160834825692  0.1956080309383748
  0.7042178554871897  0.4592789367757865  0.9396519415822940
  0.6464191298934158  0.3897024625290776  0.3363121709214850
  0.9614456559381059  0.2028348618255070  0.4947758880801538
  0.3132051952893634  0.7460083251860057  0.5093773865939472
  0.8055888281837285  0.9140621676586973  0.5660690814931679
  0.1286420377327847  0.5115052866526273  0.3517842818563464
  0.2398778831394610  0.5582381939110438  0.4362875398172848
  0.1877173613056691  0.5912902440612505  0.4039761112567269
  0.1372658988167478  0.6066620831525855  0.4382646545115421
  0.1420957072438333  0.6683444055362755  0.4228799804740239
  0.0758166798085534  0.7337035408762339  0.4963553213656046
  0.0617412693262643  0.8002646712879197  0.4724473576323009
  0.2702748907552185  0.2786952234505043  0.2988646464201797
  0.0657083091519388  0.8544199261118274  0.5116261646300628
  0.0045952152131165  0.8527145537337425  0.4274266627489641
  0.3693485817250515  0.1697995688185852  0.3029590735194893
  0.5496951753719164  0.0159372337738285  0.3812233264006748
  0.4140816867732329  0.0918073750802221  0.2830599303261857
  0.5577685007593500  0.0746687614910234  0.3614389724319844
  0.5120652686497653  0.1422876374492189  0.4479745167907294
  0.5143448700686200  0.1517822249673562  0.3779890338595961
  0.3358795538580276  0.3826689626958962  0.4565855105622373
  0.3860704481270210  0.3718904830504587  0.4237686954948438
  0.1095576681478345  0.2954381408356110  0.0719633662460237
  0.1203854318026989  0.4213292861240477  0.0347524047318351
  0.2766070175805502  0.2909364277486098  0.4651916574104181
  0.3231847609749681  0.2317294530687500  0.3839327498247185
  0.1774264502465177  0.4494171150624365  0.2743130367833295
  0.9890903633594654  0.1944904614108799  0.5514586089251802
  0.9692412485023192  0.1297645196698203  0.5569867791033902
  0.2864977981928885  0.4792549377102414  0.4131938750406808
  0.8699700764207364  0.0916766148745563  0.5899472176399529
  0.1687817825307358  0.8816412166369025  0.4748157461004024
  0.9136180809049727  0.0348049702710542  0.5697298696365970
  0.9725516522623967  0.0145857250458981  0.6565191096790037
  0.6628903937380558  0.0637333885435631  0.4601596381438121
  0.9885301098628232  0.1092745934620470  0.7372242230971667
  0.0481418465069372  0.1032134643279685  0.7577418987866521
  0.9299430575032328  0.0028541736512842  0.7595385055306445
  0.9586865259244060  0.0500534704846356  0.7958648826938524
  0.9681982123637873  0.0368974295661541  0.8606973437042424
  0.9085416480698373  0.2812458911528217  0.5116763141532360
  0.9724158247450347  0.2540248612215835  0.5379327349159692
  0.9674215725993032  0.2998878712770859  0.5839241406071397
  0.5393320135987852  0.2946321547915424  0.4419669896706008
  0.7142463811380979  0.0119019687298906  0.3142329378601223
  0.1863732278728959  0.0621690266456701  0.4223225541562343
  0.3804641152925660  0.3264405591677404  0.3801238168877049
  0.2692020514409300  0.1984741141613219  0.3755920472383992
  0.4370293372895679  0.2734054453683269  0.4668403625891104
  0.2333408548290826  0.4471396390913106  0.4094548240790061
  0.2854157245986789  0.4660945439862314  0.4725342732285901
  0.0822694884771864  0.5916010799608226  0.3652162997392235
  1.0005240889486278  0.1526471160368538  0.3535703900253157
  0.3868408740461685  0.3207803529798809  0.9416220282528442
  0.5857021878528655  0.5338123400014274  0.5568420161684933
  0.9904506763116856  0.9467061971783769  0.7401616892415853
  0.8786832812517030  0.0026432147109224  0.7968687045058018
  0.4402022503225014  0.6640100149570467  0.5372160423683994
  0.6963683285723763  0.7859600413060752  0.5663459600056517
  0.7819615654205710  0.7875957391230995  0.5851660188078153
  0.4740746760951011  0.8045820824316614  0.4278436141894159
  0.8226751368880535  0.8379151028238790  0.6475966789856512
  0.3796356882731937  0.8959262463305315  0.4837567693875180
  0.8330433631971319  0.8825154885838092  0.6938279811542332
  0.3299533177462297  0.9287872635002512  0.4594576591787223
  0.8486505304147249  0.9461106999220102  0.8559176883594283
  0.3360977178749159  0.9884816005528193  0.4425369326526530
  0.9484518013112249  0.9819484779408346  0.8835082274687588
  0.9303447135904651  0.0163520505257116  0.3176195539905737
  0.9548355419358384  0.9710364995422359  0.9465022558371312
  0.4087642086310062  0.0797476488111615  0.1156094228617191
  0.5123523264778770  0.0378245412241018  0.1015155932179989
  0.5674932259427086  0.0668011269096584  0.1167112183910633
  0.0287369828613715  0.5926981997028101  0.4614240767464902
  0.3928954024103718  0.0332637795203013  0.3877803758523553
  0.0840758271769568  0.5889554161455501  0.1443523307530904
  0.1309233663386048  0.5111038598982482  0.1270998717174761
  0.3191996693222538  0.1683964275073359  0.3994395591280731
  0.7175831042220762  0.0190855951222003  0.0125962081797165
  0.6213876427708603  0.0807805240456536  0.9623293226620233
  0.3943219189027958  0.5078397560325554  0.1057166322295815
  0.5316824688553331  0.0143293426364210  0.8311199666707300
  0.7411603152977531  0.7574726887965759  0.7408746601107282
  0.5407110918986723  0.0027897049157068  0.8936311837024425
  0.6973237297157536  0.7215206342196907  0.6737704113923955
  0.7579878213892459  0.4848737177830417  0.4592628220297846
  0.6757278170670544  0.2263860652343491  0.7793667163256158
  0.5546731256135057  0.2401233171665093  0.7369122772243514
  0.7261895398486208  0.2625819810626254  0.8444984169735296
  0.2592241892151741  0.5866723148935310  0.0141911964553836
  0.1994468688387833  0.6150407181759177  0.0475285339848506
  0.0934270997084381  0.6704200418932758  0.0626104389779959
  0.8657544706612678  0.4351427718888360  1.0039144776487678
  0.1550503593664901  0.8076249546571179  0.0877408967365777
  0.4921829470551620  0.0515438825546360  0.5797963449322439
  0.0642127901982493  0.9054633370286174  0.0766447340628812
  0.0211277498307054  0.9683017678182463  0.1514771047808133
  0.4795640113981630  0.1037929502777813  0.6231059844265665
  0.4891044003675249  0.0939057055854801  0.6852027662940535
  0.5451556434587655  0.9854049916091876  0.6897376695645315
  0.5890094738777896  0.1372595694321894  0.7094927093581920
  0.6136074197159929  0.0632095761185077  0.0232289954888069
  0.1290356830203910  0.4955474543672406  0.1862382919604859
  0.5886753928907257  0.1708575201841864  0.8174362126544896
  0.5692613492386196  0.1562481747475044  0.9789564069967451
  0.2901958879492125  0.5092859859511868  0.0682531695561643
  0.5771758387872965  0.1464871795302380  0.6474787933669109
  0.9332818832793370  0.9082725144041602  0.6718102769517673
  0.3006097906523517  0.6189829485908697  0.0890031667965899
  0.2425461498876718  0.5354394738033418  0.0441152726988039
  0.2114071294879820  0.8190123177698871  0.1624459503825717
  0.4505206505320822  0.1135510175507425  0.8921708670669634
  0.1466614279133609  0.1111229283861689  0.6774766564911204
  0.5745059794559276  0.7587613781501934  0.4195982271639187
  0.5840505347521748  0.7233781003669374  0.6937044896020640
  0.6529301686896557  0.7022021549591729  0.7770822150832079
  0.4657496594611558  0.4194669685763753  0.6502992855465161
  0.1890766981234147  0.0332856440866131  0.8239288286502462
  0.3662169200638257  0.2127510162778576  0.9573121702117600
  0.2677403396368367  0.1677341084522263  0.9353894219338615
  0.3400595931821363  0.1162338084805876  0.9122021050554937
  0.2178165943209287  0.1292538380359007  0.8684409268758884
  0.9052900878633955  0.3093433402194164  0.3929910410250658
  0.1591282758017606  0.1014026417144226  0.7403134103604919
  0.2573396209315127  0.1459849650242347  0.7657507297613269
  0.1780632860110311  0.0449525732492529  0.7598504101737477
  1.0063825544281768  0.2004754184356352  0.3983683759396158
  0.2080968129521585  0.0696689248646079  0.5951561749351896
  0.5280871195141901  0.1015289798500296  0.5798097009165954
  0.7017182400060250  0.2016220419941299  0.9039698873429804
  0.6813033086123799  0.2439033043722869  0.9440496786409892
  0.4862080510209004  0.2209261439670189  0.5497503659293461
  0.6148535972158264  0.2326739778931000  0.7594205443423999
  0.5811995277835998  0.0524457608781558  0.8973973489369530
  0.5549488299781552  0.2039728989928511  0.6332050833270695
  0.5030536225348382 -0.0088500326592194  0.9957505414588866
  1.0207290313354296  1.0019244318659351  0.5016784645761743
  0.9129690411720709  0.9383392927047670  0.4811423630335893
  0.9657002849567017  0.9566542724724079  0.5550037824122818
  1.0189608574154305  0.9858749757588010  0.5676028041420412
  0.9148505959196881  0.9744293671223010  0.5887060871396190
  0.9695077197813857  0.9540562190807101  0.6113122355172934
  0.8512648479219865  0.7843347911868205  0.5114935107601543
  0.9587148297274051  0.8452897650276573  0.5291829930552934
  0.8737091106768520  0.8352331949470065  0.6136111933842868
  0.4848512590960488 -0.0100184773416467  0.6669519998977550
  0.9165771601320843  0.9159625517968599  0.6092984557423070
  0.7850941287982652  0.2930966109147889  0.9624785721855902
  0.5175203277895066  0.2413411076031318  0.0003473304001193
  0.4630631790063456  0.2554998093588404 -0.0189668531713585
  0.5047091608193061  0.0670625505733860  0.5237222602321597
  0.5053225759799344  0.1253329615170735  0.5109333110850142
  0.2653186900244827  0.8360748909961335  0.2334150516598472
  0.2538478738097600  0.6942270030396153  0.0996568733188949
  0.4438849003345469  0.5120500761208707  0.7344216188352688
  0.3516264636490317  0.3190292097671769  0.6504492984030096
  0.7775045323228548  0.0824057404720258  0.1297088037510071
  0.6079167980666433  0.4802176914351492  0.5781677884477768
  0.6761582636033312  0.4586564355805197  0.6530799572870916
  0.7530523658937405  0.5627875349922219  0.6643526228932692
  0.6815922744982535  0.1888441180001294  0.1235470864847298
  0.7500418084992797  0.5928535073567190  0.7729584297686424
  0.8181366383114665  0.5741511912613759  0.8586214317371299
  0.6853439236634659  0.2339958728555618  0.1678917970344913
  0.9942697751348590  0.6599331239414056  0.0110377545573734
  0.4867626908796466  0.3715872619795714  0.2327638359215869
  0.5925156563514203  0.3879464116124686  0.2067792288771822
  0.5427080732040445  0.3863547705708571  0.5316707703984503
  0.5469646016339401  0.4654995037218130  0.2246969377444964
  0.4537358761909286  0.6019639766862049  0.3187128356253323
  0.6413486681471946  0.3974019591522430  0.7206065171625045
  0.6872216075820017  0.4499334436092798  0.7196486510197740
  0.4506910966493108  0.5720653589282145  0.2128548455574564
  0.6373598312438319  0.4422772674762381  0.7598057427435697
  0.4543673063525057  0.6178679459945098  0.2560916929142719
  0.6854174177604210  0.4812414415750734  0.8216262252794002
  0.6119903523146150  0.6362646135774206  0.3633707867293116
  0.5682407173424668  0.7129684646855723  0.3773339106353768
  0.8990512654947643  0.7996358413062161  0.7938223579715423
  0.7655626821017668  0.5670461476686632  0.9027541273767921
  0.8285386090945939  0.5623165225586709  0.9917977346754207
  0.8121328221471215  0.6068644023701494  0.9680106085340054
  0.8774171139602097  0.7201284414317368  0.9092785342948566
  0.1560177042402149  0.7894521558973464  0.1522598868626416
  0.2102156312213962  0.8044325623979669  0.2238166177467705
  0.8841576443230342  0.6895561018048881  0.8062379084700261
  0.1611882451645279  0.8486225190330534  0.1354633127694462
  0.8535534744868584  0.7433359100953753  0.5607294860892437
  0.8014408410001648  0.7475110104910944  0.5417035743655647
  0.1656737821355899  0.8990208211647158  0.1786311820110708
  0.1186681171212135  0.9206510548378150  0.1416677634056402
  0.1326296534380368  0.9621790442350920  0.1789954396923004
  0.8887066518067408  0.8259017366600107  0.6726344158960026
  0.8911577084490567  0.8118972892168655  0.7325374129484290
  0.7163034750265348  0.0045353464851097  0.0782278308497986
  0.6710739492280039  0.0953925706804482  0.0301656828496588
  0.9699545423805251  0.9263761034977884  0.8958623684056253
  0.7684861792521374  0.6413443063301241  0.5444713930782372
  0.7082112604439720  0.6688522181308550  0.5135200811734537
  0.5786347839151567  0.2541820898566721  0.0680129312294429
  0.4881912513521554  0.3862191981703255  0.1716576166147143
  0.3539493102088613  0.6660396397596470  0.2636469152639940
  0.3912239928792138  0.4937216805416592  0.1637450808858035
  0.3829143078368509  0.3989183985786722  0.0726967882811371
  0.5137842078671808  0.4905397091945329  0.8175950487775852
  0.4661753188591387  0.3086566506607956  0.0221184896521856
  0.9896718847314739  0.8655719448022281  0.9127667978343861
  0.6078303162754457  0.5449076305059143  0.5061155458974678
  0.4457210257435831  0.5249608889146284  0.1720338186022346
  0.6826482146647157  0.5844563232741232  0.5817998805886851
  0.3443880833195865  0.5733777499185521  0.1813733505708224
  0.3497444153338178  0.6198688675215601  0.2227527406163881
  0.8381199032356070  0.6500403945042428  0.7386693902411097
  0.3559555787113046  0.6815099586217528  0.2014394863666975
  0.2558239587118863  0.7255427208751688  0.2099342937301057
  0.5595487538627241  0.0750401962922189  0.7702282032228854
  0.4398858523517242  0.4308207527234595  0.0835336130794534
  0.3977471444412854  0.4405800399440318  0.5664140063601780
  0.5745552632371534  0.4329031055621961  0.5689964539577240
  0.8945508918148158  0.1876821428151144  0.1940304246481267
  0.2591285801747639  0.3946670815165395  0.5443832505426883
  0.3417350447387371  0.3325320442782470  0.5892508595382211
  0.3308730727389878  0.3775570355362296  0.6293353349579471
  0.4176539990460033  0.4147014591828831  0.6887662000824870
  0.7532635124995566  0.4047289898951849  0.3132451081203024
  0.4154070967037061  0.4475659590856734  0.7922480753355281
  0.5208273601985045  0.0267744682360943  0.7666422038225398
  0.4834272343181982  0.3549166069486345  0.0635993283578214
  0.9753425134557951  0.7599069324193110  0.9156520121281123
  0.5590437663172074  0.6198068389166763  0.2907790459981988
  0.5099030889138411  0.3055968853366403 -0.0150709501560128
  0.3889611864652345  0.0535077839317611  0.6592476051458217
  0.4388560824662165  0.0598927902520878  0.6167170193117656
  0.3958923560844881  0.2421753340631697  0.5147415610225363
  0.5492873192778820  0.2233970725452391  0.5226635633194429
  0.7804491351197910  0.7093160787791833  0.9886727762202595
  0.5148447013509884  0.5398332484160580  0.5310554232514889
  0.7526242255414645  0.3892612276353735  0.3725524149854655
  0.8339591625997474  0.8362714436283024  0.8762224680587449
  0.7578403856573528  0.7138733732634088  0.6971895384276351
  0.7789145159377306  0.8071266793846851  0.7461574619943246
  0.4091415697659834  0.6966316992458694  0.2711633803465264
  0.4383185557906043  0.4163660576287846  0.1458290337530186
  0.5887710943821174  0.5931899369296710  0.8297016671163741
  0.7535291399595949  0.4201566596345230  0.2521643350117335
  0.8397346649528319  0.3938438944301491  0.9470356313406519
  0.8620371111768941  0.7466698649005394  0.7874686297800652
  0.9539673356892476  0.8135168703618708  0.9479804846782920
  0.6582682879900745  0.5596293662502642  0.3470228417449886
  0.6024882586982356  0.5697241460174889  0.9633556690324673
  0.5495510453806890  0.5720372857137842  0.9409389720657955
  0.5614472516804420  0.6211187956208234  0.9905639908890543
  0.6623304326837540  0.1507072956497453  0.9012352533640695
  0.1719670565601706  0.9447398430837266  0.2234886071752905
  0.5600273852371297  0.7995811779162963  0.0042631638107328
  0.4072778509276434  0.7511559174971973  0.0193733193128164
  0.3627848518445360  0.7763541517702984  0.0564691895382581
  0.5430926268315804  0.8563434959469490  0.6071715048905834
  0.7616709342221091  0.5491551786991020  0.4430503750789028
  0.2249361096390334  0.2131497567595687  0.6839684344927390
  0.2375373806267981  0.0731156408407390  0.8895829557911660
  0.9169029385324196  0.4837174337617570  0.4035457105258254
  0.8588656275344698  0.3916876994041349  0.4111404419232199
  0.8029850840241739  0.3755139885645007  0.3386252118977124
  0.7557610512929512  0.4519850452477504  0.3554716758524687
  0.8116388420861673  0.4845130484063001  0.3655731778997606
  0.3988014869245086  0.3762136425745463  0.9158024311849431
  0.7627952894780411  0.5623277212927256  0.3844571162846681
  0.4411424139919466  0.4164013731748276  0.9713096995487138
  0.1830536803945060  0.0189018335880733  0.5562404936710944
  0.7958326086400165  0.2965075588011756  0.1887817578102604
  0.7958330269459807  0.3118550522253412  0.1308943315376935
  0.4747386246239948  0.8350908121739351  0.3049676788506920
  0.6993341262181308  0.4044039025603279  0.1820098932682632
  0.7626617402535868  0.8774724669935563  0.9653204412621413
  0.4565527686410730  0.5064683262620381  0.5193534298540056
  0.5505655330627791  0.8053629412543536  0.6233812847749284
  0.6472563481406437  0.4042521457945292  0.2778024805258248
  0.4836178073581366  0.5301884379519349  0.6335941583695981
  0.9027642427132626  0.2821755001726406  0.2848174054315866
  0.4510145219192615  0.5630343546116986  0.5040511738968134
  0.7029320984637758  0.4504211607906818  0.2259419289565206
  0.6014894663699527  0.4963652036311536  0.2331087513275746
  0.6048622073901202  0.5434947257615919  0.2750109798225054
  0.6564402037633755  0.5285454116098028  0.2418430831446185
  0.5767920839136426  0.6044262762656999  0.7680152066820237
  0.6152255515754451  0.6523231444367544  0.7746421338700091
  0.6273733962900757  0.6410080317819203  0.8383132472764542
  0.6640733660795120  0.6908619597861539  0.8376154580236174
  0.6029595554408350  0.6976544280226220  0.8185729072917782
  0.6119194855852786  0.6861295250277210  0.8800844820770547
  0.6710799509239521  0.6788249971690306  0.8988222790118676
  0.5654731046330559  0.6794458141321312  0.2716452094841487
  0.7181372313628728  0.7184681938758309  0.9630411979413976
  0.5221013292399600  0.7580119112742173  0.2872513535976248
  0.4203385012322771  0.8051197062367550  0.2951638372181822
  0.8248092193156510  0.3068853979323030  0.8641058926423035
  0.7886927080624661  0.5879400159706659  0.5559094212764863
  1.0348582634992787  0.0071141751915805  0.1880894200642759
  0.5368763807328479  0.5867293194450368  0.8705101805714895
  0.6902049804037594  0.7537569484488452  0.7782737421982447
  0.8511040113847043  0.2972696551436603  0.3200821004542566
  0.5177333826425232  0.7539803159380931  0.5966056146101995
  0.2313027333336067  0.1179027650830761  0.9308282706465381
  0.3174653770059251  0.4047828061905475  0.7683176467009385
  0.4372489415941104  0.9564385731270515  0.3685093640991819
  0.4131938907465147  0.4846364778340955  0.8944360050095529
  0.4356852032427407  0.4268898083991131  0.9151472254554434
  0.9934408992046710  0.1078389312034145  0.3088647236462188
  0.4855914467982932  0.4805331710839751  0.9732401315382766
  0.9485050010520579  0.1858671800353646  0.3268893911450310
  0.1534438142770336  0.2303678717706997  0.6005738041008353
  0.1750433265142657  0.1727318699680646  0.6176602976070902
  0.5836498691540917  0.6245327023954328  0.9382270412637098
  0.9545025042444908  0.2486514009356929  0.3118827523410815
  0.9391637203303808  0.1087042456271285  0.1760714489445668
  0.6545680551963429  0.5136338190171592  0.3018833874560193
  0.7029024390295812  0.4364066380123072  0.2860958470858538
  0.7453464540437214  0.4725259479072907  0.8411139106670056
  0.9676821935681816  0.7727432312584808  0.8493087674949344
  0.0905376736888476  0.0201389610384173  0.2581940946034987
  0.2073535903505175  0.1063169925413531  0.7010075629626988
  0.1280575266211589  0.0247691282893062  0.5349484779955260
  0.7327732358191559  0.9548106131652594  0.8145265661993837
  0.5495969312552542  0.5072524199722919  0.0413077685644681
  0.4189460496520662  0.7559367888946252  0.4790124779671546
  0.4805520019908171  0.8642460144430661  0.4116591864479262
  0.2462866013269000  0.0608167722975979  0.9534671805439341
  0.8121316652819029  0.5773164190221558  0.4659998641496613
  0.5359333682851033  0.8807882511400857  0.4822909714950707
  0.7109589105346448  0.6255398651038716  0.4658427919289502
  0.5927849135751441  0.9118496548413154  0.4912767260256186
  0.6506362317845605  0.9290416413576895  0.5640979072245889
  0.6532418026498238  0.9884317808077627  0.5434811606453294
  0.6745584044923696  0.6965519430243591  0.4764759715329741
  0.7368768513317860  0.7268209887221470  0.4813962872808444
  0.4829627933539850  0.8355618065396365  0.5364897153087705
  0.5937158615994392  0.8982913116011227  0.5556183952931474
  0.5434120407046131  0.9403059709847388  0.4639518602848021
  0.9632178621171867  0.3289090978982643  0.4628613231849787
  0.9650798357966081  0.3891481997927456  0.4489560905262654
  0.8614228257832703  0.4281455918000591  0.5192152642160085
  0.6057487431762403  0.9319283669932097  0.6657807199877691
  0.4805069125884280  0.5612309279039581  0.7400765387962949
  0.3957065129428986  0.4737748313372765  0.6697634489697805
  0.7046027297633648  0.8602403491751313  0.7686438241974957
  0.6780826631131456  0.7989081320017988  0.8236911499701861
  0.6738631562521286  0.9632415962748230  0.7938746569296647
  0.5806687129585818  0.8200075327171494  0.4006339187341625
  0.2475958781945696  0.1917707827223306  0.8087006368088928
  0.3062959715533089  0.1845887101940085  0.8305410302918603
  0.5865185537657391  0.8670860405785241  0.4472900755093174
  0.7946555056938513  0.7658435617522743  0.7039759610552966
  0.0762082796537567  0.4674828843085389  0.3996699628401906
  0.9147520844615721  0.4069611572077491  0.4834897717016631
  0.2740519164027724  0.8701603172723987  0.0392536807438492
  0.6213084677095363  0.4034414024485715  0.9835564519310268
  0.5467980915330360  0.4211737931833253  0.8979539595705915
  0.1822209544869695  0.9485478834051668  0.1458311454945369
  0.2324729552317891  0.9335205310129887  0.1130353395433711
  0.2384831434460739  0.1316855234997062  0.5351562022724577
  0.7263934207260475  0.1265728601209535  0.0409718551245920
  0.3059313046215049  0.1162501765199307  0.6201215760429611
  0.3347206662873654  0.2110493794879884  0.6657493652818353
  0.4057670140686053  0.1936792776918421  0.7493312362628158
  0.3357413530431591  0.2469834155818544  0.7704707026950284
  0.6778436285260653  0.2868885490401097 -0.0145037996364195
  0.5041913055215470  0.2710841008245132  0.8788033484670897
  0.5466073475659441  0.4468330549647053  0.0598780496927044
  0.5208906407941188  0.3642689337051875  0.9587029146275857
  0.4953989780141915  0.4613567170887006  0.0949645961531364
  0.1810790396236021  0.0433313809792416  0.4876957271512096
  0.5819066302249307  0.3146101697800114  0.0555256374546160
  0.2530067018325912  0.0101895597810768  0.6424764821361486
  0.2598862826974502  0.8162785078990977  0.0650854784277827
  0.4874169628405435  0.3946547030720701  0.7732541897411715
  0.4224584826862204  0.3346303552473661  0.8376407237773859
  0.2079772966372141  0.8339673804605894  0.1005428789509955
  0.5498426897870945  0.4929357793422365  0.1007735993375640
  0.3919731919489791  0.3393214489885765  0.5492223257306902
  0.4495846718853985  0.5390829593511514  0.1127902706460378
  0.3615058233570997  0.2748173050627719  0.6086135212184046
  0.4562361943436328  0.6025563477448846  0.0888578195588181
  0.3099232684803724  0.7400204622864075  0.0445408742146755
  0.6709347354457743  0.5708716156105161  0.9864698113150969
  0.5659240086267299  0.4637979280702406  0.6750593855389927
  0.4746141732151671  0.1688918987010348  0.3375247756407758
  0.6150733964170545  0.5005141143345949  0.7387609477178290
  0.5534505711849905  0.5091349463245123  0.7172001662992157
  0.6250213849584756  0.4883690893224046  0.7997530511513944
  0.3068377658584767  0.6270248153920738  0.0218419732826738
  0.2898050233222720  0.7403159893370562  0.9826795690499294
  0.6331380260306895  0.4746630129658276  0.8598927150391412
  0.7088138034540941  0.5745455846490223  0.8787239094255110
  0.6110725028737028  0.5353532592863284  0.8434245036322494
  0.2047504017043160  0.8007578698027230  0.9917624957302259
  0.7146924714232303  0.5638226011198876  0.9432796623055226
  0.6948271293961180  0.6193293745623494  0.9239030367565233
  0.7339152664118324  0.6693187002370609  0.9822723882235752
  0.1572588846488755  0.8678903894631933  0.0596222911039620
  0.0912822000764781  0.9036311603618103  0.0219800117990658
  0.4519121099486161  0.5881527908275721  0.1509785173497974
  0.4282379180052998  0.1696382893512820  0.8756903259832302
  0.3446472737946816  0.5741752600156157  0.4073293393656555
  0.3673162018111132  0.1772994086074150  0.8526220312357286
  0.8027049926952671  0.9030450580444032  0.7940523591053813
  0.5262798675223431  0.4457276490728742  0.7757057395965578
  0.5739445933061369  0.4838534594841499  0.8405042800636586
  0.4201925237108782  0.5904434355250562  0.9649193278854766
  0.6940542347974489  0.4672338523334573  0.8799962973349656
  0.6235963913800008  0.5222889607449747  0.8986193764201350
  0.3531681314782572  0.6010716717698779  0.0597830773085106
  0.6548246056277226  0.4606107105598773  0.0366691257357761
  0.3540584419189451  0.6491276194660821  0.0974465859502401
  0.3704611837664713  0.2268548368861542  0.5625003626862741
  0.5933015569873533  0.7099326513613067  0.7551125255002613
  0.4100567268115807  0.6797590544821794  0.1038187057675923
  0.3781338948388653  0.1318963723050794  0.8097170731826731
  0.6385644818903234  0.8226581958751165  0.5334624663454827
  0.6946845446645659  0.3579927077622967  0.1360404820298828
  0.6963805526878026  0.8386432644754427  0.6082936578683964
  0.6474300175370277  0.8437378823003452  0.6391357893822129
  0.7119889955143203  0.8294368925865322  0.6661319878037545
  0.5981014517718276  0.4501296698410180  0.1893780002754021
  0.6902941071917649  0.8704008690009889  0.7064990961719064
  0.7908840850843342  0.9144444560095896  0.7253116396506921
  0.5868223800442253  0.4388877725532050  0.7994788767889934
  0.4437349885391630  0.5043405482393591  1.0099551328051706
  0.7910805598460411  0.9502538979976813  0.8353355187306962
  0.3734172219544662  0.7150105240114876  0.7911005801110654
  0.6161831548931439  0.0510591812855412  0.0834301982988639
  0.5571902592000648  0.5881643543730980  0.1850632653968233
  0.4114142789193005  0.7122542538226675  0.2097113256688415
  0.4159952454219764  0.7582826596076344  0.2522716534558899
  0.3749105130859738  0.8820881026072767  0.3148964215244650
  0.7171229447193568  0.8136791668483639  0.7241304219844775
  0.6683275320824158  0.8122836404893687  0.7612770384251993
  0.3264862359333960  0.9306706183648152  0.2264692854081365
  0.7535685233898759  0.8988410730914131  0.8349466848975039
  0.7619165168044585  0.8868343974925076  0.8968469170525668
  0.3328649715983041  0.9758703744840973  0.2729688046585916
  0.7979936593974841  0.9408854171583640  0.9008596336059791