Cr H  Ni
 1.0000000000000000
    38.7169076500286806    0.0000000000000000    0.0000000000000000
     0.0000000000000000   38.7169076500286806    0.0000000000000000
     0.0000000000000000    0.0000000000000000   38.7169076500286806
 Cr  H   Ni 
 1596 106 3725
Direct
  0.9331918661971849  0.8534139039471804  0.0096766000824794
  0.1191929041725336  0.3718552570902207  0.2209600393618783
  0.4555299542548479  0.2689011674811772  0.9193405189859405
  0.0551785161538804  0.8189695277037639  0.2246460703031056
  0.5405829761435819  0.9585132024349186  0.1702926965396559
  0.1980626400811752  0.0494877065917510  0.1680571736006684
  0.4231674199001776  0.2173267377554482  0.2515590082511179
  0.0634177412180915  0.3426640354495603  0.2114112544265507
  0.4787761041963565  0.2646124740499806  0.2028395931392112
  0.0545677922334655  0.2484260701184934  0.1220247671199900
  0.1913415087480120  0.6252342671385116  0.5169779227018401
  0.0512568141649350  0.1881588164238421  0.1351786013553135
  0.2160336553180359  0.2800049360650323  0.1668750266949588
  0.1992778519896506  0.0381477739825240 -0.0006571073070090
  0.0093521639711066  0.3285133638504537  0.1402777849922041
 -0.0015701272129275  0.2380557699917216  0.0468674995915317
  0.2845328802107694  0.4654601197037535  0.2511203459571909
  0.0990975217427994  0.1270380501447107  0.0506617227477262
  0.2404112403770230  0.5905250303407873  0.3129262251850563
  0.0451124541228016  0.0456697885861329 -0.0023083933965499
  0.1824173810983029  0.5115331549927987  0.2601562382942088
  0.3619299711582448  0.7287807072148822  0.7287033600516929
  0.0342279763612353  0.9903273379490470  0.2454644973289882
  0.0932134530863448  0.2411731296307947  0.5758173936070851
  0.4713376356754362  0.7593168403663730  0.8200437990969609
  0.5595337247841980  0.8140679635637449  0.7831339925595805
  0.2599428790313832  0.7537026167748963  0.9154764149900241
  0.4838597732427785  0.7478182392089755  0.8793568092961356
  0.3606385530607775  0.7995104145759208  0.9465150778211326
  0.4369501846937888  0.8292473327377269  0.7413113367311435
  0.6160390845243926  0.8176880038235620  0.6451597030674157
  0.7912943875500810  0.8194196719506618  0.2440569815038014
  0.3212034058895943  0.7513821056689697  0.9370786909002566
  0.3831890352999732  0.8233158860394576  0.5564355647886982
  0.2819386022597863  0.8558024280800514  0.9662008715097082
  0.0302394437282053  0.5488237477327742  0.6482570535745993
  0.4028070741812955  0.7466152703432800  0.6301279941275174
  0.2671350644857624  0.6526014381641799  0.5909187567418969
  0.0777258569579778  0.5870685371589106  0.7099153244203209
  0.9905450097419245  0.5321730173226327  0.7480651739159830
  0.0883798432691135  0.5756877446810459  0.7711600593564042
  0.2496827789226884  0.7657255322599086  0.8525636746438612
  0.2290290558723513  0.7864064975766227  0.7292933503800695
  0.8296185409625243  0.7019340715415949  0.4171833770645361
  0.5484794400630023  0.8921740758336250  0.9315945030726372
  0.3816895591778957  0.8508178809506648  0.0500442770169842
  0.1581852188120778  0.1378454384971462  0.3553679499307206
  0.1476473878539956  0.0479238861290510  0.2647661822755247
  0.0111504743580460  0.9452782083919565  0.2833432362004134
  0.5188944641424746  0.5808937299987113  0.6378311618431038
  0.7589004171090058  0.0161261694355784  0.7486631424662645
  0.9362150633819859  0.2239037951573346  0.9727284239138880
  0.8871280115345049  0.1359338071650443  0.9217804352534320
  0.6170565095432530  0.0341489500527486  0.1449494262250216
  0.8318224768738415  0.1393498583784278  0.9036361545770483
  0.3733973612750971  0.7162194395310794  0.7900221671323545
  0.4097454616769035  0.7654571074309000  0.7984298088502021
  0.8460378122466345  0.8197130484175353  0.1495505861176279
  0.7627398685237510  0.0073050266921326  0.8049800746609042
  0.0583592441605942  0.8668430139646702  0.2679684945545494
  0.6223295982558543  0.0368612397807241  0.6821004437523631
  0.7117082464157239  0.0767278893493693  0.6599161605670403
  0.7135101769743560  0.8935257809240436  0.6494390854625458
  0.0930078900873610  0.6838429716385677  0.2303120928528523
  0.1932497127870876  0.6368068345976023  0.2230462691729753
  0.9676728747346066  0.2375157834316700  0.9268182064407905
  0.8963126848668412  0.2551012764609347  0.8416141046178053
  0.7743034197220663  0.2694784790551547  0.8015105416678343
  0.8074398078873065  0.1669649209965922  0.7776236911004032
  0.2950783733152930  0.5783363209291471  0.0551789206436680
  0.8340614978848746  0.2281701804732326  0.7178750690796921
  0.6080719778162033  0.8512065439885199  0.8468512582688098
  0.3413246487409074  0.6086022846335125  0.5110545763275599
  0.3298449268101011  0.3382525183448138  0.4134713729663404
  0.9132512245693772  0.4375133231093020  0.3589944254369365
  0.0742393449046440  1.0033002271741776  0.4029316932089367
  0.2515731569935263  0.0516727650928295  0.3141887549055535
  0.0322583696221602  0.5798921261278054  0.0740863975099119
  0.3295554414154641  0.3709376931667068  0.2919396572816802
  0.3441729389137280  0.0497591929536898  0.4218130386283295
  0.3872991635234446  0.0058430917139648  0.2821298971554354
  0.2764136246148513  0.3731733465703585  0.1614032809149455
  0.0236200267919430  0.5146315151765076  0.3182827345543244
  0.8961352282813337  0.3847536180922486  0.9699017805417314
  0.6534013738615791  0.9980591407759817  0.2438931334669324
  0.7822530970831775  0.7204340207476105  0.4437245856241829
  0.7199077554784746  0.6901730692467856  0.4389272730760108
  0.3757063431514030  0.6839270898204228  0.6811009197830598
  0.1060369972111562  0.6515803056981033  0.6508505238447230
  0.8151229877191417  0.5932878631371508  0.3997441754464819
  0.9257991305180232  0.5910974821133178  0.2025859833889863
  0.9792215770508738  0.6065738459149870  0.2740301369625294
  0.8667955824375643  0.5642335804480700  0.4220542784870899
  0.8632590485140873  0.4987094609561383  0.4368922062717798
  0.0201311439148545  0.4517766746860260  0.3344030297508535
  0.6508308836730043  0.9308423578864672  0.9604862672805038
  0.4257628147570255  0.1849624404569196  0.3731831922064602
  0.4523241421146296  0.6370013907708216  0.4270317965989672
  0.5123259913927577  0.6818653230333823  0.3692546050765996
  0.8888648126745886  0.7287212233415398  0.1964352166295499
  0.0294812690013831  0.0147733104734058  0.6766030963975121
  0.0195502043778202  0.5925269067362737  0.0159774543712131
  0.0750444320583179  0.9366474574172918  0.8184512831869782
  0.8516411660060995  0.9147005541935754  0.4683572588226429
  0.9109717026059178  0.9595064300848015  0.4187890317870400
  0.9854616410269812  0.6680111119179529  0.6086495959211486
  0.1779150409694758  0.9876523114549902  0.5063095182716800
  0.1865779776426268  0.2344876028305821  0.8895149306817806
  0.7502593070129833  0.3905120598960113  0.1482299522059732
  0.8090999661951872  0.4531371020237808  0.2617716188119305
  0.1726308338623849  0.9272824295630016  0.5206771673506185
  0.8566837548648185  0.3900550498780750  0.1837856128959814
  0.1363531658642616  0.1959015657667192  0.8230465621131380
  0.1548807876687733  0.9071145269999867  0.5772568487960292
  0.8561880363383462  0.3752194299732056  0.2429529977976369
  0.0217900489981635  0.3606644010214114  0.8077636498165977
  0.6554746706554271  0.0525699928421059  0.5265401922395510
  0.3763515289098573  0.3266989596748375  0.1515509469403262
  0.6674338548833253  0.1088152740988814  0.4993707096425632
  0.2815035143341328  0.4348428251870933  0.1450321169306261
  0.8087012582948739  0.0218350461154564  0.6555072076139314
  0.3368786252867145  0.4648440056284700  0.1550838727325018
  0.8071068561762980  0.1316525932432261  0.6706908376449671
  0.8704505144670426  0.0348835129165129  0.9376208564409111
  0.9210228770405072  0.2824512361910840  0.6802445179060520
  0.5119229575510199  0.0498403589832847  0.0405368494789013
  0.8650783036074712  0.4264874704311226  0.7803875783284022
  0.9713674344701253  0.3218194554392446  0.7437980106760302
  0.9985528679331033  0.3840194041903573  0.6847020156545296
  0.0976455114247091  0.4096923288912712  0.8037193407777872
  0.9978499612936284  0.3998774207778258  0.8852141407279487
  0.7355698028453935  0.1302818822769078  0.4986259116573376
  0.5168307019113657  0.0978496835864415  0.0887894929714583
  0.6264763628129038  0.1744827190035673  0.0519819436878734
  0.9754541959932567  0.4243627336302317  0.7613259226082327
  0.4690409488688581  0.1741627976389964  0.1096158751796546
  0.7839902571151547  0.1862304946563478  0.6554742800694555
  0.0020727729524989  0.8147344636648485  0.0916232063184076
  0.4585907968235950  0.0839239884411495  0.0172235091225650
  0.4096813886017244  0.1022236993319399 -0.0068795745025697
  0.4156916398183935  0.1611690192660544  0.0351096907987553
  0.9102953891689353  0.0470862689648701  0.8356702392669860
  0.8994602452261424  0.0920684111265569  0.8803243242728586
  0.4130059282214731  0.2398764654484285  0.0206594839377232
  0.9998533687446460  0.1357729380878792  0.9062343850898998
  0.9288531190484282  0.1528689643162847  0.8194427433120099
  0.9849487908218422  0.1816373045236696  0.9465281900016783
  0.2389467066099182  0.5579557714771249  0.2073193586180087
  0.9775304015281201  0.0736214858009650  0.9641783410154736
  0.2295072641214177  0.4204440814467866  0.0740500539902642
  0.2575133978788098  0.3567176914398447  0.0455095041452243
  0.1833709505967289  0.4477899562470097  0.0515914392155564
  0.7606389135852401  0.0578819744682299  0.5646917306535850
  0.2329360565662615  0.4852249659167722  0.0557113549626415
  0.8674092414154340  0.1244818597859547  0.6928684553285140
  0.8778868836851524  0.1140974243082153  0.7545194472102529
  0.9482003781588583  0.0959208237905032  0.8395861841438836
  0.9563817771907599  0.2147711004587230  0.7597211986531820
  0.9670066853182826  0.2035289037504723  0.8215602811960155
  0.1000360903149576  0.7131970729731386  0.1012465352337799
  0.7892406479354100  0.1453518749074644  0.3400014881405394
  0.8349146358966358  0.0814826787647302  0.2600947471544465
  0.8988223132636574  0.6100981830873181  0.6494263665072401
  0.8510630422068740  0.5715359764000963  0.5837953183697198
  0.6864361936703665  0.1910185681009848  0.3501473594379412
  0.9560404177561025  0.6352564437771748  0.7745535794519807
  0.6406972814391855  0.2678828833368440  0.3693863313900314
  0.5937983847309440  0.3300005793189406  0.4499002859578959
  0.5446789361201618  0.4209419247953426  0.4059690788012212
  0.8103553470646059  0.5535813425465761  0.6852247158400092
  0.8579768817082344  0.5916510848556382  0.7523874729526518
  0.5004105342225634  0.5420094897487721  0.4722259208733789
  0.5011921315035708  0.5602826741702194  0.4078988271573701
  0.8931973022639258  0.1835572393221883  0.6340355603344354
  0.9750149789333461  0.5279938845669133  0.5254434217030730
  0.8882499390045629  0.3867172047162409  0.7043070106804608
  0.4229087031873919  0.2522481995833583  0.1294177413524059
  0.9946147158546885  0.2984853119333490  0.8666182280497012
  0.8011286507439531  0.0477538602224009  0.8546806436724834
  0.7490911993050371  0.0455106026678498  0.8990054139701150
  0.8084866322530264  0.0314395425144427  0.9222521010215511
  0.5760022095360932  0.1580553730597539  0.2085574524385487
  0.9792147148910810  0.6843830963751365  0.5478934189502812
  0.4325744244793508  0.3576012303358491  0.1607447019334818
  0.8352437910545819  0.9624173928453742  0.7290383094363592
  0.5718042311988811  0.1474661046406353  0.0382041347738094
  0.8281939860334724  0.1497667461609438  0.5619563331690030
  0.4676602075362736  0.1900847042404326  0.0468285058260066
  0.9443963342122034  0.2257507228943366  0.6992218429425692
  0.9438067356542386  0.4606472018454312  0.5813588549064893
  0.5286784448734888  0.2665947554091453  0.1066443174125849
  0.1375879815804346  0.5746962751154880  0.1117687632927994
  0.1758848849889464  0.4352348785686513  0.1117549437118624
  0.7847983628943813  0.1140801658623764  0.4624003828461842
  0.7930471353445023  0.1369879286647614  0.6111724608012756
  0.7363797239535269  0.1446349182250069  0.4360264790050036
  0.6893973183441935  0.1603633514917671  0.4747824798944674
  0.0483768368620286  0.6286571633423397  0.5251842658668552
  0.3855557132945125  0.4186333331588278  0.2408927573798714
  0.9617622288478599  0.5715834308227422  0.5660691511751866
  0.2565109438285506  0.8829033243137376  0.7798097496238848
  0.8016424683176503  0.2832367398197392  0.4750530194063481
  0.7938510170252185  0.4442057304173896  0.6978227036642058
  0.7930057625463959  0.1898797166229747  0.3833306896870525
  0.7299593662816117  0.3488267095620508  0.6587141610889357
  0.6701955467364623  0.3576511118473744  0.6385185268219663
  0.7184820514750557  0.3611796566320519  0.5992551596456607
  0.7045879786836783  0.2621887354479030  0.5572108240747676
  0.9644656328959285  0.6540481513501568  0.9400103457897356
  0.9174317592467491  0.0203878593840210  0.4015098103892919
  0.9763694891857556  0.6098765062579751  0.8970230829312469
  0.3301592837858567  0.8918102406356030  0.5812152091364617
  0.8916248322314733  0.5232737484301320  0.8271761211584397
  0.2114355401660313  0.8038946419792554  0.4538872816399634
  0.4047396875061651  0.6654099492772562  0.3996427522568702
  0.9375017828657031  0.4079374266814816  0.8640999631461911
  0.6745171322642897  0.1899112764934059  0.6756130950585271
  0.3141282327671053  0.7896134533991381  0.3241565580177469
  0.6391160304557819  0.1409119574186471  0.6648110594492219
  0.6511360347704730  0.2210113521189422  0.5567139435394559
  0.2067048131353287  0.7732681849064251  0.3505452253688922
  0.4924921429475340  0.8880368735589835  0.9717457026961710
  0.1721069096645827  0.5113349623608402  0.8099093334073795
  0.6983366263629568  0.3451924859100680  0.4241336877692728
  0.8542171474458483  0.5054325112657819  0.9246901865531016
  0.9153963144897189  0.4968068855843832  0.9468812745540734
  0.9292453226427797  0.6762626032976748  0.5911162072689161
  0.2237213167998664  0.9149526297806650  0.4864868849007803
  0.2171415528467556  0.8662955465384236  0.4399801938703404
  0.8055148384301618  0.7023694319209111  0.4920172417268631
  0.8317218610709396  0.4967990342307024  0.7019789045321665
  0.8803353947342182  0.5343813394804952  0.7683405175850967
  0.9363325028454150  0.7981946971057433  0.5759958120478481
  0.7706884777331572  0.5378590715554927  0.7851465157427661
  0.8504453533306483  0.2039895422480454  0.4534173965608235
  0.7397803190931379  0.3379843277663866  0.7214743830345371
  0.7024503916277152  0.2878540907826341  0.7188848794114644
  0.6423738643136503  0.2950788455934747  0.6974246236271279
  0.8933186680474358  0.1254742538694226  0.4374257402670834
  0.5904862203830887  0.2572923727511520  0.6355934807078443
  0.8713488284335285  0.0858309215660259  0.4792760233928531
  0.6385972025130326  0.2611678802697626  0.5928878725357046
  0.5419882205485314  0.2057020905961724  0.5769202245332452
  0.5487199564204100  0.5113375729363702  0.4946461944840668
  0.8878579522616993  0.5517685407427321  0.9398949987157053
  0.6498739228375022  0.4682108336218362  0.4822439128963817
  0.2724098024854494  0.8963641285349523  0.4502131708000279
  0.8512242874029957  0.2992111280703907  0.5981901599444779
  0.0053601701463439  0.8487240402851025  0.1960750483705548
  0.9229421188246654  0.3516888601341888  0.8856785077870977
  0.9483132357490606  0.3444173636671004  0.6199568713192161
  0.7036927224013803 -0.0042512192418737  0.8932474973500152
  0.3987825111382913  0.6064852953869111  0.4178804249810247
  0.4472232881972620  0.5426340845636765  0.3368574620640746
  0.6892330255148355  0.0908354287276598  0.9263695702478946
  0.6809754395618481  0.0622230954782051  0.8133633415673220
  0.6101364547531878  0.1157246745502703  0.8363073609733246
  0.4432935594306527  0.4651902327566037  0.4136648383133702
  0.6336172719338229  0.0249729458128921  0.7447188960549249
  0.8012111285681738  0.2444666330261600  0.9241755343577677
  0.0411154884706294  0.6677148239496489  0.1590471937014051
  0.9149460116922088  0.4312726444125984  0.7398915537892561
  0.8093389091556092  0.1998631661812373  0.8815438212640442
  0.7088545896701482  0.1248269308570912  0.7556037039630273
  0.7195866603318821  0.1123878912568592  0.8174620274531216
  0.6475668003904423  0.1317474784437291  0.7332427295229125
  0.7207261366806712  0.0784075415896278  0.7162776624766721
  0.7325441039804004  0.1294226807064133  0.2705702032271737
  0.4991798422642761  0.0512962366175735  0.6393518311565364
  0.5394588458952893 -0.0380680911752674  0.6331943558624958
  0.4888391106478473  0.9374115150722562  0.5640029015858991
  0.7500114322543543  0.2536176851548368  0.4633434919757849
  0.8082005034384238  0.2055244552016635  0.5516810250163363
  0.1618752014017426  0.8520970420785273  0.3680130221649289
  0.4527874651892089  0.7352646477952721  0.9838687023185905
  0.1407712822344084  0.6209191416657437  0.1522473820312340
  0.9385797144861776  0.3583719230316709  0.5625555517003394
  0.8507464719145020  0.3061663544961515  0.5407137792225868
  0.8550087109658778  0.2522182377026786  0.4978907120611999
  0.5853015526207639  0.2815061455064741  0.1768643202963099
  0.4987993709846505  0.8542156966177847  0.8674964617577953
  0.6480036489819464  0.9704319669461512  0.3735428027443330
  0.4400711236233244  0.8931867040000694  0.9535178045536822
  0.5496805788035546  0.9117857406685405  0.0384693532186828
  0.7801879498227642  0.7324200572819138  0.3843089363556345
  0.7384479870599682  0.7934989143925498  0.4625472923167023
  0.8511241876490725  0.8841442283336060  0.1342876578575642
  0.3997203485516450  0.0431786860227886  0.0061155004495222
  0.8025102811162982  0.9459578715840719  0.4423200111779907
  0.3892612200874741  0.9326879127009385  0.0434123685232843
  0.3856338154255963  1.0050350648538289  0.9481062431467560
  0.2962847210258490  0.9671325240926449  0.8933991630614760
  0.9702570784263046  0.4835253135644965  0.0814127808173280
  0.3061277730038663  0.9221837022994979  0.8472434476043273
  0.1084411181391709  0.3810312696549554  0.6690400990904083
  0.6248646445464904  0.7112330032014512  0.0464001896507896
  0.5757145544722228  0.7900193755320347  0.0638640341873164
  0.8607719593980332  0.2887609181430887  0.6584882363009341
  0.8310328685655609  0.0506070219137120  0.3846940083768177
  0.4548316080141504  0.6862657086704463  0.9397923781702896
  0.0200592296026839  0.7369171285476748  0.5490618137590432
  0.7413504584591407  0.8548196166059541  0.4466576043391249
  0.3837908088694956  0.7062065074636968  0.8534939296812282
  0.7761044154113376  0.6853850024014583  0.3446727105732066
  0.9455095674807018  0.1732022446551638  0.1575061563569408
  0.1673398090317402  0.8298324529155765  0.8131529553909453
  0.8884718106217763  0.6947246937947276  0.0880085100471934
  0.1756739370036237  0.2104381019600637  0.7227004158531598
  0.4774483745188677  0.8506149873435664  0.2439454137052281
  0.1260908708062833  0.2051414852851579  0.7621418774985356
  0.4340330314726303  0.9445167510914584  0.2003527800905597
  0.2247598775430255  0.2500019838446178  0.7875981272519255
  0.2028290555689798  0.3063846624221803  0.7703454104350672
  0.4803910136314551  0.8967878869209188  0.2876068589256890
  0.8237734450474130  0.7962591726193319 -0.0169790093403187
  0.2962929560507166  0.2318022854418202  0.8716110966585451
  0.2751012616138664  0.2891091856304523  0.8535883953206139
  0.0495279648254545  0.8093797460145318  0.6563183772021299
  0.2797418351540852  0.3265494658732675  0.9584936164871901
  0.3458765597252868  0.2721180315497709  0.9373049696490944
  0.9953724381587215  0.8270607554633641  0.6466970147806367
  0.0344039165170489  0.7029555350140818  0.6742870874079663
  0.0428976638934030  0.8595636041757452  0.6124486052340520
  0.1516915261074283  0.8194096305798320  0.5817742637914634
  0.3385672581301534  0.4954993640012142  0.2600200678930190
  0.0227066267290424  0.0428289376933431  0.5434490816659652
  0.0473812583189635  0.1052517980127234  0.7576993146092003
  0.1803309779128764  0.0801899279773163  0.8646668549687210
  0.7160410813445999  0.6078612510769312  0.2922404460800140
  0.0868752956871055  0.1533272859846172  0.7606197303116765
  0.5050851928187107  0.9392910068215604  0.6845913099925851
  0.8774929226955557  0.6685455157118639  0.6317689852612137
  0.9335567257226013  0.4377223207875223  0.9701867959640411
  0.2994484556352172  0.6676832500537124  0.3650734035600146
  0.7151712886332636 -0.0288233546678455  0.9688617319353907
  0.5889823892308866  0.3125704213564711  0.2830878768095825
  0.7498036993055646  0.2073240136087109  0.8622529290624535
  0.6274736808717536  0.0872302597061613  0.9600370004762290
  0.8628052703809795  0.3579074543533380  0.8656107911285621
  0.2921207763630160  0.5738472004120532  0.2790051519790657
  0.9109319320184209  0.3626833307282245  0.8272873509251790
  0.3988949917203808  0.5890748645631757  0.2503452158333501
  0.7624000072102193  0.3146746979747502  0.8435591560680025
  0.3459758996915173  0.5898084238579693  0.3487265335084864
  0.8609188825576484  0.3247279249163493  0.7621973720208467
  0.8002996318817363  0.3318754258009760  0.7403288529899799
  0.6916736368605245  0.2992075973711714  0.6560170725401441
  0.9280122842824963  0.6051684728154354  0.1439519537663438
  0.7212410960104402  0.1909736380741841  0.6362883587153053
  0.3187022819123126  0.5615222059307666  0.7961592613023462
  0.2695199897810664  0.5565775254606120  0.8359544807291314
  0.4218161495391883  0.8531283079193660  0.1118907676089170
  0.0902325468055000  0.6765396231829477  0.5229649920697674
  0.0974843151169953  0.6637314345775920  0.5893387764903175
  0.8488832907094703  0.7382057618317469  0.4667994732528037
  0.6568787037046838  0.9280022913872675  0.0200905239715925
  0.3384475666622312  0.8544648525176242  0.9290901275394173
  0.1403951755230857  0.5177402202322469  0.5244309841023815
  0.6516105499472206  1.0060071064379237  0.4819254962771467
  0.1792564107229535  0.5982202111892839  0.6296857551670687
  0.2381265631236173  0.5914396231078404  0.6502830184481075
  0.9203574505377071  0.5286313860083043  0.5055987348009745
  0.2481138840244281  0.5797206418549400  0.7119482235347093
  0.7863393237496026  0.7416498216939859  0.0918247104483159
  0.1045037801710340  0.6829755089606768  0.7574207885377533
  0.9727145614319984  0.5603645906637829  0.4574096120828551
  0.2959441181278006  0.6175592362056678  0.7793850607595253
  0.3558838389720719  0.6106175565942572  0.8004406652352638
  0.8592641012786226  0.6117470026913061  0.4628529067380121
  0.1919136272943568  0.7387565687410931  0.7212781848118885
  0.8321516566421684  0.6644940560956734  0.0771863859000546
  0.4404870888563477  0.8968712312959511  0.0579516171259710
  0.6619142321665207  0.1992570653485621  0.6187126786552820
  0.6459995781373707  0.2379078852718445  0.4933098408889684
  0.9926603439638346  0.7176770206791648  0.8834890938460669
  0.6910606031229335  0.1485888020903728  0.5432483418734388
  0.4405035635035455  0.4341452990663016  0.3107443234475116
  0.5425392894502907  0.3899894685412890  0.3022446365317594
  0.9861427292400013  0.4441181471324638  0.9247706366363534
  0.9252119254946333  0.4516703188442389  0.9062782451332596
  0.9756895520686767  0.4573427150906299  0.8656448587528301
  0.4823197803174153  0.3105225257312054  0.2485380178626433
  0.7514214441945014  0.2919389888560958  0.6772656928309948
  0.2136760479294397  0.8362303184483668  0.3328778020251144
  0.3949096595254499  0.6138577605125561  0.5325658073654416
  0.7499690207958796  0.3141635662305108  0.4512546285630207
  0.5555977706276866  0.0981153036167010  0.5286325586588539
  0.7999900547676447  0.2983043008475820  0.4151154178219029
  0.6788349975641595  0.1370034635703728  0.6236649583468313
  0.4891575138219274  0.3693513283633477  0.4623609969573662
  0.7561362344306456  0.4295551823169012  0.7999185835889063
  0.7597347282631912  0.3930313587115304  0.7019103065988467
  0.6248170770004877  0.4205728539957428  0.5936193319630011
  0.7076406633319677  0.5023776906392566  0.4939805328249919
  0.7173158352203001  0.4710637489651633  0.5584280765920628
  0.7063736054637932  0.3843559133809012  0.5331370795344342
  0.8442641192019170  0.6690326620961375  0.9006620491984014
  0.0736829204216002  0.5021441144919316  0.8891772626094031
  0.3249189731435323  0.3578651611265867  0.1263831826689848
  0.9509797003461101  0.8199196871952159  0.1878916369108806
  0.4719059408863144  0.8202245845723144  0.1371383351004321
  0.9525336430433327  0.8341192923135093  0.1262657124964802
  0.8374225189948352  0.1916719724337987  0.0603247714031001
  0.3651901112597453  0.4827414969576280  0.9333120957730991
  0.9861523108086317  0.6517267175900148  0.0932460668922165
  0.9965476445516150  0.7076986130968145  0.0670112172147547
  0.1121795203095284  0.8557977087374944  0.9739334259876985
  0.1072706945194288  0.8357750784420178  0.7892676051751850
  0.3467863878093282  0.9773509221532671  0.1898160406293303
  0.7929398665757740  0.8318902905659467  0.1818718723625295
  0.8734151093986666  0.8783129609631283  0.0386976862493040
  0.9481159299198568  0.7708646563572090  0.1437158655804656
  0.3789185405583180  0.5530987013885158  0.8177962338060836
  0.3533151995949260  0.4926724083355380  0.8750753861697873
  0.2274735142710688  0.8548431219101931  0.9443575033367965
  0.4525493369990634  0.5360041937049611  0.8972593431898249
  0.8778960139024700  0.0039356847429079  0.0123103722292842
  0.8332132753958744  0.0851194360392262  0.0274265618966647
  0.2804515766546096  0.6078192139763934  0.5463634173353695
  0.8199414816758107  0.9563267410379073  0.0681146872054560
  0.9445833093013477  0.1890521583944555  0.0974937524046423
  0.1062827536485732  0.8686293314010832  0.9003954097445620
  0.4175363387156780  0.8048093610122540  0.0664618031540305
  0.1954501459651851  0.9238285298954745  0.8644048498530229
  0.8917616762895900  0.1597144841082947  0.0875855368291425
  0.0975761754128593  0.1091077713475850  0.7162951107530944
  0.8483701202984063  0.8651549607227857  0.1930625883387048
  0.1551427555889448  0.6944141673333150  0.0660785815057667
  0.0483255429897574  0.7454398235801438  0.0107015954276916
  0.1622978419583564  0.3529446369341160  0.5261943602413349
  0.3802218367577447  0.5183340150464102  0.7130556344448941
  0.5197092804645135  0.7415682632342768  0.1189233081717480
  0.9353859400795624  0.0331793451799485  0.0221216783979334
  0.7699887893089690  0.0669789953778700  0.9551407198296443
  0.8869881342110343  0.1112949982527249  0.0420294675949881
  0.4182298985567495  0.5698076083481921  0.7164928801213550
  0.0204876082036081  0.0448892955849613  0.8163489704234191
  0.2461051347549807  0.9600414168073179  0.9881733064945672
  0.8708810114126194  0.9264602515593879  0.0919833728427711
  0.3026934783521562  0.3509218484127863  0.7946062284762033
  0.2444964681369062  0.9624821583312989  0.9310121530344098
  0.3349332200149592  0.9383726691780975  0.1557364458658884
  0.8362538256236575  0.7112700617081986  0.1214929700562951
  0.2679873734825801  0.9101343375015336  0.9466248273475353
  0.9925137242442678  0.1123928795251050  0.0754919785884208
  0.3614936246861188  0.5431111755534848  0.5922603978993487
  0.8931366128461941  0.7555255096794580  0.0702660471535621
  0.1588331946333331  0.3863876808954604  0.6281770140430268
  0.8901588186765451  0.9454643045855633  0.2508841860380054
  0.4935045886646246  0.5370318976544457  1.0158062464535802
  0.4043092288994145  0.6497419177700394  0.8696652458839352
  0.8154347508957317  0.5094436180566461  0.0219745050024892
  0.8586827019929328  0.4201887393881173  0.0644181847824796
  0.1148900127939461  0.2509021153065774  0.8055216449508174
  0.8393449250515715  0.6768462404782741  0.0146441063990864
 -0.0053234377673307  0.2502868800140618  0.9884264376671164
  0.3924404613657264  1.0049274489452882  0.5160606103285880
  0.0376071472272468  0.1162269257609884  0.6971889409264131
  0.8542495846402035  0.3607701986655940  0.0783124289448753
  0.7878760819230409  0.2819167330922577  0.0219341999095915
  0.7069946358055065  0.8967640472869733  0.0514391981479701
  0.6812902359231087  0.8030939809663736  0.0372814906819859
  0.0428756036841415  0.1540416192344245  0.0263216380411135
  0.1165291782051436  0.2870919231745682  0.9093157127694154
  0.6616129985989273  0.8742249196619696  0.9770306949509712
  0.4277180743180086  0.8984051103572549  0.1560193348720146
  0.2541727398885828  0.4817855282231631  0.9570977355598870
  0.1565709215061748  0.4371456509740614  0.9313448217732385
  0.1463441151761265  0.4485572496892513  0.8693658220801599
  0.8761742282425278  0.5888447634637374  0.0709725476410772
  0.1316396974520045  0.0762798514514206  0.9058572972037886
  0.8137965271878449  0.4977983364672756  0.0801796673537073
  0.4229615389731478  0.8369088223224014  0.1729591809148928
  0.2040439297161317  0.3407231452647927  0.8763401044182234
  0.6784910554003578  0.7410610640713625  0.0556843654787381
  0.7183416360050491  0.5544979706523945  0.0143769605383221
  0.9831673004726438  0.0045734126949103  0.0491360961475961
  0.0669786590746057  0.3440715859306391  0.4434145369993684
  0.4833495265087931  0.7119279885206422  0.7735877363614977
  0.8983451847401300  0.8182453785532255  0.0545602608559436
  0.5049198975908481  0.6561369939432703  0.7893604121859500
  0.9436882455759282  0.7950248664443326  1.0179642145149896
  0.0801105274590706  0.7736260099808491  0.8462333291956921
  0.0223442351931978  0.7470855505590946  0.7184363040436474
  0.4456851212142448  0.6646956288576513  0.7684530409751422
  0.1204782577807219  0.2981025547351869  0.5218058802882594
  0.2314348893827061  0.3687629356765164  0.7111290408268069