Cr H  Ni
 1.0000000000000000
    38.7169076500286806    0.0000000000000000    0.0000000000000000
     0.0000000000000000   38.7169076500286806    0.0000000000000000
     0.0000000000000000    0.0000000000000000   38.7169076500286806
 Cr  H   Ni 
 1596 106 3725
Direct
  0.0028963448748390  0.8579458657896015  0.9727728268601429
  0.1131346132073871  0.7799988033630951  0.4939172441973875
  0.1236829926383888  0.4716611601075256  0.7464260474060294
  0.7543690123835088  0.4265008614793329  0.0273353197454147
  0.1128689534957372  0.8260014882158182  0.5280484402393203
  0.3234244568167681  0.9571010300273245  0.6189602842816671
  0.9190183251464142  0.4766560744466990  0.0087714841448144
  0.0905802716093980  0.5425631816087585  0.6674391048998811
  0.5670178336941252  0.6638968024993646  0.1019148202062248
  0.3858884440808268  0.5833373511210201 -0.0257726281041194
  0.1909132552966409  0.6261054349685753  0.5164781038208579
  0.7792392810291541  0.6319645338593286  0.0685622536762927
  0.2792969463070687  0.5453791794476326  0.8957519462928510
  0.2556647327652772  0.8489636201636508  0.6753593007333705
  0.6643869987796418  0.5732020695955762  0.0533934136394597
  0.7153371338494595  0.5526431383550177  0.0175841988822510
  0.7576922608813288  0.4686589069218053  0.0693109475450588
  0.6789246932880155  0.7416054595848834  0.0560217464041559
  0.2550794708532069  0.4479483412998926  0.8511188068956618
  0.0432089230599785  0.1737245576808686  0.9658147384674916
  0.3313884720796739 -0.0401544682028314  0.5651617142764566
  0.3618716089137097  0.7284707020596326  0.7281814211314164
  0.3912445684178342  0.8064662204223622  0.0066432409362389
 -0.0277809268500008  0.4348073537395037  0.4932413938139295
  0.4712344515997496  0.7583049962258430  0.8185397584496739
  0.5590852603081717  0.8125017905457891  0.7838888238202044
  0.2592509326923320  0.7540011102638664  0.9150490300839432
  0.5330986029976111  0.7513031554243285  0.8393066901543907
  0.3605511961466309  0.7989603500163436  0.9454686940380588
  0.4369315500012150  0.8286292207751854  0.7405023120987869
  0.5619393983176939  0.7826895299831099  0.6799105969656030
  0.7911734522466921  0.8205170566466399  0.2436497999333300
  0.3206413464180631  0.7509735598762968  0.9364731757092705
  0.3826150774689800  0.8227298526831085  0.5560771843126773
  0.2814756911216342  0.8551839645152001  0.9654025204933349
  0.0299825036306011  0.5487208030590389  0.6480323069952674
  0.4028001224569573  0.7460479914603904  0.6294708988644463
  0.2666089372105113  0.6528752899335417  0.5908873397210661
  0.0772465869171448  0.5871122275663621  0.7095828420748994
  0.9900350745569354  0.5320832628496277  0.7486586294567337
  0.0878427983212468  0.5755246285724420  0.7707678012500105
  0.2491611629523991  0.7654764105127014  0.8519517964324129
  0.2282725243487806  0.7865412711830726  0.7288412410206736
  0.8294811266601466  0.7029497757244675  0.4167971614887390
  0.5492506995702817  0.8905366023076955  0.9324241940885458
  0.3823096908649258  0.8491800812189423  0.0494285524197490
  0.3762101967654159  0.5905277109429856  0.9214616919627480
  0.9179076001155021  0.5155457273036204  0.2828999562922692
  0.0114749677294578  0.9452270380144203  0.2838658485865490
  0.2441639506651639  0.3713409771029080  0.9844452432704889
  0.9021860012382729  0.8986723272219523  0.2046202303429176
  0.7406457345654740  0.3014612848588075  0.0547090271800207
  0.7617223577188946  0.5136043420987897  0.1128954966815088
  0.2407172359996917  0.2890671803411374  0.5656771414172834
  0.0527324806077001  0.9917910962882964  0.8018990505684547
  0.9678356323512695  0.5639958613205566  0.0067578662002685
  0.2715414040879676  0.3503680779589627  0.5045376074646561
  0.0682367495675482  0.9769024086706782  0.5311510624419712
  0.9463800794988293  0.7909112753634860  0.3110711150935377
  0.4773954094648461  0.5939488092938585  0.8462890177472342
  0.4905700700604061  0.5827421107519508  0.9081038708839122
  0.6954475580283155  0.3748032023323991  0.0756918216990936
 -0.0307356722861144  1.0055753851020144  0.3676005444808328
  0.6800327119280594  0.8315775285944557  0.9284956686765121
  0.5707551044474409  0.8005452057261925  0.8432232550042962
  0.2686263886927155  0.3850445582550254  0.6084328486980385
  0.3710599296752504  0.5317095840379038  0.6531816302633974
  0.6122483456249448  0.5886581685621538  0.0881072235272658
  0.9407907347811023  0.7154751593047343  0.1635318623245866
  0.3332869265247297  0.4817133866242251  0.6472719430207541
  0.9669812801232227  0.9881345161267231  0.4301497054204299
  0.2093062954066068  0.3157390667049673  0.0428484361128346
  0.8389006236916111  0.7774339054325068  0.3347969222588998
  0.7951313026795549  0.8559368481224247  0.3486212596896737
  0.8332497689334474  0.1458809721974538  0.0069819273205450
  0.8167864392917425  0.5626654380312094  0.2891773225865153
  0.0039100476010254  0.4519951964711722  0.6025595059822777
  0.1130931853172127  0.4503615225435466  0.5811155715198389
  0.1377684328736488  0.1251734971503937  0.6157392836709483
  0.6065863587693772  0.5442017779303397  0.0493681405020708
  0.1205918196422238  0.7594116872259563  0.6346690418868111
  0.1741989820099445  0.9786751887436638  0.8456831453297449
  0.9570529237715063  0.8549277070839306  0.0708336606739437
  0.5097556867583826  0.7761245381294795  0.7166482254286280
  0.9304657791980178  0.9239179208822954 -0.0022653566368849
  0.7077841214461207  0.8927323184501452  0.8724768560956095
  0.2449805706267614  0.8939154385301636  0.7180545332865772
  0.0996983402112815  0.1979962835212456  0.5297896431346696
  0.5816470867693557  0.7547321817697862  0.7994070782972649
  0.1735184924443832  0.9458138918784350  0.7388570230663628
  0.9761490769112193  0.5473053921361154  0.0661504177247882
  0.0775205986936270  0.8065598522275743  0.9533469894344617
  0.7508433623219674  0.3751115916718074  0.2073789428125220
  0.6643575541555004  0.6050270108952215  0.1594239029091946
  0.6548666856203749  0.4977387529954080  0.1374912163597889
  0.8698637390612755  0.9871871642297230  0.6813131002997580
  0.8094854145924504  0.8980141847685821  0.0852028969016200
  0.9244638805042831  0.4513193029523771  0.9068064030272828
  0.9748633099706473  0.4569394370201312  0.8655595002734442
  0.8888674268254406  0.7295081131675571  0.1966445431203852
  0.0304848295002325  0.0150648401340491  0.6757195302381290
  0.0188960423141364  0.5925113873461106  0.0159668815243558
  0.0740337108428655  0.9364120096175178  0.8184566192277024
  0.8543841289716965  0.9151360893625081  0.4692076228808331
  0.9113093736013425  0.9588444947363712  0.4196014332524318
  0.9847154217925730  0.6681269382154357  0.6080997749031670
  0.1771242001065478  0.9872204685893674  0.5073049963037514
  0.1863636570598271  0.2345938830270557  0.8895192884811816
  0.7502816937346426  0.3906767334295156  0.1490923788532742
  0.8085777761729048  0.4539483968293789  0.2618956315459705
  0.1216304673510879  0.9566335860639509  0.4938798023525656
  0.8570629440957922  0.3906230712245637  0.1834589186532321
  0.1365599762689071  0.1953722253488751  0.8237270856196933
  0.1457690485242432  0.9028273659140372  0.5764268579905620
  0.8565633835198566  0.3755125472407515  0.2432406684206457
  0.2216350236885517  0.4492789371521188  0.5629711105656630
  0.0637256691106519  0.6665106188331159  0.8592184888442492
  0.1019125258830536  0.9965641904744258  0.7621251816843863
  0.3436757827466950  0.4681257906293479  0.7099957037910223
  0.5127492284093927  0.6660333776639803  0.2005010004352515
  0.7930008319160819  0.2677275488598067  0.0818871551938746
  0.2730695745572936  0.4876216903867759  0.6276650346966391
  0.2452013167249501  0.4241348078228482  0.6853589361019101
  0.5290901562827165  0.2670405069067892  0.1070643909955133
  0.4136393501995226  0.2416732753898732  0.0209989933030964
  0.9999996768205406  0.1359700419071107  0.9056024845113833
  0.9288934708803438  0.1531478796339101  0.8204902173625566
  0.9852513348362282  0.1815500743508126  0.9464341673689394
  0.8694433546071796  0.0286845308138532  0.9414992664089867
  0.9232788704773474  1.0189420345247604  0.9656551238815219
  0.2282022143320826  0.4190552977878805  0.0731865491671329
  0.9751921691238857  0.5276948107787022  0.5255942787753574
  0.8872571564199312  0.3865478479851025  0.7048964522724698
  0.4237184174244276  0.2519698576164696  0.1309325378673713
  0.9947265034731622  0.2985192569045990  0.8667155830653125
  0.8019270546397036  0.0474853133043682  0.8564891141909353
  0.7519275866840177  0.0443459743862888  0.8999996572544887
  0.8092326543072029  0.0349213238838715  0.9228415708505927
  0.5767057372698426  0.1580886098851940  0.2075884363161567
  0.9799747966563110  0.6847493740204765  0.5473440823617397
  0.4329016360984546  0.3585384692569669  0.1610362805260318
  0.8361260845783495  0.9641937773955929  0.7288082308420006
  0.5201988812906674  0.1605467275463065  0.0749740461625595
  0.8268177903938517  0.1495540901306383  0.5629467380914825
  0.4676012162823978  0.1908288694194850  0.0456018102555017
  0.8941789383982794  0.2210635666698706  0.7391433878226411
  0.9433170180553133  0.4603405869594050  0.5815363624608055
  0.1121281912907589  0.7032565699586428  0.9258739737557369
  0.1365461206895909  0.5745814042108517  0.1115706089657617
  0.1745605932934127  0.4359884930806793  0.1127143145161334
  0.8102654320643897  0.5531635753948115  0.6853669151080594
  0.8578737114096738  0.5913168560124625  0.7515336435889720
  0.5003816870808891  0.5421930543501643  0.4726060426884709
  0.5010948465543454  0.5602081833358026  0.4081637010376959
  0.5117980583821908  0.6826564689543642  0.3685173222442989
  0.4518376093164910  0.6381821729251591  0.4291269785277857
  0.8442994940611023  0.6681660296462332  0.9008291009900481
  0.9916965586967718  0.7178340250280669  0.8830293883299818
  0.7061443787728916  0.3826426378991867  0.5319066921031866
  0.7179436412817766  0.4708578546597254  0.5584919702246564
  0.7084969362197296  0.5023841649958867  0.4950732179773923
  0.6253079680775623  0.4201807817314394  0.5940979785845338
  0.7596607890578494  0.3931700364734843  0.7027184779377491
  0.7553275882113945  0.4287198338335527  0.8011228654084058
  0.4894764013328097  0.3691793754963875  0.4628298437603682
  0.6819570077376624  0.1341439353307474  0.6262647451540981
  0.8003039618290307  0.2983180558387509  0.4158571204862305
  0.5569643140913467  0.0965169086841568  0.5260145501594530
  0.7492986600170001  0.3137383632130115  0.4526644442445415
  0.3970883871832856  0.6189992367782770  0.5326269777344257
  0.2137293869816480  0.8365314536173103  0.3322450535819695
  0.7743721483604159  0.2333202423848785  0.6985362289286695
  0.4822683133632680  0.3105396440837044  0.2487631522726431
  0.5453840580961575  0.4207755652285664  0.4062301940402146
  0.7860346948632085  0.1133080525503502  0.4628626982152338
  0.7919644565141132  0.1331069861674591  0.6115873921263876
  0.7374823216078980  0.1445010478002612  0.4361850385896000
  0.6901324710223526  0.1594602639047752  0.4747041665587292
  0.8930404357645566  0.1835675505873779  0.6348583773563224
  0.2619063261490258  0.3516489137208286  0.0486140507423298
  0.1834668521988518  0.4469798068280786  0.0518865091837928
  0.7629550522120663  0.0602096382955412  0.5669699144358956
  0.2323896063659107  0.4869654880326131  0.0532067190542345
  0.8678856415754369  0.1248381189875255  0.6927114431702480
  0.8786388184044818  0.1144988356648110  0.7552757866710104
  0.9481509553111547  0.0950866993051697  0.8404287883653029
  0.0161232808400408  0.2076317426550735  0.7824187636722000
  0.9662753258586525  0.2035741502714591  0.8217509273705722
  0.1000177858791072  0.7146897529708599  0.1003849840575372
  0.7904206458503745  0.1450365446182627  0.3407571602125804
  0.8364768280600118  0.0820756537571719  0.2606112985614761
  0.8988720288985871  0.6100416815317825  0.6490960938357246
  0.8508645480000323  0.5714913381096518  0.5839422749837362
  0.6873923798297765  0.1905967139874117  0.3496619108945100
  0.9557677879238483  0.6350117260793584  0.7741895292515653
  0.6411540321647633  0.2676103824090550  0.3687533106868450
  0.5937269228695715  0.3292240350578369  0.4506531623728030
  0.0482827035922189  0.6285905157873650  0.5252744390014645
  0.3855005426965509  0.4189257218936124  0.2411074835883873
  0.9618168001014381  0.5712427662319042  0.5660852801807286
  0.6461283805198511  0.9714581809830397  0.3747343802271841
  0.8030354344611625  0.2838731591058352  0.4764903830705924
  0.7934732294556063  0.4438449374026172  0.6987774443017767
  0.7938147529539217  0.1897952176698202  0.3839275930130920
  0.7296825464624580  0.3485604626393894  0.6593721572824444
  0.6703980104453727  0.3571365235327452  0.6397646153117068
  0.7182942110038992  0.3603004399070163  0.5990870163001291
  0.7034531682856444  0.2619701674470898  0.5582963974449964
  0.9646197900157795  0.6537289263486468  0.9412465548649245
  0.9191364694633086  0.0205311976947619  0.4028527076011113
  0.9758926742107663  0.6096540549316029  0.8971397460042841
  0.3297220682535034  0.8918509896393411  0.5812433785415752
  0.8906234545801764  0.5227522631259298  0.8276455089133995
  0.2679444854348239  0.8327621514642253  0.4694901677277843
  0.4039029917778758  0.6655953892514777  0.3994946737254094
  0.9369393950234987  0.4076913736831307  0.8645486939670360
  0.6751346191989928  0.1900284518332895  0.6754497742751124
  0.3138788757034761  0.7902764459534189  0.3238208659385295
  0.6392533672566173  0.1410211154489300  0.6633127793497826
  0.6364572304249256  0.1594825271409279  0.5807295072023547
  0.2064118495504586  0.7744235865503858  0.3505295182899270
  0.5856534077041052  0.2818030682914132  0.1769770271076638
  0.4983518464775523  0.8533466369045827  0.8671509237587980
  0.6981061326231686  0.3454901771878888  0.4239121317360501
  0.2720499103731438  0.8950536331403626  0.4502837160557166
  0.8524910002391208  0.5052704550924391  0.9265680613293772
  0.9287834493700685  0.6760834200112086  0.5910112169444088
  0.2247873200806708  0.9149730287968594  0.4866814608500013
  0.2174568146536466  0.8672382175283232  0.4383810439241932
  0.8052825930539763  0.7027209352661460  0.4918281124261101
  0.8313743801874171  0.4963772026105701  0.7026282210022798
  0.8797763364112451  0.5339703699640898  0.7684690519456032
  0.9406864689717083  0.7941734570613629  0.5761644972090884
  0.7700062565689865  0.5370812735023296  0.7853789866248694
  0.8510696154101369  0.2043160206676534  0.4541595521627834
  0.7402331787375004  0.3373267983203340  0.7210667724871315
  0.7019679717098887  0.2874501318429498  0.7189117933475261
  0.6422989822501114  0.2952693633812826  0.6987270504438466
  0.8950325264819969  0.1265055182969386  0.4375573380942936
  0.5904270304547512  0.2575140043435326  0.6362474432032662
  0.8724002930995771  0.0846445480640374  0.4807074625417146
  0.6385111272745844  0.2622405487180404  0.5946897823338926
  0.5428988346498571  0.2119993682434869  0.5764767585722630
  0.5493146277395059  0.5116140657363496  0.4950535866686829
  0.8868066146585619  0.5515251411978820  0.9383198240497101
  0.6501955202476485  0.4680610876593759  0.4822162601013116
  0.9141635848429498  0.4966383136849694  0.9476464809701795
  0.9099179285931184  0.0461464238361164  0.8369772447984842
  0.4154044915936782  0.1611309806361335  0.0350185332732404
  0.9230302230647016  0.3513024691954129  0.8857162167199709
  0.4702384842192175  0.1749160976964216  0.1079388891667368
  0.7064538871241247  0.0052509760938382  0.8290361213838513
  0.3988687207524101  0.6071751122999389  0.4190393117019088
  0.4473560502816882  0.5429958772884363  0.3375046599709369
  0.6894401140543356  0.0881790187898564  0.9233740819073321
  0.6806496300073694  0.0599782927134361  0.8135502690653158
  0.6100943393813985  0.1154364998734405  0.8366297001053885
  0.4436782580777335  0.4656662148548876  0.4141994684758386
  0.6338352848305869  0.0238389316156297  0.7464360181375282
  0.7989463165123862  0.2440805313111869  0.9231948094486213
  0.7842633414898948  0.1845929103998541  0.6553892563481717
  0.0028174383420456  0.8145678764522507  0.0902517494491397
  0.8095421683488586  0.1989405859483911  0.8824199256545211
  0.7091645479881734  0.1238047869480859  0.7558177395080274
  0.7197572346187836  0.1111444747915122  0.8172090796188179
  0.6473064903009352  0.1312299755660115  0.7331025811466897
  0.7217160726708647  0.0766126123388690  0.7170263893841422
  0.7342726815268966  0.1292372004579491  0.2706161511078266
  0.4997053722227612  0.0498862365917999  0.6391153862100628
  0.5390216283612984 -0.0376438352923649  0.6327974249043299
  0.4890215733358295  0.9377866985805654  0.5637136840066815
  0.4613429756944731  0.0844027318352241  0.0157293757482473
  0.4122714443368810  0.1039004571297091 -0.0076618778507329
  0.1622735681939587  0.8526245482394965  0.3673769035255274
  0.8508190574457181  0.3060029813266755  0.5412862828915731
  0.9749149727792790  0.4239617323138019  0.7617535066896952
  0.6270645728492782  0.1744524459275981  0.0518636262660280
  0.5166921419059812  0.0988416808476112  0.0882844778520183
  0.7366024822633730  0.1299648648313945  0.4981689981286368
  0.9971409966989575  0.3997247028146490  0.8852384104866665
  0.0970861308481274  0.4094647985887760  0.8039915970557626
  0.9979060856192316  0.3842693446168622  0.6843872726013368
  0.9710244798487334  0.3223660695571297  0.7436537300227063
  0.8643177669838530  0.4262008721501619  0.7812670509508248
  0.5118973400377143  0.0538319540463775  0.0350819429658481
  0.9208425526227605  0.2826201616691509  0.6805919970430578
  0.8606547968355426  0.2886813928152151  0.6589605649581940
  0.8509952266203649  0.2986019534480139  0.5990872208543025
  0.0048700173045492  0.8493845494471959  0.1943549998176188
  0.8082801830679375  0.2053534038802754  0.5519545795346029
  0.7527083499283213  0.2552985276077889  0.4635887038843668
  0.9141992696518300  0.4311524009875654  0.7409176697475616
  0.0408939783429507  0.6685551721077185  0.1589918510111157
  0.9481311128049131  0.3448256567796831  0.6202520125607530
  0.1885802570449427  0.5905299806562017  0.1813876798971201
  0.9374085141886669  0.3587277277034652  0.5623776463989019
  0.8554631983296185  0.2523686928733674  0.4986772299864465
  0.9003899727961807  0.0915479791326557  0.8796264224955271
  0.8324642486427161  0.0505707615711505  0.3849850765852954
  0.0895658181974520  0.6768222778936540  0.5230063527933219
  0.5999628836201967  0.9021003896862085  0.0051670453986575
  0.3380211263685535  0.8538759786042597  0.9284509554298748
  0.1403716393156204  0.5178991044705261  0.5244497849375831
  0.6583599804491463  0.0157778152104900  0.4180933757023022
  0.1789664372009434  0.5982916172736816  0.6294708954149429
  0.2377900213173489  0.5914819344824810  0.6500163406697153
  0.9201904376882009  0.5289629245184035  0.5058663496620160
  0.2476963827422523  0.5795960772428232  0.7115764505873657
  0.7861957124148751  0.7410454698595904  0.0922525639362810
  0.1038864724258160  0.6828947452268546  0.7569801000238664
  0.9728490231690710  0.5617861070640724  0.4573778082078692
  0.2954483673519623  0.6173253815356016  0.7788807181410393
  0.3552720847273925  0.6102572135045009  0.8000771553516232
  0.8587575855338623  0.6125014099207883  0.4631163389899692
  0.1911275035634351  0.7388943913556781  0.7209551839111724
  0.8321319127059665  0.6628742990086970  0.0766416028882709
  0.4549606238706500  0.6855556032896885  0.9394711970396830
  0.9277879350261587  0.6061076232924328  0.1442880699478305
  0.0334310187582909  0.7032371622015773  0.6736868895066219
  0.0194645200421249  0.7378574162315352  0.5511043257288015
  0.7427712028360128  0.8561458041001540  0.4447708368400067
  0.8489595921018269  0.7385675068617440  0.4669870310355398
  0.3833318195811022  0.7059211519991752  0.8522717155698811
  0.7760238785815933  0.6863912990011272  0.3447904008424881
  0.1798168810982907  0.0800582282048046  0.8650359525061023
  0.9457742359603799  0.1738096629927890  0.1584188539208859
  0.1666102275815799  0.8297188958711175  0.8128166737252063
  0.8885423998311051  0.6942005687104564  0.0872679564027054
  0.1761210461578271  0.2102007613052103  0.7226428850033931
  0.4771130727658404  0.8506123007058590  0.2430493462585622
  0.1262273420338246  0.2050863571788774  0.7621962382592191
  0.4339316258255278  0.9445162600182183  0.1996358820236939
  0.2248316917534129  0.2500143610804515  0.7876390801377775
  0.2028997004110790  0.3065391454273856  0.7702926270564932
  0.4801979331925120  0.8955330922300733  0.2870913062581557
  0.8255668892952499  0.7955510882387125 -0.0159767937749484
  0.2962105315437294  0.2309361951741154  0.8712233285233278
  0.2749511161822759  0.2886328688920009  0.8534846132339921
  0.0495883553827693  0.8092498269883823  0.6587933727168740
  0.2792763063677299  0.3252236803666035  0.9583727150078468
  0.3460499122153898  0.2708158652692871  0.9369396128684830
 -0.0155741418176366  0.8384728870266486  0.5840819239824835
  0.0446903789056404  0.8610270959778008  0.6132096140320773
  0.1053514993148543  0.7764362414589961  0.5661189833454550
  0.0240498573451805  0.0425115235185429  0.5424597502339971
  0.0475346954271189  0.1053651066967224  0.7574316735051818
  0.7159151979821038  0.6088317006456746  0.2930706744831492
  0.0970809817944339  0.6636625292810411  0.5896354432594950
  0.0871043786129950  0.1534090680114824  0.7603056513953027
  0.4388191716940508  0.8933523725964381  0.9522455449097228
  0.7801055988878206  0.7335012839465810  0.3838393320810946
  0.7391984263700143  0.7944114079602037  0.4618727997095253
  0.8471018427911986  0.8347326371803393  0.0878129331715724
  0.3949808832690746  0.0441592514745074  0.0037816347730627
  0.8036575991734607  0.9463294245367058  0.4427615942664973
  0.3886923378974645  0.9342235788200841  0.0413771135605268
  0.3851321211529645  1.0046559373102435  0.9487100754745569
  0.2958881363572713  0.9665490854177043  0.8925688290065873
  0.9691045486121339  0.4851680274285449  0.0813076276570963
  0.3056186123605619  0.9217577916783029  0.8467871229064766
  0.1090748223555251  0.3810915647838484  0.6686141040471038
  0.6251470143545103  0.7102572894382378  0.0470111126631432
  0.4529640219903515  0.7349358911060943  0.9840253225413642
  0.5731380034592986  0.7256141742337041  0.0825629894453013
  0.4922946961978368  0.8874434974185854  0.9721194790818320
  0.1714476748626396  0.5110302343132972  0.8097064353877405
  0.2559685329523246  0.8827272700452148  0.7790831486714364
  0.3181428307836600  0.5613046903712766  0.7957762451153180
  0.4406807172130733  0.8972000683450151  0.0553265969235001
  0.2688951160568385  0.5562985330633963  0.8356292633575600
  0.3885115798442068  0.9104929681897074  0.1038563349277282
  0.4989026282800555  0.9261952115559324  0.0761626282616966
  0.5052164272855520  0.9381548415803064  0.6847898758102970
  0.8650844200701280  0.7120831314815181  0.6748345437782565
  0.5373064398201172  0.3427630585996971  0.2572546162175674
  0.9335196129118686  0.4379255596627603  0.9709909451899391
  0.2988536759351558  0.6676083136876285  0.3650073505589227
  0.7171521608718705 -0.0260269338676932  0.9680094351721173
  0.5886539649232444  0.3125893321270924  0.2830396823217540
  0.7497009375953406  0.2061497318493653  0.8627010330972069
  0.6177321692399196  0.0812548673756364  0.9601016477121175
  0.8622171403518529  0.3572855208283287  0.8658696093347296
  0.2918464270908324  0.5741086330261095  0.2792093935100237
  0.9102687388906817  0.3622740034091641  0.8276413769159534
  0.3987022190120012  0.5889626970904134  0.2508424747831073
  0.7615006783807484  0.3134199689641186  0.8432253455595080
  0.3454743744372505  0.5899776339440704  0.3491629101852262
  0.8603302082188984  0.3245899842437832  0.7625475346607336
  0.8006307210337308  0.3311448312371627  0.7416534440007870
  0.3384004245017777  0.4958081912328146  0.2602527884963401
  0.6917534281369727  0.2984702810075245  0.6583265493759048
  0.7218588268843915  0.1892196716211898  0.6366828409130830
  0.6626457759495495  0.1991130661596985  0.6178552197042270
  0.6471966766351595  0.2370298730803745  0.4914960124774277
  0.6895737381992546  0.1489604903115211  0.5440178729740132
  0.4406578439249636  0.4342430776044943  0.3112443222517950
  0.9853760482707944  0.4438051358310934  0.9250375605825877
  0.0727742338655604  0.5019230860475431  0.8889821994955319
  0.2831472282601392  0.4756018139964309  0.6883532990833846
  0.9503920065984331  0.8203198655770982  0.1873837275762029
  0.9850765732689822  0.6537582244102443  0.0930549600136527
  0.9971873554014111  0.7085209321436066  0.0629593802903028
  0.1122040237166614  0.8540013560763599  0.9719772856881046
  0.1067480138426814  0.8356086088166543  0.7893117722074041
  0.3479952438498795  0.9770884292744648  0.1892847673427723
  0.7927298373906182  0.8334687868337292  0.1815367193480505
  0.8703896516653591  0.8783838598642532  0.0444136536275191
  0.9485067388307034  0.7706943736832352  0.1430240897026097
  0.3784060429200358  0.5527246390456262  0.8178791473273512
  0.3522049147427776  0.4923557465402421  0.8748107799094050
  0.2269155242356116  0.8541572211749412  0.9435469377295825
  0.4515651088147473  0.5351154795570783  0.8978753383505779
  0.8772368929550846  0.0046416139966276  0.0119292726728404
  0.8307502120360394  0.0844967497933244  0.0271317128289849
  0.2802277287207678  0.6078529073898576  0.5464230555136924
  0.8189481748329402  0.9561185885687588  0.0685934929583491
  0.9446769958461885  0.1897691295007693  0.0982276544275723
  0.4173858354144168  0.8024130985508890  0.0669012655822591
  0.1059622115597728  0.8677510038300866  0.8992909270239265
  0.4748291316457230  0.8204807153315824  0.1353557374334008
  0.9516413802457718  0.8345860586870463  0.1271679397433473
  0.3645116997314771  0.4827040319043950  0.9319484483962852
  0.8380096671481845  0.1916900685416699  0.0617972159336542
  0.1948207943316242  0.9236116736968840  0.8639386679359307
  0.8911442516557330  0.1602468148399091  0.0890772286945828
  0.0976768161461584  0.1092035997752128  0.7160837392695567
  0.8443064221163736  0.9105943510383731  0.2397780718548647
  0.1548322839664108  0.6958777956125134  0.0663712690009895
  0.0467515714039209  0.7428043892022751  0.0109369477215279
  0.1617602965894821  0.3523686213858644  0.5259968999579566
  0.3800079133086434  0.5181007783414203  0.7131011587664036
  0.5206175302948195  0.7412633730315239  0.1187383173990297
  0.9338972382437110  0.0359480360657798  0.0231657249071783
  0.7744848515738454  0.0690665146606800  0.9580587286932185
  0.8859922520287389  0.1115815466124211  0.0423919892348214
  0.4042111176365502  0.6495530128019108  0.8689070327024931
  0.4227363260719273  0.8372371195240332  0.1720221168263281
  0.2456334673261248  0.9594119433123139  0.9872069798677874
  0.8705282383758797  0.9271122613837388  0.0934281937581945
  0.3125870803372393  0.3040152530439815  0.7515419968254023
  0.2436696991738586  0.9622032464118166  0.9303732248117552
  0.3352220239401777  0.9381142356751883  0.1538527575255919
  0.8362719570585498  0.7103789699995412  0.1216268734292454
  0.2669348097166112  0.9090539189111104  0.9458897737375460
  0.9953589843113850  0.1575211242019076  0.1242221036561721
  0.3614575888704657  0.5430448844607986  0.5919849278129535
  0.8928897153061818  0.7557394972483725  0.0701314076101294
  0.8130955580774807  0.4989415705331062  0.0807373874825278
  0.1534742655626705  0.3015358361704294  0.8098439463970436
  0.4896452103418944  0.5358228700056649  1.0179277589291853
  0.4183352183165798  0.5695461183610974  0.7161379214648815
  0.8132426222722129  0.5141538474111563  0.0218472160596351
  0.8579988355511790  0.4215684392908536  0.0647602805997252
  0.1151260534340150  0.2503774053079670  0.8051901619997718
  0.8389565640205426  0.6761172016759193  0.0149622736421690
 -0.0058261857984040  0.2485265364556662  0.9890632316042013
  0.3925630924512283  1.0049657658388300  0.5160273546316784
  0.0381453388383625  0.1162755035673502  0.6970164010977861
  0.8544988964418745  0.3618088208489614  0.0786038942646067
  0.7892491786542888  0.2833568479126355  0.0237186212465248
  0.6987765201218658  0.9040670631718724  0.0561941266523731
  0.6809261254404869  0.8046998660711896  0.0365439108287123
  0.0462328085815787  0.1564013196765849  0.0274025892422890
  0.0935953209832757  0.3426769343635039  0.8922368166270260
  0.6599034624557309  0.8767609256644260  0.9880834581026904
  0.4277748541650730  0.8993717657006727  0.1560488546043692
  0.2535948667014397  0.4803629346876300  0.9569598605103031
  0.1557339158437059  0.4378047590886525  0.9306804506973981
  0.1458780889209449  0.4484690992491980  0.8692905943801537
  0.8736327064580830  0.5900150520371953  0.0726074501097023
  0.1316924918073395  0.0769554922416928  0.9053779630790991
  0.1583786718092471  0.3861136396223050  0.6282612188603350
  0.0201981891304695  0.0441278245717115  0.8173609270426756
  0.2037860499001594  0.3405243717553037  0.8761031213592777
  0.5386723312377550  0.2964120647507228  0.4412099772288062
  0.9677483934528817  0.2512252893764679  0.5366669619145995
  0.9832366792662978  0.0044280453992502  0.0496628210627113
  0.0669914976143684  0.3444447558748716  0.4436295385539440
  0.5426972361496653  0.7065607239982162  0.7940499655755292
  0.8715940326939338  0.8316897642913941  0.0010858036299035
  0.5046014178270034  0.6564059471473289  0.7899282120703677
  0.9436445627070574  0.7968204029530217  1.0167157765025707
  0.0798314903726012  0.7733542115455749  0.8461778014399304
  0.0217584114255779  0.7471755970808918  0.7185220839369648
  0.4448424905452271  0.6638486214865518  0.7677419404300539
  0.1208920160917789  0.2984499901012156  0.5217080447423739
  0.2309513069003285  0.3685339168073973  0.7113132297206602