Cr H  Ni
 1.0000000000000000
    38.7169076500286806    0.0000000000000000    0.0000000000000000
     0.0000000000000000   38.7169076500286806    0.0000000000000000
     0.0000000000000000    0.0000000000000000   38.7169076500286806
 Cr  H   Ni 
 1596 106 3725
Direct
 -0.0012547616537102  0.8499933466273525  0.9708831648353404
  0.2756851593276439  0.3546811076464162  0.4485250197491044
  0.1051663609497258  0.7898798674851450  0.0127422351519335
  0.8758399842024739  0.1313661053695349  0.5277295159136229
  0.5002720820510977  0.4791249012094373  0.4914147175005321
  0.1670135986185794  0.9119941654793301  0.3502829853043531
  0.1238199623496980  0.9898151727663624  0.3685213416526334
  0.2995248911824626  0.0668214806486904  0.9084035487788955
  0.2490892482905092  0.0278426861694518  0.8427305311715154
  0.3995010702515968  0.1103017187387044  0.9297421692896312
  0.5786502967179200  0.2171598072886365  0.8626410246179967
  0.8777770179182881  0.0344078657768928  0.1207732026379778
  0.2335118916207271  0.0180579021970802  0.2772071448039786
  0.7598870350292750 -0.1142191418256381  0.6116399392183909
  0.3880870748718734  0.1203295554029135  0.8688374362650947
  0.2660168892004179  0.8495051317966498  0.1743372125411493
  0.2187962394780036  0.9120311484465259  0.2521838541747732
  0.3117850459186914  0.7737790679663817  0.1567659112932277
  0.2120613222282536  0.9958252169847622  0.7434925140454069
  0.2896047858360202  0.0442166929727811  0.7398263441248193
  0.3678492894949647  0.8060254976725416  0.1642950768290795
  0.5397645508087721  0.1692165668500666  0.8547321312984620
  0.5757170396786205  0.1429686854632751  0.2681393920963500
  0.4789071271053731  0.2090543311827618  0.9444946757124332
  0.4660184403997127  0.9554080857487656  0.8931287548172645
  0.8580294585936681  0.9584210242605555  0.5149690054277696
  0.8615452361778750  1.0069799423200327  0.5578182862761433
  0.8670598409750039  0.0666159383678192  0.5377866057460422
  0.3686430114358155  0.8043801379901552  0.3929342515394298
  0.5538372187597752  0.5903936449028031  0.4159831134819973
  0.4188483120817440  0.7904280015975841  0.3569114849895371
  0.5159663811229722  0.1925605271009443  0.7311340380981197
  0.3661001291767581  0.7744640217674488  0.2890058959538805
  0.3161158457909222  0.8046970353438864  0.2624388379604173
  0.5696867354154358  0.3176095083578337  0.6149458696966092
  0.5108519788401962  0.3237389744893219  0.5927943793354591
  0.2687258924740299  0.8659626166985098  0.3420020030756499
  0.5812804498931593  0.3040332594399770  0.6768795061211413
  0.5601084138736802  0.3618095211349243  0.6574211463453995
  0.2244960937683285  0.9425168123668869  0.3599057485767003
  0.2743450546225069  0.9281593248907820  0.3250331957098206
  0.6708886388215941  0.3739517259862023  0.8397150600786405
  0.7081417294195486  0.4221537276058173  0.8423595538640517
  0.7758924390628774  0.0679963502187957  0.1952071793740105
  0.7393234882738311  0.3898368566547993  0.9732790352707588
  0.6469842133847932  0.3903379692597825  0.3356132506200929
  0.5323373606655840  0.3436906818122528  1.0261251055322707
  0.4619550723740540  0.1464388675629458  0.9987984631309832
  0.8039454767653967  0.9151568335727436  0.5692721748120387
  0.4228228263216056  0.2331479040171471  0.1906690106619857
  0.0502577019909324  0.1873774872691496  0.1354531798979950
  0.3211038345385680  0.2800122916000203  0.2023690045232950
  0.1917351090190215  0.0211377234579387  0.0625113415124183
  0.0033451567071949  0.2811040284452749  0.0917028687927563
 -0.0015653217264755  0.2360354280851165  0.0484894951921673
  0.2837540292638359  0.4647028610178723  0.2496582922727379
  0.0970685445220682  0.1280949355552607  0.0517701241247485
  0.2408606247325232  0.5893466748991407  0.3118169092832676
  0.0379328363991300  0.0517172376498205 -0.0048084574638225
  0.1825018704733950  0.5107729364512535  0.2586637896201298
  0.1605369402251323  0.2000763023264028  0.3394774770065539
  0.1463232386370676  0.0500423718229507  0.2653225828182291
  0.0396877960689298  0.0512755300958502  0.2311887803426676
  0.0562554684303553  0.1901064034504952  0.5738649996289271
  0.3425812787973615  0.6109239528674364  0.5108358231657032
  0.3293209479089509  0.3394758931623818  0.4126765174532626
  0.0177521276921867 -0.0276666097758576  0.3955359790055584
  0.2485433334569388  0.0512851892997033  0.3157087909199640
  0.0333314026489795  0.5729852672584018  0.0763679663937429
  0.3252714865671602  0.3259641896172999  0.2464073621974670
  0.3431977665534748  0.0487602529244847  0.4227295675507786
  0.0543476420538437  0.2477573968180029  0.1222283884874357
  0.9659579394852467  0.4359294695705445  0.2652873051599872
  0.0066883544539620  0.8823125059499843  0.3023864529880578
  0.4230844601486797  0.2167760001681382  0.2503245847834469
  0.5032518786221024  0.5731664509446146  0.1146626207580617
  0.4995952333477608  0.6517815306082118  0.5572121289131056
  0.4672412098412760  0.7141428790161691  0.1113545767115148
  0.4065087474290126  0.2263396549101824  0.8546160579550731
  0.0635945863962190  0.3563146253184842  0.1513949954722564
  0.4267967453309900  0.2635016278388993  0.2987746898939438
  0.0074566640750725  0.2941324743073148  0.2628912854815252
  0.9182852342505107  0.4694581441014701  0.4633051213126880
  0.4309269010657548  0.3252455555681414  0.2827624813335595
  0.0159513037183723  0.3737027230773213  0.4163342504851549
  0.0125848323813506  0.3249401822125920  0.3678831333024395
  0.0635971776268374  0.3085002350853293  0.3346252922428359
  0.0096341069686011  0.2641677055553694  0.3860721493540928
  0.0585394583100301  0.2460052870900773  0.3502504553511580
  0.1631383847806434  0.3364468574685281  0.4732959646035667
  0.1106867860123096  0.2152524329270973  0.3750242640651157
  0.1180481097217586  0.3709159768260737  0.2215404230348141
  0.4566083763160498  0.2671762431827997  0.9183156446026458
  0.0530824103007703  0.8064573583366110  0.2863118397025516
  0.5402211385641618  0.9587218782549644  0.1731116489259985
  0.2463998196940122  0.0208081804154264  0.1925564617322699
  0.0140109073999743  0.3722055621491162  0.1842474649877356
  0.2366618025198445  0.5272498794771490  0.1024783269392306
  0.2962523223910263  0.6049093829658811  0.1570127376914412
  0.5853109765384870  0.5344136837453827  0.5561171964812729
  0.9976354826557420  0.9512793230413618  0.7384573158567584
  0.8827178174796295  0.0034990073812521  0.7983576645725955
  0.4423873407156345  0.6647246292531934  0.5372771192966801
  0.7012522496351061  0.7898463696020966  0.5636955820722850
  0.7794142811438441  0.7858995215929815  0.5875064825534234
  0.4754574626559437  0.8037023054264436  0.4285870881680731
  0.8250722388811224  0.8349926964761534  0.6505401255177634
  0.3796647127720404  0.8964245034680279  0.4829212099512220
  0.8390741117440800  0.8788270232336867  0.6963138826670582
  0.3291886097673649  0.9278554762891670  0.4591736418546362
  0.8526901559657059  0.9428750432862815  0.8607574929788534
  0.3367049862931270  0.9885255994752454  0.4416585814487302
  0.9520904669234808  0.9797299010683979  0.8856205132862974
  0.9306513569473593  0.0167492256666203  0.3148462151258795
  0.9558277920355760  0.9703362192369664  0.9479971691348295
  0.1078041942774770  0.6499822015802666  0.6445286786784774
  0.3778038621627317  0.6833364150780414  0.6809968600905885
  0.7231738659751176  0.6835187303608349  0.4418035330977200
  0.7842953738084518  0.7158057180146091  0.4448373358923488
  0.6560332757335665  0.9974624150455684  0.2447591414134361
  0.8947127137747909  0.3855454939115470  0.9683557006901568
  0.0230392381888998  0.5148029068943284  0.3168407680050995
  0.3253966711993065  0.3413233468783805  0.1865622041417261
  0.7651484914993922  0.7017239913453933  0.7606107823145579
  0.4073187309601069  0.6822498325868455  0.3350594550332407
  0.7812191647510435  0.8091626727780858  0.7494403563804629
  0.7573369288231704  0.7147012508866339  0.6988073212874285
  0.8342931626074188  0.8359322327395269  0.8793064822181542
  0.7533754242797411  0.3904244355013711  0.3719445247248223
  0.5140932949725250  0.5383654911971415  0.5308941805518007
  0.7823349897717511  0.7114538844680394  0.9906572712420868
  0.5458535315674153  0.2231461529511487  0.5209595779229843
  0.3934877145185195  0.2422150122412382  0.5136923512102631
  0.4366061027349675  0.0587066096221464  0.6157001161307614
  0.3894932077955023  0.0548924350621568  0.6570962764356321
  0.5097241079725858  0.3063149684679032 -0.0155565874223206
  0.4179263595997145  0.3354793755612497  0.0497032028867247
  0.5591473808766555  0.0761683811502639  0.7688758770845622
  0.4394292783049191  0.4344200789036134  0.0804854178166471
  0.5203387503792571  0.0282203152747624  0.7661433957552634
  0.4829004552187439  0.3529506335466382  0.0631236342527237
  0.3840590151695654  0.4021049528288703  0.0727945755893316
  0.3904411214701140  0.4951162944740382  0.1627051676745905
  0.6623362787291212  0.1513818779001077  0.9011734478488138
  0.6165507278253699  0.1461038310672929  0.9435845216558836
  0.3898055822955995  0.4642043088487811  0.0577765394091965
  0.5315397871663766  0.0153735879064838  0.8302879070408776
  0.3880656221804218  0.0050563803428622  0.2808130334423592
  0.5415319056828429  0.0045810191027732  0.8921944143752076
  0.7195874320284769  0.6663342999716301  0.6933833864402850
  0.5609472567767149  0.1122555321637046  0.8729607403932528
  0.5535418325472847  0.2065814779726692  0.6325259008797213
  0.5031253227698487 -0.0079883784678368  0.9947594701390196
  1.0212180846032657  1.0013861123635590  0.5019233671430557
  0.9096924219933943  0.9393077148202946  0.4831561514169319
  0.9631460448913937  0.9545154483525354  0.5579891556788091
  0.0786345035789119  0.9691046988521019  0.5931524399603672
  0.9111942273467127  0.9729454650151982  0.5919849937946491
  0.9684896977834336  0.9446757182303491  0.6187080554110267
  0.8492345722232316  0.7826151432537659  0.5128746296263287
  0.9602403024865028  0.8470339904867303  0.5253350623162406
  0.8710101096813565  0.8361424408768634  0.6140559715682929
  0.4870503553571123 -0.0040054513052014  0.6652366947710835
  0.9194952647458433  0.9143446787946061  0.6099391953384267
  0.7820161110444304  0.2899833611300449  0.9599550126563691
  0.5188360622617123  0.2412417032673101  0.0003560713376378
  0.4643642281051228  0.2544672136759116 -0.0196079280805078
  0.5039380188540358  0.0668543136718915  0.5239287838579733
  0.5038526217986775  0.1253532718401364  0.5115049950934977
  0.5273511380356720  0.1038449516732161  0.5799747866980078
  0.2880809307754313  0.5116934559691154  0.0698906878581850
  0.5790589132376783  0.1502378172639242  0.6464494914790769
  0.9673314865876392  0.8554250470553725  0.6844491375941129
  0.6147553215897207  0.2338261360137960  0.7584059016362037
  0.7575299680072706  0.4847317881248642  0.4584361544414681
  0.6758982052130151  0.2275307465860511  0.7790797021842052
  0.5540299371983529  0.2418949035368261  0.7365307035327502
  0.7264372865039821  0.2639257651437926  0.8441351710533842
  0.2752189805897484  0.5794456539615398 -0.0030178746394236
  0.2072107374526006  0.6121286529458596  0.0360789131413395
  0.0942515071693172  0.6723930680294992  0.0634292028728195
  0.8677084012782288  0.4353569682110333  1.0034276835968736
  0.1586814761199846  0.8038281200200400  0.0941133322469587
  0.4898766475813463  0.0505368329668302  0.5802345107270527
  0.0686676537529093  0.9040453298112057  0.0744111002526538
  0.0245773261729073  0.9671386902277699  0.1494594928242025
  0.4785269268707928  0.1058272376540698  0.6223278553355610
  0.4895431460377408  0.0970084194741913  0.6838847308907716
  0.4992898969179246  0.0855297384865798  0.7467895481216102
  0.5895533080619020  0.1395517522538988  0.7076958378973784
  0.6188523230126044  0.0659354310698965  0.0187870842965234
  0.7178595780908039  0.0054513704724817  0.0770487849551280
  0.5881705186800998  0.1722655935029824  0.8162676154715847
  0.5682951697254846  0.1546198748746039  0.9778053988454292
  0.7175431281325934  0.1445500402114397  0.9229472092140113
  0.6819576281869053  0.2458203966302570  0.9434726354823657
  0.4846003788836776  0.2216844218237367  0.5492709968397684
  0.2651913111867975  0.8350953747541425  0.2352086889237367
  0.2575010766873381  0.6925230466636698  0.1001050258777672
  0.4426334340879781  0.5123224866394872  0.7349163241497088
  0.1244935225325202  0.0058175266387586  0.5393874997949701
  0.7771727201191004  0.0833925794890270  0.1303178745423473
  0.6074879779633945  0.4811665977512354  0.5775464676149402
  0.6757660383606573  0.4604021393186216  0.6533262834889525
  0.7645009845968960  0.5200805537879624  0.6205404874459125
  0.6813196496028827  0.1888160799254296  0.1234066403723735
  0.7494012943512292  0.5938307170635329  0.7732912382957350
  0.8179294578523657  0.5750543451521676  0.8595232677843805
  0.6337801347725137  0.2656184798975508  0.1434617236774395
  0.9973833464151647  0.6566273022320922  0.0097950971359221
  0.4862270094932336  0.3720728229551636  0.2315800795025715
  0.5925104958265309  0.3882179483639053  0.2058903631432669
  0.5411728512134282  0.3869389214994152  0.5317978108785464
  0.4951113328937386  0.4810487143037047  0.2591445067338142
  0.4012825065755558  0.6195149504183030  0.3542203513466485
  0.6419278348387059  0.3966667500148093  0.7194931624010779
  0.6873863134613266  0.4511836391894856  0.7193869426064746
  0.4578053754235962  0.6354101704006471  0.1943565444364702
  0.5761102893035139  0.4516927382486973  0.7372420117700118
  0.4545711913885622  0.6196482377521532  0.2567624036004433
  0.6849618973799744  0.4813593057688336  0.8207747651811399
  0.0838421320972752  0.9755128403945140  0.2139698668092069
  0.2065880133910889  0.1076839231195822  0.6995416768574895
  0.9007650324934143  0.7998347780202779  0.7971142130733572
  0.3533717512060074  0.6658345571999892  0.2660503220095696
  0.7336417042354478  0.5198863091462983  0.8844279077758899
  0.8106643888347129  0.6068508317779895  0.9686914349182286
  0.8784892805308441  0.7203609298642448  0.9126653967958768
  0.1505304357369207  0.7269658713807542  0.1744054375626135
  0.2111446089737093  0.8033709105059739  0.2260224462177992
  0.8851662129358443  0.6899204774423299  0.8082202165125784
  0.1099583863331481  0.8658647868824276  0.1713089177586672
  0.8355027281251964  0.7880910930093307  0.6025651397770274
  0.8018890890407907  0.7327722466717642  0.6010660774182345
  0.1646171694276240  0.8970979037111937  0.1833497034790838
  0.1270793562898044  0.9143963069334378  0.1357122095887813
  0.1330269459891173  0.9578096202968346  0.1758484967246730
  0.8867185904692159  0.8257973098004774  0.6758129360465659
  0.8914655367105709  0.8113791474569360  0.7356355852225004
  0.7112960926251251  0.9946202792729553  0.1430274452649053
  0.6724694398828426  0.0974286660689919  0.0291820342034662
  0.9725756728654799  0.9241957341847713  0.8962916443916978
  0.7709107013889182  0.6410824706972429  0.5456349279646360
  0.7110826410009828  0.6678521605699244  0.5158758776717364
  0.5781913191630691  0.2538351462202447  0.0672784527141620
  0.4877439696472663  0.3865902055505835  0.1707628257228641
  0.8286787498659410  0.5627004262654228  0.9923984809107970
  0.5892108929040313  0.5937006209980205  0.8288273622224068
  0.7528388809371487  0.4206919450096742  0.2521521553856384
  0.5134906152967306  0.4913490292100432  0.8172273471997676
  0.6020883845973614  0.5690177504600830  0.9664824471461193
  0.9918731198502986  0.8647854241748802  0.9118274851118710
  0.6071838655763144  0.5454843736938286  0.5046845093110833
  0.4458559134329106  0.5256705976543461  0.1721299678347650
  0.6830557391791346  0.5853553302571612  0.5816841972089221
  0.3443402284624142  0.5734743411477448  0.1826001722148483
  0.3498476161751723  0.6204719739717908  0.2247017187938288
  0.8389308429725134  0.6499733083248708  0.7399990954999315
  0.2999125479694046  0.6502287565026963  0.1980170452213770
  0.2552142562372575  0.7282216562229276  0.2108116120103672
  0.6583625232532671  0.5596192039527346  0.3460394526419722
  0.9593394225633322  0.8114454432565646  0.9497659840581290
  0.3968578852213277  0.4407946108728257  0.5660558989394874
  0.6363453917700300  0.4369437894155552  0.5443859283858677
  0.8423584055205803  0.2038232626160541  0.2308303486856722
  0.3200283119841091  0.3935732846222886  0.5669879213968004
  0.3410786162641455  0.3331116154544783  0.5881471469267950
  0.3561893362265664  0.4240819207357195  0.6675639858312997
  0.4168173091536718  0.4155607660639247  0.6897144480953288
  0.7529675814898560  0.4059329950551598  0.3127063148074341
  0.4150802956853186  0.4489121325621041  0.7932579103331091
  0.8629805019774914  0.7465999210785372  0.7900095493351329
  0.8401036232163733  0.3947847217955958  0.9467213745654888
  0.9765986806519175  0.7585544785073907  0.9170000575548952
  0.7449860328182857  0.4730048151712473  0.8413185365361928
  0.5517317896796607  0.5722210623099324  0.9363378819871547
  0.5590716950255646  0.6201762633591632  0.2901226836200649
  0.5495341453223219  0.6193492028831161  0.9852977454238023
  0.6119334693062087  0.6365214348963407  0.3624621495959671
  0.5694071867019675  0.7133856635028961  0.3767422274525267
  0.3513349655488496  0.3207378960494911  0.6497595655267636
  0.3171440321531317  0.4056854607079505  0.7688716135230574
  0.4808986946509137  0.8649668124797442  0.4122636876040899
  0.4370232211816022  0.9564681017417899  0.3684236995141985
  0.4140567828971198  0.4842714059158804  0.8957333782863314
  0.4370274337443024  0.4257279476030252  0.9148516617868543
  0.9367949250080843  0.0775544619988155  0.2993319109303091
  0.4866644073032265  0.4760011387661533  0.9763770238123451
  0.9482530766168025  0.1863482156724044  0.3266919787313883
  0.1529880601986569  0.2327289518350596  0.5998570401831782
  0.1759697537484718  0.1758295563559944  0.6156736353100015
  0.5842410697727709  0.6244974356586489  0.9372539415588387
  1.0033856087287942  0.2134314259106838  0.3382846873206828
  0.9388595335167980  0.1088060928508205  0.1749228146573015
  0.6547187316538104  0.5140074885162209  0.3021317205999994
  0.7019917122767657  0.4369262698351252  0.2850227280817170
  0.9689384398454769  0.7716716848690528  0.8505276047272092
  0.4376141711239401  0.4181143486282606  0.1445772938421164
  0.1688012502113419  0.9436070313680293  0.2259848337112827
  0.4759995533399641  0.8368096330406914  0.3050612080790418
  0.4528327377923602  0.5048882347490764  0.5192998981890689
  0.6467893033350565  0.4052578416664036  0.2766317672080033
  0.4842333361868792  0.5301266068589330  0.6336898304740683
  0.4517573062120119  0.5617860994037045  0.5045305776007305
  0.7025379401063222  0.4515622301681148  0.2252502774488903
  0.6006889207682889  0.4977059378827153  0.2314705954288540
  0.6109636801743604  0.6049912301704601  0.2560285531962291
  0.6061387684156824  0.5585281205974233  0.2124295003250296
  0.5784099633016050  0.6053538865338524  0.7664232572517473
  0.6163976075117582  0.6530594710787508  0.7734345048727170
  0.6273220461085067  0.6412699468131601  0.8366466995470815
  0.6635357142636831  0.6913268612710989  0.8397164627850806
  0.6038075407864840  0.6986665742267590  0.8186840569403669
  0.6006500944999537  0.7325312933139992  0.9229651594894885
  0.6727026516843345  0.6788663345606595  0.9008777380754089
  0.5657138422253903  0.6794099582985715  0.2707752410447011
  0.7188902242893023  0.7200297448313971  0.9662021024047042
  0.5223825605850567  0.7585287695940398  0.2868895652601087
  0.4206492408120030  0.8056296880248691  0.2954666585849969
  0.7738863831860601  0.3057737077278826  0.9051941717801346
  0.7595617623988639  0.5316121066788241  0.5606542543608259
  0.7610493251438388  0.8791487813817602  0.9692547269405817
  1.0332442134902582  0.0082754322315883  0.1871202145202201
  0.5380498097467529  0.5868433210368519  0.8706340723398872
  0.7078785051485618  0.8615774853058904  0.7686100075017830
  0.6911348279490830  0.7533032550628769  0.7808650776437177
  0.9018135475400862  0.2819652598250871  0.2847466267629113
  0.8474700989132931  0.2354407973367314  0.3349707964081230
  0.2298858602451781  0.1194906337046756  0.9283609486937549
  0.2909392993360103  0.1111143591691329  0.9504980091021121
  0.8134535152728868  0.5789850907312272  0.4640272008850336
  0.7108065564818447  0.5780684810417253  0.4179718378367560
  0.5976357252564395  0.9564120290091837  0.5374284886390001
  0.6459615982086081  0.9282761587102134  0.5650094177989868
  0.5999492286009518  0.0023809796743335  0.5801978235543452
  0.6786385670994738  0.6937367877244393  0.4751037515213418
  0.7381834432770921  0.7256534896003245  0.4817180562315280
  0.4841993011218208  0.8324628797481208  0.5361064068354514
  0.5934263372742233  0.8934331980576556  0.5590613171949279
  0.5431142736565309  0.9404753153254051  0.4650606158364910
  0.9628221758491199  0.3310352043758580  0.4626656426137668
  0.9648224534445113  0.3900123666218418  0.4480978459583711
  0.8610558389560817  0.4274663215630028  0.5186360763938586
  0.6106946341159906  0.9348972784672404  0.6637438134926128
  0.4805949047517881  0.5621401030576069  0.7384531860916984
  0.3962619165936177  0.4740771186909757  0.6702382110750290
  0.6796624608161184  0.7992415215470114  0.8257488427984294
  0.6996132520913779  0.4048273432506685  0.1814272607782594
  0.6143945874596766  0.9697637944576962  0.7712426361869640
  0.7359271326454173  0.9555024343643732  0.8160265274622110
  0.4193560334931558  0.7552613280937639  0.4798386076641719
  0.5582600174686007  0.8040562420689766  0.0027834941550857
  0.5141572088307426  0.7527895220656243  0.6089924443409152
  0.5701368119659357  0.7634640659296587  0.5803787544925720
  0.4079701270960677  0.7509135070931386  0.0210157402969373
  0.3656182745922432  0.7755072276071528  0.0598902417101156
  0.5085174816650816  0.8551060929885699  0.6472519833887356
  0.7623788586342800  0.5494836163774444  0.4425491092714136
  0.2246388694401535  0.2143683022593090  0.6829394937331392
  0.1886268185454595  0.0685795311014198  0.9256256519447574
  0.9159784272589440  0.4858922557851686  0.4053442699360302
  0.8582018371748197  0.3914725742939114  0.4111325284083461
  0.8030319652063497  0.3755197811663591  0.3387381133915455
  0.8068895031866424  0.4224066947517608  0.3831935988652129
  0.8111203696387582  0.4846707842398872  0.3663235481812867
  0.3393088902128170  0.3826953246564296  0.8923390515754966
  0.7627103434847845  0.5625916398408480  0.3843447508958092
  0.4428558622943709  0.4134574661728981  0.9729523417844983
  0.1822688108619762  0.0299829324061116  0.5514493873241767
  0.7954708943116988  0.2971628714927003  0.1885014173907781
  0.7963722536462770  0.3124046158693965  0.1306888596651433
  0.5473818967474171  0.5092463640719119  0.0399864888197450
  0.5872341608864686  0.8818833084635515  0.3834291908137155
  0.2574142132722838  0.1804587889917030  0.8690513450793793
  0.4504065495171152  0.1145083582381332  0.8905988096684971
  0.3058732619024283  0.1854029548249104  0.8290319053034881
  0.5361773473418694  0.8815287444211688  0.4823598528327366
  0.5867498573003302  0.8670250504948398  0.4469527013498534
  1.0001167919887146  0.1519486824652387  0.3536293064307607
  0.3874234988418230  0.3195316738866847  0.9401773257009732
  0.2071148830348629  0.0729448262147135  0.5923809773528788
  1.0058805212588324  0.2026873170155109  0.3975635061623599
  0.1786247488096472  0.0457250602015735  0.7582841847549158
  0.2569786379411627  0.1466666340708853  0.7635432289757990
  0.1572961178589140  0.1025686162011582  0.7398194936357447
  0.9052871660270754  0.3098063541949768  0.3936880946507877
  0.2185389544546054  0.1307309115953120  0.8662612628504479
  0.3705858230815350  0.0140355245244240  0.8876588895975085
  0.3123555569715002  0.2012011788420611  0.0533122500635129
  0.3669202313723359  0.2139242736015994  0.9563960961276211
  0.1901064432414772  0.0345796489482289  0.8216081081357773
  0.4655279783213584  0.4204767549491373  0.6503703735925824
  0.6543350314624284  0.7028000056721022  0.7784117626130260
  0.5847653685396169  0.7237113848712160  0.6948199332560232
  0.5243716656982766  0.7895136261762454  0.3931096009458793
  0.1077860802808367  0.0619469678001489  0.6747971389483407
  0.2145978369230271  0.8805941723685272  0.1459618752862179
  0.7955090082298677  0.7647690890001249  0.7066337166364404
  0.8168516805087841  0.5939423452947424  0.4005973121900561
  0.9153633318044898  0.4084525058689950  0.4834316077700818
  0.4872409789177229  0.3955705066140074  0.7734270831312304
  0.2077729415693114  0.7727195700671866  0.1190967377456763
  0.4224033613665515  0.3346075099811744  0.8378372143870914
  0.2317719146641762  0.8773403752607922  0.0563332626629074
  0.6213206439424597  0.4042798400270989  0.9825893762356631
  0.5472163643864226  0.4220347707157287  0.8976959456294694
  0.1834950908878762  0.9417037426483866  0.1388553302619759
  0.2347605917955556  0.9222198064931363  0.1027970899617703
  0.2436773378197366  0.1327225924580976  0.5309164024980462
  0.7266637492045317  0.1279814620078310  0.0409241918724565
  0.3053785419597701  0.1172877835750468  0.6189273032847166
  0.3340989740388722  0.2120969586071938  0.6645745044425382
  0.4053400696491469  0.1948218544782219  0.7481962211695794
  0.3347783019837027  0.2478669515799042  0.7698558805593806
  0.6777622846082511  0.2877422457804917 -0.0141727450507444
  0.5047468263043934  0.2715555173722325  0.8792310482573343
  0.5464135983274615  0.4476401860652085  0.0590082270287718
  0.5202342183511791  0.3649591581079891  0.9597735230926898
  0.4936657840870692  0.4631994039249444  0.0942342559914007
  0.1855384395184543  0.0466887351918922  0.4839497664900830
  0.5813667592376257  0.3140444507902476  0.0556790492735439
  0.2644808094578986  0.8212854149105634  0.0669902949155970
  0.2515860354401169  0.0110011700368346  0.6408071998768085
  0.5485212078465893  0.4943712258782176  0.1000494577739617
  0.3899346290416539  0.3398999375564358  0.5483539808938671
  0.4472373540137033  0.5403844954843651  0.1138158772146504
  0.3609827748613854  0.2766366447317860  0.6080941520677432
  0.4558846566392378  0.6041651886069694  0.0938090284889226
  0.3122428962834350  0.7433453793377126  0.0473815360334641
  0.6713525458979676  0.5706109664879452  0.9856219336036998
  0.5657703334266223  0.4649633308768652  0.6759982102664338
  0.4757261458291142  0.1697308343144923  0.3375167942311205
  0.6142220340352487  0.5009811795825090  0.7380201930094595
  0.5513786364255046  0.5098888908104753  0.7175972811401092
  0.6232517400036235  0.4894689680251538  0.7993364285919758
  0.5518752004119872  0.5267897717091546  0.2047791163319186
  0.5856600884614662  0.4397270580862447  0.7980773798676838
  0.6579837384782242  0.4183894617179672  0.8812235367997736
  0.7083755041509653  0.5747569798703352  0.8779881252326481
  0.6112529809803325  0.5358022788526343  0.8425649023015614
  0.1922646578828303  0.7946534860544233  0.9966262092826663
  0.7148283217767889  0.5650522949886500  0.9427553320668850
  0.6947188661070640  0.6197971793512671  0.9233929584284609
  0.7358999697888077  0.6708007375432351  0.9830642905850863
  0.1297370536741332  0.8772770786220919  0.0320409521821833
  0.0894930789158468  0.9093558458551859  0.0111451808783480
  0.4515156997387682  0.5878194278401579  0.1526629915119103
  0.2917568634230259  0.7362021151005220  0.9835615537640345
  0.3137593990783225  0.6225857452898561  0.0124859341780938
  0.3673581902209548  0.1779552657751680  0.8507081463431311
  0.3453885384954692  0.5741519198321418  0.4078976886595507
  0.5256803657865959  0.4470210426858673  0.7752831756073790
  0.5744001522589314  0.4842597488591346  0.8393103447218822
  0.4385275675213395  0.5833807554727004  0.9406245151311748
  0.7550149468443481  0.4612922023868047  0.9010330415804633
  0.6234439068679652  0.5230037988219154  0.8991013013869059
  0.3409866054366949  0.5421550590740130  0.0777281790994871
  0.6551108227779375  0.4614163159028565  0.0357613494200683
  0.3554198203814717  0.6543482800897138  0.1022574588343371
  0.3704527805021425  0.2284277537925026  0.5626738582113736
  0.5945961268044881  0.7109704658719243  0.7545683032069117
  0.3595129610025766  0.6981169322003096  0.1413094492158505
  0.3781387856451939  0.1326067195033599  0.8078168277762431
  0.6393580218239602  0.8244624054718637  0.5359636938660699
  0.6456990781769441  0.3880169534804954  0.1101487188874066
  0.7006541218636096  0.8443983704111077  0.6112857979259135
  0.6495575671490528  0.8422021116190535  0.6410486434984718
  0.7132590250343663  0.8301636463644312  0.6671765577595785
  0.5980629006689254  0.4499998940661732  0.1885206087612122
  0.6940440203606182  0.8726733676077759  0.7075712930245055
  0.7802976797477673  0.8804125993013069  0.6746157176767400
  0.4948087091831709  0.4737723295317885  0.0365413426987256
  0.4276716472099821  0.1696968652042881  0.8742215853136405
  0.7952875216417863  0.9489545840123013  0.8395257983829281
  0.0819536706910884  0.3193883924055123  0.7247861910378846
  0.5535581668423960  0.9580285184049137  0.0822349390965427
  0.6084460441385968  0.5734751215683562  0.1497284367327945
  0.4128266173088677  0.7147967025876306  0.2103640718285635
  0.4165945184961256  0.7590663485446353  0.2528410941938046
  0.3748932819448717  0.8822281137429452  0.3150716312613537
  0.7189226688342238  0.8168705547031028  0.7253793321242283
  0.6318256373699981  0.7602214446225213  0.7590976270618631
  0.3827525322346844  0.9585969649509840  0.2372475942588514
  0.7556151140776913  0.9002225734016471  0.8364186354375962
  0.7628832063301928  0.8867115708493383  0.8978416572213057
  0.3315571001481975  0.9743205362159562  0.2700623625425485
  0.8012647324840715  0.9382157241325543  0.9024525110367877