Cr H  Ni
 1.0000000000000000
    38.7169076500286806    0.0000000000000000    0.0000000000000000
     0.0000000000000000   38.7169076500286806    0.0000000000000000
     0.0000000000000000    0.0000000000000000   38.7169076500286806
 Cr  H   Ni 
 1596 106 3725
Direct
 -0.0024691910662403  0.8520891012432509  0.9712316252365836
  1.0008887968303559  0.1390993839217745  0.4130641457122684
  0.6042865659640750  0.5146343579128171  0.6799086449301626
  0.8998574621705699  0.1882880758419197  0.4221313003786434
  0.5908623544360171  0.5605565896001289  0.7224115213491026
  0.9055912030942652  0.2495670633637717  0.4068595984344621
  0.6292361133801763  0.6081384719443237  0.7271624721061443
  0.6387075409714198  0.5973468395404153  0.7895423470792228
  0.7374373303203681  0.6393891925706089  0.8183657921368881
  0.8556091437382713  0.3152859682337996  0.4847461174613942
  0.5393749943722986  0.1678627480271163  0.8550193573311622
  0.9067018488156181  0.2969985286459422  0.4535799608527901
  0.8027700214747975  0.3445417984887135  0.4607529251544010
  0.7300309393790884  0.6711127982738164  0.9203095885419341
  0.8131598316937508  0.4481020171656863  0.4905472999937848
  0.5616843282434962  0.5814733594268024  0.5402305167472212
  0.7517477681825742  0.7467673652242587  0.8030402942698475
  0.5567016817983385  0.6393044954683751  0.4590948148116938
  0.7747496485713482  0.6897669769925915  0.8214595972217360
  0.7047309401161646  0.7085154577303996  0.7355762167265694
  0.4820992715993153  0.2581201651107521  0.6524854595208325
  0.5782213477636781  0.2152821683167166  0.8640435065083883
  0.5926081709181267  0.3238868357281748  0.8435031522797003
  0.6895669489956771  0.3285750804376903  0.0301260423100398
  0.4659231180607105  0.9539100944343891  0.8940392444864683
  0.8609279148114101  0.9553947665679595  0.5105991255816450
  0.8639854090315324  1.0061485240492483  0.5507174972573445
  0.8645970883278257  0.0662583926915944  0.5373851579960942
  0.3690136166711478  0.8039881706380084  0.3923420391947905
  0.5539683578776424  0.5899213102261113  0.4173558846797253
  0.4189977021335199  0.7900913709068853  0.3569745247952003
  0.5162053334314697  0.1906329274718798  0.7316048597393907
  0.3666820002926286  0.7742921692904134  0.2881251709743256
  0.3158373451572457  0.8042342897549597  0.2611178764835227
  0.5707305290513324  0.3168352587738040  0.6153181877524371
  0.5120725213772587  0.3224475245757863  0.5936253652926586
  0.2690447065334416  0.8664634631100802  0.3407173439409426
  0.5819591145754113  0.3028554123268074  0.6772369886157256
  0.5607816942631696  0.3613589228384438  0.6572866360463304
  0.2196524261606680  0.8974657631684583  0.3136084808876452
  0.2750671185348781  0.9279724689217840  0.3244560785520295
  0.6705550664231239  0.3726951551753150  0.8403658528976937
  0.7083755175739873  0.4216296063388771  0.8428344517763888
  0.7755456282357837  0.0674086921195071  0.1958401415271065
  0.7039625171883797  0.4589368316876883  0.9399626306717080
  0.6462863938943655  0.3892329844966559  0.3363759457956522
  0.6902372277355714  0.2806489960902203  0.2132570918511663
  0.5441824096602558  0.2845998916660351  0.7793426867013025
  0.8064029795024190  0.9128116846841411  0.5671513957678564
  0.4122591544419720  0.3120559629645714  0.6725885542623227
  0.0461611605409323  0.2162568243415786  0.0148002357482012
  0.8599999666193384  0.2357236872234157  0.9456189156766022
  0.0340221987380841  0.1274732687272376  0.4670411151106966
  0.2972101207793356  0.6531771347230874  0.4241030137464883
  0.2507488813202206  0.7304860895454602  0.4401879024960548
  1.0122741013850407  0.2341754066103407  0.4983569692303127
  0.9607399707901151  0.2018705549476841  0.4944090189480619
  0.3139592314760523  0.7456681382058843  0.5094241346573337
  0.2141333182382873  0.8033933614168354  0.4511998635401104
  0.2208906990287493  0.8537811879266949  0.4962239918733974
  0.9883383591842455  0.1947139614472922  0.5514738580384826
  0.9709073122988039  0.1270826623527056  0.5578899204577735
  0.8699423811065207  0.0911597719413177  0.5898623525658260
  0.1685330491836719  0.8809133498604944  0.4740830996922678
  0.9101390522627361  0.0343701072287664  0.5724552547830526
  0.9710414259651400  0.0198796999672066  0.6572865303685318
  0.6634826077485879  0.0631417153951035  0.4603514694645992
  0.9879489222108874  0.1109829015071851  0.7377680659261425
  0.0477540960917591  0.1042233942398485  0.7578448649236136
  0.9302930892021914  0.0044443666077837  0.7598111748934570
  0.9579035627861144  0.0510796750122660  0.7961528899406536
  0.7669762112211168  0.0083352977834407  0.2148094499542030
  0.6724585154965024  0.4068365019324038  0.9501034085392114
  0.3541100661141945  0.0789054834508991  0.5318462574863972
  0.8859501138559683  0.0941852581873594  0.3347554958927647
  0.4149433360655543  0.1103040846752503  0.6018570628433858
  0.4263255776453051  0.1027169692488880  0.6632536348339795
  0.4656956360110861  0.1507730450671776  0.6644831335281663
  0.5061873753425227  0.6205059175129880  0.3912981623175588
  0.5113967723878080  0.6495899746597766  0.2636622113013609
  0.5666053166046237  0.2274418466266398  0.7992932802081991
  0.4561882322221264  0.2775543001984860  0.5279403667186156
  0.8596793868074446  0.9487590737695303  0.5734751258654522
  0.8189684928197150  0.8942692578265976  0.6271882458953668
  0.6328720778553989  0.5788384923971805  0.6213408906774029
  0.6725793214748795  0.6277254597284655  0.6270013992970214
  0.6595066361099142  0.6367305728768592  0.5001131920761808
  0.6600115703870685  0.6722976706430159  0.6743812430448600
  0.6670290899148309  0.6579380955052166  0.7339965148249448
  0.2608175045294469  0.7894234917803226  0.1905117425537272
  0.5359370982909829  0.0459938147838390  0.9388085500577187
  0.8645212491446844  0.9903971790801911  0.6760830425388541
  0.5922783989861445  0.0081089740279825  0.8531429909075098
  0.8509846650831121  0.2830558544710839  0.3796364925419246
  0.8939076449413377  0.1566344089296255  0.3174017655363136
  0.6488544360893637  0.7014631334719902  0.5556263289458944
  0.9364860294239902  0.0617620419752524  0.3616111223496171
  0.5656967603438069  0.6792728912131779  0.2714529046403678
  0.7182720995911469  0.7189396996417162  0.9633354340065027
  0.5856552749534331  0.5338357372380547  0.5566670377638040
  0.9928353473598883  0.9493705933487276  0.7400588846453072
  0.8810669288710544  0.0028458602688074  0.7965888660581291
  0.4401404172565884  0.6646545983102942  0.5374086664586649
  0.7002650030591760  0.7876713784855338  0.5627877029142743
  0.7810338908515014  0.7846671621041758  0.5854673791158480
  0.4746454683769705  0.8043734875815292  0.4279373816586675
  0.8233930662245881  0.8368743373727406  0.6492029552018164
  0.3798115132164870  0.8958192103000767  0.4837672534713157
  0.8383895311640335  0.8795844894543948  0.6954392844589699
  0.3298082179748992  0.9283924592672914  0.4593716627243115
  0.8494403378702527  0.9451189033881965  0.8579591799737704
  0.3362105642823915  0.9882685317130756  0.4426723219852307
  0.9482200363888490  0.9826057628299234  0.8845479590376183
  0.9302034661940016  0.0162868960857591  0.3173164598297119
  0.9540665404459275  0.9711886307012744  0.9475721166957378
  0.2691633075758640  0.1983198321461648  0.3755852814611591
  0.3802952021057406  0.3262096881554544  0.3802350023745237
  0.1862891026394900  0.0618652541458352  0.4222200774905461
  0.7120704724680778  0.0118970197350500  0.3148692821887325
  0.5391140469909608  0.2943292665770234  0.4420492299084355
  0.9668427729608996  0.3005467300426698  0.5838182568255542
  0.9721391007481407  0.2542743806914101  0.5378614423323672
  0.9081712833480119  0.2806461490800826  0.5120943835313142
  0.6528158980159925  0.7031079305776220  0.7772514867377812
  0.9130419854940058  0.9725059147023738  0.5895002685187861
  0.9724763358836946  0.9460096438989221  0.6163304637912299
  0.8508904019954107  0.7829817069134934  0.5099005295431965
  0.9609608014033232  0.8466522303512847  0.5240738019600808
  0.8722502513077320  0.8363413185581134  0.6133460955574367
  0.4841470702039311 -0.0095426014807009  0.6667768426212176
  0.9213639268278899  0.9153248014064098  0.6106948709758072
  0.7842646314454108  0.2907936768496621  0.9629145767338463
  0.5173052677064286  0.2415467213323682  0.0007632396869106
  0.4630819167570677  0.2558543368063231 -0.0187895510210850
  0.5058837213847009  0.0662896010794062  0.5232740863961622
  0.5056387321614820  0.1249806059921175  0.5106518337212982
  0.5284918011502340  0.1021394632540713  0.5793358808731638
  0.2901591949424751  0.5089552437371674  0.0681646024263903
  0.5771561085645671  0.1476240404214108  0.6469835278087543
  0.9387102993314624  0.9102987877382306  0.6701755757099882
  0.3008609463473087  0.6187917494353850  0.0890705963189928
  0.2428056654887456  0.5356379852640475  0.0442409289336268
  0.2111664444808124  0.8186558267745826  0.1620756962104892
  0.4503988520623768  0.1141499154805744  0.8918240877769666
  0.1465365683004972  0.1114535530075748  0.6771597100603644
  0.5752290836083517  0.7588123415187770  0.4195424077036028
  0.5837952796799180  0.7238948333739988  0.6949028656373252
  0.9678595749800059  0.0376412074818614  0.8611325899079489
  0.4655540021950052  0.4195981781240567  0.6502000669972241
  0.1887650628652862  0.0335076501852674  0.8232288403056508
  0.9647807454708232  0.3890227705094692  0.4489987635865421
  0.9627760618789359  0.3286698296357711  0.4629178556449390
  0.5435102047592888  0.9403689476830304  0.4640202989760229
  0.5939813781513816  0.8959148349988006  0.5567430753350633
  0.4832645497205176  0.8351742747183305  0.5361817370004343
  0.7382046812283733  0.7250009424606377  0.4808199724799306
  0.6783837706050245  0.6933986277070043  0.4742286259059293
  0.6538686346630999  0.9879789103111540  0.5447262772715694
  0.6495464801652645  0.9281857789415904  0.5645315979890372
  0.5927650857987461  0.9105984635837492  0.4919416907355992
  0.7113259618016421  0.6247266968838925  0.4664979854604317
  0.8116255361182700  0.5768119290526137  0.4649780498888114
  0.2460249841126238  0.0613028140452603  0.9531871775007282
  0.2311932933144323  0.1175948954069305  0.9299561808495136
  0.8509972849652637  0.2970548971811901  0.3202733877421523
  0.9026445539678496  0.2819859529977907  0.2850578504212747
  0.6904488662071685  0.7541150624982960  0.7789374425190593
  0.5359144923607798  0.5855302902289869  0.8730199753293758
  1.0348206479753763  0.0068897543491846  0.1880195431321266
  0.7606632650031551  0.5308792705349895  0.5598449410675223
  0.8249708161009265  0.3071433381229951  0.8643127622099329
  0.4204766291080364  0.8050112169406651  0.2949304751260319
  0.5225695901840333  0.7582722795703558  0.2870304596809545
  0.8610117226257781  0.4280599183117624  0.5192677026818697
  0.3662858007920298  0.2130664922281394  0.9574148808944730
  0.3076289162808639  0.1558531213747881  1.0056058464735176
  0.3398090442415785  0.1157771016762806  0.9119321283676594
  0.2172627675453845  0.1293136092131191  0.8678879952020234
  0.9051385361570569  0.3091215372056770  0.3931853688365617
  0.1587838199647329  0.1016509197653330  0.7398116285683707
  0.2570155398668743  0.1460283390488329  0.7654733521376723
  0.1775704156071130  0.0448032005673109  0.7593056236261521
  1.0061894693374855  0.2004932697440399  0.3983028782885849
  0.2078128300342076  0.0696385698059163  0.5948997587960091
  0.3867365101931826  0.3209116670562235  0.9416487827338588
  1.0003543322674768  0.1526815456477245  0.3535436269200513
  0.5868019613965882  0.8665908967529580  0.4479204678429320
  0.5361468872190466  0.8806066017677219  0.4819079679019949
  0.3060684937366301  0.1845754646835736  0.8301501735490707
  0.2477309263079300  0.1913784349108647  0.8087648166657433
  0.5811736477996444  0.8197823110424696  0.4010419387456925
  0.6748494261876781  0.9639079016154034  0.7929298699474098
  0.6782611507952898  0.7997730248188406  0.8244159322425716
  0.7053388348062861  0.8609419272299601  0.7681602832345606
  0.3964235042825122  0.4734368548304855  0.6696353426194807
  0.4803290421984904  0.5613922134133614  0.7398978813373229
  0.6070089494091658  0.9315099435292069  0.6652640687255839
  0.2649855372738156  0.8357184867946059  0.2330993163248745
  0.2537964079813522  0.6941051230903603  0.0997536823835820
  0.4436726639784378  0.5120937702488273  0.7342779881112222
  0.7410418259117347  0.7586043805430720  0.7418069276264834
  0.7772843000530262  0.0824414406451929  0.1297816739797901
  0.6076225424527478  0.4804449450147233  0.5779869238245774
  0.6758310129390734  0.4593511643925319  0.6528901227525810
  0.7525796247217014  0.5636290682170504  0.6640402922460236
  0.6815271362101600  0.1886217295406216  0.1230989682635898
  0.7500516738240837  0.5937141794714793  0.7727411477407357
  0.8179799111624468  0.5751445595122799  0.8591699742781458
  0.6852881854608623  0.2337415789446280  0.1678130729364195
  0.9949899425081664  0.6581483914941660  0.0113870678118747
  0.4865872198502311  0.3714433598577829  0.2328952449539124
  0.5923745386747218  0.3876120355858707  0.2069840964677972
  0.5423554556465359  0.3864677036957090  0.5315082065779887
  0.5469241144736186  0.4654190961042253  0.2248789417665529
  0.4537666322511035  0.6019667620436034  0.3187361198616555
  0.6414871477825326  0.3978822356699239  0.7206989690475484
  0.6869129836657548  0.4506182399087325  0.7198167212109780
  0.4508248685477999  0.5719774827005534  0.2129302577453773
  0.6370390206737097  0.4429123629900407  0.7596804122498205
  0.4545453908001061  0.6178348990401448  0.2561115820064990
  0.6854314290373335  0.4821176999735116  0.8221214188709753
  0.7186264644346468  0.6647338609691839  0.6920612049708947
  0.5413970607326164  0.0038298417703102  0.8928583327859605
  0.8996559583148345  0.7998850142656443  0.7949421102467795
  0.3540059163369970  0.6658698577244273  0.2635759006125743
  0.7326135672921475  0.5185578545482691  0.8842600145185495
  0.8121794064094572  0.6077926381660385  0.9690534831513635
  0.8773286019985685  0.7204034112732944  0.9105158273190694
  0.1560022860850971  0.7892638773050877  0.1520313500580347
  0.2101040750688595  0.8042779529118572  0.2233790776687225
  0.8841465477426148  0.6900711036529366  0.8066408204422155
  0.1610081858858134  0.8485255410687116  0.1352078358167265
  0.8549635549378350  0.7435681818216022  0.5611630251667962
  0.8008197761474594  0.7328235283996148  0.6006062397134440
  0.1655448511012895  0.8989442137530274  0.1783722514925643
  0.1188728153134409  0.9203947063336529  0.1410677839380593
  0.1326840264954780  0.9618976799307548  0.1784782619566150
  0.8862885323066449  0.8257750327039186  0.6744058067093210
  0.8903590332863947  0.8117493299586984  0.7333208117435802
  0.7116167610550324  0.9935077198788860  0.1429821265527171
  0.6710728333256131  0.0958105615921627  0.0291310780861926
  0.9703442091176513  0.9267200087355315  0.8976828093400062
  0.7696067737605211  0.6407685446999296  0.5453441858205719
  0.7095641505241000  0.6674496934308597  0.5148714042482633
  0.5784415466856743  0.2540635609284855  0.0680213335788112
  0.4881042618081223  0.3862187500460336  0.1719043091284665
  0.8281699392008227  0.5616453940831263  0.9921152636449114
  0.9653388896013066  0.9553418402638956  0.5572092199035650
  0.9122869377951999  0.9383983159887442  0.4821790001666736
  0.5137815109074484  0.4904617997723366  0.8172191493882349
  0.6147700430370172  0.2329266476409045  0.7592555357167445
  0.9902730774546021  0.8653491014701978  0.9139729120453879
  0.6074786371643994  0.5450069243006513  0.5057840689729330
  0.4459250890650698  0.5249037482321551  0.1727158490589729
  0.6821283581179295  0.5849819692375265  0.5817405876498810
  0.3445044466081872  0.5731161626266666  0.1814053739778158
  0.3499381715851805  0.6193905302794168  0.2228034091246255
  0.8381562567090629  0.6504856903728203  0.7388521828728039
  0.3562663790355092  0.6806390219464162  0.2017898453426809
  0.2553119467860466  0.7273782315706776  0.2080595601590738
  0.5610789290398522  0.1105068488056551  0.8739341692389959
  0.5543527311254891  0.2043548511287155  0.6331611688822902
  0.3973802254499801  0.4405457041030130  0.5662388966185206
  0.5742843803698116  0.4331408304366922  0.5689004647733439
  0.8944219086006922  0.1875722572652018  0.1942841649771508
  0.2596886506338354  0.3953869123559891  0.5449555544960092
  0.3419361481471284  0.3321936936688297  0.5886057399745486
  0.3562383295223794  0.4237899399148170  0.6664087044525296
  0.4171498812148416  0.4148657879342695  0.6891909295300503
  0.7530926373470324  0.4044111803653011  0.3132778989323496
  0.4153119661610089  0.4475411049604889  0.7923005072121049
  0.5034725165599186 -0.0079675473909504  0.9951596592044296
  1.0210107543058391  1.0022808644104551  0.5020302073237820
  0.9765856007340123  0.7592790293437717  0.9180193744830973
  0.6755280016441159  0.2268141880017165  0.7793119213760313
  0.4859537630293362  0.2208372045854066  0.5494995182836255
  0.6812035086769593  0.2437511189285343  0.9438181731675568
  0.7020797825015993  0.2015349541871486  0.9037418643653985
  0.5682399672240193  0.1554134527282706  0.9785872237066433
  0.5883382166732445  0.1708987557962422  0.8173449730671664
  0.7178083066066898  0.0186614439962709  0.0131000322184764
  0.6148412477076205  0.0633631310779141  0.0221530171751487
  0.5890999450864003  0.1376146161512087  0.7088033043743911
  0.5452491017129589  0.9858366805757228  0.6892290013246154
  0.4890728616313277  0.0941023631018655  0.6847211222782880
  0.4796769903314260  0.1032066324986282  0.6229084952133883
  0.0211151329514208  0.9681257315718461  0.1513239037666760
  0.0644934173057857  0.9055631421981103  0.0764612556166376
  0.4934046099598408  0.0507385299660283  0.5806138578026919
  0.1547320440655769  0.8070527538440972  0.0878137960318613
  0.8662114997548850  0.4347249299585613  1.0038188826130523
  0.0937051888229909  0.6708496947650432  0.0638776849899598
  0.1999272552304311  0.6145938049123930  0.0473507680342038
  0.2602123194951342  0.5863330736248912  0.0138259883846229
  0.7262436160362294  0.2628379967026985  0.8446940873531155
  0.5545340303758532  0.2404060714548688  0.7369216517673427
  0.7575531259478163  0.4841333976545523  0.4588970048061553
  1.0197663807407211  0.9844538978043060  0.5683728750590424
  0.1719254931591765  0.9446063339852527  0.2232466626410428
  0.4381575170084027  0.4163460892008265  0.1461705260895393
  0.8400060460927586  0.3944610660589469  0.9479352090585524
  0.8621651458651740  0.7467838726342366  0.7882811739201691
  0.9550871450454923  0.8129863211919860  0.9491867782653493
  0.6583563525711734  0.5591377045435949  0.3469805323883965
  0.6016555125527072  0.5697820453992393  0.9630742978094827
  0.5488372722570714  0.5718903728642341  0.9389544282513758
  0.5591714738042991  0.6195931861717092  0.2908704426667205
  0.5568490026383248  0.6220016790534162  0.9895393574338164
  0.6122951840699088  0.6359112088895226  0.3630253239720563
  0.5688507837516612  0.7132379921313409  0.3768056887238653
  0.3517123968562330  0.3194360347411557  0.6498909827070914
  0.3171096088386253  0.4047835907140933  0.7687065610509018
  0.4810958004695693  0.8641920705505912  0.4117118556385918
  0.4373672933075110  0.9562062300330590  0.3683624877666489
  0.4134351337439043  0.4847065823521177  0.8943440601350063
  0.4358900577154698  0.4273841802184924  0.9152071324777333
  0.9933130789995580  0.1077681349984115  0.3089479681985707
  0.4854243742916921  0.4805381685050983  0.9734814497140719
  0.9483964178662514  0.1857375145067731  0.3271322175682729
  0.1533303218047903  0.2306919244263173  0.6002908701840773
  0.1749409865743745  0.1730590901657443  0.6172233807982185
  0.7533726423448706  0.4202332168306459  0.2520982532433971
  0.5841382287916562  0.6249492532956740  0.9382957325834690
  0.9543740886790948  0.2485834434471114  0.3120020274556901
  0.8586829668317061  0.3913879288977335  0.4111923599110670
  0.9390030090241739  0.1085999645474105  0.1762209233691679
  0.6542983008818164  0.5128506396917240  0.3014077671609563
  0.7023096647764656  0.4357475636100986  0.2857858942289327
  0.7449761608003302  0.4739608736355336  0.8411812251302492
  0.9680822142630821  0.7725563178101040  0.8502795309179827
  0.0905154731020381  0.0197422654018922  0.2580866026938954
  0.2069665911491200  0.1062966823253070  0.7005921784667618
  0.1277523588189554  0.0245256028698719  0.5347373251144711
  0.7339471115875602  0.9556116023119037  0.8139026166219780
  0.5490689997445960  0.5077744524959676  0.0411155911368572
  0.4196147343943188  0.7556043418127953  0.4794220137212690
  0.5595633623125368  0.7996488943844436  0.0038030964757737
  0.5104353336531167  0.7539285461503408  0.6002036255993958
  0.5502361285127726  0.8021959284448997  0.6226282093041025
  0.4073604723657243  0.7515955627853601  0.0186574488514744
  0.3626927553543809  0.7765676468851255  0.0552061867203306
  0.5453624129579117  0.8550445058955221  0.6051950919551391
  0.7614987205390628  0.5491680132630985  0.4420278877831267
  0.2248625717121777  0.2132800922925930  0.6836558221030532
  0.2372381447483045  0.0734477996000017  0.8890031862866061
  0.9167132196797995  0.4836941750368829  0.4034177989208838
  0.8028669082545630  0.3752561453701047  0.3386425763142484
  0.5880982753119662  0.5937795174306024  0.8294200405036528
  0.7556771438493094  0.4514609747470008  0.3554274690712765
  0.5315235995685951  0.0145551143778518  0.8302187919493712
  0.6217228477398424  0.0809583209228817  0.9613692894701678
  0.6624861820902724  0.1499288706129478  0.9007856555816662
  0.3909237029569181  0.4933450048654133  0.1641583600527720
  0.3830022670048832  0.3990017723169114  0.0732636268436529
  0.4831798029908169  0.3549895970295448  0.0638184740652724
  0.5210092256022064  0.0269945244525419  0.7663292153969796
  0.4391943136778700  0.4306905414747099  0.0831849458210644
  0.5595506284730981  0.0751812862877877  0.7697969454144907
  0.4661126331416711  0.3087319217131776  0.0222625675514432
  0.5098318079041746  0.3058313777304220 -0.0149736378184310
  0.3891792768616839  0.0534271493633217  0.6590707891485603
  0.4392631720392710  0.0589732520447308  0.6171386890614596
  0.3957651414747836  0.2418703957536653  0.5146617283113203
  0.5493005700890917  0.2233004589904150  0.5226427307101918
  0.7799293417314409  0.7095497641358284  0.9889698835779943
  0.5144088329185309  0.5397206365474297  0.5309564293806953
  0.7524428122805319  0.3888999108517244  0.3725195422000041
  0.8341426060042553  0.8364977006665875  0.8770892143651546
  0.7566290723633645  0.7147861090960723  0.6968626697368684
  0.7787029793213037  0.8079733349828156  0.7468081850415396
  0.4093982577862273  0.6964819971242038  0.2711130099486018
  0.3904846571367654  0.4615812726451137  0.0585122924816419
  0.8116034027059960  0.4842556455002144  0.3654132675811807
  0.3988281112187588  0.3764162512452238  0.9159078809082254
  0.6119167312064495  0.6864640530458072  0.8799909623884987
  0.7627440793466026  0.5619411899950381  0.3842119339366460
  0.4410892544502992  0.4164839247019940  0.9712792644425691
  0.1825667225677308  0.0192469730279046  0.5557766567766215
  0.7957423161754420  0.2963100651802471  0.1889415455086579
  0.7957158334562257  0.3116322547146837  0.1310321128329595
  0.4748533099476556  0.8350930471956396  0.3052188322261257
  0.6993485008567113  0.4044283311081993  0.1820966914988291
  0.7620186597100419  0.8789734819442007  0.9676452907924564
  0.4562382709601077  0.5065404663393865  0.5193307147762607
  0.6471859906006934  0.4036681330401480  0.2777385967805670
  0.4834718252149126  0.5304247554066405  0.6334003210838650
  0.4505543367253106  0.5631673064914801  0.5039955469642999
  0.7027095732561273  0.4508952826627904  0.2258049850096745
  0.6006414385937505  0.4961390714105697  0.2330772248797939
  0.6111584371258776  0.6041765511506133  0.2565304645400576
  0.6573044976860546  0.5274531141773757  0.2419845079297437
  0.5762262068317613  0.6049201662181424  0.7679686452205539
  0.6148077954481407  0.6527358627156788  0.7744043355658365
  0.6267987829130436  0.6424607621020405  0.8375521824496184
  0.6640190832768437  0.6919319241455828  0.8376171277815193
  0.6024212811807236  0.6988679652524356  0.8183629565006468
  0.6710509954784536  0.6796580478921036  0.8987475508394439
  0.7933984677971198  0.7659406035199706  0.7045750816798062
  0.4368824662681229  0.2731923006306104  0.4667983878533226
  0.9144300384725983  0.4067152707131913  0.4835382163844504
  0.4054577560228594  0.1938531894557217  0.7490708382846027
  0.3351890586866582  0.2470329937928970  0.7705019503311553
  0.6779876926625024  0.2862688962156056 -0.0142752133078305
  0.5044065124189135  0.2707090806752177  0.8790617976995964
  0.5463862419855596  0.4470818350323775  0.0598998494749718
  0.5206145822102627  0.3645217589963813  0.9587762395807596
  0.4954085382936517  0.4613870502888445  0.0952361824385163
  0.1809104252954536  0.0430679691922368  0.4876338830967172
  0.5817145884881636  0.3145988773944349  0.0557670901462733
  0.2523292571419841  0.0099466478352432  0.6422676590393239
  0.2599609286939012  0.8160494017458394  0.0643631298829503
  0.4873108495723387  0.3946954429869713  0.7732579714149345
  0.2072184167228238  0.8345499977552614  0.0997731222923898
  0.4224661348425873  0.3345593283133478  0.8377873448003239
  0.2734758691009191  0.8705305214795369  0.0381820244015175
  0.6205931516581635  0.4036098615876869  0.9836872313838563
  0.5463908968626668  0.4211286127631239  0.8978859792828195
  0.1824923652088154  0.9480280580592212  0.1452147084256164
  0.2328386382905640  0.9328021275734368  0.1123619305838914
  0.2386877704174383  0.1314459461870026  0.5349433112894061
  0.7261212438670280  0.1263907105925497  0.0405762433425047
  0.3345036634119862  0.2111786394851983  0.6655252642127291
  0.3057410090218343  0.1162094146008862  0.6199468544877688
  0.5497367620762400  0.4928550255031223  0.1008699025789521
  0.4521169451734132  0.5880313935463278  0.1508189350246235
  0.4494519230136226  0.5393030954593238  0.1137578541705496
  0.3617308643227610  0.2752454216414644  0.6086647800595461
  0.4562724630201444  0.6025041179144266  0.0886495418446299
  0.3098858445438186  0.7394489058052440  0.0437315764804837
  0.6719233547220177  0.5696070792573162  0.9855124966961637
  0.5657205334316788  0.4641198335228888  0.6749391688919167
  0.4748516141715727  0.1686077345286091  0.3375068087361975
  0.6149269532861844  0.5010152481013362  0.7387499961300759
  0.5532808557806154  0.5094872911464061  0.7170271034520982
  0.6250448249240548  0.4891754906825104  0.7998955653595505
  0.4435624249055432  0.5043820411470447  1.0098931198479628
  0.3445280457036363  0.5743139986230761  0.4073660993657150
  0.6329986772529649  0.4749370856357943  0.8601053986651822
  0.7085581997363372  0.5757888429592688  0.8777871122926747
  0.6106030173396622  0.5360833735630832  0.8434947750048699
  0.2043835476636444  0.8005367080622179  0.9913677743314208
  0.7147510605662988  0.5642691330633056  0.9426804004775601
  0.6947625921428737  0.6199401729488183  0.9233117863406511
  0.7334986455059351  0.6689428404246749  0.9819682662000562
  0.1570053406888176  0.8685522675812243  0.0575152877132205
  0.0926136542145766  0.9040134715978607  0.0216232753506982
  0.3915039518376537  0.3392627140812923  0.5492427806108404
  0.8041058525394791  0.9032409015180466  0.7942257689954092
  0.5866020049089762  0.4392874551051151  0.7993422197464710
  0.3666999592849844  0.1775160660434079  0.8526078215977417
  0.2886216020852224  0.7401034029875804  0.9819594767379964
  0.5262092277332839  0.4459391294145714  0.7756003024018154
  0.5741201425841228  0.4839728272820125  0.8403242527171594
  0.4215095478966281  0.5902345269831164  0.9649632461212257
  0.6937306387371948  0.4680445003725990  0.8804179374407095
  0.6223892489704356  0.5194454578733864  0.8998401648681260
  0.3535377093556092  0.6007754812193978  0.0597722359920034
  0.6547558868391415  0.4603924010665954  0.0369064820471461
  0.3542105829113228  0.6487908382765578  0.0972815818157110
  0.3704121958759077  0.2267456071120517  0.5624010737775470
  0.5934254014887491  0.7101743631420047  0.7553539188206334
  0.4103406883007717  0.6797176757649139  0.1036313592138110
  0.3778560444099782  0.1320372217563379  0.8094357413324865
  0.6396855021740319  0.8224039397353066  0.5348397368550428
  0.6945694536529864  0.3579441809709857  0.1361573866848759
  0.6991363775659836  0.8421419289723469  0.6091193157671552
  0.6498420299023755  0.8423151951168174  0.6399779369216173
  0.7126143039160562  0.8302943500420213  0.6658513424502397
  0.5983696337975232  0.4499039159381932  0.1898039617674627
  0.6919085736798170  0.8720843935589270  0.7045650687136901
  0.7934744098087979  0.9137111740311047  0.7272680669163341
  0.3072446075638926  0.6265518974071270  0.0214167965889542
  0.5512905568508580  0.5256706639458030  0.2055542133551030
  0.7920793779624706  0.9506355606517303  0.8356664861061410
  0.1821128369806754  0.5113523259699330  0.2570019758523684
  0.2397897540459326  0.5884114068515622  0.3109414040355587
  0.5575589061011198  0.5878358690226095  0.1851794625585661
  0.4119334144545982  0.7119952240199138  0.2098094252708413
  0.4161826450653059  0.7583240961944357  0.2518254904739496
  0.3749935469180259  0.8819384091575881  0.3148464006694208
  0.7172660962900768  0.8151606432799722  0.7246548138457394
  0.6685907362055012  0.8120095342546384  0.7624577361747715
  0.3261052942154090  0.9287181583791891  0.2263265851839823
  0.7542263774030639  0.8996430674465299  0.8348979412535629
  0.7622568742090473  0.8875712381876750  0.8972172545379112
  0.3325132111711332  0.9767908526035732  0.2759475385038085
  0.7985245510892078  0.9408328999122222  0.9014646604551299