Cr H  Ni
 1.0000000000000000
    38.7169076500286806    0.0000000000000000    0.0000000000000000
     0.0000000000000000   38.7169076500286806    0.0000000000000000
     0.0000000000000000    0.0000000000000000   38.7169076500286806
 Cr  H   Ni 
 1596 106 3725
Direct
  0.9326157744005182  0.8531393091977091  0.0095249110557459
  0.1751688883408631  0.4186829955311833  0.1699808556597974
  0.2161762537107176  0.2319142730058913  0.3492950069268094
  0.3138166062261688  0.1393946383572183  0.2938491757689180
  0.0039971712365898  0.3010733916009058  0.0293730782706424
  0.4053197936586238  0.0350924433798739  0.0673668430623055
  0.3303808056225123  0.1677502946489763  0.9508101877367625
  0.3125025128674745  0.1898623701224390  0.1116990772569499
  0.3794867169185005  0.2444483536545149  0.4541770913308905
  0.4020817867691716  0.1276204972015673  0.4758378431384310
  0.1903141995985416  0.6255947690025346  0.5167511803769749
  0.4074732198895775  0.1429024879998661  0.4168638125977828
  0.4477161186296534  0.0292350571667463  0.5157652901275709
  0.2209902231474916  0.3581139514456842  0.0893010965129969
  0.5000056953125417  0.0317793035009632  0.4191435152006874
  0.4422431147706626  0.9858777248847900  0.4765943858284052
  0.1320570341959771  0.5836592499739058  0.5022491912350689
  0.0759442531674405  0.5657724373692898  0.4910129952326355
  0.1304552407438134  0.5403527893374654  0.4626537930008189
  0.2099732945815705  0.4609012645787477  0.4969210991997795
  0.1395965623969019  0.4723647432890166  0.4805026570039423
  0.3617477949530059  0.7285885336418046  0.7284164293782925
  0.9189965864119961  0.0917716044769357  0.5502862545031925
  0.4946025909942243  0.4313684412306550  0.4409606130688781
  0.4712069764041820  0.7590928169594229  0.8196296803072692
  0.5594416906008778  0.8136372147655911  0.7829261892321916
  0.2608951822019221  0.7519504374507813  0.9172572106991078
  0.4837881227850140  0.7476170107214724  0.8792089591610152
  0.3604154768521594  0.7999404528134344  0.9462892699378967
  0.4367809164114569  0.8291982151147671  0.7405266721387946
  0.6142582534614365  0.8192634047053320  0.6468413232617496
  0.7912284863557381  0.8200670021219718  0.2438309148775882
  0.3213781360505015  0.7522158008427031  0.9366583689971723
  0.3835064331492729  0.8229734691269758  0.5569121715134765
  0.2820641537023283  0.8558193656940148  0.9657166428266878
  0.0302955609182856  0.5487576591206270  0.6479438650263601
  0.4032147647829012  0.7468745348779346  0.6300302240277740
  0.2669522750720512  0.6525781545772947  0.5909499848893600
  0.0776566629986356  0.5871028529544249  0.7096798071941425
  0.9908518914355290  0.5323686242983757  0.7477723229399471
  0.0882050712415438  0.5757229221947343  0.7705037782257154
  0.2493337777506523  0.7652112942972281  0.8525148679762744
  0.2287794981833630  0.7867316879421600  0.7294624435568238
  0.8286854458775542  0.7025212072752280  0.4169879845136036
  0.5480899453255771  0.8916429097856684  0.9316780556625075
  0.3811890532453110  0.8517723368803032  0.0495456201855874
  0.2752846170536218  0.3555092647191644  0.4501490476088816
  0.1062908382504174  0.7825276618869280  0.0772026992894802
  0.0114799322534146  0.9460016848619398  0.2833380880997164
  0.0652735447035607  0.3579043120982511  0.1515453036047255
  0.0080416599546020  0.2952241917434101  0.2633598134046529
  0.9170261954391697  0.4693669690054901  0.4612720852400326
  0.4325349623539964  0.3254947907011620  0.2829411590455733
  0.0155514926600156  0.3747807107173031  0.4158978478622911
  0.0673277463288452  0.3729257904420447  0.3170407004382012
  0.0637054081398341  0.2936721643495948  0.3954479882405106
  0.0091315975344663  0.2640682595323935  0.3878976399437760
  0.0596196391652707  0.2474241900131141  0.3503642155183564
  0.1617718308536736  0.3377264831108984  0.4729717528330754
  0.1101475682248669  0.2158608440240759  0.3744593476650923
  0.1194194972370671  0.3719332651204737  0.2214362217825109
  0.4556430440668751  0.2687796861591888  0.9195712047683152
  0.0550382006532923  0.8190287593442197  0.2246920747204633
  0.5411628656594991  0.9580372050321312  0.1689955754593421
  0.1981481887380349  0.0498656972457520  0.1679524582270382
  0.4230805962497818  0.2176185212473980  0.2518292578509085
  0.0635932182454719  0.3425461663936185  0.2119374364547904
  0.4786153336180108  0.2650122742608117  0.2027337436825994
  0.0554544902096555  0.2489541615258425  0.1212554169518871
  0.0513750674414585  0.1881482364832921  0.1352750423312581
  0.2162164928076205  0.2801652880112556  0.1671969100617450
  0.4282260250714792  0.2645610368359531  0.2983349988325825
  0.1625446021295805  0.8669291509836390  0.3080625121584599
  0.1240686692681418  0.9890963140869985  0.3691123474439610
  0.4680292750489704  0.7125051368352997  0.1112646768743220
  0.3011309698854107  0.0685056533835154  0.9099890532364545
  0.2497007344626962  0.0297122048688773  0.8431457754642903
  0.3517376851478252  0.1062204624055999  0.9770597350163537
  0.8790564474221938  0.0351608451456029  0.1194383155223098
  0.2364452108029930  0.0170230645508169  0.2756297179918351
  0.7630813131079017 -0.1174230388093375  0.6103578116962203
  0.4103727645182856  0.0647208257152604  0.8897842783508686
  0.2675917151957913  0.8517052705249778  0.1756460310879204
  0.2203046297970572  0.9136561184304923  0.2533767337334328
  0.3133841197839343  0.7740621975448846  0.1560908940795014
  0.2127619032514939  0.9965296048968036  0.7433262665809778
  0.2888047586353140  0.0448221724208159  0.7399037552520178
  0.3688748965039651  0.8054837530286172  0.1648999799176477
  0.5308998977850183  0.3467286022845221  1.0257740211868602
  0.4604125185668595  0.1490232245163527  0.9988076263018579
  0.5754777083792074  0.1452323039061141  0.2720577094109551
  0.4784013449168680  0.2097283215856132  0.9435241358149544
  0.9660165756293321  0.4365696214091270  0.2650154570903913
  0.0033737716773120  0.8361224724542674  0.2574503305439119
  0.5037928731013880  0.5732765240439592  0.1158031516825154
  0.4965887904965273  0.6546781318278111  0.5582794387608222
  0.4053633182166803  0.2285235019418135  0.8543421131974424
  0.2029365327979256  0.3062650962481236  0.7705488534415197
  0.4798952799221797  0.8963516440590471  0.2855945510741837
  0.8890165797634909  0.7293134175099490  0.1960762999531950
  0.0292223883869579  0.0148805972728893  0.6763860906469357
  0.0255566953082445  0.5892034885290786  0.0184028724547162
  0.0751272085972598  0.9362365684469424  0.8182332965527565
  0.8531103511268069  0.9144497592892145  0.4685879006846547
  0.9114882012674103  0.9590006372470359  0.4193078118424846
  0.9852649842781784  0.6677284158696430  0.6076214798222579
  0.1784838375255514  0.9879988738660419  0.5056558617465771
  0.1867735925181442  0.2341919233657389  0.8899077844469625
  0.7508409425311292  0.3908453680617964  0.1488485724182803
  0.8093750949749843  0.4534494997146206  0.2620388597696731
  0.1730694682257194  0.9270342649732948  0.5205207952895545
  0.8569575420328963  0.3901759919857617  0.1837736422883367
  0.1365517236750518  0.1956005360810854  0.8233523633186624
  0.1578777453266245  0.9088571769639436  0.5748392770031279
  0.8564848129492855  0.3753609083481773  0.2431765400494988
  0.1586018529077265  0.1380455354564909  0.3555835599746675
  0.1824608546232674  0.5118636458986230  0.2596585477098416
  0.0441540792474131  0.0474894040041425 -0.0026282711263300
  0.2403681139925595  0.5908362844088358  0.3125722954918424
  0.0988112195733888  0.1274581039448858  0.0511461581287621
  0.2847058951105005  0.4656192189841439  0.2510238948343553
 -0.0006892600215854  0.2366520410962828  0.0467726228467995
  0.0092594921167980  0.3281868827891560  0.1402051806451789
  0.4886489208706989  0.3691227326499300  0.4613868527802716
  0.7893186885822325  0.1448940940468983  0.3400837369042842
  0.8353858451765694  0.0813934631787498  0.2601013403088636
  0.8987556719502804  0.6096630238182573  0.6492897265824971
  0.8507811474326648  0.5711051719209778  0.5837169484788602
  0.6868348667773345  0.1906362012178622  0.3500590171157253
  0.9560898792340088  0.6349051046111625  0.7741578073843975
  0.6409167719375268  0.2677023957914704  0.3696022337523749
  0.5938334059590339  0.3296841207354257  0.4502297978157431
  0.5447986152378455  0.4207518901553318  0.4063875047372378
  0.8103502136028854  0.5529999283216609  0.6853022204800989
  0.8579618290861737  0.5912311278285550  0.7524318089386907
  0.4998978770147718  0.5406159251197346  0.4734723606432901
  0.5007332888613153  0.5592170563732539  0.4093203214678209
  0.5119654320738439  0.6827882530470775  0.3684697902590042
  0.4513818423403653  0.6373152989238065  0.4268155048345696
  0.8439484332433681  0.6685777971414862  0.9006693306715422
  0.9920976529322781  0.7176954377924960  0.8825222040687958
  0.7069607916793728  0.3844987116162615  0.5347514469685681
  0.7170161535325480  0.4705220793247804  0.5591679292212461
  0.7070169580241921  0.5023281767268306  0.4944976312426574
  0.6248932198074751  0.4201780038957891  0.5942681384244493
  0.7598930359335048  0.3925207601980027  0.7025028276446434
  0.7561011500252485  0.4290327613348308  0.8006582595300435
  0.1919848014405536  0.9792401348068496  1.0210891254221828
  0.6787646797758152  0.1368093692870229  0.6242285942569349
  0.8001250533428160  0.2980543320255230  0.4156388487386048
  0.8628297485200128  0.3571171035749794  0.8664011877726782
  0.6201820170456616  0.0837349596169013  0.9605108489587051
  0.7498189338532220  0.2062558360004533  0.8629429934614808
  0.5892768747997764  0.3128021727321864  0.2833539870965441
  0.7128013754450119 -0.0279383368770287  0.9654000133828807
  0.2994028620846929  0.6679863452010326  0.3647286732624790
  0.9333488510012148  0.4372657805950372  0.9704988889590895
  0.8773584326148276  0.6680938889255175  0.6314434493043981
  0.5050237038492184  0.9386426266680852  0.6843704460825127
  0.0869493774721813  0.1530349089523974  0.7605728661440958
  0.7160632127743529  0.6083572646994037  0.2925644819204586
  0.1803815171017987  0.0797991636539262  0.8648849630802693
  0.0473923067306999  0.1048728720741735  0.7577239694117600
  0.0231281875368691  0.0442195935859029  0.5427144328553883
  0.1504005327178103  0.8185764500853466  0.5831048112468582
  0.0455047751118039  0.8679649749466423  0.6059278155679508
  0.9948568046155618  0.8243095508389698  0.6442492276588426
  0.3459554635091711  0.2721674513160888  0.9373997371138483
  0.2791736389738217  0.3269130429613999  0.9584595167682587
  0.0494790635218278  0.8095697556391785  0.6570148882551827
  0.2750864024365521  0.2890867988672590  0.8539560519232978
  0.2958958305017242  0.2322740908835151  0.8716553196388214
  0.8246294219328570  0.7964584297552674 -0.0176688592769897
  0.2922001216388228  0.5740455564415292  0.2787049415597903
  0.5557933278839129  0.0978648064048865  0.5281471724496165
  0.7501120930543546  0.3138110387014780  0.4519655984436198
  0.3950193688778324  0.6141634702511274  0.5330061347964486
  0.2140457385247243  0.8366650255944629  0.3324355383570988
  0.7515747180396226  0.2921491136274659  0.6777512043922230
  0.4825935312248342  0.3106199859789843  0.2486148367319395
  0.9750459851837414  0.4567056696879638  0.8652878836146447
  0.9250244350535920  0.4511521440671926  0.9071803933780795
  0.9859574800988519  0.4436997801270275  0.9250156804199908
  0.5429181731984669  0.3901974650534407  0.3025034962373839
  0.4402453157597527  0.4339740420393208  0.3106913883052608
  0.6920297904224135  0.1480265484709526  0.5440626066233377
  0.6464092045999925  0.2374191856811042  0.4934169698238628
  0.6624190613075415  0.1989743134372534  0.6190701121608677
  0.7216375209929324  0.1913288876918780  0.6370391724040786
  0.6915915586636057  0.2988272452388780  0.6568235187636277
  0.3386915264102143  0.4956495223767810  0.2598774108985309
  0.8001903267040019  0.3316150903662469  0.7405712437718003
  0.8608309126458026  0.3244213344984438  0.7625804548609839
  0.3459651394145877  0.5900120909656091  0.3485206114352605
  0.7622999379833273  0.3141607726169628  0.8438613926888712
  0.3990352094595769  0.5891982607260906  0.2502507229825807
  0.9108171220226564  0.3619127816192413  0.8279005993468211
  0.0484026579948049  0.6284131340031960  0.5250307892147621
  0.3857423482882167  0.4184989850695220  0.2405988495222178
  0.9616238956667816  0.5709887353924312  0.5659773313226261
  0.9747434350115756  0.5273024054174920  0.5252099224434582
  0.8020967877197379  0.2828441700983390  0.4756768890544768
  0.7937616710141677  0.4437261586326631  0.6981222873591637
  0.7933185601814947  0.1895553130023721  0.3836958074379007
  0.7286246995215826  0.3484239158415011  0.6595988266622269
  0.6697693510434205  0.3573275901057195  0.6392599727506119
  0.7790968023160306  0.3531189158206846  0.6167098676661315
  0.7049055474237966  0.2623890234866276  0.5575120172532136
  0.9640621165680863  0.6536262422959832  0.9394717132884950
  0.9180197090895128  0.0202894267350182  0.4017244981274447
  0.9762054538358028  0.6092162553497675  0.8973563675077737
  0.3296907828861376  0.8905686386121744  0.5810551621721346
  0.8917410636759607  0.5223758631314995  0.8266187838161743
  0.1623120491172941  0.8178204725107366  0.4889395484982513
  0.4044922963448886  0.6656093255986789  0.3999398811277323
  0.9377216654448249  0.4075875022732352  0.8648415945625691
  0.6748470369111033  0.1894922064486713  0.6763232374149594
  0.3142950322175176  0.7894163210555226  0.3232283411817878
  0.6394649612775811  0.1404160893562729  0.6656152778410451
  0.6514267094798352  0.2208684019254469  0.5568022006910881
  0.2072606699130633  0.7738293450638870  0.3498601618743365
  0.4229198546053826  0.2529555080647062  0.1291553541189567
  0.8882215713188528  0.3865239896618100  0.7047055860547179
  0.6984156437080199  0.3449555627679781  0.4246421926228314
  0.8537711070204197  0.5048756050134222  0.9247291727706551
  0.9152592839127610  0.4965708830510909  0.9469788725424799
  0.9286366248847904  0.6757465430148427  0.5904830057994466
  0.2241942171057967  0.9134077245372649  0.4859901559742191
  0.2178708808642039  0.8663950969469825  0.4390776080079036
  0.8044483578478749  0.7020126966462867  0.4921990541277395
  0.8320057421997813  0.4964366452292967  0.7021284164008030
  0.8805339956506627  0.5338637663312449  0.7684214420898570
  0.9363557383406551  0.7974749582085228  0.5734742492684158
  0.7707686063909901  0.5374036146602358  0.7852389097179507
  0.8508597379113387  0.2037761882460388  0.4539598355613526
  0.7396624744282808  0.3377605396115035  0.7220694889038382
  0.7024187848250045  0.2875430677489083  0.7195504718718801
  0.6423728621198351  0.2945308899160639  0.6980117446776171
  0.8938718519418566  0.1252509756967821  0.4379124740690281
  0.5909068237167000  0.2568293819176675  0.6360374129599898
  0.8723183870457584  0.0850594561784285  0.4793066359242992
  0.6395413908618991  0.2612094258212104  0.5932422638066517
  0.5425429914760421  0.2064515695112220  0.5770376202297874
  0.5482905648695371  0.5104930037441628  0.4954433585678310
  0.8879312341755062  0.5510798168245689  0.9393867807645936
  0.6498654828672262  0.4681669370569129  0.4825372404205583
  0.2729106528949334  0.8963361156670325  0.4494551466886672
  0.9670682853336126  0.2032501464874183  0.8215593596798586
  0.9563974585663098  0.2145291363135693  0.7598982332914843
  0.9228061935531111  0.3510768510247846  0.8862432307559559
  0.7606280756269853  0.0568331863127792  0.5652077246197725
  0.6538003733365744  0.0005970571296361  0.8707047672821713
  0.3981653793233184  0.6063663569670605  0.4183092993703755
  0.4472500659501023  0.5428297938301972  0.3371856963504093
  0.6847629994990860  0.0921696713143078  0.9215192634291233
  0.6817572742868403  0.0609175330591266  0.8151906352687482
  0.6097059490321552  0.1163539841977667  0.8368619509093320
  0.4431508992016485  0.4650828568837476  0.4132781041320511
  0.6334767022521131  0.0247621510464280  0.7439643493128011
  0.7991672976214471  0.2440749072645302  0.9228432672180874
  0.2326284515192354  0.4851846887344332  0.0554523914208183
  0.8674972302562090  0.1243501144531587  0.6941252249100036
  0.8096682581800673  0.1989904946250377  0.8822405309420113
  0.7089693552734805  0.1240753018029121  0.7566390758722579
  0.7200407517935679  0.1109247152756760  0.8191170499342548
  0.6479888194351781  0.1311225609584712  0.7344138427492677
  0.7205690471898208  0.0777885291920734  0.7174406752080702
  0.7327164352363947  0.1285317041826887  0.2702846467090630
  0.4993005790885672  0.0509892405297425  0.6393532837891949
  0.5406544950946408 -0.0375198754398010  0.6329483352598139
  0.4370214048143217  0.9484840196552543  0.6013819086398641
  0.8777262383369703  0.1140476579891220  0.7550835152125932
  0.9482774448527029  0.0955519767809202  0.8399445419318816
  0.1623067441390802  0.8525106913903483  0.3672408463260487
  0.8020073775539078  0.0470108230035378  0.8566632489342049
  0.1833546004820396  0.4475761587394501  0.0514964805139241
  0.2568794641672065  0.3580205372177888  0.0440284084493767
  0.8938940302328118  0.1840520394270920  0.6347237437517846
  0.6898918100524563  0.1601097236784680  0.4750180407041957
  0.7367236563179725  0.1442845267303329  0.4361162406835619
  0.7938127876256063  0.1383442406416973  0.6103795122631746
  0.7848641031103119  0.1137888806425023  0.4624054325347183
  0.1758509814908341  0.4349101152087517  0.1113883580914818
  0.1403719530444217  0.5856181195114090  0.0458819696465103
  0.5292078771141064  0.2675988565610080  0.1064586662069441
  0.9438454488300376  0.4603855152814210  0.5815188386902790
  0.9446216224773261  0.2256496443417475  0.6994876938101028
  0.4679092114384241  0.1910409560963288  0.0463008621514534
  0.8363322998023057  0.1486629187193649  0.5663660469788256
  0.5719572748686398  0.1489528982033480  0.0392110855635263
  0.8352441782335780  0.9634972891429574  0.7295323592227884
  0.4327355947514469  0.3576471038234647  0.1606843361696857
  0.9788724612350129  0.6815759827794593  0.5472993210202064
  0.5763877521159322  0.1585582373836479  0.2088474325154668
  0.8109134812855333  0.0324052045193654  0.9217566416956172
  0.7524217755698464  0.0430082298457054  0.9028588896334175
  0.9946531024641723  0.2981422695547689  0.8668328778582107
  0.1002064021652721  0.7141302542884184  0.1008106581482797
  0.8312778757288579  0.0503254762760445  0.3847383284569673
  0.8654591455852784  0.4261509008037091  0.7807234813709829
  0.8609779747488755  0.2889615553554298  0.6588336925196445
  0.8515599960065520  0.2995472920417125  0.5985489873661055
  0.0055686728776215  0.8494219791499326  0.1964790146469607
  0.8099725245030386  0.2039929958014091  0.5529428842610841
  0.7505139160230712  0.2530979009552061  0.4640723863756245
  0.9142807035692917  0.4305308473632767  0.7406813246979823
  0.0411121960463974  0.6681408753517706  0.1586925011210498
  0.9485459665413316  0.3444941616289658  0.6203391689939953
  0.1410737462874505  0.6219066478893733  0.1519534943411038
  0.9386175243751984  0.3581530847586085  0.5628081827429394
  0.8508312979621832  0.3062928803485890  0.5404761773280407
  0.8553811592219116  0.2517728239019486  0.4982443234784175
  0.5857461329912561  0.2823210799552823  0.1770130410511054
  0.4984335649802966  0.8538314818177278  0.8671485430549716
  0.6474723779494882  0.9715598892491163  0.3717770467789820
  0.4392731715717438  0.8937090200709241  0.9523961709000595
  0.5478062909224825  0.9119157520054983  0.0414685114164922
  0.7801811703390535  0.7328848364945146  0.3843704104989772
  0.7388809420376654  0.7936555546178764  0.4624226116033923
  0.8510218826735412  0.8850827955952213  0.1308889591293584
  0.3979119952511292  0.0458214881835021  0.0051231911853185
  0.9212590385057872  0.2823976012495699  0.6805056923646509
  0.8031598742700580  0.9445716903210231  0.4421328730242999
  0.3875678711061782  0.9364628824686648  0.0434417548064895
  0.6514552352748343  1.0061781456156107  0.4822530393976121
  0.3854075020996602  1.0056520655762595  0.9470820006692843
  0.2957477057893895  0.9674647774120081  0.8922761890710730
  0.9702956185719571  0.4838103747789170  0.0816651680096427
  0.3058153299855946  0.9222999394055730  0.8468480135460452
  0.1085213831384348  0.3808552766305348  0.6693601318797672
  0.6252900993685502  0.7107568235862427  0.0462838958143863
  0.4522942511053585  0.7352783198639606  0.9829359321483819
  0.5767425901639012  0.7881326842647771  0.0637012484355707
  0.4910830023318705  0.8868874532153415  0.9720675464887025
  0.1714658807255131  0.5112098283489989  0.8101565848602931
  0.2564316119964247  0.8831033349754249  0.7802669334546056
  0.3185343166671379  0.5616152474809560  0.7966177813304576
  0.4415526243284997  0.8982458898943673  0.0569326849905326
  0.2692197091917395  0.5564082088177755  0.8361098731227599
  0.4221910849136741  0.8517317510531001  0.1124989375119994
  0.0899953733860021  0.6762430010988734  0.5222128210867036
  0.0975613932039426  0.6631212718072048  0.5895584663282818
  0.8473238110007650  0.7380614970198665  0.4660729743179658
  0.6555532967434204  0.9290001819870319  0.0194114697443668
  0.3379614439860769  0.8547959939499447  0.9284884311178414
  0.1402411916456290  0.5164964854398831  0.5244345862177949
  0.1792787190403138  0.5980955927882107  0.6297940766913778
  0.5174227413634952  0.1208633143331247  0.0279988664088560
  0.2381849525695973  0.5913109642770487  0.6505374307918906
  0.2297174080346958  0.4205222434366819  0.0739615332120518
  0.8704562974906943  0.0351846040902590  0.9381776658584795
  0.9864180673049748  0.1819662630539687  0.9460167242022891
  0.9289269532106624  0.1525277187760465  0.8197555967129677
  1.0002133375105908  0.1355026939488564  0.9057526553382439
  0.4132712137628636  0.2399228354594627  0.0207277357134860
  0.8998893522245869  0.0917220689595922  0.8807651462440618
  0.9104827205983489  0.0465037033084457  0.8358336639737748
  0.4159688379576122  0.1623435734686966  0.0349080937301321
  0.4119191246623157  0.1037558674291954 -0.0076481641958196
  0.4613275148616058  0.0860630705746262  0.0159563745741046
  0.0019581936657290  0.8154672981766086  0.0914876895848058
  0.7842647125737301  0.1862295723119471  0.6557961259475564
  0.4687889023121571  0.1753098167891012  0.1091517816541266
  0.9752906061026343  0.4237056103007783  0.7618963313542790
  0.6267371218122076  0.1752190595879191  0.0523203605930240
  0.5164073233389403  0.0991858500867864  0.0887079689459713
  0.7353040729769582  0.1299298844699278  0.4988403711833127
  0.9980792071358162  0.3995519795769041  0.8855145568295979
  0.0974926905957493  0.4096740608528860  0.8040404835115610
  0.9984400200956592  0.3840802675001760  0.6850078585336679
  0.9714019868842080  0.3214684615541323  0.7439956628070328
  0.9788890839792532  0.0747954458935058  0.9658004910259437
  0.9195919965242818  0.5279764978086802  0.5053832753536682
  0.2480538685511212  0.5796370256744192  0.7120870502975050
  0.4342204177083837  0.9448912317096932  0.1994521141609014
  0.7860777473754941  0.7611971962220795  0.0282290610433317
  0.1041983255037870  0.6831992414082422  0.7575250818520884
  0.9714941117396100  0.5604598240519242  0.4564632079613655
  0.2960214015507343  0.6175650700384293  0.7790753426510083
  0.3556906901877878  0.6106936192556973  0.8003815399925055
  0.8590948042469697  0.6123831687939216  0.4628071998772022
  0.1916289478327615  0.7388210592686825  0.7214760492126115
  0.8325372938392481  0.6652274620351800  0.0773806302146912
  0.4548902797572714  0.6864709488180653  0.9395843535554597
  0.9282919194929653  0.6052897826140549  0.1439921778943054
  0.0338822791056769  0.7028441342338341  0.6736496500778025
  0.0224417229975350  0.7354778440169930  0.5496657646271289
  0.7419478471586012  0.8548007633432988  0.4463037652674839
  0.3836997953808179  0.7064024274231290  0.8527268605819781
  0.7759453735436702  0.6859344877585337  0.3447475109553567
  0.9455709812512757  0.1727353179356935  0.1580331680397752
  0.1670332054711900  0.8297523016542264  0.8131065447633539
  0.8883828488563501  0.6956983643551634  0.0882841025679816
  0.1752648019375882  0.2105279555393544  0.7227513953904520
  0.4773822394128974  0.8507100242507525  0.2433007792692567
  0.1262626126716079  0.2049893006645384  0.7622343288661979
  0.2248229119754848  0.2499486437792421  0.7878814695464536
  0.0496859262798759  0.5589587165009873  0.8705983094811214
  0.1479691546020251  0.0483218951541979  0.2648940110744930
  0.9509245293561238  0.8205713594596136  0.1879250418669670
  0.7921737453949265  0.8323901242495028  0.1811451270952078
  0.8712834708122219  0.8793521322090422  0.0408774221829291
  0.9479420900041342  0.7717421831747189  0.1435558189843906
  0.3787637544788019  0.5528612527546133  0.8183496354868317
  0.3531541556234594  0.4927162263545230  0.8753922884775839
  0.2273022538058690  0.8542918751813796  0.9439086013138251
  0.4523584652478275  0.5361018220361372  0.8980386237892652
  0.8762477145831465  0.0043648822452194  0.0118156127085385
  0.8303441769896345  0.0834816317785405  0.0257900159064180
  0.2806924195446056  0.6087091950544028  0.5468399622684175
  0.8248249283796469  1.0070381818689373  0.1101707735128274
  0.9450050893211168  0.1881566592756400  0.0983410329715583
  0.4172999559361259  0.8029019664149792  0.0659096308770771
  0.1061752612186957  0.8681865000727298  0.9002853490801802
  0.4721984811602062  0.8201433156875446  0.1364656108781185
  0.9520892592022776  0.8346101276798107  0.1262264085257493
  0.8378591383373509  0.1911126683982062  0.0614633819224141
  0.3649980031325196  0.4829851290407948  0.9337917809147400
  0.9865799138318084  0.6515615443883259  0.0915406154854312
  0.9966120115968365  0.7073363981044211  0.0663514216303639
  0.1117916526327581  0.8544264483085506  0.9749339250958231
  0.3470090238345299  0.9776068974147484  0.1894862993624492
  0.1074560909139809  0.8355763533402238  0.7892991554221234
  0.1952442066328410  0.9236137632274187  0.8643679165410668
  0.8916543553629693  0.1591923183844183  0.0886687879762798
  0.0975650790293316  0.1089015526257245  0.7163444188998838
  0.8477194925235144  0.8656473506837123  0.1913637330114061
  0.1556152396621820  0.6962860880905113  0.0633434209764857
  0.0480826041599798  0.7462282396526363  0.0109563788585730
  0.1625162152539302  0.3514947078651214  0.5268149133324570
  0.3802365356136660  0.5183995439890259  0.7134965201538394
  0.5202747464611777  0.7411640022008563  0.1189283807813815
  0.9310976764934281  0.0328399521409711  0.0225455231281828
  0.7712134337555212  0.0692578996991134  0.9554828355676900
  0.8856000677960146  0.1105127053246691  0.0422570133042602
  0.4038002121669160  0.6498134863702542  0.8693852145511085
  0.4231362555059787  0.8369318760553360  0.1724061255205118
  0.2469032835505691  0.9593869304287649  0.9871109226976862
  0.8698313658517307  0.9259977414564573  0.0905914806314903
  0.3027404130421869  0.3507796391836745  0.7947134009896545
  0.2434918417036594  0.9626067244669179  0.9304929711499504
  0.3342454407622721  0.9389472726406677  0.1554478806241642
  0.8361842710877337  0.7119969576380342  0.1212251733364597
  0.2671458903607664  0.9096274148582371  0.9461826296406191
  0.9919946283112301  0.1113028915183555  0.0759845323851513
  0.3620974067724732  0.5438535274951054  0.5929404167950677
  0.8929592305323062  0.7564914110197795  0.0696440729065646
  0.8139036578718615  0.4981536840064389  0.0805532146310877
  0.1538783679868411  0.3016875587063437  0.8097621485113194
  0.4949963662119935  0.5380553747296304  1.0153609621589352
  0.4181998720119798  0.5694790895665505  0.7166427588445301
  0.8156785097069518  0.5096451172877822  0.0222021950521992
  0.8589329569211640  0.4205093856386217  0.0640303551607858
  0.1150414904868878  0.2505962529708817  0.8056190828922898
  0.8387093832270539  0.6778310699762374  0.0143386449774887
 -0.0047670508286557  0.2491311651260554  0.9884397546845515
  0.3929804718843652  1.0044004490235439  0.5163123981736408
  0.0374924260511342  0.1159649132101735  0.6972989629032017
  0.7973269707904713  0.3298106639544420  0.0714122878391938
  0.7892082174981113  0.2823524271559034  0.0228849558214581
  0.7050417875269466  0.8980516416623012  0.0503960774897881
  0.6822872905036845  0.8032762539196306  0.0373906476702146
  0.0456365171042210  0.1551287655766894  0.0266475789493609
  0.1169252305529093  0.2868903916979328  0.9093499601225947
  0.6629061968404268  0.8726305676788793  0.9756590799084145
  0.4278328175984727  0.8993295176797182  0.1563623128971854
  0.2535940447001990  0.4817542105446199  0.9569487087209811
  0.1563885866024581  0.4370788781287079  0.9312614703031014
  0.1460433289928664  0.4483657623891515  0.8692353259891183
  0.8766742958382522  0.5886189316960029  0.0714486653097096
  0.1312519648429869  0.0753628360570065  0.9054705557016686
  0.1589295381438632  0.3861094794601205  0.6288641250370590
  0.0204652359267090  0.0441929971343986  0.8161793098060502
  0.2040146278388898  0.3406823515934712  0.8763077915782731
  0.5832105104173406  0.8633335104799048  0.2131814939614419
  0.1601273828806541  0.5573474205225315  0.8526153594794459
  0.9830064425947821  0.0020355584030720  0.0506171686518884
  0.0674030020847356  0.3443100905987069  0.4444189022064999
  0.4832357129482927  0.7117698139810217  0.7734167715046013
  0.8986069613320264  0.8200013149076032  0.0543754587157378
  0.5048028517312358  0.6558446722689496  0.7894950869147010
  0.9444779178432433  0.7951104121527098  1.0178192451602583
  0.1396283813531612  0.7667079638159937  0.8681214762545068
  0.9621868944066521  0.7542647463525882  0.6978334774625378
  0.4453969821080478  0.6644786034118886  0.7683717321950571
  0.1215744496084586  0.2991170467858946  0.5219005593877889
  0.2315195222162058  0.3687479490651496  0.7113275484646815