Cr H  Ni
 1.0000000000000000
    38.7169076500286806    0.0000000000000000    0.0000000000000000
     0.0000000000000000   38.7169076500286806    0.0000000000000000
     0.0000000000000000    0.0000000000000000   38.7169076500286806
 Cr  H   Ni 
 1596 106 3725
Direct
 -0.0019644739259203  0.8510576335934815  0.9691890226362514
  0.7480997668581248  0.9239017044803455  0.3665686371895361
  0.3287717365271435  0.8272478576377532  0.7592920121582489
  0.2926826146680784  0.6510764381669631  0.8877544113925943
  0.2332790155816948  0.6580742708853677  0.8624693353287425
  0.9762283671488990  0.5763836115133620  0.3972135565732949
  0.3413093784575075  0.7074835656510010  0.9550287323677600
  0.9815263057028905  0.6400164832715999  0.3765115238898054
  0.3012044781137840  0.6834633062383038  1.0004028799380036
  0.3313518647044307  0.7973671178002449  0.6479697637589892
  0.5396830591669673  0.1677104047414203  0.8541472757731411
  0.3565107917338353  0.7113594076748095  1.0157896747438744
  0.6318465625475582  0.8177259240426555  0.3038088797641777
  0.9103769726218459  0.4195490386179690  0.1930779159139539
  0.1589043312775205  0.5575867764876742  0.8452699157178113
  0.1981109157682646  0.7043795716651704  0.6104562792818248
  0.5904274235919609  0.9253932667033320  0.1947839279751399
  0.1777543215925493  0.6305798184534828  0.7289455990066388
  0.8970136861990886  0.2994228468526141  0.0022049354596785
  0.0999912297453541  0.3911804082304377  0.6047824751131061
  0.6743183513858394  0.7862212395231706  0.1015279979913002
  0.5773528272683242  0.2158768694364861  0.8626878225784734
  0.0596945724270465  0.3414808254702810  0.6010298940812462
  0.8906715013318639  0.2373479077221700  0.0075788845068775
  0.4664344989591310  0.9545878376488545  0.8941196415185567
  0.8578317308043972  0.9531561078636882  0.5135351564202293
  0.9100964459549110  0.9851349606739562  0.5273018101670602
  0.8602045400036464  1.0045742443070915  0.5532926330019986
  0.3677622195253417  0.8038925998425299  0.3931559365827078
  0.5539990120396487  0.5893271271445373  0.4165530417801840
  0.3632199316592482  0.7587570066000808  0.3516888350592454
  0.5167017560878611  0.1903229210152827  0.7319278525163212
  0.3657606548946942  0.7740085547547122  0.2893505262685907
  0.3153862181180803  0.8042100642393586  0.2620384624478876
  0.5701382242129502  0.3152221038053961  0.6142203528637881
  0.5115850793364173  0.3215314498058442  0.5921607562897848
  0.2690892913138346  0.8663906481823426  0.3417622286555722
  0.6215131969484573  0.3536991243857253  0.6782872515290205
  0.5610105989079323  0.3603894113204498  0.6556389761119604
  0.2195643228443890  0.8979407709655655  0.3148838220211508
  0.2748694702858421  0.9274361165790971  0.3254092855246624
  0.6710696383977091  0.3731903459228259  0.8387790654626228
  0.7087095945423821  0.4210434042767793  0.8410048124709324
  0.8276807152168331  0.0507313714508334  0.1587348401327302
  0.7051154484911212  0.4599575349148373  0.9392342696322760
  0.6475817169503720  0.3898785062211226  0.3361880397980193
  0.6362142991351878  0.8615350004523359  0.1141928211629725
  0.6900636575943641  0.8789840163003436  0.1883083410901819
  0.8037717522769053  0.9112866937306493  0.5666246618827621
  0.6237959012048064  0.7420545370860672  0.1535358286082792
  0.6753789320198772  0.7100554893612973  0.1821374956607701
  0.0485411243251506  0.4044405378226859  0.8432656280918850
  0.5466427170597177  0.9111909540843051  0.0390465697562976
  0.7152564338433826  0.5870482467956134  0.1242035852009377
  0.1328802249090254  0.3568222383346094  0.7898950384673186
  0.6420416973377749  0.8709525359156971  0.0464275756021934
  0.4755209123502931  0.8829248723546915  0.1177232829880227
  0.3940909970926121  0.9732584578211991  0.8116317034656219
  0.2357758900816549  0.4685584276087690  0.7252412699468748
  0.1659502756452585  0.7773665077317559  0.5318744620309611
  0.1379138922992709  0.4243156240686966  0.7017445300843264
  0.7549028971645768  0.4238832717417769  0.0239965836816580
  0.1082560928495844  0.8219941304449929  0.5281919329968865
  0.3237525706837501  0.9564953645985402  0.6227226125591383
  0.9162870633104186  0.4709493955100202  0.0105296108214041
  0.0553730052907023  0.4877602716195897  0.6620201338008171
  0.6165187034928924  0.6471746599072871  0.0670957075254873
  0.3458943458280893  0.5281530955574772  0.9671552990833021
  0.8231765410682780  0.6052407493663985  0.1008225986456561
  0.2805819734852579  0.5449353050347947  0.8865266858580830
  0.2451605294420905  0.8571266708995675  0.6178589860421371
  0.7316119620691885  0.7507692827547008  0.1330254735499418
  0.3959250879164816  0.9872593920727994  0.0177738503593553
  0.6527067062491746  0.9687084904185277  0.1390347700549409
  0.6276187526129144  0.8023840326501329  0.1354590543229247
  0.4619047620797396  0.6773752793970265  1.0059452672415656
  0.3499158276485294  1.0044867764521748  0.0566470503315724
  0.3581637444080121  0.6569371147671565  0.9705489091198422
  0.3493320947962070  0.6459739424767361  0.9122002669253210
  0.0682352992554340  0.7745146194527471  0.5359255171827814
  0.3335599729955172  0.9807310176409579  0.7903825902236712
  0.5526803019677828  0.9596191742752272  0.0856501862634685
  0.3234274810048861  0.9922759281377642  0.7274300654206683
  0.0826130200199415  0.3179548711146321  0.7248048914785432
  0.5044070380412433  0.9849649714367044  0.0572294343848655
  0.5280775337411280  0.8502142388153866  0.1459853781855910
  0.0436376626623817  0.3378811226000009  0.9283909282925619
  0.9597036917668800  0.3736001293946445  0.0521181114662438
  0.9115970995112475  0.4054035428688450  0.0256477403112786
  0.7381985830761431  0.8152007410615894  0.1125798563463953
  0.5329289816452478  0.8968909557247758  0.1886897522925511
  0.0434417611822560  0.1735603320799078  0.9684772012938427
  0.0272402359465985  0.1952262769751600  0.8437562626221117
  0.0108036297301322  0.3370751600898270  0.6396111527130849
  0.0612081515408501  0.3747437449105648  0.7061038431527245
  0.1657779015100144  0.3244522388533231  0.9823701128180671
  0.1272081148143298  0.2778254334393906  0.9709137576619066
  0.5414258788899597  0.0030662888319330  0.8935134576737438
  0.7416866392420414  0.7577634861532510  0.7412821670441064
  0.5901932819543727  0.5317785544768030  0.5563696074378822
  0.9931445781489197  0.9483966977586648  0.7394967449135745
  0.8898284540644817  0.9578046349572337  0.7541540395763900
  0.4017734375319860  0.6984240280956973  0.5061361133335684
  0.6948877473786812  0.7790030638986986  0.5697634201790519
  0.7857500024308030  0.7875260580912933  0.5850524141981381
  0.4735463079049998  0.8036819269599283  0.4290888985439391
  0.8246742695506848  0.8384407700328710  0.6467368502941880
  0.3788493661533118  0.8961557365717194  0.4837471613112349
  0.8296875688015037  0.8808134637877933  0.6935673398918778
  0.3285057857172201  0.9287107671126759  0.4581163737447489
  0.8613601035520561  0.8987416065947886  0.8162994321332017
  0.3346322761013321  0.9879174015491197  0.4415103103614654
  0.9476371594741428  0.9819762638163064  0.8845602611625962
  0.9292748482522715  0.0161779700070250  0.3168212936488747
  0.9536568972819979  0.9704805962780515  0.9491427212793605
  0.9187584751237390  0.5138540560337009  0.2824538803163858
  0.3697849149758803  0.5911756783068627  0.9374061495801399
  0.3292141682862298  0.9125832765961508  0.5194563837893010
  0.0214591943862202  0.0752411749004650  0.9260535242940295
  0.1961578001423212  0.4523511913053252  0.8262569738950044
  0.7270416050069750  0.7073185266418189  0.0861100432422486
  0.7654036495311116  0.5288359965931988  0.0478105979067749
  0.7179838854771897  0.5530826603989015  0.0169338142212250
  0.9391398316247671  0.1096213344785123  0.1756612312448757
  0.7578909987375678  0.4522913648068009  0.3562255806045957
  0.8046033735341123  0.3751742827452794  0.3389359303158249
  0.8547473143739340  0.3446013276068054  0.3653838911866477
  0.9139343826205080  0.4207261645558845  0.4197942535583732
  0.2389256859792260  0.0739084804333756  0.8900901891143514
  0.2248387395829158  0.2125813770475324  0.6837706787393730
  0.7619852566807033  0.5486195220651330  0.4437838333935118
  0.5362593207924542  0.8462442469168547  0.6548250374799883
  0.3627139005661982  0.7729574837194816  0.0568854495078775
  0.4060933503554752  0.7533650764984691  0.0204015997617954
  0.5550799292442310  0.8116583113242128  0.6207053626132054
  0.5215579879573207  0.7511735720132677  0.6027780915828959
  0.5104682663750922  0.7661758199912334 -0.0018994110352972
  0.4319222662161309  0.7986726142429220  0.5284809058796029
  0.5487854072420199  0.5079567699632461  0.0397870010696592
  0.7335249783371246  0.9558545046661259  0.8124584501132580
  0.1268005899879197  0.0230793056029065  0.5374835499287155
  0.2064168759647774  0.1053278464858519  0.7009454642188065
  0.0896402916797034  0.0199340935010784  0.2588997356924806
  0.9677291000416099  0.7730130076211766  0.8469348169468804
  0.7446737468555717  0.4718250119702782  0.8398432080851325
  0.7031430895176355  0.4366061327184046  0.2856872399061767
  0.6549479807660379  0.5128132759708380  0.3011325677168535
  0.6637362080420153  0.5695696301271421  0.0521229619320461
  0.9539196695655660  0.2487583464386678  0.3125843109537617
  0.5858351234268714  0.6252395356979895  0.9431130715975949
  0.4094562242555203  0.6964687714107571  0.2722154404699111
  0.7785661692836089  0.8090831712701608  0.7450606332950608
  0.7586626138065149  0.7147636844322502  0.6983452685001085
  0.8327737685286152  0.8357297137633194  0.8768080706134439
  0.7538458509996657  0.3901612226009648  0.3725685431876548
  0.5117284413578431  0.5362297735317852  0.5299514785455026
  0.7807972107471475  0.7124747206030949  0.9891999559872516
  0.5164173215057930  0.2762518150075948  0.5518932886564528
  0.3968917077997260  0.2426280860181996  0.5176328312702322
  0.4356057486133502  0.0585356009758506  0.6136712305324326
  0.4492388793436279  0.0467662770758308  0.6793904911341407
  0.5102127632371222  0.3054717981578161 -0.0155184282671519
  0.4657473270327489  0.3060239810355969  0.0216392225993474
  0.5606621896593501  0.0751091186621067  0.7704346027678963
  0.4351780890996010  0.3717104007312580  0.0992044287582803
  0.5209736584393687  0.0270152287770836  0.7676248209728782
  0.4844342857456549  0.3545913307061646  0.0625320699780670
  0.3841177534845556  0.3975477196776380  0.0721580191378104
  0.3919530300134955  0.4930681213823912  0.1633565531197450
  0.6618838639900595  0.1519876691454581  0.9013309219886859
  0.6220866749241657  0.1438232805251784  0.9438348152554453
  0.3953443740876595  0.5063090272358409  0.1046617075778498
  0.5324143341217188  0.0149779360563922  0.8316280654523454
  0.4383426153050100  0.4155391320222372  0.1451739913207313
  0.1752003049678688  0.1721595803870553  0.6179730205415436
  0.1619106537737343  0.1833972064858992  0.5569904723366409
  0.9483388730908422  0.1857664010847930  0.3278180222415751
  0.4853913371120768  0.4758973865976807  0.9733543112996489
  0.9937902904647560  0.1087420240647248  0.3101257403000480
  0.4372165786634636  0.4290064656593919  0.9140467402335025
  0.4148086735461804  0.4855752973866711  0.8930441049461418
  0.4365692201740979  0.9560474268127199  0.3683586686580865
  0.4792763469214086  0.8642853558138858  0.4116794890858443
  0.3521237381069369  0.3528244060614082  0.7543673478454734
  0.3515829445730253  0.3181023135279273  0.6499716612160794
  0.5687165328509952  0.7125950774387552  0.3762321155945256
  0.6128377623310586  0.6356228692975495  0.3625303170009782
  0.5577453081626192  0.6232129903904746  0.9928261043029581
  0.5605316444399454  0.6200260525999727  0.2897490936688276
  0.5447928976892911  0.5751156422788319  0.9454054746893766
  0.6022778400679342  0.5695166336988201  0.9693334699898101
  0.6585439487792373  0.5591047988234498  0.3460713496181251
  0.9574497683169242  0.8128270542930528  0.9456866666589205
  0.8251376931600933  0.6948795334499775  0.7833178751664439
  0.8383494779724027  0.3954112662190909  0.9452574340780678
  0.7531547822812451  0.4206903981322366  0.2520735966185588
  0.5865942426132129  0.5897349858262616  0.8356710531376254
  0.2644623302621731  0.8354481477142465  0.2339206594146157
  0.2582327290390571  0.7547137567748782  0.0806109567611766
  0.4436405374443090  0.5095618560744500  0.7327485029910649
  0.6904457548634977  0.7536797216852446  0.7787169224000562
  0.7774343428223361  0.0822818638577845  0.1308457856819964
  0.6092993556856294  0.4795811733430825  0.5775023846273747
  0.6772210087914587  0.4583990708987448  0.6552918405584274
  0.7144994444108567  0.5113595106028289  0.6587040031653819
  0.6818290097482892  0.1880346295110282  0.1228316707397211
  0.7586908994866992  0.5794619466552302  0.8390159652437232
  0.8158608008930275  0.5729570715036479  0.8603496386829669
  0.6855956134707960  0.2336079071028985  0.1676303195639257
  0.9981599920373251  0.6594629724431307  0.0040755888665558
  0.5428204886159824  0.4024220703729372  0.2404323559381069
  0.5926175114853617  0.3871235454923510  0.2064653075797562
  0.5423320712689327  0.3859225643807016  0.5305870843920265
  0.5471131292580157  0.4647765065555037  0.2236462657962476
  0.4530827133979868  0.6023806595093194  0.3187473052422801
  0.6412854520561631  0.3970317066142661  0.7182630572637212
  0.6872041141396834  0.4496964422383922  0.7170577226055157
  0.4509960488425926  0.5720487633527535  0.2119296798053271
  0.6377826441284240  0.4423290237326424  0.7577454819524106
  0.4549330595529310  0.6195192416674941  0.2569513935498989
  0.6852270371525059  0.4798301720140140  0.8190834073768291
  1.0354126239339354  0.0051936771170711  0.1901926601949990
  0.5329225537386294  0.5848669802285498  0.8787751667941414
  0.8990840830460678  0.7996335928778562  0.7937845641470715
  0.8283720487483114  0.5607062103818583  0.9906206735821987
  0.3543155213125987  0.6662682343309941  0.2647711319778175
  0.8107317664451331  0.6065802063339915  0.9683977431933160
  0.8773878956539450  0.7203398584656203  0.9091198688671922
  0.1561247684285297  0.7897341499309440  0.1528098585907837
  0.2101275093545642  0.8047642789290065  0.2243897146224448
  0.8832499035518413  0.6892795390894889  0.8063280701624368
  0.1601709667333824  0.8487068077258526  0.1354499786251338
  0.8579816675552588  0.7568312484784130  0.5631317283017173
  0.8056489809219577  0.7463243091300328  0.5419647383317787
  0.1638180552580043  0.8989691763088130  0.1792163132583513
  0.1163053356834431  0.9216449333498754  0.1423071974127441
  0.1325915990777227  0.9621626610047967  0.1799611986557626
  0.8908607519994746  0.8246704343304182  0.6726358374175042
  0.8919335631379883  0.8108801324108211  0.7328730716725139
  0.7162763603673501  0.0047163063959794  0.0786836816215894
  0.6725105497321400  0.0960869455321509  0.0310365139458935
  0.9697254776488260  0.9247024581712784  0.8955285132348527
  0.7692632656447272  0.6424602851664676  0.5444680447373266
  0.7072752616139918  0.6705112272964107  0.5137582506813996
  0.5790652593671932  0.2534172758186811  0.0663332810721066
  0.4882796666819664  0.3856856037932029  0.1710136224573956
  0.7630770527252320  0.5674182020926215  0.9065759916969707
  0.3991138827265520  0.3778392219215017  0.9149231512410767
  0.7630817597410501  0.5618301344159946  0.3850856023040054
  0.5140541859195662  0.4893249963849892  0.8140230701777198
  0.4742392267422548  0.8346645854112295  0.3055722643488148
  0.9910890200240643  0.8640942439615870  0.9116201104836438
  0.6065895514126172  0.5457051625007334  0.5029610173685569
  0.4466400560632299  0.5241719932605612  0.1715759570571661
  0.6826501732946623  0.5857336124548057  0.5813065477177619
  0.3451738713289340  0.5727666879779075  0.1808639990379672
  0.3508151175896549  0.6199846602834468  0.2239872715037775
  0.8375989015731954  0.6512926761948462  0.7395383001257475
  0.3565974393331600  0.6812546710046620  0.2026826998068052
  0.2551986802579593  0.7260981314421289  0.2089289758306919
  0.8467423278527283  0.2808757897888846  0.1537859272698166
  0.7970094783307282  0.2963603433242702  0.1890499407937976
  0.3974238061627400  0.4391644270699956  0.5653374025441974
  0.5766706719984390  0.4187501563169252  0.6295306813975231
  0.8944870787275501  0.1880571463118849  0.1945560523233792
  0.2835516190708430  0.3366128091079407  0.5677262038274578
  0.3420913366647898  0.3316570341156196  0.5885340095389616
  0.3309765310990732  0.3758555312789884  0.6286610677919477
  0.4170155978662832  0.4143299113874803  0.6888449943300017
  0.7542465969304318  0.4048525619015624  0.3133326112858167
  0.4058163738804324  0.4592489658150265  0.7299918733216622
  0.1823588944971337  0.0188453229437050  0.5561892938934111
  0.4413841588785422  0.4164373702161179  0.9708605786489884
  0.9761682606519346  0.7581625360492072  0.9145775033470640
  0.8245150844156410  0.3081094627220957  0.8644299481320572
  0.6996864411141234  0.4048865076389486  0.1809492771355603
  0.8088101820589508  0.9261667962332799  0.9636449212881300
  0.4529498607282629  0.5033706312343984  0.5177236409764472
  0.6481908938013491  0.4040518645122905  0.2764066449044318
  0.4701137404491159  0.5458428304343987  0.5688496723739855
  0.4100755364276558  0.5529474762948100  0.5489056974026588
  0.7032145131025284  0.4510697961432711  0.2238803948673560
  0.6016994573740051  0.4962139170780917  0.2319869343147516
  0.6052415444801704  0.5426897484622533  0.2738384027147043
  0.6566380446760809  0.5283265512605488  0.2405882166344288
  0.5773469649144762  0.6040154173805802  0.7710329140373802
  0.6152479457981457  0.6532748124305945  0.7747133088492641
  0.6259879781571712  0.6381620045264244  0.8384296421038725
  0.6636095421268294  0.6903688438534157  0.8381582416473858
  0.6036060662521023  0.6963061818327960  0.8197153125571585
  0.6124292008387986  0.6852839525488781  0.8806901185454106
  0.6714654987134384  0.6792136373354679  0.8997362568149764
  0.5153469631978688  0.6961556617587886  0.3065695201370318
  0.7191250340186481  0.7207890224692817  0.9635879386086856
  0.5215458774883960  0.7582452179818695  0.2871816894095728
  0.4195622469999815  0.8041850809322657  0.2961506706962947
  0.8164061428126655  0.6359012689358770  0.5081199789908377
  0.8117645185660378  0.4835262339734456  0.3668074899963377
  0.1699573051068907  0.9448774364946730  0.2249365664289664
  0.5812142943605424  0.8193431642560962  0.3986231666596395
  0.5351209480836563  0.8800616863486790  0.4840910792888418
  0.5864304164764372  0.8701743442542389  0.4484036338321070
  0.9999974088728695  0.1538859720334550  0.3538244552788369
  0.3873377560310222  0.3216115599393891  0.9404206230536434
  0.2062139944664411  0.0675137877263947  0.5956513759688578
  1.0057421080819777  0.2006663603325283  0.3989535495942227
  0.1788412746816803  0.0451367482988554  0.7597239188304455
  0.2190462802630268  0.0939407104327577  0.7628671861628745
  0.1589454124686074  0.1005743512492210  0.7410887915525994
  0.9067366777519406  0.3098309724570200  0.3935354050997341
  0.2198373031674556  0.1298565719235167  0.8678042715337454
  0.2917010648598220  0.1117652426769722  0.9525909282119194
  0.2688751510153771  0.1683303305394351  0.9360406740528772
  0.3674338683305264  0.2136367595318342  0.9571371507455727
  0.1910525721531085  0.0340662496883653  0.8249685113658989
  0.4665639761477865  0.4190377877477653  0.6492097169099263
  0.6529758798508878  0.7023310816539163  0.7776945921757575
  0.5849196048030469  0.7244494249374528  0.6936914677288331
  0.5827445020726451  0.8040310019690872  0.4647942129887939
  0.1462294341848846  0.1105981675139364  0.6780756409723779
  0.4509085087634140  0.1137981098724588  0.8924012334426779
  0.3068302879098072  0.1846153686998538  0.8304724857268736
  0.2110465883519534  0.8184378633006555  0.1627197154327528
  0.2419428532475129  0.5336617094477837  0.0428681619610262
  0.5041691968302658 -0.0087932453249072  0.9950208933274945
  0.3469503227676060  0.5880314252228805  0.1181339804804646
  0.9325214023443223  0.9079396258100100  0.6729438280032568
  0.5780126906708118  0.1463031665461412  0.6467168536077905
  0.2896786831638554  0.5084269035608168  0.0669311852294069
  0.5269648272598444  0.1025302764066193  0.5799033757482394
  0.5033945555849164  0.1227642550117598  0.5138269820951658
  0.5046953331018108  0.0643949265460681  0.5260509581741479
  0.4640093967344506  0.2555320511900940 -0.0195313420872861
  0.5189540864760459  0.2405231164594584  0.0000860086643064
  0.7835813497510387  0.2920512607983120  0.9627927144430001
  0.9160333923776716  0.9175943990741813  0.6094453141596977
  0.4822705508020175 -0.0080890851673734  0.6702212494997671
  0.8786709715698192  0.8345350201542284  0.6149957084625118
  0.9586121891108453  0.8448318979026717  0.5329055328245953
  0.8506141556599091  0.7803721279209039  0.5080488001288389
  0.9718629322298215  0.9642879238543257  0.6117596547888742
  0.9123802114089112  0.9765041014540520  0.5906082837681486
  1.0176739072488019  0.9858467300589946  0.5690960977414635
  0.9640649688931507  0.9549637583601812  0.5573205980463146
  0.9641359056532014  0.9697882332784936  0.4946752760278308
  1.0182023486884841  1.0008983333865924  0.5024796535805257
  0.5532119340151336  0.2030844484110255  0.6333017766727099
  0.2476445488899712  0.1913402413188793  0.8085784916270577
  0.5819765196826677  0.0537468347260278  0.8992871597020280
  0.9021097133209932  0.2820684622732701  0.2857674408999102
  0.2309903998579341  0.1186398036764863  0.9313818882140025
  0.2468953936576838  0.0630563058346865  0.9535317140495482
  0.8133661659191280  0.5784581705518007  0.4638872153575626
  0.7107880737556970  0.6245274917653985  0.4657663697652100
  0.5922224278857410  0.9121537312913655  0.4926090126418866
  0.6482548717933969  0.9288052736596645  0.5652787151217973
  0.6524475755221154  0.9876997564777452  0.5466243361968561
  0.6734443900661081  0.6961413900177621  0.4741013563258923
  0.7339379516814277  0.7263303319722146  0.4809253723108273
  0.4818177013927581  0.8324848315346899  0.5387240809772339
  0.5923574951080535  0.8966538613319986  0.5576393471771276
  0.5431518994068555  0.9389995921131771  0.4659402519006122
  0.9625420039550497  0.3293744760289022  0.4620731437464515
  0.9649389800408290  0.3892017330840102  0.4482483353909205
  0.8614238393020526  0.4285505545667221  0.5176781637555069
  0.6074822555129534  0.9351268579985801  0.6657778164914497
  0.4810442478286414  0.5609782610800814  0.7371726783999591
  0.3974553527618056  0.4722713476441582  0.6693369214237429
  0.7055164853752541  0.8608773885819681  0.7680982296364424
  0.6781960007844776  0.7988874872221007  0.8236125214838013
  0.6747998104732306  0.9636413751856175  0.7930264703946279
  0.8008724126274910  0.3275763316837736  0.2947717510194864
  0.6158863405473940  0.2336037135292156  0.7583223007385380
  0.4838639987482643  0.2207989983441994  0.5482045886163505
  0.7579982402236269  0.4846713902351007  0.4591099927920945
  0.6807964348986000  0.2441276454000595  0.9430628092411412
  0.7018796917569232  0.2027016015305962  0.9036369940486684
  0.5751047912330404  0.2130460842906458  0.0161886094751927
  0.5896224554793050  0.1709552916059602  0.8178046242515338
  0.7176242966864712  0.0187709671865474  0.0129299973675733
  0.6158675164814440  0.0647073475906962  0.0205060280901326
  0.5892874507795418  0.1384732410477652  0.7090368316763558
  0.5711345164012810  0.0315452896857947  0.7286933481906062
  0.4900025379331807  0.0938470180200933  0.6857456884643366
  0.4778977641968506  0.0997669761373051  0.6245517610460324
  0.0193653510700772  0.9691886676371548  0.1526183532558684
  0.0636804253242721  0.9074507471569174  0.0779311048004852
  0.4975462689934730  0.0499641802128844  0.5837332058462001
  0.1560674552459593  0.8062453929596166  0.0890324132476996
  0.8673099399663731  0.4346638246432106  1.0034336735619591
  0.0946555276131803  0.6701184132693897  0.0588191911214796
  0.1990416413856077  0.6152664904802623  0.0492061896652295
  0.2574130325869717  0.5880374186472304  0.0154112400129473
  0.7147147630153720  0.2766322034227807  0.7821265613421171
  0.5658787937290117  0.1943686072536291  0.6924311111617513
  0.6755186413107727  0.2279788308675634  0.7787421823597196
  0.6994108401782972  0.7222431393456803  0.6762053613037468
  0.7953002767539123  0.7684620692280288  0.7048561695385781
  0.3612545517991267  0.7988385151063542  0.9445911913651019
  0.9152534275158047  0.4070867939811682  0.4808716915354053
  0.6093179287724978  0.4157780305732914  0.9200273802460524
  0.5479160309910730  0.4232752247676794  0.8969806602964543
  0.1802903987859507  0.9486998932667495  0.1466382424246244
  0.2304747471991187  0.9337466696431044  0.1138093143200908
  0.2941762570000872  0.1262264968906197  0.5574039918242861
  0.7268128785898216  0.1262229081704745  0.0405535414316969
  0.3048204091934547  0.1146681784892292  0.6198476524750435
  0.3340701919748324  0.2098952937062401  0.6655018023551572
  0.4057616172475264  0.1937476776536650  0.7493527113712177
  0.3365974638604187  0.2463692943241657  0.7715408001103463
  0.6784705565248818  0.2869986914454776 -0.0148987167569622
  0.5050925058027530  0.2727381795660168  0.8783970175485466
  0.5469768392410412  0.4470343267855632  0.0589994094375084
  0.5212600853263001  0.3658399684076750  0.9596155550837706
  0.4964903607553007  0.4620085251828709  0.0944536661943883
  0.1801214421641033  0.0437934050705119  0.4876409738071572
  0.5823590039835908  0.3137361796818128  0.0559907937239338
  0.2524402046684636  0.0084548054476374  0.6430658669925789
  0.2616867655562052  0.8163905915260635  0.0662261802987231
  0.4608307896116224  0.3494081159799768  0.7358228990128246
  0.2084168037301416  0.8330507481908000  0.1009035295719116
  0.2711704591343645  0.8723512656563325  0.0439536566026546
  0.4978897827115520  0.3835346289347634  0.8330690184559862
  0.5504814420996738  0.4932012175654206  0.0997457508407777
  0.4520117332970436  0.5876905055499452  0.1514225133744984
  0.4498887705738316  0.5385728816740134  0.1128221900402109
  0.3614049981267774  0.2734341172590162  0.6088991330725051
  0.4571884520283664  0.6023019797691003  0.0897701478258676
  0.3076878448245477  0.7383043871213694  0.0451890008075884
  0.6660174688664023  0.5689772678337061  0.9901949470423080
  0.5655207331310372  0.4636567609973541  0.6727267054318445
  0.4744112653106442  0.1675148088864292  0.3364374624436746
  0.6151919330569522  0.5003376559148052  0.7373427617465592
  0.5538244345150419  0.5090346841047733  0.7139203610556456
  0.6249855527979720  0.4872779912088027  0.7964828024012276
  0.5860760372120456  0.4383726414402244  0.7965544678841507
  0.8023769510826698  0.9041645246959436  0.7934544646266041
  0.6738216537122754  0.5266374246718569  0.8602369519695208
  0.7055063834890726  0.5748942079534397  0.8819818698025159
  0.6470996936903236  0.5821263346843140  0.8594126821776643
  0.2037283264663911  0.8004764308622151  0.9909590681606607
  0.7127999338162706  0.5659919709654313  0.9477769144174222
  0.6946555356157192  0.6205150930074810  0.9245047673418854
  0.7345282457158693  0.6714271478731884  0.9836176890934912
  0.1572849846235692  0.8664964105700973  0.0597511314306833
  0.0957302160361540  0.9036204956527294  0.0217434875063344
  0.3921060048123887  0.3386563409795219  0.5488110713907194
  0.5518314933174105  0.5255601782329774  0.2047505753977770
  0.2574164142448613  0.7076146797475099  0.0355207868524807
  0.3683020047636328  0.1782209189251694  0.8526010644895641
  0.4293088680216142  0.1703949381549064  0.8756885854242176
  0.5267127267061302  0.4452176250513196  0.7739344625980048
  0.5748857770340278  0.4827395195007125  0.8361141878271596
  0.4066805227027922  0.5815335378943099  0.0263273650239010
  0.6862155781549589  0.5194148486506220  0.9186081313794451
  0.6258910853364174  0.5242291961331023  0.8970967755745268
  0.3525152299497065  0.5997661024874883  0.0604773438499390
  0.6549712676461009  0.4585692521701926  0.0347490744422279
  0.3547311128131275  0.6484811952140198  0.0977667975801969
  0.3700717038174343  0.2257162810344659  0.5635134645006898
  0.5932879088497981  0.7108284110863761  0.7555655077183207
  0.4103643652863225  0.6782403885186962  0.1046654428092190
  0.3800434665822714  0.1319342257858123  0.8114424111514219
  0.6362130505196392  0.8224666632874871  0.5324509296287624
  0.6953599302389820  0.3577455909487788  0.1356417790943122
  0.6967036249915503  0.8365350039604266  0.6066949733020831
  0.6503882518915116  0.8442084242264296  0.6396550056270081
  0.7140816878573483  0.8307630929653591  0.6658746036488847
  0.5979818884280304  0.4496869104172023  0.1887693243924327
  0.6931470176930573  0.8732301792878616  0.7062624818651598
  0.7912793412648338  0.9159103037874764  0.7259816102921468
  0.3450712785443759  0.5745182684041413  0.4062259052266293
  0.3053920457251232  0.6271139006597379  0.0224034632636361
  0.7904189518633586  0.9497615530676651  0.8342680001532249
  0.7742220040663957  0.6885665923504942  0.8227996266155033
  0.7516740052274842  0.7460053804085784  0.8029965034823031
  0.5571521999822375  0.5892224545538022  0.1849315739016465
  0.4114159346830670  0.7116182538390091  0.2105360861582548
  0.4158494276734768  0.7583550437548948  0.2532099623827991
  0.3755175952783928  0.8815747859326220  0.3147558676362110
  0.7183538417171470  0.8156177729058944  0.7243326741389166
  0.6687510859424569  0.8123282898477913  0.7618059236141543
  0.3252626300231711  0.9299698619050496  0.2256164519323473
  0.7534505016519886  0.8992158386433357  0.8350729812231306
  0.7627589274825241  0.8865576808140251  0.8999082547660285
  0.3325282019324873  0.9743332092824065  0.2728058284053484
  0.7981879009121458  0.9406414204801949  0.8987808069964144