Cr H  Ni
 1.0000000000000000
    38.7169076500286806    0.0000000000000000    0.0000000000000000
     0.0000000000000000   38.7169076500286806    0.0000000000000000
     0.0000000000000000    0.0000000000000000   38.7169076500286806
 Cr  H   Ni 
 1596 106 3725
Direct
 -0.0041503265642563  0.8506585006546437  0.9701283476835922
  0.6897133417130976  0.8781697098746168  0.1885862321062044
  0.0594906914957127  0.3422051744460254  0.6010543564411102
  0.8908064603894982  0.2375808497078545  0.0066151766992986
  0.3963777768130076  0.9884367944143783  0.0188950269785802
  0.6525244248566892  0.9680483272462719  0.1393454894617901
  0.4619624540322639  0.6777858546154242  1.0054655327645694
  0.3498623445864281  1.0052864069283782  0.0588341321459936
  0.3584693877810269  0.6570434810960618  0.9701835087155237
  0.3501504306519323  0.6455680463326348  0.9124920807739101
  0.5396449168381905  0.1681162077721824  0.8540453586988571
  0.0654108139488283  0.7785142132797194  0.5312427659362395
  0.3338814809029193  0.9813454410452421  0.7900959912054119
  0.5526198022391349  0.9593277436932712  0.0861328160126198
  0.3446799001275572  0.9366757898431213  0.7484109941725000
  0.0826174468382846  0.3188094493627031  0.7249051728992351
  0.5045871315142155  0.9858978983548281  0.0580234836324967
  0.5279614203282433  0.8497414686411217  0.1460718359793976
  0.0441234581681512  0.3383752695594248  0.9285880093587617
  0.9610825248734998  0.3738251736353883  0.0521030359475360
  0.9126688028302881  0.4050870809442956  0.0256996046735770
  0.5772853464092047  0.2161948872990266  0.8622882377162721
  0.0433140578216501  0.1735607139546203  0.9689756373369178
  0.0275300665907655  0.1957872070042453  0.8441678449851052
  0.4670598749114743  0.9550530103395677  0.8943864699383005
  0.8568630725364151  0.9528344268060247  0.5129336014912396
  0.9084616610184491  0.9853062262213085  0.5268680367773694
  0.8592703883643686  1.0048697875777841  0.5535426381797719
  0.3674422005134368  0.8031623744143239  0.3928017699876573
  0.5540060816599142  0.5879120059620970  0.4173024075676882
  0.3629396850759566  0.7580153330337099  0.3513493396813989
  0.5166135585460175  0.1908312005509135  0.7320090642868422
  0.3655175589587945  0.7733110899361674  0.2892921935505463
  0.3151144586378308  0.8035049236714964  0.2621293449293656
  0.5698339898635418  0.3155954646646584  0.6137360281952440
  0.5114568013236274  0.3219637108901668  0.5917034657069437
  0.2686397425702309  0.8656890683855829  0.3417437567302922
  0.6203786529971944  0.3523882717828776  0.6787757329871984
  0.5611822187372252  0.3609768493736067  0.6544446464336791
  0.2187380035783471  0.8966097940607460  0.3149617533780074
  0.2742910644692667  0.9267956044569772  0.3256985359648002
  0.6704567508622300  0.3739089835363538  0.8376509042064081
  0.7083090975201941  0.4224730606744148  0.8392334425293879
  0.8270292237331802  0.0499865756456413  0.1598356758101123
  0.7061174649644458  0.4589943308045362  0.9399254537448420
  0.6464377881359793  0.3907779549744578  0.3355312012396137
  0.7379093451212829  0.8147878488146908  0.1127005806299250
  0.5326641179642925  0.8964021648199755  0.1888345335040175
  0.8047775970703399  0.9106291977679454  0.5682845083094238
  0.8226797222756231  0.6045849203937330  0.1005301142537980
  0.2457201135143355  0.8571358054544828  0.6182504237985700
  0.6640085173094961  0.5693522287147902  0.0519097197059483
  0.7191741235073312  0.5530126736252965  0.0160843957990220
  0.7652014458931305  0.5280767347458112  0.0489153150637787
  0.7268549664458185  0.7070209220339599  0.0860624799845915
  0.1966116045570123  0.4529702622055467  0.8253420223496006
  0.0213378027484181  0.0756717205921964  0.9267944401367433
  0.3289450762995840  0.9116791493926845  0.5194445772499089
  0.3699056693595125  0.5916916318512881  0.9371751267165565
  0.9184283417429365  0.5127864325354778  0.2820892560849007
  0.3606466103493622  0.8001712928586833  0.9443841002109751
 -0.0310601485951476  0.4360551664509212  0.4941945591044892
  0.8388088418067229  0.7721435355589520  0.3356215346232276
  0.7877436713330233  0.7858604044838615  0.3700133201936529
  0.8721767515339381  0.5905237026859248  0.2967765986301142
  0.0068788433979785  0.4542055853192872  0.6025284033195674
  0.0663390115209947  0.4444293250618092  0.6202105007229761
  0.1152640527536966  0.1806942462825729  0.5947765073061961
  0.6072560573129384  0.5422316078361941  0.0478098171251051
  0.1092009062203096  0.8029168613659402  0.6762760490479752
  0.0596291472292173  0.9788921142422495  0.8653760348412102
  0.2807441287375356  0.5451429508466845  0.8862590445127716
  0.0104126326529392  0.3380982504455869  0.6396712890137600
  0.0721042160525424  0.3645225281504364  0.7668493440701052
  0.6163644963074580  0.6468370471425988  0.0670987368303809
  0.1660388406559305  0.3246914716380161  0.9822806766621648
  0.6274205197974669  0.8017824118431639  0.1355991975632219
  0.1278570635594758  0.2774772766649773  0.9710075242907131
  0.6235887940169079  0.7414111997940317  0.1536564302921248
  0.7313947043892520  0.7503333883494796  0.1330048774950228
  0.6751527328570401  0.7094441153624723  0.1821278580048044
  0.0487134211431700  0.4051497493201142  0.8432766919963787
  0.5472026546302622  0.9102018654777685  0.0392023580310993
  0.7150451677059746  0.5867861802202423  0.1242695338462946
  0.1333122202980230  0.3575373442260398  0.7894143001153906
  0.6420822815295446  0.8707560520949992  0.0468274902372554
  0.4757685209388686  0.8826215211186398  0.1181616225443605
  0.3941791910534790  0.9740035103405816  0.8121288862970888
  0.2454150044890986  0.4573062543458018  0.7869845414650143
  0.1654917733505809  0.7787793042729811  0.5327307279673805
  0.1381481125462022  0.4248800754971700  0.7014369188461971
  0.7535514369313192  0.4225710836394018  0.0220673162089587
  0.1122449807634546  0.8223502473022457  0.5290935833499800
  0.3237036967596377  0.9573041223828087  0.6222493894428371
  0.9169816917873472  0.4717851660676552  0.0103195722679777
  0.0554366247675225  0.4884221310222424  0.6619276900741636
  0.3462270302729384  0.5283852079233653  0.9669973466630923
  0.7537041668106261  0.3894320228841709  0.3722319975348135
  0.8330814838335241  0.8363620113514620  0.8758133558115629
  0.5871849942126952  0.5309681814827083  0.5550485118095445
  0.9964458005316469  0.9513810989491457  0.7397169614021106
  0.8916223651418456  0.9588826100788029  0.7542177554691076
  0.4086669213590773  0.7099155875030245  0.4393527269836657
  0.6910687507643136  0.7740575910637275  0.5703891443441513
  0.7869455404061733  0.7992168045211601  0.5838461403060375
  0.4734482023492380  0.8023917147135955  0.4295933829592533
  0.8268324321245381  0.8388189873802634  0.6474845220012441
  0.3786516944809385  0.8952311131134333  0.4836954811502009
  0.8340341133673118  0.8820513833259229  0.6926942148475906
  0.3282690568067420  0.9280014712052662  0.4581725277641630
  0.8616136416239799  0.8997869295486471  0.8159023082496690
  0.3342479054407177  0.9874186669900648  0.4418697947574149
  0.9464932635720810  0.9832352965723614  0.8855353120859987
  0.9287224922666065  0.0153936308377854  0.3177195060720884
  0.9546837787010255  0.9701944700329572  0.9489199606782922
  0.9756551890516273  0.5441785301806746  0.0668468688249817
  0.1956856807824093  0.8887835019043682  0.7596960070250873
  0.5815052858116563  0.7551452972226973  0.7987602022463314
  0.0965654138545509  0.1953496647879815  0.5291144346703494
  0.2334750771088162  0.9376408881625715  0.7645708351184909
  0.7060161140850935  0.8952965527278781  0.8732327919471823
  0.9234909414353109  0.9255950377405396 -0.0032309231532733
  0.5117823336463722  0.7764214511352704  0.7171437751532527
  0.9136886897074645  0.4196849318018441  0.4197679382700743
  0.6157705080261836  0.6535065541136104  0.7745972211888931
  0.5775028719459823  0.6049509925445038  0.7702661030240240
  0.6562041440216025  0.5277133892789254  0.2405831870257323
  0.6048417451723967  0.5419769900124058  0.2738954243922301
  0.6013683989475856  0.4957041315382996  0.2316720760365809
  0.7028742138690824  0.4503977027108977  0.2236323770667216
  0.4130342930809002  0.5517374188486743  0.5486330949184615
  0.4722837908164369  0.5465850149941817  0.5691482865142604
  0.6476921328377905  0.4036846588831764  0.2757113523186893
  0.4007009227583924  0.5237497022725335  0.4941502768994619
  0.8103282658944535  0.9250462054248080  0.9645433298904906
  0.6994801185696213  0.4042989218932801  0.1807081825880420
  0.4738022012051882  0.8339943961134978  0.3055776349689679
  0.8467619297113703  0.2798666547007089  0.1531164585895775
  0.7968702653964066  0.2953792579868184  0.1888166098383171
  0.1822810325262950  0.0202116066799959  0.5560209837297976
  0.4416803221187369  0.4167448961127733  0.9706357096693208
  0.7624985285385253  0.5604192245366729  0.3854832582095904
  0.3992284055254049  0.3782193236483112  0.9146385783122556
  0.8112682096481465  0.4824681175486734  0.3662012405638082
  0.7575756996268908  0.4512492981018675  0.3559190777265266
  0.8046837098606247  0.3743001962317639  0.3386426891221214
  0.8546399146945322  0.3436055810355594  0.3654122668008377
  0.9742042046941992  0.8915630503626258  0.0182840957430659
  0.2388816773044067  0.0739778676621386  0.8906939446420723
  0.2252060098721189  0.2131655201223688  0.6837112934023998
  0.9932024808098587  0.1078750138183793  0.3109965445419481
  0.4373310654945441  0.4294051076801801  0.9138224384397214
  0.4149559365439214  0.4860334679062051  0.8928316549170504
  0.4359939551415516  0.9554172622007430  0.3685433042951335
  0.4788684289985445  0.8634757377164786  0.4116655129738733
  0.3521717196146257  0.3534007420267571  0.7539732336422991
  0.3515818467021755  0.3187754527896890  0.6495068019821106
  0.5684527839625481  0.7117052567652064  0.3760885454575560
  0.6126455633428299  0.6340998773269058  0.3629704876115815
  0.5580044918398197  0.6234612365864514  0.9927473330768728
  0.5604568937502291  0.6192327007099847  0.2899710812563691
  0.5451706438727454  0.5754694547325557  0.9450870572074903
  0.6025302725282191  0.5698209987039919  0.9689919208849777
  0.6579637831359472  0.5577639753370327  0.3470355863079191
  0.9560857904965451  0.8125422933961443  0.9453152234284304
  0.8256726380067581  0.6957494889742044  0.7822981012936794
  0.8392265192822923  0.3979316492714803  0.9446677427105465
  0.7528177183658148  0.4198327118887505  0.2517448913927091
  0.5870167786628661  0.5904692247570972  0.8351275658383019
  0.4381474624863630  0.4151576182778939  0.1447729883550043
  0.4092238313883793  0.6957649346060966  0.2720599106591751
  0.7790884899008758  0.8102120858424490  0.7443195273714673
  0.7594097043400510  0.7159021114065575  0.6982782497886607
  0.4856768730042351  0.4763358176590752  0.9730563851180787
  0.7619560568440124  0.5463349477451106  0.4447678785740368
  0.5467965154286578  0.8450647626078484  0.6635684327763179
  0.3624058565338273  0.7731471549619074  0.0564308748126220
  0.4058859768560276  0.7539449046456950  0.0201230240302744
  0.5547454142304870  0.8140089906895694  0.6193874375424531
  0.5240239587743823  0.7537552496452978  0.6075654376789880
  0.5105677272558100  0.7667502208354224 -0.0018577798759283
  0.4314654766346311  0.7975423505865267  0.5288845491328918
  0.5487145328600433  0.5080024333373677  0.0394477811185812
  0.7340292516611255  0.9567435084924513  0.8111797490746132
  0.1264416307614687  0.0255201161148378  0.5372608747358434
  0.2066923062415119  0.1060137376529395  0.7008728988850824
  0.0889937316434490  0.0196887554858229  0.2593301025004905
  0.9681129872839971  0.7741890155954940  0.8462569533628885
  0.7449619673485901  0.4724585500295573  0.8397611168193578
  0.7026766678827361  0.4359142760425255  0.2853274331758068
  0.6544713440416025  0.5120788183667384  0.3013707770543162
  0.9384644948666603  0.1093206372996654  0.1763026945393501
  0.9534452757324504  0.2478157209149657  0.3130868494339968
  0.5865249574753209  0.6254934707980558  0.9432175996503523
  0.1758276224583561  0.1729763558139897  0.6175743893028161
  0.1624774538137485  0.1840455874984076  0.5570141612131296
  0.9481917691366081  0.1848438567333177  0.3281985927812173
  0.2641406830396793  0.8347959077830244  0.2338031317589656
  0.2574548019216284  0.7543525382173427  0.0798481424358644
  0.4437658422964931  0.5104439098387750  0.7324835552299500
  0.3971674348679369  0.4732017957350376  0.6688866745442500
  0.7765553594552451  0.0818123530521240  0.1314900237617852
  0.6098929120767652  0.4815045840427600  0.5772074073480215
  0.6781370232461317  0.4608372786772408  0.6541946077817834
  0.7145980655088192  0.5132430662982671  0.6583991554942948
  0.6816254274852825  0.1873975952489059  0.1229258540776601
  0.7591614809042394  0.5801504213404477  0.8385517294579462
  0.8164326501272151  0.5735769130542383  0.8602817776029884
  0.6852408247600815  0.2329094415288721  0.1675612319385358
  0.9974922944135157  0.6546433464728805  0.0064186830249341
  0.5424907398369826  0.4019552087644810  0.2398197834322086
  0.5922882161668579  0.3866368146805202  0.2059415966750560
  0.5427182097884277  0.3860320447852000  0.5302142604913935
  0.5467757449253082  0.4642843153855309  0.2231219945625550
  0.4486022724699697  0.5565983331285299  0.2748887584080448
  0.6419926547284639  0.3974464320714122  0.7176877460417239
  0.6869604149531915  0.4505996846844977  0.7160008151583792
  0.4506483426895799  0.5721260413370350  0.2127912618989923
  0.6373273203235524  0.4432914749580081  0.7567083193420721
  0.4547119568304329  0.6185779018374572  0.2559603532871696
  0.6852478356650016  0.4804731895294875  0.8186141953097107
  0.6065126850411457  0.9343311566775686  0.6652747594074609
  0.4811226807331703  0.5620933827678946  0.7370064662440020
  0.8995278670372731  0.8006215923932730  0.7927145181502300
  0.7632019161351307  0.5682040359066278  0.9057270548350155
  0.8287519439476249  0.5596804570539142  0.9906958050705625
  0.8124208384554636  0.6074291807571349  0.9686649848124895
  0.8783490583317010  0.7207688013735805  0.9085302362877092
  0.1557987243111573  0.7893432211020397  0.1522353981068877
  0.2098090273254375  0.8038957964583718  0.2241188753674647
  0.8838709894048377  0.6903206913850892  0.8049000773591382
  0.1602087262730888  0.8481968297184499  0.1360464487774465
  0.8521955259143766  0.7492449488986326  0.5603491987067550
  0.7965541831320339  0.7568645369041601  0.5433212245797977
  0.1639345637919595  0.8988706669462353  0.1793460682201104
  0.1159973051429114  0.9212676099049297  0.1427113655321352
  0.1315059594712291  0.9621256828441694  0.1800269003208709
  0.8899479552366146  0.8266858119470945  0.6716726467183145
  0.8925396088258153  0.8127839123147341  0.7313698259278250
  0.7158934596606229  0.0043911794557362  0.0790113743598357
  0.6719792456094572  0.0955086519758536  0.0310546192763384
  0.9691748309159217  0.9258000850248014  0.8965495993622370
  0.7293409154138780  0.5942053325491287  0.5406788329787690
  0.7107708751370293  0.6597968338373832  0.5195835918657621
  0.5790000399873400  0.2530963770403309  0.0663005343103054
  0.4879708222126978  0.3852398377911814  0.1704267057330568
  0.3541635694472840  0.6654691200742043  0.2646943823987076
  0.6645253559151523  0.6909411524524970  0.8385059155136475
  0.6041579058276434  0.6968379269057591  0.8198805837185896
  0.5140977052513351  0.4900967561582632  0.8138164173437816
  0.5212882161652703  0.7575155429085862  0.2870591261533831
  0.9904114746683987  0.8645547341271248  0.9128535368690781
  0.6176283414725655  0.5481726197259058  0.5098849210803102
  0.4463198143464825  0.5238300696698265  0.1711842429873713
  0.6834864804561176  0.5869077191536584  0.5819225967027839
  0.3448280402010824  0.5725270914275965  0.1805361126234128
  0.3500403177557860  0.6198896159105253  0.2233326116871122
  0.8381798937105476  0.6524340925142933  0.7386431301931797
  0.3562662716150676  0.6807789827136711  0.2024210478328214
  0.2548915716707682  0.7253362076486541  0.2087401634955864
  0.7198689161448030  0.7213562794530486  0.9634302417832382
  0.5151005127502866  0.6951232039484418  0.3065124879228341
  0.3971622878896730  0.4402245638597462  0.5650379684223815
  0.5249770733553416  0.4135843407783111  0.6706808561326361
  0.8940437903643266  0.1874285225644216  0.1948473144509558
  0.2832924431004454  0.3374902681625652  0.5674538985610218
  0.3418686956154518  0.3325748650765192  0.5879981110550578
  0.3309306020013220  0.3767989992293472  0.6280990885095621
  0.4164706534722892  0.4152620582505294  0.6885231015653696
  0.7539711458824946  0.4039223919368927  0.3129951637815011
  0.4057702370589985  0.4599054160233577  0.7296897933158298
  0.6721863290504847  0.6795785852491912  0.8997789358055188
  0.6131187676385288  0.6857699285443434  0.8807947812380362
  0.9765050392831642  0.7585898361364330  0.9153461799073408
  0.9643594514440210  0.3883450159506344  0.4483853836058699
  0.4192017366991954  0.8035426349794226  0.2960512671047904
  0.8245329956474707  0.3088508818430015  0.8655002878227300
  0.8174468694898342  0.6337569076081125  0.5049031328000938
  1.0346513187645081  0.0050792668484278  0.1906884286116822
  0.5334249337621533  0.5854221967687884  0.8782861492875210
  0.6913061850849888  0.7540691089121226  0.7793382550259893
  0.9017748480747484  0.2809095391258600  0.2861075484290386
  0.8010046174535991  0.3264818779203071  0.2942979540038357
  0.2304943970116280  0.1191095929758075  0.9311545383351202
  0.2466262357769587  0.0645387874829184  0.9544595120373709
  0.8140803646170796  0.5771750813824377  0.4606620983119644
  0.7097096368201697  0.6234145523540560  0.4696396140576838
  0.5916001768237384  0.9116378169149416  0.4927225292241799
  0.6476272862777345  0.9287093458908277  0.5654385965142311
  0.6519542489678010  0.9872135253631609  0.5471236180633643
  0.6737747235139580  0.6957991980780356  0.4720414511700400
  0.7291894010837169  0.7194442521167649  0.4808388927227270
  0.4820122710874383  0.8267903929003196  0.5379659639306189
  0.5913351868539445  0.8957753303404028  0.5578926206423784
  0.5427158290361781  0.9380200164002296  0.4659908391007194
  0.9618344804455732  0.3281337689943647  0.4626029927669578
  0.8606049083605217  0.4296144266830602  0.5170381860128019
  0.6266613244413075  0.6389980051477655  0.8384662412035830
  0.1687042506955403  0.9441627330855029  0.2246962639204591
  0.5857087982952590  0.7248883885496721  0.6949335059449477
  0.4508527923350683  0.1142184043939378  0.8924601791908464
  0.2108431743182834  0.8173991352035450  0.1625462275650760
  0.2419213589961967  0.5334903724307937  0.0423247695553424
  0.3465479540277190  0.5878776717756896  0.1177418941576544
  0.9375495016178268  0.9107495029409451  0.6743433657362100
  0.5781220645002569  0.1464780869410306  0.6467250160194172
  0.2895844742496360  0.5083733412152731  0.0665497618248256
  0.5272833577208292  0.1009844096629506  0.5806087515615611
  0.5034418799268238  0.1220364211845035  0.5131649287620996
  0.5043540457087485  0.0638797230986190  0.5261905382937886
  0.4641031508061114  0.2561785886002976 -0.0198280222832109
  0.5193097354712639  0.2406925837747085 -0.0002384344876957
  0.7838521139058439  0.2915160104999575  0.9625880089505913
  0.9242072410146448  0.9222123255343461  0.6105882998394886
  0.4822492124816349 -0.0074936934822352  0.6704357157024169
  0.8812944746413626  0.8380372735648001  0.6137124684547155
  0.9916448429661969  0.8293042821644963  0.5543058947266964
  0.8440364142554964  0.7732246837789363  0.5013518288815656
  0.9754448332131082  0.9739847371424162  0.6128200427219035
  0.9162655239876427  0.9789999754752641  0.5892404201609819
  1.0198608636884396  0.9850373390029166  0.5700133902160845
  0.1467833779806919  0.1116103905539036  0.6780663179262757
  0.9689432258732728  0.9419887342212236  0.5664877329891268
  0.9632503034428420  0.9621427469802082  0.5002293633865974
  0.1531992034963200  0.7559582580075784  0.0454016087376990
  1.0169006068597295  0.9995486752207077  0.5044326563490317
  0.5045916845560882 -0.0071897238078956  0.9952496385437455
  0.5531431022792689  0.2032137381930726  0.6336770178744642
  0.5820321920544663  0.0539983687464784  0.8989182745620592
  0.6158271336434914  0.2340702861133105  0.7579569913996664
  0.4863004672271775  0.2201857809723647  0.5505829508293046
  0.6823332782496204  0.2452824594747062  0.9435554045236066
  0.7016433468156450  0.2033699883880487  0.9035020284496692
  0.5745849730587348  0.2127578495346465  0.0161216116823209
  0.5895872165502318  0.1714204105154392  0.8175713504249729
  0.7170260800082102  0.0187641569212220  0.0136758787998268
  0.6157621870547665  0.0643117014645793  0.0206292780273902
  0.5893864383106449  0.1387904794435235  0.7089124215797930
  0.5713195846390916  0.0318028380456262  0.7285190041048982
  0.4900012576230121  0.0943765757427039  0.6857755674241424
  0.4778732412938111  0.1003351814322732  0.6246493538139518
  0.0187661203505367  0.9689595963752472  0.1529484075137405
  0.0639716136939978  0.9062332111771142  0.0779277674336293
  0.4960065201281157  0.0493573576244020  0.5833660661029614
  0.1546296355745731  0.8073461386686231  0.0879171887200818
  0.8699356338025022  0.4348332357743149  1.0036331812301527
  0.1986962019318225  0.6157899865551318  0.0486364365581982
  0.5825113848047520  0.8033820163553943  0.4643068744071529
  0.2573905768162693  0.5881383165176158  0.0149670792673511
  0.7062413415510982  0.8615967045418462  0.7671680929055741
  0.6753355890421887  0.9641891245556554  0.7923209680513787
  0.5809222201168855  0.8187521958280368  0.3983708779723138
  0.2478271437913376  0.1917517659104674  0.8086912124467102
  0.3069005464735761  0.1850169194647957  0.8305598549140087
  0.5345012923091977  0.8791228014157999  0.4840177614094185
  0.5859234963782705  0.8697932426194664  0.4483799651299358
  0.9999918254592641  0.1531828468862895  0.3542509614981873
  0.3874846447308275  0.3218930990969479  0.9402718685767769
  0.2064512298929223  0.0681221327106749  0.5953897825564017
  1.0051901003486921  0.1995489378568075  0.3991544004486722
  0.1791061293476710  0.0457552485516316  0.7602473591029286
  0.2191434269882187  0.0944289559649142  0.7631265542755544
  0.1593776585146406  0.1012738795164425  0.7414207960933622
  0.9062197478737876  0.3088169332005882  0.3939252570576333
  0.2198339322297314  0.1302156907899195  0.8679464934173871
  0.2918984090467609  0.1125317641875814  0.9528425847385185
  0.2694058062248038  0.1687410041363779  0.9368416005733190
  0.3678070787400931  0.2139988244722738  0.9571035403093954
  0.1913193440947401  0.0343864775155588  0.8258510882546763
  0.4662412681428175  0.4199937048939419  0.6489541203416208
  0.6536368378720960  0.7027198382368982  0.7782663688779700
  0.6789413300885802  0.7994197112587921  0.8238661162019510
  0.7145738865187327  0.2772469392408329  0.7816565560509144
  0.5659241920489835  0.1947518978394480  0.6924711132457197
  0.7807541115486976  0.7124750636814834  0.9889635269800688
  0.6754579982596239  0.2284679587563763  0.7784278786525046
  0.7056602591800037  0.4512866532306916  0.4506361522076875
  0.7003240276663255  0.7230303274104423  0.6776596812891006
  0.5416979101468720  0.0035708021065414  0.8937472449073975
  0.7425270269413066  0.7586429500646281  0.7410966244193815
  0.5327696068810589  0.0154720397722184  0.8317993961955623
  0.3952075668131929  0.5061713932395820  0.1043609316861701
  0.6215250250783751  0.1434948780564725  0.9439620953741655
  0.6615211386634753  0.1523616352032879  0.9010884224416613
  0.3917912386019084  0.4929043939168001  0.1631226874185514
  0.3838304674267440  0.3974349326690079  0.0721794745894364
  0.4845791870722702  0.3543866428630249  0.0622632495062386
  0.5211716709338245  0.0275375938401301  0.7675918327352743
  0.4350772235095981  0.3708905783386779  0.0992050965514463
  0.5607962097550463  0.0755137892670961  0.7703483438258655
  0.4665530326350003  0.3068985116252108  0.0211231372072717
  0.5107873989122287  0.3058114682853222 -0.0158763012180247
  0.4493085163763205  0.0473583866298774  0.6793970094563848
  0.4358889655432659  0.0588290874718173  0.6137778129061400
  0.3955281962119514  0.2421480392219295  0.5150280503452574
  0.5157800807459119  0.2772052854059704  0.5520692945694337
  0.5161867417657273  0.5390739545621541  0.5286003211926488
  0.7960903229735879  0.7694957636622085  0.7033488088084704
  0.0825981541248404  0.7973727625041040  0.9494973358292634
  0.9148613486334910  0.4063629798943736  0.4808993437427110
  0.2090119605653467  0.8319519708351887  0.1008527373943199
  0.4978184839073762  0.3841228266562735  0.8327503891913015
  0.2717746904873795  0.8724466443896951  0.0431865115699648
  0.6089590658592018  0.4160708394021510  0.9190839233800022
  0.5480168943832107  0.4236822855864377  0.8964720831844324
  0.1792588233630927  0.9504453686006819  0.1464446347131471
  0.2301783890172710  0.9345561697623254  0.1153494301896906
  0.2946312619238001  0.1271213635678849  0.5578907371231453
  0.7270995588179336  0.1259742733937751  0.0409602824644928
  0.3050406676009937  0.1152897243306159  0.6197643113136182
  0.3344364712504425  0.2105363936669712  0.6651319574608688
  0.4056906444879161  0.1942838264213100  0.7492314454476313
  0.3366618830297047  0.2468504411709624  0.7713851847673709
  0.6799066085125215  0.2862497503633762 -0.0151551108378301
  0.5052505258989141  0.2731468405069229  0.8781497424684688
  0.5470559973400226  0.4466537957839475  0.0583496671135296
  0.5215205869592748  0.3660479356610616  0.9591994042518012
  0.4964177802569324  0.4615459164012128  0.0940242201021032
  0.1792185995597750  0.0429352697482268  0.4880576223542519
  0.5827327816331540  0.3135019558025491  0.0555657851993456
  0.2524215625527932  0.0090025980857821  0.6430054484738067
  0.4606710441067259  0.3501677071117096  0.7355467840419248
  0.2607146990471406  0.8165848334134875  0.0637919821015486
  0.5505142559740160  0.4928584348027466  0.0992511167495269
  0.4516380006729346  0.5872573501068999  0.1511196732896011
  0.4496486665195052  0.5382607345262109  0.1124480715380421
  0.3612138338090118  0.2742664902829314  0.6084879641021895
  0.4568926737722306  0.6020874883848961  0.0893977645100632
  0.3077297006759940  0.7383324149716908  0.0447096707648549
  0.6660291010395136  0.5687917897691005  0.9904613421147883
  0.5637484279103243  0.4660836412060269  0.6716858582604390
  0.4733341652902364  0.1680820803537602  0.3363702448936441
  0.6149693572485252  0.5015644552129289  0.7364477872494632
  0.5535496029263745  0.5104172904514854  0.7137765429782731
  0.6248830367784582  0.4882052155487512  0.7957230116771630
  0.4293845302863269  0.1709022872113470  0.8755891553026092
  0.3051835300112416  0.6271900543273811  0.0220283625715745
  0.6739565259455740  0.5272152566595519  0.8597760038388047
  0.7057633708129284  0.5754208248934582  0.8816934710009635
  0.6473640482102467  0.5827748272237404  0.8592213120238961
  0.2060680141116253  0.8027960472913407  0.9918134065667878
  0.7131947132775400  0.5666303885999370  0.9476002273631018
  0.6954257290259749  0.6207666081980651  0.9244568806858359
  0.7347317860903662  0.6717594764849352  0.9835825765216129
  0.1586135505462530  0.8643960164352021  0.0647761527444362
  0.0910741130282835  0.9044177284085737  0.0216204682120406
  0.3917501239958427  0.3393404778547310  0.5480934775391564
  0.3446350553780822  0.5734950545350987  0.4061762479928638
  0.4432784141574960  0.5039550211976007  1.0081453481299687
  0.3683495625857595  0.1786052240984596  0.8526723080636630
  0.5857153640790019  0.4391198415565642  0.7956879489916067
  0.5265397015430994  0.4461435040546562  0.7737302816521634
  0.5749658408718641  0.4833991715503881  0.8356313923322541
  0.4066810761862414  0.5816417861434130  0.0260793485713307
  0.6860852537798490  0.5199111738769384  0.9180447610269671
  0.6261046329413222  0.5246442672694199  0.8967987792629164
  0.3522775566027354  0.5998848337669725  0.0602484555169427
  0.7086767751244386  0.4488468930339855  0.9981402118116474
  0.3542648013936041  0.6484447205390403  0.0973709240085504
  0.3701922861958388  0.2266445169273812  0.5626336422870040
  0.5938196540001018  0.7111817054784728  0.7562212459532008
  0.4100616111395782  0.6781107315984014  0.1043537374010807
  0.3800472096444706  0.1324219732673822  0.8115307554318970
  0.6356476064559602  0.8221922942790821  0.5324228886999950
  0.6951666617907041  0.3571915547328339  0.1355507413758833
  0.6973408532662000  0.8380415647444849  0.6067390026947577
  0.6522908689951068  0.8450094366791669  0.6401359006605400
  0.7154000141243433  0.8317523117593745  0.6653938285318677
  0.5976683473364912  0.4492124135408380  0.1883461649373310
  0.6937757121453449  0.8747773868139181  0.7044549354982023
  0.7925745963554436  0.9169146164101870  0.7244163700422728
  0.5518137723902977  0.5249924853956254  0.2042602423612733
  0.8030524615640204  0.9051460998580586  0.7922178614719669
  0.7905774175198237  0.9505639788093585  0.8328505725664480
  0.6560510273537959  0.6495497090274543  0.5008101791859455
  0.6341404620808446  0.5801611707854419  0.6205664934858477
  0.5568191521559143  0.5887225243559721  0.1847789114306093
  0.4112266553336897  0.7109830222722848  0.2104119947545376
  0.4156954797648804  0.7575966238609784  0.2531331165121162
  0.3750421151308517  0.8810361970740036  0.3148340233998415
  0.7194194969857468  0.8168075017621778  0.7244854444307713
  0.6697505023929297  0.8125637287507146  0.7626741179376555
  0.3247603577705317  0.9297254147416834  0.2259821563359913
  0.7539265701874366  0.9000341451351382  0.8340543516766487
  0.7627626491830783  0.8874971456604676  0.8990688385726988
  0.3316338174918091  0.9741935175810458  0.2732565785761507
  0.7984572521171255  0.9427599108735296  0.8974476279990574