Cr H  Ni
 1.0000000000000000
    38.7169076500286806    0.0000000000000000    0.0000000000000000
     0.0000000000000000   38.7169076500286806    0.0000000000000000
     0.0000000000000000    0.0000000000000000   38.7169076500286806
 Cr  H   Ni 
 1596 106 3725
Direct
  0.9328270443948191  0.8523775193874098  0.0095519720673942
  0.9189351993785519  0.0920097901348470  0.5501206710598919
  0.4945771305569543  0.4313462179591972  0.4409165343309073
  0.1625048387292227  0.8667841951123372  0.3082377057032828
  0.1240188483870453  0.9890845814365615  0.3691343386627766
  0.3011573080206308  0.0683805986819742  0.9100044564978900
  0.2496141328023656  0.0295278496083453  0.8430521939778788
  0.3521526557122365  0.1055634811937631  0.9774543969709977
  0.8797633099545045  0.0346165016162296  0.1196357788620238
  0.2364895281108100  0.0168707810265754  0.2756550001651165
  0.3617703283023602  0.7285817617129391  0.7284804278409504
  0.7635959604397793 -0.1172816605345120  0.6095231860938406
  0.4099649749144023  0.0647235637766387  0.8895945814747022
  0.2675376968691612  0.8514266828120410  0.1758877528545141
  0.2202223021852749  0.9134554463246073  0.2535776973994529
  0.3133049151004150  0.7740177246802661  0.1563862501010414
  0.2126999687050519  0.9964462300897065  0.7433819656193592
  0.2887070124190399  0.0447796784801742  0.7398992057214927
  0.3688442103859145  0.8055707566314739  0.1651776997057077
  0.5308982711729456  0.3461352924103994  1.0259469893930184
  0.4613980689192830  0.1488330372842293  0.9992569032081098
  0.1905008006844441  0.6256743057333589  0.5169436440332065
  0.9659115977701357  0.4368002045646387  0.2649565940400990
  0.0075819602502241  0.8834931527916190  0.3023081516328154
  0.4712252059908166  0.7592179385372002  0.8195707361739943
  0.5595159087916133  0.8137110371683829  0.7829395017701298
  0.2612206692573224  0.7518499487182445  0.9174691413434169
  0.4838412449496928  0.7477251813823880  0.8790534392592869
  0.3607804196497749  0.7998400024015869  0.9464960183838169
  0.4367702243752032  0.8292462317792298  0.7405340112086228
  0.6145298427580049  0.8191387162821666  0.6456483046395132
  0.7910579060953925  0.8202465160933958  0.2437978594695925
  0.3217536332535359  0.7520953909343403  0.9368770237686193
  0.3835374548510278  0.8231196413664679  0.5571751051311260
  0.2823949795588441  0.8559162755076497  0.9658625635304677
  0.0301487589415293  0.5486284048062221  0.6481996161805648
  0.4032498211632777  0.7469510509542701  0.6300469980120091
  0.2668811489841042  0.6526175315955006  0.5910067667104003
  0.0776096412666724  0.5869996224735607  0.7100594939871866
  0.9907974767067694  0.5323588410382181  0.7480345300998196
  0.0882077729347860  0.5756718509406044  0.7708376487584182
  0.2495321399711559  0.7651295037722435  0.8526744929433004
  0.2287789782514078  0.7866934801624855  0.7295701303857188
  0.8291764415528247  0.7024035145558036  0.4170468630922978
  0.5485435538630796  0.8919660601666726  0.9316127107521326
  0.3815053431318757  0.8515813486834485  0.0499073841213386
  0.5758368548187776  0.1447059564071073  0.2719012260997680
  0.4784092361031150  0.2095058949517089  0.9434832310764910
  0.0114312817308578  0.9454192442452992  0.2838167103373685
  0.0515444412778215  0.1881086942525916  0.1351537002876219
  0.1987234726024434  0.0399712102829335 -0.0012939001485066
  0.0092738956168542  0.3283489343851705  0.1401002210669491
 -0.0011893971004441  0.2364476372477851  0.0467373241265260
  0.2846223756036005  0.4656642823640260  0.2510124774094807
  0.0985053529740535  0.1272353769182153  0.0512034366730477
  0.2404234090512219  0.5908499103856667  0.3126952745279192
  0.0438831087112629  0.0467806220572316 -0.0023997300082931
  0.1824148133795674  0.5118608980660302  0.2598806030405175
  0.1584871443483893  0.1380148824233537  0.3554802078314281
  0.1478969414637455  0.0482028535171274  0.2649112308734638
  0.0345274283524661  0.9904635600422547  0.2459786606738506
  0.1252024829824258  0.1713741384330225  0.6572729471921437
  0.3411783161338860  0.6093292182533393  0.5113123898514190
  0.3297148724150288  0.3381490042802026  0.4134257760183477
  0.0743672256336827  1.0036337107225146  0.4034279280403821
  0.2518343930274015  0.0518509019080645  0.3141329807328974
  0.0328341499679358  0.5795517500788527  0.0751855529859079
  0.3296752312797057  0.3709979335499421  0.2919050027137713
  0.3444137453575903  0.0497483988818430  0.4220491819335363
  0.3874352856963655  0.0057792024648300  0.2821233129412331
  0.2765655444124486  0.3733447718420637  0.1614616758224063
  0.2163720508307061  0.2801542743599730  0.1669873928764865
  0.5033642166767304  0.5734388839906079  0.1158077434119224
  0.4965723368737058  0.6546133179377416  0.5582973175927248
  0.4789988745878414  0.2649013290566548  0.2029333774021816
  0.4677011969404948  0.7131444353295168  0.1120556707429780
  0.4055653670631802  0.2287421107557728  0.8543657422058519
  0.0652271504337699  0.3579811075040442  0.1514301303443736
  0.4281887387749079  0.2645737728969450  0.2983356418220684
  0.0081098918372413  0.2954110080271847  0.2632579159183666
  0.9171144983113704  0.4692471066723840  0.4614009156554688
  0.4325086059220041  0.3254986577855039  0.2828966798483227
  0.0156764413394486  0.3747349786885423  0.4158406961336100
  0.0674351823308321  0.3730233372543784  0.3169939798118867
  0.0635816374964224  0.2935343895928809  0.3952634851752240
  0.0090121989440314  0.2641108088460171  0.3877349234575105
  0.0596386401380791  0.2474579866614741  0.3500810554885922
  0.1625712751555815  0.3364960114988296  0.4738265745437631
  0.1101050062526311  0.2158175127205377  0.3742547677528851
  0.1193744225958023  0.3719702028802405  0.2214422506633002
  0.4557000410802110  0.2687428257433506  0.9196327544195048
  0.0553698023546869  0.8191603102363784  0.2247502415094991
  0.5406179350358766  0.9587466874391621  0.1699114284287767
  0.1981508207398871  0.0497754019544270  0.1680314693272842
  0.4233479390007088  0.2174583243615294  0.2516460565309525
  0.0636221160653234  0.3426704171168902  0.2118428797857582
  0.0556149160520553  0.2490513053831233  0.1210890275224334
  0.5892196612369761  0.3127560125052333  0.2832771218473437
  0.7498186085087898  0.2061337214585777  0.8627323172683895
  0.8889593433445467  0.7290551711447985  0.1961177437641881
  0.0295984409488740  0.0149845724957119  0.6765210053065065
  0.0235955549816283  0.5898011255398012  0.0183538245767743
  0.0751023282288088  0.9362764992588711  0.8184453318186746
  0.8522998536940564  0.9150061694159588  0.4683722298392143
  0.9110612255661683  0.9591589143342613  0.4192245213211395
  0.9850465746747300  0.6670989886525679  0.6080722579574571
  0.1782913811339351  0.9879302333962754  0.5056728376242529
  0.1870836277023410  0.2341699716346904  0.8896609615079401
  0.7506994389761085  0.3909388204631737  0.1486981074958930
  0.8092361990743526  0.4534590128280774  0.2618745372036539
  0.1730454335847919  0.9269676139930938  0.5206136752583842
  0.8568564009915831  0.3903842094608561  0.1835962372636405
  0.1366704210469205  0.1957091920456438  0.8229270393734436
  0.1573407338745315  0.9084904128937403  0.5751037957738868
  0.8564254526751223  0.3754977436670563  0.2430113422836097
  0.9258243592605671  0.5914534332433146  0.2025582840087569
  0.8148062500438461  0.5935393157603202  0.4000618835965791
  0.1058100063672941  0.6514929116285473  0.6510047685245189
  0.3755348775041562  0.6843139334501160  0.6809583927862867
  0.7190870875576065  0.6908914135098029  0.4392383281952070
  0.7817282622636779  0.7207369206412962  0.4437523235691154
  0.6515798788038386  0.9979073772597765  0.2438274513912876
  0.8964746449331349  0.3835849693596955  0.9707646711635788
  0.8986152845852869  0.6096045025244461  0.6494938027133565
  0.4682309537502201  0.1907612113869459  0.0466325272978886
  0.9444562249491331  0.2255340016527674  0.6992975064550999
  0.9437006866938680  0.4602438309553759  0.5815565265033392
  0.5291203989998597  0.2670229014559918  0.1067208002931668
  0.1405026781390204  0.5855023467252994  0.0461440623384834
  0.1755910430982532  0.4349720315296858  0.1116817381180634
  0.7850231726897312  0.1138515597751875  0.4624356760426826
  0.7931145777887038  0.1367426134779795  0.6116312032797312
  0.7366199437699761  0.1445056935308357  0.4360844877302015
  0.6896535439600603  0.1601747348798680  0.4748627876719541
  0.8932284337683664  0.1833064502449260  0.6342307165614157
  0.2576447829160624  0.3565093164571922  0.0458520435944512
  0.1834350322116779  0.4476567012552501  0.0516827993396532
  0.7608603674748032  0.0578404154349394  0.5653747829133076
  0.2328174032877984  0.4852089972814045  0.0554894670435700
  0.8672787990558825  0.1240881447343022  0.6931054217041168
  0.8778355488402251  0.1139887898964294  0.7547565992974405
  0.9483921129360691  0.0955879972579193  0.8398915789626320
  0.9563954512340724  0.2145254066953362  0.7598787128194685
  0.9671181067563814  0.2032741594529919  0.8215052496394151
  0.1002330135153744  0.7136988152282796  0.1006458075071119
  0.7893733052815832  0.1451609112711687  0.3399986273920853
  0.8357232116091940  0.0816829443519157  0.2600809487399752
  0.0236087754768359  0.5149327206601688  0.3182304170797420
  0.8507381828042058  0.5711102845806122  0.5837721405313794
  0.6867309062042549  0.1906502749474110  0.3499551464445423
  0.2140062566783718  0.8365186993640086  0.3326385128015821
  0.7515188434689042  0.2914009586620808  0.6775630214677687
  0.4825754867872540  0.3107313651044561  0.2486100483724784
  0.9750504391973496  0.4567655675079668  0.8653811217384834
  0.9250863436129316  0.4512510849113330  0.9073224125754664
  0.9859679635356271  0.4437239321978012  0.9250725254413061
  0.5428777051311422  0.3902203856755024  0.3024407683188713
  0.4402203506249767  0.4339908930714698  0.3107406334493090
  0.6911900382662082  0.1484535457979586  0.5431886262856308
  0.6461888398670295  0.2377002784923265  0.4932762683447655
  0.6620787314888505  0.1988055951000321  0.6192923238276835
  0.7213803495318309  0.1904263864538084  0.6366627136421207
  0.6918668671693418  0.2986613414894701  0.6564228641014030
  0.3386089696069678  0.4956853224580044  0.2600276701789939
  0.8003084259179797  0.3313632359193049  0.7406365905884341
  0.8608998440071316  0.3242356930306791  0.7625896179029045
  0.3460035154494636  0.5900223861456589  0.3488064665461207
  0.7622861011768620  0.3140644169934992  0.8437302346538342
  0.3989426777701235  0.5892607120128713  0.2505177621890233
  0.9107885555940083  0.3618926707146575  0.8279485839676087
  0.2921502321393267  0.5740650835929589  0.2789028801570886
  0.8626847256452764  0.3571184139552931  0.8663320695948319
  0.6195073000729654  0.0839492183960752  0.9607188702915361
  0.3949150089970133  0.6142373143061396  0.5329785777720368
  0.9560253066637434  0.6348436666041669  0.7745560886951290
  0.6408463818062239  0.2677420533535532  0.3694525823931795
  0.5937842975162676  0.3297610433847116  0.4500777896230822
  0.5447696260364924  0.4207694151064236  0.4062943083210317
  0.8102897417036405  0.5530565965048290  0.6852637348584122
  0.8579064248558639  0.5912318447665263  0.7526193120207886
  0.4999352761487692  0.5405165592428819  0.4734905756375262
  0.5008227790145392  0.5591934472012560  0.4093317333198926
  0.5120797554865898  0.6829084972101146  0.3688498695514139
  0.4516758012053009  0.6373680298547028  0.4269105445215606
  0.8441286485642047  0.6685132405109815  0.9009921236193262
  0.9921179022824356  0.7177852603628175  0.8829042129348377
  0.7064608715692209  0.3840833256866638  0.5331851226523038
  0.7169432355077690  0.4704095265649313  0.5591372537381234
  0.7070372343021285  0.5024143703549065  0.4943603789712597
  0.6248483356027723  0.4200165151211228  0.5939163597196332
  0.7598849031653141  0.3925143902641119  0.7023503464387940
  0.7560877408191652  0.4289185609001472  0.8004736798905721
  0.4886250858207645  0.3690778695961788  0.4613276036226691
  0.6789297927992167  0.1367286113319281  0.6242873654129362
  0.8000805743897473  0.2982832219899043  0.4153098822570050
  0.5559507704372403  0.0980870510218782  0.5284461339788542
  0.7500684854813564  0.3140408071320109  0.4514348775157941
  0.0483230384252719  0.6282032525542363  0.5251721860075644
  0.3857022698462845  0.4187705191118770  0.2409139401778035
  0.9614883307711655  0.5709580301470759  0.5661919388596274
  0.0975134058732210  0.4097098420092040  0.8040895030007028
  0.8018124532958126  0.2832346030714662  0.4753114168013884
  0.7938639702268554  0.4437209395350369  0.6981267013797017
  0.7932232007995931  0.1897513875245002  0.3834896868541625
  0.7300409139142434  0.3483608169117980  0.6590469149348142
  0.6703409290770401  0.3571356910600336  0.6388999512707183
  0.7794059269660455  0.3521837431312742  0.6167210543533901
  0.7047795771886364  0.2618436506727422  0.5574883633999511
  0.9649360629913066  0.6534857421339829  0.9397041683692577
  0.9178977471688777  0.0205011192406258  0.4015666071493658
  0.9763045333051722  0.6091312286956236  0.8980288038577451
  0.3297407707089504  0.8907130738585380  0.5812613278189352
  0.8917006613512023  0.5223857146430381  0.8267454613459956
  0.1623169899832746  0.8178699333807937  0.4889642694703781
  0.4046295783724645  0.6657281568176500  0.4001641798567526
  0.9377201279677061  0.4076632598744757  0.8648868085043333
  0.6747344666452336  0.1891530128287691  0.6763597454278033
  0.3142728515263453  0.7893467782467869  0.3235402379504128
  0.6393704452305549  0.1402395943377506  0.6657574771992387
  0.6512324512517358  0.2208379287145790  0.5568779116540739
  0.2073013543254504  0.7736920310606996  0.3500598732123131
  0.7358855224156254  0.1301413864143129  0.4988211733939146
  0.9980693437621444  0.3995980683231171  0.8855363296578170
  0.6983870650182017  0.3451057188418000  0.4242548388628651
  0.8540974311174662  0.5053623753102778  0.9246653036139086
  0.9150384760143871  0.4969366205627673  0.9471818490834205
  0.9286907367624181  0.6758404417450569  0.5910058901982300
  0.2241094853209590  0.9135170239159655  0.4861280376101132
  0.2178256266465165  0.8664039107024072  0.4391791580691477
  0.8050746860636657  0.7020425553991632  0.4918576942486393
  0.8319522923168817  0.4963830269457692  0.7021175929282802
  0.8804521853463905  0.5338546702628370  0.7685206243776244
  0.9362422347461848  0.7966420183705482  0.5736549944134095
  0.7706806240044057  0.5373707232977272  0.7851739730713924
  0.8506168962103613  0.2039713341161264  0.4536030690219689
  0.7398119094943535  0.3374495626547285  0.7217589669593945
  0.7025051331577707  0.2872550956919665  0.7192566115693754
  0.6425081947226233  0.2944813220158949  0.6978240380427524
  0.8935434840921754  0.1253981430632231  0.4376900205109830
  0.5907855884720139  0.2566914817466486  0.6360685132265991
  0.8717457782744192  0.0857387935584552  0.4794015616519198
  0.6389200398755147  0.2606761663350465  0.5932301332151227
  0.5423337581915083  0.2062097850657447  0.5771086438255154
  0.5482891427807121  0.5104219627750880  0.4953807534942838
  0.8868186724386594  0.5518919299556799  0.9420788734163226
  0.6498509934875287  0.4682440381936497  0.4823474859829229
  0.2727865588743791  0.8963616268863684  0.4496582017666782
  0.5723242851130721  0.1499988896408494  0.0392470055248225
  0.8354086438917087  0.9617420020437255  0.7290131599006493
  0.9227729618858078  0.3511038877480169  0.8862109000151265
  0.7524417305233280  0.0429201233561589  0.9027582305367309
  0.6539691585495798  0.0005724443010946  0.8704128736903095
  0.3983966276645171  0.6065185959446295  0.4184242769618475
  0.4472528151670681  0.5428636263748980  0.3373227104979135
  0.6845987569657697  0.0922831584972496  0.9213615933266125
  0.6817420673094648  0.0608369149788510  0.8151569440029547
  0.6096200548537535  0.1162958160247788  0.8368175114151237
  0.4431705437238419  0.4650876992420930  0.4133710795304029
  0.6335489425421488  0.0247221772115286  0.7438038131887270
  0.7990609773004769  0.2440810568509766  0.9226330817841576
  0.8106727449204812  0.0322279604275771  0.9216773719925020
  0.5761701956154636  0.1583881781926068  0.2088269678086547
  0.8096451766601532  0.1989134555808734  0.8820842930328229
  0.7090065625430624  0.1238495485984403  0.7566691900391315
  0.7200397777205547  0.1107770030268556  0.8189812829837022
  0.6478631619426158  0.1310149735093589  0.7344178514795940
  0.7206745907149240  0.0773587115496251  0.7175362263404550
  0.7329182970507200  0.1288045251505535  0.2703716892371806
  0.4992420215269222  0.0509654049631438  0.6394360605254988
  0.5409263848546181 -0.0375338797616515  0.6330563963709644
  0.4370712265821211  0.9486216016912108  0.6015315279815422
  0.9787806620724235  0.6833250147423896  0.5472819793948364
  0.4327905764389816  0.3577691103445839  0.1607873759577501
  0.1623120523995317  0.8523972958873620  0.3674253532528174
  0.6266502761647657  0.1753241296317196  0.0522654532634050
  0.8020466069258365  0.0469634970468111  0.8564108290108609
  0.9946617666491743  0.2981802861686534  0.8669509580459608
  0.4231553396846842  0.2524267993620802  0.1294382420685533
  0.8882142370578076  0.3863479285339638  0.7047150447246854
  0.9746558742892188  0.5273241229627817  0.5254005741312529
  0.2295389339369484  0.4203736685264732  0.0740107835096293
  0.9786506334801381  0.0733164766678053  0.9656373585060339
  0.8696606059162357  0.0378947602745027  0.9370677930426706
  0.9863260149315362  0.1827923771402556  0.9460134278654491
  0.9290461909128402  0.1525511077101563  0.8196807266832102
  1.0006510865845344  0.1357248819351259  0.9056105098285241
  0.4132032469238827  0.2399051532032543  0.0208757792869495
  0.8999798176810617  0.0917669524021804  0.8806772103319572
  0.9106194737781594  0.0464961481153263  0.8356344023868155
  0.4163790767617738  0.1620624003070391  0.0348665038079890
  0.4128202775104393  0.1039102828757509 -0.0074893801233109
  0.4621251104913432  0.0850301537431496  0.0163035072098571
  0.0019678934224093  0.8151626792529172  0.0914932918655684
  0.7840266872922184  0.1857150725751706  0.6557847234757372
  0.4690841695931687  0.1745420289733117  0.1098818921222922
  0.9752324665370722  0.4237117353844327  0.7619416902589476
  0.5164411742959407  0.0991835132459879  0.0893162811323873
  0.8284990869034687  0.1495739452077403  0.5621985844816479
  0.8311739360221561  0.0503480221537078  0.3843794446040548
  0.7390821142020514  0.7940638577211679  0.4623083613660898
  0.8023647113239313  0.9457524316728046  0.4425608325821313
  0.3871697537452877  0.9364547680256474  0.0409309864116782
  0.3849897169582526  1.0050220260485110  0.9481244452318304
  0.2958787341023790  0.9672491061823314  0.8928960091092548
  0.9699898774045204  0.4839445151401914  0.0814848015547498
  0.3058983768354382  0.9221431048187988  0.8471513174817914
  0.1083742801449484  0.3809039807481661  0.6692404563100959
  0.6249460404054137  0.7113710403327995  0.0461873762808198
  0.4531727011247831  0.7355182431889071  0.9837223021625671
  0.5758880305682184  0.7898973002494910  0.0636313551398030
  0.4899322643731737  0.8872011740487133  0.9720471383578787
  0.1715353953141571  0.5111563019137508  0.8102814798507790
  0.2564684300688680  0.8830220373645721  0.7804135630349401
  0.3185197847027722  0.5616402566853560  0.7964112427130668
  0.4408523765330783  0.8980077679205413  0.0572006381476595
  0.2692918650302800  0.5563898288993420  0.8360302525202444
  0.4224806431718599  0.8518742845097518  0.1123767521315590
  0.0898954992210556  0.6762210514417374  0.5223075720979887
  0.0972097663463257  0.6634029149079802  0.5894114294096762
  0.8485862452892758  0.7379521650405290  0.4668247776072988
  0.6560654871491760  0.9295213980684893  0.0187515858912324
  0.3982805878180334  0.0464267537274416  0.0054737223930265
  0.3382298544710291  0.8546249318247832  0.9288319033148422
  0.1401013295464331  0.5172131012975041  0.5246719911476547
  0.1671094253057471  0.8296978750086882  0.8132561412346164
  0.6515046235924543  1.0063535205197629  0.4819329749803102
  0.1790917409942237  0.5982132569102364  0.6299122457775874
  0.2380357320542983  0.5913935768216865  0.6505607520265855
  0.9195999448705774  0.5279717741243350  0.5056584592361458
  0.2480133618914274  0.5796612764096677  0.7120622867596680
  0.7859976919027819  0.7615037433108998  0.0284495207887045
  0.1042522739790197  0.6831271256909208  0.7578151474717572
  0.9715457727892792  0.5604605808057193  0.4569161332783500
  0.2960749092501329  0.6175629627610737  0.7790365996396562
  0.3558110130633504  0.6106888766775692  0.8004005276182710
  0.8590165149854175  0.6119897124446990  0.4627384513692402
  0.1916605888563790  0.7387812156699788  0.7216196839006547
  0.8323218643499797  0.6648998105357864  0.0770608236950241
  0.4549445588465531  0.6863593982047453  0.9396527697190723
  0.9281564119544982  0.6052787162857381  0.1440177799645312
  0.0339192364228968  0.7025282742199495  0.6743585835347250
  0.0186707642772439  0.7340235560947442  0.5484687402271132
  0.7415076221213798  0.8552663033040840  0.4461988269246248
  0.3839405477894892  0.7063259518918894  0.8528879685761563
  0.7760179755475818  0.6859026948274545  0.3445654322680052
  0.9456815074385292  0.1730262359070339  0.1577821653034260
  0.8882379937386504  0.6952390736021974  0.0882223848712578
  0.8512473499777135  0.8848432836233830  0.1319487843855269
  0.1757756778032845  0.2104305257286023  0.7228155047425814
  0.9983399803891647  0.3840162762638829  0.6849823211008783
  0.8654412568024400  0.4260788429648811  0.7806778566856162
  0.5123883828724720  0.0534319833827310  0.0350954057277434
  0.9210653188039688  0.2821794396400971  0.6804367304195561
  0.8608585364629603  0.2884197625371285  0.6587393925122126
  0.8512750729629230  0.2989064435597869  0.5983487321181589
  0.0051380694585047  0.8489608008337965  0.1959026099924983
  0.8082801973255856  0.2052431674493117  0.5518998482197418
  0.7501839434583250  0.2535271107855888  0.4634911444367648
  0.9142256391380283  0.4304685107376190  0.7407104902933793
  0.0411191955243146  0.6679312747352742  0.1586668932821461
  0.9483197366119047  0.3442572287950819  0.6202589089474154
  0.1410407534399171  0.6217862215995235  0.1520519310328857
  0.9385882572612365  0.3581363363882628  0.5627446690236789
  0.8508286987513155  0.3058307312111770  0.5408103968103529
  0.8551870484357355  0.2521889275384111  0.4980538336153402
  0.5856181259540338  0.2819586380622867  0.1771009823949341
  0.4985075610348612  0.8539507240264680  0.8673316403155992
  0.6477664275908558  0.9687560932626695  0.3720859291829903
  0.4389861509486628  0.8940219907893663  0.9530320577665512
  0.5466782082219888  0.9150354223260690  0.0380130531763770
  0.7802248817766243  0.7330087432605944  0.3841084833325503
  0.9713650035249215  0.3214500772398565  0.7440330596093456
  0.4772319886111647  0.8508999517376385  0.2436209966822966
  0.1263764212729918  0.2050337964642943  0.7624776299951063
  0.2994562311850402  0.6679630007000456  0.3650216442596095
  0.4338619084324121  0.9448397783398214  0.1999250979702194
  0.2250139793461926  0.2498550834852486  0.7877500770885909
  0.2029698467620554  0.3063078502287225  0.7704708873471787
  0.4804102970703162  0.8965485517619820  0.2871156028267962
  0.8244574807171178  0.7961892718357092 -0.0173897913113535
  0.2965269992274239  0.2316418527140728  0.8718471155272750
  0.2753076226673083  0.2890369332192043  0.8536611198346679
  0.0493829852511169  0.8091060101265474  0.6577011806744508
  0.2798233713438824  0.3265821413152005  0.9584671222754292
  0.3460449436501241  0.2721714318405255  0.9374025925878466
  0.9943683623860597  0.8257437451790515  0.6455059219426610
  0.0440843592814602  0.8663479343048710  0.6075076133352572
  0.1501567666970461  0.8187690161697856  0.5831366001222610
  0.0230133060080120  0.0439493449760034  0.5427094215411120
  0.0474709821727932  0.1049946602486514  0.7575849832736579
  0.1803361149618281  0.0798429159657181  0.8643750864372888
  0.7160133901633484  0.6083953731007895  0.2923727296833694
  0.0869942310317060  0.1531904146341693  0.7603064219225236
  0.5049309814875189  0.9386955644263597  0.6845456938962070
  0.8771805267040541  0.6681415852970679  0.6317569212545548
  0.9333824184167121  0.4373414638008431  0.9705081460464214
  0.7130994330079279 -0.0279039803347653  0.9651921365613075
  0.0498152753139028  0.5588695693436685  0.8709071429774444
  0.9792295068655735  0.6070290684297531  0.2738806037214558
  0.9506925548919557  0.8201432132887875  0.1876932483328788
  0.1074513658111884  0.8355614836829670  0.7894982173817062
  0.3469368912415287  0.9775305388056462  0.1898259095572196
  0.7921463901613631  0.8325585302846757  0.1814784203022397
  0.8715413909868258  0.8791600159891400  0.0408605294503867
  0.9478216899622782  0.7715205916252068  0.1436480165036669
  0.3787053475089391  0.5529964739534043  0.8178742354626403
  0.3532116207238816  0.4926544521865485  0.8751075756795986
  0.2274987612175439  0.8543270483205353  0.9440119361711131
  0.4524483128440503  0.5361297457371939  0.8972381357690860
  0.8771292818854581  0.0042588263112898  0.0123909387624737
  0.8311030218480301  0.0837922001626307  0.0258512782929717
  0.2805621199584367  0.6085748057466012  0.5468923738871360
  0.8263150368641271  1.0072055884639919  0.1116132694764591
  0.9457002767070070  0.1889790024679802  0.0979794699617735
  0.4178607222783287  0.8030356717746101  0.0659323895648340
  0.1062383315428168  0.8682612593749993  0.9004781058050025
  0.4731808746719538  0.8212130819145890  0.1359757884215630
  0.9521636026430196  0.8345810842218738  0.1262349552679699
  0.8381361350004259  0.1915001090139350  0.0613171213527966
  0.3651533793370175  0.4828414576847611  0.9332720441720400
  0.9860993302568607  0.6516257416571857  0.0918797591279433
  0.1121933083447212  0.8546463404282768  0.9747662401045583
  0.9964392878405711  0.7071346939876724  0.0667508315953172
  0.1953146387364819  0.9235641532122343  0.8643832194244896
  0.8928963680028127  0.7564081894346326  0.0698949905990404
  0.0977308413400424  0.1091483233806524  0.7160181502672245
  0.8482087633023807  0.8659619868774296  0.1933940861566963
  0.1553572191659790  0.6959093483752757  0.0633394182748683
  0.0480343431641893  0.7463823908997909  0.0111539107394302
  0.1621421833258538  0.3527772679640228  0.5263238434343991
  0.3802116647329716  0.5184469574998123  0.7132638937110027
  0.5196236190373618  0.7416579457709606  0.1191453872711703
  0.9345039833898092  0.0325532481437100  0.0223274077307623
  0.7712695893201178  0.0691261446744070  0.9556068426402440
  0.8867249382402002  0.1098580268215198  0.0405933364314527
  0.1587478751537088  0.3862314972548337  0.6283781026286530
  0.4181959160163772  0.5695054103569999  0.7165402375843020
  0.2458550004121556  0.9595174262305789  0.9880166687894043
  0.8697803241385306  0.9253887459522556  0.0909667000376255
  0.3027858002794191  0.3508424356988794  0.7946566446599361
  0.2440495409521093  0.9623591097110337  0.9308563556112431
  0.3339921676411077  0.9387546810907552  0.1560103172023589
  0.8360125411555850  0.7119794074218737  0.1213276469382029
  0.2673455696850917  0.9097861554537436  0.9463723606628295
  0.9921103872996162  0.1110958327076759  0.0756495088868760
  0.3613764593547766  0.5433056376160202  0.5922081355618026
  0.8926374120711925  0.1617261847427653  0.0885963536866025
  0.8900404020498218  0.9456305830772409  0.2509517319622666
  0.4230530277528725  0.8370524333055523  0.1726568492533235
  0.4935087933270510  0.5373751477297559  1.0158890815233592
  0.8136176186635699  0.4983400295040901  0.0803158929112739
  0.8155145693701741  0.5103042672312023  0.0217748497032855
  0.8587102501196601  0.4208895577830050  0.0638369134267280
  0.1150943724234538  0.2507925122498138  0.8056113751964492
  0.8396468314428870  0.6773830799327039  0.0149308918556156
 -0.0057952616525637  0.2478496091888709  0.9885915311805172
  0.3929935574717576  1.0045179633203454  0.5169433301906478
  0.0376915859925974  0.1162480581457569  0.6970584043796845
  0.7973158122789188  0.3300600268304187  0.0712904111021396
  0.7893899125573334  0.2826862325993406  0.0226864578583348
  0.7054644586212364  0.8984528312724004  0.0505198801010678
  0.6818961106243756  0.8040481061067266  0.0374685658250266
  0.0454747513789425  0.1545379220269355  0.0265503796449839
  0.1169366082879625  0.2869727628273752  0.9092247766894115
  0.6635511997518823  0.8724645426425702  0.9750356421343566
  0.4275064966817042  0.8992140153951669  0.1566013226054018
  0.2540815421447578  0.4817230995976273  0.9572060527114480
  0.1565317431635180  0.4369783669680919  0.9313985116153232
  0.1461343683113546  0.4483211287788624  0.8693081883354523
  0.8767098299091555  0.5889472084136820  0.0702951438803887
  0.1313789889693038  0.0757466882954632  0.9055010700387149
  0.1539663314595598  0.3016766372770758  0.8097298190951513
  0.4040639263317322  0.6497619261800656  0.8695679873837083
  0.2041825657855215  0.3406266484522851  0.8763696381417487
  0.5285127475987945  0.8508162024968809  0.1444797427592427
  0.1308333296099839  0.3255912644790076  0.6859316982068948
  0.9826360210678255  0.0033816859903861  0.0493926124412010
  0.0669117294969545  0.3441899845316954  0.4437074391251374
  0.4832193609822220  0.7118930986759564  0.7733106947715501
  0.8986067837683932  0.8198194886471437  0.0546064101873435
  0.5047120765371454  0.6559773102322477  0.7892617420587136
  0.9445692567345852  0.7948449452368913  1.0180805126716530
  0.1397786162767673  0.7666984902863114  0.8682714317532514
  0.9620576404703481  0.7540491481534891  0.6982622950401876
  0.4454112329555152  0.6645003431464074  0.7683736251574673
  0.1208766349812186  0.2985274752108714  0.5217289010253876
  0.2314769233955654  0.3687423994254653  0.7112326957943993