Cr  H Ni 
 1.0000000000000000
    21.1200000000000010    0.0000000000000000    0.0000000000000000
     0.0000000000000000   21.1200000000000010    0.0000000000000000
     0.0000000000000000    0.0000000000000000   21.1200000000000010
 Cr  H   Ni 
 259   9 605
Direct
  0.9970782067115530  0.9173270163965617  0.9146684824089869
  0.3316229253901923  0.0824338253212395  0.4179959338005037
  0.3309853025676128  0.8342568724423662  0.1662209947157108
  0.3300285621018071  0.9984888845562241  0.8326731834243033
  0.6617247347292765  0.2508366618663941  0.4171494629509113
  0.4119534857156707  0.4981501953780693  0.5832716877823724
  0.6631932707188143  0.3334196716275830  0.6671233086201002
  0.3296227545257053  0.2488034088276087  0.2496609305344270
  0.4125658722509787  0.2502938550597574  0.9996190010971923
  0.4976350881631741  0.4161089239333080  0.9179783229053312
  0.4976569712789934  0.1664809095393487  0.8331689708321887
  0.5828190272918884  0.8342847389402591  0.9169438559883513
  0.5798881136434253  0.1679068758160271  0.4166395264691204
  0.5804659079634233  0.0833839802798034  0.5004338847273410
  0.6628824446650845  0.0835363764285496  0.4174543082779453
  0.4988245809918708  0.9168960259659705  0.9157838468769519
  0.4126279523507977  0.6676762750694755  0.0827403777268838
  0.3309385463545355  0.9167639369226632  0.9152174590698227
  0.4144347561621304  0.8318413630041822  0.7494453799858156
  0.4113943106704682  0.9150364428731027  0.4998374744490019
  0.2448895143324035  0.8305024198525608  0.5848266478484094
  0.4124965058460068  0.8332894727127430  0.4172485000122247
  0.1654998117784654  0.1662189323354427  0.1668556647548407
  0.1650431977091708  0.7481997902952593  0.0816383266819441
  0.2479628218664744  0.3335137628452265  0.5835358629381159
  0.4985061100981003  0.7499535678253976  0.9172497002657324
  0.3294935198102808  0.4168944193729909  0.2480385436239833
  0.5798123616640801  0.4993722976502225  0.4148359948073291
  0.1618982476361653  0.9983772568157869  0.8330687793546200
  0.5801583821941927  0.9155393711314850  0.3317498390356601
  0.8302273075457322  0.8341266084199616  0.8330212634581462
  0.9974674317588178  0.3339892795360539  0.8325828913290655
  0.0796314313560603  0.9156315028501191  0.8331377223894152
  0.4954945903399119  0.3345679086937315  0.3312688503741670
  0.1655003036703322  0.4167891097458388  0.7498654024027660
  0.4973635738204982  0.4162207970141092  0.7516361435644942
  0.2465662831729005  0.0004260207503569  0.5833158558320343
  0.4958710375762282  0.4166726381411547  0.2479236819126464
  0.4128778758033239  0.0832424104171880  0.4992444706715485
  0.3296136920938402  0.6664715376047575  0.3321879917879701
  0.0793548917212408  0.9169071555698594  0.6663195306156280
  0.8299739299141387  0.5831386106651456  0.0838884368850141
  0.0815665161294162  0.5827093890994268  0.3342665258149152
  0.5798361954803266  0.4989820842112770  0.9182563997303227
  0.2480316822001060  0.6680220812998632  0.0809882708076602
  0.4965436248070588  0.5835279917927512  0.4167647136197209
  0.6644915754146614  0.8343176274121380  0.6687779062492462
  0.8306184131273731  0.1660986953338150  0.8329899972258574
  0.3303234529792622  0.9163438322083038  0.4186000632277234
  0.8294494879180953  0.4171078534683146  0.7513519077694203
  0.3294337186610944  0.8339881578819733  0.3346215468613468
  0.7490013989842793  0.4176508608687212  0.5013903654284202
  0.1647492482770759  0.6671723220165543  0.8338128492757763
  0.9977860352039882  0.4167732902590338  0.7494467600010223
  0.2468851470729949  0.7492103883433997  0.6663208638876811
  0.9156824191124573  0.3317211913027577  0.0833557902765863
  0.2463956115442640  0.8323465869574632  0.7489796063289067
  0.9127282624105727  0.2501268638689448  0.6662785464965355
  0.4128738785174598  0.1660036677090709  0.0820514056835698
  0.8306756385371225  0.2492670944590020  0.5833769839529569
  0.3303559234915386  0.0010804955273453  0.1662252330096124
  0.8302501993576565  0.1669898297457814  0.1684666733670341
  0.3300365086634715  0.4166455371488579  0.5837209711081771
  0.3296583135207072  0.0008371714658059  0.9984065908979225
  0.2469742885951863  0.4186772115526641  0.6673169499907927
  0.1641834951318386  0.9173469225784117  0.2501622215861559
  0.5807512321952414  0.1660073586481144  0.2502649959519344
  0.3306927854773803  0.2491116450601275  0.4145280839368323
  0.3307222637855602  0.6662586404072508  0.5011739744950365
  0.4967260607553778  0.5829079856957282  0.5838095658112793
  0.0819658042786407  0.6686876567457022  0.9174518293452160
  0.1633743135944270  0.5840148156908481  0.7521402021600907
  0.4124070917281614  0.9174368984796113  0.1655969488908330
  0.9131770142683165  0.5826117256114158  0.3322205431699348
  0.2478731044326771  0.5850915384531573  0.1650027940577884
  0.1620397390930305  0.9178704837637376  0.9137916849894486
  0.4132314625222006  0.2513216811474302  0.4992947705743060
  0.4980164092936127  0.0836760068751341  0.5823988054226612
  0.0806707611916788  0.6664294718359138  0.5832855564123114
  0.3311154646365785  0.5006233819625295  0.8331447675525889
  0.2472008686321082  0.5836483160248006  0.6667622807928779
  0.5789849910808994  0.0834471737598566  0.9993599996282466
  0.4119279686827201  0.3306004776831818  0.0818248015989742
  0.5802848011260515  0.7496379204206225  0.9996127563114189
  0.4145209037110812  0.9997891672317590  0.7498448511017842
  0.4971284408878641  0.5829092398111883  0.7496690106211680
  0.5816090634717325  0.2507503396503440  0.4984168886260831
  0.4973722039266922  0.5012127066516664  0.0017348743748587
  0.3314377543768011  0.4997845983448810  0.0007036537029908
  0.3300912189404150  0.3319704965343252  0.0011544743950135
  0.5817122607481467  0.2522557406166841  0.6671916941743323
  0.6621406074558557  0.0823165291859072  0.5832133713773333
  0.4954577757127574  0.8344811907980888  0.1657167453611729
  0.4961682798460176  0.3336601658813241  0.4996264965332608
  0.2489610320771972  0.3325007763349528  0.4147460239548600
  0.4141390848189926  0.6668056606236266  0.7508072537269187
  0.4986166768970534  0.8337768300253499  0.9978293687023935
  0.2476599388131089  0.9995297612779577  0.7501037092316195
  0.2488066915817253  0.5860633629464613  0.3334511019722509
  0.2471769865290309  0.0812095705980536  0.9984268556655319
  0.3321842322010711  0.6677842028627484  0.8327266588811203
  0.1634274795352365  0.7480235687856501  0.9155346296509345
  0.3307429872430176  0.3342442713567160  0.8325175619905445
  0.6678891300169182  0.6623985217544497  0.5025651795511760
  0.7501389212486260  0.5830249659348608  0.3274468204104994
  0.4943648492807039  0.6669772457709990  0.5006740175219760
  0.8357128230651166  0.7489302962866330  0.5870455814561559
  0.8289394406429961  0.1659063768201726  0.3315583697920448
  0.9143783369810402  0.0007958899138270  0.4166846017494326
  0.6641041104131757  0.1660841275602759  0.8327928249979469
  0.8315218657363928  0.9172924248664037  0.5835221991571276
  0.8302533845591280  0.9186106012926907  0.0835508615857631
  0.7479808480426247  0.4994664931783149  0.0837008729296976
  0.7473370396338093  0.0007443819007090  0.9187319528709136
  0.8298441496541175  0.5004434234407403  0.0003010052678832
  0.5799593985149708  0.0014280705713987  0.7478979128717588
  0.2480219465482479  0.5006813590499071  0.4158028007064430
  0.5801502830736645  0.9169465954197715  0.5015606956050062
  0.4978670259476031  0.9166323901736803  0.5833602942206731
  0.7469621795982291  0.8344678428274316  0.2481550187198081
  0.9132144508531301  0.4978496705100844  0.9196616309425881
  0.6634687629356287  0.4148643108066876  0.2480924444176084
  0.2487471504507255  0.8327570157990869  0.4160661867759387
  0.4151881674889371  0.1647528710791436  0.2507375078431946
  0.4131017800933057  0.4169344536876494  0.1674685839436867
  0.3301027496434731  0.4994338424838589  0.4999481889132547
  0.5798498568521192  0.8355240961698959  0.2494983756144559
  0.3316486120509838  0.7494169540883306  0.9150158229106085
  0.1645005575135535  0.9178198222905041  0.0834538375673826
  0.7479025841683750  0.8339045821268827  0.7483925885722074
  0.9972519413771439  0.0008188037308665  0.4983245863131771
  0.0817589248018574  0.6649664461180824  0.7517017650216488
  0.9175430723012898  0.7526501817370345  0.3332223873851749
  0.0805221135119372  0.5833542856548505  0.1647433726872486
  0.7462142717386230  0.6695674908083860  0.9177651834326371
  0.9971041346758054  0.4983844463038513  0.8338164474701214
  0.9984342575652823  0.8347247132991861  0.6673681020957075
  0.9996098299740108  0.1671685093137349  0.1663996853926181
  0.9963470434080017  0.9171944231916356  0.0834611563141283
  0.5817522127517870  0.4154007528019011  0.0002037283048950
  0.9141297695834595  0.6676308028238821  0.9178663240379079
  0.6636260622800816  0.3330585325399174  0.8331597653308895
  0.9145821110663347  0.6664411771529184  0.7503827505876670
  0.8310593185519531  0.2493674581712360  0.9170744710774690
  0.8319117423979743  0.7536224712789916  0.4146999789827208
  0.0810619680279665  0.4166939916492470  0.3356545110939635
  0.0809338354036969  0.8340105856801650  0.4161742822977844
  0.8317181090443954  0.0828463723495003  0.2491209014426614
  0.9985465738207443  0.4161786371977562  0.4168674244006950
  0.6629750992636484  0.1663477989913896  0.1676170783717941
  0.9987910023855684  0.5000215203127468  0.1668771347494603
  0.7479187945670794  0.0832940588052297  0.9994902053797972
  0.9140844020203024  0.4173091515567014  0.4985447670980953
  0.9987182216034622  0.3329694649221404  0.5008043684953714
  0.8321901471560357  0.5821376512072762  0.2472762287499652
  0.5787983850572535  0.7506260528984515  0.3323199170805529
  0.9157165478204222  0.4138258755446466  0.1647938845191735
  0.7473051416154628  0.7503420244255524  0.1660790505693583
  0.3294915657277275  0.9999243457388033  0.3347211763670759
  0.5813318892845470  0.9993021823981205  0.5827673943604990
  0.8308493519829355  0.0003029316520402  0.3328929235712839
  0.9979451611354283  0.1672142243634812  0.5001015195740712
  0.1676694842159092  0.4149546900832811  0.5835544640218395
  0.0810927478653364  0.2489222002455545  0.3344620936398827
  0.5797812898766768  0.3327953951616718  0.0822131991017185
  0.7475528753922625  0.3322460064757932  0.0810629891071267
  0.6640609459288614  0.9185634725961560  0.0844243197794715
  0.8288896295345477  0.1679804412401577  0.5008066392779018
  0.4972261580957809  0.1669267302311456  0.3326304931938657
  0.7500527880965387  0.9163748530551000  0.5012708567837589
  0.7472549860546268  0.0840422080305079  0.3327372415678673
  0.6638302880240475  0.0814716766030574  0.2495259938859110
  0.8311071676019388  0.9999050647750771  0.1659186531681438
  0.9158534563325885  0.0843272929504737  0.9997288946683235
  0.3307752389241533  0.8346772407603731  0.9967139594034871
  0.4156719689370221  0.7502027858628084  0.8333180601033217
  0.8319257580464272  0.4134003002103073  0.2484721936781981
  0.7471312191416474  0.4161099975393183  0.9989051515551096
  0.6632596161139467  0.7509236871494808  0.9151231411131213
  0.5807570623123907  0.4996993041729364  0.0808923491840800
  0.8332330163154447  0.6626215492758347  0.5032166083096177
  0.5806092744058480  0.7505352190198775  0.8341587764481240
  0.6632365578540567  0.6691482215567127  0.3278638331698999
  0.7471227128212155  0.5834184497291444  0.1676222523515657
  0.7463358180970632  0.7500544363305194  0.9990228209930628
  0.7473914509433489  0.9184001719619970  0.9984349756231816
  0.7462141233154582  0.4981879478241908  0.9195050762848143
  0.7476437279232300  0.4978832185258415  0.7506507814421871
  0.9147570657584093  0.4163032382113452  0.9986768763296673
  0.5779915498796609  0.7510034247041159  0.5012666622797500
  0.2470688433220765  0.1672508799773127  0.7521316924227784
  0.7470454922838233  0.4974192567782267  0.5847269489690443
  0.1643717131720099  0.2489431797935523  0.9163671613827510
  0.0831055789117858  0.3331872671842723  0.0830605414045539
  0.9982885776886409  0.8342594427423404  0.1656637127314552
  0.7452532121557295  0.1673644363400147  0.2493636877623095
  0.7472707979404238  0.2494669051676234  0.0004995676269210
  0.9968354728469400  0.1675375106734322  0.8328385055753602
  0.5793161362472564  0.2500182066843155  0.0004519604388017
  0.0797742037240870  0.0840547895172054  0.9995949455573661
  0.6650714401412009  0.9185086024881061  0.9168799886259660
  0.0812451342527188  0.4992563466909102  0.4153174807889730
  0.7466595369473096  0.1681299620153498  0.7497333265623296
  0.7482852544079764  0.0007902643872558  0.7504487294055661
  0.5805765755879785  0.0826693484270216  0.6655942158083192
  0.4136743115003255  0.0828605460556193  0.6673840365114295
  0.0808980080272273  0.2497984294572216  0.6669874826668297
  0.0813962142558083  0.0834669163456421  0.6661556281877905
  0.4140780733194878  0.2511322067966798  0.6675048453595804
  0.1650412780008440  0.2483190427577268  0.5829470684041007
  0.9129402043745184  0.0830714740717110  0.6669411179663672
  0.3302530050855084  0.1666520836029332  0.8310475889053691
  0.2485810268484296  0.2487617807006470  0.3351199119499997
  0.2486093562903261  0.2498059062773219  0.9985881861546233
  0.2485859027792580  0.0814286184049907  0.1666076662657182
  0.0820324096728735  0.4158685392513981  0.1660848275002295
  0.4151274065952829  0.4172178589264073  0.3306733135269981
  0.2461980371974405  0.2468086008631393  0.1676002616812273
  0.5788996982834194  0.4992729327105547  0.5835319115420933
  0.9145412357909856  0.3339545476565933  0.2498136295486992
  0.4956228614580647  0.9985800018903626  0.1662214415128725
  0.2471210148742848  0.1673256288523997  0.5825008234383650
  0.6636358797963182  0.5018935404326642  0.0010614832601786
  0.2481965195545187  0.4168222455817391  0.1664587065367643
  0.6641308086776928  0.6654100086535389  0.6697361551342068
  0.1633075461308905  0.6668639412827109  0.0000615242438023
  0.6631701958105577  0.4170452422324191  0.4167589406704743
  0.1636861292852147  0.1665660918460177  0.8337064311670183
  0.4963363394159383  0.5849486236262200  0.2485101845651963
  0.1637598912816997  0.7512337074556149  0.5831228275689098
  0.0803080150536206  0.4976119817908103  0.7508889732761702
  0.0834448645950051  0.6668125319382228  0.2493633488212972
  0.1648493169455315  0.9997803709118820  0.6671449275637723
  0.9979861792274408  0.4984773467398579  0.6682913024236884
  0.9961748192427659  0.4994119336707291  0.9994639997606325
  0.9142529291798580  0.3334137703748113  0.4168433381263554
  0.1644731083929893  0.7499992798099662  0.2500783618755305
  0.6625649223656835  0.9999240217745919  0.1649309217069052
  0.9978960634306367  0.6659240756223377  0.4992091495049698
  0.1647034353205866  0.4162922685890118  0.9181512611998079
  0.9147778232527222  0.4994977312303959  0.4152935078429722
  0.9145290834306560  0.7498977042021544  0.9993552849495070
  0.2471569442008818  0.3347232615542550  0.7505560986844431
  0.5785720661233779  0.6679885913672330  0.0840420204693338
  0.9987580176090332  0.9984140453842038  0.1655578610111064
  0.1637792580313850  0.4165685298579144  0.0837639986029123
  0.9962629490691162  0.8352586545280469  0.8343481335285002
  0.0794306922469179  0.1675468879041679  0.7505436840380724
  0.9154883824568840  0.6668628194169121  0.5836398887575023
  0.0799341199730966  0.0828743215756855  0.3341649357657602
  0.7464593905751974  0.5815402015865474  0.5012086307067368
  0.0798270915743452  0.0009938237554986  0.4163867237590613
  0.7485342382472252  0.6668263858603126  0.2490628740127780
  0.9978971684843257  0.4162417755952095  0.5809108599650424
  0.9146062814693879  0.0012292573021930  0.7486371582821434
  0.9969265677124238  0.7499327929224706  0.0834864736355536
  0.7462022965558146  0.6663488590528512  0.7500119060922741
  0.9990662836965852  0.8343081018401797  0.4991230048095020
  0.8292438552706329  0.4169828412230687  0.5830326693522340
  0.6639785754797752  0.6668939993368974  0.4153661474568960
  0.5804891464086974  0.6638612001992178  0.5003206917205549
  0.8315269134233436  0.6652036549212531  0.4141358366048829
  0.6605404784509138  0.5797194441020935  0.3304147560833151
  0.6668631239411188  0.7527223396465959  0.5005298661276978
  0.8327940106630324  0.7504211943696685  0.5010841242871842
  0.9942121886618867  0.6679526125273315  0.2491458519257914
  0.7451928264107730  0.7493924019127992  0.5851780722825708
  0.8284568017313392  0.7522022964753616  0.3275351643206593
  0.8322608116410847  0.8354098624567421  0.5009465577127997
  0.7472760641997531  0.3325558066409494  0.7505471910630848
  0.7469673667735738  0.4160850237271841  0.6676069992085669
  0.7470217351698449  0.2493802827785451  0.8333181609488064
  0.1648269573250828  0.5834056673123589  0.4163238984710975
  0.0813193940448447  0.0003360501423130  0.2492948855343284
  0.0822725332273448  0.7503891263091882  0.1652143904368573
  0.8302620349955649  0.3335278658158470  0.3333954028639065
  0.6644328869968245  0.5841108440362285  0.9167971993233941
  0.6630485211841718  0.4150005844660125  0.9168991973258731
  0.9985001403298447  0.4156248081824125  0.9160565942452910
  0.8317301893310239  0.4151649522329217  0.0827194107432150
  0.8309011716451330  0.8359430031946673  0.3317724253194048
  0.7468173840454531  0.4160932190666365  0.8338734562694121
  0.4137151824930091  0.6658619707318679  0.5838371890791496
  0.8302977810564343  0.5840098754379260  0.9169758493715068
  0.6639977998377649  0.4159240541447535  0.7510168669000139
  0.8310988720635875  0.4168399904905679  0.4168352935816662
  0.6631921564116809  0.3349111866194714  0.5001108921804409
  0.5801905823309473  0.4164850043256943  0.6678416590203680
  0.6633324773648361  0.3340611870011981  0.3332591351646449
  0.6636372822516315  0.4987616969032775  0.6676741308206560
  0.0806523525726198  0.5832287358157522  0.9987914808755485
  0.5802149644477764  0.5805765459638557  0.5005734030324672
  0.0827105031149271  0.4150274565883017  0.6658293436143824
  0.4966646049599742  0.4993836791564842  0.6669517263596211
  0.9159517595492582  0.8342882530619532  0.4162145984987450
  0.6641379459033968  0.4970118569455764  0.3308576341292847
  0.6637554964046012  0.2492651301360897  0.9169926579980605
  0.6639543426497884  0.5847098789556553  0.0840292975535354
  0.7465185671398366  0.3338061202514105  0.4172943860448763
  0.7470061291739166  0.1665541027838091  0.9162187070157271
  0.0815877972706677  0.4154697003630537  0.8345371614679516
  0.9146680062254051  0.9176018696920585  0.1664539610453526
  0.7469096029439521  0.2508191538793842  0.6668850950939433
  0.4972424257244232  0.7498969735817788  0.5839826906930107
  0.8320702826201506  0.6663785451532303  0.3304205057752007
  0.0817119993751964  0.7504412324037826  0.3328198921553266
  0.9971592351797121  0.7497985576831104  0.7506222159129895
  0.0806218695399192  0.6658851223663964  0.4160352741556365
  0.5805643196173553  0.5824321138094324  0.8331402191669374
  0.4974682830128175  0.6656485444345899  0.6676789006247303
  0.4973302642106028  0.4994542254530234  0.8339784515419234
  0.4975123979569611  0.7498436252756205  0.7501948388191099
  0.1637655734397516  0.5842377620293293  0.9164488843222868
  0.5804842652026521  0.6657440476081027  0.7500961541147594
  0.6636242339570365  0.6666410345857113  0.0011823463577902
  0.4966368138512182  0.6666828020118412  0.3325519687808778
  0.9138117227176557  0.7496255076197028  0.8333925731859946
  0.4957354168388947  0.7510589549500430  0.0824399971893855
  0.5796448488656226  0.4173785467066051  0.4993616496452309
  0.5791076743332488  0.6685528921849625  0.2487673164648481
  0.4969032628340632  0.8339604374515979  0.3335664848536870
  0.5807330186776155  0.6653395596963474  0.5852985711218092
  0.1628879134586059  0.6666837653007499  0.5005662544262890
  0.7470819087128886  0.9996811682820789  0.2488527655893938
  0.6630194612167591  0.0837098455927229  0.0837274364658801
  0.0822976154617908  0.3328074357960150  0.2506812508562898
  0.7470348910013537  0.4989802470903252  0.4158089817805198
  0.5789401818102701  0.6662418472465796  0.4155143777420223
  0.9973317636687629  0.3342053131904698  0.6657318765673567
  0.6631197726165063  0.5831903840696500  0.2464014400582666
  0.9977356193062281  0.0838830586860978  0.2497684647688885
  0.8303669743057738  0.8340391367765416  0.1652042449400191
  0.9967090542275524  0.2503544963350250  0.7499760128110196
  0.7470909258237192  0.0838713878683394  0.8326751109963455
  0.8312841485796491  0.9182114534949473  0.2486605701111415
  0.0820330313997989  0.3328173188581665  0.5834459232207682
  0.7465035464232774  0.2507431732322924  0.4993995125792219
  0.7471124213560834  0.3334916499968955  0.5828326729162077
  0.6633563495671378  0.2501199340596216  0.7505322407038724
  0.8297009770143553  0.8337302564800053  0.9993985212951806
  0.6638452103154351  0.9996457263114839  0.3341009529198551
  0.6643263120019802  0.4994380796060222  0.8347414425805092
  0.3303213992424620  0.9171836831079593  0.2503772812791111
  0.4128612946315128  0.8342276480787117  0.2497984915960421
  0.4967202368120882  0.9155435347188328  0.4177541009797906
  0.8307112299994476  0.7504564301768694  0.0818937121005496
  0.5794646200292174  0.0003193074559865  0.0830704984113324
  0.0802239506107713  0.4991748392638239  0.9170362608333116
  0.9982616126434440  0.0837408675729022  0.0839211506152830
  0.5816178895718737  0.9171148485966825  0.8323391399655208
  0.5808665381510486  0.6679683739552678  0.9164754679625523
  0.9150247750166521  0.7518025964875797  0.1648936293952763
  0.5816358901018627  0.8332924178230177  0.7500221132841838
  0.5810671797411640  0.0829812260268097  0.3333834183861775
  0.9970844962612119  0.8339746622823565  0.0001698428954240
  0.6636871007879024  0.9162946027278897  0.4161865254518806
  0.5813262206033268  0.7496148619001546  0.6678632351167055
  0.4973478100729090  0.8335401310857506  0.5002705643030952
  0.5786600431190057  0.9172819850635479  0.1665346028580007
  0.6641385940341920  0.8363277163849060  0.5000770078207523
  0.5798396683993075  0.8334769870806862  0.4163323838717424
  0.4134355512080204  0.2481048726256466  0.1660497644753404
  0.5793797099169049  0.5835363062771596  0.1657247535788456
  0.4151814076136511  0.8341748301750522  0.9157370986837055
  0.4140678774650851  0.0820626419991786  0.1665852770058958
  0.1632133919181454  0.9165352508553990  0.7495689827818197
  0.6632227962479623  0.0014594189360791  0.0009136037090841
  0.4143006070123650  0.0822028722220803  0.3340419366889409
  0.0797794472459574  0.8335948474180640  0.5832545809521346
  0.9981554920614144  0.5823479076863062  0.7513112342315159
  0.9972254050331064  0.9175927515856092  0.7501108771092879
  0.6647492914937092  0.5821484739426624  0.7508105659000777
  0.1640796331081814  0.0830209524049038  0.2499248343876923
  0.4978383174194309  0.5826055655411513  0.9173087613342120
  0.4128359856200329  0.7496423321941528  0.5005845803772900
  0.5798542363464657  0.9989972750479308  0.2499646312397759
  0.4131474083752125  0.5006579696341291  0.2490571449403262
  0.3303991431110946  0.5006826175932856  0.6672700757666354
  0.9985699476184652  0.7503003259904899  0.4163954136070504
  0.6646798691201625  0.9987401287270885  0.4991094740682588
  0.8305594140006903  0.0008755738865761  0.8332515708866365
  0.9990438248690143  0.4994792743338309  0.5001703816680281
  0.9979270283742586  0.6659409970745473  0.6675906137265349
  0.9974435721104962  0.4995471586629028  0.3316498147643276
  0.9155320364769880  0.8340975461026281  0.5837479560126817
  0.6625670908650431  0.1674314843026639  0.3330606276218132
  0.6628533805437186  0.2495420374370148  0.2491686367867012
  0.5798958368136915  0.2497971439248241  0.1666351505167374
  0.9975308627004400  0.5818689319704240  0.4157706952872068
  0.7469551947765978  0.2502018774153933  0.1661020317089482
  0.7479292712942615  0.9998986134943986  0.4166827688939063
  0.4973794586559386  0.0832585143776602  0.4177514760839516
  0.0806722570357568  0.5829309825506392  0.6677281869790139
  0.7468438378624563  0.1675431082196071  0.5833411847784093
  0.6650569667070197  0.9991395358705583  0.6670591194136871
  0.9976306599387025  0.2500110416955886  0.9157846908334821
  0.8303304006181703  0.0836116239281234  0.7500827207906726
  0.6643826566929402  0.0010806627366958  0.8327563629024796
  0.0808743366454911  0.5827384152439402  0.5001270865388314
  0.7470408740501506  0.3332434004894704  0.2496938293864059
  0.7474871886796789  0.4150277624151258  0.1657049977442665
  0.0809406204532033  0.6666307268202063  0.0825989667846217
  0.0806790928248911  0.0004698378716350  0.5834879863544070
  0.9977326989402809  0.6661596726953262  0.3336306644737107
  0.7479172748967220  0.9180123560203604  0.8328437985891824
  0.5807271053092040  0.8336119348822247  0.5838093560820899
  0.7479672844947957  0.6656223574616673  0.4147247191244232
  0.7453782868555014  0.7512266559143012  0.3305766440478745
  0.1646428644955464  0.2487381712668336  0.2513300584532370
  0.0816588338199880  0.1659895189829879  0.2502209132059847
  0.9156801686819773  0.6661489927525537  0.4160359391045803
  0.6634840773263411  0.3326261196051106  0.1653050803180913
  0.9143229073986655  0.4977261976843440  0.2494766151117364
  0.8306605427236642  0.3318243764983625  0.1649943060247944
  0.7462847776651957  0.4152584210187077  0.3321946949344211
  0.9991926196016417  0.3329094891624281  0.1666689501888071
  0.4965665059115735  0.4997891324998036  0.4998902861741078
  0.8303058300389576  0.1666547871068393  0.6664250061832541
  0.8302997288256891  0.7498361487143242  0.9161248594186236
  0.7481003795493291  0.8350156497756596  0.5846282684904283
  0.4144523866209412  0.6663984883776395  0.9162277502594032
  0.5809954395412740  0.9175599770017544  0.6672431820680275
  0.8306045550304266  0.6667056048114491  0.8336849787873994
  0.9968630515134616  0.0845462485867760  0.4167804661829115
  0.8316605618493218  0.8342287742410039  0.6676895251412180
  0.8299957057838863  0.4997260836687615  0.8349841723539677
  0.8307577110062940  0.5006422439774267  0.4989617438668278
  0.9974294562799858  0.0836721846057695  0.7493980456505123
  0.0819418233947479  0.5005896182418027  0.2501271150439733
  0.8309244953776936  0.2489122045815055  0.0823968770265836
  0.9137352237253753  0.3334847915084048  0.7495563590014425
  0.9137437657843972  0.4158852198916448  0.6663419179966522
  0.9978022104459783  0.6664154871908473  0.1647995430350850
  0.9127934622534178  0.6671365769825669  0.2483635893983224
  0.9146904340475268  0.4987992056527167  0.0826697534782516
  0.9144297946025625  0.5819660585402727  0.1652647559741126
  0.9141711902888598  0.0010575368671316  0.5829138022137621
  0.1642684763960047  0.0002431704673566  0.5005759283330324
  0.6634335790482002  0.7513331733723485  0.4150790117032572
  0.6629646131686732  0.7494865361650342  0.5861643489837429
  0.7482825463763326  0.6641737523075057  0.5853294757755459
  0.7495610558485222  0.7489912671467320  0.5005062202392220
  0.5803591149527840  0.5814712673982965  0.6675682933710637
  0.0821049896460266  0.2491055738639524  0.1665726134576914
  0.6646871950531689  0.8341191065215349  0.0009412161353448
  0.8313698124797602  0.7497093888751400  0.7504529934583806
  0.1643391282652466  0.4992833728632498  0.9998652067412043
  0.0810538347419636  0.4159872089893572  0.9998024472019961
  0.8303559602906619  0.6670868053036323  0.0002653329468365
  0.6642977043404128  0.6658340700738353  0.8327630979751850
  0.0815480252840192  0.2496159793712857  0.9991424393833748
  0.7476019075651675  0.8345790781235221  0.0828744897236355
  0.9145952983932492  0.8346216498306094  0.7506296616360594
  0.7475040632884298  0.7500505864213877  0.8324247063545652
  0.0804202780209273  0.0839800684604954  0.8328194051651682
  0.2469268537374612  0.9168038079214237  0.9982888626799273
  0.8306383898465945  0.3331239890659177  0.4999940678360438
  0.9989404392887179  0.2497482773088797  0.2498965977557738
  0.9147343494321056  0.4980337097867825  0.7510306110001546
  0.8312055513860648  0.3329840280781677  0.0001616555641425
  0.9978910975586819  0.1663776982770117  0.9997934966228854
  0.9148398134039036  0.2498741018352200  0.9997985698374534
  0.9137468781304797  0.2497598898592349  0.3329522838465274
  0.9971912330045208  0.2500042029021390  0.4167689713736370
  0.9136160418491099  0.1672559272478260  0.4174021426516177
  0.8306083730579972  0.0842973704874454  0.5828365398695191
  0.9137855347608791  0.3329163842040554  0.5830780664954516
  0.8313399571084386  0.0840848360770339  0.0841225048325879
  0.9141338806878637  0.1668564978601525  0.5830028422884949
  0.7469651170559680  0.0834829839965672  0.6668854046931525
  0.9148545013333401  0.1661462507557884  0.0836948935585014
  0.9141179327683964  0.1666681859481242  0.7495790612713481
  0.8307284785967787  0.2492539568173381  0.7501023018392070
  0.4967432515099183  0.1662386409382306  0.1668039554678294
  0.6638024055697683  0.0837785357330030  0.9167771709726782
  0.9143942582746220  0.9175126289030143  0.6667410143262711
  0.9173924284115968  0.7510132353783552  0.4996658649444998
  0.8314580496286050  0.9169097916289272  0.4164700091838536
  0.9149690358132685  0.5825817357121676  0.6685399322393648
  0.8309282830049052  0.0843228291616155  0.9166432469958643
  0.8302025569656846  0.0010290747156289  0.6666296747530597
  0.9977042284775826  0.0004087772423113  0.0002439625939106
  0.8308011773302538  0.1666267108985707  0.9995720146221870
  0.9973703730227614  0.0839632282700625  0.5830272853163105
  0.9153038414116570  0.0835257309524896  0.1662992615266661
  0.7483378702817108  0.7493829118153823  0.6692567072402964
  0.9985982739414574  0.1674162638369246  0.3332103743805381