Cr  H Ni 
 1.0000000000000000
    21.1200000000000010    0.0000000000000000    0.0000000000000000
     0.0000000000000000   21.1200000000000010    0.0000000000000000
     0.0000000000000000    0.0000000000000000   21.1200000000000010
 Cr  H   Ni 
 259   9 605
Direct
  0.0855278717143366  0.9175825319409545  0.9992774016359172
  0.4106303858905612  0.9192530371517107  0.9988483608074413
  0.4979262648091362  0.8329229214310586  0.8310462622772241
  0.8333964739981576  0.3307707142480509  0.3336806880690403
  0.7473843028387264  0.4162048337908550  0.9999085495967592
  0.5824022724099468  0.3344863710981978  0.0845360553352784
  0.7497231727825826  0.3342368370730616  0.0831179445743579
  0.6657698286207356  0.8293239407140417  0.0013621895332788
  0.8327315291127728  0.9983654694730968  0.5011763603285636
  0.5820451039522377  0.1671566597437752  0.2519701189644656
  0.6657663817302849  0.0003146787090597  0.4994992676020976
  0.6640368487996591  0.9980395641537435  0.3327515771363684
  0.5802597954537704  0.9992821409956423  0.2511526957981620
  0.6648365693735417  0.0817328286024339  0.0848185905286484
  0.8332244671752806  0.0828872997487100  0.0840360726975245
  0.6640632141808647  0.7476384595599239  0.9164208362175670
  0.5827516732279362  0.7492646257314741  0.6670144784057364
  0.6656471009918500  0.4999833781370868  0.4987847081941758
  0.5821620847220909  0.4963033627133237  0.0835563879345590
  0.7489289161036393  0.5810580947059705  0.6657953544982562
  0.5813953150670610  0.7479740850820966  0.8328640250432101
  0.6663627927657425  0.6657990796684496  0.3330309486569583
  0.6645266760999917  0.6672758788351734  0.1675839394290090
  0.7504721758078913  0.7465541401290984  0.0000645676246641
  0.7490994012836791  0.1680237564510003  0.7488025480627972
  0.7470679016459635  0.8303133407433954  0.0824839953605120
  0.7486007697918616  0.0001650429908244  0.7493220459913016
  0.7502587250873581  0.4987594004689470  0.9169317238402008
  0.5833254703145144  0.0828810545795619  0.6675315664905821
  0.7483466122713880  0.4997522081510709  0.7480268799972498
  0.1658721564995507  0.4163885397077601  0.0832758386620164
  0.1658310843645401  0.3321468048064463  0.8326601133721817
  0.0839638459027714  0.9164934552299449  0.6654267267810198
  0.9153626583268620  0.6668189723764111  0.5849385722047326
  0.1643949560408720  0.2514906920380367  0.7496772481681964
  0.9166206515768337  0.9155054533443033  0.9989500968798659
  0.2487534863241906  0.1682344605857522  0.5840617806434688
  0.9174697075656376  0.6660464769759818  0.9166582932958190
  0.3326066325844251  0.2496765631795775  0.9177597592504216
  0.9167165781631844  0.6655557282335156  0.7494937180315595
  0.2491583562492014  0.2498551160770822  0.9978869359996470
  0.8326020991689057  0.7521502260195970  0.4179230207585464
  0.0814601289916080  0.2484136887282076  0.1672586720239305
  0.9190873707843102  0.6679965403088530  0.2490173101929102
  0.2480167311374949  0.2487801484311357  0.1663079502950926
  0.7464150972243641  0.6663205328083578  0.9166174635122031
  0.0824462592862866  0.2513718346440416  0.9993444237448676
  0.1664234303938797  0.1679275650140878  0.5016558983066712
  0.7489623755147998  0.0845220888716501  0.0015369338484656
  0.2484878920796482  0.4184560787815203  0.1660380214596839
  0.9982565672453139  0.2490464202810086  0.5813793792646340
  0.0847185767241989  0.7497030249113797  0.9999258376154880
  0.5815224135617268  0.7516660872409696  0.3324333235702410
  0.9180077413594926  0.1680632640245364  0.9165633702758721
  0.6638001088591928  0.7497067518601975  0.0861932573739007
  0.0841091617698257  0.0821311146996318  0.0004404966664873
  0.6643082629323525  0.1676552451542147  0.4994196654629439
  0.0812223701199094  0.4999049344278201  0.4169447915419207
  0.7517912549235372  0.1654385930216836  0.0830684496689099
  0.9995188340928020  0.9996473269188685  0.1670345036091891
  0.5822138033336128  0.2500619905426201  0.1689795410776692
  0.8327831827046184  0.4996933853495969  0.1668699266195696
  0.2492317648776184  0.0011207716572297  0.7504628442811880
  0.9985889968517189  0.2501372399716470  0.7496106792583288
  0.7524988975534032  0.0003194609586540  0.9167030145121886
  0.4962966459083015  0.0827996488114874  0.2525681043882061
  0.9150555882650816  0.0838075941178488  0.6656361291452109
  0.9144894933034883  0.5006287519251233  0.4168312042128440
  0.1647426381973209  0.7507747464099781  0.2492841323409846
  0.2491414027609742  0.2494910786670693  0.3358469143935641
  0.9994536822162708  0.6667242770770326  0.5004134353901670
  0.1656524638312035  0.4168254870549884  0.9163562027072013
  0.2499449618834783  0.0826250113547509  0.9992537680676085
  0.9159299383328404  0.7492278909599669  0.9995147915341919
  0.1653217757244260  0.3331909771141023  0.6658539218214519
  0.6646636761252152  0.3333415540445976  0.4990474550319567
  0.0838718736271701  0.7487757707221403  0.6664407013776072
  0.9971996348905534  0.4998182350533208  0.8323850916999533
  0.0824511064511313  0.3328712968613275  0.4169416597439814
  0.9980583682818224  0.4993385771724298  0.6667479540397916
  0.9993143420919670  0.4164460378535620  0.2511739725678447
  0.9982677969471868  0.4165175881977587  0.0838697074310683
  0.1661666396319130  0.0004570857451250  0.5005599260419136
  0.4147485160599192  0.0826844070086887  0.3345668979112795
  0.9980278174494716  0.4171461640876096  0.5825584379306548
  0.9167089711914324  0.9169432803683629  0.3339446854215113
  0.0816057484169539  0.8326168309236901  0.2499095511395096
  0.9986948267379669  0.1674557230174633  0.5012117092673465
  0.9997018705389256  0.7506365633643423  0.4187602031805013
  0.1661170554782596  0.2486097895750818  0.5821541995113090
  0.1661182526225016  0.4993775072740709  0.0000006609806134
  0.0821199141792573  0.2497401667989178  0.3347588111747189
  0.9159857467345934  0.9171486559470767  0.6665585210492567
  0.3341010136755703  0.2520347541924798  0.7512907098763902
  0.9990984866912310  0.1655282275467072  0.3339776261501851
  0.0827200591214004  0.8339143740518705  0.5846275205764782
  0.0810952178195866  0.4183382641283618  0.3334087989667762
  0.1640473549192242  0.1673655512888488  0.8315478041935780
  0.7513619687039006  0.1661267488913384  0.2513882204240638
  0.6647351797314200  0.5842869193278368  0.9161426875139839
  0.7506104539610612  0.2501902467534669  0.9975744465884853
  0.6665564244607450  0.5816806626225924  0.7487452203429961
  0.5807470323551807  0.2513362209082031  0.9996232035257493
  0.6661442341340886  0.4166813663434777  0.4165956710296749
  0.4969697634345829  0.5829792745167613  0.2491316084018571
  0.7477068205909274  0.6678531570750031  0.0848361265646234
  0.9179017661789428  0.8342019919601533  0.2500715844328874
  0.9165455375370348  0.8328254025178871  0.7497541419529614
  0.9160230865223268  0.7509274195701366  0.6662724968075296
  0.8335648736694103  0.6679111953055041  0.5014109414657530
  0.0001998076664370  0.6672706832225626  0.1663243671893023
  0.7498074978146261  0.6653281970148481  0.2517085997319016
  0.9996136662597044  0.6653734058610445  0.8315175762270663
  0.7465896956437181  0.8299972129860335  0.9182004985974981
  0.8336372892272688  0.9983645168450928  0.1661423109572166
  0.8315216080092339  0.5833771302844617  0.7486586901479233
  0.5843000733699664  0.4153687360751781  0.9981304560726914
  0.8323677081939205  0.4164921338770253  0.5819343880652503
  0.6656945535625630  0.3339251379823078  0.8322239773751481
  0.0003410173081753  0.7501366313585862  0.2494711821798073
  0.8317601300405575  0.4183310717276585  0.0831446182126968
  0.9166694157213476  0.5834772287015314  0.9996150692934178
  0.1658495531767502  0.4169167429534202  0.2486617391686346
  0.6657090448874939  0.0003694627916134  0.1679298137559978
  0.0817894788411580  0.8331035453898706  0.4186238406052816
  0.6673438925213672  0.4155653809980108  0.0842908717124842
  0.0817994982167286  0.4162777711699704  0.4983843945465803
  0.4978014705610307  0.5833404545472738  0.5836238780013737
  0.8327073009919127  0.8335891288647918  0.5000308130796182
  0.9983699272986029  0.5827477197048457  0.7503697476998429
  0.9167032858029716  0.8349821010733671  0.9152185579450924
  0.9163092013415955  0.2502461125648998  0.1673205995362271
  0.3309942891644340  0.6673504960176666  0.3329002466677676
  0.6670492067005739  0.1658179841838257  0.8322718982719423
  0.5823775753669611  0.6663504127304192  0.0867184182153808
  0.8340616607997884  0.9161347283451098  0.0829279111942962
  0.5809740412594288  0.4994021924975022  0.9177876272387488
  0.8329783168630663  0.9149599959857505  0.9159860702766979
  0.4982781382012322  0.5844549618260859  0.4166648305749814
  0.5809233494873443  0.0003628954726484  0.7481093450709302
  0.4155296047043648  0.5030199301075962  0.2503753713354737
  0.7507230649339328  0.8325236927330627  0.4194242565326552
  0.4972589045402024  0.3332922920512363  0.8322242522419976
  0.7504969354753340  0.8337873137379528  0.2510123190071197
  0.4994945353697235  0.4179336898917311  0.2485859429550325
  0.6669945211946245  0.4158769861116026  0.2514108074999624
  0.4142673623927746  0.2500400350792426  0.1663056516506890
  0.1657004301881067  0.7496802885518660  0.7485402170161530
  0.3326898632028372  0.4989490763555769  0.5017748268116113
  0.2489019357174419  0.8333604652164839  0.5850647681073105
  0.2485786113439656  0.6675058280729983  0.4173982334223023
  0.4993897373523977  0.0835982948237862  0.0849664364557119
  0.3326594330382412  0.7477531176493465  0.9154854186112217
  0.3314311311930676  0.0006803637036443  0.1671875519697420
  0.3327054427533469  0.3340833260336956  0.8331969859798471
  0.2486521956132199  0.8319247658549125  0.4170915625903779
  0.2501094321091963  0.4155883359849050  0.6663671629894727
  0.3322372296606937  0.8334690899844511  0.3335570415602255
  0.2506064799096515  0.4166287778798051  0.4997792486225890
  0.2490823562364425  0.5824679763007898  0.8327980950643492
  0.3254898563152174  0.4167518350733360  0.2479728108353143
  0.0839080564664178  0.0860935230368347  0.8309998849082969
  0.3325691053459575  0.2499637185876414  0.5829723355834910
  0.2486872405138610  0.8333153652968257  0.0826974890833491
  0.4994871308451869  0.1659187946416841  0.8322927739477564
  0.4992579843543830  0.0059422422401135  0.0020628598052802
  0.5821258775705477  0.0830008587639197  0.3327986392734813
  0.5813963695780191  0.9997207796875134  0.4155753292579649
  0.4981612347965287  0.0834975893855812  0.4147741074067813
  0.2483550053546359  0.0005267059246868  0.4170134144994275
  0.4132371819785902  0.9162649370542312  0.1658707950839628
  0.3303613743158562  0.0013531092251897  0.9997593968295073
  0.5829363750756326  0.2508420981240975  0.4996713265403084
  0.4158383474390642  0.3324888786035517  0.7497670416991438
  0.7493465169220679  0.1673671648738466  0.5827225937170115
  0.4121337683812382  0.2510521588511084  0.3333616958942799
  0.4989541899967386  0.1668475328992250  0.0014345159982135
  0.4984862892514967  0.3350879609626381  0.0017013929397233
  0.4143770285533442  0.9163534088541097  0.8335958761632208
  0.4139632019649291  0.6673851791127332  0.9153436090148567
  0.4981781423763964  0.4149759631674716  0.4175197975108959
  0.5832996802493278  0.9155117926401264  0.3335679653418965
  0.4144169772831717  0.6667184285399090  0.0836316702478452
  0.3322337154446500  0.9174082175168199  0.9170841363808244
  0.4147309782898941  0.9156606234044580  0.6647021128844305
  0.4155082689000464  0.9148021467281412  0.5034071277575108
  0.4165747180383916  0.8339799723182922  0.5849388229618350
  0.4139249635032853  0.7484479856947489  0.5014029546271939
  0.6663229175333986  0.5833875777237529  0.4168538206840356
  0.2479596902309727  0.0010137123708598  0.2508765336544125
  0.5834178238567518  0.7479162596245769  0.4994230526899854
  0.1657245246282420  0.6647900476694391  0.9985216961921510
  0.7491651974918306  0.7499696799631247  0.6670452581696478
  0.8329199198313461  0.1667398544698732  0.3324353040555865
  0.6648910290780080  0.6659749950003644  0.4993824996449168
  0.8302169521537940  0.4179131802196707  0.9179730172883260
  0.1662112191631711  0.7496230689596836  0.4191855828938236
  0.1652277963119290  0.9163925883531755  0.2499734434115453
  0.4972586789838439  0.4162661341442264  0.0854617035944427
  0.1651346629963404  0.9988856815810396  0.9990184903989024
  0.4983176777107654  0.8328836316793332  0.3339655236113743
  0.1649022520247035  0.7489468026503836  0.9169015879674663
  0.5005236914841138  0.8297777207945098  0.0009472715684309
  0.1662051953429652  0.6667631374835856  0.5003783163648778
  0.1666310487464567  0.5823224787042451  0.5824351659809582
  0.5806089029735230  0.0017081438485074  0.0850408893121263
  0.5831746700147714  0.6667586719931173  0.9154284365537083
  0.5828437862632762  0.4997446574008767  0.7482441914015698
  0.1655592749964025  0.4990722485681519  0.6657097760406713
  0.4969805091907704  0.4995655082288077  0.1673240327841422
  0.2474559030762513  0.0024243106409877  0.5823946105365087
  0.4981862629539733  0.4997885037042786  0.0006984193474528
  0.4138007601729536  0.0836686626297991  0.6677145600346703
  0.6649829569955854  0.3336661124956875  0.6663546730992296
  0.0848263415015718  0.9170244960118561  0.8319255790361145
  0.4982706203374450  0.3322906923401961  0.4988285813660189
  0.0808494385977170  0.6667675609060668  0.2497302540413086
  0.5831627086548758  0.2496309507539891  0.3326774082832557
  0.2486655624513139  0.6661869099146790  0.0830130866795579
  0.4152932293385177  0.6675408673118747  0.5826812636593538
  0.5825985125439888  0.9184608223479366  0.6660159857436387
  0.4136169360481369  0.9149973508239184  0.3333505250455353
  0.8320320454014704  0.2493840116622610  0.9165603863125310
  0.1644907570254505  0.9170270551159412  0.9154379760083163
  0.8293411253646008  0.4179218655038389  0.7490338845399643
  0.1657906220275480  0.9177601034020446  0.7493384069349797
  0.7493801561183450  0.5846398556130445  0.3333664374706392
  0.3310393210606615  0.0836682583911234  0.9166910858840935
  0.9996286799819222  0.4185496830336884  0.9149100551222170
  0.0843453256172746  0.6643906170702688  0.9155158828373759
  0.1664824658211632  0.5818094182533721  0.7477702156726688
  0.7498252145302567  0.4973836603795918  0.0842450041628357
  0.0826716830895158  0.5838507255362998  0.3337598222361244
  0.1638400067853918  0.5859961423339559  0.2502957278207578
  0.9173504378296092  0.6660534126311851  0.0822687268379503
  0.4165730981242143  0.0848502732631811  0.4993463944283583
  0.4148090235033835  0.0017233339995862  0.7490481258350327
  0.3304091217879797  0.4144484889779003  0.4171227068362903
  0.4141473310843747  0.6661471538862309  0.7488656901930254
  0.4154877659620794  0.4988648144779301  0.7488600773838157
  0.4995946757932757  0.9164787420376288  0.5829720916779901
  0.3309419743234320  0.2498890154227435  0.4157963428318261
  0.3326886004297503  0.6664201945853406  0.5019121466267352
  0.9170502239391232  0.3339650571160241  0.0833237396290752
  0.8313460541154234  0.2491850051796997  0.7503450459598524
  0.4977293901159567  0.1670902869455390  0.4993538491856280
  0.8302889384587688  0.2486683698270694  0.5819193170182551
  0.3326251691376266  0.4161142478350139  0.9152216285316676
  0.9155851049351790  0.2489629251219992  0.9972070570659115
  0.5832335065162446  0.2513049087188950  0.6662705379251304
  0.9157943440211542  0.0851091326115320  0.8325674638838589
  0.5796437961920524  0.8342219485424578  0.2521280849510180
  0.9156296509840247  0.0831830345768009  0.9999106103084932
  0.2485821669671120  0.3334730388069031  0.4156910743484882
  0.9150963281927966  0.9143348290124378  0.8329571263984547
  0.4145040578515804  0.3324971974033313  0.0835485710366727
  0.7478909566380524  0.8321948991503002  0.7470757142986932
  0.3334433058652299  0.0832430043441845  0.7486093314064043
  0.8318818361662604  0.9171625989845811  0.5838777113623463
  0.4114956112266578  0.8298471256910203  0.0012298996727955
  0.5816969089861528  0.9176958197564288  0.9151425533168605
  0.8328202450161107  0.4213639989924854  0.3340635880206658
  0.6634778624693776  0.1697987780034935  0.0832350516454508
  0.3318933422463792  0.5031549209234135  0.4135967707171038
  0.4129778788606943  0.4156334423523417  0.2497635213952885
  0.6615431344561301  0.0012911897988659  0.9153647289098387
  0.4981248205334219  0.9182818871845979  0.9999711691403278
  0.6648332491456759  0.9194399868471664  0.0010065667212749
  0.1664101675236748  0.7496257308994713  0.0824027280800744
  0.0830282040966308  0.6659526443518483  0.0818205639122067
  0.1648770410015820  0.6672008614757968  0.1659781688025484
  0.0815978268062287  0.2507352140097111  0.6656664720564791
  0.2487882990065293  0.9170784434667358  0.1672738062525933
  0.2485839381033341  0.4163576254435727  0.9994513465467697
  0.2473033935721355  0.5013514406236486  0.2495115477940952
  0.2478070278066603  0.4170951082835490  0.3325108804806949
  0.1662472893494694  0.9162449297746349  0.4178176580108707
  0.2498695589667917  0.2511433732305638  0.4995345325537571
  0.2485257085859920  0.9165894978069551  0.8326678089293813
  0.2480475751206833  0.9157405923130364  0.3342608672665253
  0.1663058962191813  0.9170524937225008  0.5836817667012736
  0.2478899147962524  0.8337129224895463  0.2501541879868914
  0.1660214081615844  0.1687210986608652  0.6668438658195053
  0.2492270101111654  0.4986155171207106  0.7495702330150884
  0.1649920044307752  0.8327657418133431  0.3343014159378316
  0.3319248387866113  0.4994906761463456  0.9992829163895228
  0.1656989427396919  0.5834082123982319  0.0824321273524169
  0.1652404758178359  0.1672770652403049  0.3337233878030606
  0.1657882388598768  0.4163806506141496  0.5828988904861456
  0.4164756391523260  0.2493408580138241  0.8344162854638659
  0.2493707371427823  0.3326497479272016  0.5829354668121292
  0.5818944592368166  0.3334377578315261  0.4155799770922395
  0.3335538012353800  0.4159694963652499  0.7502261804638941
  0.2493629861941982  0.2511355149807543  0.6672920835517957
  0.2469559112368402  0.3318314198393827  0.2494346437804058
  0.0825909301305963  0.3341398725158636  0.9158412155057344
  0.0825550633606417  0.4986292308190614  0.0830468969016222
  0.3325235491075673  0.4163784994238111  0.5832115271750941
  0.2484280655308464  0.3332761486938447  0.9164581200412227
  0.1659956092059191  0.4155012082304456  0.7489560270297324
  0.2491010724080776  0.4161332852083653  0.8329984928953622
  0.2491563490997952  0.3330406165245739  0.7504040613398930
  0.2482657122739018  0.5000917894962162  0.0825801295276438
  0.9149694383921936  0.3329510331281674  0.5831957453126401
  0.1659549900201492  0.8328187104304494  0.8323409366579982
  0.9151615604411153  0.2506951541966017  0.8328910988977848
  0.4978447374190961  0.1673197359205750  0.1683563708823353
  0.9147786946712663  0.1669190690330801  0.5831440913949105
  0.2485258035569990  0.9173021844376387  0.9990801755650481
  0.7490771744869844  0.0837389931842680  0.6666186443926839
  0.5786682305828253  0.0021853423406606  0.9165979604185053
  0.9990385242234363  0.0830535013769692  0.2505547912485840
  0.4146763755861151  0.0837747989277477  0.9998266723688813
  0.9155749535562694  0.1673309362645422  0.7498459716107762
  0.3309900433929316  0.0837090949590590  0.0837340087524607
  0.3322751230151886  0.0827907469827957  0.4173714980399809
  0.6667038252206489  0.9153700545685785  0.2500018675692047
  0.3315508673182882  0.0005880463943180  0.8332800048305014
  0.4152930759760436  0.9992765620109195  0.4176401321202757
  0.3316404539484326  0.0000144274389047  0.5007660674410827
  0.9144978406198130  0.2503920078028128  0.6660901734441090
  0.8316921411268853  0.1661703242530252  0.5007929326347990
  0.9158840992534854  0.2485660853141851  0.3334016477664601
  0.1648237538420619  0.2497540859220539  0.9160553709723573
  0.3321973704667633  0.1675896424827161  0.8330854800745388
  0.2481662389461719  0.9179645353237023  0.6662514489304494
  0.0833387552377569  0.7503797488414418  0.1653928369450560
  0.2484003287932442  0.7490106080638529  0.9991405178737106
  0.1656765744004404  0.8333808184657187  0.1664281183984054
  0.1663809793126045  0.8332874560189728  0.9988778931118744
  0.4149037969238129  0.6661212286055933  0.2510033567286862
  0.2475406936172975  0.6674245601021955  0.2500350431660339
  0.2480267199380999  0.1672201081272200  0.9159900843089163
  0.1653328120877793  0.3336571451676407  0.9999485744899509
  0.2490414790263625  0.6655033565100295  0.5831795210095340
  0.2482062248067922  0.7505288964093944  0.3332931987332481
  0.2477961055609955  0.8332467462697489  0.7502030542441520
  0.1662892094784453  0.7498282339048825  0.5837487077903751
  0.1659827314400750  0.8337274702602270  0.5013333247743871
  0.1664518536259534  0.6651589841251517  0.6664225091110773
  0.2483310967770533  0.6654129545121239  0.7496733883459274
  0.2482485794141344  0.9169380478294252  0.5006299652089911
  0.0837894913138939  0.7487424177120570  0.8322986285512972
  0.3323552729006592  0.0838210571132997  0.5832256619651855
  0.6659053404825698  0.3318771779442019  0.9982388223461894
  0.4167230143520256  0.4166394924604561  0.8331141443635435
  0.2486698445016358  0.0839027960164225  0.5004397408839205
  0.1655458260334046  0.0845420678377956  0.5830071985910062
  0.4127636869241587  0.4158140868451087  0.1658986188813432
  0.4151816917193326  0.5840958484549729  0.0002353993511546
  0.3306356030330947  0.4999766372366119  0.3306211251828839
  0.3314200353916810  0.5011250711213654  0.1668097458718826
  0.4169113659794378  0.5000136555785804  0.4163162119271100
  0.4142981929264882  0.5841279203328437  0.1660254505085850
  0.4998324731652938  0.2498594142426967  0.5833240203342192
  0.0826034348988234  0.0847565967087499  0.5006393049627962
  0.4155485326733508  0.3327376566006425  0.9164973507831859
  0.4152922802228886  0.5835278179214998  0.3340536587839550
  0.5812436534671886  0.4995785903692976  0.2511552858560459
  0.4160915578125879  0.5835803785072236  0.4998859203869101
  0.4156919644281228  0.1673714617590809  0.7500535632870413
  0.9999680739821778  0.9170181629550174  0.0823310813219848
  0.9160036159209244  0.1658376664773170  0.4168380918078617
  0.8320179111885219  0.6670976582464445  0.6662416006662943
  0.9152135608139157  0.0834908565293287  0.5003181588490068
  0.9172060945203985  0.4168508999077699  0.3330569726219747
  0.8325985189424113  0.3333643617006044  0.5003360967751180
  0.9993730126755843  0.2491482873359216  0.2507505860339282
  0.9140349115658936  0.4998382991703297  0.7491591772945095
  0.1663942334915818  0.8335597686632912  0.6666861046062714
  0.8334504117350375  0.3334799368924790  0.9993963398251864
  0.1660865070547758  0.6659365449498685  0.8325025005723867
  0.9999739431965666  0.1664931444698184  0.0001761112649636
  0.2483534836799670  0.6663916892724332  0.9155521990539049
  0.8334992003284296  0.2498891951606793  0.0824663575792187
  0.0816554908999761  0.1676332749092237  0.5836218759459023
  0.8324531035225962  0.2488728010507858  0.4159817013686167
  0.3314641391248226  0.0828270405728127  0.2508965974588305
  0.2484043714534926  0.7493206761216570  0.6668565304478019
  0.3316840150035373  0.5844962997434034  0.2498226258540236
  0.1661809790407880  0.0012401680839705  0.6663031654415863
  0.4163959741192906  0.4997418193648572  0.5823587917652132
  0.2476941695332621  0.5004454590466971  0.4165292020560313
  0.2491592795787864  0.0845378727931225  0.6667460285983441
  0.1658576594761945  0.4991407534996921  0.4996336569061361
  0.2496915242132308  0.5827267919607634  0.5006845869731565
  0.2492189253328855  0.4990713705847262  0.5834285834079075
  0.2479635961568877  0.5848651756069893  0.3329234729552729
  0.0826298147604606  0.5006104211170427  0.2498830302049444
  0.2499859287456711  0.7502429145322164  0.5017761591819878
  0.2490056621100711  0.5819343546072415  0.6665010108835789
  0.2481163441816126  0.5842728950372966  0.1661944584047655
  0.2477313619870655  0.0002436962509594  0.9146467797944960
  0.1665315333498176  0.4992753737394389  0.8323275825892399
  0.2485562648748635  0.8332213857740878  0.9155349542937765
  0.0831803306599108  0.5812592316304652  0.8320323409778250
  0.1651780441018419  0.4165122790804443  0.4162886617181015
  0.4161848483300100  0.4165555521674545  0.6667973969588693
  0.3325763866895906  0.3327369055267906  0.6668065736410651
  0.4160171375572583  0.3326334958492132  0.5830080928302770
  0.3312218688067309  0.4161851501158037  0.0833697633637788
  0.3312937433739876  0.1666783811482444  0.9998177766764509
  0.4152330400646694  0.4166945977784672  0.9992371278556252
  0.2490974172861093  0.0847855837108157  0.8324554891397788
  0.1650680430016706  0.0841099994321589  0.9169403880449165
  0.3315193712605298  0.3329048269951442  0.9996763940753521
  0.4148865417702260  0.4991306281800267  0.0835701989434891
  0.3294574496605401  0.3316263375299262  0.1666527807762962
  0.4143458173530901  0.3331723591343662  0.4158924986037603
  0.4134977983769114  0.3312136654935118  0.2495265600684920
  0.3330935825192877  0.3331347596838515  0.4999876709041892
  0.1658653511862606  0.0839888667310188  0.7489007632558324
  0.2490799426915463  0.1683838035021132  0.7502066968345936
  0.4149934609767368  0.4169303923237446  0.3342790244252468
  0.4156771826409201  0.1666949939831055  0.9167986600758949
  0.4153532795168980  0.4163887939095805  0.4994143881902042
  0.2491681509774234  0.7489919613612764  0.8328618305133464
  0.0824519653010524  0.0846950935608382  0.6659258859656413
  0.7491030294793305  0.5002803872737370  0.2506471146454901
  0.0829230723826468  0.9166136853305659  0.1670125457970032
  0.5808057126117360  0.7502703433612339  0.1691235315507230
  0.9996996880775890  0.8332559945918567  0.1656524431186311
  0.4146278138403449  0.1675480153696538  0.4156930327651174
  0.4156251386876749  0.2498407774689813  0.6668301153116689
  0.4993139072421268  0.4164495601622685  0.7498307380473325
  0.5821076123715427  0.3330955972673347  0.7502284172497337
  0.5822937180148503  0.3334312743687788  0.5820854222960623
  0.3328876560483816  0.6663081495294441  0.6667920642877819
  0.4983873146942022  0.4161074691849571  0.9163025156351998
  0.5817083946651226  0.4163689037762269  0.4989811833873350
  0.5818578679392136  0.3326373027413276  0.9156702285442118
  0.7491129318899901  0.4156744948180395  0.1678963960840171
  0.6660635644167158  0.1685570779744399  0.9990548486898568
  0.0831587771718943  0.9160719359614715  0.3340997230012025
  0.4968777172235632  0.1677258865411754  0.3335942817167633
  0.0001464562271994  0.8334206352231056  0.3342663358358444
  0.6656751309456819  0.4999523096869355  0.8332508148436286
  0.8337483886037372  0.9997994518934605  0.9999843272165660
  0.7486097236971792  0.6653296444944090  0.7480201890020014
  0.9154447331521766  0.4161908051599207  0.4999384977393568
  0.8326204632726268  0.5015534549239500  0.0005989285974094
  0.0822390055602342  0.4992543261982414  0.5828815285698045
  0.7493187452032889  0.5832024848540368  0.4996285922521724
  0.0822101271173083  0.0003050276448312  0.0829130991960501
  0.7491846416344232  0.3335059869078099  0.9159371537910994
  0.8336697450222132  0.5031464019318822  0.3328792245132690
  0.9988530799727666  0.4985143474217573  0.9991375925879423
  0.9996390210378517  0.5826576187549375  0.9155995635298790
  0.8308952301869932  0.8313834095455056  0.8319673546853839
  0.6655140433464988  0.0841114642067504  0.5825766586829493
  0.6659554110929758  0.1671223390196218  0.6663033935758236
  0.1651915860098835  0.5001854447416542  0.3329805534328183
  0.7494857757491312  0.1663943810711868  0.4166346377888624
  0.4968008636327273  0.9165825097873455  0.2498997946505127
  0.6656085632009158  0.2498014400159283  0.4160006439221067
  0.6660202585907506  0.2522771416710846  0.0837557009198509
  0.3321185519208437  0.5864048114442025  0.4172227262293868
  0.4154794312811928  0.5829667091145089  0.6662384026688355
  0.4155217380455055  0.5830730345627542  0.8322922252473176
  0.4990435055832086  0.4157044062111876  0.5826103938332579
  0.1652648458407725  0.0833068453082475  0.0829337307881705
  0.4976957284264699  0.0001092801842300  0.1675774586219760
  0.4992349595312974  0.0837210904525615  0.5828000252655671
  0.5821128613970296  0.0013334409275793  0.5829182074879415
  0.5816559162938832  0.1673622259245703  0.4152640215746671
  0.4981477706236845  0.0006728697133533  0.6657586320367586
  0.4972884156763975  0.9972734384854645  0.3340888477885373
  0.5821914743813198  0.0838621373854267  0.8322305172598714
  0.6657786657758376  0.0833522050621173  0.7492512448113851
  0.4973096833604412  0.9999437853359027  0.8311535000441684
  0.4989662324761348  0.0851589244083209  0.9163592576361865
  0.9991368841167995  0.9170569098936485  0.5843904222376796
  0.5803167837445993  0.1678221214550307  0.0851205550606123
  0.4981376294020287  0.2498878756328291  0.0848445055117319
  0.9149709149426943  0.2494936243120987  0.5000513103274814
  0.4154602292964387  0.0019628062852546  0.9157215815872271
  0.3328323611172340  0.4997124966568979  0.8328393884996445
  0.1652182404152386  0.0835813987417204  0.4176648899681298
  0.4152587573009779  0.7495368850466588  0.6660347328917954
  0.3321660370757246  0.6658823771371838  0.8319012599175544
  0.3317402850408051  0.7509701995849544  0.5848336942831810
  0.3315194427896048  0.6666400142656357  0.9994954687269487
  0.4156016305616850  0.7494207855282817  0.8322799652143811
  0.3293785218450922  0.8322801774534770  0.9989041298807148
  0.3310481686892965  0.9177020475812031  0.0834493082115184
  0.4140024939450702  0.8337676196915498  0.0842927996744922
  0.4968739421595121  0.9161771022282700  0.9151480456784243