Cr  H Ni 
 1.0000000000000000
    21.1200000000000010    0.0000000000000000    0.0000000000000000
     0.0000000000000000   21.1200000000000010    0.0000000000000000
     0.0000000000000000    0.0000000000000000   21.1200000000000010
 Cr  H   Ni 
 259   9 605
Direct
  0.9150320272223148  0.0005289611490330  0.9167408552407245
  0.5792373506607039  0.3329953781737051  0.0827131900218454
  0.7479799870303829  0.3340586786344416  0.0806590583639790
  0.6649276313464471  0.9174263387922472  0.0842136934601934
  0.8302277189076850  0.0834896511634588  0.5837263320883398
  0.5815421839147180  0.1659735269965667  0.2493189952229558
  0.6638600910809360  0.0003334081063073  0.5000174745581114
  0.6639215960452410  0.9997532534344107  0.3325069791948372
  0.5808185842036991  0.9999986538759940  0.2512442710951579
  0.8322226203708321  0.9993770992869251  0.1655815774405318
  0.9158892352990291  0.0832844490756395  0.9979924599375601
  0.3308782485042099  0.8345339648547249  0.9984678722354359
  0.4999809429497307  0.8335867997640496  0.8316869099941543
  0.7469229139177130  0.3346494384070030  0.2494959211316306
  0.7468879919487375  0.4177221743803208  0.0002984148823826
  0.6644560779785853  0.7488449243582661  0.9160303631523053
  0.7466678513823171  0.7483001499313814  0.0002517528316035
  0.7477276837619349  0.8314408769093761  0.0835221584479989
  0.7469680369483371  0.5004734281821832  0.9190830814302504
  0.7475525012226024  0.4995197511379411  0.7495234574346007
  0.5818511182453125  0.7498258301238918  0.6676957490746915
  0.7481138855548566  0.5006027148621336  0.5835701482860772
  0.5781974329818863  0.4986304352378967  0.0826138833872146
  0.7476360931276947  0.5828339621144272  0.6666563017638393
  0.4973127254769195  0.4181956485885471  0.4174031696637708
  0.5804658245780957  0.7492935374147873  0.8343546385631334
  0.5806464665781501  0.5003807784486625  0.5838210018687412
  0.6640493415709290  0.6658553918617753  0.3312006164318452
  0.4985480218329965  0.0017223425178408  0.1668901920461331
  0.7464898818357207  0.5842656794629990  0.1649824142374804
  0.5792911024786103  0.2508538646081510  0.0011419525937686
  0.7482796419235259  0.2505743627625828  0.9986177129817315
  0.7496988072112644  0.1659206414030245  0.2488066895488578
  0.8304975057499413  0.7493755601688405  0.4160370876364027
  0.6637205536610971  0.4158882012910182  0.4162075148835353
  0.9160192603293215  0.6652163547323093  0.2503630430597791
  0.4975605508410889  0.5849604244744391  0.2485987391774467
  0.7458380123329819  0.6653770937822757  0.9193744187550728
  0.7470152109849674  0.6669887670501420  0.0834735760152529
  0.9983720072624306  0.7488754461980699  0.5848132161992864
  0.9156682181146369  0.8328635049242421  0.2495118447785657
  0.9973990573131241  0.9170939695214071  0.0829604379898450
  0.9955222667230542  0.8331577033748326  0.8324457666522967
  0.9155459695068702  0.6663521774272360  0.9163632400196631
  0.9983717804584683  0.5843075483971836  0.5834834347202272
  0.9157094106588499  0.6657551801716495  0.7501583115535101
  0.8312142514694166  0.6666608259007571  0.5014176921067823
  0.7477396313665259  0.6665321601753098  0.2483802094382100
  0.6657285014729065  0.0836926414150502  0.5840138252040822
  0.7478011287876460  0.9180125282992404  0.8342388916844856
  0.7503303404618776  0.0830837062714296  0.1666734922541270
  0.7476684524086995  0.6662278959985780  0.7490262103478343
  0.5814200248999193  0.2487867717169724  0.1682292945382745
  0.8304937127287457  0.4202716744948373  0.5834825952103400
  0.7480054721020586  0.0829886655131540  0.9990351595238351
  0.9986687080345441  0.6671261398508667  0.1657702943148990
  0.9162144844073001  0.3333664284292312  0.5829905631880405
  0.9978280626195700  0.4989458767906474  0.9984882805596135
  0.5801219456530271  0.7516035293385465  0.3328769627221265
  0.6665162781033946  0.0003917779554993  0.1666465000518719
  0.7487958104315259  0.7493284165395299  0.1661492041704700
  0.8303793142804146  0.5001837849038246  0.3316967855757504
  0.6632116886980848  0.5834007484846947  0.9171607018167393
  0.5812466022691603  0.5822150952224034  0.6669542661598145
  0.2493247243307443  0.0817884736246159  0.1664176762400966
  0.0812432483897921  0.6655453562662117  0.0820941341597094
  0.9159180394846830  0.4175568116499725  0.9982607555748849
  0.9980448173305133  0.6678998334933692  0.5014491671306752
  0.1657432814682402  0.4155205719247912  0.9168488113579969
  0.2492200645040433  0.1676698590097243  0.7509693211737655
  0.9158601124345725  0.7495312534887928  0.9984878986167565
  0.1651524317944578  0.2496517999970906  0.7509944228354802
  0.1653125572739005  0.3325887332996785  0.8323294425084786
  0.1666577199640344  0.7517211834957184  0.5840039872777530
  0.9986290364044150  0.4997526826507128  0.8337601912260511
  0.0828048546957020  0.3320672673016872  0.0818944071769684
  0.0808556344902101  0.9130486008248834  0.4991963097641615
  0.0803513754870965  0.4996404542665179  0.5838949263440539
  0.2462364254449142  0.2471069105843544  0.1672224285377116
  0.1602578098504904  0.7513335646705107  0.2455536181357864
  0.9150630300547519  0.3340316502339583  0.2498812400762248
  0.1647083490531543  0.1658049723106185  0.5009768161895473
  0.1643430579140950  0.5831444821416143  0.9164995990889198
  0.2476929653079445  0.4165471723436450  0.1666537726468653
  0.9123014299799879  0.9158357806227092  0.6658578459354589
  0.1635825836730199  0.6675592750100688  0.9982309274854809
  0.0795497268022971  0.0831559140026784  0.3344057923514858
  0.9970860305370832  0.1674764683300040  0.8324376363369265
  0.0794263432245704  0.0012988902411525  0.4135596261422757
  0.0801804807867931  0.0842543183062309  0.9981582638775590
  0.9974584747403142  0.4174579924555109  0.5819650008421233
  0.0839477101985084  0.5018346232572208  0.4160280565650133
  0.0804189810437149  0.8346627498393939  0.2487813961141638
  0.0802610673107705  0.9160885449207699  0.1670713439495259
  0.9970081105512782  0.8345324761601495  0.5000435712967450
  0.8318062082808988  0.2502538333384150  0.4150500677636131
  0.0814589916159297  0.4162314758275384  0.1634206097217625
  0.1665691118879660  0.1674411145405645  0.8308946916158017
  0.4148008506279889  0.2500791989110892  0.6663690131587936
  0.9155814844157383  0.5828526311694087  0.8348085279470664
  0.9125276169010634  0.0838430391585857  0.6667401739581912
  0.9984161296946351  0.1668522277092435  0.1660278753285620
  0.2479668502001880  0.2499921167744756  0.3360921475669937
  0.5797925186454652  0.4159357394080976  0.0001603570279125
  0.6641605447764773  0.3341542255607184  0.8333150675556025
  0.8302542329159625  0.3341551102021778  0.8341096024940303
  0.1682290032498706  0.4165750718549890  0.2490644332571726
  0.0803661725530863  0.8339425133706571  0.4180762293025154
  0.9945758859384460  0.4127140298079431  0.4170562739325692
  0.9995500935413175  0.4993621176166846  0.1654092425199303
  0.7472508032855344  0.1678859093266316  0.7512447116385410
  0.9140462858799783  0.4169609165574484  0.5007583012836778
  0.7472786634008741  0.9987170566713340  0.7507833250642902
  0.9119362448567343  0.4178797648985246  0.3327395627557221
  0.5827587229865333  0.0827854117846223  0.6669849493735969
  0.9157428579239114  0.4147518994395922  0.1663248183446708
  0.2490381594840643  0.9996665953925206  0.7519389744765909
  0.3305054284241932  0.0005224126279961  0.3348092883907837
  0.9981011288822699  0.2487963886800344  0.7500524933063089
  0.8329972396442802  0.9988580153878970  0.3341057176858417
  0.0817152498870618  0.0826961683950420  0.6667311468533323
  0.9978222042833470  0.1668360292738730  0.5005531298713084
  0.2477784390664511  0.1674284977996530  0.5839006794661740
  0.1652019026576340  0.3346981342892449  0.6665707298806960
  0.3324951853273204  0.1662962844272290  0.8326046973691313
  0.0811263181269598  0.2484810816217916  0.3340708281044117
  0.2492719075501907  0.2504035676258149  0.9984079866558294
  0.0833818219779305  0.6667597791107757  0.7509168275845081
  0.0793538093392827  0.0000226387756812  0.5885929384471538
  0.6648802419014925  0.9171918760867469  0.9159145398244189
  0.1634210731496115  0.9180233435646348  0.0816006669229111
  0.4989932697113028  0.8328187559869180  0.3336632263726558
  0.4970377477534296  0.3327249463307912  0.3323562701967732
  0.4990969099971166  0.8327135340847728  0.9996192775336051
  0.4974335006030325  0.4164451020518811  0.7494840239908090
  0.1651486869237319  0.6669501446507216  0.5013001025988999
  0.4966489801936937  0.4158894642627139  0.2481409525630145
  0.2470079644960271  0.5834178323695866  0.6679896712248122
  0.3347052310632513  0.6659940243518879  0.3323521626671762
  0.5798988492863169  0.0813716425286859  0.9994543963771297
  0.7468644099676855  0.5834875781086314  0.0017648635724184
  0.5794830458788018  0.7511953702899162  0.9997973371974362
  0.5786547324615657  0.4993367561198386  0.9175374058408515
  0.5794418521615026  0.4991558695633935  0.7498941608353186
  0.4983005582258478  0.5832845014609372  0.4165691044925154
  0.4979571343300386  0.4988559473539830  0.0015123772190557
  0.3310350724999706  0.3318998459580455  0.0017111929200157
  0.2494416189087773  0.8329126327338405  0.4169453018215837
  0.7477546552904680  0.1676766516437815  0.5827883522723657
  0.3311488271773358  0.8338018155006380  0.3337902948906998
  0.4143446795880012  0.4182340080428040  0.4990973617381205
  0.1660453985449364  0.6680711365825703  0.8343510830329435
  0.5819210413889641  0.2497430071694697  0.3318312004069479
  0.2482520748356522  0.7500741324284489  0.6673556965448623
  0.4140251757223730  0.6667149826513400  0.5839742822652464
  0.3326455435407320  0.8337246635312373  0.6676185871567256
  0.4999557513054006  0.0004905151353789  0.3340482129192146
  0.4130936048351287  0.1662683826130423  0.0820581732918262
  0.1634349443238515  0.9169522878418866  0.9152364829977954
  0.3288478050808281  0.0027008332296160  0.1660639961041614
  0.3331692186437697  0.7505492756725578  0.9172608011266322
  0.1622111561858643  0.9164655841521708  0.2479312683987567
  0.2472804372346405  0.0820407305617672  0.9980284195924124
  0.1645370533592521  0.7504268277293570  0.9153420524864673
  0.5804090517048208  0.9985257729365055  0.4153859137447581
  0.2496746358485334  0.9999792784550148  0.4114427809096396
  0.3298288346520613  0.8344771113987898  0.1639138646293541
  0.4150147789528249  0.1664665477066481  0.9161785003544404
  0.6638929015857312  0.2493760622785813  0.4160356590195878
  0.4151817261034232  0.4167217015673816  0.6674930538400291
  0.6629999076739994  0.3334245628485705  0.6652903456167215
  0.3312193098978703  0.2475362394564758  0.2506260529247836
  0.4143804163450527  0.2515274711415896  0.0002717964115337
  0.4973915869204955  0.3326269257659480  0.0015442409750153
  0.4977241488294363  0.1663399313685625  0.8327345489663064
  0.4997002907071314  0.0022585529911451  0.9999253765481824
  0.5813181636796042  0.0828940878681224  0.3332319354781032
  0.5848398302058654  0.0813277438622604  0.4987028537193099
  0.4988822404076678  0.9996495908187866  0.8322540071734735
  0.2494827434052491  0.8312128509424295  0.5859203965306806
  0.4133383260482930  0.7482610795219098  0.5003871388945317
  0.1648502658330849  0.1657567931300221  0.1664755058243670
  0.1657036726573258  0.8342296096037022  0.0012958973731124
  0.4983822007276386  0.6658452840497214  0.0005450452784535
  0.5780265978794686  0.5009861281407024  0.4154869579520667
  0.5826688559176110  0.9164761869462844  0.3321858450174831
  0.4147668300695452  0.6669633282596716  0.0825915916687951
  0.3333366015701694  0.9170246044324576  0.9164024891878633
  0.4980270615842838  0.9163449880567296  0.5835183696521082
  0.4146561492596568  0.9167470743951130  0.6674681397308492
  0.9156910321835682  0.4995727082147088  0.9162850845181546
  0.4145853436329660  0.9155898215925761  0.5014824742958791
  0.1647136340763339  0.7497266402206280  0.4209132482652354
  0.4127684539072223  0.4169685423331636  0.1682257053297561
  0.2489166325861618  0.4991223867827921  0.4171062432164051
  0.1666898608345886  0.4153254504667711  0.7492374190422054
  0.2490500712600540  0.9995028895987642  0.5869723907242886
  0.8314878202541448  0.9165822822454663  0.5845449931433934
  0.4137296776634805  0.0828592604876678  0.4991339370182247
  0.7476860857282384  0.5024804096948061  0.0833772601706974
  0.0806132181392853  0.9172940307484200  0.6668120800494902
  0.9168551941970191  0.5831465300387801  0.9978748905574574
  0.0818310583513864  0.5840850877007765  0.3344744462173229
  0.2483410295210410  0.6661132745358732  0.0821594742099000
  0.5809091750249670  0.9162967015780715  0.6660332257851199
  0.8301613870844904  0.2501991322793039  0.9171813686201794
  0.8295599896437963  0.4179282791308999  0.7515667338278382
  0.8330886901419476  0.4170375315001906  0.4171345192926720
  0.6631581868421561  0.6681656254154182  0.5000746727886715
  0.9970025666971276  0.4154074601085114  0.7513665693505903
  0.7463489989308230  0.5860946265731923  0.3307794216888112
  0.9159013000312557  0.3329055858299088  0.0823568458548075
  0.5824157286229114  0.7483073066013612  0.4997109886331944
  0.9125078203785184  0.2507785900395197  0.6663228129337633
  0.8301327042110994  0.7495018383151602  0.5832359465828684
  0.8309013940642188  0.2466633042253198  0.5846830159364239
  0.9153767818895984  0.3327476401815668  0.4168551517048911
  0.8306858721344872  0.1664933676955478  0.1660592689200926
  0.9125687662776013  0.0007809388142624  0.4161459381045823
  0.9968901675299452  0.0003269874184533  0.8329048707170129
  0.6646002967253577  0.1660693967475506  0.8329860196072882
  0.9970338199606029  0.3332902980715488  0.8322491414418813
  0.8327412945569556  0.9167044557876771  0.0830544904396697
  0.8296474494145739  0.8323014406397264  0.8326414880808077
  0.7479244757180042  0.9994835619403037  0.9167261252041686
  0.7488149995098864  0.8342726029084273  0.7514221997873096
  0.5801074074503103  0.0001318420154348  0.7489163895115882
  0.1649013710780200  0.9991681627849893  0.8338903372875210
  0.6644747834991749  0.8331478427972363  0.5016020816496678
  0.9146921286693194  0.5849031240630480  0.3327313354006906
  0.2480862540097415  0.5851817847399188  0.1644535220368017
  0.3288572621215054  0.4163623282244150  0.2480869876626703
  0.4134890411873701  0.2497276922171258  0.4988852850966940
  0.4143092929036634  0.0840411716573874  0.6674893474071757
  0.0792712554965138  0.9996119390903420  0.7492677226661011
  0.4139145453136712  0.6668780444000627  0.7509882418343820
  0.3330797464886715  0.5003427118162882  0.8330527795904095
  0.3324207876928979  0.2505062559498366  0.5817268193089380
  0.3302812560152745  0.2491042932861900  0.4172508743727473
  0.3325651894749075  0.6655226915277280  0.5009312432599691
  0.2478285577702042  0.8352647240058094  0.0813585228854315
  0.0837899782875420  0.6675192771356636  0.9169651726431197
  0.1654363314908234  0.5834029661555571  0.7516966088838585
  0.7483578832045692  0.8317296799205722  0.2486828353277673
  0.6654498406885074  0.4162609359747382  0.2474805819259804
  0.2484970012365736  0.3329792541083465  0.4156405907583087
  0.4130365830417114  0.1664581574626627  0.2509182396397979
  0.4129841097607672  0.3299449250905058  0.0827715681997422
  0.3321249336965724  0.4993315983195050  0.5004098024614675
  0.3331616644735754  0.9172458527708607  0.7497142173586945
  0.2485088532474229  0.5816777422587114  0.3335294042650441
  0.5835871541647190  0.2509120112171534  0.4976377576987834
  0.3318172996744472  0.6664096212531821  0.8320987755050263
  0.3313330278847078  0.4993624189227213  0.0006876412341557
  0.3327433245111701  0.3339978523542050  0.8327112598875562
  0.5830903132297403  0.2513854312271396  0.6666762400868156
  0.2466781376591076  0.4161064720952757  0.6673308484059585
  0.4980892268413675  0.8329254267487112  0.1666987809793002
  0.2475884783887161  0.4177416038236805  0.4990415771276160
  0.2490481220713812  0.0001085278028431  0.4991040994771341
  0.0805672776271222  0.0011848089435095  0.5008226596200537
  0.9956011569737433  0.5024203865421853  0.4171248245681959
  0.2460626960966112  0.6692251212418919  0.3333681703283885
  0.0799782941582247  0.4154892767984823  0.2525553629341108
  0.1642640830100039  0.7503171160924382  0.3332516443030783
  0.8285617399503515  0.3336583381564144  0.5833989461778886
  0.2520735386068599  0.7499990548830803  0.2478834969559125
  0.6669398767978505  0.5042457257782349  0.4163071063099756
  0.2475202652485567  0.9180312699270091  0.1661043785430315
  0.2490376050921852  0.4165505757533468  0.9991251826756501
  0.2480601833522333  0.5012137389055614  0.2492155927744227
  0.2483002599478261  0.4164795919546527  0.3337204741122916
  0.1644534263309797  0.4169857312189100  0.5832885234292787
  0.2484971073061787  0.3337148304087623  0.5827051126464380
  0.3320206583737996  0.4165581631465632  0.7494248886661710
  0.2476589725894119  0.3312860394014068  0.2503734329638321
  0.1656266189181018  0.1670041115825856  0.6673101796941759
  0.1637212741848573  0.8349765360549136  0.3333803118593686
  0.1647074593496830  0.9164480460533632  0.4158814500561663
  0.2480627251124472  0.2505141883342150  0.4996295675029706
  0.3317823853147129  0.9995448479588370  0.8328537474415777
  0.2480252916364876  0.9158294673432236  0.3324110819654626
  0.1651189526826199  0.9167598263958805  0.5846420849896949
  0.1651647720067864  0.2494542560632478  0.5831725919867923
  0.2479947458956743  0.8352784824752399  0.2480198814514096
  0.1634157139695513  0.6663519614169449  0.1644697453741646
  0.0808309059582076  0.7515120754676167  0.9999881368883895
  0.3317563036475957  0.3330485043502794  0.3326240503945441
  0.0824753876174181  0.3328462016822766  0.9154934899027961
  0.9134445118340769  0.0001343942679397  0.5838027253038376
  0.3312208810850640  0.4164960577833460  0.5832238561445607
  0.1642169174881549  0.9991332570619443  0.5005727562541412
  0.1651556465669678  0.4995013952536190  0.6673572393181703
  0.6643188049921601  0.7500791373945950  0.4159321159286447
  0.2498651903742736  0.3324790546269363  0.7505329191529803
  0.0818475280883554  0.4990092870296606  0.0828088624245035
  0.2482847306370940  0.5001398939517072  0.0830993351220867
  0.2492339879460718  0.3336197931431792  0.9156071457468248
  0.3324425713780702  0.4161643749867850  0.9168857855373207
  0.2490512197291821  0.4163837084715237  0.8333948708432096
  0.2489573268377109  0.4994939566242230  0.7507053511779367
  0.1649008918631890  0.5832235523988245  0.0819306550703917
  0.9983647733987641  0.5825643094695623  0.0823349201191023
  0.7472040850747507  0.8329305145569217  0.9167710316781195
  0.2491417664799980  0.7521940690119475  0.3334065749580079
  0.0815804459391783  0.2500669068331934  0.6675091052057510
  0.9139123555040305  0.0001144274342659  0.2495870094335850
  0.7483695897218391  0.1660297027341826  0.0822103394950855
  0.9975774763410044  0.9166986514143758  0.2501483488772975
  0.9151587416526719  0.0009859589490333  0.0821914647195484
  0.9137802939999209  0.9157251128356727  0.3333232893259976
  0.0811546799353436  0.2489930508790383  0.5008549606543012
  0.8312796314432066  0.0830465938278629  0.4153177795638725
  0.7487792602962062  0.9995923527664610  0.0822247260701286
  0.9969507644790964  0.9998509683183358  0.3333395328454868
  0.9141400985544543  0.0834052697226483  0.3333639482641647
  0.7480128552368710  0.0000966854547579  0.5831662229528878
  0.8311345670675325  0.0000326171735232  0.5000430947295325
  0.8328279983344437  0.5836411166297839  0.0831800523713966
  0.9145092498037235  0.1670504500018850  0.9161078770072910
  0.8324765251727360  0.0826107524256149  0.2501277096932757
  0.2476682555944460  0.0828624742394118  0.3335291008969095
  0.3306989942972924  0.1660957812486999  0.5006652331138929
  0.1660806273559426  0.3327740562508946  0.9995104274230766
  0.0800412767084154  0.9164680371179516  0.8323378138361819
  0.0818727549855529  0.7500727500022419  0.6670542523278205
  0.1657841553026452  0.8336569969119109  0.5008527626249254
  0.1650181873087010  0.6664194949558703  0.6669034880321721
  0.3317390203605249  0.2497808324321766  0.9160674426175193
  0.1656484667362648  0.2495942377296627  0.9154933132539084
  0.9983921759564108  0.7500126726148535  0.2495747013839868
  0.1646911669541866  0.8342124297978168  0.8334477132053953
  0.1647638381048606  0.8340974424899809  0.1639570085350962
  0.2493817320756662  0.8337282661747648  0.7507168750213583
  0.4152687215668834  0.6669235233208723  0.2493630616437152
  0.2484666692514047  0.7503121788052185  0.9989758388362463
  0.2484630830171604  0.1666062193259006  0.9152571938375098
  0.1648681358584720  0.7497991573838316  0.0820876784856385
  0.2486952695543092  0.6666827229806597  0.5839310826534402
  0.2475017152496088  0.6654351893114310  0.2478733984184426
  0.3324110179379001  0.7496020018532316  0.7505467865257286
  0.6644033910782380  0.7494839858086837  0.5843411169677112
  0.0817432612611158  0.4157551360614136  0.9991797456235731
  0.0808578098081512  0.0845810129589134  0.5009071875247370
  0.4139942071364308  0.3327805386467720  0.9170701715644289
  0.4154901553560645  0.5832215981254053  0.3325445852141002
  0.5799048482579228  0.4994635260975467  0.2493520387719225
  0.4154053172980717  0.1670965439723401  0.7499977493107929
  0.6633358061001545  0.3333547911344577  0.0001314812900167
  0.4145929755970996  0.5833372347428790  0.5000137675425209
  0.2475625361379644  0.0839348976075495  0.5008469592226346
  0.4158727552037518  0.9999021723566109  0.7499146761370488
  0.4948582047297052  0.4151680100106579  0.0851323588093846
  0.4142904915150902  0.4167044262562420  0.8333671957981668
  0.3307638148790824  0.5001525736842314  0.3326931433190953
  0.1650255305143752  0.0823174814142005  0.5847591493188997
  0.4150196732592351  0.5005372970465506  0.4152251441587671
  0.4143090684727532  0.5834151571914671  0.9994923350648496
  0.4978335448935384  0.2498520588770245  0.5828070817627560
  0.4148661863210336  0.5836233104954193  0.1662102416677760
  0.3302864174811499  0.5004070544588685  0.1665373070799657
  0.8310074984037371  0.7484578831149031  0.7507376339456387
  0.4155734935920262  0.1667019769758551  0.5825454203834518
  0.3298011261189337  0.1652808410701778  0.1663493558893183
  0.4133936968450074  0.2496210593397444  0.3336416978340165
  0.4968339294050184  0.2490630999718134  0.2495782361712922
  0.4153966227835248  0.0832168998839534  0.8328956243821559
  0.4980636024066795  0.0842358161510354  0.0836822090290342
  0.4991514493321354  0.2497481845709782  0.4165299639767564
  0.7470767578057159  0.6669859343571592  0.5834052032816626
  0.1652877008522467  0.1656421921147819  0.9990866124119833
  0.7473665790119537  0.7496338603835433  0.4999855814613727
  0.2474249473294614  0.1649966471067699  0.0824753808100596
  0.6641114774802434  0.6660907798403984  0.6677167186392599
  0.3316854679244304  0.0836439226301550  0.5840848067675726
  0.0819676131381980  0.2488826556304512  0.1658480173655368
  0.1653038957398341  0.2484624683040323  0.0821226785250079
  0.6642494169370462  0.8330844321755908  0.9996761185881058
  0.1650954631650618  0.4157961729937812  0.0831727698106273
  0.3311206290752620  0.5839504259212239  0.2493279165843373
  0.0812593267401651  0.0833283772086397  0.8320826235277206
  0.1652172678227252  0.4990528991219081  0.8332547023652193
  0.2486208649709905  0.8340665341896170  0.9165079644600632
  0.0815075280705643  0.5823390737853297  0.8331411193795127
  0.1645891581638523  0.4168659937036537  0.4166933194259785
  0.4149041444102257  0.3333684054158471  0.7491420097701771
  0.3320125524853665  0.4163050276651931  0.4159674298788958
  0.3323985082938959  0.2498947894490621  0.7496708196487396
  0.1644447941807100  0.4999830783194829  0.4999383978889167
  0.4140996481051006  0.4995946234105251  0.5838388520614258
  0.2481698080415627  0.4993982344787999  0.5836131751763655
  0.2481228629442313  0.0834812676524212  0.6674764206130055
  0.0809544957533753  0.4168217374047127  0.3364625129420095
  0.2484236912267469  0.5824946907402923  0.5001502528767010
  0.1654591869239015  0.5825436760221649  0.5838104036823383
  0.2490220305729351  0.6668432340341165  0.4184271296242677
  0.1634098002010260  0.0000395432046638  0.9982176667386189
  0.1643347109875721  0.5832686941685468  0.2490900557269266
  0.2496908436317833  0.7497921096087596  0.5009832904661575
  0.4128870685072886  0.3328396696766346  0.2493105316841202
  0.1652699256333765  0.0828976767411328  0.7500259243537829
  0.4975010656380925  0.4993477046878644  0.3317605053173544
  0.4154623909279967  0.0832923526771212  0.9994151771148805
  0.4975711518979130  0.3335222078951591  0.4991059554655681
  0.3311428238453858  0.4161014153441090  0.0837937072647776
  0.4151766379600098  0.3334776479253206  0.5825292237533820
  0.4964812283950953  0.5830827111488861  0.0830572876639862
  0.1651464219400338  0.9993237382005279  0.6678846666523722
  0.1642028390956533  0.0839538179575550  0.9153666536029116
  0.3308365050844745  0.1667230130895138  0.9991929542939182
  0.4970459269057261  0.4997407267729160  0.1668817251497913
  0.2485245713744023  0.0831483863942118  0.8331054965651556
  0.4142505694057905  0.3330305734476401  0.4163012047544900
  0.4142208248205401  0.4153360177577132  0.0005295791954229
  0.3318838281333235  0.3344660215972859  0.4997552627545421
  0.3298351143706063  0.3315315445356000  0.1667012979217512
  0.8316499468057071  0.6662239534088484  0.0001657533921226
  0.9963749059341767  0.9173648597351363  0.4156241960013714
  0.3322656276235800  0.0002922799714079  0.6665074442753584
  0.4155449844900784  0.8332766652606326  0.7506183673233561
  0.4151123981374754  0.8322767283928327  0.5839674293989529
  0.3326640649254148  0.8338031796594357  0.8342585299617215
  0.0811644912088281  0.8339887481137408  0.9162591953694442
  0.6639839105199655  0.0829230852701597  0.9166614097811678
  0.4162792944427987  0.8340699799155397  0.9164062705640307
  0.4137551422799794  0.0830494300061111  0.1666613205357710
  0.1648539498909869  0.9177101633377133  0.7506185843755021
  0.6648157063519033  0.0000403684073708  0.0004995386547083
  0.4146513009624223  0.0824620719160429  0.3332059631520958
  0.0809053224032491  0.8335364307537142  0.5839192551379494
  0.9960838517570060  0.9167144546708491  0.7499105700544307
  0.1642127141445562  0.0832262176824402  0.2500570164006211
  0.4147140384385972  0.8328406553387144  0.4166931567980011
  0.4139508122211872  0.5000896456527874  0.2497001265657452
  0.5790480705819006  0.5828971272370127  0.1662314174462837
  0.0820455336982430  0.6667517650720918  0.5843074831036863
  0.4970970978148019  0.6669628203395899  0.1656925978243260
  0.4971803323285152  0.7510644391659429  0.2493873603991710
  0.7473243787371369  0.5010846392747231  0.2483867297407868
  0.9979958759713959  0.9995499081241173  0.1655664711649830
  0.5793827615878767  0.7512167344670363  0.1660496077675948
  0.9973364867392600  0.8332304532201807  0.1657810760368026
  0.4151376561473591  0.1665886651130665  0.4175498294651762
  0.3322759945531920  0.3334714682555384  0.6657588446734151
  0.4979027301591167  0.3334527908471205  0.8323623920772711
  0.5808699769266149  0.3331296872763157  0.7496241299811750
  0.5806468181215959  0.3328969369259217  0.5822201994969010
  0.3310424404716265  0.6660782673124012  0.6676971450886551
  0.4965352742782972  0.4155869300234661  0.9166392438632294
  0.6638746065455924  0.4179392591098029  0.5836564835024082
  0.5804213515909906  0.3328465842241102  0.9169711301775257
  0.6638105443242645  0.4164833863059557  0.0832665799869716
  0.6645813929663147  0.1664656443157131  0.9997696508518100
  0.0805448737506194  0.9165189960610985  0.3334498124216397
  0.4981446251893905  0.1673179613027366  0.3333534706360604
  0.6633785930279362  0.7503505667655329  0.0834071231398426
  0.4143619758678238  0.9171814424796561  0.1661548875290310
  0.3333954996419968  0.7509870640319284  0.2488975493170653
  0.3323883483219802  0.5831857194606546  0.9166697886241287
  0.3322347785114755  0.9163903607453552  0.4162912805435987
  0.9139261617998833  0.4164955417516842  0.8337387602270292
  0.5809353062513839  0.8337578378795467  0.9165539882245235
  0.5804335655510885  0.9172420916132352  0.0004594392250737
  0.9154808064669122  0.7497205156753233  0.1668750822997401
  0.6639481480016611  0.7496759654846001  0.7504221977454586
  0.4980636649857988  0.8327482699258201  0.6667201195348275
  0.9970748654033279  0.8331942691310981  0.6663794007271006
  0.0820327474619756  0.4987489188753727  0.7500442555567853
  0.8321394227143796  0.6666666692133698  0.1657309223652341
  0.6638942129495390  0.2493631350063778  0.5829469786956688
  0.7481793926845207  0.2509698058594931  0.3324561068660528
  0.1624920390039891  0.6655352032526966  0.3331330570774723
  0.9146783767809498  0.8338195303090317  0.0823157789107307
  0.6636528850654734  0.5837639226495879  0.5841461316626575
  0.4979122267694219  0.1669118449677714  0.0000026893544516
  0.5814625718085716  0.3327954092668134  0.2495007810378837
  0.5814982434608663  0.1667790329140881  0.5824905350070334
  0.3313393629003855  0.7494221735317621  0.5853514889358501
  0.9981283409961333  0.7497175903828533  0.9157657775699158
  0.4141635698710671  0.4990788277709688  0.9175797492544285
  0.1634088040300495  0.9994714917502759  0.3332033050149477
  0.3314269251795429  0.5832434130431706  0.0824784900389892
  0.4147608281715099  0.7508115743690191  0.3327607488589330
  0.3317347550599916  0.7510757728310643  0.0820387619068254
  0.4979625132652372  0.7500671524764709  0.9164759840237199
  0.3316382431119823  0.6663671431630614  0.1653831286784730
  0.2481283377509400  0.7503061959686254  0.1632706735007549