Cr  H Ni 
 1.0000000000000000
    21.1200000000000010    0.0000000000000000    0.0000000000000000
     0.0000000000000000   21.1200000000000010    0.0000000000000000
     0.0000000000000000    0.0000000000000000   21.1200000000000010
 Cr  H   Ni 
 259   9 605
Direct
  0.9975045974431258  0.9179204053499274  0.9144987700055249
  0.5801140938359207  0.1672065919923231  0.4163217831759433
  0.5805083318557713  0.0833652081273906  0.5006014031540893
  0.6631040171821352  0.0834422013529992  0.4176521431219392
  0.3319810007352446  0.0823140542365990  0.4175330594623857
  0.3304051605539590  0.8329780103487059  0.1679649719963157
  0.3296523225449765  0.9990393109377820  0.8305525417803072
  0.6618672276054182  0.2507198110944342  0.4175270597895139
  0.4122998606224579  0.4987964570293670  0.5834186266499837
  0.6626935790286680  0.3331847094952484  0.6664190906902456
  0.3299853958643446  0.2491068762773810  0.2498704560534503
  0.4127923758746659  0.2506443625103306  0.9994519040253904
  0.4971515217557488  0.4158148412505935  0.9167692478199848
  0.4971404832494106  0.1663008315913674  0.8330307085018287
  0.5823912872976592  0.8342117080477900  0.9157746542897510
  0.4976815764901329  0.9163550521753638  0.9147489108577761
  0.4130663141210298  0.9168051436651716  0.9992379285584010
  0.4125930029895202  0.8315615329845176  0.7496852292717940
  0.4115794024020582  0.9145071976891869  0.4997429383481597
  0.2462886495014559  0.8324918755010702  0.5813499277541871
  0.4132567122917450  0.8334106013994503  0.4188045414147348
  0.1656400989881375  0.1685218292540953  0.1669910606606507
  0.1652730442398367  0.7486364681990764  0.0838386371574408
  0.4972249376926303  0.7512746148576095  0.9160169491471843
  0.3307323581411099  0.6671748106740544  0.8328979705152663
  0.5804417931778711  0.4999221546917041  0.4146752605556212
  0.3306209498159083  0.3343065170528192  0.8323674224035805
  0.5805395905410333  0.9163455144944723  0.3337379641340856
  0.2470736932386767  0.4184650948667198  0.6665498604745778
  0.4126627187101444  0.6676396660833942  0.0828243277468365
  0.8302330962072152  0.1661897940766896  0.1670891395704044
  0.8313265729403352  0.2510242537605034  0.5843870639432949
  0.9134180171327999  0.2514397393330603  0.6653021836062532
  0.8323922253929045  0.5840261748001032  0.0832977236209131
  0.1620478223239410  0.9984654532589735  0.8326414233465440
  0.5805046745030306  0.4991613866528500  0.9161242276125627
  0.3305399361582144  0.4172730197197372  0.5834732089965726
  0.4980598229708516  0.5835757606427806  0.4179139253164413
  0.3301506585439796  0.0000792596009564  0.9985374389159755
  0.4958172422491089  0.3341950328970617  0.3318280089575593
  0.1655509871769245  0.4158333240261669  0.7488195165953884
  0.4973158844007541  0.4161827541166426  0.7511803661527111
  0.2473064506635485  0.9159794814805654  0.4997708952474341
  0.4963571685229091  0.4164946997342592  0.2491548542493590
  0.4132050168028666  0.0834631294946038  0.4994460847275607
  0.4136769056198452  0.6663892177953213  0.2511228691060643
  0.0793937567015900  0.9157178374034380  0.6664654058246459
  0.0813925678895834  0.5819000584170598  0.3341935215809098
  0.2460238638015473  0.8311127325632309  0.7489169435320135
  0.2471264244078006  0.6682748905809393  0.0821004555559805
  0.4134297440070017  0.1663376803098450  0.0820648717743728
  0.6651034819684052  0.8338939831925362  0.6682894201057976
  0.3266402385041632  0.0009415483972180  0.1670773695097636
  0.8307562423106867  0.1663797410805879  0.8331454743563256
  0.3291307073281398  0.8320485826481385  0.5000753284537600
  0.8297813427051839  0.4170954154786827  0.7513795646118022
  0.3298699893014459  0.8330766631767890  0.3353601769009773
  0.7480495533242802  0.4177520522811174  0.5011352066330905
  0.1632639799621872  0.7495493868827248  0.7479865114895700
  0.9978744057939645  0.4175153435582848  0.7499311109683429
  0.3314094491713575  0.7493640648208918  0.7498157562230450
  0.9151049448039893  0.3312900679798272  0.0834340028997509
  0.2477911507406691  0.3344859948630786  0.5845609398149330
  0.3299558186529966  0.4168291830353851  0.2481906617255237
  0.1646901024783930  0.4999544304472212  0.3329349987630784
  0.4124482940399038  0.9139808637919652  0.1668267256637857
  0.3302445401186565  0.3320353213047771  0.0010733252575748
  0.9129826221807064  0.5834266274699893  0.3318845539751413
  0.3301459180945705  0.5847578852669032  0.2496330316652630
  0.6622181045520363  0.0829141044935502  0.5826322390204213
  0.4131485093887966  0.2514605788288696  0.4993212975030387
  0.4979783927511717  0.0835645615037447  0.5824330505635014
  0.4962123895957637  0.3339672161725684  0.4995150835155465
  0.4977262294322534  0.8330306449944925  0.6673986408577673
  0.3304441410852410  0.5013686347340901  0.8325333057547294
  0.5803749680847190  0.1660729316097441  0.2501343404642595
  0.3302752645829000  0.2494359021816481  0.4154772461024416
  0.3305214808473134  0.6656784501634588  0.5005329716367768
  0.4130463720354707  0.4176060198713976  0.1679517727572270
  0.1640201057344774  0.5833487937291484  0.7493792194142230
  0.5778402845544481  0.7514697914632159  0.1661173111680463
  0.4956042606513129  0.8351071378675888  0.9981512146048475
  0.5811837221260262  0.2526175560761689  0.6670196031348850
  0.0805086721436361  0.6668906547824467  0.5822721771095398
  0.4965535797910739  0.8332778669530090  0.1669203746682577
  0.2465293854246330  0.5834836760041821  0.6661823036813003
  0.2492941536580796  0.3323932097273877  0.4149947499138184
  0.5795933363961439  0.0825921995447181  0.9991493869422513
  0.4129540929984393  0.3312569483231315  0.0820390545519492
  0.5800064398679368  0.7520177695297915  0.9984334970850114
  0.4130339326976442  0.9995224442808422  0.7494705024561789
  0.4979436554046043  0.5825710607003841  0.7489870327427705
  0.5815343842725551  0.2507165116635548  0.4981503415636604
  0.4992094547350225  0.4971172425858753  0.0001885182833110
  0.3308685328417987  0.5003764023917654  0.0008837210551471
  0.9966410168040201  0.5838004775322039  0.9151861577632977
  0.2475496847434516  0.8325686455776873  0.4177992446531226
  0.2478197207962983  0.9993286489661309  0.7500131439535673
  0.6625548255853007  0.4150235270406053  0.2487073533912676
  0.1622224464031856  0.9185711731468384  0.9138925222738982
  0.4151933024691755  0.1651104272218447  0.2509435228801374
  0.3319121092838147  0.7487695706778098  0.9140179731409133
  0.3297499884322548  0.5000370093357335  0.4990872205482268
  0.1642130621047194  0.9168025656862706  0.2520527705613752
  0.2473424270918561  0.0813711016381894  0.9982716881590135
  0.1640470707247327  0.7502118178543482  0.9165292741665021
  0.6638912341093319  0.6653909808869816  0.4995991006677543
  0.7469327806807693  0.5839384339289823  0.3292302568178688
  0.4979621062036388  0.6660553096891205  0.4997521135761172
  0.8306901234129764  0.7492659418518772  0.5825767558647039
  0.9974793752806282  0.3342015458941893  0.8327864286398600
  0.8295909596559413  0.1657625391694625  0.3331083763922987
  0.8309168357816089  0.8342857797290691  0.8317906160755970
  0.9143196586226735  0.0008307233116430  0.4178696841094243
  0.7479885744153532  0.8339614448173300  0.7475613455308177
  0.6628264051806604  0.1656359730768356  0.8331953984365533
  0.8307479159016791  0.9171609224417631  0.5830055797215424
  0.8302974126666003  0.9186523606039381  0.0850431626669553
  0.7463389077038579  0.4971569515091038  0.0831406645480599
  0.7473743787998336  0.0014872474940635  0.9176627910551656
  0.8309483503600309  0.5014969170814890  0.0008153909019990
  0.5798831442208815  0.0018744125629394  0.7475908216430069
  0.2476784110712041  0.5011563118041888  0.4161016009422899
  0.5801564476855174  0.9169175766212124  0.5022368330549343
  0.4975681323766782  0.9164049551855843  0.5831093946950723
  0.7447433123255723  0.8328591075448255  0.2499575424853572
  0.9136154372928298  0.4994717195437317  0.9186602926725936
  0.4977461787849041  0.5834538031935955  0.5831092310614665
  0.1651304785743623  0.9175003846953689  0.0831063267168271
  0.0804794621190719  0.9159849598685381  0.8326615577045600
  0.9963324825722473  0.0006492402215429  0.4992258558677573
  0.2465755721966640  0.1673263752799534  0.7509089577193886
  0.9140902061065761  0.6676275313779418  0.9164530083572654
  0.1641634688622445  0.2489323028631975  0.9162634840426623
  0.9144567027273192  0.6668483026761531  0.7490142404293777
  0.0808868102794775  0.3329969786857635  0.0838984557365434
  0.8300987572415933  0.7496055008789525  0.4175482436180808
  0.0827783647492507  0.6660603798375374  0.7495521953522268
  0.9153705891389354  0.7519209423664520  0.3340998055704086
  0.0781365534058053  0.4999055601797188  0.0833763916211527
  0.7459656380011092  0.6700778236776715  0.9170572825633641
  0.9974450957041607  0.5006741165576389  0.8346477121364049
  0.9965241745896901  0.8335352452923298  0.6672287673705261
  0.9987662523570954  0.1666371966156040  0.1663681263411594
  0.9972487335162935  0.9168348105696272  0.0831823540096844
  0.5806953015720377  0.4166482734413735  0.0001730243196318
  0.6630145483151473  0.3322828583689005  0.8325904096967031
  0.5797099325879475  0.7498564705097772  0.3336303951253540
  0.8306063667423124  0.3320211553715107  0.8324897945997634
  0.7466257304276214  0.7512981649037015  0.1668735775809656
  0.0809582594889017  0.4170449603602470  0.3332885464744675
  0.5813723432228283  0.9991290914272258  0.5825611979679597
  0.9971592600056530  0.8298586758956091  0.3330297558557298
  0.8300936323459178  0.0833029546969379  0.2505892548588127
  0.0810838027058063  0.3325703286130791  0.4154306219903750
  0.6616761739525296  0.1664769885653812  0.1668176621706643
  0.9134490308657401  0.5002518124730274  0.0821418774705737
  0.7476477935792138  0.0827368958848939  0.9990314658124881
  0.9129067024886982  0.4154730132994041  0.5005925312649175
  0.9136163147768469  0.3337537639247574  0.5829476766877210
  0.8313395894731184  0.5824825608145129  0.2490354054244683
  0.9984161484450690  0.3328858402311823  0.1667708649873789
  0.3297499580265561  0.0006280665261233  0.3349256356060989
  0.8314007643746292  0.9207523882391793  0.2501677495365879
  0.4145720459617682  0.7487097342823769  0.8311435453434606
  0.8315796014552781  0.4145106546431062  0.2496839521267381
  0.7477818887234123  0.4162564197153031  0.0017318622719478
  0.5784111912945296  0.4161978064746255  0.1676467275878751
  0.7459036719527278  0.3313114252422045  0.0825749480414507
  0.6631826781589729  0.9184992836374501  0.0845079402134244
  0.8292058634894471  0.1678564482168650  0.5004807628495035
  0.4970946841602522  0.1669247310091740  0.3330411516633801
  0.7497623098355484  0.9158171394864876  0.5011464115052118
  0.7482846426884462  0.0846787056861158  0.3333807823511546
  0.6621801391796298  0.0829440662705586  0.2493514870464965
  0.8301620997091187  0.9995484505552871  0.1664738243107363
  0.9146121410468516  0.0834664375206518  0.9994409935272854
  0.3304364808682942  0.8331329423362838  0.9975177566741084
  0.6632278504864593  0.7515899218184801  0.9136934259461980
  0.7481888019341932  0.7502338258036519  0.5009845164480095
  0.5800550834914897  0.7502976818319075  0.8331178199965040
  0.6638771709886070  0.6669852313874373  0.3325864134226145
  0.7482860179590914  0.5841839494746590  0.1724094853825823
  0.7463025567082979  0.7506049131087220  0.9984601204345930
  0.8296311205795558  0.8353723081915418  0.9985436467924997
  0.7463359524327451  0.5009098669466140  0.9192671359017357
  0.7473845133980781  0.4984270803464512  0.7495601257417650
  0.5824483010063937  0.7474367088591725  0.5010459534651900
  0.0799552898971841  0.0840213369735633  0.9996460947731959
  0.7473305383969351  0.4977466369695574  0.5829715843696593
  0.0818706014093012  0.4995349531505935  0.4146803668009079
  0.6613699260921552  0.5846184269319288  0.0841424929976205
  0.9991296993218978  0.8338166760162987  0.1659360493678620
  0.9138283972614517  0.4164272681289693  0.9983287583229279
  0.9975854389336631  0.1669448437802119  0.8325872204060910
  0.9966326533848592  0.5010408393460579  0.9984999126358853
  0.6628414094079246  0.9992101843303226  0.1657369107684007
  0.2465957100910757  0.1659942398464393  0.5819401821813731
  0.9154601304546477  0.5829118778581678  0.5016344239206967
  0.2482839984558957  0.4174311500141802  0.1670031533316219
  0.7465045064406249  0.2489326240396317  0.3325628567292553
  0.1633302367925488  0.5828473571509403  0.9170840756815914
  0.7468401409205417  0.2494336121071125  0.0012216881178517
  0.5789174259401236  0.2489652580212945  0.9993842630701234
  0.6633568549440333  0.9178698942338889  0.9149353103768308
  0.7468120382144046  0.0833381419672148  0.6669841486606971
  0.7476417481592517  0.0019653966542795  0.7496359766951187
  0.5804304670451602  0.0824023554112449  0.6653187991382649
  0.9977154310085077  0.1674622891530469  0.5007030331848431
  0.4133655505278129  0.0829723765579293  0.6670669262834621
  0.1660726726012124  0.4149606650560991  0.5822793618193648
  0.0803926517244263  0.2502015326488885  0.6669563009437949
  0.0804123861381030  0.2498157146467577  0.3349208413482653
  0.1646461684055985  0.9988818863950409  0.6669347497935403
  0.4140497541047399  0.2511694547909509  0.6671976518031336
  0.1655318047474615  0.1665769997485537  0.5015147725952721
  0.9132994871975524  0.0833899143390225  0.6667845595392340
  0.3299953204777838  0.1669881832396255  0.8309406998602716
  0.2487315450415810  0.2490517694741083  0.3352991155865349
  0.2485609193269063  0.2500277595251353  0.9986876226320875
  0.2506050720813446  0.0815650844625116  0.1669863201359705
  0.0818246465228773  0.4171154083435414  0.1656042475970909
  0.4147009466107926  0.4178905980886112  0.3310596514661417
  0.2464309144774587  0.2472992397020607  0.1675737120310740
  0.5791693437050420  0.4997073325379792  0.5831867584006912
  0.9133743917725659  0.3324683373098026  0.2506094278274087
  0.4994840201216268  0.9984193581322828  0.1669090864348405
  0.1633647278132468  0.1666514750680564  0.8333499939787469
  0.6629798441380985  0.5010693959997030  0.0008555657275648
  0.9130776527184865  0.3326896038132170  0.4165195726876246
  0.1640236619901762  0.7495092957051733  0.2515119599359791
  0.9144528172569206  0.0017334152723245  0.7484580567406046
  0.9962161674388711  0.6646219757665999  0.4989022499839991
  0.1648355078107014  0.4156838131629539  0.9180538046289012
  0.7454382253768492  0.6664015447905416  0.7485742495648294
  0.9141782541877567  0.7511753100765185  0.9991398116137071
  0.2470749433271218  0.3346348503954524  0.7500667100148597
  0.8293948165911512  0.4168042945234057  0.5831506048593820
  0.1624977053567176  0.7499378096404834  0.5818001461612009
  0.0812264090781715  0.4983149174349692  0.7507083940543215
  0.0803257133010899  0.6671891510078529  0.2509854126260653
  0.1634825325670612  0.0840762212600853  0.5831779950984829
  0.9979286023298379  0.4987042276414913  0.6684929462865139
  0.6661259299996376  0.6654549536686515  0.6683910183134765
  0.6632998839985771  0.4175289274709715  0.4166711524676398
  0.9971240571882167  0.4157624302026394  0.5818623144632925
  0.4953241564391557  0.5860307846371753  0.2502722870010424
  0.9979689575444693  0.7513323096055553  0.0843375708968031
  0.5791528358630660  0.6689997677453664  0.0846075810924128
  0.9973891442446452  0.8335015617450782  0.4999084772634326
  0.9983663933676191  0.9988689324189886  0.1656590076516079
  0.1637873169406432  0.4142537540824100  0.0846429146475847
  0.9142085197237059  0.8347848563622686  0.7495910260623730
  0.0793537507286054  0.1674282737405536  0.7496985342928691
  0.9158648485920257  0.6645197985571434  0.5808781094130048
  0.0799381526419160  0.0834251789695888  0.3345494929722330
  0.7459760071277558  0.5832754540003589  0.4997369724164501
  0.0801491990096293  0.0013575046761373  0.4177570260812197
  0.7477943263354024  0.6687259086673271  0.2508494266024443
  0.1670650647533659  0.5034635323286860  0.0836157281349905
  0.4132286767971400  0.0016413320506386  0.1672761815271194
  0.7456571092731961  0.4124065911423396  0.9137383314172811
  0.9976007196777307  0.9204062139679258  0.3329851860701308
  0.4954932931970710  0.5868662990013835  0.9988393448231313
  0.8332729282152206  0.8319013606114922  0.2499308918556604
  0.1616095413191405  0.0795043726346013  0.1672651272249175
  0.7471268799730508  0.5843336472464151  0.0849393928360469
  0.9154885073308334  0.6676207340887911  0.1666005309773340
  0.8300215583757145  0.4165534773717474  0.4171675724344115
  0.8305424637654086  0.5850374729722616  0.9163082359056944
  0.8310463319777612  0.8331567836456908  0.5003786677759177
  0.7470115301834928  0.3321925117999387  0.7505425483727393
  0.7466147803137659  0.4164957800184486  0.6672028187190470
  0.7467304753863366  0.2489386734762438  0.8329538050377395
  0.1641593072518637  0.5833215834488658  0.4173111630989035
  0.0809909074739178  0.9999856061811173  0.2500275529496413
  0.8315052627966184  0.4149357845704848  0.0838931040546157
  0.8306746013304122  0.8335022103032503  0.3350858731815590
  0.7464242635107714  0.4159419291908735  0.8315408932951197
  0.4142379385059393  0.6655924569191369  0.5830900168529872
  0.6637934608556385  0.4159602808749418  0.7502238551267820
  0.6641615683572049  0.5843684626093766  0.9164610766821274
  0.6620328271528056  0.4147270545299110  0.9167920006502311
  0.7467332352517577  0.2508858479448067  0.6667388088673023
  0.9978299016051962  0.4160941626892838  0.9159812123636336
  0.6633289368952298  0.3349808910167087  0.4999015859953684
  0.7461731644451171  0.3332602623332544  0.4164118138423065
  0.3309830044923143  0.7502911334632921  0.2506876153067005
  0.0822077416681201  0.7504759910646479  0.1666391050763263
  0.3305803807824611  0.5826990150656755  0.9165192285290784
  0.8291673884969480  0.3330166467216349  0.3336644293359370
  0.1634934617842095  0.7488991761648524  0.4168460206257065
  0.6633727206382849  0.3335524096686937  0.3332783401039389
  0.9136714712490631  0.4162770259236485  0.8337729902129273
  0.0805765990892165  0.5842224295386595  0.9992424434757501
  0.0821840487019495  0.4152317611893582  0.6659624154350479
  0.7467452900927122  0.1666372566475125  0.9164462868086943
  0.9140771553706234  0.8333900896456620  0.4175184920154920
  0.9148457191353556  0.9176352730747466  0.1665456856019875
  0.6637755330599298  0.4996436543148446  0.3315862492023274
  0.6631888916729093  0.2488560512275261  0.9169056128768152
  0.5799765485223569  0.4999370664082274  0.0843056370146611
  0.0816616503559424  0.4161235525735933  0.8346502059987244
  0.5799642731560027  0.1672421510632106  0.5825696172121138
  0.7470112640309235  0.3334398159563839  0.5829471990301446
  0.3298484206443423  0.7488663826321290  0.5825747052447162
  0.3308268000391892  0.7509429203544608  0.0826736185807616
  0.9956475506806898  0.7496725164842581  0.9159702288753993
  0.4970377717875332  0.6695960185715900  0.0000028715860694
  0.4140480386083951  0.4996615999038364  0.9167106610523511
  0.3306881734747168  0.6677514768748466  0.1663717240862271
  0.1634978230469937  0.0004406161699553  0.3344870762949794
  0.2473311031350238  0.7502310975662652  0.1667870237733615
  0.3309614831437103  0.5843760693571840  0.0827849027005489
  0.5801181702677317  0.5837451951682655  0.3328133400183004
  0.4130291295712358  0.7510486828680512  0.1666515435088867
  0.4142950310362933  0.6663851052931112  0.4177057349991412
  0.3307643817611296  0.7498710617949462  0.4176055045491206
  0.4129805193986307  0.7511039476780336  0.9985846765860387
  0.4135184199297400  0.9992721192361504  0.2518549215525661
  0.4132676918368605  0.7497462192438573  0.3348979560236811
  0.5801007554921388  0.3329301875158883  0.2499801186974758
  0.9974682589589381  0.9170380270866696  0.4181316695127557
  0.0805649062009170  0.3334599230263339  0.5828747414517882
  0.9975220471414451  0.0843359559606437  0.2500272388067667
  0.7467715851079674  0.9179930523402677  0.9997574967756093
  0.9968164201859387  0.2505620180318231  0.7501498547873875
  0.7461059359651544  0.0000675166612789  0.2499380664113089
  0.9137342253598966  0.9172463568991149  0.3337933607961591
  0.8309069773812732  0.6667865887947304  0.3336206635392628
  0.7464899810917349  0.2505306805157940  0.4995304576807683
  0.0813095812662360  0.3326826424953547  0.2502768257390453
  0.6634985852261762  0.2496896412010251  0.7502578233938935
  0.5813392164655926  0.6662161963232870  0.4165320512507105
  0.6627699974960125  0.0829897518314376  0.0835871226956343
  0.6628635683078424  0.5840322079853958  0.2488568720315696
  0.7466022484430430  0.5001717512934338  0.4159665089677738
  0.8303862704271774  0.8346736464453073  0.1653450868863015
  0.9977099942711218  0.3344408662114728  0.6667264719378662
  0.7470804030699797  0.0835490551282451  0.8327037111460237
  0.6638976858432610  0.9998531334704457  0.3343356955665668
  0.5803565744347551  0.9174882108414132  0.9993897372171898
  0.6628849960804114  0.2508659765232266  0.5833930015481129
  0.4980222350988880  0.8326764548269834  0.5008333904409160
  0.5805315845279607  0.6688810129453867  0.9157888346425496
  0.5808619675301472  0.8324478249974699  0.4179856665908906
  0.5808093947556421  0.8330375752544805  0.7489116335296913
  0.6646074996236937  0.8331714864905790  0.5003733779469373
  0.9976371055278583  0.8333721886104433  0.9999481118356938
  0.4133945735409246  0.8334618378839237  0.2512574630883494
  0.5818952121791050  0.7495057849632660  0.6670097469954823
  0.8302120899936610  0.7519370181862098  0.0813992177989805
  0.5791085747772524  0.9165124588083751  0.1672029766688520
  0.0805623692650902  0.4998268016070491  0.9166895217089528
  0.4977665844162077  0.9153817292954577  0.4182518526918525
  0.5811228717084430  0.9171452630246553  0.8311889917712012
  0.5793839178130817  0.9993738234613933  0.0826430162207187
  0.9151218966481593  0.7529151849022019  0.1656868624614439
  0.9976790095841424  0.0835482461691102  0.0835150091146780
  0.6634807291648704  0.9158405403126254  0.4172548714050583
  0.5809267553371908  0.0827635636098493  0.3336161587275956
  0.9127887324504187  0.5839042795899224  0.8321466533886167
  0.0794111590315812  0.8328188072620345  0.4168616764136864
  0.5801786328657283  0.3325211992759907  0.7504741268043508
  0.5798155843812712  0.3336054988673525  0.5829079361985531
  0.3295137172197351  0.6658429020231983  0.6669026829890802
  0.4969725817168206  0.3324659196033998  0.0005401616360274
  0.6632644782270535  0.4170003370455672  0.5828926977512919
  0.5796890706229842  0.3322110583121678  0.9164572765030139
  0.4965726902328567  0.9993704804237645  0.9984399308726714
  0.6624998738901359  0.4152399058657913  0.0837722174267268
  0.9981086184784869  0.7503013721450731  0.2500421519583979
  0.6631471489792909  0.1658099321910690  0.9998834504376144
  0.6645161880057419  0.7501211681780461  0.7495553772328122
  0.0817780947652119  0.9166775502761434  0.3336775850969524
  0.4972517149850039  0.7493957012603016  0.7493317468240860
  0.5804459375552641  0.2501314549667684  0.3330617097150366
  0.9970481874815558  0.7491459443585881  0.5825450985825315
  0.8302244045340715  0.6686061806230734  0.1666808165334905
  0.6649594852327053  0.9986042163908859  0.4993133840320406
  0.8312979255556101  0.3324644327724926  0.1660267381664834
  0.9972874200393879  0.2498760307810304  0.9157567960005679
  0.9964491580330992  0.5820560617121074  0.4155752648991078
  0.0800864361729060  0.5824488543249847  0.4997579987539748
  0.7474603837326196  0.0001082045185422  0.4169754414171618
  0.6639746206431193  0.0012467212616531  0.8325245135014467
  0.0811120538059145  0.5832272198043610  0.6669441759852451
  0.9135596977954885  0.5000809308263252  0.4160493729935260
  0.6648585794719724  0.9990631084395392  0.6666002538989722
  0.9975356583813766  0.4990513453147729  0.3331694535441577
  0.8306030993744650  0.0842263122690152  0.7497383567247385
  0.6632513101304324  0.1664839735347435  0.3331554721405690
  0.9973787371244119  0.6659800782990036  0.6661793953149812
  0.5796731359832488  0.2487924127234889  0.1671255037800405
  0.9140573002858458  0.8331521700300950  0.5824310851039038
  0.7472263300413780  0.2493130572631591  0.1664680281733162
  0.6633264012854656  0.2491029145469281  0.2494993406622902
  0.7468245663871681  0.1676202427945057  0.5835687087604317
  0.4971667926787642  0.0830023244945814  0.4178817840076487
  0.6628190739412317  0.3324420363305678  0.1663639612986264
  0.7472490711504020  0.6660413465253824  0.4159925987281253
  0.9145568982625516  0.4152444045684827  0.1655973599920361
  0.1643505169712486  0.2492663210226809  0.2515266019712769
  0.7470581087309019  0.3328241217527111  0.2496112274572919
  0.9132864327233454  0.6660251019805553  0.4166180046209353
  0.8307772472392443  0.0009313078225339  0.8324516764425962
  0.9132674879813063  0.4984215219472040  0.2504536811454446
  0.0812020264718407  0.6680738625703444  0.0833369082606318
  0.7461200669925406  0.4156603968624822  0.3323983598593400
  0.9966138549772610  0.6660711560937936  0.3336202131898640
  0.7470543485044264  0.4151946849638049  0.1665710440514996
  0.5818711776793073  0.8325594670699020  0.5836214114167851
  0.0801359244701530  0.9998976752000710  0.5832012149197809
  0.7470240563694771  0.7501311075974368  0.3335798509754548
  0.7478781177205235  0.9179409233135969  0.8318117215228803
  0.0812080997990117  0.1666211759343627  0.2502647554300940
  0.7456916741332315  0.1663797029780812  0.2487253213931120
  0.1648802217940005  0.3318954422332372  0.1680000558062205
  0.6652377624858540  0.7491721801071710  0.5841121254309489
  0.7473915339735611  0.6658510624542231  0.5828931724960511
  0.8302950565097751  0.6651225778209501  0.4994282306753849
  0.5808624040496174  0.5817635715094284  0.6669663935435581
  0.0805715792636670  0.2492037043542825  0.1667753066876085
  0.6645745468446660  0.8346065549249974  0.0003781246734549
  0.8311350936989939  0.7496790203680008  0.7489303417030485
  0.1637661468678425  0.4999087459025728  0.9989248969610001
  0.0804394815218515  0.4164256688458756  0.0002580408574134
  0.8305702186735192  0.6684153235122383  0.9997206017138647
  0.6642207698907872  0.6660027000834537  0.8321023818029309
  0.0810612159203473  0.2495526188444211  0.9990916456473727
  0.7468224921229947  0.8348485640323720  0.0835042458948849
  0.9967359471842064  0.8328664098566043  0.8326287622540455
  0.7475069856194586  0.7504993320648942  0.8314507307391504
  0.0807297435019683  0.0837960387292758  0.8325493161668954
  0.9140322161408231  0.2499445625691142  0.8325876855803301
  0.8308422061463419  0.1666838102887822  0.6661921158341714
  0.5800086658807679  0.3345075566788073  0.4156626511355353
  0.2469181330384441  0.2503622953359394  0.6669753371932192
  0.2468337853945656  0.0001145146426621  0.5832939781901892
  0.1640134449240845  0.6671198356860210  0.8333967897608894
  0.2459973214382132  0.5833940685036686  0.8341287248414966
  0.2466630087829760  0.7495717197260138  0.8331917133855304
  0.0805331870776875  0.1669611269174812  0.5834693551387460
  0.3308914251629192  0.0828339513062124  0.2511371648254377
  0.9138122408297340  0.9169630248278725  0.9999891401490576
  0.1628023086445667  0.8327132235793471  0.6656443558109738
  0.0806797048096137  0.7495225165884598  0.8327784387135786
  0.2465485921352446  0.6670311573362832  0.9165941977279615
  0.4976300853163996  0.6661597314615391  0.8325134869117231
  0.3297406408903301  0.5835482810729006  0.7502587709013767
  0.5797594787316894  0.4166660109719276  0.3318324266905481
  0.6633820377766492  0.4993543878926019  0.1670267795351182
  0.4968683128316343  0.4172033150895396  0.4154499164829115
  0.9976028856131649  0.0003837756231563  0.8330452927238506
  0.0815308995105070  0.8339242211492564  0.0824819822217433
  0.8309652730029995  0.7496421418536086  0.2512535814628796
  0.9135658976668400  0.2503835786955157  0.4998247220616762
  0.8294092271553928  0.3346148687299146  0.6670695618304051
  0.9978455001083320  0.5823885724720025  0.2512122359717173
  0.9144666330923397  0.0006727864789492  0.9171671597466989
  0.8303664775610061  0.5833721567661496  0.4154893564668006
  0.7474798167685643  0.5820720597961351  0.6668343404983434
  0.9135388615470864  0.4985968368270485  0.5831568756171560
  0.9972351368471103  0.4989751574631306  0.4995969896931438
  0.9970341322802756  0.0838473224984404  0.9159957862533495
  0.8307194386676960  0.4997004705848134  0.6670320799057131
  0.2464242260062759  0.9154661726389333  0.8321758843378240
  0.0801511928090098  0.8328189019444667  0.7494538893255734
  0.9970555552904309  0.0000348650991867  0.6662585333330522
  0.8311410719115666  0.9178480708172306  0.7489714400514316
  0.8308290784870654  0.4144774085717776  0.9160112379485860
  0.6647921081389893  0.9161668294928437  0.5833025872548131
  0.9970920584961318  0.4160312636122611  0.4165037947817848
  0.9139933385507628  0.1662619618379797  0.2490457624270305
  0.4970220034961391  0.3338018048726091  0.8329905925648744
  0.1647906113580353  0.5009772069324658  0.1682719849295533
  0.1649497179509233  0.3324819803996333  0.4994219779628044
  0.3308416732893358  0.5826526143784339  0.5822840779042197
  0.1645956100694040  0.2500244285676144  0.4163450621298219
  0.4984078974131814  0.9988544430781060  0.3352974443114579
  0.2482192309319466  0.1659071607100282  0.4173451971075847
  0.4143237755215239  0.0000732470372481  0.5827365197637189
  0.0797681029928166  0.0007188759567842  0.9173648954932495
  0.2473501755486392  0.2505862303479872  0.8333592688979545
  0.3318359663402277  0.1657366522739364  0.3338515569157440
  0.2475270635784514  0.4999243385993339  0.9167787518570304
  0.2471558393917616  0.5840127922603436  0.9989094908112691