Cr  H Ni 
 1.0000000000000000
    21.1200000000000010    0.0000000000000000    0.0000000000000000
     0.0000000000000000   21.1200000000000010    0.0000000000000000
     0.0000000000000000    0.0000000000000000   21.1200000000000010
 Cr  H   Ni 
 259   9 605
Direct
  0.9968030917954259  0.9182653221687059  0.9153026730828832
  0.4976049401234544  0.4162647503776468  0.9181525326101032
  0.4975773456650091  0.1664544396247663  0.8332339300145567
  0.5830564263761917  0.8343259263673662  0.9172533946048382
  0.5803595344823079  0.1674439468586688  0.4157362410321185
  0.5807205896313932  0.0835740961261599  0.5002787028331044
  0.6630194751267551  0.0835850304817147  0.4173295990357804
  0.3322628076012490  0.0825545388965508  0.4173714492088848
  0.3312832123999296  0.8343169688757940  0.1664748675494928
  0.3300774549968766  0.9985076499799027  0.8328184577252674
  0.6619234798663682  0.2507258771030506  0.4170935539530006
  0.4133853948277371  0.4983238631084499  0.5833022580071697
  0.6625635613315926  0.3336055472062210  0.6665890458186901
  0.3296844878124859  0.2489079285459990  0.2495728936189415
  0.4124283730583654  0.2503745566694323  0.9995971814582336
  0.4989503966136579  0.9171145599322571  0.9161116503108687
  0.4128710612110613  0.6676215402904816  0.0831437418293788
  0.3307824240311835  0.9173850286639135  0.9162358569322727
  0.4139618566566542  0.8303474775518529  0.7495988671082854
  0.4127774639599883  0.9151589497006675  0.4995382951033808
  0.2473410372439809  0.8330985901911984  0.5817416566114805
  0.4136144687780651  0.8329309514553012  0.4174024007214935
  0.1653943640785293  0.1662437603786620  0.1669930680601832
  0.1641418052390777  0.7493616094645634  0.0843375563265286
  0.8310240068621627  0.8338754105416674  0.8326575511378952
  0.4989729712393893  0.7499229045014378  0.9180371434584935
  0.7481389453094375  0.8336687688161923  0.7485631074593367
  0.5808008219712507  0.4998683124287416  0.4141021461158815
  0.8305108861630562  0.9171221694579832  0.5827798899902147
  0.5810034395441200  0.9165545221829503  0.3328525525466189
  0.4984801496975682  0.5832785275605151  0.5833008841437479
  0.5802888599869205  0.1658153781574222  0.2498449565583654
  0.4968374844694924  0.3335948191930851  0.4994009280478987
  0.4976526136496137  0.4163674591605725  0.7516662784313329
  0.2456229926960431  0.4979618951423296  0.4155026042273324
  0.4963312972247015  0.4166346277685050  0.2478258469548274
  0.4987040697407045  0.9161778951182691  0.5830816572255778
  0.3304279010546619  0.6657534170745989  0.3314402201261195
  0.9129696362630031  0.4977844421684145  0.9201260032369656
  0.8299014306033949  0.5835198639771925  0.0844659796920655
  0.2518122385401216  0.8329774252752770  0.4180228812975935
  0.5799652915753786  0.4991438778143901  0.9186220214415681
  0.4131775009037342  0.4169569381565881  0.1673149515006884
  0.4983006012108581  0.5836650915108552  0.4165475970695258
  0.5787256136675268  0.7512018844527886  0.1655251617738473
  0.4960146546896994  0.3345002172833803  0.3310582788011078
  0.4989473124831670  0.8339852499571480  0.9979517847500293
  0.0807944928225524  0.6664444412067096  0.5835674727035958
  0.3306963280187820  0.8334001179930677  0.3345298048955141
  0.2471948748725439  0.5833156421368597  0.6663790030916787
  0.1647694317612693  0.6674092148306375  0.8330150393361713
  0.5789806507910120  0.0832942805676151  0.9995231869912449
  0.3324696078190879  0.7496134921681068  0.7460620652012788
  0.5806754797949584  0.7494316039663265  0.0003022719057552
  0.2502491532638882  0.8322552500489707  0.7483936167335785
  0.4974994687586415  0.5831781277076644  0.7495190686211196
  0.4127994212632168  0.1659027863188043  0.0820816049191536
  0.4974693509444690  0.5013630114739485  0.0019850310683645
  0.3305984970039902  0.0007821285208941  0.1664520422025948
  0.3299806635893097  0.3321545285930615  0.0011978960509877
  0.3309790127780823  0.8326084188325328  0.5008154225016070
  0.6622082794215188  0.0826035526396558  0.5832741726294484
  0.7480449045120534  0.4996550418378805  0.0838679330194663
  0.8296127950370619  0.5008480941658259  0.0009422582735615
  0.9975630481885970  0.3340265648989026  0.8328245824013275
  0.2474410559835720  0.3339476967196538  0.5839899645017422
  0.3312679029365799  0.4987979133290853  0.5029227698447905
  0.9116428842341092  0.5839480953918988  0.3318775693730973
  0.2474468359504917  0.5855703375815381  0.1650510839181117
  0.2485257431692978  0.5861548432258100  0.3306702269481506
  0.4135020740931379  0.2514273725404879  0.4992015779643822
  0.4985696228207607  0.0837544246658441  0.5824009388077662
  0.3311106695270281  0.6643665802178695  0.8334490145189882
  0.4136179278366220  0.6678709721594613  0.7505023620748590
  0.3312877830886338  0.5005424398503560  0.8330026406208110
  0.3306852643824525  0.3343835563480749  0.8324688846682178
  0.3303024972118932  0.2493378662319236  0.4150511398810581
  0.3316624720097778  0.6661265673584301  0.5014911794683169
  0.9131957478407776  0.0011947975014101  0.4165175477724324
  0.1627214589117630  0.5834305655374206  0.7520863357736792
  0.6635332285773565  0.1657026411392070  0.8329674298243964
  0.8299835134088600  0.9185461579684098  0.0839742625441895
  0.4145520591761908  0.9997726476132635  0.7493332256893784
  0.7473187321986910  0.0006965390271204  0.9188137310354209
  0.5818605488161791  0.2506855919651511  0.4980689266016401
  0.5800058676582923  0.0011438049489361  0.7479503584306315
  0.3307539157797574  0.5002663492856424  0.0010638787380259
  0.5802001977057332  0.9167813142918049  0.5017761948556542
  0.5819058474188928  0.2524013573253867  0.6672491822109059
  0.7474667588749168  0.8335053826121035  0.2495895819294749
  0.4967241710944507  0.8337959368873165  0.1661652837820669
  0.6636505429119338  0.4154158348608215  0.2480051182457893
  0.2490005718067575  0.3325706691107740  0.4148822100584843
  0.4153354204432936  0.1649432129247751  0.2506133298380724
  0.4118420976850333  0.3307821779591232  0.0818049595728532
  0.0808857321780174  0.6677097621192503  0.9169642347813655
  0.8300175077672616  0.1659725467792042  0.3328695101611596
  0.2480602421219852  0.9994099452392109  0.7502203075935505
  0.8312089656483878  0.2512807174286597  0.5841554768939582
  0.3295107983163959  0.4167030371968506  0.2476856109976293
  0.8310545831256894  0.1674667964231709  0.1670719730439249
  0.1622446753968254  0.9988852257633962  0.8330268069954360
  0.0795841410995424  0.9185830188678870  0.8340623732415402
  0.3309210456735325  0.4167640461860916  0.5835433763129551
  0.3295498976528299  0.0007614529331861  0.9987673668415072
  0.1656805821749916  0.4157786840012914  0.7490509490669950
  0.2480839861865430  0.9162285426698956  0.4999703143092333
  0.4136855192868649  0.0836230700792692  0.4992767116133154
  0.0795301735461389  0.9164395528103066  0.6662814352076161
  0.0805382880386918  0.5824965073129079  0.3329251421389886
  0.1616929892847088  0.9184829540108637  0.9139401567708814
  0.2481694917743050  0.6671988102378354  0.0833305673528257
  0.3314872324084632  0.7505595691828583  0.9191686663053844
  0.6647388593173429  0.8340260343947949  0.6687185329437280
  0.1644483866483305  0.9172814187353387  0.2512133220463198
  0.8300867621054130  0.1665822907380451  0.8328243103267957
  0.2471147902693864  0.0811961177380695  0.9986722503695857
  0.8295414194251453  0.4169561390952605  0.7517637734067334
  0.1625592930613657  0.7458880851416495  0.9158428423015410
  0.7481575234648903  0.4179023793942166  0.5008802105763872
  0.6637079323495215  0.6654019079130631  0.4986117670616837
  0.9976002429752351  0.4168596397448516  0.7499274388273571
  0.7472181044262659  0.5837338296163389  0.3283729887202589
  0.9154616581453126  0.3317000081573750  0.0831926807807935
  0.4992192298283596  0.6669070034184783  0.5001353796400114
  0.9123002052581314  0.2514628248736562  0.6651844101802250
  0.8335415589559424  0.7488692749902375  0.5829185932812367
  0.2472052169841110  0.4183680356226561  0.6670465045900357
  0.1640909403201130  0.9178361124590673  0.0839043823729867
  0.4128042518810919  0.9171088743849695  0.1658826173969675
  0.9963009375650281  0.0004200639988613  0.4957255768263664
  0.2485887838936689  0.0813629418198190  0.1668799769586852
  0.7462731520603392  0.6695765817919185  0.9178995279087953
  0.4163013538334572  0.4168869526572103  0.3300866715109810
  0.9955839382437681  0.8334283807373605  0.6672592689692778
  0.5794272602808658  0.4998883533622104  0.5831927439912011
  0.9959523717260137  0.9172508734758493  0.0840725784993583
  0.4958370763270433  0.9979187582049357  0.1663662705507689
  0.9140654086586688  0.6668912645066667  0.9183985458729161
  0.6638273509658081  0.5020155313050065  0.0013443707347927
  0.9134902659246498  0.6658954554296543  0.7494279126339124
  0.6651065808728255  0.6653390704878507  0.6691416562250446
  0.8305456606975038  0.7502209328517603  0.4160403892874195
  0.6634112048493612  0.4176829042916242  0.4163367658169975
  0.9140001025771149  0.7522554239717985  0.3329238928373270
  0.4971151928790509  0.5847267635371071  0.2485738858974691
  0.5790979727314309  0.6687223250942257  0.0851535861269541
  0.6612179197561830  0.1664632832179595  0.1670097385674477
  0.9982650174736946  0.9984721274621676  0.1658170235611461
  0.7479515908076133  0.0834938223322310  0.9994677619563682
  0.9138447210870426  0.8347739313899437  0.7498094442596194
  0.9141799533671071  0.3334898696718870  0.5824233264265350
  0.9154815425880291  0.6644350003545024  0.5811675199772760
  0.5796867710207251  0.7498447839797627  0.3322947772490294
  0.7458816377232186  0.5835229157251394  0.4994818127618730
  0.7476023249029481  0.7503507363670652  0.1671096354783254
  0.7483163414842171  0.6680187602973844  0.2502875054707712
  0.5816776849973738  0.9993177274594497  0.5827236601072313
  0.9139808194350743  0.0015223133807295  0.7488862416756012
  0.8301052245848549  0.0839786833428545  0.2504142432887595
  0.7456248535038016  0.6657794580766571  0.7496842828888881
  0.8293407014953147  0.4169015738342180  0.5829235848909269
  0.0792479283121682  0.6663497298144636  0.2498913400595132
  0.9965061608090885  0.5000849344264455  0.0000326978038238
  0.8305516230459634  0.0002168336270394  0.1665765738115627
  0.9155188162453904  0.0846925821456803  0.9997656415901848
  0.3300344240253356  0.8339377363634685  0.9974183258741429
  0.4182982933227857  0.7512293770098976  0.8336331665464906
  0.8317497778075846  0.4137728807265603  0.2486606505068437
  0.7471102401124434  0.4162146901795076  0.9989948954275967
  0.5797952948758708  0.3329002661980563  0.0822605947740465
  0.7473990441558293  0.3313318266562290  0.0817642683963988
  0.6645867463749117  0.9183629247700119  0.0846822558009964
  0.8290997834990583  0.1684806003074893  0.5007748287230896
  0.4973188803739785  0.1670160812120640  0.3324758271368323
  0.7498275483373893  0.9161355725400232  0.5013123196240667
  0.7484323500580373  0.0850181780407553  0.3325585349720633
  0.6629505086104232  0.0820388048177201  0.2486619031960024
  0.6633480009308139  0.7509780901403194  0.9151961603383858
  0.5811133611361514  0.4999263752240167  0.0810835589583685
  0.7478906256413441  0.7501443486875914  0.4977361924037538
  0.5806702698750850  0.7504630068766174  0.8342776391427912
  0.6644484985405517  0.6667082568242237  0.3315179872004816
  0.7477173757797591  0.5834025404600985  0.1681315554888224
  0.7470761399836252  0.7500092246076560  0.9985310129925933
  0.7475334434446559  0.9184665366520357  0.9988532267284229
  0.7461386194779706  0.4982968068626976  0.9199126883597083
  0.7472099987474405  0.4982165061322930  0.7504453127422697
  0.0807667368070772  0.2489778715892907  0.3343262395676622
  0.5824989472197296  0.7474550604039504  0.5001896310703273
  0.4143124066020127  0.2511183857166824  0.6673973574409943
  0.7472853064413812  0.4977813235359733  0.5830277087801249
  0.9122229145532349  0.0838130644092590  0.6672947368447658
  0.2484827187798541  0.2489822762353938  0.3353569707154855
  0.1667121419061294  0.4147304804739665  0.5833673215432487
  0.9975004228975123  0.8343059303493918  0.1664340924792248
  0.9144006125134380  0.4165297303195770  0.9985745874357427
  0.3299916917172695  0.0008821921586265  0.3344874106797644
  0.2471523781040757  0.1670935664603505  0.7510373643278121
  0.8300830937855973  0.0003745363907961  0.3327762854348747
  0.1644866176805423  0.2488855362618920  0.9163879365768584
  0.9979123388658037  0.1676901678123415  0.5002809471396287
  0.0828600724641490  0.3331800513648269  0.0830950835856992
  0.0819203606840765  0.6638677825245310  0.7506203644190383
  0.0795991982333052  0.5836881160931480  0.1651842337865000
  0.9973729207809005  0.4988151821757746  0.8334798240223967
  0.9994810348962854  0.1671750107603236  0.1664989234947604
  0.5818952054625083  0.4155257392900131  0.0003704434797441
  0.6626909905585279  0.9998798005715799  0.1653332228346175
  0.6632151401519357  0.3331630263304513  0.8333980727151139
  0.9152821344716390  0.5832754813325945  0.5015207386034026
  0.8302646433192030  0.3328867413317603  0.8330147073050310
  0.7464502304487004  0.2492141803518556  0.3323645659801422
  0.0799079270865054  0.4167357296544397  0.3357921836941709
  0.7473630094318805  0.2496820670749777  0.0008155923311813
  0.0760715808997226  0.8358856392479389  0.4161594480327383
  0.5790578762926166  0.2500972821881387  0.0004701780470862
  0.9974604677337479  0.4161448648917583  0.4167949090159856
  0.6653363456073037  0.9184982455611244  0.9169810858500537
  0.9980838032102678  0.5000605356838802  0.1668854558142138
  0.7466247540192468  0.1683547214507413  0.7498880361530162
  0.9132921325635577  0.4155228356210532  0.4997981132984616
  0.7475418924635142  0.0013374612895656  0.7504921167698350
  0.8320040257960249  0.5824817238774218  0.2478218861171122
  0.5807076773449230  0.0827186405072903  0.6656066467747078
  0.9152772816388295  0.4138221268702388  0.1649460921329127
  0.4139979596437510  0.0829789399525117  0.6672901139479741
  0.1639684723658456  0.1658954366519554  0.8328716872686290
  0.0805718607686044  0.2498865197157819  0.6673437666817253
  0.9140048268598270  0.3332914936351036  0.4169187011116904
  0.1642701790754713  0.7502556379520841  0.2506022138429337
  0.1623137704517526  0.5848798024011562  0.9158837805451946
  0.9954656755071878  0.6644088004345692  0.4984949923024920
  0.1646221880215875  0.4163809342794220  0.9182920740531697
  0.9970235836214137  0.1672499787832146  0.8329415080184216
  0.9143830891001561  0.7499984108645578  0.9997123293740124
  0.2474482100110237  0.3345541719542015  0.7503303842345636
  0.0796247039719797  0.0842841013375476  0.9999381570927407
  0.1622243704589867  0.7496261929694165  0.5820391931045646
  0.0802404123466993  0.4972659186526417  0.7507298966787116
  0.0801400203119458  0.4990232095157546  0.4153134294512168
  0.1641804641579887  0.0833269549466951  0.5837079158633861
  0.9975214288647757  0.4982813871067749  0.6683327079951943
  0.0816235033988670  0.0841844988683757  0.6663140307674726
  0.1657223216515994  0.1665443588596411  0.5011595778468263
  0.0796354180401786  0.1679578196790900  0.7498322421309446
  0.3303695386289975  0.1666584635582361  0.8310876523501334
  0.0797099168230784  0.0827626124559537  0.3342002468447414
  0.2484894279122759  0.2497675965738319  0.9985703011834808
  0.0797951919061720  0.0009775005360811  0.4167177388641303
  0.0815187200670806  0.4157206333998156  0.1660200115185544
  0.9970438872602546  0.4154854996623877  0.5816672125609633
  0.2461381504402126  0.2467964386437241  0.1676046740494984
  0.9964763394404852  0.7499104121510044  0.0841583177702480
  0.9135584647944480  0.3340091517426573  0.2503128437348967
  0.9970417320599145  0.8335338432914020  0.4992249059127536
  0.2468588790730531  0.1659699533729264  0.5817729424180527
  0.1633674509170683  0.4162556305753947  0.0841473163320106
  0.2477937078959700  0.4166914945161714  0.1663831506651615
  0.0777495401039933  0.8291474633873503  0.8344417885656001
  0.3345032002508674  0.5003031500682588  0.4129672666719135
  0.1640372132227268  0.8321641246262086  0.4159449579903200
  0.1596797849981042  0.8318371651307620  0.7489134496185011
  0.3317511633130025  0.7506188178503235  0.8319617248108261
  0.7449812474741359  0.7492314210799471  0.5864326302621479
  0.2465115068807677  0.5861810597083602  0.4199334126934046
  0.0800943093466592  0.7455516925684006  0.4154524428042671
  0.9958735282647153  0.0006748568097353  0.5862319876810539
  0.8302064691072145  0.5839596411804956  0.9171782757874826
  0.8312327638345254  0.8329710147758247  0.4996844628139557
  0.7468447279837224  0.3329047389752698  0.7509462628198939
  0.7465245232950837  0.4166344365162658  0.6673796350867429
  0.7467684553321927  0.2494996776909050  0.8333331453651387
  0.1626837826249126  0.5828260608222070  0.4158889677089001
  0.0810550660958030  0.0003539821333500  0.2494979722745935
  0.0810298305637363  0.7504784438796780  0.1666990410561306
  0.4153583241772793  0.6656329677660827  0.5829086638995981
  0.6639263808910426  0.4162222467428475  0.7509639321606640
  0.6645285379357730  0.5842643759800410  0.9170753608330525
  0.6632371939152221  0.4149009187803942  0.9171058614224691
  0.9980234556598545  0.4156410661897704  0.9160503103638995
  0.8314692647891364  0.4149951931896266  0.0828660628487751
  0.8304183758777901  0.8338994197859483  0.3333121637883077
  0.8302894846151856  0.4165514017903572  0.4169719877459540
  0.7463883171797062  0.4161630037225417  0.8341053734868727
  0.7466425205583527  0.2513635826455244  0.6671036931989177
  0.0818068270959078  0.4156542526686154  0.8347810251301194
  0.5806640101966956  0.2494266677875464  0.8331696085333848
  0.8295902715089455  0.3332748742818257  0.3336702768979236
  0.4973368146542173  0.1672479478072094  0.6659491417287862
  0.6634956845219945  0.3337656919179472  0.3328033345563285
  0.5806149379184948  0.4168186753963131  0.8341837590527806
  0.0805330815503447  0.5835904853567957  0.9995167327970306
  0.5799334863463750  0.4162742291418635  0.1650765393812080
  0.0821745091853730  0.4148541936238896  0.6660628952847828
  0.9138859821822550  0.8334276554413486  0.4166032878308543
  0.9139269350441943  0.9177580755552620  0.1668622938436057
  0.6643255142908805  0.4995678331077576  0.3308060330313017
  0.6637154919779223  0.2493754317469382  0.9168997975663878
  0.6644568103921907  0.5849474040616794  0.0844556882268725
  0.7462170330241890  0.3333906830970788  0.4161987504460185
  0.7469589683801530  0.1668891801103638  0.9161862081399591
  0.6633849932800967  0.3350917156237972  0.4997187872055418
  0.9974204640882647  0.5822987453060849  0.7504014716924067
  0.5813902452083348  0.6660448587019062  0.4152945855766803
  0.6646454061412665  0.5821695012270771  0.7508321185413577
  0.3307131565833528  0.9170015686380314  0.2503338001816968
  0.4978414756423913  0.5827609743323130  0.9176084980788241
  0.4978893684000331  0.5000279855423349  0.4998866527167193
  0.5801081138644891  0.9990089375657557  0.2497433915351565
  0.1645022635667897  0.3332133435280533  0.3330911376306036
  0.3308807117332189  0.5005071885394212  0.6670105428802192
  0.9981954188380296  0.5818119017445231  0.5846644731968775
  0.4134243265644118  0.2482065747829812  0.1659292984194859
  0.4975743167547603  0.3335264956699778  0.6666430741903602
  0.5803495694589618  0.1673623283886622  0.7495594820849800
  0.4971853132034715  0.2500424057847831  0.7498554828234737
  0.4971007636243567  0.0839114559945502  0.7489084881570919
  0.4965278537442221  0.2495879431443560  0.9165369809075622
  0.5803103940741178  0.1670233468652961  0.9166932274553141
  0.9951686636021508  0.7491411563245068  0.4160003726337169
  0.6641647499605512  0.4997971601692991  0.8349857480161652
  0.4972874973126420  0.4997222072671946  0.6669646034772603
  0.0818219154938533  0.3328307994750103  0.2506754778617135
  0.7461894892423505  0.2506890753592391  0.4993179931618093
  0.6636306597826335  0.5836488208377214  0.2477830864429583
  0.6634168836303038  0.2503620448753542  0.7508176872542983
  0.8301147764154562  0.8334648391920675  0.1660862151713055
  0.6628877553158831  0.0837899079544467  0.0838741157617609
  0.7470949868067074  0.0839272708291213  0.8327830058383461
  0.7467535398285058  0.5001650108277745  0.4156233452258046
  0.0809056266937977  0.3331836425197995  0.5831000334040577
  0.9976440414858606  0.3340683073486666  0.6665598203998077
  0.7468779780919034  0.3337859277177472  0.5827403246653940
  0.9975061003626833  0.0838753809106650  0.2497909889599169
  0.8298780994244435  0.8338714684419100  0.9994181959125571
  0.9965193649402496  0.2504486383492897  0.7500401716844457
  0.7464500534441805  0.9995657452388866  0.2488693831971173
  0.8307766966600711  0.9178739095243706  0.2493485205845887
  0.8310060321759215  0.6672784126230029  0.3326904602209614
  0.6640978304103160  0.0000511077821842  0.3337867466224524
  0.4130486521109767  0.4997491321490556  0.0834203081046286
  0.4148908123001759  0.1669483435769742  0.4163615560585344
  0.0803143875903280  0.4994536986701027  0.9171479446233066
  0.5820960984814352  0.7493703510684201  0.6675500036208352
  0.5818781004447369  0.9171409528980183  0.8325985842719081
  0.5790759380528560  0.9169715601494919  0.1666346397652438
  0.9145574272076200  0.7515803035770928  0.1659810377678018
  0.4980301888168161  0.9155396359269975  0.4176037993131053
  0.5810619412097829  0.0827737303257001  0.3329603257070810
  0.5796698311237914  0.0000116371429191  0.0832486376947186
  0.6638894977383495  0.9159833183013386  0.4164897815453286
  0.9979330459665423  0.0838519521896693  0.0841603333235854
  0.4984339328828222  0.8326644286440931  0.4997490455615984
  0.5810650265621266  0.6679524398544199  0.9167930726719774
  0.5811191554107756  0.8325453283888054  0.4170047131347175
  0.5819866567674840  0.8331462734514268  0.7501024232759085
  0.6645081856033453  0.8333160308043728  0.4996672175126514
  0.9972037525856871  0.8334198793942206  0.0006807258473767
  0.8306985824126313  0.7505191332695363  0.0822993349419645
  0.4137381091539792  0.8339818183947154  0.2501650614569097
  0.5802477620859948  0.8340996925397600  0.2496292639321623
  0.5811616952494351  0.5828763529680870  0.4995292227535537
  0.4975628782111702  0.4995385293244232  0.8340926843191807
  0.1632233020468354  0.6670231944674455  0.0007588228391860
  0.6640085062244805  0.6668955205956677  0.0015440749532634
  0.4982082995671474  0.6661414636635971  0.3325155518439363
  0.9133466387698731  0.7487287717439544  0.8329651581027859
  0.4958803654204715  0.7513577557729972  0.0825973319149417
  0.0788842455879584  0.7495829012587540  0.5005541826766262
  0.5801854507885611  0.4176277707211948  0.4991060621053628
  0.4966893928247513  0.6680697080072928  0.1661210421981303
  0.5804462789953749  0.6681233268645627  0.2491346140141833
  0.4967490788557214  0.7511513546646198  0.2495902422515151
  0.5804268203716186  0.4168230999772928  0.6676817777248942
  0.7480328882308710  0.4993181733384722  0.2485950382196115
  0.6637870338780614  0.4993092923555090  0.6668981299126546
  0.9973294749381326  0.9177746941446809  0.2491898063430957
  0.0811446298362137  0.9163141026401844  0.1665797604009125
  0.6647560076299805  0.9986533993799266  0.4991368549159720
  0.9957298875736762  0.6655746135593500  0.3328723896384973
  0.6631710898934557  0.1665767555549058  0.3325542508934133
  0.6650645530775989  0.9989573685209787  0.6669187359948684
  0.5795700699827275  0.2498734457909854  0.1663426101319264
  0.8300215543847556  0.0840471765577552  0.7503260110110965
  0.7468029769493524  0.2494050110534564  0.1661446822970993
  0.9967239925042823  0.6655696897641172  0.6665738315176235
  0.4975280054979336  0.0832129556699424  0.4174975727499506
  0.9133835794077749  0.8331847838929194  0.5825949801874284
  0.7468965178630613  0.1680414454172091  0.5832773975173258
  0.6630758252625516  0.2493535076721139  0.2489795697993330
  0.9974742411354534  0.2500223727137106  0.9157273408489299
  0.9960372744267525  0.5816541591758871  0.4151450161796963
  0.0798287485319321  0.5823067948694913  0.5002857433246787
  0.7475599326436105  0.0002435991874589  0.4163743017909936
  0.6643940904422220  0.0011313348209995  0.8328700388260962
  0.0807786947066527  0.5825423784823608  0.6675697118032434
  0.9962219939385254  0.4995727365562131  0.3318148396803489
  0.9137980592757966  0.4995431088800065  0.4159281184278676
  0.0804621529681526  0.6669657040990136  0.0839374495500279
  0.9138782232310736  0.4977715633873676  0.2495017776802207
  0.5820209116389502  0.8327573154981071  0.5830558287645285
  0.7459969980389006  0.4157962999372554  0.3319459023851858
  0.7474847080903136  0.7503435647187069  0.3324289546604987
  0.7475565184598303  0.4154182311104854  0.1658758260964972
  0.0815098747759073  0.1660011599614843  0.2502750188143800
  0.0807514114934741  0.0002597775748476  0.5829739251690970
  0.6636405599410760  0.3325187908009016  0.1655279193486472
  0.7480248544188407  0.9180412856376010  0.8326959147197238
  0.8304448541716885  0.3316435625195955  0.1652240909205463
  0.7473971119390859  0.6660859618173979  0.4150835105050409
  0.9986982591555603  0.3329434338668437  0.1666282617129077
  0.1644463432212799  0.2487455081682632  0.2513393970510622
  0.7471284157931912  0.3328557261994177  0.2495739992139316
  0.9127007039240449  0.6658472281786011  0.4159669080574802
  0.8304587420580327  0.0007359060969302  0.8332031658041467
  0.3308023439063936  0.3333961579818885  0.6675193851650278
  0.9979189988128042  0.1664004475096602  0.9997991061807765
  0.0806919185174047  0.1665714335001358  0.9155418197234281
  0.9983183549884906  0.4159842785539055  0.0831259949975976
  0.8304830355691700  0.4988000771505410  0.3325335968916449
  0.9963694579587862  0.6655304282808634  0.8332780522535529
  0.7484382178001999  0.9170836325823138  0.6668472733480828
  0.6641471558500667  0.8332854214390306  0.1660690877240065
  0.4978265972396570  0.9167897673723698  0.7492951612854059
  0.3302441059002741  0.9174744719691317  0.0821787611688359
  0.3288193565958587  0.2473053951022843  0.0843125967662940
  0.2469275797294438  0.9994164898237128  0.0826310785511850
  0.4965982941490805  0.1667679209220776  0.9993941999839496
  0.3299163116963185  0.1650866306071369  0.1667861668280508
  0.4137066204852499  0.2501766076991587  0.3322509639458591
  0.4965431257902481  0.2495517809965178  0.2490547505603892
  0.4136612659365094  0.0825424452229008  0.8319062903948431
  0.4960611314772481  0.0833785347369607  0.0827823094500499
  0.4971152245022809  0.2511249863691051  0.4159765780528666
  0.1645224564989105  0.1661532426796143  0.9993381772425559
  0.9136957321933475  0.7496408349070808  0.4994999759258940
  0.8305360328281184  0.9168711479896018  0.4163740406608893
  0.9139360761749897  0.5824744227609128  0.6675616724225858
  0.8306948074155329  0.0843662154332702  0.9166967304820286
  0.8297009670947306  0.0010806073397069  0.6668310875035920
  0.9974136636567423  0.0004521984269191  0.0005027273798032
  0.8306789272706684  0.1661788153172327  0.9999928769218008
  0.9972973225112023  0.0855110905265038  0.5834334653680827
  0.9146017673733866  0.0836700407409736  0.1667325541501702
  0.7484016404701009  0.7494315423960867  0.6693071664639222
  0.9984144036605908  0.1674668329798187  0.3331730196666906
  0.8307763810288797  0.2494242189404208  0.2495861547587344
  0.9968513950084915  0.2496600345576846  0.5839484598911016
  0.8308607856630206  0.6650396780032030  0.6670050310716994
  0.9134649696539423  0.0849708926501285  0.4995473610856542
  0.9983397579019792  0.4157223917615248  0.2499221523090231
  0.8293928256000520  0.3325224595983024  0.4991842278414407
  0.9985852594630866  0.2498182558604870  0.2498670012722704
  0.9143690490679637  0.4981611360620519  0.7511114296634419
  0.2469351534388974  0.6665103087841009  0.9175143919077164
  0.2478120095057718  0.0000949849102706  0.4171236744540406
  0.6633561854393741  0.9165343517356787  0.2489594326048484
  0.4132878834586021  0.1665702297529232  0.9155663584819779
  0.4146969530864732  0.9991672380699356  0.4172213625137584
  0.3318926511717306  0.9998159058060668  0.5007983863283323
  0.1638846677201061  0.1660952391081521  0.3340711375049374
  0.4132992705063841  0.2497501659955504  0.8330077283092407
  0.5803363986488261  0.3344140986940449  0.4153084503523865
  0.2476316460650834  0.2503859230331074  0.6670391996431916
  0.2475343433743237  0.9999718527964765  0.5829479579111535
  0.1639820335495691  0.7477271466428463  0.7487735065957976
  0.2470355803318445  0.5828319510982971  0.8342461401782310
  0.2471879808953872  0.7501789950048784  0.8339781341580988
  0.0809312297630290  0.1669015793336706  0.5839530153495608
  0.3314300238948835  0.0824333068200008  0.2503442789606072
  0.9138270603207027  0.9173171999455557  0.0007482784045414
  0.1631542814218395  0.8330357042176920  0.6646460553991403
  0.0781457147792030  0.7469221380037177  0.8320836530196059
  0.5805645317364985  0.5825967787202310  0.8333431040665278
  0.9150107848789215  0.2500390254333946  0.0001480684534336
  0.9134139661859034  0.2497655338635565  0.3331239838416453
  0.9972673389808810  0.2493384485054841  0.4162477601838893
  0.9133390311480932  0.1673048201403201  0.4173319795630727
  0.8301873569365819  0.0846372405118149  0.5827995364649882
  0.9984078326298914  0.3319617198245883  0.4992920269591531
  0.8311641233999129  0.0843030215324807  0.0843400291014468
  0.9136888400403678  0.1674583344888591  0.5830879513604553
  0.7467974079957115  0.0837313968897918  0.6668753786143748
  0.9148578743261471  0.1662059013628310  0.0839735135988155
  0.9135156918677294  0.1673150106680567  0.7498413253660288
  0.8304242769422658  0.2501851748650102  0.7503057616784882