Cr  H Ni 
 1.0000000000000000
    21.1200000000000010    0.0000000000000000    0.0000000000000000
     0.0000000000000000   21.1200000000000010    0.0000000000000000
     0.0000000000000000    0.0000000000000000   21.1200000000000010
 Cr  H   Ni 
 259   9 605
Direct
  0.9153860418636864  0.0010260299018068  0.9165219591103136
  0.8300068779833538  0.0835431222090149  0.5837449500678950
  0.5818835818233352  0.1658236889516737  0.2496844124173818
  0.6638671926569424  0.0000019533058574  0.4999281733941947
  0.6641717245532428  0.9996530505725244  0.3325782205012869
  0.5808524270367820  0.9998590599920131  0.2513713754775091
  0.8326161843472316  0.9994140645858075  0.1658973555199031
  0.9155347413791636  0.0835916869037655  0.9980443021429592
  0.4144158578625294  0.8345019909918715  0.0833115198172921
  0.5000400800312139  0.8336092178602761  0.8326768596770086
  0.7470793786228379  0.3348837012287681  0.2490852073430691
  0.7469689764163827  0.4164123836299866  0.9996313532838723
  0.5796079287591763  0.3338781356182235  0.0824527082222914
  0.7481227164341523  0.3331325732225437  0.0813367938630347
  0.6645965326797594  0.9174362940412921  0.0848421268320544
  0.6651129920554547  0.7490178947252566  0.9141910202790088
  0.5800846219377600  0.7504804727786184  0.8332521577389213
  0.6648235429476531  0.6657919064194514  0.3314297838121307
  0.7475822197924846  0.5854293529406058  0.1668855084013598
  0.7501588083665954  0.7502122973483997  0.0004687593159950
  0.7488084625246068  0.8322776633557435  0.0839233740432345
  0.7454224778039443  0.4988689256489062  0.9192048315465368
  0.7477400464192596  0.4995396307788171  0.7492694798270834
  0.5817181771659694  0.7497852569379735  0.6673934426898451
  0.1649817024402721  0.3326050820911305  0.8327430559849117
  0.7482008347816199  0.4999206037218216  0.5841733543377867
  0.1650643596052046  0.4158091428421670  0.0839370609237675
  0.5797947472805401  0.5000895809360620  0.0831792956571135
  0.0826383563740082  0.6667873356601129  0.7511062303945533
  0.7478311187288980  0.5827372424791806  0.6665920049506573
  0.9121015528879284  0.0835133939434842  0.6669363503885815
  0.4148175211178193  0.2499125167556464  0.6664525323963276
  0.0813617786757050  0.2483587519653918  0.3341991694132599
  0.9980215141031992  0.7492399864766167  0.5851522317508635
  0.9985199084417725  0.1667536620481173  0.1661093584607695
  0.9976722235900651  0.9170923388198429  0.0823894722584287
  0.5808917374009074  0.4180663135961645  0.9994433668567135
  0.9157798975622509  0.6655003757128255  0.9162459876446276
  0.6643925960527689  0.3333771502726989  0.8325041901121283
  0.9164551976944612  0.6657137431408068  0.7491160876074043
  0.8305530461345344  0.3338462150333967  0.8340819049850046
  0.8308186304544404  0.7488002338536909  0.4162444338317727
  0.1652668254260107  0.4167091319354241  0.2481548072815690
  0.9164603183896656  0.6652717576583209  0.2505360295054502
  0.0811401128432942  0.8329964440704839  0.4150941990199456
  0.7464636765370288  0.6679989512741822  0.9186396453078198
  0.9970896211535460  0.4192260265509892  0.4155453288173531
  0.9999897621096037  0.4998797854733254  0.1657002154342249
  0.7481394946156558  0.0826670578988752  0.9990892072171844
  0.9151528962370210  0.5006190551577453  0.4162815777042045
  0.9963917283253416  0.3344555345477003  0.5019855524485208
  0.9139324718083617  0.4182172215968609  0.3314076945541595
  0.5805559777367154  0.7516991611365412  0.3328653910311124
  0.9161386317091383  0.4149971861875598  0.1665229027398094
  0.7494544438169553  0.7496996739757642  0.1666459333340946
  0.3303633578007820  0.0002188144205618  0.3351284518295372
  0.6657912946815299  0.0837087350234465  0.5837697768759618
  0.8331575844099319  0.9987422552182869  0.3341607740609696
  0.7505895248017687  0.0832637134728769  0.1669762213817954
  0.9969209513330557  0.1663384003647349  0.5009018020952024
  0.5815059861366458  0.2486674741673699  0.1682710180710151
  0.1664016685556565  0.2470714304995966  0.5824783736730862
  0.0816000798101400  0.6661391502508733  0.0824241773763890
  0.9151508811667921  0.5819886205410990  0.8356279188778580
  0.2488858403856135  0.1674443401480328  0.7509243915749216
  0.6646186001402898  0.9165375864618928  0.9163176154540549
  0.6664941257657687  0.0003353254369374  0.1668447930999674
  0.9982110211558253  0.6672233056260114  0.5014728006410440
  0.1655602288966510  0.4152294048918579  0.9170669871809821
  0.8300049467547322  0.4998767115636150  0.3310010393198472
  0.9154490299203119  0.7486350162940663  0.9986229485302273
  0.1652545694833419  0.2492259987047959  0.7507021085788486
  0.7499926173809516  0.1659627639248797  0.2491096505208151
  0.1662804978315861  0.7509409549213473  0.5843929457194217
  0.9984289620673287  0.4992384221122011  0.8345689711669482
  0.7483420266343880  0.2505806599093460  0.9988595389982415
  0.0813678743003622  0.9198359879416209  0.4999759667412892
  0.0809507765638244  0.4990114957858245  0.5845078134406824
  0.9953814735218059  0.8337912720894524  0.8327166691358419
  0.1637779204138657  0.7547091150495647  0.2488679650422998
  0.9982244955177155  0.6661850042212555  0.6665289632187358
  0.8308501305193362  0.6660182842850986  0.5007949604375480
  0.0794371331536919  0.0010839451375658  0.4171104549113155
  0.7485576353372101  0.6668027722265919  0.2488664422912059
  0.9990441932895066  0.4194146660681650  0.5835713963216431
  0.7469612069013224  0.8326928062050024  0.9176573962996851
  0.0809890477179484  0.8347289981691538  0.2497930846383624
  0.7481150758360843  0.6652424223775965  0.7479397380038911
  0.9949790453848898  0.8339353444681097  0.5003187402721178
  0.8297226430589513  0.4189673014563984  0.5843430785071907
  0.1641087208175812  0.5840027646725117  0.9162859048794586
  0.9990183238819061  0.6675317595205398  0.1663070619812994
  0.9116303599000305  0.9159637970373845  0.6663018268975149
  0.9978986255429629  0.4989879000495787  0.9989709037333333
  0.0794846619843369  0.0820650587540904  0.3352530255054018
  0.8324683777850150  0.2519250792365102  0.4159329579088654
  0.9161512196899698  0.8329926352234873  0.2499206155490847
  0.1663102585795361  0.1673446985836624  0.8309206656298138
  0.0815888141551349  0.5015141472522283  0.4156853701103272
  0.7474222225904037  0.1680035993154707  0.7508879435298954
  0.0813454370621416  0.9157433521624988  0.1662392916856899
  0.7472855262497641  0.9997055271838434  0.7498602128760604
  0.9153969781281863  0.4181526158264421  0.9986671952025932
  0.5828636628923499  0.0824918774168272  0.6668510706368558
  0.2486467713932433  0.9999345878453757  0.7518320388196893
  0.9975694714808104  0.2488828501815406  0.7499950593300607
  0.0812310337844443  0.0821200102944711  0.6664481211481070
  0.2473839476007580  0.1672677872819620  0.5836245732748122
  0.3324549564698027  0.1663509980665422  0.8326503038605257
  0.2491619922269227  0.2504468949549954  0.9984876790882327
  0.2494341088644995  0.0815757304338462  0.1663583026806741
  0.0825333878323409  0.4156792880104647  0.1653225715810678
  0.4979147535867113  0.4183800691365016  0.4156686196605675
  0.2468713057060328  0.2473756244400976  0.1670886985759821
  0.5807515681684324  0.5004159640444020  0.5836484911918767
  0.9160667227991650  0.3343539374012158  0.2493387919017778
  0.4986466581110630  0.0018694194521446  0.1672202310130589
  0.1649457139046199  0.1666393636714561  0.5016289391622503
  0.6634464372239585  0.5837182435102007  0.9161220723553576
  0.2474886167032455  0.4165925894333350  0.1662824714126589
  0.5812680201261839  0.5822182476689556  0.6667618608581333
  0.1644234020468327  0.6684092799461520  0.9983811013108753
  0.6631837701920608  0.4190093314009419  0.4158359477560784
  0.9969764093488281  0.1673883626703120  0.8322520028298487
  0.4979737771262616  0.5858101002981700  0.2489202706666247
  0.0804269375836482  0.0839357236398029  0.9982619731736352
  0.7479585353090624  0.6682603237634409  0.0850924830415181
  0.5794368321293967  0.2508428328657645  0.0010752942166953
  0.0789066281656576  0.0001195286175049  0.5849664557343082
  0.2481844646160419  0.2497347061671884  0.3366518541232954
  0.0818568525907562  0.9162831965377626  0.9987966187117631
  0.4141535555550347  0.0826402634074315  0.4991172562216294
  0.3311232900836930  0.6662879006561812  0.3318585783525133
  0.0804938485804404  0.9179851194488681  0.6662739612382825
  0.6624086057515117  0.6654392727900995  0.0014249587859476
  0.0818361296890240  0.5839314928050081  0.3347917415806562
  0.5803823005405576  0.4997795872833483  0.9169662586463659
  0.2482554948995538  0.6659774522422126  0.0824369517915225
  0.4988818766888113  0.5839624494388823  0.4160191231193875
  0.5816087836180764  0.9163458001291058  0.6666456181879091
  0.4156455962711370  0.4177015894563823  0.3301075133341608
  0.8304423355499359  0.2500975801252917  0.9171831591984896
  0.4974217110387392  0.4162876490025205  0.7494202722637280
  0.8296017589445938  0.4178418128386859  0.7516119154248034
  0.4965561707686746  0.4158172543169832  0.2490705099645279
  0.8313320256526584  0.4188280937961549  0.4160672420886641
  0.9970008441288402  0.4156968986579442  0.7508194975248116
  0.2472645643560598  0.7480149712722346  0.6673162101924409
  0.9158430594094308  0.3333014989920809  0.0825740235382052
  0.2483108464088951  0.8323050137388981  0.5826793488614870
  0.9125454219768585  0.2511417430292827  0.6660885274181279
  0.4134149215012566  0.1661325818668496  0.0819875659095899
  0.8299312258077197  0.2497069573898242  0.5839846465068114
  0.3287958021769504  0.0023602773173950  0.1659058757679086
  0.8309489457202917  0.1664089538769105  0.1662743305208304
  0.2495952026556199  0.8326750764173390  0.4165686802957104
  0.9968877964190608  0.0004526010261542  0.8328880639794739
  0.3304262080998537  0.8331717876273612  0.3335848750456935
  0.9974144299872115  0.3332671364113949  0.8317703403988164
  0.1657605606359804  0.6678229142204426  0.8340850856946325
  0.8303238416613998  0.8324026412867237  0.8327359313504952
  0.7487107512816298  0.8329818808265643  0.7498535065597242
  0.8313273291556772  0.9165286984299670  0.5843805028898297
  0.6645825021600318  0.5005983481273435  0.0033893048490004
  0.4151201969611084  0.1663729034049808  0.9161591967801012
  0.6643909137945073  0.2497393185863982  0.4157216188761136
  0.4155805891240686  0.4166920300517200  0.6710184951515387
  0.6628946196912473  0.3333282856739223  0.6653276132609547
  0.3312614338166496  0.2476011594129491  0.2504666668358217
  0.4148151248422855  0.2517976381155927  0.0001171383645740
  0.4981221757643588  0.3330765561692601  0.0015589402645955
  0.4979959395923018  0.1659789173508297  0.8327504123466977
  0.4990269337348982  0.0017665358771524  0.9998364420307861
  0.5816969771702694  0.0826536165535283  0.3332753662025978
  0.5854394184506442  0.0810390920928275  0.4988175605624991
  0.5806534217762218  0.9982622860335469  0.4152223617813043
  0.2497930952410445  0.9999115423293194  0.4147949439376405
  0.3303920978468882  0.8338308667948399  0.1641010946307501
  0.4988617494869104  0.9994714312394368  0.8323291412743851
  0.3325559983519817  0.9177267046866106  0.9165779137906365
  0.4129794986570171  0.9162325901966375  0.6678615929275826
  0.4148204774848274  0.9154483382474043  0.5010080051312678
  0.3342009650426444  0.8342784251761924  0.6668621249024713
  0.4134348619788757  0.7472725337719287  0.4998656153111667
  0.1650926308222232  0.1657221072919372  0.1641750391800333
  0.1656017647247296  0.8334315917804748  0.0000338216872107
  0.4975858677555753  0.6655656146166105  0.9997822582489533
  0.5810202873492957  0.5012418614100788  0.4151400076825364
  0.3321698494869648  0.2499405395658023  0.5818944532662981
  0.5827245907946792  0.9162939070205378  0.3321052949867626
  0.2503323868988321  0.8349795844782146  0.0826964041325943
  0.4154159498198862  0.6655764170016314  0.0825329086367581
  0.1668694211198856  0.4162860542608199  0.7503431266949826
  0.2491394830910833  0.0003116979978609  0.5834301808243617
  0.0793316651325014  0.9996996402988939  0.7492378194897319
  0.1647171457587876  0.7502993610125585  0.9151320399925078
  0.6636793639499456  0.6676323113016176  0.4999667770582773
  0.2472263406714198  0.4168365411761366  0.6672512309899273
  0.7467266847812566  0.5851216875288487  0.3317774501525357
  0.2475506516385167  0.4182275915490492  0.4989399122940921
  0.5828360548227820  0.7482856805982625  0.4994878133394343
  0.3302840346638319  0.4165687881758602  0.2488950241497274
  0.8306109778109583  0.7487314715304656  0.5828771754933242
  0.9127986752864714  0.3348808992709220  0.4161997654759523
  0.9123415765805492  0.0006814023690016  0.4159847717358636
  0.6647232292994381  0.1660574360325274  0.8329628419478223
  0.8334211795094755  0.9167830815173532  0.0835406472881352
  0.7481815849194523  0.0001744453933207  0.9178845117948945
  0.9164605668991672  0.5829457255236451  0.9983061927614625
  0.5803646077060787  0.9997590051269424  0.7489520603206815
  0.2488467281767267  0.4996065336297597  0.4161651969527962
  0.6645968121931319  0.8329342450210834  0.5015184703117416
  0.4974331784087896  0.9156672587475392  0.5826319312915750
  0.7487815448052101  0.8318563737274148  0.2490170669272794
  0.9147225483669830  0.4994506787785642  0.9172945867149194
  0.6651174659974566  0.4163052548615865  0.2472254569092188
  0.1657183607079799  0.7490524962415785  0.4172219764055619
  0.4133065136882487  0.1662060481676570  0.2507617665553586
  0.4134985579294492  0.4174212559300076  0.1691387416738358
  0.3314391841419490  0.4995875428046689  0.4991263918636708
  0.4986118094839013  0.8324194249673071  0.3335733826972356
  0.2481072783149749  0.5850459928766967  0.3336470966193823
  0.4978141780866716  0.8329378246834016  0.0005920296966550
  0.3315554020621332  0.6658283691039824  0.8324320270720093
  0.1649781409661369  0.6667076378053686  0.5004328399923255
  0.3320403028862707  0.3337954972612291  0.8324665559405404
  0.2472116447284061  0.5839150380866890  0.6676741147917257
  0.1650687353812921  0.9995730243195444  0.8334881530665802
  0.5801743144463719  0.0812868833176964  0.9994495042121038
  0.9147510471967830  0.5821587246890899  0.3345261794520062
  0.2484521918313754  0.5849479013472715  0.1645267335709214
  0.1630561453629558  0.9153644784446668  0.9177132658305854
  0.4134325055530811  0.2460928858480436  0.4991878378855072
  0.4143027888025195  0.0835375830506464  0.6675565406991930
  0.3332500350689150  0.7496893424404739  0.9163934028311426
  0.4137981084023081  0.6671259353687148  0.7506569381241902
  0.3330771409780703  0.5004069702283962  0.8333560142644522
  0.1626624003317103  0.9164182166000330  0.2485838132787191
  0.3311175328881990  0.2487001388111297  0.4156876863111373
  0.3332781346267425  0.6661687479248125  0.5008496189601039
  0.2478705567700448  0.0825175206458436  0.9980674785807985
  0.0835553189611810  0.6676011467571862  0.9168046210639066
  0.1648826286189291  0.5832152876800926  0.7512862253781173
  0.5763913471640475  0.7499011960945113  0.0004783999625177
  0.5796147673662162  0.4993284417256170  0.7498656736523361
  0.5839751001197254  0.2510216989066778  0.4974143603754389
  0.4963309289080510  0.5839400110938091  0.0829611459097522
  0.3315083804579976  0.4991356310942408  0.0006852992091634
  0.3322042730749011  0.3325527504602502  0.0018045328769948
  0.5832125103835836  0.2511735535535469  0.6665081641833186
  0.7481671419759824  0.1680486500385086  0.5824772049025002
  0.4965911887150135  0.8329070815446401  0.1659778431693556
  0.4149923226924401  0.4216480390607969  0.4946383510152983
  0.2487298561830585  0.3334737736098584  0.4146864961373280
  0.5825037528681593  0.2492854450405153  0.3320446562759949
  0.4136032208857636  0.3303972860618821  0.0827045255992960
  0.4143382071974661  0.6669618241609240  0.5829003579670824
  0.3335818702798344  0.9167774197563568  0.7493385615499251
  0.4999844695704202  0.0001558755251409  0.3340165289327258
  0.0013481361806205  0.3295506801005855  0.4156576759867635
  0.1643602264152049  0.6641749714756716  0.2485671704012993
  0.4158377156777854  0.4172095097410973  0.5826307108551148
  0.0819997250102127  0.8324594551633349  0.5019611793850119
  0.6638551322267456  0.7506610330044974  0.0016279075259195
  0.2462483462328867  0.8355066888231818  0.6700457308540968
  0.4158086566379834  0.3335292044926636  0.4997667025080111
  0.0821096747970740  0.3333114153721243  0.5013168074845021
  0.1645207912769638  0.1642537081232401  0.2545956230467110
  0.1642823223870480  0.6673177028922724  0.1638433008363798
  0.1654564086962467  0.3333390614139511  0.6667602594889526
  0.2484118555265248  0.9175775313015494  0.1666758683113895
  0.2486821382985601  0.4163226695036341  0.9996841986941621
  0.2480043589187263  0.5010434431219611  0.2491338342303168
  0.2480658223111367  0.4168456791252649  0.3326090513840212
  0.1652527447884845  0.4174862218634524  0.5836206072093079
  0.2488181410137828  0.3330952124761749  0.5830825664508629
  0.2480446066784088  0.8341417117111042  0.2492626484234182
  0.1653065261927566  0.1664104903473849  0.6668497238547859
  0.1648928401346914  0.8341927212419419  0.3339763501043393
  0.1648552383121469  0.9171523883715335  0.4167980439822387
  0.2494536686172678  0.2508441535173183  0.4986333181042996
  0.3313920974514511  0.9994770686582219  0.8331620941130647
  0.2481546065055427  0.9160686333798524  0.3331685793944985
  0.9983921194125307  0.5829760694484322  0.0825675502979142
  0.1654573286718307  0.9181973099199862  0.5832346882433082
  0.0810751392152053  0.7513406394266913  0.0000708246313028
  0.3322757247082039  0.4159081441012814  0.9167053025015239
  0.4997507628902392  0.2487358488151859  0.4165495914103730
  0.3316776503781053  0.4167107624549538  0.7496388336512968
  0.1652699997309973  0.1656087515399732  0.9990581820293816
  0.2477508405916286  0.3315334477333463  0.2500587383282313
  0.2476890912893489  0.1651867313266992  0.0823047239040760
  0.0822371330964239  0.3327916288625682  0.9156966992838356
  0.3318791809477324  0.0831854898077104  0.5835435202182370
  0.3301437046827153  0.4173237436880334  0.5831788831165987
  0.1653903098087968  0.4996934442209609  0.6671685588129285
  0.2487662349617846  0.4163788900522917  0.8336386933042815
  0.2491563795508029  0.3330166118824793  0.7500212389881937
  0.1650204045684211  0.5836616796600280  0.0820078712931177
  0.0821613489264099  0.4995430261021089  0.0829861990329267
  0.2481608489147926  0.5000888727183480  0.0831760552124719
  0.2490020162722283  0.3335605265461837  0.9161207544459831
  0.2488389420695720  0.4996658990889077  0.7507751905460972
  0.8320558203535409  0.4998758519467614  0.1659315095498557
  0.2487920308980503  0.9192840365414583  0.6670355465313905
  0.0816583290193451  0.1672463118831878  0.9151085332461084
  0.4979771181532077  0.9163925085370751  0.7486515931837813
  0.9989513393327936  0.4160961645839905  0.0832131122887329
  0.4152565520659388  0.0008110520011051  0.0835034003659810
  0.8324590888839450  0.5834434419038128  0.2485485925316572
  0.3293890645422011  0.2474593734356947  0.0838158225847575
  0.9987724434855378  0.6663572618903183  0.8326134336587083
  0.2469195125659565  0.0004551782461295  0.0819590458739394
  0.7483368906048644  0.9163372912997828  0.6666160302404635
  0.4981210313253158  0.1668414784092268  0.9999438971744404
  0.3300751190648731  0.1652578885345682  0.1662161004638855
  0.4137304264351139  0.2489340370202890  0.3331148599657006
  0.4974679850422621  0.2485158652676626  0.2494625015353288
  0.4153271784505520  0.0832153487278577  0.8328861187343087
  0.4982286785559626  0.0842217008873026  0.0836346681174053
  0.6651386700365849  0.8334483342396487  0.1662793918751430
  0.9993003728433834  0.6666036481461532  0.9996086500559718
  0.9983812463815310  0.2490292095935420  0.0832146392073935
  0.1645034210805372  0.8340846844244657  0.8337803603401482
  0.2483643069758672  0.6665255423838421  0.5833228092371333
  0.2494547772809751  0.7504088427635193  0.9992510657436136
  0.0804680356796283  0.9166816626404294  0.8328399907818924
  0.1655122019103974  0.7503459105176543  0.0824784967613694
  0.1666885402527629  0.8336361077155904  0.5000145852830730
  0.2485444417442434  0.6674223510572597  0.2492237124181957
  0.3317747612384422  0.2499327380097136  0.9161590328516753
  0.1658384357830632  0.3327877771954848  0.9995770096718742
  0.9985973771462131  0.7502114881899924  0.2502211195786687
  0.2481874242987257  0.7509244400871746  0.3326160978583220
  0.1656591595123249  0.8338076426721843  0.1645129013211485
  0.0814909678027858  0.7502233343765231  0.6672732115149982
  0.4147209604049856  0.6670918986575506  0.2499395702115865
  0.1643185939581495  0.6660753849533243  0.6671234804708688
  0.2484152794237685  0.1667402053673060  0.9152851074264889
  0.1654812307783456  0.2493631135594072  0.9153570550725465
  0.3324047084582368  0.7496343143098042  0.7503125844219450
  0.1653325706002162  0.2485596583512431  0.0820547923108374
  0.0806487785007887  0.2478124833565589  0.5011194753721345
  0.4142008658000970  0.4164118980698095  0.8331069225950385
  0.4983206746153573  0.2492521814181141  0.5828768674538268
  0.1649233013217892  0.0823280173068440  0.5835003100709357
  0.4142455980987366  0.3329325614028116  0.9168705419058343
  0.4140947469556199  0.5826612077780016  0.9987753615136300
  0.5804463354434372  0.5001775229309694  0.2491267206598250
  0.3306480394907529  0.5005790451303131  0.1665763344091646
  0.6633378592888405  0.3335167588828976  0.0000438607113388
  0.4146050829925322  0.5840066740035927  0.1666270037113204
  0.2481287579204132  0.0823007181249496  0.5006295612734828
  0.0806933040178981  0.0821304702965095  0.5011562371124765
  0.4959469055851324  0.4166122652307723  0.0846494607388166
  0.4152421234985720  0.5844597325180895  0.3321962682044758
  0.3306131964521057  0.5013263408742856  0.3320598169700145
  0.4154779138972788  0.1667880570610103  0.7500562157670622
  0.4150694884431721  0.5021054356143086  0.4136524619079734
  0.4157865813263558  0.9999519610716062  0.7500557199582697
  0.4146337463706165  0.5837470958707764  0.4994694709016996
  0.7485036105743708  0.1660314915089471  0.0823940734638308
  0.9125776023090462  0.9162634966341899  0.4998866872784476
  0.8310754926616120  0.5001592272365329  0.4999100665911845
  0.0805578615833792  0.0005003880260494  0.9149869758320759
  0.0824236837824823  0.5003830599863973  0.2492897669128424
  0.8313996655490962  0.2499956701749183  0.0821307944862072
  0.9137999369621089  0.3339111853907474  0.7497876408140302
  0.9142805571557310  0.4170043761403342  0.6671251963361707
  0.4158009091525200  0.1660624276321881  0.5830448985927923
  0.0802068818711496  0.6668975620352100  0.2492436425793841
  0.3308192740184406  0.1656090134807939  0.5004122531898757
  0.8329042450110385  0.7492050426164570  0.2503201616095644
  0.2479188251431135  0.0819781674512147  0.3344730945376166
  0.9159182877168139  0.4990616925658455  0.0826400063709136
  0.7478775050783278  0.9164316426066632  0.8332544347756674
  0.9168564903806691  0.5836480854771071  0.1663788471177175
  0.0816238102141006  0.2495147150671928  0.6672275706537738
  0.9154688568265750  0.0011905631330229  0.0823301089232431
  0.3303341795095358  0.5844855202521546  0.2495426302958497
  0.3311356230419158  0.1669423209378229  0.9991307611500329
  0.2480065482310276  0.0831424887298902  0.6669996272935291
  0.1637341689584923  0.9998305430781670  0.9985109522022863
  0.2486362603184546  0.5829243494236274  0.4994555143834074
  0.2489489704702641  0.8337504638682168  0.9163172817119239
  0.2489942694580687  0.6670661610713473  0.4164826225487950
  0.1649036425186963  0.4178557057875895  0.4157569181682876
  0.2490207771882854  0.7492949570211823  0.5001741891151601
  0.3321620755359577  0.4171150060735941  0.4139926989047282
  0.1649127285935081  0.5825327221224613  0.2494960893904728
  0.1648016876373042  0.5003495642113597  0.4996923373875511
  0.1650710436268134  0.4988438304248395  0.8333746766940689
  0.2482480407588373  0.5000173611656525  0.5834708693572049
  0.0812531299436644  0.5819395659191784  0.8333267699203104
  0.0817800193448291  0.4176333585026953  0.3330402284091461
  0.4148982640870042  0.3327654726327342  0.7496557059190014
  0.1654741619379960  0.5829657366631871  0.5834502743213307
  0.4142500186819189  0.5010406192734644  0.5835137487716537
  0.3324072321005757  0.2496108177419724  0.7499835023129447
  0.1647401055928681  0.9999295235539271  0.6669639529399033
  0.3307945749035046  0.3347307777560747  0.4985926315871729
  0.2484254549233284  0.0833558472109988  0.8332056377973740
  0.1651572763354210  0.0826819271757031  0.7499155504049764
  0.4144071259753438  0.4154736177474774  0.0005885031372027
  0.4155177643001394  0.0833001153710646  0.9993720288493647
  0.3305676163298105  0.3316404898624209  0.1669274824180888
  0.3312249059136093  0.4161367275347328  0.0843038079914352
  0.4138851965712150  0.3326726484149147  0.2493894828480208
  0.4973610233497895  0.4991482500759065  0.0000584307516295
  0.0812222576342483  0.0837051113212786  0.8318338786213521
  0.1642149706445288  0.0837218089859333  0.9156875784410281
  0.4985318663635077  0.5009092021214671  0.3313767378045513
  0.4970898270847888  0.5003695511759679  0.1677510428203931
  0.4994663664691583  0.3330779705821454  0.4982277563339221
  0.4148201433038383  0.3329298591214352  0.4143790848072624
  0.4151892411351966  0.3323076609643336  0.5837487317315213
  0.7489892444377931  0.9996193692517658  0.0827923871043850
  0.4984489657517115  0.1664114532831996  0.6653121814624343
  0.4990405481644597  0.4175005328233272  0.5832833772108562
  0.1647616566904499  0.0832077538959771  0.0819773279485909
  0.4971408537884357  0.0838061779074698  0.2495994052489347
  0.4991236832998239  0.0831912277122408  0.5829606079320979
  0.5808362679472928  0.9995572361543376  0.5840271153417874
  0.5818597259511951  0.1660664624154798  0.4166231174267149
  0.4979596497044853  0.0001759930403785  0.6660288341378157
  0.4141394963171806  0.9163209207797226  0.3330323033806281
  0.5812906983722890  0.0827310451857832  0.8328462297792921
  0.6646288760351533  0.0834387379503067  0.7496348650609914
  0.4987014785165391  0.9171562753428538  0.9167006529058939
  0.4987844927588220  0.0836072000801787  0.9157785112555165
  0.9959778222061474  0.9169356766439473  0.5836981566838694
  0.5820204680124564  0.1666010516849520  0.0829676783755898
  0.4979144233547274  0.2474655700946631  0.0846548685817712
  0.6645232322446815  0.2494843238903221  0.0828154520760273
  0.6648090420401623  0.9166995336082973  0.7502624528503036
  0.5817120506938960  0.0832306282348068  0.1673850485437298
  0.4976403058464480  0.5008084726709858  0.6667237847489021
  0.4974333178474117  0.5831999379105316  0.7494511246196023
  0.9989191492483046  0.5829857702696435  0.7507170501816507
  0.6640301434207994  0.5825474588521865  0.7498848727435787
  0.4975678540224419  0.5827580806783764  0.9165939228132215
  0.6661085148079677  0.0838816906838937  0.2495353197322743
  0.3306606099418640  0.4998463269130923  0.6670889486867386
  0.4136650727686372  0.2478715087406849  0.1660863357713498
  0.9978746475184896  0.7496526994525624  0.4177398724916136
  0.3316483406425335  0.9174074809201950  0.2498321072145669
  0.4982766872968279  0.5014460130477780  0.4990951567425184
  0.1647623786603356  0.3334368788957710  0.3330551933139534
  0.9147930256124929  0.6666306252961709  0.5835515849728048
  0.4984574371879558  0.3327627110083161  0.6656638124313887
  0.5814024717664330  0.1667642730430215  0.7492391049409920
  0.4983419024627727  0.2495784318531777  0.7494304454127672
  0.4981808837963407  0.0838177812148177  0.7493527604138928
  0.4980376434386997  0.2499014935635307  0.9162455410680574
  0.5811074921272188  0.1669275918182759  0.9162625080787816
  0.3310570625604041  0.6665545080729316  0.1658416555755227
  0.6637313395675684  0.4178772556412966  0.5836821746521258
  0.5807148389330682  0.3328137937313032  0.9170086202658033
  0.6645969510001650  0.4153242923737402  0.0841061276823132
  0.6647291717847044  0.1663566944182110  0.9998169778456323
  0.0810190406980166  0.9169131732006371  0.3341380224955697
  0.4984503144118137  0.1667701840689576  0.3333587019250466
  0.9980514463673988  0.8335671712688472  0.3336806786821684
  0.9967810525834219  0.9173580054917139  0.4165528393206451
  0.5813769784945191  0.3324410773493973  0.2497891049507504
  0.5819397875871402  0.1667363271611731  0.5823629312759564
  0.2494154311782210  0.8338836475250793  0.7523773529648742
  0.9978158042462565  0.7494905799476691  0.9158300879624999
  0.4137096253579916  0.4989307343692341  0.9166721631177587
  0.1636279012058774  0.9993470502469290  0.3343141057511485
  0.3315948440819594  0.5834166293216919  0.0825775467211009
  0.4140527304545542  0.7504755641911705  0.3324748446294282
  0.3317020198485078  0.7501029449994085  0.0824603950361845
  0.4976295125919226  0.7501942569404118  0.9160309971831606
  0.8298680249839584  0.5003842321475368  0.8345116543487653
  0.5812651825915131  0.4164863107582896  0.8330841663676374
  0.5800459316746066  0.4160950722286729  0.1665558719813285
  0.4138736198695889  0.4999424701057123  0.0839129711330398
  0.0816643085282231  0.7486261747665121  0.5011906307547112
  0.4973919228561829  0.6666775241258154  0.1661978738493390
  0.4970628994859752  0.7510829673500194  0.2497166107230758
  0.7474397717007815  0.5009515792648170  0.2483639581928523
  0.9986629297570012  0.9992098989477008  0.1656664154536082
  0.5794292737267189  0.7511818616445737  0.1666201390163923
  0.9981596552120825  0.8333646801408389  0.1662876118292721
  0.4154010598691524  0.1656486178266473  0.4171384547634128
  0.3319337980118959  0.3331298334891674  0.6663620630590893