Cr  H Ni 
 1.0000000000000000
    21.1200000000000010    0.0000000000000000    0.0000000000000000
     0.0000000000000000   21.1200000000000010    0.0000000000000000
     0.0000000000000000    0.0000000000000000   21.1200000000000010
 Cr  H   Ni 
 259   9 605
Direct
  0.0033052143039784  0.0002740415332456  0.9994863968195463
  0.6668068249219189  0.9996853006040324  0.1686257090257292
  0.6704316731915039  0.0865637348004242  0.0816480843507210
  0.6675437003122697  0.0010562346270417  0.9986541640801703
  0.4986252418735982  0.9174808002132110  0.9161713459678575
  0.4983031173102769  0.8336307618188393  0.8340059664826563
  0.8313993204943464  0.4178941190618968  0.2521323677730503
  0.7490710997140596  0.4161283037646297  0.0004396799813961
  0.6677454288474091  0.3310918280695833  0.1665005369787026
  0.7499682035005786  0.4157759372163853  0.1662062062593492
  0.6670271349802094  0.7523042690443581  0.9182567426491963
  0.8321938409437960  0.9981915468801457  0.5010974458264493
  0.5827087211870550  0.1647185072141841  0.2500601499660179
  0.6657759469613231  0.0014921909859475  0.5001405378433520
  0.6675525165229269  0.9995501842915844  0.3312792873953516
  0.6641376580542881  0.6687979499763957  0.8341181238540117
  0.7480977792717195  0.4984836065710998  0.7500713244561108
  0.5812671292213737  0.7498921810513389  0.6669159229013772
  0.6640123952907072  0.4995930490519663  0.5016395456661252
  0.7493125387127144  0.5001734297236758  0.2493925826333150
  0.7482549967223870  0.5820255431338461  0.6676432306852962
  0.5806496399005231  0.7498559228656998  0.8335741592250665
  0.7493267129903799  0.6655832359530165  0.2496442972925727
  0.6661373117324716  0.6656236110102657  0.1674699311676360
  0.0830701005100520  0.2492412690414245  0.9992389183775529
  0.7504482967005178  0.7485067821970505  0.0002313638516975
  0.1653838531249679  0.1678172894829759  0.5009722327604824
  0.6648995585226157  0.7493846616479728  0.0825620702611067
  0.1652400942499172  0.3319445365376214  0.1676709202219206
  0.7470964823594405  0.4987886799662745  0.9172951888853113
  0.0825417799101919  0.4177279245514380  0.3355886128301602
  0.0823465012556285  0.4162001203695568  0.4998394092746638
  0.0834746174962393  0.8321611199181194  0.4172211679004295
  0.8313029483208445  0.7500276055736983  0.4176005122163922
  0.0853197366528672  0.0837844722262385  0.9997554244907275
  0.8326593817612562  0.6654850555059881  0.1647686305767236
  0.0823422967724845  0.5003625085921718  0.4160805341821979
  0.8349406414284040  0.6662122611187259  0.0002498239003557
  0.0003651523262442  0.9165935097732225  0.2515752875855193
  0.9161992283955465  0.5826684416843567  0.6671895005666980
  0.9992311433546939  0.4991436461928621  0.1665508727872669
  0.9193347579404583  0.9134644450915128  0.9981770415129060
  0.0818672633919666  0.8325600456359069  0.5839754912936400
  0.9172153948792483  0.6669957684343119  0.9150788028157707
  0.9994760869169457  0.3324043807339147  0.8308815619565461
  0.9168577478746057  0.6666449517633417  0.7495831722699624
  0.2488231435876453  0.4173738629611073  0.1661938664726096
  0.9996935320573843  0.5835695019850018  0.7486317864783111
  0.6655751195833918  0.1666890908616496  0.5001904051976505
  0.9989669168827019  0.6675742202341181  0.1684828087057967
  0.7540443410636671  0.1659194260107515  0.0837133199957170
  0.0001498066814159  0.8330708755771368  0.8326444741969464
  0.6680654745202238  0.2485719898512620  0.0834003486091085
  0.9172655962701791  0.0821282502676117  0.1698728908570711
  0.6661146636524111  0.0824226314237343  0.9157677683756947
  0.6669135854995538  0.3314185047399862  0.0018565847523891
  0.8318626453985642  0.4992468147510768  0.5006211339070050
  0.6656040624792284  0.3323484586851367  0.8324264114011763
  0.5835552999792301  0.7472886288639143  0.3346373963858358
  0.8339901886529660  0.4178006406239226  0.0831791176129598
  0.6659226741526927  0.8341702731722490  0.9993215436152023
  0.1667380335960155  0.5004185829533814  0.3337912342492553
  0.0853711236940401  0.7504078941535379  0.9996516178861140
  0.9168922920523297  0.1662900924585992  0.9141259158960773
  0.2479221927756633  0.2502481062759053  0.1669930330596335
  0.8311041491755088  0.7509756070906525  0.0816301898628047
  0.9154524059560213  0.8345965170951124  0.2513116002053035
  0.9992525552232142  0.6676983605292801  0.4994482756636281
  0.0843731639306658  0.6669141480247562  0.0836695233725197
  0.8340479094262369  0.9161399110480205  0.9147376013519347
  0.9158703293990852  0.7495285843757009  0.0001705910684279
  0.1666337906777321  0.5008638986948434  0.8307299184702740
  0.9162242170528353  0.7492826398880962  0.6667208795821639
  0.0841379480488314  0.7503287544910381  0.6656073654094162
  0.9989022348619709  0.4997575701143291  0.8319556707982207
  0.8314166311405904  0.6679525586920818  0.5010708379118172
  0.0829411223362620  0.9154264673114685  0.6650200422118486
  0.9992154828048706  0.5008357044843248  0.6656983541229204
  0.1649087236485736  0.0848919505642679  0.0834293813015487
  0.1682893522977042  0.7479151741801786  0.2509739740380983
  0.6648297789730849  0.3304467349591015  0.5008599458253585
  0.5832361217780853  0.4992641271751081  0.5824144568273191
  0.9998747647340206  0.4988003465173518  0.0005061615573389
  0.4986512019945335  0.0839475941859393  0.2503404218226154
  0.9170361548969742  0.9170079322376035  0.6663852807876527
  0.7482500643353543  0.5830586953197128  0.9995638333123101
  0.9991568740012496  0.0832480692971551  0.2514678695843512
  0.6654062429140799  0.5831749167523046  0.7491489835182827
  0.1672081310613007  0.9999103418209333  0.5009430621573828
  0.6667684206279645  0.5012562951336985  0.3331044117377855
  0.9986788491768122  0.4171005902375358  0.5819858071753327
  0.6662368140525337  0.5813317361538615  0.2490040673565636
  0.0011597460644785  0.8330466008831002  0.1678269721862889
  0.6646239348199944  0.4978908095242041  0.1674604904815651
  0.9987847496027218  0.7491103278030297  0.4181730044569821
  0.9992952266080162  0.6681098918097718  0.3336019256278164
  0.2502965066140115  0.2495249946358545  0.3359432105023629
  0.1663100989305280  0.1654614547150488  0.8308355631600670
  0.3317916539431237  0.2518216271932497  0.9160051732332041
  0.8317530358551033  0.5000115548765329  0.8284241596740598
  0.1644296963391305  0.1657712556472474  0.9992339606800708
  0.8319637482153730  0.4170514812936882  0.5825889341192798
  0.0841169344258868  0.2516141367982819  0.1681432016647560
  0.9993948946295340  0.7519081464096908  0.2496372611891497
  0.9164667194003261  0.5855584694220433  0.9994595585276428
  0.6663078841222184  0.9176188940107550  0.2499236736419812
  0.6646346347284592  0.4152922897898806  0.0828517763264736
  0.7514128768181952  0.1664226463929931  0.2510753721629362
  0.7509919916459317  0.2494623857112773  0.9989222630609454
  0.6679276840967839  0.1655939318855039  0.0002569820221076
  0.9990019183962584  0.4167707387808747  0.2510671858792703
  0.6673881420198794  0.0008123659335927  0.8326735289638421
  0.9995616886515791  0.4163895489779181  0.0831871507002660
  0.8336534386139285  0.1674637375835658  0.6675812454348649
  0.3329389969867739  0.0841492093623225  0.4171698005592502
  0.7493961061071062  0.0005913370761219  0.7485579560798795
  0.0002162815715585  0.9985829135679577  0.3333171206616308
  0.6662883064079210  0.0821395548576741  0.7508526229540782
  0.9999365361462366  0.1679061224781096  0.5004240550312318
  0.0838557465644798  0.0829788239244940  0.8306037620508124
  0.0815459609440487  0.1668689692499807  0.5836853991476084
  0.0009232488936087  0.2508473133908107  0.7494044053819648
  0.0826845484637507  0.2505605552530499  0.3356500693903822
  0.1643656328562549  0.2506915062094474  0.7486970316752527
  0.3323443206423038  0.2516803623357242  0.7503212168909923
  0.2496263524755173  0.0838996600997467  0.6654091627459967
  0.9993819113410155  0.9997038717234269  0.4996843759023096
  0.9174207242269393  0.7510184693346265  0.1668397326086241
  0.8310043737789761  0.8340841976192154  0.5006438088050834
  0.0824423855811254  0.3338838795631298  0.4171739757355962
  0.0009630621547435  0.8347042737785898  0.9989294886928781
  0.3314960225212062  0.6666253048627473  0.0003447581809259
  0.4151222348171154  0.4168141437544768  0.1654715186056041
  0.3327809761292872  0.3324878533366586  0.8327617915935268
  0.4980764885032471  0.3306141187998606  0.8319371848049948
  0.3334575898949002  0.4171147063973430  0.7509720187001564
  0.5814762040538654  0.4151266010171225  0.3352013571571816
  0.3336482741725618  0.4173594276091974  0.5832008935946488
  0.4150061596965873  0.6652598511387214  0.2498773615701638
  0.3317833540208725  0.4154146164562644  0.2499639770698841
  0.5833205103503605  0.6673160241449051  0.0854380560663642
  0.4150579808782148  0.2506689945915339  0.8339479928542151
  0.5815154089276380  0.4991246223200869  0.9174151590432889
  0.3318176237131413  0.2514612556316586  0.5831733944749055
  0.5002369687832993  0.5836235068175117  0.4164784238833085
  0.2489060498346662  0.6663973391027220  0.0829070624222816
  0.1657206410786295  0.4995839056168376  0.6659194197671292
  0.2498701647296850  0.8316745145034709  0.4162065901894849
  0.2485144743055642  0.0010384154721281  0.5823050059142918
  0.3330837298136666  0.8340407859212721  0.3332186505910451
  0.4132619637817623  0.0837990305179595  0.6671032747953409
  0.2498099087929927  0.6655340066817310  0.7468013206275550
  0.9989236485282290  0.9163922991627115  0.9154166403647601
  0.3360562652954860  0.6661267761290453  0.6652913713194946
  0.1671496379653960  0.6650284323853951  0.3331196533658373
  0.2508979477591242  0.8337716319497609  0.5842858974120375
  0.1658540781467694  0.4991439663555386  0.9991357787093155
  0.4942742176313983  0.0829321063848628  0.0834699876219944
  0.5816682289899066  0.9171987929100192  0.6675526088952504
  0.3310540056133207  0.0843947336589330  0.0836097992103851
  0.8341904472483055  0.2493351382005529  0.9167391896287634
  0.8298690014341816  0.4180461122446631  0.7512379886589109
  0.9142250827594713  0.5834969549644227  0.3345116171726652
  0.9176173758545775  0.4164062419065571  0.0002752813015646
  0.4989748209112861  0.2487367068744021  0.4165203162480804
  0.5837200348488559  0.2486133964256773  0.1663663719179526
  0.4979518576499941  0.3333836708482389  0.0021821149252877
  0.4965916284449970  0.1686681521839121  0.8313543922868512
  0.5827311642891628  0.0000551937319701  0.9157524203596129
  0.5835869490369017  0.0839149383708451  0.3339646669006255
  0.5819833720854004  0.0016647246597645  0.4152117370742416
  0.4977255281873909  0.0847891509649539  0.4149422487648388
  0.2488265006693489  0.0023050252453142  0.4175513878304382
  0.4154341901578509  0.9162889714834810  0.1673858607678027
  0.4968552266137037  0.0004843997751475  0.9987036196939516
  0.5836886830869301  0.2491766938966527  0.5005868742352665
  0.5006920981134292  0.1679831333022722  0.5022562298292567
  0.5832926766017290  0.0839324145280036  0.4996680860886737
  0.4151636614829716  0.8345444843413495  0.9174482484291151
  0.3315541447847685  0.4985925278579666  0.9987844452266073
  0.4137431163467165  0.6669418047128921  0.9177728168454410
  0.5025709753495101  0.4148979309744038  0.4152743137159566
  0.4965957976348900  0.8339456840315889  0.1655440550621823
  0.4145471841962481  0.6653675031369539  0.0832734019771525
  0.3332680093196945  0.9161930546152448  0.9161852497667514
  0.3321771726088830  0.8338190160387988  0.6657069724493785
  0.4161955542166896  0.9161485357639142  0.4995838112564149
  0.4182638121008455  0.8336062242593716  0.5803534583628154
  0.8317236833116847  0.4985533927308225  0.3346294666599073
  0.4161334109709143  0.8336613932001622  0.4160950191284122
  0.4149306178362449  0.2496447399645466  0.1656272487277088
  0.2479250459065385  0.0017494307423080  0.2502795864877549
  0.3345040120807188  0.4997695651964327  0.4997771282585523
  0.3338242360956999  0.5821310258518482  0.4195727970893955
  0.7503083348333843  0.9177257387661669  0.3324873783195584
  0.4996059534965509  0.5000941358263742  0.9950534273862183
  0.5835521848751709  0.3320723116736230  0.5831188534798499
  0.6655339916265226  0.9174503900946577  0.9155464796345838
  0.5825092830634920  0.3307756210610237  0.4162819495828884
  0.5812545695270589  0.0017514920745920  0.7496171545852546
  0.5830785664034317  0.2498561673081738  0.3331557739352795
  0.5841259187827833  0.9189139338225565  0.5004906999133236
  0.4155955411673289  0.6659377383141377  0.5847556274579968
  0.4130395573972506  0.9157365061514998  0.3334974695349290
  0.1668731061775516  0.9165712402846220  0.9154569935296599
  0.1658713346711838  0.9168887337712810  0.7476124656544395
  0.1686802250703665  0.9174870981565073  0.2510274677683815
  0.1671680486831419  0.9166532316356042  0.0838340403674115
  0.9160005393293954  0.3323584109585830  0.0841432083768346
  0.1673252285096145  0.7499100863010946  0.7465621778851433
  0.8333594572625591  0.2492791001776616  0.7484323157242867
  0.6653560402566127  0.7495157397726050  0.4174901246643247
  0.8318280747050534  0.2486393727576148  0.5833188487775749
  0.5848947183694332  0.6664458433779644  0.4161820730973557
  0.9168393488854385  0.2501386572096827  0.9990135421851575
  0.5833692207677219  0.7482202673639379  0.4978637548987024
  0.9164523924670932  0.0829132915241062  0.8300293591676154
  0.7494531474219267  0.7498126169551679  0.6678344033814301
  0.9188919847240972  0.0860862879432414  0.0000891890110378
  0.9163928020741694  0.2505332481574358  0.1681431304620938
  0.7493099518518022  0.8340169397926740  0.9154569098038775
  0.8351669898531452  0.2494778599368712  0.0836513031549232
  0.7493683315693218  0.8327972428827259  0.7480250383771216
  0.6662765299515676  0.1645528359393326  0.8341830022231043
  0.7490085026549882  0.9180470222807291  0.4995165760363395
  0.8351818187898339  0.9170752076701131  0.0828126568571992
  0.7521844590988060  0.4988261430810300  0.0826137034741729
  0.3311577380831388  0.0840887505306088  0.9155577198867484
  0.9200198676641164  0.6661917830957849  0.0849454864040297
  0.2506079490879281  0.5829210699378493  0.4994373409854663
  0.1665521974941998  0.5838775521025126  0.2502968646206458
  0.5802219720471617  0.8350705730927453  0.9172077799008925
  0.4170791888895456  0.0859411341594365  0.5008364297360216
  0.4146865544936339  0.0021392570402912  0.7489098393347422
  0.5830899775653561  0.6690939700333209  0.9157970662121746
  0.4147134787652182  0.6653198577719979  0.7484510955983749
  0.4159783151617260  0.4969793582268026  0.7502926228089639
  0.5825004417701786  0.4992524454660350  0.7495048842808161
  0.3311992457329495  0.2500914222429644  0.4161525816806909
  0.3336972613496051  0.5814904656074800  0.5822764978709706
  0.4970113230810965  0.4984220944654967  0.1698528940794315
  0.1657892320003079  0.6678420133266471  0.0011677269111751
  0.1650294107241389  0.5831912845427041  0.7487806131282659
  0.3322757087248732  0.4171002079682787  0.4162824081703059
  0.4987042246668730  0.9167227404589424  0.5831606668338835
  0.3334564672137635  0.3318436279603563  0.3341604319246274
  0.8320703606492040  0.4156713412389498  0.9161238404293041
  0.4141423767420044  0.3329972519709995  0.0822804851248979
  0.1663768256401059  0.7492449874410921  0.4176883986769637
  0.3338834602306747  0.0822652750287785  0.7483155976789919
  0.4986259014054440  0.4131056987513035  0.0843707410707328
  0.4147725565344173  0.1663780746307327  0.4164711166603506
  0.4137669000590844  0.8332128484970719  0.2519727516709299
  0.3314346298499681  0.4155697425853724  0.9158186859806974
  0.4983975953256082  0.8345155077652632  0.9991471593599879
  0.4993538463899613  0.2501501517736189  0.7508570085370315
  0.1667722637280446  0.6659417513759298  0.5014440117339222
  0.5831829724746677  0.9181942055707792  0.1650068874436348
  0.1676931210543029  0.5844410120230048  0.5803369726113843
  0.8339671103167821  0.5020227723039372  0.9156965799943073
  0.8300002060300244  0.7528123686723097  0.1695054821027226
  0.2499174911629191  0.6666378722591194  0.8369979556245898
  0.9998028133087971  0.1675534478126857  0.9119530224397487
  0.5825152411632827  0.0837931453483290  0.0833788130014287
  0.9165457278124136  0.9995793039731851  0.9998240901633603
  0.1671280160131849  0.7504190086671705  0.8366737855163395
  0.4981941022339084  0.5009258108787619  0.0826204905204854
  0.5027806913008671  0.8334774289243050  0.2536322120064984
  0.1648831161981000  0.4173568693031706  0.5826749362597343
  0.2505592356267658  0.3344410421294640  0.5831171525331420
  0.1659586016759945  0.3338453343266507  0.6656302692393391
  0.2482219202267398  0.3331705144234318  0.2506448186128516
  0.1658545175041691  0.3327108496963990  0.8313032878684777
  0.2504570759748092  0.4172443136415478  0.5004917827670391
  0.1656821844703478  0.4183387445892838  0.7493076091679736
  0.2488959097480560  0.3337414914411674  0.7493534603924010
  0.2499292255819989  0.2511515700806567  0.5003636696943387
  0.2498109433764925  0.9169335860197395  0.8325387317442818
  0.2492079024712539  0.9172007294744660  0.3345451287606905
  0.1662534817975499  0.9159419224549381  0.5829085677238569
  0.2495046604985561  0.8334044498535544  0.2506531730487350
  0.1660355134470302  0.1679424754769145  0.6663072425801301
  0.1677629429021970  0.8321354390020264  0.3338632300705563
  0.2500279569212105  0.4163490026711114  0.3337268234034024
  0.1672763421027339  0.9159983090910794  0.4178547467632655
  0.2498369330533572  0.4995555138363154  0.2511381844251905
  0.2488992500860645  0.9174110605989703  0.1673167707554643
  0.3315463767012387  0.0005897099077889  0.8331227128932294
  0.1650503960582616  0.4174203790346759  0.9158820265543227
  0.4159820594290576  0.0012353856265140  0.4173821190901878
  0.2477726395122715  0.3333548309438936  0.9156825433356588
  0.3324278317947345  0.0008024133301464  0.5002269122122905
  0.2490602663796953  0.4164884077958588  0.8324039922114100
  0.1659402943870504  0.1676177206245653  0.3343132896814183
  0.1664218252807544  0.5827863803731925  0.0830569451213351
  0.2483509401356398  0.4990965416789785  0.0824265720190846
  0.2497814572599612  0.7504026276393563  0.0006734200692156
  0.2488558705160627  0.5823439506020934  0.9996155626113348
  0.1668442371599959  0.6666313914358278  0.1668814627959105
  0.2501436325382653  0.4167712786967492  0.6666232411921557
  0.0820970095068328  0.2514534540255540  0.6662451932373102
  0.1671889057034801  0.7504307793477447  0.0841525719558598
  0.2484693945631665  0.4165936898020902  0.9991582083528271
  0.9165134131486280  0.1661699507698867  0.4175588338464694
  0.2491656985373629  0.9172222194480579  0.6654114191503973
  0.9159016950823322  0.2500842750099742  0.3346695256736114
  0.9998447451078716  0.1670569543738479  0.3336912667873191
  0.8331435452486415  0.1668857232666656  0.5009916789386701
  0.9168489229952977  0.1676267341437824  0.7487654977405248
  0.9148220378599907  0.3338376232099090  0.5835519247395842
  0.9157247500933284  0.2509241654188452  0.6658991167764092
  0.9161717268102619  0.2509364696271345  0.8309191272615182
  0.4975404016601528  0.1662447597155717  0.1665380104566777
  0.9160740986326120  0.1667685575220497  0.5832485002463510
  0.2493270445751953  0.9175480023432904  0.9995038879017875
  0.4142612281069163  0.0007960142779016  0.0833196943582969
  0.4136157811595362  0.0835324074618579  0.9992865000661411
  0.3311709285445683  0.0007958702440927  0.1666744629545802
  0.3318982873489856  0.1666879038721154  0.3327500728774858
  0.5815978124246773  0.0012974439654138  0.2500747133677325
  0.7499875718859900  0.0838319787954446  0.6670069467664557
  0.8325894202597319  0.2493054174069418  0.4171784507218779
  0.8334672387092238  0.1664954491806964  0.3331752864912936
  0.1669083064045405  0.8355135996981716  0.8318591604079665
  0.0842205932978982  0.7501976912191376  0.1673615101392608
  0.2488716513596066  0.8345662340461084  0.0838460535536767
  0.1672419785599989  0.8338810098087078  0.1679989377400085
  0.1671751978123723  0.8346450490740556  0.9999297138088927
  0.2498925997359937  0.6663873178451253  0.4167759345600587
  0.2499572297439640  0.6653513130259245  0.2504026474309712
  0.2489305194155864  0.1665902831576294  0.9152385715782847
  0.1647846849730901  0.3321376523488149  0.0000647173745165
  0.2515795424928574  0.6660723474955691  0.5841928439784917
  0.2504220696104509  0.7486136404925579  0.3332264888830940
  0.2494475727307717  0.8337209004155797  0.7486497466479785
  0.1670168571381394  0.7499531554298084  0.5830920638493332
  0.1668767709810925  0.8327023401153648  0.5003582924355915
  0.1670335084597725  0.6656608814875336  0.6653047575725273
  0.2495333234682710  0.1677195469719810  0.7492208967411396
  0.1648918660041275  0.2490920561864464  0.9151748537480804
  0.2499932840984393  0.5811846417481834  0.8328326303553379
  0.3320846600463652  0.1676487869091386  0.8325871508352279
  0.3311351755800103  0.0831477591060784  0.2502186598608123
  0.4169430685992855  0.4152810381116536  0.8341494701657328
  0.2492273331372179  0.0844439565673316  0.5010905253184521
  0.1648669756106907  0.0837373994105730  0.5825292380711871
  0.4154280750710909  0.4988296292311443  0.2512644524402388
  0.4152956087648448  0.5830942786537356  0.9990264684008553
  0.3329195763446047  0.4990966563316134  0.3347487419266756
  0.3324863765486081  0.4990393568384707  0.1670668696336860
  0.4170073159268319  0.4989172173850063  0.4161943913160797
  0.4155609733968443  0.5827428185838862  0.1666135662373462
  0.4150300024547662  0.2511627194808998  0.6675030194150442
  0.0823826451874406  0.0838920366449295  0.4999265514090649
  0.4161012820132974  0.3334050629100361  0.9176270975299358
  0.4159516545593079  0.5826028013476444  0.3338612554138326
  0.5825560172847597  0.4980557309802352  0.2504612082390731
  0.4137322628701913  0.1674162751522839  0.7490102065804299
  0.5819461594163267  0.4146603803409163  0.9996570014584588
  0.3323103909676580  0.0839388755827083  0.5835980865480688
  0.4172381054741447  0.5824448833087156  0.5000725266671323
  0.2493581261079464  0.6658494606437860  0.9199442661036842
  0.0006710192093211  0.1655085797489561  0.0021557255132650
  0.0822086349101327  0.0825722283999238  0.3343915926440408
  0.8351955882041376  0.1661835477451700  0.1684177016763522
  0.9994877398018719  0.2498942264991939  0.5823581637932077
  0.8325811359573071  0.6668652328421832  0.6667123452861174
  0.9167182665337712  0.0832044001649185  0.5001432253410864
  0.9154989060547619  0.4174478134804360  0.3342739057073524
  0.4995600708879400  0.3324045055846683  0.5005618892362050
  0.8322615903118235  0.3331319513321247  0.5011482247131895
  0.2491590971029960  0.2513775732697461  0.6662710263247308
  0.0005022503109688  0.2503769776994585  0.2513390058040577
  0.2496253225865002  0.9163562101988028  0.5001516333719284
  0.9157801768755018  0.4992917906706855  0.7494144082744918
  0.1672675249499067  0.8334019442537494  0.6656074751922845
  0.8326401594228592  0.3335041081403269  0.9988088342818944
  0.1657712517934881  0.6652108806430514  0.8317326114812557
  0.1650044874030680  0.2497032840481987  0.5825904298878328
  0.3333981302854138  0.5830251634027404  0.2497366130330057
  0.3305781046496275  0.1663352210387961  0.9996710500953295
  0.2489461581202685  0.1679050867159495  0.5837012677802471
  0.1663419948105072  0.5001423077692984  0.4996330713367358
  0.1663093442303821  0.5840415713478044  0.4167300702290420
  0.2492774917365907  0.4990165235465625  0.5832974707038802
  0.2507215816597079  0.5830740610865385  0.3342466163615585
  0.1658674020051449  0.4166683480962268  0.2511644818370964
  0.2507934331658857  0.7490576120694543  0.5005950138703688
  0.2502239573039231  0.5817449470982676  0.6656068074183523
  0.2494253973758325  0.5828264965023292  0.1663545332735497
  0.2485658366479663  0.0002707970932271  0.9161446867147541
  0.2493645585546512  0.4999542424635540  0.7488502728557130
  0.2497941991737528  0.8353635546514839  0.9163214579051943
  0.0829002732033963  0.5822120816348669  0.8326670710622130
  0.1655477852819431  0.4163624579565371  0.4173922538108528
  0.3325954234179940  0.3339352166975714  0.6671612732321275
  0.2491041999546930  0.4996488876798890  0.4165884623507520
  0.4169107065234970  0.4989835131169000  0.5825808938381200
  0.4165791217444909  0.4165390147391069  0.6665131252493471
  0.1660692038091928  0.0000367880744819  0.6653962645910566
  0.4153962820707717  0.4164236632121360  0.9988705621079099
  0.2496328437467426  0.0836886708656995  0.8318651717944326
  0.1653199537385331  0.0837903151323966  0.9151040302190317
  0.3312572302332666  0.3332696352325884  0.9990387011383691
  0.4139729460850213  0.4987227257504176  0.0819881748789369
  0.3309299003681597  0.3331166422338189  0.1670020639367108
  0.4163486327064717  0.3328644923732601  0.4169901712103780
  0.4151154129039851  0.3326902353259649  0.2486044427087961
  0.3332952107161730  0.3343656904471939  0.4993278786168935
  0.1668594286764833  0.9999306312465875  0.8313763704508160
  0.1660492481354906  0.0833117393572794  0.7478810752989942
  0.4159013612648619  0.4161260681925580  0.3341350395185923
  0.4143360582542476  0.1666471252301391  0.9168807794094468
  0.4169348311143039  0.4157401974362233  0.4996037654682327
  0.3315675160491761  0.4161323695441755  0.0833881530773848
  0.4150039891452762  0.3329656744104315  0.5835717290939112
  0.0005282798151022  0.9159462856653615  0.0829834094490029
  0.4991985974224718  0.9180830081497668  0.2504234128879714
  0.0834222065869746  0.7493755098247534  0.5005314698238594
  0.4983464812322304  0.6666894167824788  0.1668318916051775
  0.4981960682729057  0.7483846344698385  0.2505322551064590
  0.5830640518069935  0.6660696814608016  0.2495975787480745
  0.0848989499215344  0.9166317243444111  0.1683717332967096
  0.5816201051042516  0.7505062853890355  0.1667024147806579
  0.0842563480674425  0.8331778263373895  0.2512828644760911
  0.5003862223408087  0.2498216967424638  0.5846959996727485
  0.4155537433310393  0.3343331915272074  0.7488532475069372
  0.5001796673066723  0.4162355977795943  0.7506056899988194
  0.5829123689683099  0.3317388207811728  0.7509306954397528
  0.5827366073365402  0.4162216459198148  0.6669347779570410
  0.0827812569626781  0.7503412574849733  0.8324727979172787
  0.4999090587959333  0.4148809789325146  0.9168902232409724
  0.5827056903369738  0.4150979035128053  0.4996371211256285
  0.5827552407683111  0.3311584326926722  0.9166220095592333
  0.5823646452586663  0.3319592920940885  0.0834266994704479
  0.5828890430830844  0.2488536245112197  0.0003382231734976
  0.9992632024126588  0.3334262626805474  0.3343637691272944
  0.7486895233406721  0.6650341448315293  0.0837982702731994
  0.6651620914144699  0.6665951958041375  0.9999618760204823
  0.6650374745711094  0.4999323098533724  0.8328368212303855
  0.8336725886795786  0.9995271926023390  0.9994531181029523
  0.7484595922454985  0.6666655939837611  0.7488774778886484
  0.9985837049780606  0.3337325986407075  0.4999126422347390
  0.8348561437361333  0.5016647215420581  0.9998981595444614
  0.0825552585670606  0.5008749777844884  0.5822899458749040
  0.7487882023677369  0.5823486160701281  0.5004835418351740
  0.0835750992820379  0.9993200243003225  0.0843332335606568
  0.7493715938970623  0.3323136927691666  0.9159191781856412
  0.7481584732275606  0.4164537572713626  0.3346192490300404
  0.0835531434825610  0.4995101486752627  0.0839595403348560
  0.0004603136291365  0.5836478632565257  0.9161824221941914
  0.9167894302722841  0.8329997225879133  0.7484537967358552
  0.6667125273508124  0.1658857919035073  0.6681556023246491
  0.7503165824814305  0.1661763324904083  0.5838479021926304
  0.0825405443568719  0.5004430184561781  0.2511480932995848
  0.9990588458115623  0.9162893201850980  0.5828969735141005
  0.1666371145795671  0.0000302730638153  0.1672632260479115
  0.5820315307913394  0.8341272654949874  0.0831564273765671
  0.2484380654726136  0.0837288556271857  0.1662075068086035
  0.4168867337811736  0.6650293530718947  0.4171039090402748
  0.4174238554741330  0.5810888312724343  0.6669164270843569
  0.4156390153478962  0.5823322453845164  0.8332742353467486
  0.5016899263863778  0.4161292089863676  0.5834437017997323
  0.2486733545626114  0.0007936049043944  0.0830317786040124
  0.4982007466389183  0.0002029189334324  0.1666082426400250
  0.4994815231865867  0.0835306384336269  0.5835118389360872
  0.5823760861713337  0.0005491506348595  0.5835977836038783
  0.5833094241483429  0.1667204126013131  0.4151361221592188
  0.4984838300720671  0.0009048249708073  0.6662525901313915
  0.4980612102866629  0.9999921786035341  0.3331699322418334
  0.5810623370837644  0.0843459215953651  0.8332871267773306
  0.5827892347496806  0.0836845499920353  0.6679865505900775
  0.4983453138373561  0.0005147963151077  0.8324763933125650
  0.4986859705112503  0.0832194898035928  0.9166510098482813
  0.8323197736211851  0.7502260293384621  0.5838243448631751
  0.6668443235302799  0.2483287178139763  0.4158316460566642
  0.7519423759487253  0.0830147222548614  0.9981518655685461
  0.0827689961396204  0.0836747687356458  0.6651205626337506
  0.4140853989793050  0.0005380481752957  0.9161752808206015
  0.3328466376125471  0.4981855479025425  0.8329460713418163
  0.1656377178536016  0.0838880948460339  0.4184668529313983
  0.4160325735092065  0.7505930031908988  0.6662784849148253
  0.3352266550592062  0.6658136514971850  0.8324906116806856
  0.3340714852846104  0.7507655585845782  0.5828908992731641
  0.3332798256064362  0.7500848160875607  0.9171365757995130
  0.4152200134755948  0.7499585806895507  0.8333340571156237
  0.3320729332002776  0.8342900453478280  0.9999255640952250