Cr  H Ni 
 1.0000000000000000
    21.1200000000000010    0.0000000000000000    0.0000000000000000
     0.0000000000000000   21.1200000000000010    0.0000000000000000
     0.0000000000000000    0.0000000000000000   21.1200000000000010
 Cr  H   Ni 
 259   9 605
Direct
  0.9985194012650752  0.0000269823831225  0.0014070359626650
  0.5830134650603372  0.0821861439936728  0.3323474189201880
  0.5819833338003502  0.0844037107099147  0.4988540397567164
  0.4989020261829089  0.0809028318834732  0.4153355773057756
  0.2485881126467112  0.0006133424268629  0.4159785454096113
  0.3309661733936287  0.8334456148951959  0.1653864285902128
  0.3308079835043915  0.0018755624579792  0.9993281716886756
  0.5828799076064649  0.2513611966187707  0.5000968577809776
  0.4150069325549278  0.2501238486739192  0.6680401088291559
  0.7489001193658430  0.1681722500933091  0.5826884699575662
  0.4120726860632127  0.2513144880760415  0.3364074632600539
  0.4162323671042258  0.2496966895990310  0.9998811113502397
  0.4977193625967927  0.3335558508452787  0.9999875524799094
  0.4995045572136002  0.1658144792465527  0.8325495559475290
  0.4994666455165492  0.0010119642394192  0.0004260621654968
  0.4962303527420743  0.0000253525215805  0.8311365953640655
  0.3325179708358735  0.9192891549506381  0.9183925827352192
  0.4148099290305446  0.9156420614088575  0.6640779292934772
  0.4157638699601845  0.9139864684781978  0.5033695799982674
  0.4168640327983453  0.8331708430371921  0.5830340370410860
  0.4139598956878482  0.7482564273162446  0.5006718472549668
  0.2485935206118321  0.0803982480848391  0.1660996447043637
  0.1676875347291432  0.6659644027792063  0.0020566560605756
  0.4139920713440306  0.6671823817099949  0.9155290510094382
  0.7484612256863520  0.5020336702256054  0.0867174341388565
  0.5807790175006723  0.5000308021064711  0.4158681832894514
  0.9174895243418008  0.6662223026640016  0.0821379297128900
  0.5817441280233415  0.9137229991075341  0.3320447500566424
  0.2505804990608840  0.4989572853070385  0.4170452346412399
  0.4141679318519882  0.6659960239097191  0.0834524200457436
  0.2438421968601466  0.8326785130265083  0.7480561785443097
  0.1662185722682150  0.9182196745796478  0.9180393437886400
  0.4145132378985845  0.9153568330579428  0.3327486383588601
  0.5782252900593740  0.5808701895131096  0.0004979078204123
  0.1655814521393004  0.7484153667981849  0.4173288935090889
  0.5807564540438463  0.5000443187768762  0.9186381415509705
  0.4969183271926536  0.4160509662204180  0.0850620028622359
  0.4987258295364272  0.5833500462633538  0.4171241359579861
  0.4984699776434274  0.8321597424594067  0.3338101594889246
  0.4161603832178286  0.4180594104707618  0.3319570944644916
  0.4982971525786574  0.8319639039689444  0.0004734502394894
  0.4985094292418599  0.3334679461359731  0.8319401690777847
  0.1661206055147992  0.6667796512744391  0.4991106501548385
  0.4959940297060398  0.4162829500786646  0.2497936274334101
  0.1648773654235931  0.5803614041908907  0.5832916789062984
  0.3311903421200756  0.6662235416642730  0.3334347706079019
  0.4994074158366958  0.1692719755472511  0.0008437109549394
  0.5791582977183339  0.7483002193407510  0.0001889110727571
  0.2479811659734165  0.8341530848985075  0.5827916292754092
  0.5804355700820856  0.4993340622449291  0.7496261121999791
  0.4151218197646648  0.1675671665877222  0.0822134045794485
  0.4162941325873972  0.4972725401425314  0.0825943602597732
  0.3307437550871032  0.0025615636676264  0.1659843824259272
  0.4948930982859931  0.4997151611321721  0.9979168344399802
  0.2492009494051252  0.8324516889168553  0.4158843762583203
  0.7489424657201947  0.3344015478712508  0.5821724595429957
  0.3329622324403035  0.8340606223412258  0.3330523121371903
  0.4998810893223731  0.3325960509271689  0.5002450091677149
  0.2485493199923873  0.5837270021799944  0.8332381668995682
  0.5837160236757536  0.2507777623309316  0.3311850489908560
  0.1644251852629449  0.7501629093945205  0.7487590849544460
  0.4151119907650078  0.6677040065940004  0.5815984132053574
  0.4997468184256492  0.9163265241336139  0.5830090225861427
  0.9171984039949715  0.5014627503830715  0.9157235252895710
  0.8324470878755851  0.9167903846881588  0.5835174708537567
  0.3325838253927496  0.2503432748946014  0.5826648392643000
  0.3310600138712146  0.3346166762846151  0.8334275948244455
  0.3319823324762590  0.2502477060914080  0.4166444018611868
  0.3321562572007999  0.6657937704897190  0.5008770839190705
  0.2485925894558738  0.4161662283607001  0.6658525181171260
  0.0855004963114004  0.6668794760072634  0.9183001884839157
  0.1662729425602446  0.5842640019188451  0.7490547807199389
  0.2486042813367047  0.4168294089006100  0.4998487388372020
  0.9162455780372297  0.5843857738577123  0.3328007605474007
  0.2499468385262820  0.5829680783446202  0.1661640455093160
  0.3298150305920758  0.4168500931975567  0.2492849878868585
  0.4175247116643012  0.0841428309661591  0.4988324233197553
  0.4144650377214875  0.0008368858019124  0.7477881461205790
  0.7479589804737172  0.9990191656119431  0.9183862954064799
  0.4144715885620928  0.4982194583639851  0.7490815981292023
  0.5816977353791228  0.0003238012995222  0.7462420241827636
  0.6655334045068542  0.8328983138891054  0.5012306877534817
  0.5827109481426745  0.2514711834616312  0.6677028463088348
  0.7489071984691874  0.8308786119184919  0.2488953292907388
  0.5799681049050505  0.8335978236380656  0.2502064129390529
  0.6651000979264090  0.4169376746367338  0.2498202827539563
  0.2490283331722978  0.3331823854472778  0.4150092794104440
  0.4148358676560419  0.2489142940260077  0.1611542164916295
  0.4146690290320366  0.3323987280786925  0.0830770567522915
  0.3325509558321108  0.4978520672389877  0.4988828820962153
  0.3323213796936078  0.0005277364909452  0.6659799246587575
  0.2484843413183472  0.6667017486612722  0.4161599548721184
  0.4995956201835319  0.1666052765635435  0.5019694636154589
  0.2463942302177599  0.6656515200630666  0.7492042852991885
  0.3316458087161284  0.4148291877886455  0.9143132699360921
  0.4140992001897923  0.6662148693412112  0.7498075219486000
  0.8341501128628734  0.9160727840468987  0.0826086332726175
  0.3309143551284061  0.0820478533540543  0.9174104214305018
  0.9979805854492779  0.2494190030974246  0.9178735280772020
  0.2514740598780389  0.8346976185689676  0.0849041550810307
  0.8320885318495064  0.8319500713777116  0.8321753894675183
  0.1646307695794442  0.4993341313744605  0.6650575871993238
  0.7495867278027484  0.8329463736017262  0.7496262891768064
  0.2494665935397250  0.0027742660352153  0.5833483920077203
  0.4136184299823470  0.0835060554531338  0.6678178845027588
  0.1650991955082600  0.9168573505865408  0.7482687301496679
  0.0825448443534143  0.5824860398304242  0.3339566261497141
  0.2483579210344100  0.6657421248296967  0.0845361440904577
  0.5836330291629271  0.9170779917289703  0.6665025644846468
  0.8320798377054004  0.2506605400677412  0.9172194458733005
  0.2482853364370580  0.0021697535394261  0.9179036042895703
  0.8306400240944406  0.4195899720303695  0.7504959668444176
  0.1644644749840563  0.7491482161226858  0.9196244866208795
  0.8317354242347951  0.4175219621147508  0.4147553528517117
  0.6646351757416374  0.6668010166881394  0.5000006705922656
  0.9969860852016106  0.3371066325924636  0.8339717720215687
  0.7472684670673494  0.5851316209087317  0.3318341702415818
  0.9158717000973315  0.3333263837086881  0.0846710600145204
  0.5842207130558851  0.7477460169267635  0.4994679742517927
  0.8312988628511064  0.2506873843550173  0.7507061458744660
  0.8320999572446008  0.7483988077865921  0.5841773765333593
  0.8304123446006565  0.2494742590360927  0.5821185685778255
  0.8323886454835416  0.1673090916874520  0.3323245497460043
  0.8325722889456875  0.2507804272760437  0.0826093257168389
  0.9986189548407932  0.0843051432257056  0.2514157104413499
  0.9998413572169186  0.0016569004671642  0.8320311791587232
  0.6677335119612891  0.1668667017423003  0.8323747539279980
  0.0817438435460348  0.0814579804725822  0.8326280625939460
  0.9138839640212834  0.8332292168657470  0.9159250982058486
  0.1656396025940165  0.9165050226843602  0.2503380554819045
  0.8314486665203784  0.9166054005777021  0.4152240562515362
  0.4993903813702900  0.0019822144151181  0.1678577092023280
  0.9169200824125351  0.6660710847024418  0.9173795828884146
  0.6640462136475784  0.5828079461641258  0.9168281244086761
  0.9168972666308418  0.6652160253166309  0.7482632203551887
  0.5812463871828695  0.5813827898165626  0.6671817156666889
  0.8317258249117939  0.7491856407461013  0.4168435709028210
  0.6629300493409485  0.4189808293801293  0.4164131678169271
  0.9164034861569862  0.6647131473743070  0.2515820243831438
  0.4978332325353422  0.5853076940393972  0.2502988564224436
  0.7450973255846686  0.6673857321448389  0.9180232868570977
  0.7470939808444054  0.6675609379772863  0.0845798845639922
  0.9138201714355196  0.6668580044369714  0.5829002888770775
  0.9172788623165424  0.8348880610368420  0.2511176473497699
  0.9976936350725513  0.9163371041930249  0.0834063049726396
  0.9983614667319859  0.8333812706041953  0.8305935662571647
  0.9156285003088078  0.7500997769724774  0.6659748819212834
  0.5805131141254775  0.7514398024051705  0.3330413661657597
  0.8331299562574129  0.6654508985109503  0.5005735230234396
  0.7488351710163689  0.7485863079889451  0.1663767458314168
  0.7480040698709809  0.6657981960797176  0.2501720923924544
  0.6640429035316574  0.1677695531286746  0.4994205744969878
  0.7479350903609573  0.8330145231769253  0.9178649409049248
  0.6660579118567788  0.0839606680926469  0.0846048659239619
  0.7481574690355893  0.6651227215552227  0.7485709901014178
  0.5832301579399432  0.2494321034569877  0.1681050173989035
  0.8317412214294583  0.4185213297229538  0.5835158738247634
  0.7492862451442429  0.0831038793155646  0.9996935096374943
  0.0831508899623798  0.7520543664867426  0.1673494496918157
  0.9142607205095469  0.2515589755364495  0.4989095657859542
  0.9169432075566285  0.5841729955343424  0.9994150361420439
  0.6663512836998787  0.9998992253765131  0.1676987681064386
  0.8319251763213236  0.4176480327164008  0.2506413057699363
  0.7500401344106705  0.1677834780154590  0.2524083132589988
  0.4989282759361881  0.8324895617560711  0.8356290519348720
  0.8323080318054487  0.3355217793123268  0.3321150108873817
  0.7493439265525232  0.4165937396094672  0.0002450924257428
  0.5820506172566841  0.3347276007603379  0.0837406370214815
  0.7501266491203763  0.3333577498155537  0.0830696847901787
  0.7477297479124771  0.9166688143261358  0.9971077475909881
  0.8317166510066568  0.0831579309934348  0.5826201973688100
  0.5828410827022521  0.1675102139392021  0.2498102031809456
  0.6651877896785560  0.9999524350362610  0.4995720532931689
  0.6636796173469859  0.9983668117351298  0.3300527422879190
  0.5811972096247878  0.9995159593699082  0.2503139609497517
  0.7474228033052770  0.0030969033661385  0.0828772428397447
  0.8304454596877118  0.0832294863429382  0.0837742859465238
  0.4147322285843847  0.8342048541735918  0.0837149327161661
  0.6641649161896795  0.7486602225398999  0.9166129707394480
  0.7480190091082356  0.5818056457303470  0.6661217450603918
  0.5811596237291566  0.7498812434777886  0.8338933537411349
  0.6649540087521765  0.6654254224119053  0.3320127836880385
  0.7474936964883608  0.5833702457374510  0.1663938935014527
  0.7474084354807278  0.7500262040521363  0.0001241346140564
  0.7468218766330411  0.8295128747156032  0.0832302042395739
  0.7478578112320984  0.4992851793915932  0.9182658010908979
  0.7483423441942291  0.4998264810942208  0.7491461740455060
  0.5834551345444620  0.7490314465860066  0.6670784436536941
  0.2484866072164961  0.2503569552308407  0.3368600650238882
  0.7491923959092294  0.4985299978863548  0.5826662875976505
  0.2463647255480414  0.0016412228491791  0.0844198204685256
  0.5790052120954596  0.4976257091405968  0.0829139159316373
  0.6638175729453658  0.3338278427794140  0.4996551143411285
  0.4983255095007911  0.5825533580766875  0.5834222955869133
  0.9134827598393079  0.0829271688269714  0.6650535448089785
  0.1649292866721932  0.3322352293513449  0.8324846583975153
  0.1663223171136090  0.4162723960076575  0.0841167371671691
  0.1653834830564883  0.2486172141447738  0.5813186085770720
  0.0845340824468857  0.6689244998131979  0.7493304815685902
  0.0823507991503422  0.2499318024009821  0.3333778587332534
  0.0844564242935681  0.6660082215792072  0.0822457222244640
  0.3323029848784381  0.2501299954141420  0.7502340031160080
  0.9162725728705980  0.5832384732616079  0.8352533053628721
  0.9153622764896184  0.1663638268468176  0.0843638108155661
  0.5822145659749189  0.4161410663504430  0.9994308504921808
  0.6662910271909985  0.3344845485507096  0.8326382648576847
  0.9170079782069775  0.3347074442010164  0.9155089538851034
  0.1677939786964459  0.4165674669013041  0.2485989947985088
  0.7501854299397583  0.2508392585741759  0.9999013863265923
  0.0815317192430590  0.8324441743370820  0.4171823078864625
  0.5815595277107919  0.2513986793897990  0.9999313309659118
  0.0812149176213489  0.3325590310295430  0.4158137016556042
  0.6658061278527629  0.9153272513384760  0.9170960500253956
  0.9995671976669307  0.4995954300379472  0.1670950604707805
  0.7493828967238989  0.1677103417366207  0.7498750307088101
  0.0000733777845433  0.4177396411677191  0.4159928549948560
  0.7495476293579487  0.9998363879983613  0.7499364602574418
  0.9994874785904675  0.4175905194816072  0.2483234985577267
  0.5843102640272371  0.0824451509105616  0.6681126089474354
  0.9985955121564458  0.4167508709913790  0.0833017241589129
  0.2475662085858856  0.9999834835823137  0.7501988466533356
  0.4153907122647997  0.0820796868449683  0.3346753293196378
  0.9981879282283926  0.2493118555402151  0.7468408821344060
  0.9160944702016589  0.9159595206118581  0.3329778923642623
  0.1633733204009735  0.2500685900230089  0.7491067329059410
  0.9982605888315174  0.1665040757080486  0.5002922827482648
  0.2479907473046556  0.1675427228862690  0.5831714853613686
  0.1635631230452935  0.1658438689702264  0.8320213945940880
  0.3315122512170037  0.2490170146933424  0.9157520320856036
  0.0822149226828227  0.7492915910125321  0.6650152796168529
  0.9982456451638801  0.5013220033005537  0.8340612585689339
  0.0813294279092494  0.4994023871360715  0.4157164191038468
  0.0804661014538735  0.8329669768915099  0.5829809685523316
  0.0814544681483098  0.4998361526947012  0.5832308637057257
  0.9982637350739395  0.9167015911764230  0.2505653983725814
  0.8315844974998831  0.2505107046139152  0.4152328885003578
  0.1650151575695208  0.7510922615161906  0.2485653549542587
  0.8325616026906566  0.5009793461489025  0.1657713814894026
  0.9982934412721617  0.6664008198518949  0.4996135768876003
  0.1648894792529330  0.4164671055462356  0.9164162126643249
  0.0801062145077977  0.0013022879148144  0.7493824953653742
  0.9160103244458044  0.7473202081867878  0.9993753213287043
  0.1648230807465229  0.3337006018009959  0.6653284370550906
  0.2483118914936874  0.2493303332858681  0.9970397140379418
  0.0806949430370930  0.2496173798172585  0.1673502309425763
  0.9991786886902468  0.4185510312543937  0.5828769236092491
  0.2477075625897459  0.2485904081080678  0.1666317266064993
  0.0817195750595139  0.8319785718324069  0.2495420026464786
  0.0810473764930487  0.2500831826255300  0.0002797812878894
  0.0000766569187197  0.7490410954351734  0.4179448433970520
  0.1656993749246681  0.1678302769087978  0.5015302557142604
  0.1648840906120724  0.5835571980114809  0.9166893930831075
  0.2487777760312400  0.4179893410422247  0.1664895818904621
  0.9142192005022366  0.9168633211194159  0.6650609341820987
  0.0838902601811422  0.7510780167933107  0.0027425401064502
  0.9982160176104884  0.1651740150146972  0.3324447702036183
  0.9973562944327821  0.1632907447114361  0.8321594843254047
  0.0807273189870281  0.0012364435830610  0.4169257845940897
  0.0801541935083564  0.0820426934494491  0.9999671231900855
  0.4986108831108607  0.8323346910430878  0.7463497514283677
  0.3348859341761825  0.8326554597620027  0.7514702122896005
  0.5853110671523120  0.0002371730566206  0.8353651065675884
  0.2493833230131413  0.8327125404115017  0.8382990040801003
  0.7477675147781250  0.9163432368331057  0.0840653069660454
  0.9982483660362036  0.2503866619910248  0.8339555921873024
  0.0021185341181870  0.8347111193705649  0.9193258666505980
  0.4145272145823234  0.2494267472736380  0.2487140152079907
  0.4981885904982137  0.1687824831722956  0.4141661105340997
  0.6653086067835966  0.4165767398384468  0.5831725394563512
  0.6660067136619950  0.3340531170292031  0.6667438993391809
  0.7483905593008192  0.4173036943899007  0.4987584449795811
  0.8312045468234865  0.5838650157303958  0.9178513332483540
  0.8319421094393826  0.8324780955708202  0.4998608188653207
  0.7497665960895096  0.3340656332524180  0.7502808606344338
  0.7487864440296017  0.4174304110559895  0.6666185408489107
  0.7493506199377356  0.2512215358039249  0.8333726448804634
  0.7487708121486141  0.4175722852910548  0.8337089928609818
  0.5818570328010133  0.4173256208532227  0.6674710703261451
  0.6649073743388955  0.4173084932946673  0.7502005412180131
  0.6645566202005092  0.4997368907011525  0.0018145874183230
  0.6650004324131218  0.4174131568425012  0.9166702452583461
  0.9990742209593844  0.4174455083793642  0.9170861582642779
  0.8327455533723291  0.4171102412658603  0.0830639308946314
  0.0825100926564317  0.4164975247098834  0.8327936856274536
  0.8323747881797439  0.8319486256416005  0.3328831008514864
  0.7479582786957382  0.3351268855582526  0.4159232557922120
  0.9153985532024596  0.9167994065825793  0.1673034359910437
  0.4965289175961976  0.7491397165833426  0.0836455522996396
  0.1661489183682213  0.5828549553869655  0.4172661894734279
  0.4987752402491219  0.4167355390848850  0.4161155215905207
  0.9989080934765785  0.9996190150393156  0.3335770248033278
  0.5808556076641342  0.6672814715513250  0.2506658431454674
  0.9999260185942990  0.6670099502326039  0.1667426698944963
  0.5811049469656043  0.5002721961485297  0.5835344160414172
  0.7486134770251411  0.3353112739161794  0.2505495656470381
  0.6647551292057614  0.3355015600212210  0.3326993221143469
  0.6643136793811375  0.5007902613132118  0.3321198739710149
  0.0828902145413189  0.5825373975517337  0.0011010697406957
  0.6633720919118362  0.5830838692564193  0.0834778565391262
  0.0811625248837204  0.4163378712278864  0.6666976130670061
  0.7488588585831893  0.1675192681604285  0.9165057846968192
  0.9146127177069817  0.8328717709324823  0.4164945696592153
  0.6655136510889516  0.2510542085169976  0.9161315698377421
  0.5793288250506812  0.5820347179964490  0.1665527486255541
  0.7492974369185638  0.0835752415421646  0.8333177942790965
  0.0821436919964396  0.6658324059190950  0.5821598724579709
  0.4982773917575244  0.7480665414111758  0.7494728474940497
  0.5819237726571118  0.6660254643149147  0.5838226471286582
  0.5814833184092928  0.6664858017622985  0.7488656648319810
  0.4995443717662155  0.7492479585473941  0.5831340710717643
  0.4970490568476912  0.8329637644597031  0.1658445741602826
  0.0829711368907328  0.7498628737464546  0.3333128960357020
  0.9987975158693064  0.6667119720710791  0.6658591060043035
  0.0826052722642351  0.6665305287549025  0.4169500265047451
  0.5810679323998144  0.5817895734953539  0.8328945773295372
  0.4977870323985530  0.5004645326863750  0.8325337055821435
  0.1660443349110558  0.4994235636160448  0.9999111427919087
  0.5793024365777460  0.6654811843632995  0.0828875110729707
  0.4985357895722728  0.6666337943898660  0.3336787622039656
  0.9157655891411272  0.7481465357999755  0.8330327503101858
  0.4982930239940517  0.6661503164955505  0.6663241504726131
  0.4148120033705748  0.5002908588450512  0.2501463846364962
  0.4153848465171572  0.8331432572663636  0.4175181705431398
  0.8332579362492171  0.8317590516361371  0.1664124415317215
  0.8320666528689079  0.9147179497388828  0.2502596925418030
  0.0807519246770735  0.3332443870821323  0.5831480488957363
  0.7490169438022541  0.2512406401007269  0.6670180626390515
  0.7485650424353717  0.2513038564173898  0.4985640311202063
  0.6656401126274007  0.2503440497548640  0.7503630338403215
  0.8321405047658529  0.8317621903105284  0.9994918388182976
  0.7498182956673057  0.0841864172323501  0.1674793780427802
  0.7481743771165368  0.9993515502443395  0.2498409041099909
  0.7480985327494543  0.5003156341530496  0.4156372726768359
  0.8322337968646363  0.6667815212088051  0.3329540298491924
  0.9969239658640794  0.3337709433999496  0.6654421591796369
  0.0828978271401934  0.4161878998334658  0.1666714902345054
  0.0813062520013541  0.9995996446486342  0.2504598775088989
  0.5817777618880030  0.6662495365918404  0.4162669772064306
  0.0809998676055806  0.3335832144533951  0.7493412962153901
  0.6636566288616539  0.5832695463169403  0.2484135987305981
  0.7482026102576916  0.0828310590108829  0.3326051049333534
  0.6653570052445993  0.4994129503314099  0.6666998992201715
  0.3320281273156393  0.4995363952270674  0.6668851549281979
  0.6644268072214823  0.0829278142917321  0.4155440059666594
  0.9987459953897078  0.8329349033196095  0.0021875812893562
  0.5836585397949506  0.9164368331148620  0.5004218514907355
  0.5832156447385994  0.8319674628473093  0.5829482473580332
  0.5000001642649287  0.8316218979366342  0.4999636980975781
  0.5807731777928083  0.9171848257421321  0.1666290055096719
  0.5824142139606887  0.8326683955576505  0.4170893659880138
  0.4985416535943140  0.9158578085733374  0.4174397558064147
  0.6654578345126198  0.9158827882888327  0.4157332056666670
  0.5818815186988702  0.0011686217631818  0.0844936774762484
  0.4147405327543061  0.8333800156955813  0.2495266105340758
  0.9986540001881238  0.0837774790813724  0.0835759011366795
  0.8323572021437663  0.7486881128672969  0.0831852424673652
  0.5809946385178297  0.6657586052190643  0.9168798986661054
  0.0830821103391489  0.4997007755218719  0.9161889222399408
  0.5833755688612988  0.8327343615915985  0.7494517773495583
  0.9994031851880362  0.7491325346433551  0.0837426810543821
  0.5815104766533903  0.9154402845275291  0.8332337299742658
  0.4966064294125370  0.5837680595844006  0.9152441812090139
  0.1655002567176330  0.0832359549916450  0.2502436981794919
  0.3321936620501062  0.8333407258286887  0.8348257039046709
  0.0843763174197139  0.8344422593161405  0.9176731430741156
  0.6654085807803535  0.0836362405865249  0.9167968786678142
  0.4162926204772260  0.8339201587355274  0.9176188726126946
  0.4150656054781697  0.0834151682675739  0.1657253950399164
  0.0823601253249207  0.8334598810166176  0.7485206742777387
  0.5816378440572002  0.5827979395694128  0.4999859216800919
  0.6643763126153718  0.0003457610981032  0.0005927776771014
  0.4978526738163926  0.4998573574595435  0.6671858068075492
  0.3322255648863170  0.9995215650433873  0.3342649178230000
  0.4973567040360528  0.5829454690490858  0.7494117557158628
  0.0823340621533382  0.9168593549720753  0.4994041700411462
  0.9999379787691107  0.5843336828521102  0.7499410340056557
  0.9984616367710858  0.9169615400380912  0.7491812937340263
  0.6644876753241448  0.5822145846278810  0.7501395193995727
  0.6661657407294574  0.0841027722385255  0.2489691364872135
  0.7490110412646440  0.9162504378642776  0.4994229271487553
  0.0825145078680687  0.1663667784008681  0.2502178622400267
  0.5821958946666943  0.9983692722035498  0.4159501807677538
  0.0817152945193468  0.5839841140614846  0.6663455747378745
  0.7478155413945997  0.0837839919785257  0.4987878303170444
  0.6671094511168151  0.0003537019320631  0.6663648587002780
  0.9982734560755383  0.4176322375027542  0.7506791761714893
  0.8317204383687529  0.0828218926903889  0.7497797577001272
  0.0818961199787113  0.5824599928890224  0.4990125155934929
  0.9990439045196992  0.5833954694737483  0.5828622800030785
  0.6683741547088614  0.9999612288659865  0.8325037016561306
  0.9144387869674414  0.8330539382293886  0.5828935386674201
  0.9985240482540352  0.4995651012897260  0.4989259017592391
  0.6661788449900822  0.2507310396265146  0.2500784144456252
  0.9994717392308921  0.4999704795603557  0.3317466687886889
  0.9991804080160558  0.5834969482660964  0.4156345389554037
  0.6656275198107402  0.1670308456499759  0.3321463689498206
  0.7476559448737494  0.9995067037220526  0.4161210596828531
  0.7502967553676331  0.2512706240651243  0.1671292754988474
  0.6674497815618917  0.1680520819199717  0.1667108867792170
  0.7484129776892253  0.7490039444464890  0.3322278208658881
  0.9155761456863774  0.6665189050030140  0.4168185787973267
  0.6654000300467913  0.3337328829388441  0.1669268293981722
  0.9157489568440017  0.5002672277607060  0.2500683149779512
  0.8322833090958244  0.3346576682823251  0.1671191566588510
  0.7480441026394539  0.4183031936537051  0.3331405725418278
  0.9163713784028540  0.3346710287574987  0.2502437883198885
  0.7491181886396650  0.4173654834629023  0.1664751544079492
  0.8318397274292494  0.5003538207171593  0.3322341021622010
  0.9136288915197028  0.9161739379227181  0.4989122110717905
  0.8310863025826088  0.9997525585873445  0.8329956436687972
  0.8323241085195978  0.9168602472371020  0.7498247503684913
  0.0827613509434637  0.5831725644028345  0.1663955881148182
  0.7478014071037071  0.6667478353201979  0.4165702241415611
  0.9998502396458788  0.6672217266473676  0.3333239272858002
  0.1652375603865686  0.2493002290853764  0.2500629224832463
  0.4990756966624230  0.6663065715996381  0.5004570763660692
  0.4992371658476728  0.2498601907796602  0.2496637964136815
  0.7480138551270431  0.7488766071559525  0.8332794280197988
  0.7487841724798614  0.8325730319133575  0.4169057137281146
  0.0819098699450613  0.2498372459147952  0.8325173852991496
  0.7489025631003727  0.9147371606654827  0.1679092788396059
  0.8318071402482139  0.7482761498636560  0.9161427320113770
  0.7490636212053490  0.8330826110570848  0.5828064331717850
  0.4964462768253051  0.6656955513578351  0.9996295217118041
  0.6661382778996666  0.8327298171468469  0.6668302525556306
  0.8314993187261480  0.6657763253844191  0.8334775651244193
  0.9987129175772681  0.0841434178365845  0.4167588582106352
  0.8320910492040371  0.8330468618692691  0.6669593488279975
  0.8314148053433125  0.5015435667774049  0.8345798603556169
  0.8322769725599836  0.4997281899572675  0.4990335742131865
  0.0816565118246350  0.9998814849472880  0.9169435521123387
  0.0831583467429266  0.4995567603364442  0.2495044722163026
  0.9151205600958850  0.2506063280277868  0.1672852432137606
  0.9152700141148068  0.3341094039199719  0.7496867772430446
  0.9149004233881342  0.4173004132048795  0.6668085313782447
  0.0830013322466398  0.6672420187227278  0.2492882488062435
  0.8326336336745187  0.5848325925427176  0.0827710349741349
  0.9157683996405940  0.1661930325301958  0.9167809522605351
  0.3316183956230561  0.3339858269634118  0.3319836408019242
  0.9142595463871159  0.9998441569384910  0.5822865950945585
  0.1652627951084646  0.0000835755427118  0.4992791175268491
  0.6653968416064008  0.7495696979289576  0.4159403584151843
  0.6659347591787861  0.7488186188395253  0.5838806617992027
  0.7485279897483934  0.6658257760573620  0.5826971371818664
  0.7486413117848654  0.7492471561914893  0.4996103266359598
  0.6649933736951592  0.6653993318927879  0.6670742987740143
  0.0827510130314364  0.3331612265659793  0.2491757343166456
  0.6626407581629408  0.8317311655835377  0.0011305821243480
  0.8324797836756938  0.7481106777455570  0.7499142924041183
  0.9995265566240797  0.3339803455313207  0.1663535420318324
  0.0825080681509301  0.4166605193144828  0.0001403623673595
  0.8315809713315607  0.6662328188962723  0.9999898023013699
  0.6644612501933357  0.6652969493388351  0.8323504449765619
  0.0828019942324916  0.3331087944936826  0.0837918914426490
  0.6629756299021592  0.9162973402114426  0.0838327878003401
  0.9142890289111038  0.1672987561088962  0.7491039350988077
  0.8320398886042334  0.6649143044224339  0.6672773311437267
  0.9145572274095460  0.0841370450948327  0.4993441453883665
  0.9160980980071313  0.4177606366831004  0.3325758039336588
  0.8315449167961947  0.3350841143125864  0.4987005213952748
  0.9994953373727476  0.2490705840374506  0.2506494275417286
  0.9156892614122800  0.5008811878819868  0.7510366060717829
  0.8341268465440870  0.3348835172547363  0.9994438862205158
  0.9983169142239672  0.1667950045896525  0.0008122451300817
  0.9154362024746282  0.2504808445753880  0.9997866385855259
  0.9155293800988317  0.3343967447997474  0.4152072703546495
  0.9151360577528578  0.1666282106249592  0.4163174655788670
  0.9151423217537692  0.2503640577474560  0.3332101543418933
  0.8313852778114074  0.1672796470606975  0.4990106709915503
  0.9139062865951005  0.3342569647590205  0.5827401701528233
  0.9149999624965045  0.0832590179099375  0.0007872580379993
  0.9137582364983848  0.1668982685855693  0.5824548537934465
  0.7497385126819042  0.0838748780697048  0.6661820384686404
  0.9987282223127869  0.1667224101028093  0.1672333839226223
  0.3303912248537996  0.8334977560651925  0.6645584996632610
  0.0805816062770331  0.1661482839585520  0.7484027756975313
  0.9136103579583231  0.2505253380425325  0.8328532058084022
  0.8317051917346941  0.1673019022305701  0.6661312741582580
  0.9157520030421330  0.9998332260900500  0.7485394054357269
  0.9151526831487149  0.7504838722345414  0.4992689909599799
  0.9981175299291548  0.9993120589273694  0.4992211719356229
  0.9158607151759030  0.5835779803454693  0.6663924650115088
  0.8324260302489332  0.0832889065023482  0.9163501645459553
  0.8317637875768611  0.9999422837034027  0.6659266839654630
  0.9163629266233242  0.0003571655451290  0.9165327468447492
  0.8326380447256244  0.1670491333870423  0.0001145956213642
  0.9973632477693238  0.0832682273054085  0.5825191684677922