Cr  H Ni 
 1.0000000000000000
    21.1200000000000010    0.0000000000000000    0.0000000000000000
     0.0000000000000000   21.1200000000000010    0.0000000000000000
     0.0000000000000000    0.0000000000000000   21.1200000000000010
 Cr  H   Ni 
 259   9 605
Direct
  0.9129639996196152  0.9995375655422559  0.9170801985403638
  0.5784674640078790  0.0840783658771811  0.5019232116528589
  0.6606672405549067  0.9984234484534249  0.3334828184935212
  0.3286265452609830  0.0000626844092119  0.3335757915639633
  0.3319072039015072  0.8340082689823303  0.1662186888136940
  0.3277899569971341  0.0015248994048730  0.8317251017413125
  0.6624922370357280  0.2495041598298398  0.4171396859085782
  0.4127847179695092  0.5011650067574600  0.5841364710618068
  0.6625688128479940  0.3334989344509772  0.6653784697231139
  0.3291802690219965  0.2485971714428878  0.2495152385069029
  0.4115041584414343  0.1674480270474521  0.9179679677963577
  0.4951729973946351  0.4152033490385071  0.9166564474910188
  0.4951236248389785  0.2499062734138467  0.7491122915624433
  0.6618305994405888  0.8333712299478588  0.8328499278504631
  0.7464542336422528  0.9974096710762486  0.2509320850156945
  0.4947271985122229  0.9187113382625919  0.9152891294952324
  0.2464627091021723  0.2494696076861262  0.1675042739618626
  0.0810037168497678  0.6679272741889277  0.0841920030116606
  0.4959558490890875  0.7505295230228847  0.9158438815812288
  0.5812346742221854  0.4998203770237938  0.4164679591562707
  0.4961162770689307  0.9996351921255283  0.3355827290749191
  0.4119580295613075  0.6658067117697115  0.0819475449392275
  0.4126749623325161  0.8329182396873397  0.0827997088846738
  0.4131149170496332  0.8326998885157366  0.7501466381595391
  0.8283810923562033  0.5862145942277014  0.2487135146382242
  0.4117571528036061  0.0005871894725444  0.4180058973579286
  0.1633116726350582  0.5819117612034644  0.4174061981268154
  0.2444274416851490  0.8312522283223232  0.5831223492041009
  0.4113103918034288  0.9148019626630687  0.5000738755638579
  0.4125215783339301  0.8324379257788845  0.4160193800304122
  0.1631978302632895  0.9156544292990232  0.2496568869027667
  0.3298556940202151  0.6666440381933351  0.9992966870677961
  0.1620714402259353  0.9163361082249937  0.9167898473185048
  0.4961698517191312  0.5830206956184604  0.9167347993635205
  0.3283273041089792  0.5000102377407863  0.9973643389678685
  0.4968344284296264  0.5842894739969088  0.4182043505920658
  0.5782714992324982  0.7508035675510416  0.1662275605922366
  0.4956893484799823  0.3355408350610123  0.3322267515331347
  0.4951269985790182  0.9175603700847977  0.0829256114305817
  0.4947650495229143  0.4155676328109185  0.7485741042899420
  0.0792939215492220  0.5831465104262025  0.4992565547093607
  0.4964399324785769  0.4160939641098623  0.2503397648730238
  0.2463143421945378  0.5835260827854514  0.6664436804713205
  0.3289998418056194  0.6651743867569270  0.3324161760565160
  0.5785417501336141  0.1662942343562054  0.9146490522229986
  0.9132882165826377  0.5841214450228783  0.0004389409149518
  0.5771349418551586  0.7514553232186064  0.9981488601304568
  0.4964532483065470  0.5826394585208625  0.7505200553955081
  0.4130190648422328  0.1661184714755546  0.0834237059685505
  0.4971138235651207  0.5006526010784322  0.1671933156831823
  0.3277817022557707  0.0005187562629176  0.1667125480544801
  0.4138540335656983  0.2498692485930667  0.9992850048613079
  0.4120302519130253  0.0827255392124437  0.5005358602537449
  0.7486271885967092  0.1666636712577511  0.5814462722317710
  0.4116450173788838  0.8324660705655269  0.2501578784902020
  0.4965028744460060  0.3344877614442646  0.5011107789702971
  0.1644242916321596  0.7497629470669472  0.7503741440266699
  0.5781585020331674  0.1671523513939389  0.2510575964012582
  0.3286212920895017  0.6662705709086164  0.6663219578783889
  0.4955915719491544  0.5830903024441892  0.5821779899526031
  0.2455324008252865  0.8322638382243269  0.7505529135658591
  0.4124448253077451  0.9175889390442717  0.1683000575837101
  0.9964814916870652  0.4999781400305645  0.8341146987595334
  0.2449087056384277  0.8320892952969767  0.4164795936847961
  0.8297212748094236  0.5847335317903333  0.0823300428138356
  0.3280484540222404  0.0008321026684656  0.9993611069753719
  0.4130040860122349  0.4162820987114806  0.6677335560466017
  0.9098756691590045  0.5025985866291199  0.0819188624389509
  0.2465162587069463  0.5825386420759755  0.8326205132831632
  0.2466818794222493  0.3324704295170016  0.5830918098016968
  0.9113669565588917  0.5024285926680973  0.2500683028437065
  0.3291617858826041  0.5832745861735157  0.2486057046706612
  0.3285088891409853  0.4997824374806678  0.1715225487442868
  0.3285458876424435  0.2510362949573109  0.5830745631887360
  0.4969207916562919  0.0825893889645986  0.5818804198367666
  0.0790214336773991  0.0821500238683376  0.8317704378679537
  0.4956984993188466  0.7493772286975369  0.5829466168580437
  0.3287635851513095  0.4992130472610031  0.8331336073029468
  0.5793995167239265  0.0832290433999935  0.8319790408767103
  0.3287064031308464  0.6666627195931329  0.4995925859813612
  0.5797555574402040  0.9154901486857169  0.5004408362436560
  0.8291010440736536  0.9151401631758597  0.2499190389109598
  0.4934530265529167  0.8332254739937993  0.1663811609960304
  0.6637868463858705  0.4168405777928549  0.2503348092573556
  0.2474255798711059  0.3315784462104285  0.4153810692465978
  0.4970867047249980  0.1662958247828428  0.1667029069059532
  0.4131846506336551  0.3328676910241190  0.0835080308065451
  0.2454715899004497  0.5006749149606662  0.4147275612537241
  0.4111430499424475  0.9143658783689319  0.6676353938013834
  0.1607593262123479  0.4154445351379258  0.2495454953823568
  0.5805715529461200  0.2517863657623368  0.4989396402808401
  0.3290296375970698  0.6657030343595701  0.8322729348014355
  0.2466918107271235  0.5832686670520463  0.0002009656407428
  0.3280468051763444  0.3328161808155736  0.8329702174570001
  0.5787704159912544  0.3339599597838611  0.5815361284035850
  0.3287118345403289  0.2504852056467912  0.4162831176033904
  0.7464829665359635  0.9995586786858655  0.9156047307363675
  0.2460014157980414  0.0010643675204139  0.7505302261266671
  0.8297108520514165  0.8322574979907170  0.8328014071810907
  0.1637333643464651  0.4164932906442118  0.7489442874593217
  0.7458243474440047  0.9993056507968198  0.5815617850921523
  0.3312745481374628  0.9982511589949337  0.4989453515480041
  0.8285995094240417  0.9155336337221304  0.5824445279608221
  0.4129859725912610  0.1670362000511500  0.4163034469922064
  0.9966056732455572  0.8321863169423761  0.6659658462322547
  0.1616734427758702  0.5849461152247567  0.2493070471050489
  0.2465585992651733  0.7502501578936842  0.0002379327241805
  0.6616397816561375  0.8327195840913937  0.6666174419952416
  0.7461520348719646  0.2495388612844698  0.9997317391098917
  0.8300534203958583  0.4178655542319304  0.5830966636597780
  0.0805858896379234  0.6677266188161139  0.9174724785467934
  0.8292725222688212  0.3344363321969419  0.4999010995028983
  0.5787604607191073  0.6659670586441226  0.4181200719276649
  0.9968261253815568  0.4194395020811600  0.7509959865378061
  0.7471080398237627  0.5841538324748251  0.3328802589403982
  0.9101940709115941  0.2499128712447524  0.0001020107245619
  0.4958568796577987  0.6662583086504288  0.4995987807646754
  0.8302840969774690  0.4167773818634590  0.7497931762068866
  0.8287046756904660  0.7482212387585289  0.5843174598840382
  0.7471398379386426  0.1674702033801145  0.7485725539488555
  0.8285697453147727  0.1663800910840469  0.3329920996254231
  0.8287904726077795  0.1645911772569068  0.1695464183919715
  0.8293954358054368  0.9995939253633402  0.5023601985325967
  0.0794765049198800  0.9147237444817785  0.8325495846412404
  0.5785297984834384  0.1661753472303218  0.7496742190601686
  0.9959077590680691  0.0822165691628062  0.7488454103131902
  0.8291380810072739  0.9140749432348808  0.0820104766082674
  0.4139682927192551  0.5010442235130488  0.4157007022783613
  0.1625621301763369  0.9160243640376761  0.0824176634469539
  0.2462589093136535  0.0816047697367634  0.9997257448356661
  0.9960397552040202  0.0823094203850251  0.4159103493493346
  0.6647763464090800  0.4979741605527739  0.9982256471480861
  0.9131370584441945  0.6664570665859993  0.7496632648792220
  0.6622514995459212  0.6660124775836221  0.6675331141342574
  0.8281207684916668  0.6655695888249159  0.3328042885495038
  0.6627565102105439  0.4179535143571704  0.4171003095723083
  0.9959752984374234  0.7504387610930772  0.4152996234122284
  0.4973950643640504  0.5831776454301425  0.2480568307881287
  0.7446273209552787  0.6667007416064583  0.9168768831549660
  0.6634240409174902  0.4167555987576505  0.9166900510665815
  0.9972077655535668  0.7504628349314141  0.5830232424403905
  0.9968999187980983  0.9976613501403603  0.1627351793152211
  0.9114425378563934  0.9148937860640615  0.9999167204085382
  0.9972350524938109  0.8331256926146271  0.8328402997154045
  0.8319750689795739  0.5004193475487069  0.8324605306073219
  0.8300473490033279  0.6670017916258376  0.5003412962778039
  0.7475800265213652  0.5855515511387460  0.5014733106776609
  0.7437507908311630  0.7501846249765746  0.1658275295187642
  0.6611604340593382  0.6673052257818950  0.1651257054308737
  0.5796584057296464  0.9993075679125167  0.5849031033815439
  0.9146699653538491  0.9995755727730861  0.7489899299569137
  0.7458378575960057  0.1661752987489933  0.2517653188999960
  0.7457804304562251  0.7500650067402104  0.8319127764217211
  0.8304671820879667  0.3353727625364902  0.1721909659611415
  0.9114531332644003  0.4994484584549946  0.5827130195189986
  0.6615417924191013  0.0819531025291492  0.0834175494447539
  0.0804443506774233  0.6677732656053157  0.2502232821272787
  0.9124477963902138  0.3337079372999911  0.5821023569875592
  0.0801819461935721  0.5003838818483262  0.9151595567074567
  0.4960509509798052  0.7510221086463922  0.2489374138988624
  0.6622137714129589  0.8325011897053187  0.3347560634952979
  0.8273811809870786  0.5843059063863035  0.5828746263002029
  0.7463898642625589  0.2499391209670206  0.3331803917287527
  0.8306683234289759  0.3318815820447240  0.9966948248138083
  0.7453219758725338  0.4169943375574274  0.3331623057855905
  0.7452018724495612  0.4167485118490941  0.9991317524310063
  0.4967420293569839  0.3333812320277459  0.1657314460809631
  0.9121491460868597  0.1648105458639508  0.2496043510477292
  0.6610705230553855  0.9172739549450333  0.0831356085412652
  0.8284079458131121  0.1661300181637500  0.5008817133039902
  0.4961300509258815  0.1673255255193259  0.3328102650447857
  0.7454791037254148  0.9140154362199321  0.4999493315958292
  0.8251285768647382  0.9166101346540894  0.4193349356714037
  0.5787428107837487  0.9984897380802401  0.0831722156467572
  0.8276287300759247  0.9976833612379248  0.1669510080715491
  0.9113149213486412  0.0807055240927633  0.9995772649300912
  0.3290969347056868  0.8328363101864963  0.9998607237726461
  0.4950010062396686  0.7506489657538393  0.7494513219105134
  0.5773180903223682  0.5821312583464548  0.8327343993463953
  0.8282792176946141  0.8344306126416531  0.0002755957418015
  0.7459783173273714  0.5842699783270197  0.8317233417798873
  0.6623023577421437  0.5005473430713006  0.6661613925467392
  0.4960902805561448  0.7489565566635816  0.4176469180018109
  0.7480890128007083  0.3345688572606910  0.5821056791147554
  0.5773372750058814  0.5817962962744018  0.9982442154075361
  0.7470847016645950  0.7481097073464915  0.5020171519065012
  0.5783595068288823  0.7510189773834859  0.8329498771308409
  0.6627323521083287  0.6667860002523663  0.3328342504943265
  0.2466805627274812  0.0812740628120213  0.1667165638885868
  0.5782867148264756  0.5823419341176970  0.1658299095326316
  0.4127028732400453  0.4171407783382173  0.3324126754885907
  0.6616431559495990  0.8344121951373505  0.9985164476721444
  0.5805205615778719  0.4170824303808174  0.5004762942883921
  0.5796007596535453  0.9989457507363856  0.2520940808425228
  0.2461518779255265  0.2494565607641167  0.3328439898081984
  0.9963762550042583  0.3335410380400441  0.0006206110902377
  0.9975633819396577  0.5809668927982887  0.7513264902311939
  0.0795004900758959  0.3339351761973324  0.2488834254374730
  0.0793740289096861  0.4998349954382302  0.0837343552091827
  0.4119701612159971  0.2510083751423152  0.6671585478997032
  0.9967000307912258  0.5834536399778257  0.9168336833732850
  0.9130903324916664  0.0821585340722804  0.6673149965263083
  0.9960320481140882  0.1652337293817870  0.1681652283088665
  0.6596489055024116  0.2480924010072673  0.0829952223780132
  0.6611107012598632  0.3328494148241753  0.8316904985462352
  0.8298586108988655  0.3340737403872880  0.8308229559462385
  0.0792534957571872  0.4165343617494326  0.3312073802082084
  0.9971305170648639  0.8314831286911172  0.3343187711593250
  0.5799133942834793  0.2483955957271909  0.9992757067322079
  0.0794095185943746  0.4177057458991252  0.4994213768746887
  0.5787548076747648  0.0000283382944559  0.9151276301767521
  0.9968627163085736  0.4178543983134803  0.9170235471711269
  0.5798383153027608  0.0822419636894413  0.6652457106683707
  0.9131594697911227  0.5025964923266278  0.4153610369887429
  0.7469001976692082  0.9985582212081642  0.7481558584583143
  0.7445219032187023  0.5852844416918674  0.1662310705618849
  0.6633645439972824  0.9998240198757006  0.6666460128087510
  0.9964321757125857  0.3346245090053163  0.1662899778663030
  0.4130873640671938  0.0833953461542090  0.6646716192922263
  0.2457195341693451  0.0822332137722334  0.3300899189072180
  0.9961706875829874  0.2506149159008967  0.5826379738334063
  0.9958376465813963  0.9142317695389279  0.2496974784770332
  0.1631159454936922  0.9991222815469338  0.6681319985144747
  0.9966327710764922  0.0836292662517184  0.5840946773441464
  0.1627181078766997  0.1671873715886383  0.5013356760417769
  0.2469286231701275  0.5003590038532622  0.5832830793374659
  0.3279481306859761  0.1665138216084054  0.8315223366888314
  0.2462863804193559  0.0830028025161431  0.8327169659144423
  0.2460423964969863  0.2516635828883144  0.0019032871265633
  0.1630392066732035  0.9989158813168678  0.5020689191365277
  0.9129576149953806  0.5007477618830787  0.7499944809532061
  0.9965482253046626  0.8313857279587393  0.1667753742621051
  0.9113039627867874  0.3332523247361523  0.4176455825200260
  0.1630327102399413  0.7498055393555573  0.2491034257982095
  0.6639412224697324  0.4162587820441646  0.0821821366957933
  0.0802310414107297  0.6682408440914295  0.5825042698619515
  0.1624340649240308  0.4170471934700225  0.9178415798311768
  0.2464473138961422  0.1652356454758304  0.7510733190983675
  0.9140073862676176  0.7497821513933042  0.9996576780927995
  0.2455241330868267  0.3334045756585606  0.7505456201398460
  0.0773154596015438  0.2523047792112175  0.0016422670220525
  0.1636297895942570  0.7502993967888228  0.5842350828797651
  0.0796470392900437  0.4993097735336353  0.7505135730768162
  0.0779105137224375  0.4180030839665059  0.1670671870054213
  0.2458317805571612  0.3323119850626514  0.0825478835393334
  0.9136906152076659  0.7513546687204177  0.1674191508055248
  0.9129744882927004  0.3338568344589845  0.2496625974830898
  0.0806923780494487  0.9166677354192674  0.5005584001116429
  0.0797652195142130  0.0815805371424358  0.5012295365742726
  0.0789064771486612  0.3319060728767260  0.0849407017062241
  0.3288745084809162  0.4169935274561550  0.2484850081010681
  0.0794955423791620  0.2514357188707614  0.6666091524148535
  0.9129445040638772  0.6673072151327017  0.9172947670666313
  0.9949432661696694  0.1653753274901959  0.3325256437228566
  0.0791384881313029  0.2511183595094980  0.8317346033821329
  0.9127868095017888  0.0000368313796069  0.4181289286905460
  0.0788777199853511  0.0827820082232561  0.0009753702677546
  0.0801070836445549  0.5009515093643380  0.5825011715963850
  0.9959976670061484  0.5830433286081438  0.4161776153807311
  0.9162711757664516  0.9150145012335937  0.4183217233391429
  0.2452496137075822  0.0830185184519480  0.4208630983958161
  0.9969301721409253  0.9983405223122838  0.2498282931716371
  0.9949158748281411  0.1663169687691463  0.9157747424772906
  0.8288872702642754  0.3343137550711883  0.0836550948915342
  0.0785024701549101  0.2505227346333106  0.4165247407166718
  0.7482297186376207  0.2478845392035752  0.0880938690404229
  0.7465606451797765  0.2473046248154535  0.9097528021878265
  0.3295533337684097  0.4995016308709502  0.0843220966370864
  0.0797954628179914  0.5836630490762178  0.0001704502667075
  0.0794309023346690  0.4173071510781743  0.6657645258877157
  0.9123194103628085  0.8307816178190511  0.4172508591800587
  0.6633055154572166  0.5009984272344699  0.3327775294859475
  0.4965502701649276  0.4988281853690419  0.9987401801366558
  0.8297674071046642  0.1653236104416102  0.8307882826852768
  0.9128532930640565  0.9146062768338162  0.1656821962691016
  0.6613789220234683  0.2492802270943859  0.9154276074363621
  0.4125670037192220  0.6660744577154678  0.5832896492677051
  0.7456926381646906  0.3341575335791832  0.7493328002435019
  0.6615171423515461  0.5829310440601660  0.9159058323117122
  0.5786126696988779  0.4985335430745984  0.9154171858110268
  0.9970609667941976  0.5004499937030183  0.9999080804084870
  0.8295685211077453  0.4181107332540184  0.0830496730037389
  0.8282342237455242  0.8329135720977618  0.3339060708795161
  0.6626291929694831  0.3339779810208600  0.3340482812199028
  0.7460060608130624  0.4165292957783188  0.8322733490814431
  0.8297967103151858  0.3342363409189560  0.3334163959226657
  0.0806989440817141  0.9983451031141064  0.2497677455659368
  0.1636489490132612  0.9990811894161509  0.3325154355731582
  0.7457808647871329  0.3336056866481072  0.4165637292121876
  0.3296389832649670  0.5840477222071430  0.0832655073906987
  0.0811410685588592  0.4154476512868303  0.8336217853666369
  0.4123722216425784  0.7481282675666117  0.3334754899095636
  0.6636491280726432  0.3338728334504810  0.5001590060765615
  0.3295974386851445  0.7497466160351561  0.0827434274101309
  0.7469761585732403  0.2507981291064064  0.6657372134405417
  0.8295243550103676  0.4177474084759784  0.4159055250872998
  0.7468505519026167  0.5002638262862500  0.5836803655477550
  0.8293139693167949  0.5848243883412056  0.9168332409292075
  0.7459619604796361  0.2504241057160648  0.8289736327938473
  0.8287968964897067  0.8316749569203216  0.5011584708084608
  0.2463995926045930  0.5828674217598606  0.4995603912593767
  0.6627918846520613  0.4165609117447416  0.7492208535498908
  0.0798523140862356  0.7500891135085638  0.1668179011743689
  0.5787882161056214  0.3334947166503560  0.7488584139174825
  0.0789577129955157  0.3332273374569186  0.5824706169951384
  0.5795460473877498  0.2500773890410254  0.6662141800357948
  0.6623067911026946  0.1648686747015934  0.9991229989560859
  0.3289506733361089  0.7497588691749519  0.7499994425175156
  0.0803246432984244  0.9151549185594753  0.3331076114150315
  0.4966424443030116  0.3323473912785425  0.9999854243481237
  0.5791275670405149  0.2507710062993573  0.3333963605411727
  0.7463458556592723  0.4171581428364691  0.6668330392649280
  0.9130418526672385  0.7500396181792741  0.3330888950034480
  0.5797539829497581  0.3332042022171517  0.9162424989728502
  0.9988992440496118  0.9156305513729224  0.4163891152400148
  0.5800182760082112  0.3336175861366857  0.2498904334025893
  0.5791053540491913  0.1669228038454095  0.5829626951190232
  0.3282497326278466  0.7495032642995488  0.5829982265427422
  0.9963416540230184  0.7490863862920095  0.9166637362012250
  0.4123678332763018  0.4993116927985330  0.9156166506217168
  0.6629723768424416  0.3328642304901072  0.9990125873293865
  0.4960900906372209  0.3328259682350868  0.8330482597459250
  0.3286832416491920  0.3338635162145341  0.6668560034773290
  0.7464274052032980  0.0824461268084235  0.8311804733432619
  0.7465208904229631  0.2498878458215765  0.4995244595237627
  0.7463591415714095  0.4182552507425015  0.4992828963185373
  0.6626325708010277  0.2490434640395259  0.7483081330173516
  0.7449261489399975  0.9169471840365925  0.9992425343952974
  0.7453460496543511  0.0812987696669977  0.0000632055393675
  0.6622770844785733  0.1663431073537752  0.3340658912665292
  0.7456485891803354  0.5015157642071157  0.4160860910531756
  0.8281533763788708  0.7488231268182762  0.4168257880282938
  0.9967133986478922  0.3344177943934174  0.6660066206078665
  0.1626025133688451  0.2494029499593603  0.2493134324982992
  0.9954748926914008  0.0825567383728398  0.2506133103070252
  0.6629068104450887  0.6662588604382728  0.5009214657352786
  0.9958768632620502  0.2512389563588294  0.9168933380780744
  0.6630211631138837  0.5844880857691085  0.2491661850314627
  0.9127497271831300  0.9155756262735217  0.3335347343179849
  0.8285255784348160  0.8328982672797035  0.1658011345314533
  0.6614931967982589  0.0830937991093644  0.4169956246498523
  0.4957126280503117  0.6665149807124111  0.9988624022659579
  0.4123211006595209  0.9998973868947071  0.2520064429992605
  0.6619637887846935  0.9159080639078431  0.4173534167215677
  0.5783930440090330  0.7492554964358692  0.6669795324891185
  0.4956127765502722  0.8322244769867830  0.5007392865612903
  0.5782579227525357  0.9160996836423078  0.1673499000351257
  0.5792782181808476  0.8316228501759647  0.4176196910164791
  0.4955566807287377  0.9153054113800145  0.4172372762397143
  0.6624961733004904  0.8321985177331603  0.5006987467965297
  0.6618942761372777  0.9991382422223177  0.1677875948466354
  0.3287540707706934  0.8319156879683128  0.3335315184590700
  0.9949324364393808  0.0826936870360077  0.0832596757617441
  0.8289343543538772  0.7507787958794697  0.0824963119950281
  0.5791577232464278  0.6667065589358464  0.9155774776274683
  0.8288951585512827  0.4161569486747591  0.9151378948493961
  0.5785143367750387  0.8330248232850446  0.7494369342136131
  0.5791900350252941  0.9175518619006112  0.8326323044328341
  0.9959426992302109  0.8323668907158008  0.9995899175525129
  0.5787020549154447  0.0830064302128992  0.3338242755878756
  0.9964750793030529  0.7498949010831480  0.0834024238092967
  0.3290906947012108  0.7496660787888353  0.4166393200356993
  0.3296789098454956  0.0824795376522943  0.5839771722870821
  0.5788806045355537  0.4158154312961619  0.8325670295786158
  0.5804901670969619  0.4161764335014726  0.9993592482526698
  0.4130623172508310  0.4169263270396195  0.1676765379719067
  0.0801498660368513  0.7495090039441035  0.4996312850005404
  0.4968884111387655  0.6667796982390122  0.1659117193030749
  0.5786344075315488  0.7494141660472365  0.3334601811064591
  0.3296973865775131  0.6660254504132762  0.1668095697342110
  0.7454558530749001  0.5014872073120578  0.2493637963642725
  0.2465585435155994  0.7499863195535769  0.1667240641632697
  0.9088365240112977  0.9971747372925179  0.2500693619194756
  0.5792523561465230  0.5837322520814687  0.3329543513334597
  0.5788909662065479  0.8327663748600325  0.2504635747233016
  0.4135646041737718  0.6659272577942915  0.2491239553009863
  0.0800882983814004  0.9152024561827033  0.1666202185841932
  0.4128601728906180  0.6660892432998148  0.4167011970381595
  0.4122567800375363  0.7499451430733073  0.9989468264686673
  0.6620441002356537  0.9994873627790708  0.5010568614892503
  0.6628415698927727  0.3333017245910649  0.1666970180270934
  0.6633149269993259  0.0839529279691720  0.5828683596438260
  0.6633668493457477  0.1664122024041533  0.6658541046438871
  0.9973724866647908  0.2505145829499600  0.7491356237149259
  0.8297649695422085  0.0821835413346927  0.7488763856633190
  0.9967800003338366  0.5827556491302279  0.5824771072086454
  0.9969239121343069  0.6660399729351439  0.6661505795767052
  0.6634419614158836  0.0005244941526608  0.8318706840216977
  0.9131429683957144  0.8319322424888946  0.5827736400329979
  0.8294563739962663  0.5008082299334310  0.4989642195474906
  0.6625765001531768  0.2493352653555822  0.2513221105529783
  0.9963352126545755  0.5012576112147606  0.3326678594311948
  0.0795788015526584  0.5004380044252963  0.4164701909761537
  0.5782269253941411  0.1674356532942991  0.4165607730973780
  0.7446726509234366  0.9995903416821302  0.4178694638591300
  0.5790649622953651  0.2498248589441627  0.1669810625895067
  0.0797261311515975  0.5830905610520871  0.6654615926768206
  0.4964786779077039  0.0832359661806527  0.4178148483708045
  0.6617173542318446  0.1654909859739162  0.1675982133214294
  0.0783700240341036  0.1651344843541284  0.2499072105469409
  0.9125578494389007  0.5848533608998903  0.3325733971859355
  0.7450854974961064  0.3336123955430390  0.0832562260900251
  0.8297322590411453  0.4184756409852433  0.2510276529746912
  0.9129393458123412  0.4183879671568303  0.1672715064723701
  0.7457025185161217  0.4171138179083337  0.1672609988083266
  0.7455995417137762  0.3336235807345736  0.2505836540726167
  0.0797063264063992  0.9987200145115133  0.5839252065080359
  0.8297060226184156  0.9998471740911671  0.8325750569027545
  0.7464803357737745  0.9160697492517392  0.8322667767977869
  0.2473646684089378  0.6664777522540145  0.0827411749845241
  0.7452334134207034  0.6669527454020513  0.4166998849459126
  0.9966000791525068  0.6668968266676385  0.3334941615474128
  0.0782024381424741  0.2498055095176310  0.3312249197625481
  0.5792601143275118  0.8330154143194908  0.5837941391608589
  0.9129971252366837  0.6671104393032210  0.4163272255435514
  0.7448438047333966  0.7493928811803794  0.3334113714250265
  0.4118937116441060  0.7493544170946493  0.1659473308372440
  0.3301195666071260  0.0830789037842355  0.2498730815486663
  0.9124297521518692  0.8326167986126810  0.2503725203021609
  0.7457127340803101  0.0822851366356083  0.3334587852165289
  0.8289607416517654  0.0827189609841329  0.4172571670678293
  0.0810048969553567  0.9991969792932924  0.4172413078588917
  0.9115258177836942  0.0813723491247351  0.3336050391341424
  0.7464093744159501  0.9157176338988101  0.6662577788273907
  0.9973526778504268  0.9991150434042068  0.3372643050598919
  0.7460354976076290  0.5831434280947222  0.9992910975324195
  0.9112923889816562  0.1659957303965982  0.9169486837328508
  0.3294616336554471  0.3337961202918248  0.3319785029905659
  0.9137861946198230  0.9992213069432615  0.5833458973276672
  0.2458726560844941  0.1669703158499017  0.5838125086073414
  0.6622686164955270  0.7487455131437805  0.4169616367955278
  0.6626661893319381  0.7496623911637034  0.5846804987021571
  0.7447532853773152  0.6667147327061719  0.5855880201239267
  0.9129685937687357  0.6671041025641626  0.5835772849029869
  0.5784617064541435  0.5835303944838917  0.6671497304230047
  0.0777606272131148  0.2497872483973267  0.1672900009773569
  0.8295786628245163  0.2504735698131073  0.7489029535746431
  0.4138800926374231  0.1663289399695651  0.2496259711134067
  0.2465502380278005  0.9163069712429932  0.9997491589904630
  0.6630410448247758  0.9173216523674754  0.9149492850599240
  0.4118227986534791  0.0000019205782803  0.0831845329989737
  0.3287306605675840  0.0831922773032888  0.0829559423099887
  0.2463275622176860  0.9990491465973325  0.4167289562924683
  0.4964812203529691  0.9993230956979002  0.1674562018109970
  0.4955247035500373  0.0833729798859846  0.9154787679924109
  0.4958020282082608  0.9162325927200937  0.5832965944745805
  0.3284047577047653  0.9153826385068813  0.4158703436949825
  0.1633614241281046  0.1665355888876198  0.3324562851871206
  0.4118109562644229  0.2497143182463046  0.8332531403132782
  0.5797202857519390  0.3346405585289570  0.4167719548319881
  0.2458908175087701  0.2506401804306919  0.6664770104033111
  0.3282845374397118  0.9158255115737695  0.5836696328822996
  0.1633986867916449  0.6661190460544053  0.8330070280447114
  0.1630802607982628  0.5827683119469956  0.7492772183482684
  0.2467329981104713  0.7495770892607118  0.8332071505555286
  0.7459870554816080  0.5825742322094317  0.6674141953566659
  0.5787484198652835  0.9153112598933943  0.3344167880646313
  0.2460824838471725  0.1679728530559546  0.4164461390715731
  0.4129219724499767  0.9987633618413737  0.5831923914194634
  0.0795803860645527  0.9993551781047866  0.9164900578107306
  0.2461173755427714  0.2500529259378805  0.8330027198360134
  0.3290126882637736  0.1666816508761665  0.3325464953381052
  0.2461344541224992  0.4999379240544123  0.9163792061889390
  0.4140754091515393  0.4996911362911410  0.0835317402506721
  0.5794443997054197  0.4167099128318971  0.1665423055023066
  0.8305119934518436  0.2492661016094908  0.9146367271317161
  0.9130182301226938  0.3331251082683530  0.9155842848417675
  0.8289181575155056  0.2495894793126471  0.4163152240803751
  0.7460430768447667  0.2491477974062703  0.1705086464624412
  0.9122141194408159  0.2495366045620714  0.4992817923171937
  0.9142010111193645  0.3344391011084076  0.7498587883048620
  0.9956335399350705  0.5842763926964488  0.2492237179479144
  0.9962499444450912  0.9156627738081184  0.9162247526232040
  0.8289852000822098  0.5845687712690547  0.4164941725999284
  0.4954023360165367  0.1665302060184709  0.6654352451832179
  0.9960222542384062  0.9153251633614483  0.0827157534731651
  0.1631942840722419  0.8321936357105770  0.6673907576467853
  0.0792775974300602  0.7496808812962509  0.8328373721861639
  0.2466303174738629  0.6659958468646159  0.9164344571496321
  0.4955339068701685  0.6666503168437208  0.8332376113608898
  0.3292245619304928  0.5828437026768191  0.7496144405302851
  0.5803454834514969  0.4169774015354640  0.3330226907938679
  0.6627007010711365  0.5005149992155686  0.1656786765505936
  0.4966566275874750  0.4175768680888344  0.4166042941434705
  0.9969205366956163  0.9991693052670262  0.8336891011880294
  0.0800003948531154  0.8332781198675431  0.0832458079609070
  0.1631973076136995  0.1660474439727156  0.1665056672676154