 C Cr Ni 
 1.0000000000000000
    21.1200000000000010    0.0000000000000000    0.0000000000000000
     0.0000000000000000   21.1200000000000010    0.0000000000000000
     0.0000000000000000    0.0000000000000000   21.1200000000000010
 C   Cr  Ni 
  86 259 605
Direct
  0.2509156570788433  0.0903441241481818  0.5807560361777974
  0.9070422163919564  0.5012695260516009  0.3289276676179569
  0.1701464013961436  0.4220403384326188  0.3316026508246838
  0.4181505962716915  0.4137515324380181  0.5894307050832478
  0.3388906464946232  0.2555390442303518  0.1711112119135381
  0.9963678021689353  0.5070779734506764  0.2418892371533101
  0.9069514903581234  0.0844970090750415  0.4178639142315811
  0.0833758041377950  0.0854803312959963  0.4199824372033927
  0.1557813356699141  0.2556041306370669  0.1710685600279699
  0.2433477911762346  0.0880054379642944  0.9104392256492635
  0.8260834285604854  0.0809709642365033  0.6669360607807149
  0.8315192200149032  0.4995338943088182  0.5786116465685128
  0.2505271153985084  0.8248422296628408  0.9983102429566045
  0.5704082825397780  0.8288052556201992  0.1606434960119758
  0.2500864202774414  0.9064097229662871  0.5774865382577183
  0.6603581255405050  0.8306105921978325  0.2532763390623315
  0.6504089621030777  0.5035050943872443  0.5818267561240922
  0.8372101394739415  0.4094523558419554  0.6676629527933073
  0.4167569190373770  0.1677277468000983  0.3329373996671540
  0.8288144077560661  0.5907394468718467  0.4965857052004504
  0.9906381865689928  0.4125111933866708  0.3349308285362856
  0.1573397604991198  0.0052363043851084  0.7590947169688522
  0.6537324137451495  0.4084864252189340  0.6721750048248172
  0.0632347046752580  0.9024135374388539  0.5733508478723969
  0.5029781588681853  0.9953789413844133  0.4179783846644645
  0.0781708727309010  0.3231918130891379  0.3315226698225013
  0.9190057356708801  0.5911422191251102  0.4142407443628882
  0.2521728559124626  0.0003981275993590  0.6704225420538795
  0.8319607054062663  0.3382353533547949  0.9150959559240952
  0.2548547505554645  0.3381125156312252  0.8301919804925153
  0.0812845293201614  0.7480243683021631  0.2501502780779988
  0.4942870669044006  0.5056103639612826  0.9153160312015780
  0.0881533553975857  0.4971150338016722  0.6704135174514335
  0.9976186596649180  0.2460273133615109  0.6681123821424465
  0.9961548786169478  0.7523448982276517  0.5091921153532072
  0.8340505102437338  0.8266904959453093  0.5811500201379426
  0.2496251855840193  0.2573404636843489  0.0773705222530860
  0.5656561854822330  0.9255087650522896  0.2566466754681898
  0.8199049293803472  0.5921007128714925  0.3211376989097445
  0.9928223650942873  0.8331467667135724  0.0818713542138618
  0.5004991632274083  0.4133243463818408  0.9996501076173245
  0.1641919329568403  0.3390147076829476  0.9212981075798954
  0.2576125400908132  0.3286883018897931  0.5086907945103175
  0.7444469556663457  0.9194070988643196  0.5821836000145877
  0.1582600764115862  0.1627666033768810  0.0781017356001356
  0.6629565708728795  0.9222064397533634  0.1604874664329999
  0.8332561754505441  0.2446734811177539  0.0056761820222597
  0.2416630119030046  0.0035672045419768  0.0039902227925742
  0.7480288304179202  0.4100804124912695  0.7605895283321646
  0.6590129072046198  0.4114228430299416  0.4925009109057953
  0.4151282974415323  0.7487137327322569  0.4179809668171648
  0.1573814958478069  0.3406323430525539  0.7382763096120009
  0.1585130392051443  0.9066940997385586  0.6709678836550160
  0.0782103247223385  0.2503791340074141  0.9221552905069154
  0.0832006422110581  0.4992771355495303  0.8420549727527924
  0.4943178939731004  0.5025884018659742  0.2481702518214044
  0.4972294943958697  0.9990640715877261  0.0832090469884746
  0.2615936560274607  0.3261755224475559  0.3249827281369009
  0.7413831321562490  0.5944466080427880  0.5839630544954941
  0.7427812447960190  0.5057234134619377  0.6730073932466782
  0.4087077040727615  0.4153777540022247  0.0871281107788917
  0.7420755415661868  0.2455022123398600  0.9155730478428672
  0.9891993659275776  0.1582331751349235  0.9180701424981197
  0.2584866836113280  0.4234405807060688  0.4203347951786453
  0.1589424582311380  0.0033540833496698  0.2545278741619484
  0.0850844464400864  0.1580527721485548  0.8280636520619145
  0.2468310945938056  0.7464437891754222  0.7531645929280582
  0.1733925405305653  0.8322090615413413  0.4210259329565937
  0.6666338014081020  0.5029104171486711  0.9190968750849204
  0.8355083881953708  0.5059579750017275  0.7614143685039938
  0.7425563804099486  0.8286745341288381  0.6745775992752177
  0.3370232923974225  0.9962435628732111  0.9130329201031439
  0.0838579744983181  0.8399476654050093  0.3291552648767556
  0.1555168407546528  0.0020874704104932  0.5751101730403755
  0.5852385968974900  0.4146538942783019  0.2492993603523864
  0.4164862426252515  0.5035387757916772  0.4976052465193182
  0.2586847182018576  0.9141695593445471  0.2516507674830568
  0.1660573696998827  0.3269296502402799  0.4226602097873352
  0.9925734975785335  0.8378839033954033  0.4187701233972766
  0.4164589227847546  0.9814078471081328  0.3160666616810161
  0.0832026670188747  0.4159873866244748  0.2393562502310220
  0.5008609499665024  0.9147674638997935  0.6673963394049470
  0.0021888677180822  0.4988631397481585  0.5797920957185219
  0.1654296682625937  0.9150091510477054  0.1616964886894102
  0.0775333409382953  0.6617188567365109  0.1633454247135942
  0.7461944977856433  0.1682203054257109  0.1645396814184907
  0.9914988117318962  0.0790631391154274  0.0842091290571734
  0.8287700207772175  0.9995635161423172  0.1663539317891024
  0.6631851433027326  0.0103179767627807  0.1629824232142608
  0.1596844884788855  0.8293168537444285  0.9996384359445665
  0.7443029837516482  0.8291519085528725  0.5850068911665400
  0.6645960835868792  0.7424732000838414  0.2479807215234445
  0.7451885374999269  0.9192079323958279  0.3321856115528313
  0.7457005582870978  0.7514100465159675  0.1651724632538371
  0.5798004230409108  0.6688558263738339  0.7527181978705491
  0.6616152439444261  0.8318422930729154  0.1615533714227720
  0.9152331029929712  0.5898713631605733  0.6708347596808809
  0.5804928009947127  0.8299769788380149  0.4202446179638682
  0.7434438179592900  0.8329145481492785  0.4163047640889638
  0.0742851693018696  0.9940845741237198  0.9173950341670919
  0.2478118766510193  0.9998406960490513  0.5804210403420282
  0.9106415058464686  0.7488422580023608  0.9971307408912605
  0.0833456907251022  0.6604555584676508  0.2520101564961540
  0.0734634021676570  0.0834621455839167  0.1642447225185274
  0.1665036776541122  0.4243662677703438  0.0810444293762434
  0.8364055654038129  0.4167109407978619  0.7559116737180298
  0.2521411904649213  0.7447757068357047  0.1652585180263992
  0.0799297147542533  0.7503156822945609  0.1613432899304531
  0.1621487476891671  0.1625394151493169  0.1673750431422103
  0.0765083167925062  0.0862878934051637  0.3291656063309240
  0.2525312081156721  0.0905111143403054  0.6703704408970242
  0.4149086632088348  0.7459353546875772  0.5083522384066544
  0.0692403568179718  0.9935285422964196  0.7486848987075292
  0.8265338357314241  0.4992518056655583  0.4900054227344492
  0.0771464767597282  0.3258384786317824  0.4223745089732081
  0.8284023956756735  0.9981169973422782  0.9985417358731046
  0.7456169732920072  0.4158221601762729  0.1636562090591389
  0.6636833203230124  0.9155129930553652  0.0712109454166017
  0.3310899091107564  0.6658167369921433  0.1651716150917077
  0.5072774165414221  0.1657996441540566  0.3328753984376038
  0.9073048034847169  0.0824732581858063  0.3277438065139482
  0.8275147350845401  0.2435444807937004  0.7512893025804938
  0.7440402823507478  0.5865123881082598  0.1621779187801191
  0.5794809129149666  0.7482214602734409  0.9975843363496424
  0.6607308950097932  0.4128915802098452  0.9192793484393956
  0.7421672476192626  0.3358670264591407  0.9205578628790322
  0.6633888564000878  0.5036312163955009  0.0078730313065590
  0.4977897912658878  0.3328136642238346  0.8336770466348702
  0.6650471954006825  0.3302156295149759  0.3331182737973818
  0.6597869062351515  0.5027440352464033  0.4934367680735314
  0.8308042386684334  0.3356076184258621  0.0062929447940216
  0.8281387350914287  0.1557203774255400  0.9997050027270243
  0.5824236384764335  0.2482564472798671  0.9991793359148273
  0.9102313735776393  0.0836453350855846  0.5065930534310854
  0.5823967845254041  0.1662293530141138  0.4179646600667580
  0.8272063313760376  0.3298874640063748  0.3318794281423187
  0.5818872871213064  0.0841066482656002  0.9955599768424168
  0.7428212997354126  0.2439011012570561  0.8257421446026380
  0.5810465017763140  0.6704479229287781  0.9190930462024509
  0.6602303159190732  0.5053852136694971  0.8306438892935102
  0.8273656089998612  0.7509567558333445  0.9183423799570503
  0.0789641518340186  0.9984796836606078  0.4139386973416558
  0.2485166392636206  0.9142934698760563  0.0021713180523464
  0.8248506614669142  0.0005491210774189  0.3321410870501856
  0.9091937913777545  0.0006117210083590  0.2490127314815249
  0.6539204807085424  0.2479857503124729  0.9156999098503168
  0.6592538848446785  0.2453772799293992  0.7519701945464764
  0.7461238772669597  0.5024423521033797  0.7607889055921584
  0.1680806408461850  0.7425849127434337  0.4181833032100224
  0.5017583960005174  0.2504947346686343  0.2484003850214444
  0.0800981210788720  0.5888860396377658  0.8393013772375996
  0.8339564986555725  0.8288848211273755  0.6731458404861840
  0.9101251320150415  0.9145150372259577  0.8356054128731443
  0.9050363200835581  0.8366493653049334  0.4133649199342060
  0.6647098812783420  0.0016338720901691  0.3336364218956875
  0.8279650651166207  0.0780874664266688  0.7564291564186780
  0.9924893948968394  0.8335880185474699  0.1724632046200495
  0.4177591305915383  0.2477145918374541  0.6689221911237268
  0.8320190926245475  0.5904334532268700  0.5862339477420554
  0.9078611700675508  0.9187574557471863  0.3306677807767450
  0.1621479359969819  0.9129884323578684  0.7597945860380086
  0.9091637302118528  0.1660150454534423  0.2495933202588043
  0.9932291276276429  0.4158619531758331  0.2423495337212088
  0.9084588293372435  0.9127537721984501  0.6723323581073015
  0.6592199802661894  0.9203297124534999  0.2514895564634709
  0.4154650038846243  0.5029287973168853  0.7535760687415104
  0.4145043876514933  0.6682729353945955  0.9186633002204981
  0.1579374604571454  0.7471704611897787  0.7571444291314091
  0.0784997980531614  0.1683577755588410  0.7407369590431723
  0.1643436519668175  0.3373174549800464  0.8306676393564081
  0.0803001708331583  0.8371652492897661  0.2412242912372530
  0.1687207354530129  0.3298954160164376  0.3329624950489888
  0.2518440513904617  0.0868288874621495  0.3360225061758788
  0.9931909094356735  0.1579799234939658  0.6684227240581592
  0.0828999928008938  0.8316357779419601  0.0829573577122210
  0.9927825750419261  0.1609532041245363  0.8269360402553617
  0.9923755205258290  0.8370101653457519  0.3273406212382503
  0.1669512947770899  0.7411729620155015  0.5866558317827784
  0.1649747524296255  0.2450514156203309  0.5821588009908467
  0.2477743659569497  0.9980756725475580  0.9145419190626682
  0.9973634221551156  0.7481004695890950  0.4173049860269846
  0.7442701706235511  0.9154382559986547  0.8350771934102993
  0.9036410659965417  0.8330956448352081  0.0807254166968675
  0.9993308130866936  0.5020898434078848  0.3328880613867951
  0.9896328916555949  0.3241206354797728  0.3328133047067582
  0.0835836697358978  0.8345506197845549  0.4171100813763585
  0.0852297242837458  0.5078013747069189  0.2470628851401142
  0.0775969310868097  0.1622697815230751  0.9169335458995191
  0.2561166251715018  0.3321971714218156  0.4181519463037580
  0.1709737424748456  0.4235897250593209  0.2428086329869300
  0.2507046958801754  0.0878958361158188  0.1653449533519040
  0.2491184104588247  0.0900911904121620  0.9988652793522048
  0.2493141818469978  0.6660292014963143  0.5847902325590899
  0.0895087923090617  0.5015157550081875  0.5814889043925259
  0.0692747240463951  0.9128246328307492  0.6682951778689414
  0.1642475095702078  0.5846177534652155  0.4174593775889445
  0.2512180722682837  0.5871684208105633  0.6673564808559994
  0.7493086324255598  0.8324363332259832  0.2484903792277253
  0.8286185646767857  0.6689732696724092  0.0008186430044093
  0.8299249110405351  0.5032169043331912  0.0035215097097729
  0.9144972641728256  0.5874540401793963  0.8401661902850878
  0.9155525555940517  0.6673149920632880  0.7564579768423255
  0.8347259520389212  0.5031210340753054  0.6693895929771291
  0.7449237819211123  0.4139794169768979  0.6689627647873156
  0.4239680351496811  0.4142381559356147  0.4992232535126355
  0.4088051230677171  0.0022066575612182  0.0828976001383170
  0.3277588337406850  0.5032200083994637  0.5024730632627450
  0.4116418515956817  0.8277383856534485  0.2506895521840737
  0.5021016670565105  0.5886814453708549  0.4127640874919147
  0.9022982705725869  0.4124287000587061  0.3316654958586338
  0.5829677006024080  0.0010521103680346  0.7519828359236742
  0.4133731148683767  0.9990670071804567  0.4146382058228604
  0.9104709662868306  0.5909180552767820  0.3274875847776295
  0.9086599290979295  0.8359730267448916  0.2489066409711428
  0.1656951229634689  0.2365119023102055  0.4197406247677614
  0.4148580432911373  0.5860139219653211  0.8344826217164055
  0.1657029370826093  0.4181100515233240  0.4207931601562633
  0.7447519557140742  0.5953764052310518  0.6732849699972282
  0.3387781064129540  0.9151079648730883  0.5832553863059702
  0.7397445492141335  0.5871035086271977  0.4943247343096643
  0.5718683912744583  0.9187066396357279  0.1645689168339348
  0.4961858043706261  0.6666659042877411  0.1639408179768895
  0.4963115470522487  0.5034822850574260  0.8265350686521553
  0.4166891491177118  0.6673158094310522  0.7521612076150542
  0.7418341673105873  0.5032994843146417  0.5835982756657652
  0.4131864674441781  0.8296720806409726  0.7529739378431002
  0.2557610105410372  0.9138561122048499  0.1625375219559875
  0.7451926473215945  0.8320996002012210  0.7636986140599188
  0.3324096204639820  0.1634880313404868  0.1663504589588650
  0.5836338582466628  0.4165109288339021  0.1598817883813863
  0.4981972317440451  0.6684675445924453  0.6683806188887125
  0.4137765816813617  0.5063258316904687  0.0827115213890969
  0.2579811098377465  0.4185004005876033  0.3309642324618774
  0.2479411197027345  0.9977556273437438  0.7580950651076891
  0.4187999761591868  0.2463801529132195  0.4995581031802679
  0.3411444251336027  0.9977308579102552  0.6668844319624458
  0.5004602171368927  0.9989422055860919  0.5065361253098789
  0.4180009238651380  0.0783316718725845  0.3309052997279002
  0.3356491745554074  0.9993662957757330  0.4996631892499052
  0.2563158832715440  0.9143986758840252  0.3404077857833349
  0.3305985790726966  0.6635944933573172  0.3333588397901985
  0.1591011995580825  0.9124422909259616  0.5818812353559077
  0.7439579205863666  0.9184205175740273  0.6724404525044534
  0.4238327957213708  0.9993370913578160  0.9170087837875597
  0.4973221261694395  0.1655686412523740  0.6680534737853218
  0.4168484364931961  0.9995589084858635  0.7502770600088507
  0.5802188465685563  0.9143528338055597  0.9965911711428440
  0.5709465592171338  0.8326138878213308  0.2509752021310155
  0.4762762808933256  0.9171312223934361  0.2538263875459902
  0.3270979786233623  0.7425176512683822  0.4167252257914427
  0.4098948559671967  0.4178121353274122  0.9967862227341026
  0.5801851651733944  0.7515544041190212  0.5017323358092093
  0.4972587590730486  0.5917798258764635  0.2477284665482024
  0.0786588623639654  0.8328135958630167  0.9163873577939263
  0.4176577459208694  0.1681529789585605  0.9140459604637979
  0.6536371402266596  0.4138222854540854  0.5828351480407682
  0.4187572245420881  0.1663391574981520  0.7509079457193423
  0.5002735053645466  0.3241005363470458  0.9990088876634231
  0.5842453415409803  0.0866107866790975  0.3325425052363881
  0.5693327733750064  0.4137652641810691  0.4957169818020566
  0.6601647891800051  0.0812729674208695  0.9166346558700404
  0.3300139601639292  0.4216563192453970  0.5874343215801840
  0.6651623042753254  0.4146655158795665  0.4050111019432451
  0.5047476257161058  0.0013700043606511  0.3287894638237041
  0.3376304610489566  0.7483900637971859  0.7523076018973925
  0.3360370566695520  0.8312055274803377  0.8340155643777643
  0.5847659397796851  0.5047434238381338  0.2472764612056353
  0.6611549655040977  0.2445952000183810  0.5832585327015178
  0.4195142506025838  0.5043560461654173  0.5880931634343144
  0.6600530128723087  0.0824420851720735  0.5828268993872058
  0.5007592994960368  0.6654524128696429  0.3320173599168290
  0.2497747211712001  0.9100699169588959  0.6684332105025075
  0.3393301566243253  0.1688565862582257  0.6691652809944825
  0.3325481856330587  0.5869420207723649  0.4154792001651682
  0.3341808526324549  0.8302886777765038  0.6686164485895566
  0.3475782095983328  0.9189210085682925  0.2521448407957993
  0.2484009821716447  0.6653811752807647  0.9172185879448397
  0.9073907429046608  0.5007170400499339  0.2393333079083985
  0.1682564694388343  0.9159148188104793  0.2509569686391970
  0.4181441714576791  0.1649313894304365  0.4234268699892283
  0.8351832694812116  0.9164900791870977  0.5836133263426714
  0.5069169670136008  0.4113072347315079  0.5856924651422042
  0.9919221202481471  0.4177491286668490  0.0835840384832839
  0.7451638589802997  0.3352509725394651  0.0825618395235652
  0.7435185293658322  0.2494309660233545  0.0055840772525759
  0.0746198735651940  0.3388268178559007  0.9198981080818459
  0.9880553019407617  0.2487787540896032  0.9160075632584123
  0.7458199817704215  0.1558920575342257  0.9166757248403699
  0.9938747341457795  0.2473764794922434  0.7571350420835047
  0.8259416837155231  0.1707662294899321  0.6657886161875877
  0.8270166784558954  0.2475696693030785  0.4160177314024672
  0.9090695861291278  0.4170475974566265  0.1652113180714640
  0.7332776643055270  0.5857513380446798  0.3320804914671437
  0.8281992828125856  0.4123377708049653  0.4165441659652823
  0.9123446626721289  0.4992217164159500  0.4198194796786408
  0.9939891647552840  0.9220248512142197  0.0834632416097442
  0.4957246342655553  0.4133303989470100  0.2482343478650634
  0.0838869282191779  0.5884200466557929  0.6701082199173308
  0.9127962469433658  0.6677777901724531  0.9184613231582426
  0.0791398210310433  0.7509437389952717  0.9986849588992868
  0.0807477482645641  0.4145004084334605  0.3311999927802502
  0.2481897598137350  0.6576102862143971  0.7516415346482933
  0.1635960364005910  0.6651862499694182  0.9988704267027245
  0.2476644237748496  0.2516778351171405  0.1673622278290966
  0.9971585866086911  0.7481171143817895  0.7551841893155393
  0.2502933132159889  0.3351094007991005  0.7414625451931689
  0.0785839487957901  0.1733212218002715  0.4207819127678448
  0.1666067062271701  0.3301305556380249  0.5122535854571260
  0.9988545123224704  0.5015180356182245  0.4920396799904661
  0.1605807681558495  0.9987206350808800  0.6687912871209167
  0.9192445703016645  0.5892589516914525  0.5018886690221226
  0.9944985613489699  0.6677601696183332  0.9982502700068139
  0.2516671385127425  0.4194660302685013  0.5086959881585141
  0.0033924076580108  0.8409060412724946  0.5079976391450832
  0.8267893515246114  0.2473875430239459  0.5815685046960164
  0.0683264698479416  0.2468950533675234  0.1641360334724112
  0.1609846382728962  0.2515745656342790  0.0805312378526681
  0.0011055417582647  0.6634341152036165  0.5019736279315181
  0.9927117187973374  0.4157069125874990  0.7524884519742695
  0.1668599573398708  0.5857659394716154  0.0787509471015646
  0.1620806253056010  0.9159473723727185  0.0738674696769915
  0.2496956057809985  0.5033888688083580  0.9181728612020251
  0.0679424453155560  0.9956433607706626  0.5863161792972725
  0.0742252591422701  0.9184366029700827  0.1634709621660210
  0.1670827146936589  0.2487110583538525  0.7484527689656613
  0.9091835206305706  0.1734616289308664  0.4179234146508035
  0.0811162164740783  0.4078720161619894  0.6707928445188980
  0.0774249029511054  0.5003662821613167  0.9290389824457428
  0.0759342256367329  0.9128522589882657  0.8359867729331100
  0.9969426283160867  0.5022900623092291  0.6703517827391000
  0.3377732844393996  0.2498589751713414  0.0794549271058596
  0.3374551951373554  0.1684041794790067  0.8300951572326540
  0.4970915901758801  0.5037685982847453  0.0049903844875759
  0.8288645713601825  0.4110584224344181  0.5794154391320383
  0.9263490007802780  0.4148628937330289  0.6689112000979673
  0.9216656433390794  0.2495105046392276  0.0027562642197571
  0.8312318940362931  0.2479749477125693  0.9155671242509800
  0.9947446466225823  0.2474911698407372  0.5787712175095788
  0.9066626106040091  0.9953001939411523  0.4140673137199118
  0.6588052541143645  0.0785495707341234  0.7518599088860798
  0.5809022065983626  0.9152996905259084  0.5008975975669661
  0.2525216965311842  0.3359938331576945  0.9192326653900481
  0.4071723149172873  0.5020983558970983  0.9175415173612632
  0.7450530685238769  0.1674504841065500  0.2539313658890873
  0.4980020726592125  0.4142931977776489  0.9107923597375928
  0.4167045272042517  0.3319560411396504  0.2470224592270457
  0.3326273240789256  0.7486382481345792  0.9174957345087501
  0.4176742876916645  0.0834228892148865  0.6672437126827349
  0.3358918807659554  0.9990582987937471  0.8264864266687171
  0.4183683739204250  0.3324592815023972  0.7510916263372109
  0.4179879736618757  0.0828665013024387  0.8326428069862659
  0.2494513515110483  0.6653331247047115  0.2486760316404280
  0.4177371736857299  0.2496719118666204  0.8327832014912638
  0.4149080240264019  0.4200292734485852  0.1718514617180348
  0.3326681459048781  0.3350290573647651  0.9996442021566815
  0.4991878184279273  0.4158619551994089  0.0868995938358781
  0.2487213914675185  0.7403306105992139  0.0001169682572468
  0.3356373183105268  0.2511247953756676  0.7500940005878054
  0.2580613212904143  0.8293312871851339  0.4189075971200509
  0.4981953736800330  0.0835496521842580  0.9159502765401842
  0.2495055066788900  0.9133164317796706  0.8351415555116386
  0.3359357198208257  0.1667478701173098  0.5004969973066801
  0.2529517247156783  0.1729205794877738  0.9129074344927651
  0.4138843488552726  0.5859270945441349  0.1657166323763189
  0.3447184813481883  0.4180414381933508  0.4180890215119292
  0.4982145459781657  0.8303341225661115  0.5027943167782043
  0.3337368187414668  0.5841900559403327  0.5859180755735311
  0.4127396787521415  0.8331694011585675  0.4262474414733314
  0.4236911152200953  0.2484595427510600  0.1654338645623658
  0.4148877225401227  0.7449668492975400  0.3308036437739997
  0.2487775383053463  0.6653443779313030  0.0824017486807101
  0.4977690232874952  0.5920903362479425  0.9183209427116279
  0.3329249639877790  0.4195451632338675  0.2487666783984293
  0.3316411751625676  0.5852118044513176  0.0822278065993960
  0.1665788647007870  0.6648802472714459  0.3337078671116168
  0.3310845542941597  0.5034737272592038  0.1654506511694374
  0.4176176831217014  0.0813012360411156  0.5008042877009448
  0.3312631007477242  0.5863772503398451  0.2486057125955824
  0.4176478658094313  0.1655560263400447  0.5838302602224479
  0.4159986052204912  0.0844080161783716  0.9975855596236169
  0.3305357304769215  0.0020738288857393  0.3339867955752029
  0.3334928329358353  0.9139636093144000  0.7513565451784745
  0.1543102633848634  0.9987048817822775  0.9978075864997565
  0.2500221276643196  0.8285433114653407  0.0862786968382249
  0.1673690805359614  0.8262812345212106  0.1645705906969651
  0.2538121353772145  0.8255348483749746  0.2490309141215165
  0.0793622547170649  0.9272147280669140  0.3293420426126313
  0.2487768099488181  0.9166503547455942  0.4926153769911855
  0.1662884314777040  0.8283433941030669  0.5075855725387926
  0.3316468223770763  0.6649034104154847  0.5017452222732940
  0.4162584908143631  0.9153539925432314  0.8330462667591598
  0.3304711653353947  0.1655464534539185  0.3348894189040504
  0.2516781076148265  0.5057898974220124  0.7499753548689437
  0.1619561145455690  0.8309098972793589  0.8365193814596316
  0.1652045922816934  0.8204064588250481  0.6721554409063070
  0.1644335444276600  0.6643001392876670  0.8365810664078285
  0.1650599160265269  0.6650764043768057  0.6712874325384339
  0.2507514249239465  0.7450142273444380  0.6662358010201533
  0.1673760801777853  0.9194471997876192  0.4124570243710265
  0.4168476656543493  0.5048587671213652  0.4109466955602226
  0.4208109883402068  0.2529388972877045  0.3324947019470144
  0.2537370161574515  0.1743685482438572  0.5851247985228446
  0.3383310232380262  0.2489350198567688  0.5846666228138684
  0.3380394781180767  0.3339479771651242  0.6693596106498085
  0.1606093251706638  0.0882481559041339  0.5873107089568458
  0.5885903860380378  0.0021332162917127  0.4184274695985402
  0.4986091428933940  0.0835841858074809  0.5840773795191865
  0.0724859686538551  0.3306163885032922  0.7546611438006707
  0.4850065484451379  0.8328188673696832  0.1651799841720443
  0.5795616580824244  0.8316132200308488  0.0745334784532521
  0.5799172090109653  0.9147035955002912  0.3421814368658612
  0.5792505330808656  0.7433397671031324  0.1656416686863116
  0.5008460237550864  0.1649995074425002  0.5004625852493632
  0.3435928332310408  0.3327077104614465  0.5008812004945946
  0.4960735554878603  0.8281856688446224  0.3352676724733058
  0.0856069222380137  0.2538625031437826  0.6652276034438130
  0.4969868342503865  0.9135301856835962  0.5807470879184748
  0.2501893126507552  0.8333023182356677  0.7548496201676597
  0.2482205260517709  0.6629933135340870  0.4183816757225572
  0.5808300615082905  0.2492802906937067  0.1655940691444470
  0.2483699520823589  0.4211530057729863  0.9971854440517804
  0.2506876857300153  0.4259937513737099  0.8334313117670461
  0.4121609646708280  0.9013128183612427  0.3443462189773812
  0.4154114220030146  0.8311981632578394  0.9163664208156616
  0.4141286995874637  0.9130207091306904  0.6697526930383408
  0.3399171134138873  0.3341682358760218  0.8317254319148233
  0.3333268505985117  0.9099816053538216  0.9168101532373774
  0.5835349547220713  0.0013766052289406  0.0784233259810263
  0.2493616682529849  0.5852005928957562  0.9989020021242403
  0.4982204554654927  0.0044473351157561  0.1688413227382424
  0.4992692796561416  0.0873725098469847  0.0795575889480420
  0.5830110775959512  0.0101675652013433  0.2457484234431851
  0.5796762146152574  0.9981790771169953  0.9161297207000473
  0.4999530772069252  0.9998591102556729  0.9959684779627326
  0.1640452976433435  0.4263951810825168  0.9169787516225136
  0.3338992442602361  0.7457670276161741  0.5866703280454513
  0.2495863376372652  0.8207651895660405  0.5856650395014645
  0.5010680711187021  0.1670781017269470  0.1647754645047020
  0.9966642591730358  0.3327896957406374  0.6668666974801227
  0.3331086475021224  0.3415552906678678  0.1635699453316337
  0.9984965194022687  0.4107024645867740  0.5814190630368601
  0.3359726357552100  0.2507974083181782  0.9146687217934700
  0.7465750789955972  0.6673760085925963  0.2471910750234458
  0.4167972752629596  0.1683873615561074  0.0794899672707682
  0.6622747767419278  0.6699163586029832  0.3324899707862440
  0.3308118227599763  0.2506045231591270  0.2567141236354110
  0.7420727549097285  0.6699791971049126  0.4145915300454299
  0.4178914419842513  0.1670647673660416  0.2459006925347964
  0.6597933070742417  0.5862064516698252  0.4154405958433994
  0.1722497521335566  0.8308571021519165  0.3305222189573164
  0.9094279909591921  0.1631461950915661  0.7501635173138113
  0.3360517666566245  0.0866176354651468  0.9131944070007461
  0.9120899190722738  0.3301660225482322  0.5830993314452039
  0.2511229003271120  0.2503591006331300  0.9921207215517651
  0.0809753388658931  0.2499213475163323  0.8316016585332020
  0.9952347734239182  0.3296854524247299  0.5006972201685429
  0.1670795719277419  0.5049199264888645  0.1630871022963881
  0.5008692772804348  0.0850160748069962  0.4177274501768338
  0.0765930095745535  0.3347160995685112  0.0849271035472747
  0.2469176615974162  0.8312383594473240  0.9123511189922012
  0.9912900246950415  0.2487588577012890  0.0861927491941476
  0.3323923779145539  0.0871890323691186  0.0805041920726024
  0.0772066386373196  0.0711383173560980  0.8311305209945128
  0.4990848162303216  0.1672772311546770  0.9969115115549853
  0.9922132063482407  0.2468914999927638  0.2494436770704938
  0.1624363716898957  0.9134078949238708  0.9185999393834541
  0.8263018169631611  0.7538259343293111  0.4141808015708040
  0.4156207848487787  0.0899145084864477  0.1606576295730902
  0.0829789866391919  0.6658693734659835  0.5862151443144776
  0.1664124319357361  0.5867490630291101  0.5851507007689256
  0.8315581629612611  0.4236791984625409  0.9222283627269305
  0.3391545865943151  0.0832821471108384  0.5839176528226183
  0.8317635037467352  0.6687817358491185  0.6730068868883475
  0.4215081393999718  0.3309864051830235  0.4179675217740380
  0.0761789616855705  0.1644897470966549  0.2467622533823023
  0.6621386179244447  0.8332250383542684  0.3396452839050534
  0.3313461307717368  0.8262429225044480  0.3346020293871987
  0.4160849357250312  0.7475713716437555  0.8361128719749902
  0.1680447119236599  0.5023697543599154  0.5007328374870899
  0.4166623165640210  0.7483167239504784  0.6677715838659953
  0.3314632433014819  0.8288149486825491  0.5048673886475600
  0.3321047443051011  0.6657209373857048  0.9989654265922605
  0.3344857037150217  0.6656348824535991  0.6689188632053001
  0.3363269109294264  0.8311346213971634  0.9992076907253084
  0.3328378106319109  0.6665830961243711  0.8353451087222519
  0.1648672486762097  0.5085392577598389  0.3322358909742370
  0.2490085135531435  0.5853989126959418  0.3327921840079204