 C Cr Ni 
 1.0000000000000000
    21.1200000000000010    0.0000000000000000    0.0000000000000000
     0.0000000000000000   21.1200000000000010    0.0000000000000000
     0.0000000000000000    0.0000000000000000   21.1200000000000010
 C   Cr  Ni 
  86 259 605
Direct
  0.2566331179829206  0.9948427546154176  0.4899535741705441
  0.7441060735439061  0.5924801770827155  0.5808816094150746
  0.2587726576736382  0.3272268744142023  0.3245630391171901
  0.4060523729972472  0.8362877442470248  0.1689417169919230
  0.0794658220027568  0.1567901367262191  0.8329060771312089
  0.7491968103085460  0.3356329930194528  0.0014016018198855
  0.4246960699795716  0.4150217658562832  0.4075361052297968
  0.9991041545598538  0.8359463707742631  0.4142147767577072
  0.2479860570716067  0.1623376651001636  0.1700229474996445
  0.1584383131000476  0.3403159903660848  0.9235277263532343
  0.6542693899499528  0.4094404159388324  0.6730583314105164
  0.8377513525851933  0.5004079074055613  0.5788134639245593
  0.5790652006379583  0.5834418833888922  0.0835680744437982
  0.5755371093708153  0.8284332988827554  0.1622035976113638
  0.0682640675275128  0.9988093611412482  0.6681678556382977
  0.6645478775014884  0.8298761917020634  0.2552322456120299
  0.6537071311273630  0.4989957052513295  0.5808983571879112
  0.8371618870845969  0.4089003650366326  0.6703176741735786
  0.4172605570526514  0.1679090453446152  0.3316683388215196
  0.8333883994282784  0.5907808986154913  0.6733122850540451
  0.9878450464883399  0.4131180880568306  0.3301256072607257
  0.1596700785930933  0.0012782948468869  0.7602267271234263
  0.2483243317978492  0.4279010132231301  0.9142544913669572
  0.7461066023349309  0.3316733575902004  0.1722360887267349
  0.4178901076105814  0.5078260596587036  0.4996115379139441
  0.0767531697310785  0.3224424019444410  0.3256374802370824
  0.3304408791232454  0.8335763307271687  0.5849346453250740
  0.2545059483947915  0.0022347979005131  0.6695676742814843
  0.9875026628948986  0.1588446014610162  0.7411501600824018
  0.6690788401388299  0.8286111916130284  0.0716974537930357
  0.2551045897458978  0.3305059792525796  0.5073485444936021
  0.1638035881647641  0.3287084938660544  0.4182438087684582
  0.9025325038547514  0.5057684095189512  0.3323645202423367
  0.3308460171982768  0.1631364118655780  0.7545466171109011
  0.9948978278665108  0.7518389995983402  0.5081707695135330
  0.8342351875864662  0.8265587761994898  0.5787901931051321
  0.2488267654262040  0.2578401174923376  0.0775886991552588
  0.5703054657362598  0.9212632718203472  0.2545797075144166
  0.7447721592331538  0.1679168136170362  0.5013509952733025
  0.9942275693602725  0.8322497084942764  0.0852293732599137
  0.6593669633925052  0.3348808213182193  0.9147703228371598
  0.3386491331932505  0.3300144290160865  0.9164680992421516
  0.7453260119022125  0.5018241352366255  0.6742235864681742
  0.4140936469723883  0.4129436548432460  0.5900148280091290
  0.0736090648191012  0.0773400008814309  0.0842295256204328
  0.6656841170628065  0.9217874753050721  0.1627969824484601
  0.1579288074461708  0.1651845885220804  0.0785060579991589
  0.3317701308980272  0.2553713602791103  0.6601951646707244
  0.6663914250111885  0.7505358485515068  0.5063773429259593
  0.1647486060851603  0.9145421687511672  0.0023226811954787
  0.0724278118523921  0.4181336872121528  0.4238953018838357
  0.1680890313710944  0.3441660679519845  0.7406144907817868
  0.1621654463130847  0.9056850095183060  0.6680942595313627
  0.0752385508794402  0.2494370447583338  0.9253179659962983
  0.0830686196918366  0.5004333326608329  0.8431665902214124
  0.4992160954683937  0.5062146586162840  0.2477306673090487
  0.0661240387684455  0.9018543736748417  0.5722668673054491
  0.5015262748943209  0.9964062107962139  0.4193207873842111
  0.5016910486866125  0.5065741111185673  0.9215776278667840
  0.0784272482226045  0.0832608488338474  0.4154900813092018
  0.9112221407479674  0.0006647091771568  0.3309569598128290
  0.9927819748150714  0.5058645526091268  0.2379325546670120
  0.3388156577850195  0.2590402402723240  0.1730901360938317
  0.2520865680277075  0.4246661436446102  0.4151139741019477
  0.5743887421086996  0.8344040655252597  0.6679084429033101
  0.0811888451427829  0.7477181483767548  0.2495182106234121
  0.0845760969245289  0.5083235806807513  0.3312650034876877
  0.1498765913671852  0.2618677802654715  0.1752812135503961
  0.4107546518701036  0.5038601113461647  0.8353847735073040
  0.9114603767098207  0.4202153354606791  0.9189297350128398
  0.7468429027220653  0.8309683856306844  0.6730775417963838
  0.0761855086883355  0.2517744065020808  0.7415867021390244
  0.4946814896021153  0.3246557620012872  0.2518880651119724
  0.1593727151881683  0.0000776491501760  0.5759106515126039
  0.5000805257357572  0.4136136243875228  0.0071407981953092
  0.7486055226881531  0.2422762266205704  0.9137213517318149
  0.2527958271441565  0.9170408232775957  0.2475562374661966
  0.9872782333523374  0.1571846567612717  0.9240185901347114
  0.7440035625276570  0.9180733307611763  0.5813189921770574
  0.4146232853885858  0.9792031145807005  0.3163257828447474
  0.0833650806837931  0.4150772837885183  0.2366159675601807
  0.2554743324684253  0.9094796901518211  0.7585271706887884
  0.0832628990331050  0.5893380752912498  0.5826542131438159
  0.4215631479837200  0.2533444712035819  0.7540344244307911
  0.0838854511005251  0.4981451931200332  0.6699501741671687
  0.1721081251626631  0.2488772239660106  0.8318013043541446
  0.9842862548496034  0.0779206499785650  0.0844181812435235
  0.8257238105625463  0.0004515173944122  0.1666396670778318
  0.6620313800329470  0.7489135656139736  0.7558891767691892
  0.7481531788816285  0.7477411211234163  0.1675767469519817
  0.6659613988980831  0.7412507965770214  0.2505340868328355
  0.6642112262494152  0.8316895805622724  0.3449844690619395
  0.7477217747684404  0.8329305354706795  0.4131724268400294
  0.7452358774189762  0.8282362804992757  0.5836313007838937
  0.1622944107433158  0.8251939210356477  0.0012167895467793
  0.6628891590980559  0.0098593494016089  0.1655078543345747
  0.9159161891591651  0.6698216939480748  0.7570893802811641
  0.5802136268501514  0.8290610634743849  0.4169645814776200
  0.6651189061931996  0.8314749879951632  0.1633540592617974
  0.0752583097175760  0.9943252711844166  0.9179418597718494
  0.3385338863347903  0.2492779624161130  0.0811418929027337
  0.8274823943535469  0.6680261015397794  0.9995691397633033
  0.0818356694440467  0.6596342037632593  0.2460690637966304
  0.0757372412710552  0.0803682909563948  0.1732839647577573
  0.1668116250208820  0.4268894519605897  0.0798315987026509
  0.8310739496132793  0.4171373126434901  0.7591220084249807
  0.2507143234048106  0.8272784177085380  0.2504227962652331
  0.0811589967993956  0.7482450198100724  0.1591982639928949
  0.3320311968239815  0.2520975659248778  0.7504448948902823
  0.9087699197861476  0.1664492324319352  0.4168883456735180
  0.9951877330015027  0.6628947764467806  0.4987518563644255
  0.0771881744364541  0.5055343272745852  0.9304005746229890
  0.1591886988775446  0.2542075307677186  0.0837735935066986
  0.0712908599645690  0.9948187713227067  0.5799219521867014
  0.2495025989794172  0.5148448377246329  0.9198253941406190
  0.8277934069419682  0.9987646410707224  0.9987315010864279
  0.9110318727710944  0.4195071077206659  0.0083787106980593
  0.6656994437414658  0.9190687693800743  0.0734618899790014
  0.7441660010396990  0.4221099522377726  0.1673457125398749
  0.5074140412428665  0.1642435046650425  0.3336810194042150
  0.8266200406950155  0.0835452297136770  0.4162068023969249
  0.8267765985382193  0.1645701775715585  0.6645535523634462
  0.7461866691547787  0.5853365454593524  0.1653612338201542
  0.6623791352628731  0.7485890809089122  0.9160077686974868
  0.5890058144047629  0.4192745097253561  0.0010530901784907
  0.7486507105964784  0.3330481932759232  0.9137940272840925
  0.6637047332720399  0.5019631121739196  0.9997693040286494
  0.5009057005703076  0.3326942376807940  0.8324056445939454
  0.6635786933516931  0.3317221132729846  0.3345934398424794
  0.9074231864436524  0.0773321129177329  0.9996778547594007
  0.3320884224933647  0.5895134253252625  0.0841676583789623
  0.6567584476294377  0.5015632171351607  0.6709949609054785
  0.5001837433461496  0.2465440495885235  0.0823538275570789
  0.8300453220573030  0.0825804671182337  0.5856037297399675
  0.5830636231880336  0.2485233818115585  0.5005301126729254
  0.7476255102789791  0.4145644177812278  0.3346872450991452
  0.5821535294281910  0.1629332354245005  0.9168190397030939
  0.7460026221750952  0.2445809786092966  0.8241392766406440
  0.4982608107559803  0.6693379646857429  0.8360887147219440
  0.6628955482061981  0.4184530540012491  0.7609188831981096
  0.8280249494879893  0.7490210909916429  0.9193586871140047
  0.0803432503950734  0.9957497778531552  0.4101456484454090
  0.4155725749781326  0.0008316033529241  0.0787302625989271
  0.7465262857654966  0.0782489136006524  0.4999756707613917
  0.7550292136539094  0.9161478925488428  0.1666819757620383
  0.6591558672661397  0.2443964374153113  0.9156329450153413
  0.6608590677027664  0.2446846053355336  0.7517364319110520
  0.6552157375019423  0.5883777084812108  0.5843099338809965
  0.1640618243444658  0.7478973029221689  0.4149206712276331
  0.1581910368614593  0.1662758485125291  0.1684806981764085
  0.0797254025694342  0.5907774960774550  0.8385384572236797
  0.7459778817717125  0.5855632586681543  0.8379591944575623
  0.9044716140831381  0.8331534430217211  0.0811433666239743
  0.9112201760096946  0.9144955692024594  0.9999668545558240
  0.4167642986335989  0.7450300681750720  0.5009216474668150
  0.0760314640792439  0.0857572259813667  0.3253251154313926
  0.8349099713405888  0.5001134208857340  0.6691010809434628
  0.6628916553082018  0.9196994292120256  0.2525323296926220
  0.7456546878698898  0.4120937323276346  0.6687397124917619
  0.2495463089349601  0.0910062287543364  0.6654661388125317
  0.9901933332908629  0.7484095289217148  0.2487392572286708
  0.0718083154745461  0.9916581882498431  0.7559549199597208
  0.7530463791024108  0.8310595466668695  0.2489925083727090
  0.9122102984622267  0.5091918839189228  0.9211722062348918
  0.7415647767185837  0.7427386352489925  0.6755536469648555
  0.9937678763559032  0.8325379333871625  0.1753327265175670
  0.8333454871415856  0.5901807918068948  0.5826417404718004
  0.1631875087078082  0.7482808862670371  0.7564804978359282
  0.9936848498075990  0.8326075714264169  0.9953370517520227
  0.1661912645753714  0.3390491361480639  0.8328317936147388
  0.0803994618693841  0.8363332696817828  0.2467942795847713
  0.1671742848833027  0.3340816877758125  0.3273628702647025
  0.0765634314751375  0.1632118500761646  0.7444470756166383
  0.9938044067358526  0.1653561159426515  0.6532964901722554
  0.2508847342380102  0.0000932384235621  0.9170183962112692
  0.9885615428485663  0.1599456043436451  0.8327827918047525
  0.9959227811767687  0.8332180871565201  0.3238275341786800
  0.1682054306975500  0.7458577648236663  0.5845684480434407
  0.2482341944824610  0.0817489832777982  0.3327509772580790
  0.2485954199291536  0.2412479681042117  0.4975494937719868
  0.9946966197944626  0.7461945298516506  0.4156249733792555
  0.1651507550140671  0.2388545799720271  0.4189329454694378
  0.4162353137846652  0.0106936922812420  0.2342164031871241
  0.9930111170434403  0.5032097534290915  0.3282404884748121
  0.9879208730076798  0.3240584783035697  0.3300044685456091
  0.0887300460321995  0.8316134928439768  0.4128859102734520
  0.0826748969464111  0.5055738647605943  0.2423370695002056
  0.0752607972159732  0.1611858261246835  0.9211913135296753
  0.2527713632157669  0.3332850879519028  0.4159124631625599
  0.1723659883999213  0.4207598159884821  0.2463154555168258
  0.2477207073147763  0.0732614467148130  0.1635241184956374
  0.2486937400052352  0.1653355413186364  0.0786419409970254
  0.3307540648493072  0.6694953227582155  0.4972654187895852
  0.0784576060230582  0.5002544315925211  0.5799569167348324
  0.0723455003175696  0.9077054629441070  0.6663995864760753
  0.1654184764903998  0.5875247483606516  0.4160706692310630
  0.3224694957311117  0.5064761503292242  0.8356291323049678
  0.3274463027226982  0.5081977431991821  0.4990184174723923
  0.4137807025649898  0.7513607910149457  0.0007135660151845
  0.4091276359198545  0.5057775216681155  0.2464148347392315
  0.8989908903036002  0.4151189760340862  0.3332262665372739
  0.5784257072772396  0.9175291481069648  0.8363412950920586
  0.4135102617299024  0.9978945748974647  0.4118638105489003
  0.5866752291155340  0.3320115195808313  0.2517266460701930
  0.8279393310003084  0.0788405675476090  0.7509477443968242
  0.9103241409813194  0.9105130549188101  0.3306401434201043
  0.7475056512345977  0.0035688426376562  0.4166824179376591
  0.9096857836658979  0.2468740181416934  0.1677120397773477
  0.7447039026376046  0.9161417932828845  0.8343368596300664
  0.8257082582628149  0.5005038306223107  0.4909448493249958
  0.0753853080643734  0.3284418146072383  0.4164173035843364
  0.2494764737092863  0.9996152094669615  0.5799026615982635
  0.9114726045685098  0.5941699378783826  0.3324407456020673
  0.4198608567687362  0.4174483266022283  0.4999745870133143
  0.2495710170780997  0.0789912727181205  0.8410843574769782
  0.8365175465379623  0.8289421376604770  0.6710644866156813
  0.2504918830009534  0.5903429353833651  0.6687859482353635
  0.7439469053430520  0.5912060426415612  0.6711945295185913
  0.4201031712160525  0.8310814541468621  0.5821223432211603
  0.7449652031182780  0.5842981328305747  0.4922444380153583
  0.5750937013358598  0.9194782181961507  0.1628368118213681
  0.4951837143415215  0.6706156447496440  0.1674154120607183
  0.5001151769632091  0.5048530636692889  0.8334041936403462
  0.4129437030740504  0.5874002982721844  0.6696327277683994
  0.7457771261115521  0.5002487483958564  0.5819173476951918
  0.4872557101804189  0.8328185492851892  0.6690837665558629
  0.2506788931803723  0.9196854468186686  0.1586840602888413
  0.5832219396904427  0.1656884457922221  0.0805973008701585
  0.4959782960661765  0.6672983863619388  0.6695719413836324
  0.2477601949945431  0.0070443155518750  0.2491245814517843
  0.5749099410597520  0.8308478977093166  0.2524292943091574
  0.3319684553687887  0.5889120407465134  0.2487523618429455
  0.2520083466154107  0.4206853247322155  0.3255689564546833
  0.2493910927315750  0.9992586175789261  0.7583064974706268
  0.4197756267988617  0.3261591398985910  0.4186584536199247
  0.3435868326599326  0.0039997541913879  0.6663019580323613
  0.5808072681489566  0.0011656041213924  0.5859201629981539
  0.4165466036672848  0.0771183705378392  0.3302100034047167
  0.2505808555955786  0.0855507122691714  0.4984583362077026
  0.2499242090094065  0.9106476732213689  0.3362614535545891
  0.3308302048557832  0.6682843821151012  0.3336020170739668
  0.1596757568932676  0.9096304219656766  0.5790299695263010
  0.7468026362905078  0.9196066147324538  0.6712094073060255
  0.4155976029518958  0.9982858110771935  0.9190260743793086
  0.4989308805754517  0.1619327223527238  0.6662943775689076
  0.4208312581813106  0.0836993090024667  0.6663657403086632
  0.5789674260472125  0.9196919964853353  0.9957565073579853
  0.3371287978947638  0.1658951903014550  0.1638701580348620
  0.4804485616348692  0.9226588306652268  0.2571680052955529
  0.9082414344495237  0.9123855820487633  0.6714144648501610
  0.4115304177891237  0.4221148874725044  0.0056033887862792
  0.6636596205902549  0.7477487455902175  0.4136462937610611
  0.5818021210854674  0.0092135036111986  0.2470619174135645
  0.4997179782591167  0.3247896224026445  0.0036535609032164
  0.6608132494475073  0.4101774994894859  0.5831552536384057
  0.4215397025339376  0.1620068089618697  0.7517130784261229
  0.6615146906505806  0.5021725289757504  0.4927584363138805
  0.4191960830370135  0.1642359652366873  0.9172429288301074
  0.1622732397709753  0.8269905991177959  0.8382075690491314
  0.5804206882575947  0.5856746208225835  0.3331201904504081
  0.5812156512174939  0.9982039404831873  0.9156339157178809
  0.4209277120629384  0.4211506369105737  0.6765641858002048
  0.4160318137891203  0.5061391435507825  0.4108034194887465
  0.5034283566427307  0.0048936376470866  0.3291476039029130
  0.3297972062965909  0.5076022327156713  0.6677055771257998
  0.3328923295471497  0.8324175089612340  0.8373709335131495
  0.5885125116552664  0.5013359898236743  0.2498254097601668
  0.6604803452385500  0.2477059297419944  0.5831376222396033
  0.4162095088366661  0.5061195349096262  0.5889776930587940
  0.6589922751881782  0.0792464327383642  0.5857473362308114
  0.3309971255655323  0.7458020426635592  0.4167789983645240
  0.2526775902061184  0.9112924644914846  0.6679008005329754
  0.4135554052854395  0.6716102295686350  0.9199579730883234
  0.1633349083604101  0.9090003474528418  0.7580958436388334
  0.9092031116674648  0.8341437069800490  0.4129331638131328
  0.9927824109394638  0.4143149499625625  0.2398666702465782
  0.9104720558708299  0.9127593131384742  0.8353802331556366
  0.4221581468182993  0.2462068576178371  0.6641725680916045
  0.7441254921683751  0.8323747252122276  0.7623136445396939
  0.4182049947369165  0.1659921687792271  0.4217500638251386
  0.4141898385549069  0.5958981213454457  0.8367589421137405
  0.5039993118785412  0.4130200834204959  0.5810690646896632
  0.9944045583259219  0.5052397143207078  0.1480641604672550
  0.6571685108080753  0.3298604467048815  0.1679150239008457
  0.7469593225672176  0.2442410469281741  0.0037088958922060
  0.0713908552257761  0.3379416718553585  0.9215165906874303
  0.9852432044752542  0.2487546426789196  0.9181683089622578
  0.8278932604833311  0.0761541612785576  0.9176312642431160
  0.0795714087384712  0.2490068262835533  0.8334403076968996
  0.8276168075352226  0.3214076327394687  0.6675514499394209
  0.7474748254633430  0.1659087888734977  0.4120313836087359
  0.9059413398491084  0.5030333373769413  0.0838588069284585
  0.8150097909964447  0.5004804840068264  0.3331372074221034
  0.8269750219848855  0.4124367880587632  0.4190922186342839
  0.9275507053624269  0.4996402728394013  0.5808275886611992
  0.9946651531043041  0.7482732029150451  0.7557588351813689
  0.2430351587659436  0.2456342972863076  0.6618586263230775
  0.0763865941612405  0.1712408284263511  0.4195380712400110
  0.1647969648740644  0.3312618844029124  0.5083121819680965
  0.9947997193831637  0.5013856510860834  0.4983074495836771
  0.1618956878156300  0.9976346053637534  0.6681241935529809
  0.0840541391865910  0.8315877903607509  0.0870317251510472
  0.9944862503363112  0.7436612428957897  0.0850917197052181
  0.1671813794394397  0.2533686423637219  0.7431268598283901
  0.9929119968821127  0.4160523704666739  0.7517320140364868
  0.0746413797937073  0.4105491598640020  0.6644101728063477
  0.8354706967371522  0.9164529937695248  0.5835565831568483
  0.9040192514525223  0.5015539995369188  0.2416857638747686
  0.3301660315963164  0.6663134388143024  0.6686564224956008
  0.3358952509893802  0.1610048203699858  0.6635299358481105
  0.9924487585851787  0.5872747998972531  0.5831338388250885
  0.9944349438419696  0.5894204464871035  0.0825193303805645
  0.1653190091639012  0.6709980885500543  0.0003061743384291
  0.2470573066763871  0.2523437928967011  0.1672951176900835
  0.9111691989271756  0.2482654672030308  0.4996377200380640
  0.9944840373759762  0.7497312858640638  0.9197961016507239
  0.4993197027740963  0.4163808922142287  0.2456759051685414
  0.0026466564807842  0.8396684196797843  0.5039809830526528
  0.2477380318392827  0.6702464854715564  0.9196900772398542
  0.3352024310648227  0.8319249371102206  0.6735447183073338
  0.0791943988636650  0.4160184489112281  0.3295393032231781
  0.9923049305737319  0.5030353990825812  0.6721568496125119
  0.0847219166589765  0.3259059239621381  0.2369784981708984
  0.3321693085604162  0.5881937239508426  0.4143207023977742
  0.3453332398594936  0.9206149136525036  0.2521592490521979
  0.2486632773882096  0.4220160918618351  0.5041887042255442
  0.3310907742427612  0.8285158883018664  0.4947502957450955
  0.9911744739494911  0.9206171092638357  0.0856726582905225
  0.0813495176292180  0.5885243512325111  0.6726504619333865
  0.1643988012065487  0.7477252753116057  0.9183478170831831
  0.1638244642497286  0.9163643121690318  0.0908607605935475
  0.1628808062859933  0.4193712462365531  0.4165913055683355
  0.5006801384520881  0.5035405175377149  0.0096772579201693
  0.6614459188273526  0.0792921872148185  0.7507233652084817
  0.9262909454046069  0.4145856360552846  0.6684231566004308
  0.9107459077176218  0.3301445808191645  0.9164524565392942
  0.8372092411797639  0.2475509758507840  0.9174496584855761
  0.8292632007581664  0.4106857935670621  0.5801027329127724
  0.9085658790175166  0.0016900534583192  0.4197375146969383
  0.5897774796655790  0.5027190365866201  0.9192038852361488
  0.5893406530727667  0.0007656469758928  0.4188201227298624
  0.2487245342167476  0.3384707192566560  0.9187409964039543
  0.4127096271314082  0.5062379214204904  0.9253413337991496
  0.0779492500362306  0.1650623399361663  0.5810094424676736
  0.7469033436658942  0.1666115524783887  0.2499966373933399
  0.4099876214260089  0.3343452812407710  0.2421643662840153
  0.3315160878178691  0.7514731427404028  0.9185479925983574
  0.4181155547244777  0.0002701595012919  0.7525655348591729
  0.3347437348843978  0.9980700996972350  0.8378882260687902
  0.4173346176463567  0.3399321748394424  0.7525685763668634
  0.4172923445350110  0.0811634742808134  0.8376426307870702
  0.2485916622418998  0.6676482754408715  0.2489804062906777
  0.4987697048132356  0.0810863116536774  0.9176090705289857
  0.4181409848108626  0.2496027394543932  0.8403691191059957
  0.3357827288433524  0.3357816377945070  0.0043644299542446
  0.5019315235757491  0.4160033156249256  0.0934148756184842
  0.2490901078013568  0.7507654073688604  0.0015113711900873
  0.3327175138493165  0.1627091985952988  0.8411175562422624
  0.2454850785632424  0.8286638275706036  0.4162645267357692
  0.4148003060080124  0.4220609744773788  0.1646611724426181
  0.2490623539342385  0.9121046128487958  0.8445218351475172
  0.4982392528710160  0.8281593058411850  0.3360562765785342
  0.2477642892392041  0.7486914728592984  0.1659712648139596
  0.5026370037931424  0.1649380318819209  0.5000170785255087
  0.1643402567018638  0.0866912455420250  0.5821539403499406
  0.3412127916960905  0.3318736139917551  0.5000085725310013
  0.5805957702964516  0.9162375378455500  0.5000368120837153
  0.5001225093954007  0.0819462728993178  0.5825380622478938
  0.0800049661253471  0.2489502591406620  0.6558912698070295
  0.0774834191907589  0.3383204656018833  0.7509595655079083
  0.4969820810473475  0.9162422036926982  0.5838705779024909
  0.4911144624656506  0.8346756882744789  0.1668984041171174
  0.3412963094295997  0.9178545440320760  0.7522469950632440
  0.5789339455694490  0.8322316501688480  0.0744073928996218
  0.1634977390084635  0.0008523164592967  0.9975755655951363
  0.5810178135178800  0.9157386422740261  0.3409704275411883
  0.2465152176170161  0.8325903553888113  0.0818948532043908
  0.5810421083285895  0.7426372261555766  0.1682196109370866
  0.1668360836253066  0.8326145630692062  0.1669768614326755
  0.0809962643387184  0.9150790624894454  0.3298598798963867
  0.4223710305513018  0.2541100454075271  0.3300044008167780
  0.1655848843032588  0.6669017066116149  0.3323004011344149
  0.4189628055015602  0.0820970021032737  0.4981674083784009
  0.4192452360956823  0.1637990530187241  0.5816953392683422
  0.2493878786973890  0.1637502764400970  0.9181220551554299
  0.4167628281993001  0.0829801005257238  0.9990542295916299
  0.2474585243673472  0.6671317747385862  0.4160116819881901
  0.3346541428350098  0.0808565869651355  0.9191057921674626
  0.2505887498487229  0.2506209126870656  0.9928008688906417
  0.3316713385212827  0.3441383148046572  0.1609542968052451
  0.3353129139391985  0.2442275297316206  0.9188065262558822
  0.4169742817273280  0.1667859457051114  0.0791589963985325
  0.2493452093069241  0.1641861074232534  0.5806938899649493
  0.3309439596165907  0.2478429983739093  0.2578959579278196
  0.3355562110424708  0.2455146100529236  0.5748777175289673
  0.4173464485607813  0.1638424602985015  0.2450664140198829
  0.3373131109625491  0.3423958157946831  0.6669803028233655
  0.1649829403567644  0.8313455263092517  0.3298488830641026
  0.4156868117427281  0.5935115238485862  0.5000796689019741
  0.3289292498253184  0.0009167020777944  0.3324567425395076
  0.2491239204863597  0.5070601779906070  0.7502186206080246
  0.1638162902697657  0.8198443221228693  0.6705215868294456
  0.1650137546315856  0.6690016706535300  0.6708351341794908
  0.3373378653973190  0.4202228201679532  0.4161882378424087
  0.3310270141272657  0.5876756190082466  0.5836522686402427
  0.4152074571328691  0.8249802240957870  0.4216564314569127
  0.4145315843798904  0.7479467650867858  0.3352861367996615
  0.4980392544091123  0.5938439996429700  0.9203130883615633
  0.3305949527989669  0.6688178108482230  0.1663173450424159
  0.4132044143140609  0.5062582150116790  0.0842596935560060
  0.3315030709612271  0.5062448327059614  0.1647250092638372
  0.4129013049378109  0.5890290134892021  0.1662651493076248
  0.4979181658710006  0.8303093923908070  0.5008514586746061
  0.3345718518996981  0.1633939969207537  0.4977873003254459
  0.4241297693551468  0.2471825609607828  0.1662590470943497
  0.2489517541979113  0.6693350508889881  0.0832054030306419
  0.3322975591270854  0.4226113264801046  0.2455639447938323
  0.2495673322512391  0.8235569353586580  0.7536705420819316
  0.2460653931232241  0.9088533013685164  0.4988943558133375
  0.9941692191887158  0.3299276700479100  0.4990869424397176
  0.5008229624585966  0.1641246085278324  0.1617749177013455
  0.3331512393646220  0.3367966977260187  0.8298156742979580
  0.2438342311287547  0.8286006792296130  0.5835658989903619
  0.5816830413239349  0.0004825071972896  0.0794031782730841
  0.2503064651103397  0.4256761313971099  0.0034802971561878
  0.4995659352483197  0.0035740286264865  0.1609608597062548
  0.4123416070153536  0.8991315187795005  0.3445332422129311
  0.5854764097426900  0.0836704228927994  0.3338190171664630
  0.4165357870181706  0.9170379373838535  0.6673764029542698
  0.4980813077566061  0.0006774579845612  0.9979724560840495
  0.3336599362582082  0.9155375145940609  0.9188986391616175
  0.3319032398796298  0.7449232266593103  0.5839843127377149
  0.2484873722963394  0.5898985946496929  0.0023093383029069
  0.2487267163689794  0.4200034652099467  0.8273492866849126
  0.5001292614978434  0.0831764953452772  0.0789593696358104
  0.4143097774296534  0.8323831952514911  0.9180142689330073
  0.1590187565151938  0.4283082098767976  0.9207770887679039
  0.6640725092040037  0.0006577607575306  0.9970132178172716
  0.9892969311649175  0.2492032859715942  0.7494636403738280
  0.4156332389807359  0.9158269951584527  0.8367922157883551
  0.5768124528247135  0.8332579520718808  0.5812476463123261
  0.3303296040918633  0.1629020769153821  0.3353248353054877
  0.9970186471123169  0.4119056297763334  0.5803883013398677
  0.0787311926264031  0.8290770805078808  0.9190843680314442
  0.7477192097877351  0.6657609475998030  0.2493850444648881
  0.1635335244066320  0.6685043804822124  0.8365158002282955
  0.6637553878230485  0.6665456255606933  0.3334830519293597
  0.2504566184529715  0.7478146084281102  0.6692099853480497
  0.7466697821010694  0.6667206330780607  0.4144221694638276
  0.1654612750824843  0.9148297582617365  0.4105625389114810
  0.6623291544174645  0.5849402582289026  0.4137105368436976
  0.1639562637452061  0.8291954569931224  0.4987415059687789
  0.9026726114566607  0.1636909772350155  0.7495641118108206
  0.2490925836808557  0.6682390193176168  0.5832124877876118
  0.9120549003463443  0.3299248803046883  0.5829850484833652
  0.9954747509428736  0.3284924501540584  0.6659598235293848
  0.1664735344231676  0.5067687667095939  0.1632719286848905
  0.4127077724246103  0.8269637953276514  0.2556002283401348
  0.0748917895299761  0.1660263636465611  0.2469915324354785
  0.5002772402768638  0.1648969000932058  0.9989504897223970
  0.0755759511392614  0.3339554802620600  0.0866435131983448
  0.1623453322507437  0.9118696022071350  0.9161984846123625
  0.9867630513984966  0.2488339317996963  0.0852968485591302
  0.4172073679041445  0.0866151263523151  0.1575967397881403
  0.0783751262574462  0.0708250235033964  0.8352531564720526
  0.1699262704908232  0.5883210303251325  0.5838871525508700
  0.9903048454620840  0.2474463353117664  0.2477399141144282
  0.3356708257043984  0.0833753580144668  0.5809728069997090
  0.8299039634807330  0.7496476834554603  0.4131845959225939
  0.4207761319942224  0.2469549753623171  0.4987852237732169
  0.0819951327664532  0.6748745952931926  0.5859295449400440
  0.2480972905718423  0.8296549090307722  0.9194152680279348
  0.8243728049428692  0.4195505850431470  0.9175585301681813
  0.3322907091677583  0.0830365247469877  0.0798335712831029
  0.9930059847823153  0.5024367734718460  0.8373446149802340
  0.8318326018315509  0.6756578503564304  0.6742252345828601
  0.2493872246467989  0.5878075329772451  0.1651196908023966
  0.3311292519058784  0.6703826239962540  0.0011863961591834
  0.3290675858492378  0.8274924174389632  0.3371153501820031
  0.3321810397306802  0.8333405416830786  0.0003421841928207
  0.5012639718765063  0.0860716779638607  0.4174271159469943
  0.1707560885283805  0.5037882019426287  0.3293824412382126
  0.1652479707137771  0.5035906659535995  0.5007177872189217
  0.1661126299755636  0.5862558095085300  0.2473146999379080
  0.4160242438080329  0.6667823461917076  0.4147427201154248
  0.4162276002855787  0.9231290417769518  0.1596569468302620
  0.3335584414469727  0.7487055708328682  0.7530417146676323