 C Cr Ni 
 1.0000000000000000
    21.1200000000000010    0.0000000000000000    0.0000000000000000
     0.0000000000000000   21.1200000000000010    0.0000000000000000
     0.0000000000000000    0.0000000000000000   21.1200000000000010
 C   Cr  Ni 
  86 259 605
Direct
  0.2502948439996572  0.0918954654492009  0.5806402095750066
  0.2606378420348947  0.3264733953548775  0.3278228683969766
  0.4139279874386502  0.9161991486336488  0.0784664286530314
  0.0856068363631661  0.1591269311619118  0.8229881683267248
  0.0785811340232212  0.6621267372006727  0.1638647893829700
  0.7435395063553387  0.1682707404454468  0.1619078126746867
  0.9964794220634617  0.8374388820641011  0.4203497893371435
  0.1671748188892148  0.3265592915462265  0.4238552197465714
  0.1569216624402811  0.2546676378510248  0.1708381088229762
  0.2476862029367316  0.0866281350755694  0.9100972485362236
  0.8244651970302445  0.0813283394228461  0.6681850832296063
  0.8287931853102807  0.4989913964097391  0.5742505326824828
  0.2496117409769866  0.8247160249151263  0.9978523171901732
  0.5697650523009924  0.8285714022423588  0.1590574138396637
  0.2501562573478917  0.9081959561864640  0.5771542287204102
  0.6616314038812571  0.8282094171354066  0.2528716740469535
  0.6504379955842933  0.5024449083838431  0.5838291479313215
  0.8333569831579442  0.4087349338445477  0.6667408200598869
  0.9179392474370796  0.3364998401647712  0.0043447083745177
  0.9188133476620476  0.5912822220929604  0.5804138992010835
  0.2506763957831527  0.2554795590787260  0.0782548662354128
  0.1657071976439112  0.3388054870479278  0.9218724046612996
  0.7430984334745991  0.7516102313719962  0.4153480635237944
  0.3302078036529077  0.5030928311533596  0.5863441250387281
  0.5852392205430180  0.4138068181194987  0.2475810406053499
  0.0779210014119514  0.3236572826971572  0.3320055925329021
  0.7531735065425470  0.8291677850640709  0.1596225363959225
  0.2522505927668668  0.0018074097223309  0.6711354969433391
  0.8267214002723818  0.3382654748804791  0.9131949328783673
  0.2546199650223349  0.3363320997553015  0.8324877064024712
  0.9061114486626632  0.5064084822748142  0.3350532642689459
  0.4182374672309633  0.5005878286429750  0.4946399816425623
  0.1703065771964792  0.4219425945097359  0.3324510765928104
  0.4213532750393502  0.4120735732646352  0.5880350266001534
  0.9919959207244010  0.7505861204532416  0.5110277474535186
  0.8327487774018206  0.8270076776579297  0.5811431068124874
  0.7512897852156827  0.4195139007984939  0.4148982210415754
  0.9942085551169736  0.8324972292912122  0.0818020485711666
  0.1580124009202621  0.0076863279120310  0.7593908105519491
  0.9905282013011842  0.4134584641863365  0.3356087860071415
  0.5009642662223720  0.4135155961345751  0.0002918670857165
  0.5694697043664451  0.9218474601137150  0.2530288319093565
  0.7379307515397390  0.5920513500167811  0.5813568138885050
  0.3392572028539578  0.2550358433407229  0.1713732590004132
  0.8306759086803407  0.1676427343180410  0.2515333547337601
  0.6622365616531787  0.9223825453084178  0.1587319697347734
  0.8286143619295152  0.2444207619310544  0.0065543831352621
  0.2453897447918306  0.0025734839716449  0.0022501333091578
  0.7424378384393819  0.4106688296542348  0.7571542869323775
  0.6568289316378354  0.4117153674341231  0.4989501717793882
  0.4150438335791847  0.7493340918909498  0.4186691623088043
  0.1583886812024303  0.3367201150432937  0.7369711159801109
  0.1593556077602533  0.9086609202743355  0.6711522713463445
  0.0798525455466760  0.2504993103711396  0.9211228074658848
  0.0810032064631390  0.5005411031117680  0.8411121783108892
  0.4939732637537647  0.5012056535195386  0.2469215828962409
  0.0829636260629660  0.7472799831507999  0.2508134459807684
  0.0636704087016041  0.9035426861087453  0.5742112064623526
  0.5003190911031417  0.9988285864129696  0.4214973421537200
  0.4944177692173349  0.5052477072698552  0.9163964012592756
  0.0814961677492074  0.0861793678114512  0.4210045215345789
  0.9142182203521683  0.9161651326303011  0.2469754227234791
  0.9955483378223369  0.5076916388737716  0.2440527246902855
  0.2587395247250696  0.4217385922350340  0.4227310895142833
  0.2539523813009672  0.9170487085607203  0.2541952069079039
  0.0876782405724270  0.4964666580711696  0.6692467667258649
  0.2490712455128460  0.5839116598329323  0.7528818718099443
  0.7443977904581618  0.0018183240081178  0.3339356214531364
  0.1606500818623498  0.1619073055700769  0.0782692793458508
  0.1683795114241967  0.7505256929917904  0.5021097928248701
  0.6659765692156298  0.5011038108543550  0.9185774529156333
  0.8338656272725564  0.5050980794251589  0.7581447893555454
  0.0871505928465442  0.8401093890780504  0.3317572593493283
  0.1551084919447161  0.0036585541176737  0.5756672743483774
  0.7413861823934729  0.5039709322249428  0.6698676343790151
  0.4103827230172369  0.4153531025134972  0.0891399207968748
  0.7415206901748067  0.8288859361505104  0.6741802791165966
  0.7386794964812664  0.2444953968437531  0.9151976095742775
  0.9903969254801581  0.1598813837591198  0.9172981262123368
  0.4149526498802787  0.9944586339396870  0.3236544994911294
  0.0834108852694928  0.4175055788951420  0.2406634112849847
  0.4986983084246269  0.9154424819552279  0.6683279479979131
  0.0062102788619099  0.4940775047231578  0.5760215815580878
  0.1653214826368229  0.9182546173698283  0.1641137306097177
  0.0069166220128669  0.2404255804508730  0.6728851745223869
  0.7441645860349767  0.9202787404523421  0.5833852940740096
  0.5778470564884215  0.9161972694447466  0.3413801862722775
  0.9151429552946537  0.5872437679646266  0.6712755816257661
  0.5788787920664819  0.6695457308599554  0.7524190331476299
  0.7475349764217133  0.7429556741210411  0.1639870684602244
  0.6626178755529145  0.7391565430141210  0.2484392239843826
  0.7458229558540095  0.9127480855049618  0.3323085239208742
  0.7439791386368991  0.8402141682145082  0.4171791491357974
  0.7427936481907792  0.8306253044428290  0.5846269174824054
  0.1591444196643606  0.8290392623439211  0.9987225647526146
  0.6608090749672640  0.0102885268313950  0.1617322772872676
  0.8304980728937239  0.0010240058746807  0.1639410611389626
  0.9939513836590005  0.0787811907736605  0.0820866736158567
  0.6623304703399032  0.8318692769901094  0.1609746626959789
  0.0763324564070267  0.9948746804444767  0.9168467840842965
  0.9149213319063569  0.6673189834309284  0.7539865034841267
  0.9117567647050058  0.7499083672614379  0.9988025883391057
  0.0840370807747314  0.6596926727894319  0.2524434128949418
  0.0774074740793902  0.0817683660843434  0.1663379484218994
  0.1674282305189463  0.4239684057450868  0.0813891953854942
  0.8326838960509571  0.4159636140505992  0.7550471752935927
  0.2518157933120563  0.7464258919355166  0.1657659555188409
  0.0805123925820972  0.7509349320994335  0.1621824133059191
  0.8324306337264273  0.5020766784191508  0.6668710815535979
  0.7421572378378456  0.4130974786296825  0.6664897359149975
  0.4249420021704082  0.4114714647034738  0.4976675305843013
  0.3375184965982444  0.0018459179015978  0.9986708321251225
  0.3335535834423624  0.5921984380209281  0.5865757996791591
  0.8277665225073934  0.5041925110669105  0.0022780656386580
  0.9142712786085260  0.5883869581835017  0.8368162069659878
  0.8286938411713878  0.9979647875823554  0.9977601863611880
  0.7437806088405898  0.5021637671652207  0.7593162580211683
  0.6615415150707546  0.9167382216359282  0.0691949197187269
  0.8294292876181238  0.1557754096215521  0.9992206202227718
  0.5000054323659978  0.1648963954875928  0.3323560593806407
  0.8301296565787915  0.0848169144774548  0.4183838658822955
  0.8278126295266663  0.2438406084167290  0.7516598254231522
  0.7453359827154847  0.5866735152276210  0.1644334685043172
  0.5794903965002386  0.7483903898421058  0.9980030796858246
  0.7538782357360040  0.5052339776343824  0.9194388750766689
  0.7381743913520621  0.3346212422223213  0.9192584076860691
  0.6639536532221124  0.5032513330227122  0.0077421696929608
  0.4979706862318046  0.3332368528614204  0.8342831930404098
  0.6644601271602457  0.3280350521443006  0.3339161702547252
  0.7459906221754872  0.4175233172139506  0.1642377171410996
  0.6565215611512880  0.5036687996757518  0.4949484832494045
  0.8279801354272782  0.3352470300543773  0.0045748579503658
  0.5818485770433844  0.2487425401491189  0.0003200771826570
  0.2485667969327553  0.9141245943469428  0.9980435583707686
  0.8344470319842472  0.0030876943491679  0.3355510195591361
  0.9125767957828781  0.0053878844078189  0.2486624428031276
  0.6507089358361264  0.2469017134569891  0.9156743725707990
  0.6585942947735153  0.2465100238114756  0.7516138892264395
  0.8279070396644086  0.0827969266784843  0.5789994208947421
  0.6621185253568649  0.2489142261215078  0.4150422879194999
  0.8304058026000098  0.3287819947271975  0.3318200419510846
  0.5778444402110111  0.0815858417937961  0.9963351029587303
  0.7416738074019454  0.2440653186040209  0.8251471720439133
  0.6620772537198151  0.5922750097836763  0.9176858627575903
  0.6598194805848970  0.5035452105152652  0.8295241888552627
  0.8289921369893620  0.7503078471908635  0.9174177814234369
  0.0808717542370559  0.9992618957333261  0.4142857956345836
  0.3304486100918428  0.6670074363427290  0.1655379617469903
  0.1672437880054900  0.7479042270104505  0.4131083461897366
  0.9952443867785680  0.8326300117440867  0.1723818098757524
  0.0797286766035517  0.5894350170038347  0.8387490935169576
  0.0818657220232996  0.4065379690528376  0.6696198189791349
  0.1682525909900034  0.2470048909094759  0.7499400975851540
  0.0755708369310656  0.9189713330661065  0.1635863294543504
  0.9057035552350360  0.8326651236855891  0.0781660203138062
  0.8283025919605425  0.5897193529916273  0.5815935060107600
  0.9062477007209387  0.5030198270789946  0.2445790026697701
  0.0801979281624790  0.1737790443896630  0.4212322239626447
  0.3342285492590040  0.7503003080350217  0.7546912282267639
  0.9119659072743167  0.8273814863867256  0.2510800863612327
  0.1609494692725335  0.0003451075252094  0.6694875202852705
  0.7502737257610246  0.8311459571446680  0.2498205119070294
  0.1670541140273577  0.5859911811571820  0.0787587177330328
  0.9930144824064056  0.4151219949144683  0.7514882415317686
  0.8354034017128558  0.9165628604666475  0.5838275777240833
  0.1691761257822611  0.3309841058209079  0.5127284886789344
  0.9992632510607810  0.5030711965707056  0.4883597790748776
  0.1637878499329294  0.7478434932767041  0.7564810640235576
  0.2502459426991929  0.9967401859178340  0.9117927641941687
  0.1678614095020771  0.7436316970473669  0.5909921635604225
  0.9950996498173320  0.8340454900814854  0.3297472157791962
  0.9936514644876996  0.1611191603279664  0.8265724051821831
  0.0843486110882241  0.8317770641684652  0.0828308211664816
  0.9893146054208752  0.1541589151094997  0.6677293183940126
  0.1681287499477869  0.2468918624259120  0.5799557898543403
  0.1683932084018541  0.3295434004662961  0.3338933908963893
  0.0827390896202461  0.8363107931379054  0.2436022253214006
  0.1645368329550711  0.3368568279487242  0.8309985625670668
  0.0748542127081035  0.1742472018350490  0.7355368187625860
  0.2506660115372455  0.0873461021544808  0.3342556318041138
  0.9954851244876222  0.7462270427713434  0.4182827948712300
  0.8302060592621523  0.6693286726528006  0.9995373371878927
  0.3315692106917551  0.5868658928550724  0.4129736239221032
  0.9976246380633227  0.5031275839346933  0.3350171883472410
  0.9897245902747408  0.3247756781664474  0.3330672432220009
  0.0865738497711994  0.8334390393951077  0.4188892638850252
  0.0847764551635636  0.5086525694813783  0.2476202373954092
  0.0791970256693016  0.1622219208160006  0.9144570440061381
  0.2571207561196739  0.3306652364262687  0.4197040455057425
  0.1715659227087871  0.4228575126550226  0.2434646447537212
  0.2508687298328952  0.0857918966838542  0.1667009493804180
  0.2521351316437569  0.0887860238014694  0.9983338393120879
  0.2504084772345077  0.6682395888341012  0.5848903662203798
  0.0920142931259211  0.5015264915089457  0.5804136354282281
  0.0700840172664568  0.9133847965955700  0.6690257035266387
  0.1655836902152099  0.5849776324288544  0.4159770935349741
  0.2509842656134280  0.5880178855797688  0.6633079951209752
  0.3331008022380350  0.7472706718848671  0.5869674390106479
  0.3430030744894835  0.9185001294390092  0.2523540899882439
  0.2481101312588068  0.6677512132032973  0.9170541924159907
  0.4122865994764320  0.8363443417005264  0.4229469818960620
  0.4152100996407138  0.5860533338857021  0.8349809284253095
  0.4174530194188481  0.2478426254229412  0.6693234688940316
  0.4174547544455321  0.5025956476218575  0.7540725060922454
  0.4141990185026054  0.6682543894276235  0.9179775613560638
  0.1631154323183016  0.9142238941294547  0.7599665032905509
  0.9077867272481484  0.8351570379846925  0.4153311523569584
  0.9933743680513774  0.4171416350945568  0.2430731202766231
  0.9103816290717931  0.9131097435417763  0.8362012077149105
  0.9078461045711119  0.9132319424691745  0.6719638348185728
  0.8330158018081980  0.8291569138704965  0.6727980271197329
  0.6604810597072748  0.9187716673778510  0.2504292840457245
  0.9115027359078660  0.5956003286169295  0.3342994996075043
  0.3393328233655713  0.1689324333268504  0.6692661832925466
  0.4118407036798220  0.8303973004227629  0.2513430826870462
  0.2512724038302116  0.3353308736781913  0.7432275497139704
  0.2475704291367065  0.0012836522069389  0.5810139493560774
  0.7436012405402901  0.5940012976592719  0.6711372529704327
  0.3384357730174870  0.9168656688626502  0.5832470982105249
  0.7417094711190571  0.5860356304337517  0.4930040092503098
  0.5717691002998914  0.9183553363246910  0.1630781693738528
  0.4951896464637949  0.6666982542093557  0.1644193363221280
  0.4968416203483645  0.5038527658712955  0.8273756547879694
  0.4176442495067184  0.6699171572333987  0.7524983455656673
  0.6527803645905643  0.5019612860558121  0.6723831332062559
  0.4118078751209641  0.8299562863226609  0.7548630907156549
  0.2546894810788353  0.9159635902628361  0.1652999177258045
  0.5724771726811524  0.8295962103731426  0.2491977407200384
  0.7439373411987567  0.8321600738524603  0.7631577362367316
  0.4177399414628415  0.1658323352184613  0.0801746581610726
  0.5819573987613907  0.3276073050748154  0.2511038849801551
  0.4132343583114825  0.5064828600251327  0.0831391009370197
  0.1594189289115961  0.9141488943377730  0.5821174277160122
  0.7433994806443810  0.9187291367547966  0.6730181296972821
  0.4974721266867744  0.9151684950761888  0.9156223120655378
  0.4966481511919327  0.1661849786646996  0.6690149526348602
  0.4147456235215686  0.9992767249545509  0.7517683982867668
  0.2580085855554962  0.4179046137395190  0.3327246812817012
  0.2489951628289749  0.9985350707100817  0.7591842600253443
  0.4176268940829362  0.2454397124853262  0.4994235782045248
  0.3410590292950891  0.9987398692491830  0.6675438190163576
  0.4997034809941518  0.9999887886501401  0.5092622803066460
  0.4174237080678855  0.0890683274110781  0.3324054938733422
  0.3343357052586323  0.0009488134147975  0.4996294463799322
  0.2519432552852605  0.9166494186687446  0.3422656057280232
  0.3299831653721229  0.6637585983941195  0.3326283565878320
  0.5779634303522465  0.9167817873134059  0.9955184778682484
  0.1641894726561512  0.9201345611041647  0.2535331077056889
  0.4807841631011695  0.9178733218934575  0.2523027625710381
  0.9965336071929504  0.7482954646191865  0.7538510503507898
  0.3328173039294776  0.4133965564618828  0.5858323823298867
  0.6601863372855414  0.0818514359180435  0.9162947607025811
  0.5816350438912272  0.0882891218986482  0.3333968475047203
  0.5014094321571744  0.3242995426942503  0.9998632280052767
  0.6537816658076965  0.4124497182670819  0.5879132257031271
  0.4180585417562633  0.1661926661666661  0.7519615244208067
  0.6613393314556854  0.4148332614000889  0.4098426647150754
  0.4172000081920152  0.1677680563650248  0.9146513477440033
  0.0789076736342503  0.8318001289481289  0.9147755531771088
  0.4957095058037390  0.5911412273933150  0.2479940372538331
  0.5783713509577331  0.7505054796501711  0.5032695848672217
  0.5006039765766079  0.4165037995134586  0.0883353752826538
  0.5680376226825894  0.4126524910848738  0.4966556868222120
  0.5040715488407085  0.0027933169818746  0.3323505732158620
  0.9954751454282629  0.6681753445239630  0.9978243780095294
  0.3340937024182702  0.8305917650436475  0.8338826679126607
  0.5846859548499105  0.5042389566396556  0.2472699440563853
  0.6603827069248386  0.2458851022417010  0.5847049199086466
  0.4209882980712983  0.5024623810467365  0.5844939309353416
  0.6586538510845326  0.0829844967134039  0.5842002458703307
  0.4985806733294126  0.6660045401668048  0.3322552682989360
  0.2500320777432127  0.9116999372367384  0.6694982394327572
  0.0798323172991071  0.7492941161046797  0.9983559783287580
  0.0807230883571887  0.4147821399639448  0.3321328153528623
  0.2513537232207231  0.4955085075537535  0.7505236191746036
  0.1631519863676159  0.6653419904368844  0.9993324617628543
  0.2486944652224314  0.2512317663976941  0.1680214748950194
  0.0848031985143346  0.5880586116492300  0.6701407991718697
  0.4957815963836237  0.6704979943212485  0.6685509734300278
  0.4169403699960057  0.1645776412814903  0.4172427333458915
  0.4162036331384317  0.4168160429400993  0.3287340859723701
  0.5092572167835649  0.4105112034862267  0.5874696710273002
  0.9936318449930819  0.4196719148842555  0.0846359337273301
  0.7437222335551599  0.3356032499446152  0.0847331203972021
  0.7401715905759202  0.2488864003022354  0.0051363237223581
  0.0766403205993618  0.3387984809977862  0.9190299505331031
  0.9022753401583288  0.1614340387956175  0.9158609909467923
  0.7447955193519673  0.1551887920548120  0.9167193685450986
  0.9912680513240275  0.2494836196281367  0.7600715993414259
  0.8263106735308474  0.1713292549246137  0.6668533720235643
  0.8300491232928936  0.2474380487355119  0.4165349376568676
  0.9095486507232987  0.4196934963281670  0.1657115722212455
  0.7421968448512305  0.5870296419513569  0.3297918398909256
  0.8381016462355306  0.4087109519596842  0.4193943708618413
  0.9097783587192357  0.4993679232459169  0.4246820021749598
  0.2522089919774303  0.0918085729573857  0.6704107689208400
  0.2571509580717783  0.7455243632142903  0.5024085577653122
  0.0698892922517424  0.9938267821124864  0.7491953316948614
  0.1674581004702055  0.2366591364757305  0.4198517432033724
  0.0675887298263562  0.9963206994686784  0.5869692150819070
  0.2505895330315339  0.5028753930108271  0.9190860574450076
  0.3389273218500130  0.2491700624146801  0.0802312797335325
  0.3379892879476565  0.1681282795060464  0.8310324440112095
  0.9109882279487989  0.1658494024310251  0.4198557358575115
  0.9993666540727482  0.6618550927340998  0.5005855519641835
  0.0777541799288133  0.5008125549161762  0.9288803774356774
  0.1622078429796215  0.2505448565877948  0.0805947614477146
  0.0765559306909882  0.9126994665364948  0.8349898817230035
  0.0695882920122233  0.2471266993067286  0.1640706465535599
  0.9961351425535431  0.4991911159319281  0.6677087782035551
  0.9177681184113972  0.5013048016637361  0.5769006976666108
  0.0806683414845422  0.5853134767511062  0.9986079634911014
  0.1632820306991533  0.1613456977220862  0.1682479839244263
  0.0789348894379815  0.0858087421187551  0.3299690280094102
  0.8285589303147897  0.2458635053603511  0.5841492275245753
  0.7436473986478667  0.9150406911216211  0.8350898531825559
  0.6550982277771223  0.0018031691194708  0.3337868778358317
  0.8274015120079617  0.0775046208783782  0.7571883921903173
  0.0028026698987155  0.8396483268316036  0.5092927786559369
  0.1661899457350580  0.4173966992094307  0.4215617389459961
  0.0777407709542141  0.3249565612517581  0.4229843989478615
  0.9026100000084382  0.4150688824535617  0.3310841873345104
  0.5004937896024358  0.5885206098694366  0.4110782819859041
  0.1626357533013434  0.9158605343197639  0.0754225661769425
  0.2511170476282357  0.4145620387308512  0.5102557300107753
  0.4994009004489885  0.2473904226630350  0.2501789867854627
  0.9968740994444402  0.9218028183920643  0.0816116304641275
  0.9106245665739791  0.9180573911618356  0.3373004807644371
  0.9185749472399938  0.1650590867209377  0.2483105044308131
  0.8227032572853493  0.4999850012548350  0.4861872543628292
  0.5811645332721794  0.0010237780493991  0.7526959617912687
  0.4115695328404527  0.0014915485321977  0.4176743646673572
  0.4974104033491240  0.5042308672394863  0.0064111655658109
  0.4976683885191776  0.4139945426595663  0.9120766193685436
  0.4070743822611596  0.5038109047849465  0.9168464725957262
  0.3420481776724871  0.3339132009315330  0.8335830082167406
  0.5794012792645381  0.9155912326969660  0.5026967211973713
  0.6575927954114293  0.0785668983508861  0.7522085782838630
  0.9094656379697351  0.0037671679926922  0.4177532488628667
  0.7412630814730576  0.1666828801965334  0.2517683288435609
  0.8279840556990457  0.2470735285353695  0.9153967943622532
  0.9169110094546563  0.2457877174678871  0.0020234658523180
  0.9232550425832002  0.4134252479337326  0.6670234610498300
  0.8319220774475703  0.4104681617529290  0.5784393940369351
  0.9970448592869124  0.2467946062670380  0.5820465132283721
  0.2500428213740624  0.8308425471153150  0.4173554353362032
  0.3318396807244793  0.7484993173358981  0.9165546121877450
  0.4168661442199613  0.0839290790283477  0.6681465590929457
  0.3346568042290234  0.9988616117165120  0.8331230622376069
  0.4179107989656792  0.3325563186177269  0.7515271299870609
  0.4167420220607921  0.0822876127484514  0.8328501913664661
  0.2498138488484400  0.6660012216285677  0.2490415571760154
  0.4961172368539082  0.0824591065339647  0.9161041967274823
  0.4181984802252872  0.2497645102308619  0.8336279091210953
  0.3337244873141941  0.3341462707527520  0.0010847017243716
  0.4109675386161978  0.4172652035045394  0.9984687652559551
  0.3360657616470950  0.2514734088378259  0.7512505362443180
  0.2485729455887827  0.7406095421542722  0.0005965044077999
  0.4172622443138720  0.3308715140700978  0.2480332359767619
  0.4157308036016143  0.4200770107152391  0.1743648965271187
  0.2499008162685288  0.9126402755981413  0.8344514418387624
  0.3345349109275223  0.1655619639740625  0.3339684525231709
  0.1657682350010663  0.8223605026603801  0.6738212290121380
  0.3338608485576718  0.6640818638431857  0.4993698176279495
  0.3324415702333059  0.9149914131639939  0.7528834627520712
  0.4146787193618865  0.9156299447181127  0.8340371068989536
  0.1579407272195681  0.9980090059635615  0.9967597237592585
  0.2491560456904168  0.8303659566117561  0.0860582753796870
  0.1634652907480058  0.8305018459508696  0.8347341362275101
  0.1672811716240658  0.8284205041548111  0.1654429563009758
  0.1648967415896779  0.6660150932774617  0.8362093005493713
  0.2527073462000697  0.8280632499690309  0.2497359968642985
  0.2509844240273145  0.7474803921692863  0.6716757604085558
  0.0796168779722145  0.9271873554004917  0.3323456070354243
  0.1655718967071922  0.9185715414230898  0.4120593129658278
  0.2486948506193420  0.9189294565159010  0.4914881018442044
  0.3288770617982749  0.0031425057596044  0.3337620902179527
  0.1674177972465637  0.8382572668457509  0.4990589810073103
  0.2489789947110900  0.6707193656094093  0.7535568291068434
  0.1664598602603401  0.6664999303862384  0.6720161223560143
  0.3385211094513881  0.3314070197008200  0.5000477768048877
  0.1734048841103915  0.8316700514275218  0.3325642983230445
  0.4163530595993656  0.5040873617998376  0.4089848754893070
  0.4189203265882903  0.2453686849904658  0.3335844120155882
  0.2548623287467127  0.1758503886842931  0.5840294684402424
  0.3390597678775434  0.2486998455293150  0.5837559878746761
  0.3362735301830499  0.3326142761060178  0.6679869636767584
  0.1603150997566044  0.0895634525950694  0.5882416170672858
  0.5859597004125751  0.0028166067741679  0.4216888632815284
  0.4975232937187975  0.0846530342365890  0.5850357380903551
  0.0734190826268172  0.3315006398308352  0.7554108539523811
  0.4847356706612994  0.8325010250966443  0.1652033108527033
  0.4954477556481470  0.8310079674970390  0.3352498921311607
  0.5797633414244133  0.8316631063450969  0.0735195048561347
  0.0916401666210041  0.2600353988791990  0.6639690861202321
  0.5786380247347718  0.8324945106822471  0.4201754911785259
  0.4954904656495943  0.9139059213993397  0.5816952840745635
  0.5783011487742035  0.7429365443321250  0.1647604509350956
  0.4985526138676755  0.1663827730019653  0.5006992704626760
  0.4966438535858306  0.8319730902724436  0.5024340701252646
  0.3360173820150147  0.1672645130137402  0.4997847132423002
  0.4238705540909085  0.2479641724099964  0.1655743901925176
  0.2487766196830874  0.6659026317174676  0.0829163292825534
  0.3327807852270559  0.4188677217264917  0.2497081669453466
  0.1667820408759640  0.6648959677500326  0.3338907864592973
  0.4163912845368349  0.0834235917502968  0.5009161766657519
  0.4174037341450242  0.1657336609633373  0.5845200095316255
  0.2539360966423905  0.1722703194780150  0.9138949511565085
  0.4160632913415328  0.0846586413585285  0.9976894106062507
  0.2492330767570320  0.6647351202763414  0.4165563388652221
  0.3375763683632278  0.0840798450612784  0.9136022654687511
  0.2523671355088508  0.2501015169518102  0.9933171456013360
  0.3340007436741759  0.3417369190974837  0.1644324121528202
  0.3368751726492950  0.2506542322007748  0.9152206569582571
  0.3345375433070986  0.1652874489310447  0.1668850175611287
  0.3327731946992207  0.2489365298980017  0.2565160141886889
  0.4168548697437918  0.1664292347769368  0.2490423982207160
  0.2495717418452582  0.8301473244524041  0.7536722655722713
  0.3452068058981788  0.4156160284313409  0.4178489736116046
  0.4085024256005564  0.5047170116337972  0.2500148385217921
  0.4132834299119331  0.9087354545449903  0.3410667448311368
  0.5793932696449746  0.0083563552078654  0.2458846334976678
  0.4121455397135567  0.9118551922853684  0.6706706105052508
  0.4964439955559264  0.0002410845290968  0.9968372511263969
  0.3326194573043050  0.9161113185352912  0.9148054164962220
  0.3320160466665533  0.8307920796765179  0.6700110526980645
  0.2494280501462524  0.5858737929399382  0.9988128729798168
  0.2511567271405175  0.4241882266283560  0.8357297398412260
  0.4982664621807408  0.0842066531317457  0.0794981065637183
  0.4147966903355751  0.8317343769053144  0.9154173991178196
  0.5784655025573916  0.9987934904691826  0.9157975363368696
  0.2533015338856518  0.3357281280175738  0.9203582473506454
  0.1651514482566105  0.4254963667399076  0.9185195491354339
  0.5779854667118099  0.0004603111198947  0.0783912387791142
  0.5004676252397442  0.1663642668968062  0.1651930813649078
  0.4969447296503763  0.0029440855277851  0.1628488119425807
  0.2495240035343941  0.4208256241338110  0.9984983276478597
  0.2494772958961022  0.8226911722878699  0.5874991005499604
  0.1690516146502552  0.5025634936985511  0.8363759617348780
  0.4136715193742751  0.7467543220571539  0.3306994970476722
  0.5791301626983043  0.2462734565507900  0.6687996732359305
  0.4978884134926438  0.5917117853159614  0.9183151204936049
  0.4980580174130732  0.4153418791987581  0.7543291928351483
  0.3312143631110069  0.5861623511146894  0.0824541464619159
  0.4196469193125200  0.3256696917659687  0.5839394283779685
  0.3310053935268242  0.5032701274216563  0.1655519185783129
  0.4144153191043747  0.4186816008388294  0.8340635981718072
  0.3309042024411901  0.5865409138151316  0.2489091128416731
  0.5798764683296083  0.4161787600177036  0.8338013461100154
  0.4127041962040682  0.5865495579324010  0.1653840478204646
  0.4132421471684530  0.5856337325890947  0.0002665214027999
  0.3298441894041969  0.5021517883464359  0.4962028782133215
  0.4166516999596279  0.3332673796144691  0.9172524246948931
  0.3281693578649152  0.7472231765763763  0.4155388867960119
  0.1650795638262202  0.5847345892499393  0.9185497233233665
  0.3341824838856652  0.5018094441635869  0.6737862017072526
  0.1673624891396262  0.5044350100146450  0.1634085812636271
  0.1679683800744564  0.5027523624340088  0.4984060218366781
  0.6627840856450113  0.7490876487830715  0.0804989289138249
  0.1660686605666188  0.5874341240471569  0.5849296948886364
  0.1636594725673441  0.7475497542268863  0.9159174301274051
  0.3384744961656560  0.0843641994143566  0.5842599889089167
  0.2497543565538963  0.0071394118561620  0.2510734947815123
  0.4208495797251592  0.3292311011142686  0.4173388509573869
  0.4985456103192057  0.5019583550534288  0.3344315539721091
  0.2473988561676457  0.8304910677451619  0.9112696375616279
  0.9118320797032059  0.8307140436047412  0.7547123848527086
  0.3339618757017989  0.0856387074782812  0.0817289097367385
  0.1668513705424834  0.5035278088611378  0.9999190874581323
  0.4985608126333053  0.1671565780739229  0.9977968185127257
  0.4132546031932117  0.7482319016583778  0.5059450526106154
  0.1626990735963350  0.9127030730206275  0.9168322418812060
  0.1652015934712418  0.7470549869335822  0.0830684492645190
  0.4166280268396282  0.0880901702950914  0.1623301869534369
  0.2532972806391322  0.1660436718382452  0.4179390080825099
  0.4142454846096537  0.9151438540795686  0.9926068608137805
  0.5000138456249205  0.0875119219405723  0.4185849602268914
  0.1681104419153966  0.5853545327927407  0.2485015564666008
  0.3303299436965603  0.8334331203027388  0.5019966589894799
  0.4118222784501047  0.9196238922010782  0.1651973807986289
  0.3349635149482715  0.6688986674646749  0.6704215422216654
  0.3327723045127796  0.9174220062173580  0.4192362801544731
  0.3327130068350256  0.6679075423675863  0.8356336097261046
  0.4161667171668465  0.7482944299742991  0.8363476022297880
  0.2489556756692460  0.5850714534442759  0.3321798519957319
  0.4149336568438107  0.7509794092134795  0.6693846167510716
  0.3276420181414670  0.9158899476823634  0.0809700149021198