 C Cr Ni 
 1.0000000000000000
    21.1200000000000010    0.0000000000000000    0.0000000000000000
     0.0000000000000000   21.1200000000000010    0.0000000000000000
     0.0000000000000000    0.0000000000000000   21.1200000000000010
 C   Cr  Ni 
  86 259 605
Direct
  0.4209233486645608  0.1690915819016465  0.0001741380066916
  0.4980475388257182  0.3364093974377613  0.0815712611447445
  0.6641872715930168  0.9931503732652852  0.7521254679400906
  0.6618557347235199  0.7426314393595419  0.6673800250286621
  0.9990294931623244  0.5043780529261518  0.7502154769246571
  0.9973626173833187  0.2588080098548364  0.6602660852060585
  0.0807885579071639  0.3366511048607868  0.9944573676168718
  0.0010898889403083  0.5899030902208372  0.3305500967807888
  0.0805936032150544  0.3390882200028328  0.1746148151460272
  0.1683163309642689  0.9115992238173917  0.1668572695289118
  0.8348111085771542  0.7508821311648104  0.1600313045939591
  0.5095821716248592  0.2488637434845598  0.6616314854010940
  0.4969906670525979  0.6673203751579584  0.5840765890168557
  0.4150394661984281  0.3387031109527864  0.6645977916065571
  0.5910168128888283  0.0904396078661220  0.2428082251045520
  0.9945507771274914  0.9927117776953547  0.7537495427273948
  0.7451391102870087  0.7480337620567252  0.2525631625297678
  0.6647456488664251  0.9114828655292920  0.0080791265162579
  0.2515744892959818  0.2525350282844941  0.0786750939022453
  0.9083094372947969  0.1632099572827068  0.8339696624458657
  0.6657815869883555  0.3332443321544772  0.4167590425893469
  0.5034557315212687  0.5008181092981656  0.9167039598279668
  0.9228058670602021  0.8306647375570330  0.6677841606306455
  0.7477837485269865  0.3380892646804594  0.1781292395784584
  0.8344164109481891  0.3290965654423634  0.5883197003021602
  0.4112024398373450  0.1609763322507937  0.6655082963198832
  0.6594231985021690  0.1746867970213359  0.7505946161060019
  0.3267042478216554  0.3330553912031941  0.7543219506803231
  0.7474276368552522  0.3347320425250222  0.9987921919581583
  0.4123658550353762  0.0832812919596106  0.2429612408744760
  0.6600868318152745  0.9985379939366383  0.5782153318151116
  0.4167280476945108  0.5017104741100615  0.3344074088545109
  0.4973201067667524  0.8315295341128730  0.4174695896232022
  0.1681330061434031  0.6641983833204844  0.2574781770833265
  0.9075626201474534  0.2583187685705442  0.7479371726473557
  0.5704640684428568  0.8379523380607461  0.6622180423415160
  0.1652880440744250  0.5027335319321791  0.5829712075265349
  0.5818649396703368  0.9127520759127630  0.2484783567644535
  0.9218999606586472  0.9995692308395169  0.3353430071503333
  0.7345912087046510  0.8472839180997873  0.1526692695156349
  0.1619141706363007  0.1701718442495651  0.2480500514662954
  0.6556614842743802  0.3183983591454178  0.5998724451232869
  0.5807100614823058  0.8363172168094773  0.8370068840629544
  0.2455986534947446  0.7509414371650370  0.9156660887752395
  0.9175441886901360  0.1685716836622251  0.0103015516503278
  0.7539222466209260  0.9977698001003275  0.0042345514070816
  0.7487350052299078  0.0844352113924857  0.9159921513108517
  0.3324884430057729  0.0786519250852245  0.9952245159896022
  0.4071248201471841  0.4087834341920725  0.9159039533115209
  0.6646358438973222  0.5830256138336749  0.5004117500877614
  0.1688279893810506  0.6641210940899774  0.0744786771371281
  0.4982205248700787  0.2470196890514237  0.1719801051368097
  0.0827791711998589  0.9998487555699788  0.6653790703829003
  0.2473265771938378  0.0784103220635795  0.0805336559381462
  0.4119675686895097  0.5874241192455912  0.9178890190825592
  0.5791060201385049  0.6632991718317905  0.8339735304223639
  0.2507328710527833  0.4210728171173205  0.4146633162552662
  0.9149258896548773  0.5027379611700924  0.9999894665623821
  0.2491253612452405  0.2483238896265408  0.5838506058988145
  0.1625898067544659  0.3316106080686699  0.4149065511405693
  0.9994042368097861  0.8320962183933874  0.4189523416532884
  0.4153737220554559  0.5818240329518964  0.7400243306667360
  0.0770458228573350  0.6620273090495775  0.1645596927043773
  0.9941172698534235  0.9181339966743354  0.1644610787728144
  0.7476484106096025  0.1652012105266176  0.6583941501435455
  0.9104330083721505  0.5028696451817248  0.3350855859434224
  0.0884910949149492  0.2544291824410309  0.7533150967492104
  0.0771105744125267  0.1651276835239110  0.3355967440104420
  0.4156921015474820  0.5869073664398690  0.0892308061893855
  0.0009284363729860  0.1650160032950585  0.7536506470657486
  0.7451787060500386  0.8353885406897351  0.6678452935493022
  0.7447375517710959  0.6602378495204621  0.1625422605522290
  0.4122216053158511  0.7540391700245623  0.7483920991483516
  0.0021580266678619  0.1606564210842238  0.5758882399440027
  0.7462222585819118  0.8336865408589506  0.3348705061887615
  0.7422694939508719  0.0060649282899325  0.3323109806977712
  0.8202542459128652  0.4107779491481536  0.3337512144798899
  0.3345667518694550  0.1709069295148296  0.2496017456611034
  0.0767723663775026  0.2440966862426053  0.0821041759852342
  0.4120610894692374  0.9931459621783434  0.3344561776122797
  0.0032452474147839  0.4088559509863050  0.3322837951452423
  0.0848377411978180  0.5877625768711715  0.4213710696119983
  0.4989299950010610  0.0820993334594497  0.8321061182174528
  0.1593757227639315  0.0833759378409624  0.1648199382085116
  0.5018464632578408  0.0859762798790118  0.3375006693056549
  0.5778251185701975  0.4177571663946389  0.5844205542430426
  0.7517742253857461  0.8314484983148904  0.7585130284696536
  0.7514545454091706  0.7450966455206377  0.6680631306690503
  0.6622138267193926  0.7461609018392610  0.4182067889149584
  0.6705253177302025  0.9106203223075773  0.0983558527461013
  0.1628796454287871  0.8336917877503875  0.9981475291972605
  0.6558965600523469  0.6675927954019490  0.1674870842954622
  0.7485446823586461  0.8335486456684007  0.5771228048096935
  0.6690216383087537  0.6656674393803639  0.8339824090937378
  0.6509396967199784  0.8223862962563740  0.1671075686960226
  0.7474540893507235  0.8311733518166575  0.4235073157218852
  0.7459247662674457  0.7510681695332413  0.1637288189538286
  0.9159310952267239  0.9964851275473265  0.9179229506893777
  0.6559711759044727  0.7454931604808203  0.2503902197206329
  0.9976084769565353  0.9986148661223460  0.9985548570068017
  0.8335290834157418  0.8331573752050943  0.6671935432447271
  0.9963867212467294  0.7527317170471377  0.2488758416437729
  0.0782127058704768  0.6708943734382402  0.2527095067270788
  0.1633930516296771  0.0788299493524237  0.2541864534154584
  0.2497174311964573  0.4990217390970151  0.0829381450860581
  0.9985591581958420  0.4196955385794798  0.9137938783805023
  0.1680515528791972  0.6654066702530933  0.1659704859067982
  0.1662141843530731  0.7548726629221640  0.2517854762901803
  0.8356448252951321  0.8323505524543231  0.3330711227573025
  0.9146491037720286  0.8316085493280255  0.2492850512401023
  0.9132714934296767  0.6681360402324592  0.5853381383394770
  0.8298085549002815  0.7496094825644464  0.4197409539662292
  0.9133722058305924  0.6661993371030076  0.2498693888469908
  0.9153425967910409  0.9131981559297619  0.8367528001685305
  0.9132050644235364  0.9189988696240036  0.6638282289574018
  0.7515148260096398  0.8287187406035640  0.9150839575992306
  0.7511162950603715  0.9124300508754755  0.8348985760092456
  0.8426055032940073  0.9969615446024369  0.0016793851815389
  0.7474197182037602  0.1726034858280855  0.9202721667015377
  0.6628845445047843  0.1694869260474136  0.0018827953874155
  0.8316792471453269  0.1655677203057398  0.3332508363567845
  0.9114793170939061  0.0827119925891475  0.6622040710444329
  0.7449159545941143  0.5733047035372111  0.1660156656106318
  0.6616226377071717  0.5840562271173294  0.0817630607473780
  0.6636080974730131  0.5019543232161167  0.0030758526874592
  0.7478239513906899  0.3375476334844456  0.9111267253566804
  0.6640433765536917  0.4184670551552211  0.9171340602645113
  0.5827951392151679  0.3379964291515086  0.7530451793922557
  0.7454806823740624  0.3352835916763670  0.5849927446472950
  0.7458152764796241  0.4269372993398168  0.1664325709247965
  0.7502124302838377  0.4996946319072504  0.5865463917654178
  0.7472667572350138  0.3343591633415557  0.0879612062328251
  0.6637261718871172  0.2531423125103510  0.9169327934075078
  0.8323249929242581  0.6658455006137897  0.8344963013218293
  0.9144084090055187  0.0796338365306185  0.4985019616255223
  0.2465295073789367  0.9148142104006428  0.9982121058968589
  0.8320643377130432  0.9990927094623107  0.3356482286046294
  0.9146790398227825  0.0009140508273854  0.2457328991432201
  0.6654100559593173  0.1685582132880758  0.8404265043188064
  0.7491644101423199  0.1640927843228077  0.7492728508882903
  0.7479333728802661  0.1607482632892569  0.5701764586564365
  0.6638554368633560  0.2364160865938308  0.5722386931006427
  0.7483209533032764  0.1642532613860914  0.4194644566488667
  0.7467220816469679  0.2473230874119891  0.1674450994491693
  0.7495101470159063  0.2549643025458679  0.8362416168390739
  0.6664819987732872  0.5855581477168497  0.9183125048331632
  0.7440683912277429  0.5028413791043076  0.9169802490412720
  0.2513538518693362  0.7511662660468640  0.1662377831032744
  0.0837722411481494  0.9129382811106581  0.3345422629642714
  0.4162056422895551  0.3345849108749956  0.7539645000523094
  0.0829229046555538  0.5870808524241677  0.8345336740031524
  0.9993531083565641  0.7477643823234713  0.7522080037465987
  0.0801689973502138  0.6650853467878912  0.9137011659871840
  0.9978079264629670  0.5044939406810877  0.5010952593072505
  0.3346882196156943  0.7516534033213171  0.9180800050724686
  0.4134877747437232  0.4949147119281758  0.7501558337994670
  0.2491045752487601  0.3381092103385094  0.5823143136814969
  0.2496331523587744  0.5023188180765102  0.2490667491705773
  0.1597475928394685  0.2506797736751838  0.5817934328831887
  0.4134668633010595  0.8317353649815917  0.0835910861104191
  0.0791890306911216  0.6663232951325991  0.0751098329646042
  0.8301492296024687  0.5856064892372863  0.5866051571914601
  0.2466051182642125  0.5841954910433526  0.8319744811675125
  0.2514341697409533  0.2545675673483649  0.1680263131972606
  0.2376796990273218  0.3370386491674078  0.7522429372122257
  0.0757639893979002  0.5023367635818700  0.5833719560685472
  0.9985583450696631  0.6650806581101580  0.9971178651691608
  0.1650313499241998  0.6667892357188695  0.6685398055294482
  0.0889821995015921  0.1630875021838487  0.7519225330076743
  0.1665832008254821  0.7481671739994832  0.5852581101422705
  0.0009169327587979  0.9204109679037670  0.4176293945560415
  0.0004622476372068  0.1659686051668490  0.8415393434547309
  0.1667182496174504  0.0813825982980241  0.4161279048584466
  0.9995477011309308  0.1672326548867589  0.6639195327889433
  0.9970074064830006  0.8286277954726241  0.1640800334208935
  0.2499411013404047  0.4211261304149911  0.3246371104660681
  0.0804369659115688  0.8299960617832353  0.2504008424856423
  0.1674239950156025  0.3360001272389943  0.8362678869906519
  0.0836853876585371  0.2494098119841967  0.4954877110713412
  0.2464553066833345  0.9945031374458402  0.9167576654753766
  0.9959724960522792  0.7434817511207913  0.4213489499859784
  0.9135597289953110  0.4174269572095206  0.1663689554855610
  0.2479035671354453  0.9973820938909825  0.7537151846038913
  0.9992255771475722  0.4999477788008566  0.3337813389398832
  0.9932580462841547  0.3221319735225697  0.3337151948428677
  0.0832035296052817  0.6778606940556228  0.4205409318599725
  0.9963980550157838  0.4181518326110794  0.2426226870717485
  0.0803002794329228  0.3352412157249784  0.0841460331034237
  0.2490060014986290  0.1584742837355841  0.5806957273691720
  0.9984724226753910  0.5857031574237661  0.2422294310404365
  0.2525353264480292  0.2489776726816726  0.4944437941325516
  0.2431127207381098  0.0794566738117599  0.9917056875988145
  0.1650713360737817  0.5934564026916374  0.5855892269869654
  0.2545974046047602  0.5025160549186025  0.5814392350995524
  0.0868371352596286  0.9104112280840463  0.6668702211890908
  0.1705542403239529  0.5874480685446706  0.4186251777488326
  0.1662101220899785  0.5039585948102736  0.6722342217267526
  0.2490687771225167  0.0796418770849692  0.1683291356550139
  0.2525700182824607  0.5809096597615252  0.1679821995269309
  0.1754977372490390  0.2497156590462838  0.7525892963300860
  0.9999807688569013  0.4151722555787574  0.7537295398661511
  0.9975468111460439  0.3468504834571899  0.6668399574061179
  0.7488094851232077  0.9232434019005051  0.6653148932150217
  0.9112628213214015  0.5913436258624504  0.3354348013901484
  0.4116633464612478  0.7532251902072040  0.8375178224280613
  0.4125896913675123  0.4264376940422129  0.6653215476602760
  0.3314451868452384  0.5033552779513518  0.4989622083044063
  0.3304489977746463  0.6688780440694828  0.5000736905569068
  0.3298972965339648  0.9127101809437461  0.2496769283937782
  0.3234094083186235  0.5836133895433230  0.9177289575117654
  0.4066936346869732  0.8327657939794864  0.4194216809377428
  0.4115407707116587  0.5848875441700245  0.8306934895050976
  0.9951198623572751  0.5892464845851949  0.4218165301911155
  0.0804646010568509  0.4197352686204985  0.5017611596922290
  0.8358562361171283  0.7492538595077232  0.2509902989770889
  0.0805695584905873  0.8308381242845945  0.0775554400020132
  0.4902888932848368  0.8355035996915825  0.8353509333108921
  0.5815050591924815  0.5818104867969796  0.6683626868969299
  0.4945158059698289  0.7553339457370021  0.5829144382025919
  0.5809863835607187  0.6669557679327447  0.4164236162600989
  0.5732795243458406  0.7455786036243749  0.1654178604761946
  0.4989719058527415  0.6682738625538378  0.1675515687604311
  0.5798491902663976  0.7470219883710432  0.9996265086439028
  0.5919642978843407  0.5011459321657997  0.9195198154245557
  0.4898826142568933  0.4213950884362141  0.5817473452487379
  0.3273876683485609  0.8358294757880612  0.6662182655530561
  0.2567024758370666  0.9124047655292055  0.1675000431075035
  0.5798799118178972  0.9139527034132755  0.1587986150827412
  0.3255551815404693  0.9174190087048943  0.5824697476798147
  0.3318354825715047  0.3382777589773996  0.1672346147400248
  0.4076425079021836  0.3376203838541152  0.0833254728544951
  0.3314034060904303  0.4206769194258111  0.0831834619573563
  0.3236675748980390  0.9962770502672306  0.3351048124341190
  0.2473053311659201  0.9153227330026736  0.5003158599469436
  0.1672681149342329  0.9158624544014998  0.5824269406410117
  0.6621104696511363  0.0823182378844413  0.7493940012974712
  0.3314083402279177  0.2502105653371711  0.9145503691476774
  0.4123277388933835  0.1644294142294640  0.7564963258628257
  0.3233706067719466  0.1625904936602935  0.6681363159727811
  0.3315645458648733  0.1667945037495372  0.3391494674109426
  0.4087899880696923  0.0806784353986902  0.8301153671154367
  0.3329979847611492  0.3349043645211015  0.4987769623017241
  0.3291479895521569  0.0779293130826802  0.7522244659367573
  0.4115419712562960  0.9965395496528823  0.5806125022596623
  0.4125979105744427  0.0832368946998298  0.3335452620228369
  0.3302019091228217  0.0827272784460517  0.4158876472804823
  0.5764681238075275  0.9145785023906972  0.0034192532153420
  0.1632359615409788  0.9105914969801797  0.2564644046698195
  0.4944892486659725  0.8291828048951595  0.3295335681619498
  0.0006150437115350  0.8323991197188846  0.5079759233373006
  0.4939834896246176  0.0806414341252300  0.5788890023389220
  0.5790993038628333  0.9985223252057467  0.9215844704551517
  0.5806881420832157  0.4180975298318830  0.3338567943530816
  0.4124622910456324  0.5033025621329604  0.4235395131361273
  0.2483360909481276  0.8338649030755181  0.7495115345401431
  0.5841341491067008  0.3337084792562408  0.9147346632824317
  0.5020173626842351  0.0783837232548454  0.9221352699992884
  0.5899199696481311  0.0845876603117045  0.3328746486490688
  0.5754098772372644  0.3336346068969937  0.4185144598636830
  0.4995274422556972  0.1714817068225557  0.8330799307305436
  0.5829177279040282  0.5028897995098708  0.0837705510193414
  0.5002530291992363  0.5009942199585764  0.1694012542506816
  0.6660856294453076  0.4168450013393902  0.5861472804299206
  0.5011083824629901  0.9940747276873696  0.3337225285121354
  0.0821506891081331  0.9119365037464845  0.8339695574398985
  0.4137452754064960  0.9161893144663020  0.8352862304260574
  0.5058836984901375  0.5006414685568740  0.3338283479512113
  0.5969008146323072  0.2565925691974942  0.6641334559044271
  0.4977189725121363  0.5786126367880473  0.5826140155558568
  0.7472724245506360  0.0801084979312640  0.4964105842852719
  0.5753770705323948  0.5845222922086487  0.4988360637781887
  0.3276935386925581  0.9178668812668381  0.7493209209231652
  0.1705620626320455  0.3381043838688252  0.1660783806111989
  0.9943467675160360  0.4998245547832251  0.6610115824886275
  0.1626883736697479  0.9949742630308982  0.9957767388649696
  0.1617693075398451  0.4212015064258806  0.4175980426303121
  0.2510366601032946  0.5098431395622000  0.4160513250708130
  0.2514371719430481  0.3416350669063207  0.0807240748647212
  0.5734333983754362  0.7483460734318783  0.6652290154052316
  0.4137928256112234  0.0811207575769625  0.5009419669807087
  0.0804589762799623  0.2503804191167817  0.8414820287469883
  0.4130500497017219  0.4168561831786632  0.4986466220947134
  0.9135611405811608  0.2492856846331097  0.1685857193436145
  0.9134967642794938  0.3362656363013969  0.0845913294701883
  0.8367196830568349  0.3357468130719689  0.0021772650125018
  0.9110644514697913  0.2558513645535015  0.8378034721246502
  0.9130951761039123  0.1656490481587318  0.9209294429234647
  0.8190497759583049  0.1688291019485813  0.8343085249717127
  0.9112333329260019  0.1681665052689493  0.7465647008467413
  0.8364103709035231  0.1606484918825296  0.6626668129364337
  0.9128400716215329  0.2505556509369827  0.4981835423788310
  0.8284776389192668  0.4167586568599134  0.2428955462175802
  0.8305230994161329  0.5020509476015779  0.1678407907066700
  0.8223470217948375  0.5028473246663110  0.3346809063665273
  0.9143289361959743  0.5013752994891164  0.4282437598968326
  0.7503098699170272  0.9980165784186829  0.5798664771906812
  0.7487205546118876  0.0939880205300908  0.3357880560386183
  0.6553691892675952  0.9984707566619685  0.3353199106697323
  0.6669332207841527  0.0020548633489566  0.1609445330256064
  0.5793621741440500  0.8319059650555763  0.9254109169823029
  0.8290730139539992  0.5015379583860983  0.5023809072177766
  0.9949531394334038  0.2497793268886957  0.4200075942903537
  0.1670671371238127  0.0804826129052954  0.5811002828558799
  0.1687968614349262  0.2582187681702161  0.2478933321081602
  0.0815510889197833  0.1644490151134399  0.4230315611099657
  0.2479458610865622  0.0006986743801859  0.5816352697357722
  0.2487433268691506  0.7497746042983536  0.5021428680300192
  0.0840712674900061  0.9979012811959000  0.7547901805118844
  0.1679872683534529  0.1656586790836199  0.3379781778985635
  0.0861330481619502  0.9959224648161216  0.5771339992678972
  0.9138239232877419  0.5030463078452100  0.5802479321516061
  0.9136270177778274  0.5014867231107822  0.0895564635510766
  0.4972062769340138  0.9209064328644114  0.4186655567903667
  0.5014724632218330  0.0824597595208367  0.2458106096095835
  0.8297528100670677  0.3319227575585597  0.4978640760991634
  0.3307183765482899  0.8305906680991730  0.1672830624646409
  0.4147035940074200  0.9142829579348686  0.0010463822806913
  0.7516808192761281  0.4246736557822607  0.6706481043504414
  0.9119507027163256  0.1620117535301846  0.5794234033250771
  0.2488528992517931  0.2515941289903302  0.9896258803078173
  0.9114877977025573  0.4144201328188595  0.3342628691148044
  0.8302312192246103  0.5844413844272757  0.9133365276300726
  0.8362091025369948  0.7479463027529827  0.0707146924088657
  0.1678394691348708  0.4192716042616301  0.0829534377040704
  0.2475640352715227  0.0802875430933540  0.8337147140234646
  0.8338881739955196  0.5029686110771364  0.6665618201690242
  0.0090338021865962  0.8322227135686491  0.6649413986965196
  0.4142104000521115  0.3329220463146902  0.4159758811124838
  0.3277021178742144  0.7512314083541242  0.5829021041995092
  0.4127887009580740  0.6687920884032723  0.4166462740606914
  0.8302688926860258  0.5043644989656608  0.8359408356322370
  0.9091289594386266  0.5035117448297149  0.7514365561471225
  0.3322348418937749  0.5015078980326030  0.1686003762026971
  0.9146145947359525  0.4153205766745365  0.4998730949226544
  0.3278263621058843  0.5007493232994810  0.0031979200868950
  0.3286980386230900  0.3353813483359112  0.8429524048859186
  0.4103694594285164  0.9164993436754907  0.5018155514193845
  0.9212336520051237  0.3353468049843727  0.5794132327667110
  0.9140291537209424  0.0885918190787686  0.3335618194299725
  0.6644812889982423  0.9962945095592287  0.8400854475890034
  0.9134965104806589  0.3371030971588240  0.9150617509541330
  0.8312005494179062  0.3380458415995596  0.8382330929198692
  0.9127099630298918  0.4202676438868303  0.6658111015053700
  0.5879735068110838  0.2499902853601140  0.1663873624912932
  0.4131869592675060  0.4974166240925497  0.0861763780107964
  0.2497819574274525  0.7502594889664569  0.3347146110519296
  0.1657730543893718  0.7526471627911484  0.0804719927749098
  0.4114029536525273  0.9965967341167560  0.7503842090788511
  0.3309302019044279  0.9956187257485397  0.8356277060017440
  0.4165397044384591  0.2502159017570016  0.6665569264915303
  0.3293322193345812  0.1658117682977018  0.8344783977468995
  0.2539507216816064  0.6682420422012146  0.2490812082369387
  0.4158661326409553  0.1670851707670699  0.9122263018027801
  0.4161566548351094  0.2495819007158727  0.8320188909234126
  0.3324636814388195  0.3366846540414944  0.9947956761662504
  0.4159021608867779  0.4176147613218260  0.0023994894802527
  0.3278246704486911  0.2449246247431785  0.7534434346354968
  0.2476512569127446  0.7510482962012668  0.0025106778746244
  0.4152234171813139  0.3354302832817289  0.2509648770160678
  0.4163296301028440  0.4184036939669545  0.1688484748365834
  0.1650250594908294  0.9148453843485799  0.7519447273704835
  0.4126323651220777  0.2494579260060950  0.4967597731486574
  0.4165185077049063  0.1667066933471517  0.0859179387073674
  0.3344317461925436  0.4185182492878117  0.2497974705263925
  0.3282315562507199  0.5848280306943627  0.0829559908678341
  0.1664094289698205  0.6719720644001571  0.3421034666810196
  0.4134962401445477  0.5838976316413802  0.0026531577923422
  0.3322114741375864  0.5862129212254893  0.2509002217467634
  0.4125949065163497  0.1649876789155123  0.5781237072396671
  0.4158199313548837  0.5848635875087023  0.1739957937328484
  0.3313695615267481  0.0809039942780934  0.9095590760065400
  0.4941691565035028  0.8336904163095372  0.5033526353621056
  0.4147017210549927  0.9980614118283987  0.9180417465043706
  0.3325418282276500  0.2500077033711308  0.4154215654135351
  0.2501816887410961  0.6685550203463142  0.4181879685842123
  0.4116996968639473  0.2527247299021572  0.1662240794415759
  0.3316848153526752  0.1682602348734018  0.9969879531527118
  0.2538432825185702  0.6678597292886705  0.0839219571961357
  0.3382015484696619  0.2511340436696953  0.0802562070982833
  0.4163573385106822  0.2546134309397474  0.9974273934955996
  0.3324533536978983  0.5874417954629670  0.4166225508504068
  0.1663952928735138  0.8299932185235210  0.3365666087349800
  0.2491493773016638  0.8327339177195888  0.4180831798292183
  0.1668343430915439  0.8321912454612511  0.5013272195901602
  0.2462149572198517  0.8327857717578926  0.5846536314103938
  0.3310907670189663  0.8354013380785058  0.8339161268607290
  0.3330248468454902  0.3348310418786864  0.3333090212424293
  0.1598274355590462  0.7518191819053147  0.9142782841635819
  0.1644939456740636  0.6665417388045732  0.8326677961538965
  0.2471947005604216  0.7498519508281863  0.6663840821332692
  0.1657583190664660  0.9142279025422594  0.4169006090858394
  0.2473781164503470  0.9127678355070994  0.3335920536875575
  0.3303988401632921  0.7496241160543688  0.4176818544969926
  0.2473720728077719  0.6673208162844194  0.7498973391831603
  0.4125595146577151  0.7501197136603672  0.3336584751574285
  0.1663584975943687  0.8317659397969154  0.6677252589195983
  0.4151336602893691  0.4163872041222543  0.8296647881590550
  0.1652232245168259  0.7493733715866714  0.7501456790360230
  0.3363307268279522  0.4179870219905541  0.4136194703770775
  0.2472521437508580  0.0803383805713358  0.6685465134497347
  0.5800193407195998  0.9992036209623866  0.4174694879969787
  0.4959635399573696  0.9971262630798611  0.5002888448716223
  0.0864798824210732  0.3406109967162980  0.7519258503314056
  0.4963194694226847  0.8307561565071248  0.1649537009830496
  0.5761419864604064  0.8265690257697238  0.2521597323863713
  0.5842426385898684  0.8310886610733508  0.4179523250202702
  0.5777145642998790  0.8289738657712141  0.0807896673092065
  0.4148275538680816  0.1655933835939192  0.4170725406483294
  0.4150293867842390  0.3325244603745595  0.5780761428820629
  0.4937297853734567  0.9136033254998027  0.2483131726622062
  0.1686853154177193  0.1642698466384459  0.6661886782271843
  0.5814999197640212  0.9121226609125762  0.3362100966175198
  0.2454822257266340  0.9167993680250129  0.6662920779706647
  0.1627251986998254  0.9140447310293056  0.0788069275345103
  0.2488371437886210  0.8329557875294412  0.0820692201559733
  0.1646716024442842  0.8260447069775915  0.1640013553396263
  0.2487606651861148  0.8309436939557260  0.2520513766465349
  0.1642408475536423  0.8329622130164841  0.8325303473619835
  0.3316663388823498  0.1660567871326536  0.1629967255143930
  0.1644748849556320  0.5838252915388235  0.9146163476474913
  0.4998143172683743  0.0809549718761127  0.0807168132011953
  0.4109245576710335  0.8401896700799527  0.7489729469378676
  0.5832387836668067  0.0823725731245436  0.0023323161887097
  0.2453035915948316  0.4203001097619236  0.8339135912602292
  0.1650507100433838  0.4208179125056176  0.9153696631176972
  0.4134084397164305  0.8346816027526415  0.9189218961123879
  0.5826603035976442  0.0820483907593128  0.1579276855628917
  0.2459639586584384  0.3367129340119952  0.9165083854420285
  0.3277353026176058  0.8327845817106455  0.5020727586867477
  0.5816580611065255  0.9982276729336265  0.0823332335189462
  0.1652088329682150  0.5012345040610610  0.9987692065699683
  0.4983721626511036  0.9970009916641787  0.1626132896570646
  0.4122723672684144  0.9076650020056131  0.3327126072058386
  0.5837009224360150  0.0000497166904081  0.2442710898205271
  0.4091437099761345  0.9190021858166469  0.6649778331162640
  0.4970029721544272  0.9965636521341842  0.0026825863996142
  0.2467795115215570  0.5843381321423770  0.0006781952391099
  0.3320434795136271  0.9145982807708583  0.9170716905119392
  0.5026890741745816  0.5853348899146417  0.0850656456825524
  0.1684044935164357  0.7513089022684969  0.4204108311036227
  0.1638953472226972  0.3340388652954786  0.5024625320809705
  0.4163226850656219  0.4142081284501165  0.3325135297151873
  0.4971245018345590  0.5849101947471884  0.4164687169419794
  0.4141698148732413  0.2516909109990733  0.3350201126710876
  0.4936250519658986  0.3339367962678472  0.4966244662117492
  0.3314776552459445  0.1640689874053535  0.4975386727721275
  0.5726382866203477  0.3299658926133352  0.5762616198272067
  0.3356800725523647  0.2495880287541779  0.5822163928327370
  0.4987941230599661  0.4184071625537988  0.7504157203978608
  0.4108836081873288  0.0746177026379745  0.6658892452480636
  0.5828532678854160  0.4201739614231459  0.6717460252912143
  0.3327882377886517  0.2575767815445118  0.2512130442407365
  0.4990945756746226  0.4133825266856035  0.9152251308056267
  0.4209811497983603  0.1727595761097986  0.2479260347351508
  0.5820432237543920  0.4189294905796980  0.8340381875288614
  0.4191930375809028  0.3255032676847306  0.9141086127306193
  0.1676394551311779  0.4996987189690115  0.1660347935070441
  0.2486378207683948  0.5851403178272438  0.3325262162285252
  0.6638800587225211  0.7499700400374639  0.5798542100169549
  0.3319014996075314  0.4182366653994009  0.5825569682240915
  0.7501074947270704  0.5830001160024650  0.6691148153961960
  0.2470991940234346  0.9151865416925459  0.8330797616916801
  0.2469436682406083  0.9963693813469496  0.2508596600275063
  0.3356254019835379  0.0797403429413905  0.0836829053640570
  0.6615212066822230  0.7471116886075843  0.0822002412715104
  0.4193422055310698  0.0805554137423529  0.0007058559985293
  0.0807496063439638  0.8322215348987475  0.9160714151703573
  0.1623603445493703  0.9142057605022295  0.9149804164202221
  0.1632265427239516  0.9971046692799386  0.1660194715109556
  0.4172172256894305  0.0799887360191913  0.1587540451233836
  0.6635037628691919  0.4209628135278415  0.4190108545328878
  0.2486228389956651  0.6678137282446961  0.5852493838003860
  0.9159453149375604  0.8301835423800996  0.7556885366748758
  0.3304817565248479  0.0801694411401141  0.5819039072012252
  0.6650653337045670  0.6575171555695808  0.6681704305941261
  0.2451334317809783  0.5033360888507403  0.9163667495327711
  0.3299152564443510  0.6669005972958513  0.8338827364109115
  0.3290473434664238  0.9150693889190373  0.4181287727515108
  0.3316520201533106  0.9139456812715037  0.0823177104046130
  0.3251877193675849  0.7508900793754307  0.7491734904984694
  0.1662890831737195  0.5773333077100310  0.0826447980662419
  0.4108982407294848  0.7512345834793895  0.6619147309105247
  0.4135137229192160  0.8309352082363013  0.2481930577900441
  0.4137200756779815  0.6734300327459876  0.9178400984880203
  0.3299259041406487  0.8314291804049037  0.3335144653470609
  0.3314552880339924  0.8339591037154079  0.0004277679436202
  0.4965260030394044  0.0804960095598672  0.4231519866912921