Cr H  Ni
 1.0000000000000000
    38.6687825624360855    0.0000000000000000    0.0000000000000000
     0.0000000000000000   38.6687825624360855    0.0000000000000000
     0.0000000000000000    0.0000000000000000   38.6687825624360855
 Cr  H   Ni 
 1596  50 3725
Direct
  0.9918954947068176  0.7875875282344520  0.9808548776841486
  0.5792283714694459  0.3428697216697766  0.7923159295013898
  0.6806193971876257  0.2929564297860065 -0.0010707582408741
  0.6759057452728474  0.4162652870605758  0.9252954618445626
  0.3620356537944906  0.0860573243303720  0.5335690318085562
  0.4167747550614153  0.1222323333072038  0.6031272917886024
  0.3667472233541452  0.1193218392819140  0.6422696965046403
  0.4424848072756098  0.2181820658318864  0.6534945614190077
  0.5653320474679286  0.5965821028056140  0.3492447456731144
  0.4629843320173561  0.6592140122621282  0.2943755027478894
  0.3004236878245671  0.7419648303217189  0.7143193929951122
  0.5263918223968148  0.1859814350971751  0.7989713149371460
  0.4526667497196650  0.2854765885130687  0.5354165427489537
  0.8608086235130106  0.8931106831044373  0.5907355165239645
  0.7985968227239623  0.8882465675863996  0.6301494551527242
  0.6072784133995637  0.6435098836590928  0.6186467719877726
  0.7768410970500692  0.6328160489594494  0.6192239565871883
  0.6630690320670443  0.5657074720770544  0.5044833003072696
  0.6552836978975675  0.6798851678194309  0.6830008440388827
  0.6644658751181227  0.6659295967288623  0.7425014668934869
  0.2027661425800427  0.7091893301508647  0.1372188197829366
  0.3097693177284208  0.6757431652558670  0.5092943877594333
  0.7621041380424350  0.7083615536498002  0.7666907539898662
  0.4554301651036618  0.9745701844781450  0.8347264196675247
  0.4689243296641640  0.7648442030321234  0.8242501900722764
  0.5252091055051724  0.9229976602815434  0.8120532897560993
  0.2589977697236571  0.7575460511695090  0.9210451533104049
  0.5459698452876469  0.8666384533114532  0.8308321815917243
  0.2956866106324815  0.8066613489352551  0.9245411553949398
  0.4365619835981917  0.8350461618761147  0.7450601229251460
  0.4970026474916406  0.8279872340646759  0.7648459471410178
  0.7901144247706710  0.7982567275084438  0.3139318433662391
  0.2989441929486644  0.7959967912168298  0.9824738417645033
  0.3563353112811947  0.7155316123009311  0.5734597390090372
  0.2234610701110078  0.8592810611640405  0.9471068315730106
  0.1433998942300836  0.6785514370271550  0.5482840572670739
  0.4055561918382303  0.7542672106105296  0.6393273410839395
  0.3652059584651907  0.7036105489761195  0.6332921750914892
  0.0886739549766529  0.5971923898323975  0.6879525310989761
  0.9257935682831708  0.5975068318489194  0.7543932822294314
  0.0117458036932135  0.5312802902934988  0.7897829737661973
  0.2272931546705166  0.8260259108247354  0.8400049588646864
  0.2607894652737012  0.7247193125635164  0.8153057825006094
  0.8366523705821969  0.6907636515887047  0.4156670859332708
  0.5997971354728816  0.8944320917476700  0.9650580466151913
  0.3861659305515198  0.9418596729861040  0.9815666707182674
  0.5535780905570925  0.0429830533255709  0.9526221974763998
  0.6007664144635702  0.0086309752471441  0.9178815215416498
  0.9348751638759840  0.9685933802816024  0.2670396134337107
  0.3616443562895689  0.0610007145421819  0.9404034604140846
  0.8323353265343146  0.1079428131497668  0.1449476385931169
  0.2586850349658785  0.0215798888190573  0.9118472333016292
  0.2494187681864765  0.0325117551469349  0.8478211286355801
  0.8294630325491965  0.0774633196298568  0.0355065006559010
  0.2302080785043488  0.0172047660355822  0.2889573506001098
  0.4598920882411290  0.0740446195150214  0.8525942394484493
  0.5679007150373176  0.1259449366971898  0.3453989593960755
  0.2202140548368620  0.9263095315118862  0.1986787548559712
  0.3201279384339910  0.8802968601511956  0.1886472996990200
  0.2702763874089756  0.8954574611678490  0.2247290387395265
  0.2656025016820604  0.8500607866663086  0.1788062184209684
  0.1943932432507613  0.1259462828353691  0.6397913312349449
  0.3491778938982811  0.0443404449117488  0.7665452453548320
  0.3671267936730871  0.8020842014211730  0.1677482194437451
  0.5300406291310663  0.3637424976605418  1.0034668319231237
  0.4130340026481617  0.1391852623446251  0.1059661867313358
  0.4406597228721373  0.1618311120782340  0.9458319952403427
  0.5282849914421881  0.2302695685535885  0.2337640459277250
  0.7367203845487572  0.2317480221581808  0.0729079840146067
  0.4412194488941504  0.2830127195606188  0.8646791143674457
  0.0553988464041153  0.2280451007568806  0.1839521261517117
  0.7829069702000765  0.1374642702928308  0.1187500918064928
  0.4041511229105538  0.5504511646749356  0.1356889951138012
  0.4102994628743641  0.3200028168478535  0.6816550873690830
  0.6979151317544711  0.9647769673331295  0.5814476477864183
  0.0791978776116459  0.1071310977893121  0.4389488326541595
  0.8767544720361167  0.0153382280666903  0.1883328431887495
  0.4039236285911414  0.0322394200603698  0.0737936456224944
  0.0464455112434579  0.2119730106104895  0.0190063576804056
  0.8813901533842022  0.3056765116330168  0.8936896682334488
  0.2564169555171685  0.8245803214759292  0.0710888515978680
  0.5594536676745522  0.5210646204944748  0.1980221082311916
  0.4283492280056377  0.1742319044263233  0.8800303063720367
  0.5703690616631728  0.2513303864398743  0.9652983566566571
  0.5588241621947904  0.3197423550289207  0.0141676590459298
  0.2164747103797059  0.9443703204966407  0.5366362553335972
  0.2672192643900056  0.0742878737559828  0.6187144768749813
  0.0531914038468164  0.3621070986301362  0.5520541548632709
  0.0203253258399292  0.4185531574981556  0.4445516224654971
  0.9233665941678382  0.4780638813371949  0.3922584790453613
  0.0543943416198710  0.3884937520839017  0.4829020366914864
  0.7219228280904907  0.9428014390709941  0.6505731798901975
  0.1076398776407342  0.1960316179504938  0.4425241374929887
  0.5655675463069003  0.0948522845171068  0.2369637333531204
  0.8025231946296232  0.9682089879565042  0.5575450782094408
  0.7372380365166524  0.2149521640174069  0.1363805403932574
  0.6582512721486653  0.0554395239389619  0.4622763299879397
  0.8174700075851237  0.2114941240902362  0.5611073937340848
  0.7460989337066557  0.2375438168585486  0.5332947434410481
  0.8942127213603053  0.7858431250808859  0.1814280055872021
  0.9486955446904528  0.9678188992960938  0.6942290926366604
  0.8793441500660292  0.5386827537340982  0.0189658132928191
  0.0703408811685144  0.0522420746428496  0.7815927755445825
  0.8499827809529097  0.9045282835210225  0.4743120234204374
  0.9069605724370321  0.9531518280779254  0.4221026814182883
  0.8983771950921299  0.8301210868933286  0.4515007377551894
  0.1744135317816246 -0.0009790691970804  0.4492112592702737
  0.0651756603220740  0.2496294806783754  0.8545225322795099
  0.7058853343834971  0.3980629846720493  0.1756667492804471
  0.8183905657956049  0.4599725331729768  0.1934083801148610
  0.1255863819835835  0.0284957387304186  0.4210089742750965
  0.9108330956558612  0.3525319150235343  0.2077208279677603
  0.0494128121225355  0.1412966908435362  0.8703263639870795
  0.0329866970538845  0.0152982589323869  0.6811285587722306
  0.8013937403674565  0.3219963266386902  0.2948863531257542
  0.8563163670428456  0.3363489888820128  0.1353210983153883
  0.1306772098112699  0.0448574864065801  0.8035995340520614
  0.7181296969584472  0.7842977252674379  0.0148492080883700
  0.1200527099505981  0.9839611476325277  0.5582191246227240
  0.9537951859394824  0.2754368543495397  0.1933828980215715
  0.6670941655446376  0.0313871708141917  0.0568256058502918
  0.9486744755940382  0.2132645357050872  0.2099045669261627
  0.0530639825751046  0.8021019857390320  0.2885624655055766
  0.8832444882832302  0.6140981521820840  0.3958877680447370
  0.0874179085923837  0.1601950028153272  0.7652589141593839
  0.7222410937492784  0.6000000914295335  0.2893378836513804
  0.1188414699455681  0.0897901427612108  0.8466245884662190
  0.1635436373760334  0.9959866787865506  0.7864940200382864
  0.8988788376505729  0.1682306027454523  0.4885168427261826
  1.0065087061165514  0.8211448381163650  0.5484707864817602
  0.0999597433039932  0.8671631396741708  0.5755036618189383
  0.9485184884393253  0.8086156446379804  0.7635685934151702
  0.3426663341352667  0.3578393092484331  0.0564348073635209
  0.3321203227250651  0.2866827848488689  0.8830240532441194
  0.1610479547384999  0.8146326404361030  0.6470932444929302
  0.2482867296224874  0.3495325426230274  0.8456605103436674
  0.2346395641802936  0.2419894887209912  0.8547140137519894
  0.8362547146791002  0.7395446194375535  0.0078934906070052
  0.4758704692450856  0.8438452688099718  0.2479513146349343
  0.1368334144328950  0.1973893081705525  0.8299515102494274
  0.2238583313703892  0.2529259002136680  0.7945066880613777
  0.4315276761966599  0.9215091839447951  0.2664880225906363
  0.0648630512811935  0.2170046985350351  0.7474504989000543
  0.3736010354318893  0.2717128419798067  0.3406938681675940
  0.3246812473708218  0.3380647449972398  0.4168139733975463
  0.0713786551690449  0.0347305963426246  0.5157100665891309
  0.3500974122463399  0.5566892555731948  0.4546321325951300
  0.4650729544556729  0.2251260288626778  0.8807658419707607
  0.3412160178049131  0.6605178315275965  0.8570199399641205
  0.3326029400072256  0.6726285084659899  0.7959864903072167
  0.1854166639555379  0.4537398506031389  0.5812301532989467
  0.2330727762087039  0.9770879409450909  0.8713044209925257
  0.9785282835630726  0.4742208362005871  0.0708870719143093
  0.3446789275901412  0.9761277029774291  0.8551919258031523
  0.3772852710165097  0.9058009912664297  0.9336085220981435
  0.3418269153914682  0.9401321581292534  0.0825765900571153
  0.8009505233161086  0.9352554605642692  0.4488081926629774
  0.4423129563210504  0.0413445289485096  0.9703102182479358
  0.7420189355450938  0.8588312242329135  0.1613077227026674
  0.7334588135683245  0.7348899004270832  0.4251979128834895
  0.8379927608552817  0.7068415580945091  0.3537927514103917
  0.5420338198292486  0.9187167518874754  0.0637308495732545
  0.3887582609045802  0.8839605928762870  0.9981809116083609
  0.6010916967780781 -0.0062111404425780  0.3529246529594265
  0.5049281364563147  0.8477055025877298  0.9321103594506867
  0.6251126051812043  0.1525927520437683  0.1188994637780971
  0.8469406550610823  0.2626165079214327  0.4455579631891894
  0.8475463341317736  0.3188796067237873  0.5483487610108525
  0.9505916507560765  0.3506635332823996  0.6343985043443181
  0.1491012087408151  0.6776844007198569  0.1283108092856913
  0.9871684451304656  0.4008542710367061  0.6345783715949721
  0.0449978234126559  0.7251406912796766  0.1348979479216152
  0.9740371810566749  0.4816727724194938  0.7869528142781704
  0.6753841610821599  0.6314453110202672  0.0287699470974651
 -0.0082463567251473  0.5975738468564225  0.4933739529819480
  0.0743185091373227  0.6246582362650732  0.8265064672068907
  0.7817736756505085  0.6761856713772312  0.1162661726679208
  0.2661838993971344  0.6596688743133835  0.6061813383944593
  0.9273153666324929  0.5057534109749294  0.4976958269423715
  0.3097307282983193  0.5950061513535331  0.6548676769883561
  0.1999362532432108  0.5636339247050614  0.5679150355066535
  0.6948038238891123  0.9194358987738606  0.4733668296641110
  0.1474105095368668  0.5225441224890025  0.5062932873702465
  0.3264216577097925  0.8701712369717189  0.8687672487479421
  0.4873503319287861  0.9358764158863299  0.1014129853915511
  0.8424606698233443  0.7340292534499675  0.4631086481516822
  0.1654325328012437  0.6477535852861196  0.6819262363883132
  0.1973841124995894  0.5726789584399808  0.5105955781690836
  0.4482463028524305  0.9582686115838642  0.0539743661031831
  0.3017466336409622  0.5067572135324250  0.8352807076328422
  0.4221682812994077  0.8644985326292226  0.0507010339758415
  0.3298818608004283  0.5699914179666905  0.7773681288510597
  0.2741812066450200  0.9942722179654020  0.7692601359150512
  0.2812166105704956  0.5314450456810239  0.7118846450905481
  0.5286848213843590  0.8620456166795034  0.0866826797342594
  0.5190217189995608  0.7536103604805336  0.0629081579864610
  0.5183869920183225  0.6921132061700032  0.0776150184316479
  0.9675480839597462  0.6136978350210454  0.6515942175889202
  0.3977578337907834  0.4731863314768756  0.2162878028432836
  0.9002989019716283  0.5918830120882453  0.5239832841738608
  0.4999736209024923  0.4588584803934080  0.3126870320310062
  0.7747959533109485  0.1189153845435551  0.4841231400047578
  0.7550915100700086  0.4534552855574480  0.7222089867535140
  0.7892802570227712  0.1851321067989368  0.3935878779882652
  0.7286061906259651  0.3585542554112396  0.6706774139577791
  0.6458858508328097  0.4225483636391247  0.6339592971689023
  0.6628042506238939  0.4543504045962169  0.4783316206029475
  0.6792644003992807  0.3203941322831971  0.6039850903488736
  0.9841043188524699  0.6048248322626922  0.9737835205536799
  0.9162469421478421  0.0610214318465858  0.4498357548786635
  0.8558237421827813  0.6295397396212445  0.8683043935193626
  0.3185043780296938  0.8322170478757034  0.5345353796774450
  0.8716373558097676  0.5862754751809202  0.8255627349516580
  0.3736273445889344  0.7791055477835531  0.4545756401851010
  0.3571245378120221  0.6449831462359186  0.3169857467526529
  0.8628123107283954  0.4841233801740585  0.8082913010749764
  0.7087434828292871  0.1308513866300623  0.7591584825070394
  0.2137772045887020  0.8138832491824427  0.3944457097945525
  0.6367511493723651  0.1492161360912057  0.6755532164041872
  0.6929723025457167  0.2753519066548740  0.5637401809392031
  0.2589819655421690  0.7544569781926918  0.3130924828231448
  0.5938568225156677  0.2362313434863920  0.5404690880784020
  0.6850286810586083  0.1554101284760647  0.6355368313628843
  0.6939746392153135  0.3435842603805151  0.4299232751444089
  1.0063948013365067  0.5641083918426625  0.8928157482833049
  0.2691955565084586  0.8857313197443432  0.4564650340036224
  0.9553059136456505  0.6266907249836844  0.5922722377361546
  0.2682424205011060  0.9326052588101200  0.4953166473376885
  0.2185144438990294  0.8761722030337284  0.3871905706677768
  0.7964309591824844  0.6011740289746937  0.5418894779160200
  0.8416561364873130  0.5078683113956600  0.6860647325107075
  0.8912555256959734  0.5491383388354328  0.7494346965474555
  0.9640861185905484  0.7326154229229183  0.5529896670551971
  0.7975784049616412  0.6057213133866882  0.7427219024731337
  0.9529237616455645  0.2032313854047650  0.4999647818776364
  0.7276642796752844  0.3899721135237269  0.7788570834269367
  0.7007839400824220  0.2951831973906254  0.7302726630255783
  0.6408517416788136  0.3030762779989520  0.7082960615970780
  0.8130520359265222  0.0907642953646204  0.5153052009606908
  0.5904884853010783  0.2655859564907115  0.6420051901701628
  0.8626093030810761  0.0310881997327736  0.4419947940352486
  0.6402579818844495  0.2710386540190682  0.6023651199418927
  0.5798302378469604  0.2790890747901380  0.5789039715274359
  0.4534638092054405  0.5200039931757446  0.3921253601917185
  0.9235550247639973  0.6105870583362977  0.9532049255920400
  0.6647341007725633  0.5194292635452423  0.4623640737884774
  0.8610025115567546  0.5161113218429723  0.9116493637708480
  0.9348221824629765  0.6000042806910197  0.1326323773770330
  0.4022692494904178  0.6518945878940416  0.8788925433576561
  0.2495162480180834  0.6294188194747534  0.3467934256132048
  0.4646885425240843  0.6112263332396018  0.7976542505858435
  0.6388928102062179  0.0220138686708863  0.8121994115712640
  0.4627439889585091  0.6434103817724331  0.3544656794901154
  0.4497795791015915  0.4900208539034713  0.2847773374115158
  0.6710652831422025  0.1577183717563052  0.9622222036741033
  0.7396892546723793  0.0626513911658341  0.8377490737293334
  0.6794022433627864  0.0695285495504099  0.8150716359612989
  0.4466299450112086  0.4607111329497902  0.4054762412577441
  0.6188511785442569  0.0434225202216057  0.6854967218345124
  0.7802544992323924  0.1684257954234877  0.9947880733487287
  0.7940241380329071  0.8023173499067487  0.4899748271048063
  0.9796442187859913  0.6808081880013518  0.5692868592565932
  0.7994572819733589  0.2493428979589508  0.9325181892057768
  0.6369896192290253  0.2173900194582088  0.8848060150994275
  0.7194340811237802  0.1184227378988316  0.8199917206375477
  0.6371687000632087  0.1851850175954191  0.7805373975274525
  0.7076869670763068  0.0986741184735018  0.6520706198365176
  0.6789765056978616  0.1552247723669072  0.2522928265427808
  0.5437246716908014  0.9943220182750883  0.6884779822726882
  0.4218845489865260  0.0105213198011716  0.6462487096373846
  0.4342949264379952  0.9640379765543495  0.5435708809213806
  0.0852070116213537  0.7120234579990555  0.6354426536770801
  0.9298133259315866  0.5378628032396100  0.1488371685172979
  0.4107825334703702  0.6598528718348484  0.3886019905543960
  0.7017582920091988  0.2624377286127155  0.6242935808492188
  0.7313873658321698  0.7060755009488729  0.3182717180026042
  0.9941029515239644  0.1340591197258736  0.1912824795840878
  0.4328873766273328  0.9992036430770563  0.7089636051485441
  0.9006797879565084  0.7959457436158595  0.5740934183588601
  0.5470845972300317  0.0900770736960139  0.5417128307305176
  1.0046004066115684  0.4427465686322877  0.9725007369607043
  0.6548225214858112  0.9360132006438773  0.9684124201793760
  0.5910352411650399  0.3213870540333202  0.2232213259723394
  0.7472175945392345  0.2130637173258462  0.8688694640151223
  0.6130142231832392  0.0637432180913590  0.0235155212657408
  0.8953350448606352  0.4119356253625325  0.8868727585230433
  0.8586837472946804  0.3632661066139848  0.8824576457337557
  0.3536477322589163  0.5988617673305527  0.2739082339179965
  0.9079353609096451  0.3674479072315784  0.8433744729739501
  0.4006991765382705  0.5199216520639123  0.2591529272441609
  0.7497387884181893  0.3336412153913408  0.7953500621748502
  0.3514014595850271  0.5835336183220601  0.3327959877440250
  0.8601537829864733  0.3321650794090767  0.7749976912082820
  0.8107110857357317  0.2935477353837784  0.7097793118998490
  0.3980043859647739  0.5054250732181271  0.3184244426187088
  0.7125811300822696  0.2513013131137687  0.6856335490979700
  0.6628215547546197  0.2127604991023593  0.6207484781472319
  0.2121146301154537  0.6859506230409372  0.7480976664642165
  0.7682886601778086  0.0343911913239201  0.3291061542475032
  0.5070525671480648  0.5371156233145290  0.4567725842364709
  0.6039792891163084  0.4433416640706888  0.4085135413338728
  0.6112718806962616  0.3377389550409021  0.5204441691905369
  0.6400309969760724  0.3110360627421136  0.4203458704999668
  0.8646359451455210  0.7191338266670697  0.6882646588208202
  0.6880504144993733  0.2333381108234459  0.4014766354332130
  0.9118931779287828  0.6901763564451279  0.5457087078296522
  0.9050945899184522  0.6221277051959888  0.6349732980632098
  0.8291889729199210  0.0775403032052437  0.2719958415990614
  0.7740871711973730  0.0800774694792297  0.3719909340364415
  0.0460641854263370  0.7387059875805569  0.0717524692898909
  0.9561950987938578  0.2200742910189280  0.7680776291921451
  0.9661661119776103  0.1738920737450438  0.7239758690751152
  0.8400533500154880  0.0712528795722701  0.7581004700406665
  0.8679633647985336  0.1312766810190686  0.7012974876592976
  0.8294388857229240  0.0836922431557819  0.6966614306617952
  0.1923553265004792  0.5221439161725920  0.0156840272136269
  0.8260931962671422  0.0480921839203330  0.5931908030204199
  0.1904751229471790  0.4378386696692690  0.0354489480541760
  0.2341637585220835  0.3939674860274274  0.1257070740981076
  0.9336489380302377  0.2778504800138782  0.7510812700798614
  0.6910806466283632  0.2182318202165567  0.4617550084475938
  0.8203688353916608  0.5678325769093636  0.6667776159095787
  0.7056208762540096  0.0765185862290465  0.5388325002050597
  0.8551353255422844  0.1435809017830454  0.6414172455723505
  0.8687935136136976 -0.0374542605608096  0.9814984347560228
  0.7596200360139392  0.0606678929632896  0.5061543396327242
  0.1912151389893410  0.4883835243461006  0.0792041603355082
  0.1427560160445637  0.5675493962848749  0.0991933548856693
  0.4743890920497784  0.2293129198987230  0.1000287664989470
  0.9767381377886417  0.4153024264577039  0.5672557540800480
  0.8456941874158046  0.2236292604310363  0.7882787025729854
  0.4689316182833456  0.1851521383659047  0.0577658956164312
  0.8940131675643928  0.1939981602501971  0.6443558760012297
  0.5193705517892416  0.1535955202967078  0.0824488138135356
  0.8779459449584318  0.1185831166896255  0.7617672885899790
  0.4375613986580393  0.3509667970443412  0.1585759907681657
  0.8893228454423925  0.6478749092620082  0.5063852524704150
  0.5804311332558215  0.2288615139832695  0.1366795956856417
  0.7771700347240582  0.0557014217931947  0.9629217744842005
  0.7053860191001354  0.0045437949300540  0.8982249555115616
  0.7771088710507948  0.1398237785043026  0.9483571774780156
  0.9436145206800698  0.2651092743804814  0.8103429381528656
  0.4338617017942992  0.3064729213479894  0.1188867413221251
  0.8864842360343963  0.3936611384613866  0.7188153543048366
  0.9501671278511484  0.4727379716260580  0.5657926663950288
  0.2385566933625598  0.4719343548566608  0.0467173860059722
  0.8338332584703417  0.0983710688549487  0.9640340705223533
  0.9141141358325414  0.6088219026646796  0.6949029078976293
  0.9821952751818629  0.1818031895537943  0.9517697286205626
  0.5495186897940467  0.4282234174843489  0.3403136636375260
  0.9330658723651508  0.4620219205091695  0.8878634348307678
  0.9613106292991486  0.5274838774815057  0.8307892334871732
  0.4859335376143156  0.3214708437512092  0.1879757532885751
  0.7358871084449584  0.1928750308698813  0.7021285334644564
  0.2127098798515935  0.8312718449651659  0.3363697810817827
  0.6379731658853861  0.2479035402878743  0.4371200847164593
  0.6442001909266594  0.1142366412687671  0.5637442570370058
  0.7418812487196497  0.2632935896616718  0.4104653199289151
  0.7333682987011283  0.1590208710081300  0.5976733028741477
  0.4271888156438627  0.3416489743932718  0.4574010550603313
  0.7927658346889035  0.5037735015576306  0.7251930890423856
  0.7935891148804611  0.4708947008821054  0.6230073079685770
  0.7169664427469896  0.3709369826609107  0.6079421144622387
  0.6890109195748567  0.4421855960851758  0.5300964390580264
  0.8812292778116383  0.5255554508966381  0.5880242642246007
  0.6938709348799437  0.3287808522933169  0.4895408548562225
  0.9889943723874857  0.7266579454055434  0.9066326808485129
  0.9003151680886576  0.6689462915583220  0.9322288534967530
  0.4605730984212167  0.6291173657259888  0.4143916880791817
  0.5618458748098809  0.5680355886767667  0.4720451434976020
  0.5069033663287640  0.5509965959756131  0.3990831280341600
  0.9930157479694044  0.4546440258720258  0.9092392476029493
  0.9392783566145738  0.1430562282677725  0.8892300028684762
 -0.0067130796606889  0.0804562002320608  0.9659036779549208
  0.8506845101483393  0.3090437512949636  0.6083579627439213
  0.3023324300532777  0.0958494937944357  0.0259957632870599
  0.9289151809119810  0.1566782309985906  0.8271592429108704
  0.9115422433275058  0.0476518685497548  0.8420510311210954
  0.3160014728152631  0.2654536731705736  0.0390545025652716
  0.5058098539203945  0.0621501832979328  0.9849393000998685
  0.4067951852937988  0.0994480787587448 -0.0007048379256128
 -0.0003613409762308  0.7987226070606547  0.1536530922348798
  0.8071443066186005  0.1412718806374295  0.6781360225844988
  0.5195790360855284  0.1380640588851080  0.1429174594278485
  0.9485715231060384  0.3846189240998479  0.7398407087784779
  0.5649889932405634  0.0775066322607564  0.0615112363472883
  0.5015253394710204  1.0227243715388656  0.1880183601172266
  0.7067127765581108  0.1380242236883367  0.5291400236941222
  1.0055982859913193  0.4100466496488778  0.8643549947505598
  0.9967963511083794  0.4223371572929557  0.8041520690901897
  0.9377395279942036  0.3968252697660616  0.6801114894001281
  0.9713266675991314  0.3264160236882975  0.7561494555537015
  0.9103433252066245  0.3372667588105571  0.7348676059684448
  0.6067155087985141  0.9890515816134867  0.1116732584551195
  0.9820900423420654  0.2465497919879355  0.6039939721485433
  0.8009558759342466  0.3058798015316034  0.6486488833920719
  0.0568326234582844  0.8801078861920794  0.2098409416784284
  0.0979239325781371  0.5857480446474136  0.7483300459975571
  0.4408403983884239  0.4113216500515105  0.3667330371855494
  0.8961115456707254  0.7988955092851951  0.3470921905717518
  0.7827070388971583  0.6584972575744235  0.4051399267984249
  0.0057435208675362  0.2737635811631169  0.3246792194001046
  0.4726441237007164  0.8160015980790134  0.1416877724013582
  0.1008341232736968  0.8723104245777322  0.8993585761836224
  0.4137252658192723  0.7400530957770043  0.0875764891199715
  0.9526996329080807  0.8536575316057516  0.0690157139113953
  0.8479548005973563  0.2910341109854150  0.0948008656601024
  0.3726959085568556  0.4869354057848576  0.9232397313419234
  0.9906797891010301  0.6472174577428024  0.0787683066050729
  0.8841425129031030  0.6306979956737033  0.1077909288266722
  0.0280613496845405  0.9197818565153772  0.9728881293353178
  0.1191972355937333  0.7956305852277374  0.7466029511867400
  0.2967620138080393  0.9990659892988262  0.1635297539195537
  0.6895458633652787  0.8412221057767619  0.0881951819698126
  0.9266249565994321  0.9256042368537524  0.0070587537189292
  0.9442962784213405  0.7918380734737990  0.0815825715510514
  0.3134292853547637  0.4619817235152371  0.7926813087413735
  0.3128355114767640  0.5973829056723206  0.9157148884702774
  0.2044017496000536  0.9133837681980714  0.9313785321559956
  0.4603594606021401  0.5436080564176231  0.8833977238510438
  0.9364986504099480  0.0777263141217142  0.0715416203466968
  0.6553557582626472  0.9916994060002732  0.2520030920472694
  0.7869503311934707  0.6997686228778042  0.4551320856956735
  0.1934508476859389  0.9266392734121646  0.8666033452356164
  0.8876833619646088  0.6930525502699780  0.0924344491372537
  0.0372528570584551  0.1202699976322485  0.7010693124197701
  0.8461588667842156  0.8438009393438493  0.2617662221247152
  0.2042252614449102  0.6705853366002746  0.0365412001857187
  0.0907920381069306  0.7582937435821282  0.9661843026178762
  0.2234817051745349  0.3097003471036855  0.5038037890943391
  0.5151474571316537  0.6165715838686218  0.7575057505765401
  0.5198432201855480  0.7382283851037139  0.1216998869666541
  0.8761581078034284  0.0028667003894458  0.0207255779461517
  0.8824758412457337  0.0780829241878063  0.9399254729075405
  0.9378307935483762  0.0945371337392970  0.0108768915856848
  0.2191247863883657  0.3848945518119375  0.6594039182320088
  0.4201439532473014  0.5934574357103439  0.6380792598680244
  0.1847293097200529  0.9523543054202516  0.9718143446247031
  0.9253185055505774  0.9535134083202429  0.1085896320961716
  0.3960271540278307  0.3979640007338719  0.8328061526240972
  0.2966844230724285  0.9060045405662505  0.6810546857283071
  0.2858558481854160  0.8635276040879155  0.0284405221151127
  0.8406852398117702  0.7716809859545996  0.1120756334694369
  0.3064360661079754  0.9611262334671198  0.9604228834273481
  0.0002415356527076  0.2143926855561445  0.1136229529724247
  0.3722491219492635  0.5566266067733899  0.5752338589373451
  0.8902597892741670  0.1533487990478422  0.0926637058573837
  0.1033330216904208  0.1824545393332069  0.2730774078772189
  0.9229812499033179  0.3447727445520473  0.9760151715780513
  0.0787144354363269  0.3580172279509259  0.8396844430082868
  0.4352674450314268  0.5850092873763350  0.9638645649936152
  0.8194970158194191  0.5007983171174237  0.0114783905106080
  0.8168073320569929  0.4263434948160602  0.0880559732942537
  0.1516891347217417  0.3049465111806151  0.8172227950018018
  0.8370818509943674  0.6782288102715081  0.0216058340256108
  0.9551522713374843  0.3090109036024168  0.0675879435593683
  0.3328592016659841  0.9810842929535629  0.4475911964052946
  0.9646560544425746  0.1394935348360437  0.6154506503240081
  0.9068039081124846  0.3231571217098114  0.1022568670710393
  0.8956737178399955  0.2785564766152580  0.0647617763919940
  0.5784805364130792  0.8289469012491699  0.1166403168758740
  0.6753440071071821  0.7996409826819000  0.0477129138881482
  0.9947377390895457  0.1688448651117816  0.0695835718625452
  0.1134086415581769  0.2875485695103162  0.9164843876639847
  0.6532309046441140  0.8782385095241318  0.9833160920862934
  0.3830009037603530  0.9703348967686686  0.1800264503509190
  0.1987688169722599  0.4978660341395162  0.9127093747189486
  0.1409749821063830  0.5039925449547336  0.8917290402479296
  0.1256925074458329  0.3951910780913359  0.9095373248931529
  0.8239036781218934  0.5367554336561651  0.1147966205106734
  0.1282689610550952  0.0755737674413690  0.9096618251647580
  0.3655546649455055  0.6027255469745176  0.8757574913755801
  0.0285966519422315  0.0341295127397187  0.8860153860859397
  0.1993956072814310  0.3437902799882017  0.8872087145537404
  0.1762581020847930  0.4003423335870741  0.8681618832830988
  0.8159041659044424  0.9395982862907987  0.1399768115873917
  0.9834946475959163  0.0008956126651918  0.0513392142929511
  0.0113891264760273  0.3051393849325357  0.5483578601115201
  0.5416671510844941  0.7127979823439206  0.8028275171150194
  0.8461824605988235  0.8351065110109067  0.0963423101419667
  0.4848258403907339  0.6885780362879182  0.6768979722564490
  0.8947607915762592  0.8207281285761320  0.0612142161777171
  0.0315813391115461  0.7374325285953186  0.7781364028518764
  0.0589055743624156  0.8027609613123712  0.7206672628503356
  0.4207219697802568  0.7270852690024019  0.7598874149032773
  0.1190721184104984  0.3054526463172956  0.5257689650163437
  0.2403288152495712  0.3270690802024694  0.6769775579125503