Cr H  Ni
 1.0000000000000000
    38.6687825624360855    0.0000000000000000    0.0000000000000000
     0.0000000000000000   38.6687825624360855    0.0000000000000000
     0.0000000000000000    0.0000000000000000   38.6687825624360855
 Cr  H   Ni 
 1596  50 3725
Direct
 -0.0110316066137053  0.8477772459171603  0.9694081120323339
  0.4260553780633511  0.1097548559762131  0.6659990573764363
  0.4630196794249833  0.1586856645084002  0.6716182088520802
  0.5087842130791420  0.5680856914089484  0.3358953800480581
  0.4631733468684501  0.6612591023776614  0.2923257739553694
  0.5735457156072571  0.1892298833884141  0.7603402851359610
  0.4545872403008065  0.2867400466317501  0.5334918887614745
  0.8629685292076387  0.8979459134743687  0.5925822627026702
  0.7994004408251913  0.8907393022036650  0.6307388834182790
  0.6412355066993446  0.5908504348421327  0.6017124628295218
  0.5632521775372781  0.2341651533028157  0.8040830586120654
  0.7067438491692373  0.6840668876026484  0.6412493793087913
  0.6148040783310391  0.5973903290479405  0.4811358336035916
  0.6549195680834462  0.6789987717348881  0.6812065867985467
  0.6649367991440707  0.6659743018137223  0.7417028539710963
  0.2577966511484912  0.7426323337506887  0.1455054229458136
  0.5585027031500022  0.0472632746510918  0.9504584981441297
  0.5391498151209289  0.0099532258048231  0.8970612129074608
  0.7630863869076121  0.7072058195438533  0.7659563375243835
  0.5155404678757927  0.9647874997979777  0.8567905276194588
  0.4045629623519529  0.5043475313603919  0.0945746906419802
  0.5357099060274999  0.1703761219941196  0.8629726833596502
  0.8280960694495507  0.0306348546209223  0.2293260210150279
  0.4036050415998235  0.0333537682594931  0.0732719060433800
  0.4961881657870559  1.0079688206835717  0.9378567246589069
  0.8478524839956201  0.8824593510703309  0.5356088824337315
  0.8520405461703555  0.9448554507410886  0.5311174318846251
  0.7628098323492080  0.9894213785150870  0.6561464964772294
  0.3708431714262973  0.7963713466034577  0.3953682415351648
  0.5623583418551505  0.5846279827788290  0.4077425174094898
  0.3666125311414599  0.7532812366330609  0.3486435784398884
  0.5133201118691907  0.1971103484766319  0.7382453834196722
  0.3669377652776420  0.7692193504896443  0.2882752393977911
  0.3164577359511216  0.8012108432827197  0.2643041860957501
  0.5694825240968955  0.3234917054883703  0.6237740850642653
  0.5104746399292692  0.3293547547960334  0.6009379651968273
  0.2689885868059578  0.8608890637661222  0.3512105574515558
  0.6079271732641115  0.3723764808348310  0.6284900059168717
  0.5589909453402679  0.3669133735836387  0.6679500356405149
  0.2186764254588032  0.8926331423008298  0.3250324085468076
  0.2732009002931554  0.9233689607969483  0.3334452973521444
  0.6853216400424201  0.3706102708951471  0.8809167242426439
  0.7152585499501869  0.4341829512242301  0.8236002453643612
  0.8219815701718762  1.0005873344126595  0.1220127440784847
  0.7104725311253581  0.4642663365015828  0.9265063529158197
  0.6494083425914723  0.3843908258902307  0.3338231434011547
  0.4098399024041881  0.3186354206708506  0.6816359868696014
  0.0739272988411508  0.0481904089958508  0.4554549365921757
  0.7562418063996502  0.8737924689044598  0.5684331388900143
  0.8301521651326444  0.0777663770369584  0.0383532705473935
  0.3860214507236822  0.1233555062201410  0.8754388440217010
  0.5682838439729078  0.1261583425930449  0.3445927451720330
  0.2180983889781836  0.9292580430361228  0.2000125004351140
  0.3201796408229440  0.8817333822954400  0.1893239978997412
  0.2685250217533592  0.8967057022316541  0.2252185738607380
  0.3161233274923840  0.8372121562423163  0.1437399086582425
  0.2781879005828186  0.0618024893812578  0.6830510562455152
  0.3486881019322501  0.0429337426031578  0.7676538746207546
  0.3675751219947953  0.8048188566299035  0.1668794391227812
  0.5239998063625110  0.3563453845482116  0.9999425710019412
  0.4741802549991196  0.1954028535703768  0.9928903907590594
  0.4659232172531801  0.2103766424063590  0.9383999399482660
  0.5748843184860375  0.1525140198442440  0.2156188521280059
  0.7391071324666196  0.2307505943795783  0.0787596306993820
  0.4521165980419997  0.2366214294040505  0.8211687657499138
  0.0685059274758368  0.3372568498885324  0.2075522023909171
  0.4607488456637521  0.2229944034353540  0.8807087061567976
  0.0531868564082906  0.8007865827581133  0.2898889729067849
  0.3500229111854459  0.5541662402863026  0.4548491079806560
  0.0291813901563047  0.1260813971258727  0.4747527399597096
  0.3253107060047845  0.3385877966486369  0.4158643164072879
  0.2247443361984029  0.9708265671180679  0.2454458584264389
  0.0474897507915051  0.2103931468194004  0.0187800644971998
  0.8804426609355919  0.3043742176682934  0.8952780106410526
  0.3060346006024422  0.0564245032061512 -0.0239029940883433
  0.2598935802041994  0.8247277644731805  0.0723872848018942
  0.5093331721749942  0.5528872631319073  0.1691692971765341
  0.4265426316488120  0.1726471998668130  0.8833248150409140
  0.5658975134135348  0.2438108074118422  0.9663982335642523
  0.5665750127494412  0.3275448988763097  0.0220430275597535
  0.2308382207633684  1.0256279194306928  0.5198486244445367
  0.2678493203415135  0.0728884371183597  0.6212032322066707
  0.0526415545986369  0.3602919843539604  0.5514008058962310
  0.0208048389848228  0.4191278695765645  0.4436868411446371
  0.9698521932148089  0.4466261407045642  0.4221044757415189
  0.0543988847261425  0.3896745562330873  0.4818897567643290
  0.7224409631278784  0.9413143790377373  0.6513129055479064
  0.1601478338338939  0.2291879018520236  0.4520564299182031
  0.5643610869153539  0.0944107164127793  0.2367412940547198
  0.7514865061668210  0.9988444942893150  0.5296479701998451
  0.7381187075759059  0.2148139102624454  0.1393154190766877
  0.7015137890988997  0.9587009075076383  0.5843382231309916
  0.6569219943490705  0.0570125210178013  0.4628028777695812
  0.3603203519761653  0.0595381941315287  0.9379203758339877
  0.8294419504206234  0.0611671872270704  0.1029299354776943
  0.7824952742216666  0.1235727463460721  0.1822521343165894
  0.2474490447620564  0.0305227999776371  0.8493831509742054
  0.7999563715036119  0.7583695213481952  0.7680273172761761
  0.4124494099066303  0.6924456958218855  0.2664859284513841
  0.5875578833997769  0.5581330775057007  0.5350618027751376
  0.9745966327616948  0.8955984658183516  0.7818585889615033
  0.8934936430527337  0.9655513946179056  0.7623249927444583
  0.4734093984472746  0.7344286545722691  0.4472702133914363
  0.6960880223692144  0.7793478255864700  0.5655047202408489
  0.7628814298890746  0.8104215029042634  0.5789441820836300
  0.4757241868674035  0.7959066298068799  0.4330071141440675
  0.7611101631976499  0.8427051007189603  0.6260028975299256
  0.3746345629999499  0.8918210302304576  0.4840618526557142
  0.8088173424779161  0.8777496929849044  0.6924612173602507
  0.3242940925964854  0.9186713967492945  0.4594362673872824
  0.8617441540412650  0.9026498706673070  0.8237691196223480
  0.3799295504336058  0.9507222578792753  0.4716293875978855
  0.9375230531799222  0.9868794022215825  0.8689450004543116
  0.9283977164247391  0.0117704797821433  0.3193438278582448
  0.9782113976442405  0.9694607153953775  0.9476300319405966
  0.9335485704894720  0.0589567672638146  0.3673017211543129
  0.8813230272121872  0.0742430823350855  0.4026386576785200
  0.6468988547727662  0.7280771742630069  0.5666783674824083
  0.8916195611167310  0.1523748900560891  0.3239842614754229
  0.8482922126199456  0.2774874118539972  0.3835386945032206
  0.5894911394136488  0.0124178682503992  0.8554895745277166
  0.8367185361673156  0.9381251519828184  0.6279376150173092
  0.4413096934693272  0.4129329270695822  0.3658957528662282
  0.7614482291802732  0.4463149728753348  0.3498873620733314
  0.7538758420717641  0.7212425372331391  0.7060346181422573
  0.8331073052190748  0.8402556571542104  0.8801261318984857
  0.8095186518698140  0.4158026325807655  0.3762898376128047
  0.5253673413920650  0.5643389847896992  0.5160776282397508
  0.7809338189153318  0.7120059192373500  0.9930801061506846
  0.5184307679349603  0.2806802903842074  0.5571340032655840
  0.3970411369792701  0.2525006834497419  0.5226219728145586
  0.3135525991305712  0.0120083666865285  0.6660779706233830
  0.4487933951863015  0.0534656286681635  0.6847921541774995
  0.4864408894087856  0.3176105221924302  0.9361901640500541
  0.4772760980184320  0.2506704982826982  0.0419717673894877
  0.5575029226177279  0.0820819407651647  0.7713021395497819
  0.4478389706648805  0.3630941048312127  0.0908880151860304
  0.5075929560498179  0.0777740795380468  0.8134767463338589
  0.5034261608094192  0.3461478004229969  0.0553284200511844
  0.3996234859484648  0.3930430150977571  0.0656506983455353
  0.4007736730528612  0.4410613028072324  0.1088816776972270
  0.6100599670728084  0.1395982392136443  0.9440869113682312
  0.6653501582371253  0.1484337504628552  0.9628969830135579
  0.3932253828842641  0.4430067585714725  0.3384080406890081
  0.3419885343163961  0.4599231595249994  0.3691385800616194
  0.2272311194175805  0.0002517415459476  0.3529076368295639
  0.0982388958199959  0.1050931580823559  0.3531114281901344
  0.3744962670908931  0.2727728067194711  0.3401356801747741
  0.8058069988883930  0.3699448649045181  0.3360679940048120
  0.9102275723545660  0.3695255822370275  0.3718844035140876
  0.1545522670786153  0.1877161514866665  0.5609925057634250
  0.9451868644143310  0.1827670591029364  0.3325324082247021
  0.5650535844419174  0.3986587853719871  0.0053419738946662
  0.9921451227633006  0.1055671057946588  0.3149630086932594
  0.4421147599878443  0.4339845359488347  0.8981470914980589
  0.4325366394897922  0.4460961988235731  0.8372783817563272
  0.4344141249823826  0.9508081993781418  0.3757121252639881
  0.4326373164102780  0.9340406825009262  0.4383748323082826
  0.2980732418756202  0.3536413016975811  0.8041926727454261
  0.3492749675173509  0.3250426216499675  0.6584818129627967
  0.6281985678795993  0.7362639427046176  0.3893238862217935
  0.6710360940967779  0.6157485979635964  0.3218935904786032
  0.5751337979394885  0.6233024146757046  1.0017800091763542
  0.6136933785528705  0.5690122297701699  0.3736077626259997
  0.5468555957768024  0.5737700633235951  0.9486012714037124
  0.6059696319813987  0.5643472306722124  0.9723153878095790
  0.6652534159279664  0.5538324639416705  0.3379599331897926
  0.9501857426920097  0.8201426423943478  0.9357434060568557
  0.8254951279306492  0.8533069984623480  0.8184102486806569
  0.9047525727328413  0.3963405120338501  0.9506267819283855
  0.7605686088057090  0.4155305791200239  0.2465686189297056
  0.5854950147314613  0.5952792174246585  0.8434505003929667
  0.4488201130925820  0.4108631329583942  0.1364244031863416
  0.1740033779260384  0.1801180253369231  0.6214972468229049
  0.9135573651077993  0.4164579686034295  0.4076575070088354
  0.2365559730434119  0.0734338377256588  0.8919706404419304
  0.2228653755659906  0.2196314656423356  0.6882160680195882
  0.7204078234573088  0.5690871761167160  0.4096394278769107
  0.5570273469009890  0.8887468030018274  0.6660087288074196
  0.3614596616676467  0.7750158704126154  0.0642651069116093
  0.4155329621559626  0.7418141986831135  0.0876275619007385
  0.5506650277639679  0.8371061885653744  0.6324304082755072
  0.5123187185492319  0.7550189105383348  0.6190421843223013
  0.5065045222316880  0.7685451491300711  0.0031021143929237
  0.4421071767365253  0.7756984789564305  0.5359322810348582
  0.6629369954861372  0.4445916340204471  0.0882061577277296
  0.7320484983425256  0.9602445694776625  0.8186409760897736
  0.1285971968438539  0.0434072440937529  0.5369012983615818
  0.2066699749442251  0.1125102404015285  0.7040737151852511
  0.1173522893756371  0.9568655743051881  0.2705815755448340
  0.9583270796405376  0.7950827302834815  0.8248202556318927
  0.7528552822492084  0.4833755993784066  0.8251396923387673
  0.7085674955214228  0.4311121498716723  0.2804624111176893
  0.6623168539228605  0.5073480475113900  0.2936352274734447
  0.9401425853123588  0.1049756510503643  0.1817892803782571
  0.9510549515910273  0.2150655851158479  0.4407051865045145
  0.5785979335947506  0.6267652426691311  0.9446262800329689
  0.2636028584592859  0.8331333420369932  0.2389640116225324
  0.2558371328498675  0.7603126584849832  0.0857424220036117
  0.4611095998621051  0.5082682479590095  0.7781741480057857
  0.6892411894424558  0.7607891139642272  0.7862750565029426
  0.7699153339146261  0.0183909688075242  0.1577140643208864
  0.6130613035324725  0.4950213082393817  0.5573152940827262
  0.6832677196754358  0.4723951513828042  0.6395990647214788
  0.7135523828864802  0.5363279788248365  0.5851170983035582
  0.6845541523784044  0.2026950916021186  0.0661316277871718
  0.7587052242147738  0.5850905427243995  0.8439246401978937
  0.8711213557157749  0.5829312725854594  0.8274513645424717
  0.6879419665461974  0.2301527689678923  0.1728712162840710
  0.9477754178834258  0.7094104905289077  0.9991127864556698
  0.5476215447135755  0.3984965084042634  0.2357363131079561
  0.5953919575035449  0.3376467619772656  0.1599907581529723
  0.5392598602638466  0.3924697200600375  0.5430240463648853
  0.5550782910916110  0.4608174862396309  0.2157438909655603
  0.5111141540195832  0.5838033739948369  0.2755915611016511
  0.6568626523099950  0.4096771143376449  0.6951688952406964
  0.6930669926003199  0.4596963126619653  0.6996801110856699
  0.4579223728766890  0.5674016388855876  0.2033394467171421
  0.6663827672390980  0.3967258913249732  0.7556277920896332
  0.4082201508889629  0.6298061158471343  0.2827533787958977
  0.6927542430674917  0.4916609438361090  0.8048746120780655
  1.0306067625010853  0.0041889665511610  0.1949251870789722
  0.5703024149972270  0.5384902345890334  0.8666578759801361
  0.8972162694701555  0.8016652687027827  0.7983460256369720
  0.8307232215260563  0.5602812471660948  0.9905289721926354
  0.3564934180422990  0.6623999553337168  0.2559644107836789
  0.8145454706213719  0.6107851066572229  0.9717673671709971
  0.8772386238134330  0.7242314068345216  0.9133276095848574
  0.1563853669665101  0.7892417742982272  0.1553705081667552
  0.2101482792983235  0.8030063360881389  0.2291464350531132
  0.8608199787981899  0.7512658138362118  0.7916215516749853
  0.1049652339117777  0.8197208763158470  0.1290865150109616
  0.8546344204812022  0.7507454726955922  0.5680652933288453
  0.8071721029540646  0.7039724809571514  0.5639170579516781
  0.1629697170230800  0.8803842014648280  0.2503790544151104
  0.1251670195554363  0.9158077590149528  0.1397273971934158
  0.1328907230330095  0.9555117959603728  0.1831630862479727
  0.8823617262152124  0.8257262548592871  0.6749533291476665
  0.8895394859704051  0.8149396314113690  0.7367231379232664
  0.7145983109291383  0.0029232508981104  0.0856210221836834
  0.6763280877212763  0.0961296083688320  0.9784388688566935
  0.9271486833515261  0.8856600490456062  0.9103547443787054
  0.7310583634533470  0.6026044192238549  0.5202929704606581
  0.7009436326363901  0.6618104971794656  0.5365826922670733
  0.6296870144710057  0.3023820501472841  0.0301724332332065
  0.4969122943351119  0.3832840702797777  0.1648800475613008
  0.7657436899034188  0.5729259369529763  0.9051544447778995
  0.4034724469455795  0.3839128095419088  0.8946387260012868
  0.7707978876016535  0.5538161941039184  0.3753009750405657
  0.5212151078818017  0.5006579496948704  0.8006486378854331
  0.4255402176133913  0.8446448845951282  0.3443911606740415
  0.0397488458944742  0.8773152216612394  0.8715778624782142
  0.6129128305748139  0.5278511178768956  0.4989286785064412
  0.4557689542565959  0.5218374033729376  0.1614235933371350
  0.6898743721917653  0.5983049136529767  0.5582322078599159
  0.3568226454293844  0.6324846788393900  0.1530653221730063
  0.3556763121621383  0.6145358432567876  0.2132683638934933
  0.8455788772314811  0.6416360779649436  0.8077744859202542
  0.3595212517492651  0.6786627345746666  0.1962645924170029
  0.2607472131295671  0.7885306503891328  0.1939634229240590
  0.7890084362124066  0.1830469402345033  0.1656851605716419
  0.7481264688372891  0.3076661056189182  0.2254591999593062
  0.4314472545436240  0.3926706087641382  0.5610632108931556
  0.5365250009372285  0.4247205252889412  0.6525521802046924
  0.8947968067901743  0.1835552536166860  0.1997627989848914
  0.2805710133192781  0.3441237115628383  0.5753655898275154
  0.3400411170365680  0.3378401506338525  0.5972997092216004
  0.3278931099440553  0.3826161351679429  0.6412687455914503
  0.4265818483861185  0.4255800053282941  0.6697388239054481
  0.7572626499442624  0.3998640752415512  0.3089616938219731
  0.4023155652129452  0.5157109104132057  0.7566700914217368
  0.1784911667392410  0.9724722507985843  0.5869842363901748
  0.4488242820946196  0.4205290710501375  0.9589099736687750
  0.9651403244862616  0.7818151591226733  0.8867888792774388
  0.9231492130434584  0.4004372006380508  0.4640992066834919
  0.7078076168348526  0.3996512407449188  0.1764041738650623
  0.8137488856007969  0.8642001775642820  0.9844493906869582
  0.3806611189329185  0.5118792998179559  0.5345030593297161
  0.6593835374114090  0.4605852307416096  0.2526214115550527
  0.4814158259745218  0.5546349756060436  0.5570369643446599
  0.4197500720026394  0.5635699170890530  0.5345041981982253
  0.7116403865103270  0.4457518139089497  0.2177148542202404
  0.6108879594294022  0.4915589897411464  0.2253215490556637
  0.6132202253267771  0.5378169008600889  0.2676060753407130
  0.6654446367256203  0.5227980797204795  0.2332840839798730
  0.5769611695754137  0.6086371581710561  0.7804627542536928
  0.5640354870734168  0.6525455462514322  0.8213374844006708
  0.6247588770497032  0.6454433842618382  0.8438688112332945
  0.6620849175836004  0.6972066858270246  0.8444176491246260
  0.6018575176830425  0.7039975094955516  0.8249131403647395
  0.6102913885624222  0.6906479872482270  0.8848346077339951
  0.6686825953166990  0.6829601788674252  0.9047646039336472
  0.5194287389882182  0.6918967497516145  0.3034220562673326
  0.7156668101150755  0.7213024714266086  0.9691604901615448
  0.5734327193279393  0.7218251085050089  0.3155573452828370
  0.4170675271096650  0.7380294711240891  0.3131087388490671
  0.7838435583966247  0.6422287280045360  0.4633474339777253
  0.8154009933311609  0.4767739550970241  0.3571332022643755
  0.1689367779484174  0.9426394102248117  0.2356660689528349
  0.5262582021200873  0.7810538880441805  0.3993399085721282
  0.5294426040867041  0.8259306120418836  0.4452381260872261
  0.6356821967572740  0.8426320369660040  0.4209833571296507
  0.9964668067885548  0.1518792692697912  0.3605275906618214
  0.3730872176161799  0.3204687337790522  0.9595812624117371
  0.1922897991298008  0.0207952521373533  0.6236661989981838
  1.0005753657020571  0.1983425979617074  0.4044383994013508
  0.1684340112411342  0.0628323145862950  0.7006006179468923
  0.2773207027305120  0.0935617244021039  0.7885153648759410
  0.1582187748272030  0.1067044033105578  0.7442869483029871
  0.9042898179081471  0.3058219389941186  0.3922971912782788
  0.2154145661444334  0.1316468368556833  0.8722202604210649
  0.2762111913204350  0.1234211068824079  0.8934539517584440
  0.1496295779435623  0.1704255727240459  0.9549474297239509
  0.3568604432820995  0.2122481738242310  0.9592452757607494
  0.1892675956987998  0.0365351509621667  0.8266133920027942
  0.4763126736164751  0.4308229770178404  0.6312998361583120
  0.6519069833024231  0.7107307128278121  0.7833626014097655
  0.5811934668195307  0.7313349111426904  0.6983441608895731
  0.8063978087498938  0.3552111538312189  0.9245870127695937
  0.1462030116331152  0.1178330734624939  0.6807389183227962
  0.4745458671297898  0.0600006724995880  0.9159142951386149
  0.3038795972823887  0.1876410045195559  0.8352508103031449
  0.2064883538305001  0.7741222027005656  0.1204879421981739
  0.2494254604263158  0.5324605313147172  0.0360731121423981
  0.4844902632274791  0.9519323621033302  0.9607282044510875
  0.3546224160250857  0.5844430391278055  0.1080475264184578
  0.9015896846279466  0.9343490566627304  0.6551536023543703
  0.5760070386974514  0.1563221864816472  0.6549365979219935
  0.2582824682394677  0.4810617080282611 -0.0075274834184182
  0.5258924066948880  0.1176907907661999  0.5840702365123733
  0.5484692003033402  0.1581636720903153  0.5320292886162218
  0.5420774389424308  0.0250790575534896  0.5558940339224583
  0.4076893307023410  0.2809658861462720  0.0193411314041680
  0.5220414352940371  0.2384985497828120  0.0057088143998598
  0.7746575193392414  0.2899139692958585  0.9749924074304688
  0.9619877003146806  0.9194264271780250  0.6601304927007259
  0.5323235347657043  0.0066907133186082  0.6233707321866541
  0.0261275602097643  0.9074958278066935  0.6615738775964499
  0.9709215768689947  0.8941520902877977  0.5632485678601481
  0.8474358461070128  0.7745158594333930  0.5071301493428512
  0.9707754454760450  0.0243874138775800  0.6626486228822092
  0.9524026939639041  0.9564939490618201  0.5538954227822738
  0.9997282423650982  0.9833513091674060  0.5791017884201732
  0.9586509841358914  0.9362743843477693  0.6061457155507387
  0.9606016612778445  0.9707013723403420  0.4948901547409554
  1.0147553165410117  0.9993971335230869  0.5075380596745727
  0.5513910797561792  0.2144847602829134  0.6382302155094660
  0.2448191030382363  0.1946530227938908  0.8136787934007449
  0.5789058887035343  0.0593296516789794  0.9001413756094281
  0.9029723151779487  0.2762829515528737  0.2871866619353872
  0.2228882128554664  0.1173587526859362  0.9318742961548868
  0.2069851299505241  0.0072656444733725  0.9590425156780454
  0.8272010159059353  0.5689489068455938  0.4461465009053941
  0.7419496461094768  0.6614845663584741  0.4976229856493823
  0.5846674270902343  0.8418877502965498  0.5226334475231402
  0.6478030403688839  0.9311150711836335  0.5687094952154020
  0.7011767830658939  0.0161391875225887  0.5609051196191115
  0.6817417975863866  0.6873234590079835  0.4747830105359720
  0.7384489617206056  0.7220496141620638  0.4816992184297445
  0.4791467575632566  0.8263724538000871  0.5400144096679568
  0.5292074143405723  0.8991325624202658  0.6051008901277377
  0.5377770377648005  0.9329683558568551  0.4738399947112223
  0.9534815114445215  0.3283028291033107  0.4634582577715700
  0.9663800497273793  0.3846896636467904  0.4348988109554963
  0.8824370648409062  0.4145951440275655  0.5046893650366888
  0.6345697621005181  0.8858847358710110  0.6863309304830338
  0.4903521043660674  0.5723824837859505  0.7209087132477583
  0.4171369039043550  0.4391045637407546  0.6114657920425678
  0.6843842377997853  0.9239565613123787  0.7532196172591749
  0.6772737588328394  0.8058718210033563  0.8293472649618701
  0.6233508215922096  0.9651841870435282  0.8369513044938215
  0.8508922294912409  0.2920318245865117  0.3221186053630359
  0.5414701532471938  0.2601990684082474  0.6808806612634570
  0.4818861052826662  0.2310290145712477  0.5537293290523559
  0.7090831673881671  0.4465652939234879  0.4444719779757951
  0.6780212853512471  0.2484763836022137  0.9468249342933421
  0.6702062568650653  0.2627847234082075  0.8894474993554299
  0.5807022748329663  0.2047498204995525  0.0274256328564455
  0.6077968668954870  0.1180847080673730  0.8381288392830515
  0.7169450918034128  0.0158648653069148  0.0189368314053606
  0.6160579584214205  0.0662915075311710  0.0225638993375874
  0.5858489151022092  0.1439447868626867  0.7140319870912482
  0.5469593874394423  0.0949982099139056  0.7097767923982038
  0.4863457546200964  0.1027870452310561  0.6874354421742574
  0.4986232174085505  0.0569132947524766  0.6443585449046514
  0.0253225407804083  0.9643023806994510  0.1557066432036689
  0.0698922286341219  0.9036736248105928  0.0738776980409013
  0.4896235060577540  0.0639484525457014  0.5829934831589813
  0.1541060366965618  0.8066452589380625  0.0950018163180198
  0.8744367194761682  0.4294186488558287  0.9897597386260514
  0.0957137902568706  0.6661444318893771  0.0518061746704628
  0.2021556274887114  0.6170795540960702  0.0470612102838433
  0.2672113849612955  0.5863680520175157  0.0136888433169085
  0.7719785907532227  0.2753398667781747  0.8102811623184446
  0.6221627379970914  0.1928549049374856  0.7199844743886249
  0.6726895412682894  0.2317980821365119  0.7855540246050410
  0.7262043798046984  0.6577514716797253  0.7638824496633743
  0.7917196860039705  0.7712692029328581  0.7072533482404194
  0.0143912402418984  0.3361252514768889  0.3026978800705935
  0.5847313320029011  0.7927969276042068  0.4786020776588036
  0.9919492747049389  0.6814753705750657  0.1827408406229818
  0.7869281699332541  0.7010199784852043  0.4522723780826908
  0.4576997362225727  0.3553761072973688  0.7489643705950149
  0.2095224146337197  0.8383800035719737  0.1077294254352802
  0.5052591090523333  0.3928167442885245  0.8138216517895330
  0.2325765463748240  0.8817144671846016  0.0624124540927409
  0.6109912868985243  0.4217990164207168  0.8995216143096337
  0.5532397313000120  0.4308716519132102  0.8803049825389501
  0.1333337266332588  0.9742430675405531  0.1205298336687230
  0.2345992754686620  0.9254385116499063  0.1105439803885538
  0.2955851979880757  0.1392074710100595  0.5617723896862218
  0.7301178246638464  0.1238718932104588  0.0465751104707764
  0.2818006735546360  0.1799857228765220  0.6026459514267608
  0.3321890476619759  0.2175664780681481  0.6714866283315565
  0.4038008034426178  0.1990514750594610  0.7561683307341112
  0.3921602222398822  0.2434128831392727  0.7990759736668488
  0.6677373414204576  0.2866786061621384 -0.0063601812519295
  0.4987233110631669  0.2720738417595440  0.8869373437608775
  0.5599208063189620  0.4434020220490796  0.0485622067416610
  0.5212998103128127  0.3667343392338469  0.9371669716134468
  0.4547193783626530  0.4438838381985324  0.0111272624684193
  0.8266808729473981  0.5842411686736859  0.3849940671904915
  0.9879483418228159  0.6178253042946267  0.2012674675246336
  0.5605736566108638  0.4898597522784767  0.0911418555718274
  0.4572105065872692  0.5370322254777621  0.1001457824051237
  0.5114164219320901  0.5683740826109743  0.1081438779322107
  0.3596203577898755  0.2812513914161769  0.6158111837377084
  0.5132777838522483  0.5856614604497034  0.0485662008789533
  0.3055844862520424  0.7456146391205410  0.0462945382027328
  0.6685965360549896  0.5698863064677130  0.9889106252914300
  0.5736030448564972  0.4750934728585510  0.6572054243962400
  0.5286636561089820  0.2143358673717938  0.2953237992485880
  0.6219894756875666  0.5128346208864518  0.7205491325028648
  0.5406457260097773  0.5780259887290098  0.6816976697648850
  0.6322735673369227  0.4990151841585936  0.7826680558912913
  0.3086797659603678  0.6333578144790510  0.0233818708620813
  0.2549758649587869  0.7101020980473866  0.0402880263203465
  0.6808853447608780  0.5374998154057105  0.8459475179902112
  0.7060093556685846  0.5802365408883633  0.8843232565187013
  0.6462775225830956  0.5872496055695799  0.8637353806057382
  0.2107849249072685  0.7446228487132014  0.0182628699168593
  0.7160836273190968  0.5680293390061857  0.9466416499138053
  0.6943420608533518  0.6231688551620708  0.9306958978805240
  0.7323949281738927  0.6702966403351059  0.9854319642922736
  0.1794716342646480  0.8544839940392991  0.0566485071543784
  0.1247010827235058  0.8767228199963546  0.0308737951809816
  0.3905860571537745  0.3455032358899587  0.5561889268985071
  0.4121545589609737  0.7376546999770524  0.7000065642063500
  0.0783301075520366  0.6083277248306939  0.6261337130431242
  0.3641296000970576  0.1805194548793584  0.8575370950946561
  0.8047618329557695  0.9097613663100687  0.7989288103732867
  0.5336573729864155  0.4574432827895412  0.7573257254983738
  0.7010602595475049  0.4777759395670675  0.8670961679918128
  0.4102754229278749  0.5821891779906144  0.0144777047377926
  0.6905193061675722  0.5242689181332622  0.9080562623482445
  0.6301150976749054  0.5311207224087318  0.8870373290915440
  0.3073668274817700  0.5676494953636269  0.0451651972724251
  0.7177431474954707  0.4487982614078131  0.9884830324746886
  0.4642145091633048  0.6783754419826384  1.0076214292808534
  0.3084599297425188  0.2416635047263706  0.5445119508046016
  0.5923991166615276  0.7176344542335151  0.7619241882428789
  0.4113915787354843  0.6788972704927349  0.1030159017261319
  0.3153052803163767  0.1435430486105752  0.7910777092642600
  0.6684863315469450  0.8341263725322157  0.5470402211361286
  0.7541524806734171  0.3406111591422964  0.1012835383191752
  0.7205012334629979  0.9024968448912858  0.6048562169522348
  0.6547964767903121  0.7944845154906296  0.5986387482050571
  0.6836056679065726  0.8867806364421249  0.6482707553814929
  0.6037483360900490  0.3980535042662350  0.1390437836199320
  0.6969555254362633  0.8795839374262642  0.7102389194177084
  0.7349145310067378  0.9292594667647088  0.7128638511046034
  0.6034699365570423  0.4358526471071583  0.8401990625865237
  0.4569896507360046  0.4890819007172841  0.0591814850041132
  0.7910899918983910  0.9547334145118208  0.8427311573924349
  0.3493358371390798  0.5678096708610400  0.3952143743183286
  0.4896213582738738  0.6595041991098964  0.5753385480493755
  0.5671663493576584  0.6304448285476920  0.2233629082309782
  0.4105366257016315  0.6453024152261555  0.2230874782691216
  0.4722094263286157  0.7855172411587650  0.2618798543846929
  0.3699184378642780  0.8315952456191681  0.2731549289907329
  0.7183476588871386  0.8231318681945633  0.7275420380969799
  0.6073593290944069  0.8250676459181564  0.7442943014464534
  0.3249961294725787  0.9266300569337143  0.2333681470372715
  0.7533862339789128  0.9058495099254936  0.8405590207839817
  0.7337857169083823  0.8247691457732717  0.9507853164743153
  0.3306574063174663  0.9720764832339295  0.2795113920313098
  0.7971415595124349  0.9444540572290325  0.9073065140371119