Cr H  Ni
 1.0000000000000000
    38.6687825624360855    0.0000000000000000    0.0000000000000000
     0.0000000000000000   38.6687825624360855    0.0000000000000000
     0.0000000000000000    0.0000000000000000   38.6687825624360855
 Cr  H   Ni 
 1596  50 3725
Direct
 -0.0095320081404413  0.8487996560700894  0.9691231893299359
  0.5977174237075821  0.3170628843243376  0.9140986522362586
  0.6414108810870282  0.3550246874516926  0.9846644850134686
  0.2724885026770452  0.9055633964905775  0.3975259232738352
  0.2738335297881817  0.9531093398688736  0.4384092453351354
  0.8817210391089221  0.0604957708135985  0.2338555480417447
  0.3868933734344706  0.0923000802876776  0.7689680230618871
  0.4092089753215219  0.0362477822184448  0.7889869085234736
  0.4868979768416176  0.1348800564043552  0.7964521946825384
  0.4763156779157087  0.1795693212210066  0.8415690689594640
  0.3019077601080202  0.7409678868877841  0.7147621031774690
  0.4906087070081024  0.1612490303204273  0.9137122346443850
  0.8366008958763028  0.1379952145557264  0.2534839197595064
  0.5748389535515140  0.2216649441248553  0.8670086847457728
  0.5290324480321804  0.1964104179826608  0.9642479530156434
  0.7392238740962241  0.2308956043726695  0.3036781226154361
  0.7902804997569347  0.2155285259072714  0.2695540399800386
  0.4198919344272685  0.0237086248618263  0.8514190878025444
  0.3991472770238340  0.0795563583563393  0.8315122909662903
  0.3942019032817979  0.1901972269941831  0.5275498245213140
  0.7361886341930994  0.1995284100602235  0.1977416795487263
  0.2293617543394937  0.6293112690372564  0.5126039949107305
  0.6007767439212198  0.4130778286076373  0.3060254983712467
  0.4314657651189987  0.2308639407374953  0.5845047453759874
  0.4700477196373079  0.7651493327702559  0.8246557903352106
  0.5250803271094561  0.9216624355519801  0.8125151616274011
  0.2585878960298760  0.7555084985215808  0.9206188435389551
  0.5077025304398435  0.8138862654203656  0.8274915205149270
  0.2970537397436095  0.8063252167001113  0.9264013494008067
  0.4374972334910224  0.8338202067685130  0.7456304391571317
  0.4983425074291021  0.8276368587097124  0.7658571359730142
  0.7904698628396709  0.7979035263138088  0.3137371081235186
  0.3071981853804091  0.7910186110696671  0.9844135182221124
  0.3369865769218988  0.7725215565649828  0.5549727271168375
  0.2248848663852873  0.8559647610520427  0.9497707555896436
  0.1382770610693526  0.7109585735418337  0.4763119438701110
  0.4051722826404243  0.7536246759820455  0.6384341264799003
  0.3668879987413989  0.7025959571979699  0.6341881639255594
  0.0895866130642271  0.5964147058229746  0.6867157426873953
  0.9880311642548980  0.5901189884062665  0.7705182328531168
  0.0116599065241338  0.5310524157873213  0.7891580851137758
  0.2275369666979660  0.8249616794504040  0.8397940975855569
  0.2008338200604325  0.7309281018449546  0.7896860787767722
  0.8369592501667518  0.6903473121718422  0.4138673374470392
  0.6013242248801013  0.8930900750751042  0.9666783854384018
  0.3781567831374565  0.9488009812357499  0.9823555062181134
  0.6937328874561157  0.3078323529398423  0.3197594633416150
  0.4533193517636313  0.1712484240076714  0.6110536710824869
  0.0075558631515121  0.9413697318873222  0.2876081474198238
  0.4819100708073764  0.2666356731045018  0.6587967366953761
  0.5898090505109088  0.3297244352757190  0.8546611665680232
  0.5799919697214931  0.3422668662734570  0.7928898768440116
  0.7215246573948380  0.3068510390172863  0.9522438898860438
  0.6754908160589967  0.4173732703555821  0.9236801563357376
  0.3607435723017609  0.0873430546948339  0.5361530541174908
  0.4173694685905029  0.1222635325316452  0.6039739137787520
  0.4266473506850619  0.1104946784881556  0.6659776681575760
  0.4635677931055049  0.1595536412090886  0.6714654339548087
  0.5144211775718760  0.6287491225001247  0.3196388874457095
  0.4636666117163706  0.6599631030179474  0.2929387378985434
  0.5744527942513297  0.1908291351005508  0.7603158657747998
  0.4509883355445732  0.2859857428972058  0.5354508012849840
  0.8592460371211433  0.8957440570272396  0.5899132525591907
  0.7981869974884833  0.8896535521745194  0.6296210861374428
  0.6072887084156512  0.6434794338470486  0.6179185912391545
  0.7283449836555160  0.6271570089489352  0.6594427300306670
  0.6152886667102265  0.5969436999901522  0.4809616847434293
  0.6555800333439157  0.6799591161418647  0.6832115494946015
  0.6659250393448884  0.6673821318745338  0.7430082516096079
  0.2036133041408236  0.7094004043157470  0.1380660290854987
  0.5570576650450675  0.0472693684046557  0.9502367976725303
  0.6927106053052744  0.2910615811163910  0.1531967863188825
  0.5747781183823457  0.6889076268606846  0.4376364582893717
  0.5268008948126908  0.6917155211037417  0.4737396348258303
  0.7729395585916033  0.6952115371811206  0.8268304247371020
  0.8194237060655947  0.7327649735383349  0.8909554325976518
  0.9440446701339044  0.8130141118082461  1.0159922205763103
  0.4782425380304940  0.7735662745146205  0.4961733699328165
  0.4326391477529853  0.9147887373985617  0.4994094213835982
  0.9689216955278075  0.0472265017959944  0.4179122676761288
  0.9952034370273830  0.1369957448077976  0.4219014405172893
  0.6120787468461848  0.5274500901894121  0.6612027398857672
  0.8395186671523908  0.1533986752466086  0.4208395282961432
  0.6011047862888329  0.5717390167180801  0.7028753622023153
  0.8947082708715255  0.1988087679791801  0.3651913449113085
  0.6271007215781382  0.6163673676037380  0.7406136787556971
  0.6372470777563400  0.6028951632578922  0.8008617683984133
  0.7355818523671153  0.6457671632246458  0.8249896214452168
  0.7988919753420589  0.3442039857672897  0.4633727838873455
  0.9057989732952239  0.3523907689843507  0.4305338995704535
  0.7508017333793318  0.3709734214400123  0.4334561126765193
  0.7301528999870521  0.6767910811220226  0.9271339229278792
  0.8184671688786813  0.4410360090052173  0.4830357657139890
  0.5704021890125552  0.6168451961704161  0.5190302432021153
  0.7875722428873244  0.8045116302006652  0.8136107823064866
  0.5684416307079111  0.6426729224703506  0.3917260520640208
  0.7011129791674219  0.7176653377631689  0.7438824336018603
  0.3420456099811670  0.6584055895825535  0.8571301552806367
  0.8839427406237433  0.6140076523475629  0.3944097400175013
  0.8901700614759149  0.7236102524254074  0.1957725799753147
  0.0321222682507779  0.0140160026332224  0.6826021659286743
  0.8792092305736784  0.5390041197556119  0.0187540015094823
  0.0702273619020069  0.0515016419864713  0.7820166919444623
  0.8534706308414997  0.9676866319050629  0.4613810384625934
  0.9056040312202704  0.9540968683698789  0.4229000811746163
  0.8976602928447650  0.8306115544235325  0.4507393780608240
  0.1736659517484690 -0.0001248072447808  0.4489705184401966
  0.1238182661563012  0.2411907094662174  0.8726437567003159
  0.7622277098572903  0.4288815649615316  0.1829500825095420
  0.8678189645401204  0.4299763917056253  0.2198573933792816
  0.1119542973896509  0.9543915812714787  0.5022713959552350
  0.9110597937118151  0.3525297589743547  0.2059668549165084
  0.0963798802389996  0.1458465364600757  0.8272992998299001
  0.0846542281007556  1.0193637391943307  0.6410906556174591
  0.8020633070820037  0.3381481695703813  0.2307326516487897
  0.8565765196381655  0.3373857589576540  0.1345399324941471
  0.1291906051380186  0.0451306543088899  0.8033272492099126
  0.7176037976901302  0.7847250915192082  0.0112812724705006
  0.1201385132673379  0.9803024176131614  0.5596825648541168
  0.9538860951145377  0.2760735805244283  0.1907245936552655
  0.6106037363754887  1.0038127111544908  0.0409384710964547
  0.9489139669107953  0.2127453098149591  0.2081927269903462
  0.7632505282868993  0.7083158300653234  0.7660456512283640
  0.6888581020439336  0.4422951811741291  0.5297619652554365
  0.0752401600050599  0.1703708721515719  0.7026828606810226
  0.7217848812699769  0.6000388710056342  0.2885883472473116
  0.1188921663444000  0.0887747874287896  0.8464655260880083
  0.0792086055195164  0.0390104998236020  0.8443072819324570
  0.9803955065517376  0.1411940518738992  0.5111919695950976
  1.0039757661267168  0.8332206801761599  0.5574626917936293
  0.0990056600596543  0.8678244379619661  0.5771312060694728
  0.9537199561638422  0.7838230676981008  0.5978061238166371
  0.3201729467165437  0.3158144298921820  0.9896788415541075
  0.3304178190670382  0.2847088207612725  0.8817313969192982
  0.1603936876192159  0.8139378217009898  0.6479009649702269
  0.2706950843540409  0.2915237572681316  0.8600449379724628
  0.2333119891442268  0.2411653815749549  0.8554580392406717
  0.8354160049614046  0.7402698730772002  0.0070663472643267
  0.4301027511733473  0.9227835375170623  0.2684119425798666
  0.1737484277889750  0.2479342781638731  0.8341202123667142
  0.2233497236904887  0.2525106700658408  0.7955611601400294
  0.4317135097803266  0.9398018241240333  0.2062515813882831
  0.1252880581274551  0.2089125431914000  0.7683841982807632
  0.0798582100099161  0.1089263958651417  0.4382461005118478
  0.4108650152936486  0.3193521646064481  0.6815755914803677
  0.4034234075724104  0.5037046726448549  0.0946529406233857
  0.5158441102226299  0.9665181228500914  0.8568786006534463
  0.5386666404409493  0.0107886954305551  0.8993035657870559
  0.6952060560911149  0.4297105987491264  0.5935879777294973
  0.7944782296846720  0.4710667325664742  0.6226236586549813
  0.4040593968010537  0.5651705048954826  0.3007390745357605
  0.9075431877751360  0.3668940608157369  0.8426953688811790
  0.3528427354068071  0.5978941386763172  0.2736756282400853
  0.8581066324845029  0.3626537669882771  0.8819723910058028
  0.9175039537812547  0.3535597451683162  0.9053228978491530
  0.6628028716138158  0.0411395217444330  0.9927604670170885
  0.7465060316129357  0.2136268149383368  0.8677094679856328
  0.5885943337195142  0.3070035834148740  0.2839397625901038
  0.7100019326460296 -0.0247479287422379  0.9757880024174902
  1.0045108326148628  0.4428797387582757  0.9715487152265926
  0.5466611652760774  0.0893099506176415  0.5412115491455284
  0.8370878798273755  0.7912784197041244  0.6069435359291031
  0.4942196166194848  0.9897894905186627  0.7308157707255185
  0.9938222222998798  0.1336645057812045  0.1915670778108293
  0.7310544846139447  0.7059126411852455  0.3175417813031487
  0.4056782617894469  0.6185667008131108  0.7749119157307254
  0.7925997047323066  0.8010977082340581  0.4900996841637065
  0.9773639569683279  0.6782078651606153  0.5699341868902194
  0.0860758803789194  0.7114252697466419  0.6349261088268308
  0.9296146488942946  0.5376377436783225  0.1484695344265422
  0.3798476623632446  0.7099999872999571  0.8608360152957060
  0.9340999702604530  0.6013554682353746  0.1322984331715345
  0.1919572406453662  0.7428591697833398  0.7277192340121919
  0.8087130593090620  0.3249530175555589  0.8154245711784505
  0.7930996455353241  0.5043926563901739  0.7252591009187734
  0.4828196537958104  0.3751404529870458  0.4663695604676660
  0.7335325064028433  0.1598832756423789  0.5989087763278922
  0.7426256395621329  0.2635248822457546  0.4092326898152243
  0.6458552792158542  0.1128135020290110  0.5629008703847386
  0.6372552718810918  0.2487045835540267  0.4365778691486970
  0.2123263216965911  0.8320324970983655  0.3365986033967006
  0.7343258361286873  0.1928769027497234  0.7019835712139845
  0.4866992507320195  0.3213472143810258  0.1868804709231591
  0.9611964800352923  0.5277988595037342  0.8294685317308808
  0.9336349115918005  0.4625532341600739  0.8874271422901482
  0.9934125116831679  0.4557378942475800  0.9080430062440993
  0.5499158215183471  0.4284681364439383  0.3395424530559475
  0.4996954850131061  0.4594477718820870  0.3113037329048670
  0.6849314909459285  0.1556983225243597  0.6354935931200831
  0.5932874025501071  0.2369986592491677  0.5385142510910199
  0.6624543084809612  0.2120647272767705  0.6214718500871702
  0.7238749459783504  0.2051907477389491  0.6424109639851329
  0.7124146340833069  0.2499052629900479  0.6853838411467033
  0.3983871619891490  0.5060165763998470  0.3178208113870649
  0.8105784549680141  0.2942851619066111  0.7084738906611322
  0.8605671459525869  0.3303852582004213  0.7734584627093425
  0.3522034600263236  0.5832800705900255  0.3326220487013164
  0.9677563002287957  0.6148861816271202  0.6484774603638116
  0.3922301952671668  0.4114602613114248  0.2348045313026501
  0.8997197592968030  0.5945993486986306  0.5215552788061095
  0.7595259306881572  0.0575829491256920  0.5094048356920619
  0.8063694362226694  0.1534521996852396  0.5306643435332621
  0.7550783969233820  0.4539821305231770  0.7215988500235161
  0.7889767734004285  0.1853810928688492  0.3933708765189769
  0.7292309957377586  0.3585119519168001  0.6723832893972299
  0.6467743770350897  0.4230844349773862  0.6324526998224356
  0.6467737761022784  0.3973648053654134  0.5199604877360289
  0.6790998530023028  0.3208056380685530  0.6036697599194981
  0.9834657568068196  0.6049009655326046  0.9721890481215298
  0.9176940793357093  0.0628243257543489  0.4512800666763895
  0.8562562303153420  0.6286645096418948  0.8675039171955844
  0.3135660291179862  0.8496704935487340  0.4739438931064501
  0.9017963283504610  0.5326876932343437  0.8098604167793066
  0.3157314582640193  0.7472474576800562  0.4445664366632940
  0.3606273660850465  0.6914871614765099  0.3619457544128768
  0.8842887098252563  0.4251306470021549  0.8245373945839617
  0.7081002798919768  0.1315875510436286  0.7593227808350725
  0.2639833146863632  0.7987818161814028  0.3608441261524404
  0.6353362978136461  0.1495212308680460  0.6737916040234594
  0.6924969769103757  0.2769897840242267  0.5623377668261468
  0.2088690871561993  0.7694739446445423  0.3492396400350646
  0.7126178971950274  0.0894139329447808  0.4766186513439751
  0.8792126457090658  0.0865223273272321  0.6589650495778999
  0.6944465951498954  0.3430937494694045  0.4291123270619766
  0.9552726442208908  0.5589163097810863  0.9352248678876927
  0.2672636984071461  0.8877343306500880  0.4577308816001704
  0.9542142123959364  0.6258540434853127  0.5913144901938970
  0.3279642974785469  0.9583647547726808  0.5078053732387869
  0.2147135806022460  0.8560174601915509  0.4528692005851711
  0.7956428439522664  0.6028347466183945  0.5398647100546766
  0.8422597784558787  0.5089924902431524  0.6865611391374576
  0.9277731339629554  0.5983729856806462  0.7501400256315417
  0.9571859227578324  0.7933600428686807  0.5375359261121705
  0.7990466381894347  0.6058350476066257  0.7421099682747140
  0.9506100993939445  0.2003680227247264  0.4990281140365565
  0.7390964298152249  0.3456227425156422  0.7323234671356990
  0.7010547700814698  0.2960897602955379  0.7301847761215644
  0.6408699745996886  0.3033896180088649  0.7085069039789984
  0.8161847324509161  0.0879588183645655  0.5207081723988398
  0.5906762950589389  0.2660800426955004  0.6419902015828914
  0.8662440127974356  0.0770031750120216  0.4888735169999199
  0.6413686248473829  0.2716699055411170  0.6023926828516829
  0.5431159543746513  0.2265085368452082  0.5765759191459424
  0.5536129850373974  0.5064857496355313  0.4818426430883195
  0.8874380375362292  0.5585273992377228  0.9539399166551278
  0.6649726734320606  0.5205214671674121  0.4612259037943539
  0.8605646784657992  0.5156626595045098  0.9126115742304846
  0.6929989285093492  0.3282237044979794  0.4875753989874447
  0.9890086761532477  0.7270442912154138  0.9069827552988882
  0.2549720016253272  0.6913771995684316  0.3294573712630020
  0.5084227903972109  0.5347180758184957  0.4582590996960317
  0.6868530063676190  0.9581620466168993  0.8589867298366721
  0.4036843271764304  0.5983899365073999  0.4071385105315302
  0.4536231296338678  0.5358011359130764  0.3288810705307074
  0.6781499704965653  0.1023020844256648  0.9226076795146526
  0.7389871025141647  0.0636786483239959  0.8384963666552405
  0.6682178143892179  0.0828620113344653  0.7542909508755699
  0.4459788479415355  0.4593429516167961  0.4043191496221953
  0.6184307754398938  0.0435158639745112  0.6867804135868618
  0.8000044651377179  0.2505789522558602  0.9307639840567598
  0.4560616379335032  0.5824980428457504  0.3724848376612273
  0.5633988870313305  0.5683864173247660  0.4717833910724157
  0.7677737988237802  0.1573497525413108  0.8843450718283568
  0.6962041852024907  0.1754758171103241  0.8033180807057512
  0.7179306056895568  0.1197857143900277  0.8205314770167557
  0.6469459062256799  0.1389563577897751  0.7376260706802167
  0.7069856208337852  0.0983735248515611  0.6527318652912200
  0.6779691648616809  0.1543606647162090  0.2523621775788512
  0.5433746058792900  0.9942567256522561  0.6892885224376151
  0.4219373149399269  0.0091524864759096  0.6476718712417914
  0.4347941394760616  0.9642478416462679  0.5451492267277598
  0.4578213884914770  0.6277057119760839  0.4158265934945168
  0.9516247807447489  0.6745976616342838  0.8940168291765552
  0.4107437069566986  0.6584543462246714  0.3901910665693948
  0.9443136796536327  0.2318965990865780  0.7058811988119068
  0.9159900010617763  0.6108920569488332  0.6905713771893617
  0.8209838668785294  0.5687026335630815  0.6663326522499889
  0.6041421714213663  0.4442695844252533  0.4078707784448261
  0.5361377252234711  0.4016158129904696  0.4669223909499748
  0.6365499236340041  0.2636797854781389  0.3748789343982883
  0.9247220626712995  0.7125033407982462  0.7117256482663974
  0.6829354698213748  0.1866407056530299  0.3568675642322612
  0.8638077501805072  0.6900270740362028  0.5829299500589117
  0.9037455827231851  0.6226173158807190  0.6328645557609704
  0.8277406730967317  0.0622733616794737  0.3331461988927089
  0.7745117530092888  0.0801536611429307  0.3709134422358734
  0.0450498130873884  0.6931171065185713  0.0249735536278922
  0.0159340453624650  0.2117211086588932  0.7877039896884266
  0.9655005466463688  0.1730355079280009  0.7224460410449541
  0.8893046211916644  0.1080743357439453  0.8219888739214477
  0.8659994100532593  0.1309621755614463  0.6997256522271983
  0.8298231634420421  0.0826327774542373  0.6983247600672271
  0.1949142911130465  0.5166720515570490  0.0169996137340960
  0.8260335175464368  0.0500976408257406  0.5941511193732205
  0.1913323654953236  0.4397990558864195  0.0348281407571500
  0.2346488809252041  0.3430483837532021  0.0772628099260357
  0.6901028552691729  0.2179581997243493  0.4620839838009804
  0.8257698941572539  0.5351642151720283  0.5674207026668039
  0.7689711923721726  0.0349805123715317  0.3296288198277811
  0.9368599340114306  0.1417239646184348  0.8878057128850069
  0.9277988368637374  0.1562517329555298  0.8253757972591778
  0.9103923733928888  0.0456829282407371  0.8412571275167363
  0.3645636292260435  0.1936142019722077  0.0218136392497046
  0.5052635439140122  0.0624597753990176  0.9814735383516270
  0.4096067290900153  0.1060984897621914 -0.0015111298910785
 -0.0008347967465645  0.8161841849493680  0.0906863705009146
  0.7837410012366356  0.1989195667278649  0.6611195244842878
  0.5202440971831709  0.1369602502801985  0.1424952602032346
  0.9356356419033622  0.4303669476889399  0.7827756835968989
  0.5650610497864239  0.0771106499581727  0.0594146021678953
  0.5052191258923664  0.0711805618833936  0.2386882469015815
  0.7045473249934794  0.1398976684052614  0.5310540283802204
  1.0058699953763977  0.4098122941475404  0.8639019739988670
  0.9958357050294008  0.4224240646571774  0.8030650827851677
  0.9481889789100816  0.3836348073457431  0.7385146151700822
  0.9709338122622124  0.3276588878369882  0.7545922796964706
  0.9108626267888743  0.3348223113637298  0.7338958988395076
  0.6058145055980234  0.9889660285942342  0.1075628148636008
  0.9722611865384134  0.2923700086611309  0.6488666148930330
  0.8000067666255689  0.3063784462881309  0.6488420445454129
  0.8503064263597175  0.3108322447731138  0.6072905924282072
  0.3014734853048855  0.0938087611411407  0.0238869572800922
  0.0024029664630923  0.8447638674715249  0.1987112309546224
  0.8192006101336635  0.2122874750499529  0.5595091547823918
  0.9787722489121295  0.4741047441656718  0.0697747017988131
  0.7449882835898920  0.2386612942437172  0.5322868084793623
  0.9858390521008733  0.4339360954730189  0.7422502431421923
  0.0455876671409450  0.7256980233061038  0.1348853204034849
  0.9882787404733747  0.4014324684970966  0.6341720703745501
  0.1492987396293880  0.6783375477397088  0.1268465537942710
  0.9412972292844519  0.3646049563675914  0.5748185242955481
  0.8467396304505047  0.3193708024772817  0.5481544615382121
  0.8466312351391025  0.2629404819545217  0.4441921425705161
  0.5807524209621168  0.2125634166176239  0.1988855109206200
  0.5068549176190619  0.8465862271225950  0.9318002589767010
  0.5960074838581644  0.9778245012507967  0.4177109506776563
  0.4366988594766997  0.9326133249377702  0.0046253662665532
  0.5402375015654419  0.9285618112908367  0.0735789522559662
  0.8379520268519237  0.7077223190317198  0.3530754804018713
  0.7378035248097264  0.7824737400369984  0.4676120891854281
  0.7913087465896109  0.8273226913675547  0.1896649698050089
  0.4273412791486521  0.0560970161163506  0.9579307043616702
  0.7992666730878071  0.9358321926564217  0.4482870191216747
  0.3406228569930961  0.9401173201637022  0.0859023062692523
  0.3552575654844140  0.9625892346059916  0.9204056087901796
  0.3439905633258096  0.9752572108414717  0.8571400687238262
  0.2323979475973133  0.9755416976276748  0.8718067853515228
  0.9443066781893357  0.1203346363384759  0.9530040686383175
  0.1860793733764800  0.4523152845565503  0.5801999942096373
  0.1925561662542662  0.4893566763353829  0.0783076993984766
  0.4764137213329096  0.2295431343871388  0.0994976236484529
  0.9766686484004338  0.4150326251042249  0.5683782060776346
  0.8449289829939459  0.2231654576019467  0.7859870264525833
  0.5262929683314933  0.2140432038406455  0.0662187293407240
  0.8943448922959286  0.1939953220681911  0.6414257917107032
  0.5205708048770060  0.1509730238451893  0.0823390541922266
  0.8400778389486655  0.0704049429043555  0.7602688695602393
  0.4390526288856065  0.3514502261805298  0.1581747521753989
  0.8884294532115968  0.6485781378180615  0.5056608702807341
  0.5315208045122138  0.2446176898379238  0.1714895636966000
  0.7729633192523242  0.0505371886227073  0.9634065787697124
  0.7507134201042275  0.0509945170441322  0.9029851515620194
  0.7950660014228457  0.0926049009223967  0.9125144733039189
  0.9438072761692468  0.2648945935043865  0.8109028499699764
  0.3771129709121415  0.2728560932090766  0.1103379537945004
  0.8880746711449221  0.3930868715668882  0.7196960380420099
  0.9494232634657936  0.4737645771836394  0.5642027344727046
  0.2429638188522102  0.4706968244428186  0.0473019947591691
  0.8704995413391609 -0.0388409293607231  0.9787584246794160
  0.8749013532838011  0.0207804591468648  0.9568877428530321
  0.9825393813959653  0.1811412667480841  0.9514488276876693
  0.1426215753275216  0.5686264277579739  0.0983778146319531
  0.6740168238643354  0.6298314433562804  0.0289969612562314
  0.5190659924170731  0.6945712311016854  0.0766053669285885
 -0.0097043655911615  0.5960201617879438  0.4920523847785642
  0.5198678027497127  0.7566899057109482  0.0622824741560434
  0.4696202732713309  0.8362189487608567  0.0818871226516275
  0.2318612812659110  0.5258877748209937  0.7506200368195989
  0.2737424543291220  0.9930419753638767  0.7703152588904022
  0.3296986700655450  0.5692454941659565  0.7770897897614155
  0.4212811828171569  0.8734160011460433  0.0549584771708594
  0.3020058735031854  0.5062772535937589  0.8351523765744737
  0.4467111308316570  0.9562382355368108  0.0566034190170159
  0.1769194985403568  0.6217961650450566  0.5399966308562826
  0.1552666688575674  0.6609008588826001  0.6178711204668853
  0.7883436668693490  0.7622183444066704  0.4409374602471606
  0.4678623374350931  0.8595833734601953  1.0244325752850398
  0.3259790114286015  0.8693751295493831  0.8689950161507491
  0.1480306268032076  0.5207527148782306  0.5050270982985938
  0.6946209875929061  0.9177934458034265  0.4752132276619407
  0.2020290927563756  0.5610601725863408  0.5681792986107403
  0.3102002589708271  0.5945977459014071  0.6540471913882264
  0.9849168443639871  0.5357919856742988  0.5074393986876369
  0.2670756395952373  0.6585349476314758  0.6054020724817314
  0.7821825281330252  0.7221199495416278  0.1606759067383280
  0.0752685084651753  0.6241994571026231  0.8256674145595175
  0.3331573613411670  0.6708282940226008  0.7957562817488845
  0.0985708932626945  0.5849797693742518  0.7475321137175338
  0.8271511605353027  0.0301921292042875  0.2284331904889208
  0.8965784423724859  0.8151970877407181  0.2871767790204774
  0.0206012623845143  0.4183405463640559  0.4438272865071554
  0.4286029664896849  0.1738823118567166  0.8822009915844720
  0.4164264705334020  0.8046365792125110  0.0688624055034650
  0.1020496152285671  0.8693430905228874  0.9022852932363374
  0.4176465252800863  0.7885948675370437  0.1302986921079047
  0.9509037896174423  0.8528920549536020  0.0674192052482110
  0.8444430173039809  0.2296518265069753  0.1113453572957297
  0.3717970621517212  0.4854443869878002  0.9209557289433901
  0.9900220630549201  0.6485096261253790  0.0772360909811998
  0.9370430832385033  0.6630815142145916  0.1147945595409120
  0.0297065426012974  0.8866519021244185  0.9859795552184082
  0.1198086366862691  0.7954453446025390  0.7455771122209868
  0.2955414300457258  0.9997227092782556  0.1648535586617912
  0.8434878619219974  0.8166443058473455  0.1558957747542186
  0.8678385523151758  0.9409881001110503  0.0406114698072925
  0.9448827541176639  0.7915503806894880  0.0823873416133496
  0.3136385329950188  0.4617529989106611  0.7918641390474070
  0.3997007417779959  0.5503873394790950  0.8598725892603672
  0.2045355430794072  0.9111220269621968  0.9349657958900166
  0.4603507801657109  0.5435409739623587  0.8833683174056680
  0.9358811565957488  0.0765242455718902  0.0728609555046786
  0.2687352343899908  0.0734545885406363  0.6212098118974269
  0.0533571622363245  0.3605805346283490  0.5525995855967492
  0.1932126342757864  0.9244413587866007  0.8689246404265266
  0.8872695548906457  0.6936727887654012  0.0913825324679132
  0.0371534544258164  0.1204218533876679  0.7003792321226296
  0.8449077717303871  0.8444002345779983  0.2626589349797196
  0.2052987272284219  0.6709234501394393  0.0351270878692033
  0.0921427517756748  0.7549825009539876  0.9680517139643972
  0.1659110197936673  0.3546977805670663  0.5325699891466730
  0.5162581956848323  0.6165699004750426  0.7576989556575194
  0.5208125203528285  0.7406847944568410  0.1211753921289771
  0.8754092851113628 -0.0000415707341429  0.0217842298853010
  0.8873979034910318  0.0804324052050215  0.9412557526209091
  0.9382372303198534  0.0926122932613213  0.0093212776763811
  0.2192285964886677  0.3842644424020039  0.6583342131834953
  0.4201878797849873  0.5929410354205514  0.6380781429959613
  0.1795203103337493  0.9479980994589540  0.9728455040827432
  0.9244492984963368  0.9520950263587975  0.1080514118671018
  0.3578593470405613  0.3467483142006242  0.8277363462219733
  0.2966249673193970  0.9046136962959195  0.6828737680339387
  0.3209278313263852  0.8980840086422786  0.1289461928909557
  0.8389630018245403  0.7731402570695749  0.1109673340753102
  0.2665892591209711  0.9101256110602121  0.9531288740424244
  0.0010398308470607  0.2137201094239629  0.1127987806857393
  0.3726177525395102  0.5559034379559219  0.5741190899914844
  0.8910204082525546  0.1523955305353965  0.0930868555005993
  0.5576736495870114  0.3181489131921796  0.0144187088338767
  0.2290582554207521  1.0239196242850854  0.5190837727340004
  0.0285882221910969  0.0329407490825757  0.8876926072634282
  0.4245342308803979  0.5951218238748768  0.8985185893469978
  0.8197139284870513  0.5008060838216080  0.0114548159362216
  0.8169252610775555  0.4269044914700472  0.0870618137298578
  0.1510826584501960  0.3041134844373580  0.8176204382921570
  0.8352017843075967  0.6801732541317480  0.0184396777837479
  0.9567180564000548  0.3086045503667602  0.0660169521874333
  0.2946571585645514  0.0398810765548605  0.5336189509331235
  0.9669877520418184  0.1401709836416759  0.6188089246915266
  0.9061600421486480  0.3234038254321963  0.1003026139091892
  0.8998842322289907  0.2773138224406904  0.0643593753542898
  0.6284553572217321  0.8184635159113628  0.0782974991903296
  0.6771004858606955  0.7967589521500185  0.0493626406600678
  0.9952119201257431  0.1668843469439655  0.0689110582076497
  0.0882565136495383  0.3453389409492402  0.8994047008746096
  0.6558740996199472  0.8759175489791841  0.9769483472430202
  0.4337840863565098  0.9592010571940400  0.1452146181385318
  0.1983007587651408  0.4967886843109194  0.9110780085764167
  0.1404131207043920  0.5031665483657558  0.8906372769907583
  0.1034945193533614  0.4526356564202317  0.8894365917153237
  0.8242935029656437  0.5371778398790147  0.1138375529454861
  0.1271585322122195  0.0730723986802020  0.9096094183532988
  0.8227348353163780  0.4908477399200797  0.0700604891525140
  0.4343119184533192  0.5849904431828794  0.9633815337778390
  0.1984518552509117  0.3440086443815684  0.8861536269833920
  0.1763630313031050  0.3996148555329203  0.8675426447748394
  0.8139973921066811  0.9391825988720836  0.1398205460812867
  0.9819492560130766  0.0014532775699404  0.0517722592823331
  0.0119339364654594  0.3057771171819210  0.5474567660399594
  0.5425981211138056  0.7119577179971965  0.8033955736968540
  0.8427545368412298  0.8345567196209561  0.0970573632831164
  0.4943729361445457  0.6746538328975871  0.7388651687958517
  0.8943150951433217  0.8214756152276234  0.0611887802609976
  0.0183434584350896  0.7820068160826843  0.8197240236305930
  0.0598699267675470  0.8020636321921899  0.7202971060925437
  0.4215793772687049  0.7256378632270760  0.7594151693703771
  0.1164608885589358  0.3024784590690237  0.5251063428746606
  0.2407545931576234  0.3267581308547283  0.6769120363752815