Cr H  Ni
 1.0000000000000000
    38.6687825624360855    0.0000000000000000    0.0000000000000000
     0.0000000000000000   38.6687825624360855    0.0000000000000000
     0.0000000000000000    0.0000000000000000   38.6687825624360855
 Cr  H   Ni 
 1596  50 3725
Direct
 -0.0056517437261907  0.8559896323541547  0.9691902718870206
  0.0524411815658008  0.8015707834479694  0.2893767220061070
  0.3493020490825798  0.5536517249869863  0.4560895123565659
  0.0709911980772612  0.0328939821123767  0.5162420817372535
  0.3246651238840894  0.3378939456951674  0.4168827131965857
  0.3740011521421671  0.2719218988577875  0.3405087600575094
  0.4412277268399655  0.4108675100595757  0.3668682866726998
  0.0974253755129660  0.1033151392876319  0.3525872081278828
  0.1721432268622617  0.9703311907603670  0.3410781264781120
  0.3411357485117310  0.4595752876532210  0.3691273339731468
  0.5639758784375597  0.2363354341570554  0.8031310620671308
  0.3431571550445377  0.4740152297243834  0.3101083504669979
  0.0170841509014705  0.3514522340342340  0.2416308749394509
  0.0061652000381293  0.2736220900523405  0.3246945051822461
  0.1610097739254034  0.2276221999831407  0.2207280991305038
  0.1041876479861386  0.1809386496946634  0.2742552373306225
  0.9229251171767406  0.3441543392296559  0.9753885972210620
  0.6553319643935873  0.9906192403564967  0.2505830254325628
  0.7866460057787774  0.7006131892289604  0.4548164777875793
  0.7822726623487523  0.6588262546197836  0.4043411201343513
  0.4118571749859806  0.7390123242486192  0.6997833941369607
  0.5373090316634134  0.1740962736521977  0.8609308842007641
  0.9875615442044360  0.6171231163922605  0.2023046261526272
  0.9410629482666637  0.6938536298286754  0.2201930782201943
  0.4906608909964272  1.0060053182425017  0.9406960543866204
  0.8499167582124345  0.8860780158727822  0.5321864029447351
  0.8532345533268180  0.9478642286810239  0.5272948342374918
  0.7786144853905864  0.0453886594636436  0.6296679535018341
  0.3661494894895637  0.7345312881040456  0.4081683236944090
  0.5611666065812814  0.5835438117282294  0.4079829829898403
  0.3667119272592917  0.7525961218730098  0.3470054780977174
  0.5143801235661491  0.1986391963439424  0.7374265295180994
  0.3666328070641815  0.7693473244356487  0.2877984039425958
  0.3159629056667785  0.8006419902774113  0.2630476291298869
  0.5702443448276345  0.3219911447944026  0.6232969425328577
  0.5108552428456987  0.3296680346509558  0.6006880497234807
  0.2734181105607842  0.9054032594145079  0.3955064618111951
  0.6090039651387803  0.3729590471532783  0.6282567314933354
  0.5693240599548902  0.3548243064953611  0.7311968107422432
  0.2187645251072234  0.9104097304663316  0.2591376089263063
  0.2733928216532799  0.9233379945357637  0.3318561324680396
  0.6870227122797747  0.3725585915984023  0.8818239177499360
  0.7156216436012846  0.4365866382572657  0.8237063776302469
  0.7721494359604879  0.0310376532545658  0.0940021846507496
  0.7499402112848622  0.5197304196628855  0.9280859301170956
  0.6490903263703833  0.3830723764569905  0.3347722904244239
  0.0279325203057981  0.6065550522581797  0.6681980529985146
  0.8270043761545065  0.5833645211106638  0.3856877607222707
  0.7488017699837747  0.8705951050275690  0.5644149933482865
  0.8950156557940577  0.2274738568244318  0.7477217969800065
  0.2996329517994401  0.5487789491711248  0.1019356337217875
  0.8571838159605905  0.1774684883729183  0.7447180980869297
  0.2465784899888981  0.5525657751965064  0.1967388883810983
  0.7943011326925794  0.1537191905881351  0.6139510480878457
  0.3463219012621498  0.4560939695118519  0.1441957381123972
  0.7041711540516405 -0.0034564162142615  0.6311628499128151
  0.2924031100646034  0.4392059829606147  0.0753258421212550
  0.6063009159462286  0.1347923800339046  0.4702267173066801
  0.3924011946849643  0.3804766999959066  0.1308550944412591
  0.7006493104517759  0.0172753206385204  0.5592392897203546
  0.9778724469083991  0.3458418331632142  0.9223874079010933
  0.2770198631704548  0.3199360793678328  0.1160744854671328
  0.9923530758332342  0.3016522164542922  0.8800564821631226
  0.7896445205321643  0.0659061787646177  0.7979874656418329
  0.8091309886442257  0.0106441665271158  0.8168192955011869
  0.3690541378236731  0.2340494733383513  0.0643031531380714
  0.8759384408410913  0.9887691732030478  0.9040040735277148
  0.8382421277458063  0.3543765136335874  0.6523441923224428
  0.6303438702562827  0.1850466740616984  0.2257511604055501
  0.5705002045314804  0.1398638837380139  0.2801213971928657
  0.7511147620299857  0.2691296565424092  0.5816711219351114
  0.8079094662929563  0.1736014923073051  0.7853015789108259
  0.9713575777855951  0.4454139093847996  0.4220379994632867
  0.8719333165185366  0.4923083928194741  0.4278133631864308
  0.9676791677915304  0.2393040188789057  0.9331794265335325
  0.9236165806933098  0.4931471339742086  0.3322819574899810
  0.5891649172934048  0.9500966815393054  0.9420636512523434
  0.9730018584948954  0.4617767944731722  0.3602721154774961
  0.4508555563137493  0.1666414815756612  0.4180350820816992
  0.4539540947228795  0.4910022758409165  0.6120218176380091
  0.6649364359813832  0.8520909581406090  0.8748545231751684
  0.6888708386352425  0.0257976505735670  0.7724952071436137
  0.9260761377875879  0.2282217708773896  0.9758147855301911
  0.9274943988737990  0.1844935935031776  0.9316764080884120
  0.6203964266919278  0.0919049162748524  0.1359545918991683
  0.8259666987181663  0.0320518753195142  0.9926256924680067
  0.3192803644394311  0.7164693857182914  0.8390235256028719
  0.4306543774957336  0.7147088965494932  0.8218420391838619
  0.8382739771803663  0.7379160332107133  0.2335543457914931
  0.8000659180417717  0.0215113260507975  0.7556000209363362
  0.1586339922921559  0.8181822951111442  0.2642799651717680
  0.6684548034836688  0.0470922329027510  0.6469156945514389
  0.7696786588210196  0.5223119129155580  0.2701254719241615
  0.6589173077403355 -0.0607133819500933  0.6277645930103363
  0.1004491645736931  0.7410638682971371  0.2080538113434470
  0.2024098495474808  0.6614994500948900  0.0952160510585558
  0.8569131560434496  0.2097130422669926  0.8488805071422892
  0.9679004699432581  0.0287072253721715  0.6025484810524462
  0.9041413962329853 -0.0178332172427609  0.5273016882074316
  0.5919903379912346  0.5590331408090267  0.5355697526084953
  0.9755531679153122  0.8961837963862922  0.7778403928003310
  0.0216163207530595  0.9264706952662344  0.6013327171767860
  0.4670330172399189  0.6895682167628050  0.3982312742866815
  0.6884803915281508  0.7719941751655567  0.5637448377078207
  0.7478123161950757  0.8118430663470532  0.5742201720070313
  0.4767329712433286  0.7957036382385977  0.4320182166664707
  0.7600279845746992  0.8401659330873026  0.6283752563951699
  0.3733145970247476  0.8909943470372244  0.4857105810729573
  0.8078216590924666  0.8778397191754600  0.6925905500026435
  0.3230838356843413  0.9154163179374393  0.4602498112315720
  0.8632930715921765  0.9022881300664927  0.8218388075718815
  0.3825759025034488  0.9488240944837307  0.4728629202757378
  0.9359732511551119  0.9885459090551948  0.8630860510438552
  0.8754201469901333  0.0273890739998278  0.3541848894250521
  0.9419739497740219  0.9776236594726956  0.9232825036009710
  0.8346429302821208  0.1226997204662757  0.3138172631347573
  0.8121381696546025  0.0422299566758778  0.4747364565842685
  0.6421355945931067  0.7156630493226730  0.5649099265245771
  0.8908099931676147  0.1522569083166480  0.3224414823340129
  0.8480639281140456  0.2771991614148856  0.3830683061344768
  0.5290172470761829  0.0234331949654461  0.8313753679196861
  0.8337884441718905  0.9364869198157262  0.6283716636076112
  0.0195661236653090  0.5187482844899104  0.8489596254261600
  0.4336616042493341  0.9334787663915526  0.4383575562007499
  0.7533516855555658  0.7219500393697122  0.7060641143257564
  0.8329355284916905  0.8402731958500688  0.8819145352077549
  0.8097728765610616  0.4153917798098903  0.3774512089338635
  0.5293444734436649  0.5613092637176169  0.5154160347912723
  0.7834007154055790  0.7141075521860650  0.9934702197205957
  0.5186813794282319  0.2836209421889361  0.5522120256896458
  0.3963428328541208  0.2523834612842742  0.5223709236632802
  0.3137319658070744  0.0127869401554231  0.6645898680749789
  0.3881372595644583  0.0613462052453484  0.6624927187678377
  0.4370712224881009  0.3171293983295442  0.9780307227801895
  0.4751748535254426  0.2521993855837473  0.0410201612665646
  0.5579646756621668  0.0839839637166706  0.7704626890846150
  0.3991224154957563  0.3449311679893077  0.0178333653442883
  0.5088578817039096  0.0793869937181948  0.8128568145714112
  0.4986888261237766  0.3477856010936823  0.0557884965164309
  0.3492412451941097  0.4217005007299893  0.0390529877642803
  0.3978745978713619  0.4403578841929245  0.1104737418400754
  0.6097685493364354  0.1498886991439012  0.9426719713544705
  0.6766096301365063  0.2115079477988075  0.0062066918703146
  0.0090227590067322  0.9399644145986069  0.2897392050768749
  0.9260376243265178  0.4436994699919137  0.7234449225308910
  0.9637183858644386  0.4938034797272148  0.7262994583219491
  0.1144605537653652  0.9227173553935656  0.3931744961555806
  0.7259146329667697  0.0930632350598773  0.1736019454226445
  0.2982730204457243  0.3544220903629581  0.8067195538088110
  0.3000276958983309  0.3212640180027320  0.6999590216160816
  0.1545716262097605  0.8057851252437810  0.0961591397015987
  0.4903824514979995  0.0667405955964711  0.5818281661050932
  0.0737836865678787  0.8978856940302761  0.0657429360502589
  0.0258165016422089  0.9597356638206400  0.1495257260635600
  0.4994675877911436  0.0587407827824882  0.6437597426650723
  0.4874618590581959  0.1033480896203670  0.6866645353734854
  0.5488251743871712  0.0964740603645766  0.7084248949927868
  0.5868578821769238  0.1457803518651782  0.7139755748279261
  0.6115375150566603  0.1911734314474698  0.9850278964826578
  0.6608517771713882  0.9840138754129011  1.0135087408689252
  0.6089704452455140  0.1212808277980971  0.8379997646414723
  0.5810391949573032  0.2439620629712207  0.0791657126946222
  0.6748850849669887  0.2647399550707302  0.8929957199140596
  0.6469361418636639  0.2069480417326192  0.9428742196876081
  0.4845299973610587  0.2326736620111070  0.5533234814827394
  0.5421891969297008  0.2607565458291902  0.6799267414612253
  0.5794566581661137  0.0625216567867900  0.9003518346966359
  0.5757948277233511  0.1565371700520957  0.6547958476406938
  0.4829217603891975  0.9498867045364104  0.9631551065284178
  1.0128753717924108  0.9969628488650116  0.5082249071534345
  0.9656221539868470  0.0315244118410286  0.4770545817011104
  0.9559615209427449  0.9411607481275203  0.6040555724139239
  0.0234033954406430  0.0282762074038346  0.6170322607868135
  0.8743738293930120  0.4300652775575424  0.9892242019570420
  0.6288433597614523  0.7352283025980804  0.3900078630175025
  0.6710674164920357  0.6141869336551531  0.3223902301592191
  0.5758380893084923  0.6246201042987961  1.0005844074028960
  0.6138328580424575  0.5671247720198659  0.3740930853064496
  0.5464710992441029  0.5779351846945974  0.9478618155879882
  0.6059978284937509  0.5706475982173163  0.9681200112824896
  0.6649902076444806  0.5519869583314176  0.3384846968204581
  0.9541104023059795  0.8216851871077832  0.9350139974079715
  0.8372885682807462  0.8081064473956503  0.7752956951279557
  0.9052860038065189  0.3974849044320285  0.9503792144797663
  0.7596831450881807  0.4142683288308290  0.2466541586581771
  0.5850914894701383  0.5969859738064658  0.8427696765119221
  0.4472585268465200  0.4104343536221260  0.1374428604664869
  0.4126586710917470  0.6912760036934593  0.2669541749518856
  0.7999478205273033  0.7592848255509395  0.7684607370669264
  0.7243343911046061  0.6586828576626914  0.7625467625341343
  0.7085688557634124  0.4452560711374867  0.4437457597486622
  0.6741383611295557  0.2328180089259110  0.7860369311782454
  0.5521969448298064  0.2157963129271918  0.6381579556457579
  0.7735482847596937  0.2753392533658282  0.8121261843067097
  0.2663277681017654  0.5882027945869326  0.0156349658363556
  0.2030071186813762  0.6155419575660998  0.0474161498491167
  0.0963940937190322  0.6615847338633751  0.0547085631366417
  0.2644569378536714  0.8340532087989452  0.2377315623281248
  0.2567040994838849  0.7586433675943652  0.0841039081694261
  0.4609994571014077  0.5096097370233096  0.7782441581929866
  0.7612947782784056  0.4454733794474566  0.3501791870971114
  0.7708796681735544  0.0160928046949217  0.1581217562775444
  0.6137466343442586  0.4950065775846635  0.5587218762623096
  0.7208645638020178  0.5241792504067748  0.6439688778197213
  0.7056312634780308  0.5445715727862680  0.5268968450931697
  0.6259726684946474  0.1682402319294236  0.0554815036246896
  0.7579197296408253  0.5883105371614594  0.8435855580041172
  0.8194396977717079  0.5807064562253762  0.8653891721452045
  0.6869606536257284  0.2303171919544928  0.1723684241233573
  0.9437444401896432  0.7036259929995434  0.9998112088655341
  0.5473605282217821  0.3969685525221269  0.2373156030448380
  0.5370820268275155  0.3054249141353818  0.1537190266695677
  0.5394337919425380  0.3941668280955025  0.5431209239606928
  0.5509053707831003  0.4128568343339585  0.1751203988469712
  0.5109874742247829  0.5824922081208215  0.2758197805530549
  0.6569726534934415  0.4099432376711837  0.6960460729249788
  0.6934879331569147  0.4602538449278017  0.7004240883239506
  0.4571880004995806  0.5663826253993448  0.2050592416133643
  0.6671481736669631  0.3978652983030918  0.7565950833408365
  0.4084437557168209  0.6289898751111530  0.2832131292158097
  0.6820603703435643  0.5060877951737119  0.7424578640524688
  0.9112666792440529  0.3684247290128769  0.3713501243080720
  0.7985726746635834  0.3082160941345048  0.3568753206329439
  0.8693867104173928  0.7392029452723961  0.8533146677558080
  0.2518254901372551  0.6617315760060785  0.2237942578296848
  0.7675931437033952  0.5750250785208445  0.9068831240320728
  0.8449705037347910  0.6643465350847829  0.9709033813238102
  0.9155559949904701  0.7752719385659946  0.9213584592709914
  0.1561472496256807  0.7882553632087894  0.1558263886482425
  0.1582375189355797  0.8334731854429936  0.2036361107859682
  0.8604336987320277  0.7514196294693049  0.7924187652197685
  0.1037767319638835  0.8219341626954274  0.1306704745330919
  0.8478762093668465  0.8196238194368112  0.5502417574094165
  0.8062497580151636  0.7037892198297048  0.5647031301259418
  0.1625354041578963  0.8794685478732084  0.2492587104342006
  0.1271148791113075  0.9092716455460762  0.1359119741795777
  0.1320961846917695  0.9534556016482191  0.1806326735233560
  0.8824522010626467  0.8261058309696595  0.6749435702478900
  0.9114984445886304  0.7577870986948111  0.7563153372032115
  0.7665753291656938  0.9871951220820916  0.0501215143614967
  0.7233146870353310  0.0753046751179578  0.0040316111423815
  0.9062346191756494  0.9417998312716701  0.8882264611345143
  0.6744423374569186  0.6432065625258734  0.4302270675441890
  0.7005151356252035  0.6602727516216860  0.5378565099728367
  0.6018878832287856  0.3605763982920507  0.0283926688269740
  0.4910522083249932  0.3656776058240899  0.2285344155373550
  0.8335461481434334  0.5576947998450922  0.9912690674195597
  0.4433354235809660  0.4357643555159712  0.8978594327958791
  0.3927369257083396  0.4304050463784991  0.9393233834981930
  0.5221839139657887  0.5014214361173953  0.8013597389216618
  0.1740220071006943  0.1824725515205887  0.6216064366384483
  0.0248076664825009  0.9244387962579299  0.9126982634015135
  0.6098895018581566  0.5231554513603074  0.5005016530067635
  0.4498005258524419  0.4580761050355787  0.1815205998787426
  0.6400391908585049  0.5914664107335895  0.6018335318187445
  0.3556536934423822  0.6289969503247106  0.1508713785290932
  0.3549384658333015  0.6142732809883052  0.2128432528146659
  0.8463724309550565  0.6422879854449351  0.8071425852481210
  0.3583280668958403  0.6770815275125822  0.1955343295901425
  0.2615028019182059  0.7876326229575297  0.1921863466825056
  0.1612853651376915  0.1936745302701670  0.5598234970716693
  0.9481923499029065  0.1978465533580019  0.2699406604604025
  0.4321056324003660  0.3927466455940805  0.5595375345799675
  0.5366413667687795  0.4251570003546561  0.6535611424575506
  0.8941706253429015  0.1825894153938501  0.1986221981320480
  0.2215052751753581  0.3513905152182480  0.5526034991268004
  0.3412214117717038  0.3376570071737645  0.5977880492311478
  0.2667621539572193  0.4237297276334389  0.7261078710164023
  0.4265566851564381  0.4260633011086158  0.6699235416043731
  0.7572310594813497  0.3992348875428856  0.3089806141356214
  0.4518722918479995  0.5223559050826236  0.7180729104504535
  0.5721931030162155  0.4083096307363756  0.0072279554786164
  0.9917237206508073  0.1048827266899545  0.3146416517816540
  0.0108159182434520  0.8151438338978441  0.9240679639198053
  0.2381301673721864  0.0762748920923941  0.8907525133754723
  0.5810719059127920  0.6303219135773628  0.9447294478481164
  0.9537120309881073  0.2159532771501369  0.4395948215124957
  0.9395471063375820  0.1046362448319551  0.1804231395467583
  0.6616546272941594  0.5059790611190212  0.2939730689996046
  0.7082868039276795  0.4296691357892813  0.2799895001274684
  0.7528919447900211  0.4855242863134130  0.8255275465640760
  0.9288378685063262  0.8849163028561525  0.9097652669395716
  0.1166492773613596  0.9561296490544843  0.2685194425325910
  0.2069467239759720  0.1135266144213770  0.7027254721047063
  0.1281807914405407  0.0476521522277449  0.5328449469155826
  0.7327234531604381  0.9604354822797498  0.8197630049494185
  0.6613150082617494  0.4418538782722574  0.0855469821289057
  0.4447022958862098  0.7745946229559972  0.5371130605391098
  0.5030092281932425  0.7661732431151761  0.0032549608802330
  0.5135521379088108  0.7539291290275050  0.6207106451847911
  0.5563241562786981  0.8382068479814627  0.6311146586712062
  0.4653585566648217  0.7297946832520582  0.0476804946486756
  0.3635866319052508  0.8368179023137402  0.0514036048974951
  0.5581414015068757  0.8903890037717419  0.6659969247785742
  0.7204055307400240  0.5677647728226705  0.4096747669852521
  0.2234924911637619  0.2202046459049965  0.6879971487099633
  0.8575252649579838  0.3865661511556970  0.4040452729538461
  0.3796834885810723  0.9209861983811659  0.3639278856272339
  0.1385247206265618 -0.0019681345905485  0.2261192099199973
  0.6113141890119035  0.6935039863376750  0.8854760594272286
  0.7166838766632406  0.7233378580700311  0.9704395778723681
  0.5746340242829372  0.7211298767343060  0.3158632619723776
  0.4724565219126764  0.7669658851693497  0.3228279331971440
  0.9214574758744574  0.4001232910930734  0.4660047435812392
  0.7835937015209679  0.6412801067289166  0.4643244129206709
  0.9873110980445006  0.0690087060753106  0.2077717967981240
  0.5704873759919885  0.5402898892756305  0.8658155700158884
  0.6884831500346180  0.7616885996260886  0.7866594736839427
  0.9032223095272738  0.2752623039555919  0.2865431500684718
  0.8501158893785513  0.2910582027516853  0.3222531921530696
  0.2685784265990128  0.1697991001724829  0.9395725674744764
  0.1910921188931199  0.9783318583494562  1.0250809476800011
  0.8269341073595264  0.5685075981420825  0.4475428472506290
  0.7402145388920299  0.6607015922279111  0.4973558419218079
  0.5851737060056882  0.7184945949823971  0.5415014489913933
  0.6451742013046321  0.9283315225945576  0.5692345066488061
  0.6489369393982805  0.9959190163458139  0.4867432670577956
  0.6861383648458071  0.7931058672118682  0.5067097567821059
  0.7377748015891923  0.7225764574911026  0.4809998857153748
  0.4263393968043014  0.8455649629378802  0.5174137103074604
  0.5366080989522664  0.8992717134916915  0.6039618074346937
  0.5179016206058136  0.6747012222677935  0.3658125211740372
  0.5393559468209030  0.9305864676840454  0.4728666299533460
  0.9528945182718498  0.3284815801133065  0.4638901124440746
  0.2174018924887127  0.1328200825467702  0.8711400149569763
  0.9652512126950995  0.3850901860273759  0.4369318821647712
  0.8809827733890618  0.4148950412827789  0.5055524957480051
  0.6336251196650372  0.8875194719988688  0.6879611180259388
  0.4896361902737354  0.5721187600876260  0.7229329772228563
  0.4181455334044791  0.4391900412813234  0.6115243883548147
  0.6838273756499151  0.9248551268245584  0.7543754999499774
  0.6172368554397836  0.8142579783265894  0.8087445567333158
  0.6123782934241626  0.9769590408391620  0.7746214396944736
  0.5267284717421586  0.7801421437783483  0.3981809719828451
  0.2461888515760990  0.1958822553486159  0.8129389009375270
  0.2838912899387790  0.2467042078510927  0.8166250150396126
  0.4797909968227432  0.8560813799452222  0.4181700661253427
  0.6363276024915164  0.8419626334144448  0.4202802011171092
  0.9912894347201585  0.0891121745291035  0.3759414074553581
  0.3679018616015653  0.3353146277516607  0.8911080277963442
  0.2037765518711115  0.0127755734116993  0.6840429373408903
  1.0011357242255661  0.1967808548686810  0.4060460406065936
  0.1900908199062431  0.0227558545333898  0.6207495368951449
  0.2784950391325113  0.0951131969947063  0.7877001686499788
  0.1583135767157641  0.1085859012510921  0.7428676390116832
  0.9036394610716431  0.3063825067728299  0.3923911300113569
  0.2908938867602903  0.1154488445498290  0.9554320702055618
  0.6691697306310754  0.6857442871203000  0.9052536380740381
  0.1970528192928633  0.2235877534029321  0.9555947935416561
  0.8161051991802120  0.4759549548353884  0.3580600073045817
  0.7713348365574012  0.5525634789608216  0.3754888822713551
  0.4508386257959549  0.4222155679950574  0.9585370515623385
  0.1810405412318057  0.0341398562093429  0.5574996656981054
  0.7470767123670049  0.3074930959262318  0.2245311593984759
  0.7876803233852668  0.1838771827247143  0.1641843646701356
  0.4253675542697484  0.8433945251832192  0.3446536116072352
  0.6553885068050472  0.4128824240843645  0.2106567928257677
  0.8172705447355821  0.8645449928741142  0.9861268270572988
  0.3811229855880771  0.5128737412122030  0.5340387328467857
  0.6585903493646762  0.4590766544741537  0.2526295093539839
  0.5033317461570231  0.4977717355701421  0.5752702674061179
  0.2911267590769966  0.6193372198171212  0.5320006139838197
  0.7108914305837005  0.4445858175703317  0.2176006630739238
  0.6100961113575064  0.4898594451097112  0.2260405358825463
  0.6122149445531351  0.5362962336055469  0.2684417739194346
  0.6648383777090535  0.5214791541055598  0.2334216837773017
  0.5769721009350522  0.6100109371796809  0.7805956170974208
  0.5634309938445100  0.6538209330276203  0.8220227622952296
  0.6233731466962814  0.6475710427038669  0.8431424001688935
  0.6492149023583671  0.7444559143011732  0.8870795438928782
  0.6387033696582483  0.7573786767384463  0.8267282239119038
  0.4059524737960666  0.3853247228711701  0.8955038468853203
  0.3641791305413548  0.2147079046269048  0.9583685406410030
  0.1889006237609535  0.0388200927670540  0.8256763076932800
  0.9856698901380015  0.8798103343416734  0.6146503007424606
  0.4763840885354991  0.4308844269627505  0.6316815960916068
  0.6739557738900649  0.6532957935970557  0.8026093190369832
  0.5428266517440514  0.6805505192352097  0.6990749228538130
  0.8078862204346144  0.3579404906331914  0.9234964553239478
  0.1080462090855940  0.0689699225658942  0.6782676552731787
  0.4582670483599308  0.0784895291459218  0.0215931082721129
  0.2068369901451843  0.7732467297304606  0.1217818748734671
  0.2488383390695395  0.5343751408627595  0.0356136188121871
  0.4081316681135180  0.6136897412344116  0.1185507252228667
  0.8973110673379159  0.9330895167031736  0.6547334177276196
  0.5984128705285010  0.1004567500137370  0.6655584734140668
  0.2368621319227893  0.4261458740583672  0.9991954995939027
  0.5256123704874611  0.1191453092553311  0.5835388919895882
  0.5502205023932765  0.1610385762625921  0.5342523510142498
  0.5404269825063602  0.0249876939371802  0.5555859922994648
  0.4178994456695326  0.2755211652017133  0.0155743810102023
  0.5229614250451937  0.2497557894507034  0.0023780590751229
  0.7762029371865004  0.2888816179436114  0.9723243612551893
  0.9626305663924690  0.9217107595082232  0.6558865395471200
  0.5338416496840451  0.0075536044241811  0.6219468295890751
  0.1382353819749986  0.9018852337102796  0.7346004928426315
  0.8470700219127515  0.7752892019938394  0.5085976572863667
  0.7906759829802245  0.7713372838085216  0.7074404371271109
  0.8758112670622399  0.4052072959901819  0.6593053225799053
  0.5833032636699103  0.7943511825500357  0.4741503690954574
  0.7829510201314451  0.7632823267663225  0.0350138582850126
  0.9524233742413903  0.5058436144216722  0.6680993950985947
  0.3986539838534739  0.3643437832604804  0.7260423413659876
  0.2087034524774087  0.8366021104916950  0.1072882967286497
  0.5067022566042350  0.3945468330009025  0.8149017255018359
  0.2328365532606467  0.8809353851255117  0.0607368712004157
  0.6155533872089129  0.4231840239640667  0.9048749856177797
  0.5423893890487628  0.4771133495761745  0.9244879141262230
  0.1341020742512344  0.9713251471419847  0.1204498095896652
  0.2353149363681183  0.9241012877329964  0.1093328987048737
  0.2955654645602445  0.1392558052212512  0.5589873110953344
  0.7277582630501667  0.1072379128380071  0.1108811995021212
  0.2824434771454495  0.1812740668303083  0.6022146222489413
  0.3326938995575245  0.2192734179089710  0.6710293719505074
  0.4042368134099997  0.2000743092327564  0.7546696487746476
  0.3935164989353045  0.2448316144190800  0.7985211354252379
  0.6362048723293174  0.2952744249624163  0.0266357384835432
  0.4874080741962132  0.3191892480376962  0.9366348883786147
  0.5569480968817998  0.4452420941272798  0.0496650248365706
  0.5163552553121604  0.3829447490549027  0.8757697887758521
  0.4550453293300611  0.4426969205680797  0.0126368315522842
  0.6518847949797308  0.0534326305461218  0.9291344866485873
  0.0255794040452845  0.9029244043225815  0.7412150448274057
  0.5591720990600438  0.4887934085360507  0.0938343478283101
  0.5106315271596552  0.5669567857822311  0.1097920766930628
  0.4087641745769831  0.2865851093227695  0.5757499096237741
  0.3600768714182083  0.2818835601376088  0.6152784922778969
  0.5138529875725535  0.5831021132650466  0.0500054925843627
  0.3042985191129452  0.7450481195263027  0.0444778471309749
  0.6680657675685732  0.5676904814577343  0.9893431151992476
  0.5738058624050367  0.4751249835548669  0.6581454725427637
  0.5266440370976453  0.2158616479929325  0.2960370931958357
  0.5835759566328227  0.4625214217808434  0.7180877340033567
  0.5407394841000608  0.5787163374067510  0.6818210307010542
  0.6321548810258901  0.5001162846084455  0.7831550571119649
  0.3081021325150776  0.6327032750287590  0.0223195417477516
  0.2540332785972195  0.7094339169844828  0.0397179437330743
  0.6811609211537415  0.5393020521635672  0.8468818949101928
  0.7057574033695185  0.5832775276703411  0.8846143124254379
  0.6461911030837691  0.5898008738627655  0.8632732505042453
  0.2075263700024689  0.7418610274164417  0.0174157934908001
  0.7165301139382395  0.5705585191646692  0.9469070482679179
  0.6945552395504547  0.6253682260847098  0.9315814312810435
  0.7336960574309714  0.6731613688301287  0.9856631370491165
  0.1839342043318304  0.8509380985944870  0.0508721105067946
  0.1225847382552472  0.8607361242674315  0.0873244114114551
  0.4566404835667014  0.5358275566813125  0.1012616676162908
  0.8447762791892989  0.4316734816306724  0.5386952161024866
  0.9360042128599658  0.6660454799239744  0.6674602148614307
  0.3669324523672175  0.1815300417106200  0.8566165808915878
  0.8050173558693076  0.9096572900873752  0.7989042297353287
  0.5242461791096500  0.4701888318925740  0.6967370311620120
  0.7028992174650385  0.4802882197679924  0.8654417170835814
  0.4118412558606268  0.5809443344183417  0.0151866708055112
  0.6908078181823468  0.5264064586301006  0.9084741842583777
  0.6306645123816359  0.5334507211870466  0.8863796667216517
  0.3086742464437853  0.5676807334506300  0.0464803268916942
  0.7191455379971190  0.4532206499436988  0.9872668942740572
  0.4650667542482606  0.6789068190871397  1.0083400599895651
  0.3100681176406387  0.2433127968885814  0.5447228759232101
  0.5902689247077414  0.7194630063340552  0.7627195225293822
  0.3587095508875470  0.6465804638174854  0.0932472255226284
  0.3165568265680074  0.1443547310034065  0.7905368688854465
  0.6893655155471755  0.8376291975112427  0.5502392386795356
  0.7492507580242153  0.3386198804646418  0.0978274796431760
  0.7178692057451657  0.9056319168341191  0.6023904341463757
  0.6589136131885385  0.8045676708062323  0.5999560359832284
  0.6540298586986593  0.8744461044735611  0.5903785625239129
  0.6024886137562749  0.3978983850828840  0.1393202844394317
  0.6964214568630456  0.8808483008900618  0.7116599033049414
  0.7338754944444260  0.9290097890216041  0.7135256229742153
  0.6051309391194186  0.4367394921249113  0.8421397826383685
  0.4555286104798499  0.4883086528461090  0.0594767615092201
  0.8596858491061490  0.0464187287913090  0.8841327554272040
  0.4711430186363790  0.5999898079212916  0.5990943124074317
  0.4142579021249832  0.7240465550488089  0.1461313161141783
  0.5672393003139981  0.6287217844328814  0.2242606151064859
  0.4085858607855787  0.6444190208711688  0.2229737146458230
  0.4719215473963901  0.7837516515179418  0.2627001464837923
  0.3690681294172873  0.8299135687289650  0.2732201587548092
  0.7174820035244736  0.8235436780439465  0.7292742542284866
  0.6181789811040684  0.7824145016533980  0.7017953623307978
  0.3259476047081480  0.9256522937250170  0.2323588603372597
  0.7532986376596340  0.9051943097511890  0.8402932138708279
  0.7256713896501809  0.8328541682659827  0.9602755993468399
  0.3314985995105671  0.9704407397560043  0.2783904112365055
  0.7990332418056088  0.9422230218178027  0.9052337204132479