Cr H  Ni
 1.0000000000000000
    38.6687825624360855    0.0000000000000000    0.0000000000000000
     0.0000000000000000   38.6687825624360855    0.0000000000000000
     0.0000000000000000    0.0000000000000000   38.6687825624360855
 Cr  H   Ni 
 1596  50 3725
Direct
  0.9910446315592458  0.7881480974137337  0.9809768140154698
  0.6553286918874753  0.6797383797460549  0.6828907945152464
  0.6644160143814268  0.6662005328501834  0.7424483006712618
  0.2028368168485723  0.7093379943767434  0.1372108850271034
  0.5535151902356829  0.0435177585114502  0.9532864358112638
  0.6011931125703839  0.0100258715043125  0.9188076677542004
  0.7621236108803818  0.7082838022031396  0.7667118198780903
  0.4551635302251156  0.9745145935495688  0.8350343567416411
  0.4041863535449727  0.5504845601463892  0.1356818469112771
  0.4100531098105921  0.3199269879105551  0.6815032777669729
  0.3004682698374601  0.7417001627710782  0.7144602744415789
  0.0787801239475070  0.1082420590521307  0.4392869606944487
  0.8768662189147909  0.0152632464569961  0.1884559872611588
  0.4038059448559298  0.0319945545887918  0.0745613385339189
  0.0463465136029040  0.2119228334527931  0.0189547467372764
  0.8814460956398322  0.3055226967680913  0.8936181703805669
  0.2565207265723590  0.8246038681960290  0.0711236041956884
  0.5595635298396101  0.5211224951484373  0.1980946836954680
  0.4278756202050587  0.1746077669290168  0.8795281746429322
  0.5709144837839613  0.2520508969079879  0.9651790487137685
  0.5591551273215253  0.3198672748598023  0.0139441528859317
  0.3098420736211672  0.6760005415958327  0.5093705480157381
  0.0533402039183347  0.3618808887189126  0.5519303504584759
  0.0205790194589588  0.4185359800696099  0.4443338465319572
  0.4687892854861552  0.7647451175410970  0.8244440738843674
  0.5247186039633978  0.9230030858469649  0.8124455312680717
  0.2588321402863947  0.7573252714663856  0.9210439338640660
  0.5457031355645100  0.8665173512915576  0.8309946644764945
  0.2955394665388132  0.8063097866550717  0.9245735296245935
  0.4365922307418753  0.8350141155635434  0.7452182891769865
  0.4969048785809084  0.8280565732059691  0.7650304259829863
  0.7901973601046743  0.7983701614948016  0.3141341542033772
  0.2988894153032222  0.7957431116680386  0.9825701606754033
  0.3562997415041672  0.7155247046961372  0.5734653428798322
  0.2234262551533178  0.8590292426680279  0.9472780028040081
  0.1436819673460002  0.6783157785375660  0.5495486567641038
  0.4054442661543152  0.7541016386167186  0.6391785017747553
  0.3652469319580072  0.7033959186538855  0.6338675877439860
  0.0886523235298737  0.5970702083270113  0.6879827570059998
  0.9257559693774665  0.5973128820160394  0.7541353115401535
  0.0116822574807798  0.5309971568207268  0.7896752906663592
  0.2271733843240067  0.8257957267197992  0.8400887767880479
  0.2606492034700613  0.7245195284716192  0.8153392300676001
  0.8367091398562949  0.6907397530232102  0.4154930325406402
  0.5999841168887151  0.8951962335358583  0.9644167425433119
  0.3866665723123975  0.9417789716376764  0.9821466135539066
  0.2145765710581953  0.9411545000575184  0.5362453197194320
  0.2670542409062683  0.0740237586840966  0.6188508528878028
  0.9349138490314092  0.9688570231384593  0.2673035434890251
  0.5301340509366500  0.3638141995543194  1.0034462786001712
  0.4402437223792692  0.1626263788791570  0.9457308622336124
  0.5283752284829281  0.2304373839261521  0.2338377706477866
  0.7368182026421747  0.2326717418147585  0.0721962083783908
  0.4411728554645118  0.2829938229376125  0.8645985795105321
  0.0554369367870432  0.2281559706249528  0.1837663611769880
  0.4650088188933742  0.2252429243151611  0.8807612835264580
  0.0531617915756336  0.8022904173466365  0.2885701959204314
  0.3500726672777135  0.5557949751955892  0.4552978679654383
  0.0717904896184090  0.0359233171295553  0.5165471057833907
  0.3248044822815241  0.3382197307562579  0.4165696436038340
  0.3736325158402692  0.2718324206401805  0.3406029163599806
  0.4409204117421263  0.4113878611949316  0.3666183324819031
  0.0974901296225490  0.1040983787210691  0.3516531410792443
  0.1727265140427851  0.9701594339323196  0.3420067089107113
  0.3407508860886325  0.4603481925657846  0.3694114140305770
  0.3427719461218067  0.4739363463771817  0.3104069141938213
  0.0171136511376357  0.3517060366753862  0.2411632841936343
  0.0057066564354854  0.2742051731516267  0.3241339780097088
  0.1603588541152671  0.2276075014432859  0.2215807771220273
  0.1034143336049207  0.1826264537117678  0.2728556095317701
  0.9229982230407496  0.3446905312543672  0.9758640861615985
  0.4130374896369682  0.1389056939008713  0.1060980646782602
  0.9234886335382128  0.4779558975206611  0.3922618141900917
  0.0546622843537783  0.3886404437001541  0.4829131979878812
  0.3490797831387307  0.0441964667274739  0.7666194402417068
  0.7217599508609028  0.9428481148292078  0.6503993745669445
  0.1072346278079216  0.1977743028038057  0.4411121571340921
  0.5656810838588436  0.0949218310630728  0.2370184798889831
  0.8024154633082387  0.9682892334790913  0.5576785007337601
  0.7372711291720299  0.2150229801494798  0.1361965925008026
  0.6976927853327631  0.9646363108084188  0.5813339473101046
  0.6580372055464015  0.0557613362886381  0.4622605737903130
  0.3608962542080595  0.0615911655950506  0.9386645157314605
  0.7825745039469959  0.1374284456547283  0.1186359281058531
  0.8326410769318489  0.1078532275922118  0.1451319819701886
  0.2584723321727111  0.0213657580427759  0.9121471673299781
  0.2493146018533454  0.0323444343655677  0.8480343620472111
  0.8293753651776562  0.0774054212377435  0.0346686771535012
  0.2301891159706657  0.0173571969648232  0.2892794455861972
  0.4597190440903314  0.0740897712026659  0.8525970137492486
  0.5679089645826707  0.1260818773957175  0.3454502609519546
  0.2203172230487362  0.9264485690597629  0.1988509160559283
  0.3201271722141140  0.8802082448340370  0.1886546465415056
  0.2703494846095524  0.8955529210918010  0.2248379394327017
  0.2656962124647539  0.8501637010456806  0.1788569864940798
  0.1943703541136207  0.1252794232455578  0.6401735487966412
  0.3672387133683930  0.8019935142459237  0.1678217191191664
  0.7421758764689270  0.8588689360626498  0.1615333197262692
  0.4278114428070133  0.0521649252894216  0.9623728723512904
  0.8943152054231917  0.7859837655697154  0.1815369717494346
  0.9486314004080164  0.9676317077853522  0.6941407454468513
  0.8794861174486377  0.5386782963523555  0.0189694079412823
  0.0703111782753728  0.0518066720175807  0.7819199041911639
  0.8500345301303702  0.9047438456391219  0.4743698791733856
  0.9072024188365186  0.9534897505550487  0.4223099026049075
  0.8982708849545645  0.8300324816516488  0.4515828137505560
  0.1743928204198766 -0.0009002301500536  0.4493050532883046
  0.0651238371860654  0.2494863068793786  0.8543973894331740
  0.7059705560241918  0.3981614162948300  0.1757036040148928
  0.8184368856832723  0.4600532464880230  0.1933885710829015
  0.1255938461501100  0.0299464951124631  0.4218952202188021
  0.9108434659247617  0.3526057007564425  0.2075809057972025
  0.0493273225040700  0.1411840683470829  0.8704145531949699
  0.0328716068179450  0.0148793172569685  0.6816970698852436
  0.8014644579516447  0.3220542222362819  0.2948985227809040
  0.8563488371257582  0.3364133874911567  0.1352468202153399
  0.1304856148822510  0.0444876726199008  0.8038852888879440
  0.7176892464860755  0.7841666880862223  0.0148126366415180
  0.1199612938644098  0.9830085323792460  0.5581495513602097
  0.9538213821081916  0.2755549946841118  0.1932206764514782
  0.6670945322015763  0.0315271044250917  0.0570048606874366
  0.9487101390675435  0.2133703946438382  0.2099072173038072
  0.7869893793016458  0.6999037006744334  0.4546095317264296
  0.5911384871420895  0.3214970209335847  0.2232779104146466
  0.0872163171305093  0.1599827343405767  0.7653278171647120
  0.7223684937526448  0.6000296029867525  0.2894898161092594
  0.1186929433243436  0.0896211342257647  0.8468949243116213
  0.1634639818853656  0.9956210185268602  0.7867807336802179
  0.8998090457472482  0.1682507819704444  0.4887176003955353
  1.0063253459258121  0.8214919946886003  0.5486354140567062
  0.1001076846531400  0.8673670724822095  0.5751022621444789
  0.9484453826923005  0.8082938975041697  0.7634366830465529
  0.3426959207405619  0.3577765262773555  0.0563332216657341
  0.3320460637817175  0.2866153569248053  0.8829105868012374
  0.1610194725958727  0.8144963413187463  0.6468848513148584
  0.2482045660262675  0.3493722138223097  0.8455178022317816
  0.2345207158807978  0.2418640331515785  0.8545989296850715
  0.8360889856403603  0.7396548360047256  0.0078887690553473
  0.4759224484245093  0.8438099218825180  0.2482311450102365
  0.1367048439306858  0.1972302829116308  0.8298945697722846
  0.2237225610341994  0.2527471540662997  0.7943729913455215
  0.4315348980727923  0.9213569831391210  0.2667796777315624
  0.0647446469313317  0.2167622571678967  0.7472731660942961
  0.8272620061970360  0.5831211391420685  0.3863725265520550
  0.0276757398189391  0.6070201620406506  0.6672891437343453
  0.4118216425914720  0.7393940464027293  0.6999421310382544
  0.7827435573960315  0.6585002450067808  0.4051047599558705
  0.6553686490006109  0.9919447601719997  0.2522063006455609
  0.6548858920513163  0.9363637154325015  0.9683258355342677
  1.0046827419832338  0.4430117274129210  0.9725120025505992
  0.1477085059150288  0.5224080068616178  0.5058812551107165
  0.3262410587552484  0.8698275472608618  0.8688362478046254
  0.4883672564175367  0.9349146802990199  0.1001260304037350
  0.8421758279434636  0.7338421516048077  0.4632878710367724
  0.1654587242412767  0.6475502284485760  0.6818911547126393
  0.1970419009060341  0.5737325475880651  0.5111285612980629
  0.4487374244078374  0.9616616365885533  0.0490940057911414
  0.3016538630869262  0.5066368692351052  0.8351709469030474
  0.4225290090005054  0.8638032836963984  0.0506279730966751
  0.3297591458760583  0.5698772671790845  0.7771851973828723
  0.2740822613996049  0.9940616884014859  0.7694287354462929
  0.2811489942722436  0.5312155595144012  0.7116869543474827
  0.5294798768320321  0.8615658437296626  0.0873038341365473
  0.5197716807703547  0.7539065373954033  0.0628352388757094
  0.5186014015915374  0.6920577116195846  0.0777522962089283
  0.6759045199062176  0.6314744911269310  0.0289704381070158
  0.1851564179855743  0.4536514110353059  0.5812349711526310
  0.2329309421033584  0.9768905037487120  0.8715019581180676
  0.9788355795254716  0.4743293182347873  0.0708954156678245
  0.3443212845572469  0.9758634153548037  0.8550608979905989
  0.3768713846386400  0.9056473080298073  0.9337551545809230
  0.3418620055255921  0.9405284086518146  0.0823602317852415
  0.8011277388865964  0.9353171002226331  0.4489601296654090
  0.6948300854214577  0.9197133295728909  0.4734174284999596
  0.5469712388761111  0.0901404654237953  0.5417036003764073
  0.8999944596871728  0.7953301235131205  0.5740118138122978
  0.4327720095922341  0.9991232631347718  0.7090700691928892
  0.9941331648413575  0.1341735747795023  0.1913664357225600
  0.7314700726089676  0.7061363675577015  0.3184903202349668
  0.4645993470121665  0.6110720541208490  0.7976253474116588
  0.7943694216294568  0.8012002076170119  0.4920101987001083
  0.9798922490408744  0.6808111540503816  0.5690885671788385
  0.0851879815901715  0.7119723484615946  0.6359938007403102
  0.9299016014966152  0.5379447828437631  0.1487751639124066
  0.4021475618634274  0.6518916298284801  0.8785520637888613
  0.9346040264789015  0.6002786562585251  0.1327610852224094
  0.2120481781812080  0.6857493713989786  0.7480496088622474
  0.8833261991385730  0.6139727439198343  0.3957088438512295
  0.3410359187707466  0.6602258709962084  0.8570578531803918
  0.3323312031561650  0.6724587326531549  0.7965526057292172
 -0.0080975212370792  0.5975455162223102  0.4933290945181887
  0.0741258263364832  0.6246349651675954  0.8264070825599837
  0.7818248543599066  0.6763192567123324  0.1163319915644088
  0.2660497396960665  0.6595250106598348  0.6058742289947950
  0.9274501119906176  0.5055533117967234  0.4976234402993586
  0.3096589626266816  0.5948823056339043  0.6548271815296332
  0.1999372958111386  0.5636555872515054  0.5679495410306191
  0.9675609102891518  0.6134620834823994  0.6514091345244808
  0.3977993665144083  0.4732411922676177  0.2162126209631048
  0.9003345784126833  0.5915982103453313  0.5237323859203670
  0.6891213546975773  0.4422133883142759  0.5302297357047007
  0.7758777692609656  0.1190583572929320  0.4833371976294572
  0.7549848495170475  0.4533492676983131  0.7221293906915671
  0.7894331800762251  0.1852164548809995  0.3937112331875471
  0.7286227646734336  0.3584487832745660  0.6706996219827522
  0.6459006404015880  0.4224951913299161  0.6340387273638373
  0.6630268332945450  0.4543771219851599  0.4784209504109935
  0.6792557736941324  0.3203244611377109  0.6040257344983500
  0.9835885934531712  0.6048452001782803  0.9734556250953809
  0.9170127128667825  0.0626259289974159  0.4500529220715563
  0.8557600609791496  0.6294218708519093  0.8684521059640697
  0.3189461150374946  0.8320725059778443  0.5349172570668949
  0.8716711886877059  0.5859810704947226  0.8256478573811497
  0.3737942325722533  0.7791152507105978  0.4546596284350142
  0.3572423734865689  0.6449622888917512  0.3170549466806035
  0.8625425566777379  0.4834545159688698  0.8080466015546932
  0.7088831157603958  0.1307235196633135  0.7590227475334695
  0.2137406589518777  0.8137896773243029  0.3941993334763317
  0.6367103435525422  0.1491857798276865  0.6755785496783092
  0.6929946236521848  0.2752377855807969  0.5638575702603124
  0.2590901539400585  0.7544456431891672  0.3130792303760409
  0.7936434140512484  0.4708123371155635  0.6230235484604325
  0.7169969468910716  0.3708799737877330  0.6080462300241067
  0.6941717887330718  0.3436164694036676  0.4300850253211421
  0.2688499820492341  0.8848399196244366  0.4571548426216068
  0.8609423737607893  0.5159491920461606  0.9115560023442187
  0.9554849723085662  0.6265200704132484  0.5920032227680690
  0.2671102623397561  0.9315434158666405  0.4955557378420170
  0.2184538429322798  0.8763090436975023  0.3869479708756620
  0.7968264478229125  0.6005675455635340  0.5420177292095937
  0.8416329743629281  0.5077979322172242  0.6859818042006750
  0.8912341502623660  0.5488446410709090  0.7494713741912219
  0.9637430028403596  0.7325391461085732  0.5529347340618960
  0.7977007525034802  0.6056247062981482  0.7427022248817177
  0.9538177656720739  0.2027667788036675  0.5012831527572018
  0.7277509108116086  0.3897144716529622  0.7788821233135595
  0.7008417185605794  0.2950413304343303  0.7302995970380496
  0.6408388292230448  0.3029475726976888  0.7083229334581931
  0.8136124872187700  0.0911985240296462  0.5149909955941121
  0.5904235684167152  0.2655275521663080  0.6420547446561605
  0.8624019963504029  0.0312150381223026  0.4424705810778324
  0.6402323564812631  0.2709731027073267  0.6024549765433198
  0.5797752696427947  0.2790488194760426  0.5789595185249043
  0.4535535873409275  0.5199196743044546  0.3922129198260403
  0.9235972708378195  0.6103231729933161  0.9533290040031308
  0.6649111565142899  0.5194714162002426  0.4624523335917305
  1.0063719710479655  0.5638571369123551  0.8927589810991584
  0.6134872400559641  0.0640219873989880  0.0237427816649737
  0.8954388448042446  0.4117894612787706  0.8867282672922967
  0.2496233702118454  0.6294019011546202  0.3469313724703179
  0.7497319545473788  0.3333439578626640  0.7953834660961274
  0.6382112918325572  0.0219998803653205  0.8112100896984644
  0.4628481607011285  0.6433918340818613  0.3546643186535827
  0.4498440353551443  0.4900708876855194  0.2847832500751968
  0.6712034565331935  0.1583226430156865  0.9626725841455389
  0.7400281381196278  0.0627262176781365  0.8378358467927106
  0.6796884750289287  0.0694850977073904  0.8150207479914372
  0.4469238383165049  0.4605720519100165  0.4054039459707107
  0.6186851916726835  0.0434351397574507  0.6854149587380154
  0.7802425764066223  0.1679457563369604  0.9948759236128631
  0.4007461923293859  0.5199803844026981  0.2591504130012830
  0.9079415270882152  0.3671466682900515  0.8431562533371050
  0.7995736646515983  0.2489841239385000  0.9327132032632910
  0.6472807682863936  0.1720815858515747  0.8402567020767682
  0.7196541063594916  0.1182812350351620  0.8200983710590162
  0.6368562823107770  0.1845223166166174  0.7810982942121656
  0.7076783086190227  0.0986580352125121  0.6519295949878267
  0.6790362590132052  0.1553700353375168  0.2524204401634604
  0.5435430977451958  0.9943468586072103  0.6884648915617356
  0.4217465172867811  0.0104848059191383  0.6463272876495086
  0.4341660971492694  0.9641727399416018  0.5436283470513363
  0.3537259853093218  0.5988961075812773  0.2739738239212200
  0.8588285478384088  0.3632829887297628  0.8818307874982685
  0.4108940174401445  0.6598674036807127  0.3887339151548366
  0.4273043179633921  0.3417371592018715  0.4572695777869168
  0.3514658384446258  0.5835294429805864  0.3329369275814767
  0.8603948723126187  0.3315167838789345  0.7749866860902666
  0.8107663056981643  0.2935847415795556  0.7098935467006635
  0.3980519311530403  0.5054654823161537  0.3183900034251593
  0.7126116269448867  0.2511986194667105  0.6857422018547625
  0.7017626762875736  0.2623405553902201  0.6243520286320337
  0.6627948612606964  0.2127072606221585  0.6208278455343301
  0.5938362448408716  0.2362302343751327  0.5405115632553942
  0.6850338551536038  0.1553471962370345  0.6355041518615967
  0.5001018343390389  0.4589106761412212  0.3126910283156632
  0.5497188119443515  0.4282466200277690  0.3403410748742320
  0.9930136454139792  0.4545148215043550  0.9092322855224921
  0.9330490446989281  0.4618200548536394  0.8877143517486371
  0.9612531363529808  0.5272096779915748  0.8306794622369068
  0.4860169246016080  0.3215954368442624  0.1880158090790057
  0.7358568792103063  0.1928083339598607  0.7022233649966699
  0.2128188661767192  0.8312628306732912  0.3362573122084748
  0.6380837722362621  0.2479932982589252  0.4372432152014147
  0.6441270039009507  0.1142907643899320  0.5637182288339276
  0.7420074289991687  0.2633533600143647  0.4105869751328036
  0.7333786509530388  0.1587797992643940  0.5976391832093603
  0.7928856354845248  0.5034337070120443  0.7252097048686619
  0.7472276478851642  0.2129401218461154  0.8692420452165449
  0.7683312283746349  0.0345269603574751  0.3293050716143675
  0.8680559262545976  0.1311614058031855  0.7011331023709062
  0.8264112325134146  0.0481730942910549  0.5930924590107696
  0.1901577052984677  0.4375491948709468  0.0352886072880840
  0.2342303380775207  0.3939765020880979  0.1254245535431198
  0.9336755431997782  0.2775055043985196  0.7508912325892043
  0.6912780012632380  0.2182764973936647  0.4619310833991402
  0.7059781430990487  0.0761121330210294  0.5385928153700879
  0.8553038847626068  0.1435509356307631  0.6413640087491217
  0.7535551726119116  0.9994544910284424  0.5283350392196952
  0.1915326702350766  0.4884151362970855  0.0787049526043056
  0.1427741990411924  0.5678079373588443  0.0989325672095434
  0.4744082644706504  0.2295852792451731  0.1000976103552942
  0.9768921003598171  0.4149942467980718  0.5671392346134754
  0.8456435724259629  0.2233999064824337  0.7883207775230177
  0.4690360430781784  0.1855415796727224  0.0580633585322803
  0.8939831126142783  0.1939273666072219  0.6442635669033109
  0.5194008594734416  0.1538518891107502  0.0825492747429000
  0.8779219391885392  0.1183912523453651  0.7617491546199370
  0.4376158977596120  0.3510675495938483  0.1585470560399584
  0.8892555076521349  0.6474798565657603  0.5061400566855814
  0.5805167918889123  0.2290441820482347  0.1367302903238557
  0.7786238141658677  0.0593952671082368  0.9639469061133811
  0.1930213936926725  0.5228519605940770  0.0160522999812928
  0.7066011848787880  0.0040647132386427  0.8988765052326328
  0.7776242601152781  0.1378613159400341  0.9490679260177299
  0.5005837641558063  1.0233922640989142  0.1882625603997059
  0.9436395494338242  0.2648524255936004  0.8102286884692990
  0.4339212782556498  0.3065637640315428  0.1189183670623075
  0.8861111049425654  0.3938023375872542  0.7188048461574064
  0.9503359144465656  0.4725452101514844  0.5656469099265956
  0.2382923782447248  0.4715711020028742  0.0469034021429024
  0.8686064614046878 -0.0372425846616445  0.9815283728095471
  0.8302910022434029  0.0995980043995162  0.9642622165455151
  0.9820810447309937  0.1816300660007416  0.9518106606724408
  0.9392268795106387  0.1429177075407436  0.8892604504840298
 -0.0070223400905397  0.0805955317150214  0.9660460341969950
  0.3019893616591890  0.0956359555696660  0.0261692717051907
  0.9288934209276599  0.1565343351528920  0.8271003692758593
  0.9114501600552146  0.0476076948663479  0.8421923688307428
  0.3160354942037318  0.2653095678444854  0.0389846498639992
  0.5055702413242724  0.0613593896498505  0.9864438473541760
  0.4088785162317302  0.1041981755410862 -0.0002123206615060
 -0.0003049858043986  0.7988785446905254  0.1537209939546954
  0.8071668937668081  0.1411962268853424  0.6780725226996129
  0.5197818936893785  0.1384615555893641  0.1430241544612897
  0.9484887763577982  0.3843553157017652  0.7395332952939985
  0.5649429054464468  0.0774955245057401  0.0619637669548263
  0.7066396021435407  0.1378834795727889  0.5293009934581051
  0.8294457685698728  0.0836485954375913  0.6964643613092657
  1.0056591411529372  0.4098480383097952  0.8642399477060945
  0.8813077856338115  0.5253534172047393  0.5879561884210445
  0.9889316897532556  0.7262077669095823  0.9070518085027943
  0.9001477801482429  0.6689386938605435  0.9320422401709519
  0.4607131232900301  0.6290702437466722  0.4144311943520848
  0.5620594458655449  0.5680165349370920  0.4721202136618917
  0.5070472388227178  0.5509887941997758  0.3991664821102436
  0.5072345648541992  0.5370307647081989  0.4567748202063314
  0.9141422444048196  0.6087238071010832  0.6944233206190925
  0.8203950415978789  0.5676940816989197  0.6668333326084144
  0.6042165068837546  0.4433324006924298  0.4086184780429786
  0.6112396100147224  0.3376962892842596  0.5205550691982014
  0.6401290563758173  0.3110781813803500  0.4204864659936798
  0.8646848602112123  0.7189355025446388  0.6883006783384095
  0.6881415757713670  0.2334234041057270  0.4016249128143435
  0.9120425360806836  0.6898692805443156  0.5457675441428107
  0.9052153243202253  0.6218194084193601  0.6344124108201905
  0.8292019554628683  0.0776421598889022  0.2720921925276666
  0.7741534612500921  0.0801496494815452  0.3724146347684454
  0.0461580609688990  0.7392717514591296  0.0715478886457536
  0.9561538066254284  0.2198262867059639  0.7678803328687970
  0.9660602430007278  0.1736462664892820  0.7237310216782399
  0.8399810451448179  0.0711097967118385  0.7579823566648529
  0.6941239001344283  0.3287852923123519  0.4896965496319304
  0.9967614568594620  0.4220894630434840  0.8039752465088312
  0.9379783466177517  0.3966138709466758  0.6796951458179910
  0.8380310767541124  0.7069168369421873  0.3538876019904253
  0.9712510415048339  0.3261377124158186  0.7559003535388057
  0.9105492445810268  0.3369487543625578  0.7346461068386605
  0.6067115511692063  0.9893043421321277  0.1118624014922112
  0.9818796836892369  0.2464596222493168  0.6038221478734370
  0.8009860830105169  0.3058287834765060  0.6487852730183632
  0.8506253770053885  0.3090148841036011  0.6084491429315376
  0.0568714686944861  0.8803547295749695  0.2099979534426800
  0.8175657532469038  0.2113928748717937  0.5610961035324282
  0.7462576546448223  0.2373215344696532  0.5334419535036703
  0.9740297592718780  0.4813813052184000  0.7868184774742474
  0.0451351706112134  0.7253306467291222  0.1347879378932525
  0.9873063279957137  0.4005486960722897  0.6342434100692684
  0.1491651092558940  0.6779045913202317  0.1282190282060629
  0.9506318627917628  0.3504101055779483  0.6342016471838053
  0.8476431977617184  0.3187235817506350  0.5485501560669349
  0.8472020995482867  0.2625780464248055  0.4457320459757002
  0.6254231162240197  0.1526826943547449  0.1187146464615252
  0.5049594818840970  0.8475665841999233  0.9321436393318853
  0.6010926955692993 -0.0060747159814645  0.3530685679803475
  0.3887813698515459  0.8838134680303675  0.9986124563323123
  0.5430838576036559  0.9181620381452809  0.0647682349585909
  0.7334668084924024  0.7350382755401615  0.4254502617710080
  0.0978868396876059  0.5855398291994681  0.7483205262235201
  0.9874071891728113  0.6171087675023109  0.2021460905629722
  0.8961626109917203  0.7990718575466235  0.3472318526301667
  0.9271807605760787  0.1840818174598338  0.9319869560624512
  0.9731928965131785  0.4620577790253863  0.3600142991976141
  0.4727714923612185  0.8157211377514230  0.1421566390995473
  0.1007948153987973  0.8721567891462934  0.8992657034340132
  0.4139613226080487  0.7398640272092915  0.0876758913655960
  0.9525006047579452  0.8540594538111144  0.0696738270812692
  0.8480076989592312  0.2910369611451279  0.0947582067653033
  0.3725789725894360  0.4868318861217457  0.9229071535713205
  0.9907150838530699  0.6475221291837999  0.0788911438929687
  0.8842032650464637  0.6308097341414045  0.1078826967598323
  0.0281418650148886  0.9196562442925343  0.9729536523695907
  0.1194731823191206  0.7954453401475827  0.7463733862550096
  0.2970705524405733  0.9990403819540863  0.1636941056221826
  0.6898068561417663  0.8416495317609219  0.0886984492619549
  0.9268694837215949  0.9260069544786930  0.0071390972590255
  0.9443942919923354  0.7913073286792209  0.0820864250283367
  0.3133504330576389  0.4618371983520997  0.7924666093909869
  0.3126820672085994  0.5972289169724980  0.9155661399616464
  0.2042847466000910  0.9130951884404469  0.9316755465979267
  0.4602780830899635  0.5435600550552987  0.8833635981146309
  0.9364850076131407  0.0777266002066335  0.0716451672564550
  0.6884834859329136  0.0256980048377505  0.7718504016101614
  0.9267205655514458  0.2278882663913316  0.9759813969657882
  0.1933812206410009  0.9264454091153106  0.8668432743887460
  0.0367583362247733  0.1200175248592753  0.7013187999443423
  0.8901626852796830  0.1533286764337245  0.0926991843631637
  0.8462645764037119  0.8439143770100821  0.2619553380693769
  0.2041564497217527  0.6708545754568764  0.0364624705555897
  0.0904151644977291  0.7579028111056679  0.9661570189689495
  0.2245222817885753  0.3102409962014938  0.5045403606749062
  0.5150176417269978  0.6165275023292816  0.7574781912728491
  0.5200487497190305  0.7380970141084838  0.1217377131829857
  0.8762921433073368  0.0026837823936397  0.0207481833315424
  0.8794054763480439  0.0779980944097305  0.9401728394151697
  0.9375565246130855  0.0947344203043433  0.0108606610761690
  0.2189975949254339  0.3840744264152007  0.6589626746072700
  0.4199480700105497  0.5932299076132391  0.6379807797476312
  0.1846153691583649  0.9520505821251593  0.9720441521679677
  0.9253508374545755  0.9536212106744300  0.1087554824906955
  0.3959530479479676  0.3978820503891273  0.8326579652443021
  0.2966954269448224  0.9057636838811310  0.6812534721793615
  0.2858790655967728  0.8637834737543698  0.0284107337744493
  0.8408225247006654  0.7717199558427620  0.1122267703645932
  0.3063808664605979  0.9607760638745442  0.9609006696004601
  0.0002370646441943  0.2144325218506032  0.1135457249592087
  0.3722605672786332  0.5566655048113819  0.5751779343674489
  0.8877229658578458  0.6931146148581162  0.0925616611166847
  0.4536758274381598  0.4913557865021573  0.6126168946372529
  0.6645391762346275  0.8522619622786306  0.8748403199380068
  0.0284605637650398  0.0340314620925405  0.8861724777972450
  0.3654247166680696  0.6025242024403336  0.8757673447724960
  0.8196198011240329  0.5007924429502271  0.0114425686563434
  0.8169032184647734  0.4264600923956892  0.0879713044612814
  0.1516174039576923  0.3047551985837277  0.8170692280460099
  0.8371833247556257  0.6785089052515958  0.0218482761961409
  0.9550910960871117  0.3090750075761003  0.0673626822343368
  0.3328045324951944  0.9811397658502069  0.4479486048917937
  0.9656248208495897  0.1408236574542645  0.6130364513352997
  0.9068038305310551  0.3232092837089769  0.1021143080004696
  0.8956901717225479  0.2785530332984349  0.0646844308483564
  0.5786679577752276  0.8292341835201269  0.1171119993356654
  0.6759179030402095  0.8002659381953727  0.0482343165422173
  0.9946822899929944  0.1688615165146794  0.0696096458431660
  0.1133706680818849  0.2874014689795519  0.9163664367479735
  0.6536774762427494  0.8789049979405571  0.9831555966369303
  0.3826661381803628  0.9695510046308246  0.1801867693695174
  0.1987426073283002  0.4974650080763470  0.9133755158782838
  0.1411593764615058  0.5037264655712916  0.8916232203280295
  0.1257051054615504  0.3949691779031509  0.9093239999844027
  0.8239890308123777  0.5368693164422368  0.1147744429392901
  0.1281720411135017  0.0754234880266886  0.9098501358739531
  0.8743074384439262  0.4760617641905611  0.0354726564119037
  0.4351524468644361  0.5853062966960276  0.9638308747239158
  0.1993642971656474  0.3436062756811782  0.8870388234492682
  0.8159992515183860  0.9394600920503732  0.1399690564446347
  0.2949360561294199  0.3873893980298778  0.9131545909233133
  0.9835267690715698  0.0011167016440255  0.0514448149659523
  0.0111765848302893  0.3042184082285015  0.5479321430870310
  0.5413837324938484  0.7127155112152349  0.8028293306991162
  0.8463039478315217  0.8350940287022528  0.0964690880385984
  0.4846453138225675  0.6890534509081194  0.6771453587108938
  0.8947382211596095  0.8202537987581157  0.0602287117115826
  0.0178596495308312  0.7830889997810816  0.8199455186145368
  0.0589149731839333  0.8026115059102995  0.7206680726140722
  0.4206457654083032  0.7269564174077355  0.7590451024174975
  0.1195685413225225  0.3055307624090062  0.5258148580601978
  0.2400290205448565  0.3266892824101581  0.6767508934768812