Cr H  Ni
 1.0000000000000000
    38.6687825624360855    0.0000000000000000    0.0000000000000000
     0.0000000000000000   38.6687825624360855    0.0000000000000000
     0.0000000000000000    0.0000000000000000   38.6687825624360855
 Cr  H   Ni 
 1596  50 3725
Direct
  0.9910145207600245  0.7886854198285556  0.9810207385684430
  0.6303368814423250  0.1856371545444255  0.2259096593143073
  0.5708104233253048  0.1396154423082387  0.2796092755284120
  0.7505342669268747  0.2702256783993391  0.5822935666405071
  0.7259692316646261  0.0920995804161907  0.1750052918097536
  0.0204270488108874  0.5182726311212957  0.8490342457465667
  0.1155892008957073  0.9212254864783775  0.3933361883121391
  0.9636893874760315  0.4934646151653895  0.7267802793418993
  0.9249116489968524  0.4432231563335576  0.7241145131107322
  0.0091175772641864  0.9398372020450116  0.2890395279223784
  0.3092739070270469  0.6757540388547446  0.5089659487622290
  0.8753137796673467  0.4050940819992214  0.6592305568018862
  0.8643552366900150  0.4506364439522711  0.7037396181823121
  0.9258242793898942  0.4088986750217460  0.6211024101650890
  0.7669390681437473  0.3750859620133320  0.5710433643312197
  0.2094384882346527  0.7850262193011517  0.2896629941317091
  0.2020231126330985  0.6775775197679630  0.2600877108941188
  0.9524866950760377  0.5051690149164193  0.6674225591128110
  0.3007848472605214  0.5840196038231146  0.2055254762467390
  0.8450588928588549  0.4314306657309890  0.5385193312739615
  0.9345371515601320  0.6649487380601020  0.6657638547723533
  0.3000411687746758  0.7416821224375791  0.7146876538887336
  0.7341403270644713  0.7696273698080919  0.0735943926306518
  0.1863555152785164  0.2034604644134081  0.7908377838090822
  0.4687201670146612  0.7642822628087887  0.8242481038038185
  0.5353642588472738  0.9103543477503956  0.8739017146606379
  0.2587664135332216  0.7572185267491491  0.9219804374456254
  0.5453842188292454  0.8660649496480159  0.8323842851577660
  0.2950208592494856  0.8062706433465745  0.9248323551103695
  0.4374304043390452  0.8348861608355657  0.7448090618812108
  0.4970072475430888  0.8276600475083616  0.7658055557596777
  0.7902042869023108  0.7988335195892547  0.3137359308078733
  0.2974552907330137  0.7962976383855890  0.9826310553456432
  0.3557785672530567  0.7150321586130012  0.5735490224955967
  0.2139776272308293  0.8722509773799914  0.8851253881213558
  0.1449171716481339  0.6750720681141775  0.5526093993284598
  0.4032644211375634  0.7520503516931238  0.6390888844970344
  0.3642834305703166  0.7026726939923823  0.6336155347424092
  0.0881499514672514  0.5980051791499837  0.6878153759306322
  0.9256008613845129  0.5972777208490639  0.7540912437892645
  0.0113430329160688  0.5308852863046065  0.7894040643899152
  0.2270443185753319  0.8259779665795115  0.8408371140676623
  0.2607043018942081  0.7244609450722798  0.8160276808227899
  0.8364145149507859  0.6910889960641441  0.4150064032766842
  0.6003948306891298  0.8941426766203173  0.9659559250677440
  0.3780865891478724  0.9451236385243786  0.9791123203969843
  0.6077010737629082  0.0143617700365057  0.9801626738186462
  0.0136845151178786  0.9560463136411332  0.7082108957458159
  0.9347629902573115  0.9690199157132766  0.2667540443979626
  0.9623783761390940  0.8988668880859931  0.1163866656955703
  0.9021149905249887  0.8208118456862090  0.9693033401662339
  0.7622099471979801  0.8941589031401087  0.9011382936826053
  0.1243862987235328  0.1762808913122723  0.6623849291317212
  0.6142937849360655  0.5387323796941703  0.0398023246208722
  0.0866770328134024  0.8669786230315782  0.6667897479017313
  0.9759480580331331  0.8925287402012219  0.0176677743220844
  0.0595191054849463  0.9835770377034423  0.8664226144605638
  0.5687677618351298  0.7758495367579816  0.7431020538863208
  0.0743892200205597  0.8967386328570901  0.0660276001034025
  0.7465652768268614  0.7865732554204442  0.9136640665247192
  0.2441019202605827  0.9323910936867499  0.8282015599850878
  0.1221212188855892  0.1475927276749147  0.5531990929867694
  0.5299086165878522  0.7574996993693913  0.8446247232646991
  0.0863309128988964  0.7672005454748041  0.9056739998895541
  0.9829637212745670  0.5376247527854755  0.0553971221647546
  0.0744908844574947  0.8130572375770991  0.9441513418905594
  0.8110822862946344  0.3993328664056219  0.2124529409796898
  0.6723131032012345  0.6142754764327637  0.0917606749896504
  0.7677850868381562  0.4903121553272447  0.1657721618651676
  0.9521224305478803  0.8638131445207884  0.2330277393237251
  0.7329832790282473  0.3006728405097747  0.0476628475072175
  0.0484289363983001  0.8146947257286593  0.9901841165611474
  0.5453470972333574  0.9787574853812280  0.2816265984456613
  0.5752678280516464  0.9282035000929501  0.7715938409278928
  0.1457040007999751  0.9082024574319379  0.9684902137267416
  0.0769276593016110  0.4563007909738309  0.6014697188232850
  0.0789308350367503  0.6110139229856245  0.6271197334123851
  0.5685396690459170  0.6131848693823572  0.0609739934243301
  0.7929894852620991  0.8275788885835035  0.4223320610339683
  0.7231543131585599  0.0782572610172844  0.2363118469670160
  0.9453144834873096  0.1848967521239346  0.1025427572463379
  0.9641738356991510  0.6295440205278914  0.8498908920994029
  0.8920254304772819  0.9388001003862276  0.2564941888403787
  0.4726630173195178  0.7983732207913736  0.2021129811535851
  0.3137498116978089  0.5130096556595626  0.5102059464022405
  0.8226078060424211  0.0452043182633268  0.9272732899925772
  0.8174215744558636  0.9566198468914441  0.0781081654956177
  0.0021951052563487  0.9818453276850154  0.8935135993980593
  0.6692936158465900  0.5838221191967093  0.2170009779164833
  0.4961864726382101  0.6444482261595348  0.6358266698835076
  0.0473734281038763  0.8465945946463084  0.7648604256206930
  0.8989244847698896  0.2611734669188023  0.1226055651361694
  0.2512820988226894  0.3157984959780404  0.7373000166270531
  0.5003282961268388  0.7970486779340624  0.6618071939518881
  0.7159685105471436  0.5058901881833169  0.1997318819777344
  0.4318200590444205  0.4831730683970359  0.9396004758489451
  0.4049312578838555  0.6195135914721006  0.7756308051899965
  0.2656943212315780  0.6589737636283897  0.6059927255551038
  0.7820829873570988  0.6770902261075968  0.1157155965935424
  0.8944932350732648  0.7862587347087733  0.1808622497210012
  0.9485867897226332  0.9697737190106371  0.6946453954094750
  0.8800269469395887  0.5382182341394818  0.0190524920960367
  0.0702209939368223  0.0523273485980681  0.7813950751240222
  0.8004637567217546  0.9196814732827895  0.5082672658738587
  0.9073277088676279  0.9539740890750003  0.4219288552083887
  0.8987688350159759  0.8311795001864860  0.4510095071459065
  0.1742707789838333 -0.0017937105058659  0.4501559541404673
  0.0649478765278382  0.2492369433890809  0.8546446952440713
  0.7067489771354126  0.3980779154774721  0.1752793020311626
  0.8186014069365535  0.4602990323844854  0.1932264677192575
  0.1215292435592250  1.0108455091456923  0.4840619329595949
  0.9111440551844531  0.3528868997868188  0.2075325244510710
  0.0491461814037408  0.1409501680411568  0.8704863709971772
  0.0327800888290227  0.0138031420101373  0.6822393923311337
  0.8014875429819486  0.3223780667450875  0.2947208925469557
  0.8566694947640715  0.3367413791174457  0.1351601210829521
  0.1307693135858447  0.0449265945743449  0.8035060418471404
  0.7186512481711012  0.7862558095123443  0.0125537646936317
  0.1188037467678064  0.9812617491662831  0.5605185846267232
  0.9540414109198662  0.2759128823771294  0.1932683271699178
  0.6672810184604976  0.0307628642591321  0.0567467842077759
  0.9489175726535667  0.2137665705365213  0.2095913512258680
  0.8399760045516697  0.1845268636899654  0.0661406999778838
  0.7346346271030555  0.1593095502068670  0.5979772309303329
  0.0872871883052482  0.1600539027742919  0.7651572844930919
  0.7237505616674853  0.6008427871867769  0.2886707150278849
  0.1188286272700642  0.0898510115646624  0.8465685550053693
  0.1633359838033558  0.9960088313964365  0.7866434536260556
  0.9000806195894611  0.1693896996939136  0.4872939716479849
  0.9584689742650566  0.8384397371886726  0.5792654311987311
  0.0974376719958293  0.8668178381600865  0.5772465079181870
  0.9488617406950218  0.8086028414614859  0.7627823164670875
  0.3425486388466067  0.3579049814735623  0.0562215227071249
  0.3318588174160885  0.2865337021044783  0.8826403473505404
  0.1599963861777013  0.8138739986289719  0.6479047309586169
  0.2472448918661639  0.3489683967596739  0.8459151186809307
  0.2341597565294686  0.2418244385890200  0.8548204716056798
  0.8360789599524484  0.7392944253357693  0.0067336058222930
  0.4761932944908366  0.8436418460344287  0.2477961981250386
  0.1365958949879308  0.1975325894826127  0.8302272509549584
  0.2235500028831362  0.2527046554733518  0.7942171600294369
  0.4310291887882572  0.9212941122386090  0.2663844568163384
  0.0647148194399155  0.2167482909696470  0.7476533272094170
  0.0192145201175722  0.3672663117126749  0.1792197730852844
  0.7348295224772495  0.7681770469992707  0.3023170647682470
  0.5965347771831148  0.9614783762262715  0.2456582328274063
  0.8609133191664872  0.0133722075056995  0.5039679013156393
  0.5981712977974996  0.7868624022449798  0.9693518207696762
  0.7419902960177022  0.2636119782768302  0.4106327423916795
  0.6459864674503560  0.1137462856435081  0.5618200954075560
  0.6128341081882869  0.0646667840919891  0.0232108955650320
  0.7469366128225559  0.2129339662554592  0.8691966053573252
  0.5835354074855102  0.2616646559060682  0.2422643526848648
  0.6507733143131297  0.9233199296982043  0.0328076971611802
  1.0047965904455869  0.4426633670275409  0.9720346104549337
  0.5481369341560254  0.0892462090231162  0.5416935136566273
  0.8967030414796643  0.7964067427650586  0.5719580308964090
  0.4332733801349881  0.9987291602628272  0.7082399884294793
  0.9960722959765237  0.1523957612567654  0.1289829244009030
  0.7318041301798086  0.7063923032906210  0.3184042013847725
  0.4652089067977825  0.6110876847840837  0.7973318297677003
  0.7928831820204246  0.8062640039440475  0.4869031628691592
  0.9764395128235077  0.6808061254636543  0.5675112269242190
  0.0469838049600637  0.6591095561596084  0.6408028408885693
  0.9301618632299317  0.5378560210575410  0.1484180505490174
  0.4022772880881749  0.6532645752313999  0.8779969758923556
  0.9899899719739497  0.6319396553149876  0.1416671396612568
  0.2123264770246725  0.6857038605149365  0.7485039067561049
  0.8829817082008717  0.6142809956308599  0.3948132600908585
  0.3934212451064715  0.6652162224925774  0.8178594476878075
  0.3326880900094934  0.6720408088390930  0.7965696961244578
 -0.0085330085378594  0.5977152017202405  0.4927741014898407
  0.0751172139331872  0.6250069199871547  0.8272565781547907
  0.8953132041013380  0.4116378439196342  0.8863441362916011
  0.6383372615177516  0.2478353580682600  0.4375052558216828
  0.2125725630659532  0.8313956241673488  0.3375723805563395
  0.7374883470833655  0.1934839262513668  0.7023370452819644
  0.4803982963010491  0.2762458357233133  0.1465765902564433
  0.9106356070017180  0.5218644039071517  0.8703265254651557
  0.9332588381282789  0.4615728184278571  0.8873730413251980
  0.9931603633005706  0.4545668521095177  0.9088056521578401
  0.5520359573615333  0.4448271667193130  0.2780088523730860
  0.5002746117311194  0.4574067904553605  0.3127277352490955
  0.6858120821298490  0.1550127973190958  0.6360764284624876
  0.5947547790041955  0.2369790003563648  0.5419513149872163
  0.6036071870044222  0.2209803790947156  0.6015595476000014
  0.7022830377146188  0.2625246635522696  0.6237412048432679
  0.7130815668840847  0.2510363967744458  0.6857178294534020
  0.3979477333910901  0.5051695926623827  0.3186443292061036
  0.8105370452634664  0.2926608193450483  0.7095083385882147
  0.8597546733257853  0.3316744156357446  0.7747766053200978
  0.3515908217738369  0.5835838745918388  0.3331723928045320
  0.7496047185428274  0.3338015795661403  0.7955075503702724
  0.4009718064984434  0.5195994489596820  0.2595720843578717
  0.9079069597207166  0.3671556857063068  0.8427666236517889
  0.3537354603907538  0.5989477971598232  0.2744944256934679
  0.8585362087450509  0.3630311283691813  0.8820780700104041
  0.9670769240186767  0.6135107437947214  0.6507457274391031
  0.3976173579957661  0.4733646265045854  0.2161870649957994
  0.8996004334391702  0.5916050659466158  0.5230874345255637
  0.2345424849511480  0.3946956910179984  0.1258360487494921
  0.7736509278018627  0.1205619457814237  0.4856452610750733
  0.7549215221707904  0.4534771737913653  0.7221815543511466
  0.7893614788868693  0.1854033894031256  0.3931838629831143
  0.7285951679330047  0.3588607788943780  0.6708015319105729
  0.6459237829889891  0.4224486198991580  0.6341789987142958
  0.6630928768511954  0.4546692694308658  0.4780742998858859
  0.6796814446433982  0.3199657601033133  0.6039193139964836
  0.9833772103673597  0.6048302157054186  0.9729585300566340
  0.9174254975681880  0.0622315875164134  0.4498393606699935
  0.8558254276391138  0.6301854388287207  0.8674161886489076
  0.3196163161274125  0.8330932690442689  0.5355306149940690
  0.8708192276149626  0.5862779399926280  0.8252865835170795
  0.3737974074516661  0.7794367684042303  0.4549844625890944
  0.3572604971239178  0.6451811412402088  0.3172680619297993
  0.8625102972663461  0.4839030187348956  0.8078519990098622
  0.7091351765867996  0.1307261389295349  0.7593669593772159
  0.2132106471378554  0.8133495920289108  0.3951926417559139
  0.6375824017024345  0.1488174348578429  0.6759458922268752
  0.6947717545493123  0.2758719910586385  0.5625472807321406
  0.2590406820644348  0.7549125188229548  0.3138738007302918
  0.8740680509271014  0.0977644571268640  0.5953261289809740
  0.1908478992735618  0.4379920858083166  0.0353693079360957
  0.6940766033909147  0.3440447985325700  0.4298548718735943
  0.8610419888767457  0.5161286300355822  0.9118552581294750
  1.0068103110066675  0.5641770744710978  0.8926390771062763
  0.9544870518930815  0.6267458170539197  0.5914375564504130
  0.2695288011038814  0.9315675456308885  0.4956221234002712
  0.2183786678175780  0.8760966671171538  0.3881253415088944
  0.7962469853456208  0.6008923884983467  0.5413291797653836
  0.8413730873503947  0.5078270242603004  0.6857127270509715
  0.8909382548183871  0.5492939528598753  0.7485401348077055
  0.9609557185833941  0.7342795319917770  0.5510082727380208
  0.7973236816264444  0.6058130380178607  0.7421082505263545
  0.9537187987240778  0.2031827212967226  0.4999033963066535
  0.7275775627201161  0.3898833665312658  0.7788721472926801
  0.7009117486441908  0.2949098719728686  0.7302144190094945
  0.6410512514350581  0.3024624071461423  0.7077705494682323
  0.8128830978957216  0.0911791320056035  0.5140746805002737
  0.5908216188098430  0.2652320632228470  0.6417745192338374
  0.8628880092798893  0.0309360109836892  0.4419728445727726
  0.6406123157210192  0.2714779713720574  0.6017492257040945
  0.5795228272909657  0.2798867929286367  0.5783596140251512
  0.4537834572582102  0.5202436806099970  0.3920635974138117
  0.8985912813385176  0.6614797531161570  0.9885900058945423
  0.6649650011864543  0.5196708801571092  0.4624012083520829
  0.2690919114345028  0.8854615129373465  0.4563724500339499
  0.7924752683108039  0.5037735419622686  0.7249886359801625
  0.7935179225928598  0.4709226522538290  0.6229246398994055
  0.2491783754227419  0.6316796664809811  0.3505168136698105
  0.9890487922750352  0.7261116852691702  0.9053485145785548
  0.6246906478798185  0.9657760014104925  0.8358134610082522
  0.4627477574315662  0.6436574283507503  0.3547557012991959
  0.4501774233132825  0.4898683806057604  0.2848471103322695
  0.6686518509072696  0.1562801818441177  0.9631508298466718
  0.7397686242919070  0.0625342219426077  0.8388653828258452
  0.6906939552553771  0.0579409783020616  0.8783404129740601
  0.4471570826086784  0.4609201143540043  0.4055226446344690
  0.6194122055464443  0.0435307877043542  0.6860772861802948
  0.7814712440963835  0.1666659284690333  0.9950139636446301
  0.6938571141972130  0.3291176877665994  0.4896110458227820
  0.8810526543863887  0.5256395711361558  0.5876902269839079
  0.7991717081401796  0.2486363662266214  0.9329748251722840
  0.6364660782152640  0.2162570428416438  0.8847869410227814
  0.7196301073763888  0.1185628573069466  0.8204960492518040
  0.6376077663996357  0.1843746533057942  0.7808013522057408
  0.7079819056431028  0.0981757686764971  0.6526017198220871
  0.6790446574468378  0.1556354513288553  0.2525003275668720
  0.5444473112823024  0.9939628777152572  0.6884251027006142
  0.4227075638048731  0.0095791955460778  0.6457213947649448
  0.4343482408750532  0.9641415000309357  0.5432951337214834
  0.6892159230060162  0.4421512936980345  0.5300992714671071
  0.7171527403574934  0.3709333999486368  0.6083536748223843
  0.4106903350637404  0.6600982777757908  0.3888740111215306
  0.8300062458926654  0.0833575019485416  0.6978163360052916
  0.9007290328987280  0.6692217563783486  0.9313153344223565
  0.4609663696534753  0.6293750862584706  0.4141898634195444
  0.5618733741333722  0.5681207277779488  0.4718243568156720
  0.5072240099227061  0.5512428155325405  0.3987485845195556
  0.5070606022804537  0.5374230235896975  0.4567378607658216
  0.9135417703349542  0.6084910826275423  0.6947788238281101
  0.8198579575361468  0.5679951079926039  0.6663095379821617
  0.6040711729789162  0.4434412764934094  0.4082350827192310
  0.6116237847632741  0.3380419968823645  0.5205420412233143
  0.6401127162207634  0.3116022202506938  0.4203050882529168
  0.8636638024204597  0.7198941519774426  0.6859832539350419
  0.6883518997419416  0.2336296909304601  0.4014559252676544
  0.9107213351291067  0.6902006400581561  0.5442594203643202
  0.9040656089398629  0.6226980012913890  0.6341784528606264
  0.8292219317635025  0.0777637203575045  0.2717318100915281
  0.7742967669563340  0.0799746426790441  0.3718610354332865
  0.0474286124182080  0.7399104316747311  0.0704426733438761
  0.9562532605053055  0.2193142325520955  0.7681157703900334
  0.9664809217226871  0.1729888868507045  0.7240769469291279
  0.8404713504082669  0.0707739911690173  0.7593205283061967
  0.8677360256314498  0.1306739866346421  0.7016159797838383
  0.1925227889804051  0.5221969025567151  0.0174048537010071
  0.4276038354944706  0.3416705529023175  0.4576130460545238
  0.7683466757200627  0.0353623441300873  0.3293852251271437
  0.9502332023320557  0.4728752313421379  0.5654152046390039
  0.8292721628052411  0.1032670692011282  0.9637617954775767
  0.9823582948711125  0.1826079598319970  0.9517888095688062
  0.9391531138333896  0.1427391074468977  0.8892117002346616
 -0.0082488525613686  0.0808358038903421  0.9658393644187000
  0.3029187282252273  0.0953042491858407  0.0255401168816198
  0.9289155166929732  0.1559735626323696  0.8269008510538451
  0.9117792378997850  0.0474291247817025  0.8422883825196474
  0.3160877468841219  0.2651709535425495  0.0388276929285933
  0.5013601266997455  0.0571749752536680  0.9795837297233516
  0.4105451189985826  0.1065378298949864 -0.0004265522989552
  0.0082001408998775  0.8584894183385345  0.1301452279061042
  0.8071411229926672  0.1405624085142173  0.6787613491270628
  0.5195242007090106  0.1392046846516385  0.1427091920216231
  0.9482629976718628  0.3850532159902521  0.7389189428595889
  0.5656713027147660  0.0781962317326774  0.0612200658208495
  0.5006838629475999  1.0232847103590377  0.1880729843285288
  0.7067800504351139  0.1378723585510690  0.5299353257440799
  1.0056739558749599  0.4101493996155647  0.8638100861989568
  0.9969719155423775  0.4219200002912549  0.8036442256667846
  0.9378693690657893  0.3972323198417290  0.6793100474454730
  0.9709478452208403  0.3263201319540311  0.7558420030781002
  0.8691200123186766 -0.0378271898166589  0.9813319376278493
  0.9223118456672054  0.2891214632133415  0.6916323752096586
  0.6054339299120165  0.9873236234761986  0.1134759365114415
  0.4302534191256048  0.0545792234549859  0.9611317631990907
  0.9826195506097470  0.2468402060567833  0.6042546237440256
  0.8011118155178728  0.3056470400503737  0.6494437423676770
  0.8730154781021681  0.2514629303247515  0.6267591989408626
  0.0569521387430485  0.8802503730473029  0.2099310725360840
  0.8176931234118128  0.2121637430590375  0.5595680954059107
  0.7975345612213430  0.2164407801007067  0.5016788649338656
  0.9735326868858268  0.4812569662821241  0.7862017596583791
  0.0453387288013435  0.7250905626476930  0.1355198226788573
  0.9872848681467965  0.4009854635058033  0.6341632905043443
  0.1497622981062391  0.6777952812653584  0.1293212380640281
  0.9512846223180268  0.3512659153332116  0.6343309219119352
  0.8477094000459646  0.3189139830433452  0.5478290198065670
  0.8468390256108322  0.2629275663355994  0.4453318417032668
  0.6253707545293575  0.1534602707127227  0.1189343166575600
  0.4977496618332628  0.8601470573541888  0.8709944094315509
  0.6013619512169051 -0.0060383177154431  0.3527887469235403
  0.3881980789418518  0.8865063519577164  0.9980415330823283
  0.5402682167285651  0.9180122413198882  0.0630134647437000
  0.8380472079155497  0.7072768540679267  0.3537382154205810
  0.7335191058257743  0.7354052564747614  0.4254885011265294
  0.7424414865263493  0.8586794002449160  0.1604718564402455
  0.8017035123158792  0.9360959821119174  0.4490172530719608
  0.2392114699647740  0.4719313769476236  0.0469283043586315
  0.3425696566291721  0.9390397642559338  0.0842459665383749
  0.9332595240136998  0.2769998965774506  0.7512288567064811
  0.7067924727529384  0.0770823510023905  0.5393079909381656
  0.7852959228943683  0.1975189570003545  0.6613034553415734
  0.7601995762546742  0.0611861356999411  0.5064543301758849
  0.1912090607273093  0.4884769460401762  0.0786427500004916
  0.1430420476423249  0.5674948254956229  0.0987792119388524
  0.4744098630529762  0.2150927247560128  0.1627017380186535
  0.9767773020384880  0.4153401484517982  0.5670655910986029
  0.8453269669358244  0.2228350723126775  0.7887234339092715
  0.4697823462864700  0.1847750281723370  0.0577568220027064
  0.8947325959829224  0.1944012259030835  0.6440746363206480
  0.5199533605117828  0.1548469767227394  0.0821780266767658
  0.8782640542264925  0.1182747026066604  0.7625908786821114
  0.4381005692837150  0.3506996085940460  0.1585919513363669
  0.8892148738085931  0.6478925076726082  0.5049130728534965
  0.5811995181247583  0.2299255077263368  0.1370397187535889
  0.7775226196643936  0.0606008222584973  0.9640618350787873
  0.7043551632706354  0.0021679892493804  0.9016650291785739
  0.7761784946193704  0.1381450121991361  0.9478282081072652
  0.9431453589394800  0.2641351725979793  0.8100879676555762
  0.4339105683497879  0.3066329653525216  0.1183950658346779
  0.8868315800617222  0.3934090798632443  0.7180034408603388
  0.6908610053427536  0.2185771787908985  0.4616065216280431
  0.3758204319459258  0.9057814939216677  0.9335355104300561
  0.3444774535915476  0.9759103136106239  0.8547408817713469
  0.3094974624061740  0.5945777866186857  0.6550979102668553
  0.9787402788819892  0.4744031460184315  0.0703469653225240
  0.2330900224741194  0.9772767318292604  0.8713361461498126
  0.1856567250510691  0.4535478529292002  0.5810161165964176
  0.6756923014649903  0.6304350129519696  0.0282871223751525
  0.5190072222438058  0.6917874916147573  0.0784403445747706
  0.5202141974983658  0.7528370176690748  0.0637102660088640
  0.5257984331688220  0.8628314899205832  0.0862496486076975
  0.2811375167450399  0.5310764361219674  0.7124692073742244
  0.2742144942063464  0.9941286392212718  0.7692405397940084
  0.3295944724255210  0.5692257713496010  0.7778600845634572
  0.4172385939091394  0.8639194069071227  0.0537160507190351
  0.3228147477520072  0.4507003253339096  0.8532474436628934
  0.4467504639895364  0.9559609172562507  0.0586806642873093
  0.1978577330818641  0.5727398423904351  0.5101055631991424
  0.1654789848928816  0.6473478691219848  0.6831991165091830
  0.8424828138645534  0.7350711263901312  0.4630903959118514
  0.4869992510896096  0.9350338812848041  0.1014719268783029
  0.3260389810858277  0.8699696204452743  0.8691728653988364
  0.1472155023326260  0.5216887567848925  0.5063289160104464
  0.6956911981996974  0.9193438085075590  0.4744502216181112
  0.2000500039110806  0.5632409210815418  0.5681209132448011
  0.9272481747369666  0.5060716819510318  0.4973017753770345
  0.0976374404937170  0.5853637415838494  0.7485945247355378
  0.3682587309036534  0.7551325155113754  0.9074002201635607
  0.8962342916119258  0.7995102945805220  0.3465671483346864
  0.6252469927627184  0.4097895743990531  0.9699595985940511
  0.8785543156762428  0.5693273707315528  0.3502544099774139
  0.4728094250841046  0.8158304485050381  0.1408522391506084
  0.1009640067311085  0.8723339939595450  0.8993444871433023
  0.4145113238277418  0.7399462207694960  0.0871114993012572
  0.9525391176940375  0.8542553282486229  0.0691439383242405
  0.8482029215233788  0.2914936697263373  0.0946244423495510
  0.3723228527843876  0.4872189892824358  0.9230490936399349
  0.9911943652388924  0.6474636560135862  0.0792121213402633
  0.8847197847635050  0.6315571733957198  0.1076532999561368
  0.0295881790553870  0.9215795050345443  0.9736103898607648
  0.1199858405452052  0.7948956625478371  0.7476961433551055
  0.2973033363439014  0.9988902451029020  0.1641277032428082
  0.6897663330856961  0.8428263838144533  0.0873921897282275
  0.9272257596139866  0.9259377970139290  0.0072680762319755
  0.9442366798006295  0.7909532087639558  0.0813578785393999
  0.3134279547958738  0.4617824512188107  0.7924821301897768
  0.3138455927239655  0.5969384782030962  0.9168053961194460
  0.2039980349847139  0.9137439688380679  0.9303292733036136
  0.4599565818665621  0.5437389218906888  0.8833793723271701
  0.9366139160460758  0.0778244734887721  0.0716842567894142
  0.3240334584972162  0.8726811255909626  0.4154570285341100
  0.5977272066721974  0.3175202901800725  0.9140418615400717
  0.1931651212052069  0.9264401916835828  0.8669899645057736
  0.8905121376482719  0.1535462144860737  0.0930692112574883
  0.8877966601232272  0.6933796666629344  0.0917425710828080
  0.8461843520609009  0.8440401905557333  0.2612276475970260
  0.2060514193623273  0.6740528233430368  0.0371797229606829
  0.0898246910726078  0.7573006061877252  0.9656638982590364
  0.2237623741416061  0.3099280661588784  0.5040018861983375
  0.5149457695837752  0.6163781334995877  0.7575105223010783
  0.5196398784868678  0.7386439088455108  0.1215476674210732
  0.8761427546540791  0.0032018282494554  0.0208181824415566
  0.8781158996707851  0.0780412668274232  0.9406957751582977
  0.9378250564874095  0.0950385706170418  0.0106021335550602
  0.2190837857040643  0.3846863129468975  0.6594164777651331
  0.4197980632132682  0.5929155711243691  0.6380674478246301
  0.1843727926498888  0.9523146066251591  0.9718896243486245
  0.9256450086893990  0.9537065753242145  0.1085460453108774
  0.3958406463393837  0.3976094659323566  0.8332825626627487
  0.2965548679902172  0.9053773526384268  0.6813048696597799
  0.2855417035535897  0.8642224105447442  0.0280849921257508
  0.8409432719952562  0.7721616450469122  0.1111574770230988
  0.3061400708030870  0.9598633385162383  0.9608453481825755
  0.0010152028824987  0.2164069590406459  0.1138805733575887
  0.3721193174841406  0.5562494846882421  0.5753385220771654
  0.0367935602946705  0.1197348215781409  0.7002007418101821
  0.1606787013226652  0.8458058493385110  0.3736809177418555
  0.3194264302032092  0.8294096287033323  0.3705497150585080
  0.0280954836655269  0.0351465446108887  0.8857446737975421
  0.3410836523829577  0.6602475018056932  0.8571057990081770
  0.8193484837844668  0.5011632590567517  0.0113108900311755
  0.8171222232333718  0.4268127040487532  0.0879293673023683
  0.1509401578697772  0.3049977634866370  0.8172964529770904
  0.8369740441432986  0.6787538634176358  0.0214233018427993
  0.9550042475512449  0.3094525939964880  0.0673012628985979
  0.3329714710393570  0.9814144135964217  0.4475370286772575
  0.9660630758844745  0.1396975957645029  0.6184186645621503
  0.9070147375505798  0.3236189679323760  0.1020865618627505
  0.8956980865196655  0.2789949981967133  0.0644108579335836
  0.5789217734682041  0.8284753463920589  0.1166048980286351
  0.6758954059142319  0.7988503124654547  0.0471984995725729
  0.9951434473752538  0.1682728775673209  0.0706278416718889
  0.0976691745377514  0.3349663257909972  0.9596087063826374
  0.6527882413367501  0.8737648444865078  0.9823304445511784
  0.3839794518442300  0.9721734431789829  0.1804989918769639
  0.1992609045116360  0.4975151546919001  0.9124498749183082
  0.1412735909424485  0.5037979160012223  0.8916543844833924
  0.1256709770936769  0.3951673101806653  0.9091231012131326
  0.8247545467239688  0.5375243577667402  0.1145591325777986
  0.1282496686132270  0.0757622262763010  0.9096254515371702
  0.8743180257736931  0.4762996860519125  0.0352335483499128
  0.4350068145892180  0.5853687006897502  0.9632203411567342
  0.1993688715359073  0.3435419417690387  0.8866856583530097
  0.2947024969625868  0.3874065492824523  0.9133523812153456
  0.1760784783235919  0.4002892384305947  0.8680559167838144
  0.9831664521411140  0.0014997303990116  0.0515633897128180
  0.0113024779749686  0.3056183693872929  0.5483354767908036
  0.5422576083666371  0.7127526434845781  0.8029547642690621
  0.8467108430840971  0.8351376434159290  0.0950085492458894
  0.4838067822392852  0.6877594022747398  0.6767017013289506
  0.8958426945367439  0.8193549208805457  0.0595505282892300
  0.0400582156266704  0.7272606573328423  0.8433145230103882
  0.0015153851253575  0.8041326622092001  0.6952406180022487
  0.4207376757006320  0.7269728723975796  0.7603607435073052
  0.1190025113456964  0.3054106460609742  0.5256704119417624
  0.2402010775242611  0.3267594539471897  0.6770463111604204