Cr H  Ni
 1.0000000000000000
    38.6687825624360855    0.0000000000000000    0.0000000000000000
     0.0000000000000000   38.6687825624360855    0.0000000000000000
     0.0000000000000000    0.0000000000000000   38.6687825624360855
 Cr  H   Ni 
 1596  50 3725
Direct
 -0.0123232228097674  0.8474315536576053  0.9700307208464403
  0.7877693053183332  0.3498453813688912  0.6930742290206856
  0.6310749434914447  0.1837893727825130  0.2250054063977296
  0.6231636665823613  0.1223622744203251  0.2427329468322865
  0.7519585854345754  0.2683507287376937  0.5828170526250492
  0.7185631259296182  0.0354653661315436  0.1949656268200672
  1.0059638433300564  0.5639262326868605  0.8935652748354908
  0.0648996655360593  0.9537773930260145  0.3674989081782289
  0.9616271447898469  0.4919393397433175  0.7273386727976971
  0.9230360922889213  0.4418461133662173  0.7229243828315703
  0.2261081712875631  0.6308353661696822  0.5147257657212784
  0.1110782846230058  0.8768843082846591  0.3482631356382082
  0.8758470298632997  0.4060262039555005  0.6593218232966768
  0.8148830438958794  0.4132640479561470  0.6384579367655184
  0.8629622748296529  0.4172888448193640  0.6013930997399783
  0.7660906791695450  0.3744093085026481  0.5699079343185911
  0.2104367214336101  0.7858891762652571  0.2891825936364289
  0.2024395863961131  0.6773919761760130  0.2585001375710940
  0.9275430935492329  0.5657161563719777  0.6489418008544422
  0.3007731203724207  0.5844459064975718  0.2049241263701521
  0.8444652341038416  0.4325316187514900  0.5385361196627864
  0.3016825187878312  0.7412221305893806  0.7150243127986963
  0.1474173860899600  0.8591478127284661  0.6894402875251628
  0.8350305619758801  0.7285482835886694  0.0651716856665874
  0.4698332798079584  0.7647906363191450  0.8250161493083333
  0.5461231409372914  0.8633649339311877  0.8311472556693034
  0.2579528846472899  0.7553894120230477  0.9212117287590529
  0.5077412641340572  0.8134083047591887  0.8279519439482935
  0.2964621892053071  0.8055300153172816  0.9256705072852460
  0.4381785810559411  0.8334949859432522  0.7449052450756450
  0.4975073573349585  0.8267700224464158  0.7663361975159616
  0.7911420484459463  0.8144398934961953  0.2503348645614447
  0.3062249188733480  0.7904363739319872  0.9835283520901394
  0.3445186689884059  0.7602141662390485  0.6157552858560497
  0.2817332067152783  0.8514412996238258  0.9726218491841130
  0.0894506453948294  0.5663255734873536  0.5882201980000332
  0.4057476905799968  0.7532966221646623  0.6379975851617449
  0.3679542926843377  0.7029752851759863  0.6346649043849291
  0.0883453894040068  0.5965658560858027  0.6889124479159671
  0.9854497740557424  0.5886427015260468  0.7720564514382269
  0.0982458801913395  0.5854990017422873  0.7491685071359893
  0.2479541670319094  0.7681791070143893  0.8580694419946086
  0.1425115878335772  0.7375152253115854  0.7642686256847165
  0.8379585460143109  0.6913719144509270  0.4149142009454375
  0.5999183417568353  0.8940121338797830  0.9688187750254962
  0.3807471669528811  0.9473992856971312  0.9826490058241786
  0.9644350856590322  0.6143336562064474  0.6499667187010754
  0.5738201045172436  0.9594126463467352  0.8792143595887821
  0.0082263518355690  0.9407142512276453  0.2899336021495436
  0.4157230914580129  0.6052964329782984  0.8392817424466037
  0.0396412221278173  0.8144646200334599  0.9871340407784321
  0.8866790484055973  0.7111464619551302  0.0351368439568531
  0.7397123080541465  0.9503410467728374  0.8851906038292462
  0.1143067975289428  0.1898290756165684  0.5992420729035175
  0.6169103232673541  0.5374873830183459  0.0411847481913085
  0.1114322647939528  0.8075220388627334  0.6834112974774881
  0.9697418982203668  0.8928694514400586  0.0203522535231190
  0.0597930096212652  0.9830401456420330  0.8630675104565969
  0.5096851067796163  0.7827104312560598  0.7224751755849779
  0.9751317463802284  0.9565484205927547  0.0052794834644197
  0.7247945226882073  0.8425041302280134  0.8957133351984464
  0.2345079822156375  0.9431486013514783  0.7652407447804382
  0.0890383597715262  0.2048434319500903  0.5339094953313661
  0.5791911105252832  0.7615169221654567  0.8044431231934708
  0.1530103772432102  0.8761647188161541  0.8631635664518871
  0.9853184192846635  0.5383455589098778  0.0565311387123958
  0.0773284424078637  0.8098402116789011  0.9450231769380095
  0.7541293522275554  0.3688058753702627  0.2056214525189501
  0.6701922682338408  0.5989146860457704  0.1541628818334138
  0.7685624427554113  0.4920493583016191  0.1662529172307939
  0.9035618940977712  0.8957784794173332  0.2103367072250082
  0.9566242972461190  0.8987369815794898  0.1142925525196339
  0.1733336625909206  0.2148109037085884  0.7290069839701275
  0.5318997389509766  0.8757022984786550  0.2573171605559522
  0.4316280139953826  0.4790497973354545  0.9418464172244817
  0.5520612354473832  0.9824937320751661  0.7526647036087031
  0.0751115064601734  0.4544638459325077  0.6025125675499675
  0.1132908450659616  0.5052222313920494  0.6059424458609697
  0.5663265292721068  0.6159415922798442  0.0600188686082689
  0.7927785958931785  0.8260420338054750  0.4245953986132072
  0.7237740094732975  0.0791309710338392  0.2376824563351372
  0.9460019665274639  0.1825768060240140  0.1025282632475118
  0.9640798768504153  0.6279192777507229  0.8519285426562788
  0.8872759995473911  0.9393753034002996  0.2551442440093477
  0.4724663233634923  0.8008522708081319  0.2028060368789320
  0.3151651035080709  0.5152356039802656  0.5087114197353203
  0.8259174024546013  0.0753999554293404  0.9564134054265794
  0.8142299159439846  0.9548310412391178  0.0786293350119391
  0.0031531004793720  0.9792642069125295  0.8944204062397967
  0.7206708783196798  0.5679305901510616  0.1825514728390281
  0.4273766739306701  0.6958387542716935  0.6565338661172470
  0.1358385070867064  0.9006707067502041  0.7344917992694294
  0.9015039400311244  0.2601849015607055  0.1229813881450359
  0.2499691736136514  0.3162544436082156  0.7374904642069146
  0.5234167909380172  0.7396135480282091  0.6812552930087392
  0.7174455120255224  0.5068061216812232  0.1996900739807581
  0.1364862259886805  0.9014061449930669  0.9719823978496281
  0.9306006609746872  0.3077869781886856  0.8571733190541202
  0.4359024135303766  0.3087589377297478  0.1197264562036226
  0.8379875751723064  0.7382739518447589  0.2328435264319674
  0.0340347020076444  0.0148935549711451  0.6806971866161954
  0.9315949329050981  0.5713038755351164  0.0263881227662976
  0.0694500830556602  0.0511638350328485  0.7811308524298867
  0.8548296092064387  0.9675073193943792  0.4621135708995943
  0.9069504415281550  0.9545785484075657  0.4244882615242723
  0.8997305277279974  0.8295186004900356  0.4522046728884071
  0.1715868306543891  0.9870021564582434  0.5160044256017553
  0.1218355087613949  0.2406112516521845  0.8729403793324314
  0.8200791959995922  0.4623721299136570  0.1946629742522437
  0.8679556496660570  0.4296617834326178  0.2202903638911202
  0.1123520602858351  0.9527649643804336  0.5035412313649408
  0.9121415956148916  0.3544363463607780  0.2070065138998265
  0.0954307026949249  0.1459974397809486  0.8266290136667274
  0.1389812292640502  0.9197020469584827  0.5835154379212587
  0.8029253373249551  0.3378127651783492  0.2325231709313567
  0.8638126642980767  0.3843448364831237  0.1787938562821940
  0.1078125400562524  0.1011172526064309  0.7848614810128202
  0.7191329554559028  0.7841593007553574  0.0116847419383083
  0.1223491866994544  0.9840309447295430  0.5558920211773685
  0.9551917963264221  0.2757709966003457  0.1913547652457880
  0.6086491450023220  1.0091853412627689  0.0430598780415783
  0.9495133615537797  0.2127346635928245  0.2095320210400178
  0.5999199282585120  0.7382447335290024  0.9278498580035047
  0.8003801061476480  0.9353646102255123  0.4488226447591644
  0.0746876466404887  0.1699741260014031  0.7027834312221030
  0.7229356336980857  0.6007055223167513  0.2892845669908858
  0.1181745766115107  0.0877736783564287  0.8470198716347337
  0.0802440426152422  0.0383462746602603  0.8448042756192009
  0.9690002396299505  0.0792148592776516  0.5229063609232670
  0.0625885838913930  0.8182134757795844  0.5707026547506052
  0.0829104914162544  0.9148513914130357  0.6216111852599573
 -0.0005609302811964  0.8159045439676137  0.6253806811826825
  0.3176935532084507  0.3159010476860888  0.9902485170750965
  0.2660365646514660  0.3220718196960908  0.9652342335759506
  0.1009293450590314  0.8215183054136326  0.6197289759445994
  0.2694322382069580  0.2905105880463160  0.8594013319902470
  0.2316199662771114  0.2402483115267707  0.8541772147751765
  0.8332929893950570  0.7417250046064559  0.0066103007603687
  0.4303733769279244  0.9230809564539212  0.2674835162393457
  0.1621277473029654  0.2593589759631908  0.7723799262417111
  0.2228791112019963  0.2524148138808163  0.7941889187104434
  0.4809349477247340  0.9074771055052469  0.2315629349914398
  0.1244559923409042  0.2093346587971757  0.7684651819168749
  0.7340036859264882  0.7680242338651885  0.3024354340461001
  0.5362595106724557  0.9400000743587770  0.2369079813623843
  0.8068403191618532  0.9799378960529501  0.4942511783336223
  0.8406669751127243  0.1850091933519962  0.0688473800346836
  0.7481094577040598  0.2989752694100679  0.0634779275951034
  0.3881370271674581  1.0037398762698329  0.9582461170028369
  0.7903057267253972  0.8284910628823576  0.1893250188310597
  0.9952639947889729  0.4209080308123005  0.8045865727217575
  1.0056738662357534  0.4089646743047799  0.8643264014014174
  0.7062018856408763  0.1392841163271361  0.5229308972471227
  0.5160919010297474  0.0757191691643404  0.1606760989625158
  0.5666141726696566  0.0797194971614207  0.0577482373844003
  0.9350932231010102  0.4300900358614493  0.7836726144319132
  0.4720683768541675  0.1700873882742404  0.1156555271925506
  0.7724771990234517  0.2098603475074908  0.6013572387897560
 -0.0010742208869784  0.8175044504312211  0.0911891439878958
  0.4589375833634989  0.0770980463146907  0.0196419731652007
  0.4445716776789150  0.0422420138863525  0.9700329997317223
  0.4140320612004788  0.1583023240937680  0.0364615725859462
  0.9082889267709620  0.0465220233860310  0.8445328027688123
  0.9457721086025715  0.0963484651938476  0.8427861650827120
  0.3621757795239957  0.1302617018816903  0.0322554957660387
  0.9908991254198687  0.1339356117497379  0.9085488778860852
  0.9347044353135144  0.1404447623117260  0.8863798232133718
  0.9836997977339803  0.1769223223835877  0.9515360005772160
  0.8732440915801402  0.0214461715446558  0.9574232447597762
  0.8689198914546611 -0.0386443193031770  0.9788941158179383
  0.2430897842763059  0.4690400749178618  0.0488470109359168
  0.9376911363912634  0.4472829579735544  0.5103116199249885
  0.8865787320594609  0.3925102711740318  0.7205041069200531
  0.9469996746382736  0.3833583732848868  0.7386411905971669
  0.7369912392167661  0.7821927475632121  0.4691637977621514
  0.8384275842367562  0.7084203001227278  0.3531013927893628
  0.4799322212159117  0.9007201296574370  0.0635234577561479
  0.4424966329240276  0.9152103583274011  0.0100771563079132
  0.5966082101213801  0.9798754920181137  0.4179484284862943
  0.5073036235235920  0.8459710530343419  0.9319049127738588
  0.5819217934305300  0.2128100338747800  0.1977153955928397
  0.8487316591613647  0.2501881778101073  0.5071964238698277
  0.8469039757277014  0.3186594899416581  0.5481750527604486
  0.9392950747189147  0.3640921055858762  0.5759227706476003
  0.1494975381644442  0.6771180341273784  0.1275549463955045
  0.9867969977205535  0.4019273429724579  0.6344131178733208
  0.0464112189480968  0.7255812921821924  0.1345208830209003
  0.9844569854942986  0.4344256833336017  0.7438623660482777
  0.7468275057886149  0.2387918469730539  0.5326197439244856
  0.8137532292812053  0.2116477997920055  0.5616504877865497
  0.0036041214735072  0.8457933913277106  0.1987932571099838
  0.8500649497923879  0.3108226087639160  0.6084913592537309
  0.8607605695939627  0.2976432580261309  0.6692975294544596
  0.9216813159273022  0.2884468868010509  0.6902831341597776
  0.6016200425814294  0.9990006024661854  0.1144076799438069
  0.9093119084371991  0.3346723315828811  0.7350080002281684
  0.9698231905979707  0.3268560549381862  0.7551709582920908
  0.9753172549947011  0.5688074501550500  0.6076180810066520
  0.3927083411451814  0.4129558300425640  0.2350844874459689
  0.9624828489519345  0.5811237327903390  0.5420598943870395
  0.1915375761627919  0.7426360324600116  0.7274873895003188
  0.7963348027915668  0.2166867721820694  0.5014013422257764
  0.7541046965717052  0.4522849058358040  0.7226781441508313
  0.7875459068907465  0.1858830287103431  0.3942787579318772
  0.7278952393263722  0.3571778390379065  0.6722462514611434
  0.6462959690253877  0.4235661284051918  0.6323021029224022
  0.7171798407168701  0.3718500627853538  0.6081084091418859
  0.6786699398430049  0.3202937465478891  0.6036760158792218
  0.9829287082218402  0.6054201762889767  0.9741195578878787
  0.9123398290234682  0.0165044431901486  0.4080910741972714
  0.9450400682258414  0.5713117553531490  0.8742678521371111
  0.3164102365484796  0.8506150837298107  0.4743919189682692
  0.9000829634660666  0.5330106910866426  0.8101846657360208
  0.3171755194267222  0.7476819648474997  0.4451887448091821
  0.3609689880960438  0.6910775222533286  0.3618117582420271
  0.8839720606798639  0.4241199239952707  0.8260913799479647
  0.6753050793311921  0.2008719720481562  0.6781849009454028
  0.2651189889177897  0.7988414416991160  0.3613218385481955
  0.6371479242565760  0.1504881268421843  0.6690898202915568
  0.6251378398547826  0.1602360173367384  0.6039903066380559
  0.2097269096381711  0.7701473289224361  0.3483823100761997
  0.3417351930268957  0.6581009720925638  0.8570042244586991
  0.8815840054950410  0.5979079587240617  0.4617787928476205
  0.6946131759986102  0.3439220737744016  0.4288808291325727
  0.2695605315975692  0.8877903668136999  0.4591899592857603
  0.8616983086957035  0.5141548938569881  0.9137605145153377
  0.9265516906276532  0.6780869437788450  0.6076904430364715
  0.2684022257473536  0.9344046194832860  0.5000381897195331
  0.2173249261201701  0.8530845826180500  0.4575796144573399
  0.7967375603597415  0.5999828588893661  0.5438993445515098
  0.8405758159527952  0.5090473533591268  0.6869215604479180
  0.9257106347026171  0.5968953057819852  0.7525885503125715
  0.9586434657149560  0.7909330203590165  0.5394862767128717
  0.7990580154330866  0.6047562309290757  0.7419760577658058
  0.8442308195015367  0.2007343700736744  0.4634632315870842
  0.7378087102944015  0.3446225974505687  0.7322994034955088
  0.7006343337773956  0.2951865636859705  0.7281741298817709
  0.6386948359123599  0.3026281967481251  0.7060045973800130
  0.8405579873276768  0.1382968132544639  0.4810912026973492
  0.5895896047137641  0.2647830731694886  0.6398438222614494
  0.9213962881740678  0.1118474801776314  0.4992624920810609
  0.6403198305370991  0.2708633739135627  0.6003047083176390
  0.5430842669768714  0.2259674036352405  0.5774449867893310
  0.5531017400344287  0.5082289404994351  0.4820125587946851
  0.8868691401314915  0.5573649944520656  0.9539159294398624
  0.6620892323676633  0.4568322663415901  0.4773126551263022
  0.9185936330552604  0.5056280216123225  0.9296920364187653
  0.3559537884061619  0.9616422149161251  0.9216251169939145
  0.3440597608278756  0.9745320889645280  0.8562719216819380
  0.3059161518525005  0.6614353970101515  0.3508183744645201
  0.5153509765777631  0.7108879209228743  0.0156789845828070
  0.6977204676021447  0.0021737989977892  0.8999616870639023
  0.4046360896396451  0.5978384483258342  0.4060682084422820
  0.4543035421598491  0.5366243537068626  0.3270162877700436
  0.6753001051611485  0.0957002778882257  0.9206074481709227
  0.6887815514021326  0.0533851741038997  0.8772589089420726
  0.6680702370283852  0.0802277662260935  0.7522193973039956
  0.4994049292711257  0.4451619881870348  0.3706726337209091
  0.6195624330893719  0.0408665911895929  0.6879549484305885
  0.7919556330769129  0.2474410760762222  0.9308091143479976
  0.6242259392784149  0.6649036010804384  0.0092072715348906
  0.1843040730245729  0.4544672571405464  0.5825303104501957
  0.7667988954373869  0.1531760154180175  0.8861287202480370
  0.6955496663763433  0.1743214370237038  0.8019751985326984
  0.7170295230455177  0.1187012759039318  0.8189218092160726
  0.6463185136290257  0.1375651031534369  0.7340830271914158
  0.7080104704578944  0.0978306611911941  0.6514216066749513
  0.6792629487546324  0.1549037748404029  0.2527503920313569
  0.5439217352546823  0.9919676858746420  0.6899344138523129
  0.4223961970354749  0.0103752151818154  0.6471637432083106
  0.4838701481431466 -0.0092488323963941  0.5552147830360051
  0.3039578019390356  0.9247977287135858  0.8516477335001789
  0.9802668231703474  0.4749620569030821  0.0704459691685181
  0.4108158203845140  0.6586975367484106  0.3898330328035847
  0.9836712891638374  0.5556875138116455  0.4494916482132764
  0.5194345075780752  0.7564921020856068  0.0621943607912337
  0.4698877674475355  0.8351693907854949  0.0829690335743615
  0.2304806525332896  0.5259511552989319  0.7507573301528847
  0.2740262840708504  0.9932736379692624  0.7693238792909707
  0.3289416982180151  0.5682007991054140  0.7780935216211579
  0.4196997094179616  0.8730116714502086  0.0562352960119070
  0.3008480414369815  0.5065213222596888  0.8346695293482990
  0.4279673656322449  0.9144107497787929  0.0986485426410372
  0.0925063031328341  0.6840491738145530  0.5188643606104222
  0.1346617318516402  0.7193750197216557  0.5944867946225307
  0.8433584894470314  0.7340662245887227  0.4623589947439170
  0.4694063862526057  0.8567518507694030  1.0272859213356096
  0.3248924474914414  0.8691466800838025  0.8691783173894174
  0.1478443911869763  0.5253369966066967  0.5051265878037711
  0.6944402661561621  0.9173576395106979  0.4774138855669637
  0.2020619722826201  0.5632338394599743  0.5696634252489388
  0.3095704661721068  0.5952346652959994  0.6538991562258788
  0.9784990606667063  0.4830995636160040  0.4661088754253435
  0.2675011120902263  0.6595366647150106  0.6048397432228804
  0.7827566949062092  0.7227687623380137  0.1603052700006549
  0.0679820752886701  0.6358232674154308  0.7603922686385665
  0.3322837154303380  0.6698809260575411  0.7965252001900326
  0.3402282252550344  0.9408768350492775  0.0841482225331036
  0.7686573010411621  0.0356701635948804  0.3303249454830501
  0.3528663948225861  0.5833788856344319  0.3321374064712930
  0.3954688504565693  0.4589474456929817  0.2752770894150668
  0.7009957687236598  0.2612668942808389  0.6229073142762318
  0.7252299864522926  0.2042599181980075  0.6413015268870346
  0.6623315270972796  0.2093808286038297  0.6191346200939682
  0.6530211390337626  0.2253860167057917  0.5618221572818628
  0.6869879078887262  0.1527613791585138  0.6326840937341114
  0.4441937873224164  0.4285835630722520  0.3036858854408115
  0.5494894110554327  0.4296215116682195  0.3395934696793448
  0.9932020994485291  0.4545810091722766  0.9080844197398651
  0.9324055488285654  0.4612435531134987  0.8882405727232491
  0.9829792642832418  0.4678057577856711  0.8494928751256537
  0.4844364135093280  0.3063998585468427  0.2474834716124774
  0.7345411657126394  0.1924480786401892  0.7018119503200018
  0.2137098809385745  0.8315932339072524  0.3370057831210904
  0.6917438784487205  0.2830094049633583  0.4449466262326487
  0.6467358608548044  0.1128701074524117  0.5611343022886774
  0.7418591469215211  0.2647362668605067  0.4100904983515721
  0.7362261467606698  0.1576698574697664  0.5972235257563199
  0.4836610526434791  0.3742203373404145  0.4652190518234617
  0.7714218477874909  0.5614019090479555  0.7075639938480247
  0.7532781679439849  0.4190821427236365  0.6179520341535553
  0.8097925666193249  0.2930641097029956  0.7095474929369731
  0.6943925901788597  0.4285607418183749  0.5928896880724457
  0.6886556663381640  0.4423004214915834  0.5271259337368939
  0.9651841909643391  0.1729178938117518  0.7227894920898499
  0.7834316979180433  0.4863431248345196  0.5647269978271841
  0.6468158045545792  0.3966540545142140  0.5204946561802251
  0.9879345502973317  0.7274326760990714  0.9094983596272269
  0.9511993369847964  0.6740279404433660  0.8961267393900494
  0.4585198603985772  0.6278352264793507  0.4153195180070965
  0.5640414878855472  0.5687329005256406  0.4714252739371562
  0.4571059752791344  0.5830273330273713  0.3717178441070164
  0.5077886958659618  0.5355068185960805  0.4584986570719146
  0.8505694083314560  0.6114051987414302  0.7015120652441587
  0.8201330769204488  0.5680791675699884  0.6681554272411436
  0.6044625003354798  0.4445508962999090  0.4078175962825961
  0.5376805862068291  0.4025658737505119  0.4652675598773203
  0.6367690687649948  0.2647851012399206  0.3742822560854961
  0.9334891154166733  0.6998406805133083  0.7740469834717338
  0.6825869640608254  0.1867131953364077  0.3571611023259930
  0.8769838928987029  0.6745286022889544  0.6448601750314314
  0.9037659307788332  0.6228854814884039  0.6307524216044177
  0.8271209676899021  0.0626138001324914  0.3353479821231210
  0.7732325722705354  0.0800161554027900  0.3726374138482970
  0.0449909371961276  0.7401119445804202  0.0703863911377982
  0.9647927158699969  0.2058491518182494  0.8276594051984302
  0.9370975524705790  0.1109584891144014  0.7820791931544863
  0.8595459235837268  0.3293419412627606  0.7744456296125086
  0.8670346479926536  0.1312151780197353  0.7012724162851551
  0.8845566486222921  0.6330074240447076  0.1076583727519547
  0.9361098215587779  0.6011044420177930  0.1330321005029331
  0.0866462726919577  0.7125835705103217  0.6319978623075122
  0.0711337224723997  0.7322677446351092  0.5603848287905387
  0.7913640655604225  0.7994298010398688  0.4898890537535436
  0.4050028468448637  0.6192048896235267  0.7767967039055345
  0.7316833929413848  0.7070444100422310  0.3177330707332019
  0.9456623097500915  0.1661606764492944  0.1650670406869408
  0.4943418171108045  0.9891363289097818  0.7329090637953031
  0.9174630410069549  0.7242287182259182  0.6514959282399787
  0.5511189257813028  0.0794827238393311  0.5419674654589680
  1.0035101621562910  0.4428136698388060  0.9710546495083507
  0.7100856273598619 -0.0260222954922250  0.9776485203908158
  0.5891449280266093  0.3075915203718967  0.2840833318319833
  0.7434212366276791  0.2114236713055158  0.8686888347876184
  0.6627338692086010  0.0417201580572308  0.9914323047578486
  0.9170170872430089  0.3522473138409333  0.9053379706713008
  0.8561961112144338  0.3599158599106859  0.8823803370188010
  0.3532536648720291  0.5986084888677815  0.2727360968910850
  0.9066757027684875  0.3648953784022983  0.8435553567446930
  0.4042277123778807  0.5668676242568291  0.2996269138725933
  0.8077492304472204  0.3242388550157924  0.8162552793795659
  0.3789000408166516  0.7093810696027332  0.8596526173335990
  0.8300867430173490  0.0824054791647973  0.6987938408304140
  0.1954062934039748  0.5129087913558218  0.0182963430836815
  0.7477522502956707  0.0494876545255394  0.9009127208252027
  0.8252272530889190  0.0499880393982453  0.5925975664516533
  0.1915903781820740  0.4390514750233683  0.0353602119339112
  0.2481401019407077  0.3604549484661920  0.0129133959588925
  0.9439134786987172  0.2324677396365028  0.7055617771058008
  0.6754088517978989  0.1609864930579458  0.4818069810557959
  0.7277209043325183  0.1427966554388488  0.4487113700314784
  0.8799308408377644  0.0872411088991946  0.6608545480548428
  0.7592514232131976  0.0594341461907062  0.5052774071273289
  0.1937929550904940  0.4889246181653463  0.0792387220572392
  0.1439704807853598  0.5683020840718011  0.0992727681003409
  0.4777843949121357  0.2304861696451730  0.0986469584289032
  0.9746870278294363  0.4141323532541775  0.5701412462108509
  0.8930084114503475  0.2270427592846611  0.7468431668405843
  0.5297630868587129  0.2178033893377640  0.0630398608083371
  0.8952245342257711  0.1941426721057866  0.6420670262256573
  0.5221084102048378  0.1528896180234966  0.0801500534195637
  0.8520474108142525  0.0264269085682987  0.7156073693755639
  0.4403546552709608  0.3518732422532788  0.1581445133261450
  0.9934733994734597  0.6374118291789678  0.4839036225257189
  0.5334610842068569  0.2449080594423491  0.1707776968734842
  0.7748556898306077  0.0515295045333519  0.9627783371617481
  0.7914353033607117  0.0897836397131860  0.9082582134221364
  0.0694177438016233  0.5232674902598574  0.8096659692700898
  0.9734061929388780  0.3990876307818383  0.1475667032176695
  0.9480010847570153  0.7848132035625043  0.3114124857604600
  0.5959759828202718  0.3139484143288852  0.9122757507415720
  0.8374359947697219  0.7232800439769466  0.2937129966677091
  0.4148470603008609  0.8036204628536942  0.0696251517365476
  0.1006486945960373  0.8696358876455347  0.9012026282224325
  0.4172476848833275  0.7888107829585647  0.1300098713102373
  0.9497339180927125  0.8349696527424098  0.1296737447066718
  0.8456438749616549  0.2304236028959500  0.1124314200030438
  0.3710647943140463  0.4845116712401452  0.9224816023135526
  0.9899681483214188  0.6479385940487699  0.0792310469730717
  0.9375052117322142  0.6639772695132483  0.1170349803932642
  0.0277589657777514  0.8853415004070042  0.9869434179841945
  0.1058491933702123  0.8381032663103325  0.7896433550128232
  0.2962464143815619  1.0003883539483125  0.1637738990841683
  0.8426768614868702  0.8178442652379031  0.1565481718409114
  0.8584699120049315  0.8793996689132257  0.0583657999292215
  0.9458227211919989  0.7915566489744168  0.0826934810582915
  0.3518557046373061  0.5119956682976966  0.7950806825577388
  0.4002368793082411  0.5501294951344580  0.8604522868533988
  0.2018378236179280  0.9109621573233474  0.9371089899077153
  0.4608514221301656  0.5422996547301172  0.8838283882685182
  0.9360792731355504  0.0751749160974858  0.0747534751893078
  0.3186830134435267  0.8284288851276457  0.3708003720071003
  0.3232555993268119  0.8730420776748415  0.4168803688900175
  0.1921236213729969  0.9236402561722580  0.8685029252457080
  0.0380644489849950  0.1207011661148211  0.6997568170683632
  0.8907590250498304  0.1525031770932370  0.0935059629195013
  0.8446684779612714  0.9046433870301906  0.2454769532252871
  0.2056531929014747  0.6708906216073843  0.0346965121903058
  0.0912581531067713  0.7557914114085326  0.9686207550199659
  0.1634713555733067  0.3557182413071854  0.5325855135334991
  0.3914050459132869  0.5296744375983756  0.6956852379292412
  0.5207202186677724  0.7404709519347868  0.1219983037048696
  0.8744386569860186  0.0006290532495211  0.0213223504966294
  0.8893583483088146  0.1221515058582238  0.9881343235129734
  0.9376365647406689  0.0948120609677235  0.0090186386864866
  0.2181881413762967  0.3848599432684748  0.6592515975840131
  0.3613681603213346  0.6011907220183935  0.6152085516073609
  0.2362685464757547  0.9567518521594256  0.9883028789565372
  0.9232704434055662  0.9529909121975868  0.1086994837334516
  0.2876516997492585  0.3656632709352639  0.7427631166209945
  0.2415379360441618  0.9623395455735597  0.9336264754494306
  0.3202925840079352  0.8985103491923793  0.1284325797675814
  0.8383468045281479  0.7730052361165748  0.1104748805377776
  0.2672166750971436  0.9084047587326606  0.9531835729660201
  0.9951313193684223  0.1506019861170113  0.1296720655079336
  0.3713382610331000  0.5571247047980239  0.5749300914410170
  0.8894332140453741  0.7595254262758895  0.0766791434854907
  0.3756256017038505  0.8721147652588536  0.8294667780104777
  0.1634519697362333  0.8457111992405997  0.3719134230723709
  0.1374129543026689  0.3494795694304174  0.8621536096925971
  0.4358290427944396  0.5807861678333432  0.9647317448912631
  0.8212279722300468  0.5018284486079621  0.0130497237392036
  0.8750810085847219  0.4602074968374904  0.0972042618790113
  0.1491103462625841  0.3052408834307586  0.8173846866062785
  0.8355676734732165  0.6813537903320515  0.0185656841682456
  0.9582049595801463  0.3082059898952995  0.0654214259897119
  0.3608269753646425  0.0357236886875226  0.5563071406975646
  0.0279726083396088  0.1330894459702053  0.6396673754881715
  0.9088545712816856  0.3234350381914834  0.1016505658921607
  0.9018909636457614  0.2779946765151308  0.0661906336627330
  0.6294595358780822  0.8176051983291530  0.0775145753922906
  0.6780075383118591  0.7970258143614986  0.0485139593911774
  0.9961874796295449  0.1664939926432898  0.0702579353102139
  0.0875573809604954  0.3442137216717541  0.9017996420384825
  0.6565976244559473  0.8091289241811771 -0.0121355154587303
  0.4335153262907294  0.9593693422105668  0.1441966827139900
  0.1975182635537564  0.4961796776718990  0.9107767344018444
  0.1392730677689883  0.5030089729119350  0.8918408732809130
  0.1035571245951504  0.4524646998507993  0.8914459789049850
  0.8261139239213361  0.5385509814951926  0.1140775898269118
  0.1246693547638471  0.0719943786758866  0.9093495810857374
  0.4240441033732000  0.5944654416614599  0.9013206338705465
  0.0271038775259872  0.0354966885707602  0.8900925802349797
  0.1968510388558853  0.3430589792908438  0.8851144208346599
  0.8133902818307335  0.9388713177537502  0.1429236352103170
  0.2421850663641686  0.3804964883003860  0.9518189177382246
  0.9806036181458259  0.0013147368394399  0.0518143268889988
  0.0554060073232316  0.3252570662809393  0.5034879627307991
  0.5419011368001545  0.7114590324362237  0.8038519181469475
  0.8432652434053534  0.8359497455347074  0.0956160003453899
  0.4938581466656193  0.6741369997921159  0.7389524816693933
  0.8944637226476589  0.8209005478542057  0.0609635877528550
  0.0778461009897278  0.7761595295428469  0.8428634942703511
  0.0690487616873628  0.7879775859612169  0.7818291494270707
  0.4433043911356185  0.6674224592169048  0.7789908334851761
  0.1176949658624082  0.3029600880362617  0.5257715738903117
  0.2394817809963983  0.3273637827495726  0.6764455566008626