Cr H  Ni
 1.0000000000000000
    38.6687825624360855    0.0000000000000000    0.0000000000000000
     0.0000000000000000   38.6687825624360855    0.0000000000000000
     0.0000000000000000    0.0000000000000000   38.6687825624360855
 Cr  H   Ni 
 1596  50 3725
Direct
  0.9906627832430913  0.7876605389544334  0.9809916599659244
  0.0873954960797777  0.8660667004183232  0.6659434441672522
  0.9756930297683193  0.8920755521226676  0.0168253936580843
  0.0599355526398985  0.9827285037115631  0.8663154281632287
  0.5084788950720005  0.7843156899807175  0.7235842781394081
  0.0817804658056190  0.9633030241662629  0.0519010481984554
  0.7476055479588680  0.7865531338158789  0.9133665259555049
  0.2443784159569369  0.9324297491636109  0.8282370988682419
  0.0930544789502947  0.2031913997008092  0.5324752747509431
  0.5290113486409319  0.7576170494739521  0.8449897749423565
  0.5370284524852504  0.1737395588230769  0.8606435377840865
  0.0862943127442618  0.7669742327016499  0.9051525552392615
  0.9832124644004364  0.5376522541537657  0.0559695058813282
  0.0758462252393315  0.8130304474993416  0.9443572139896104
  0.8108508830368005  0.3991985166091103  0.2126000291258026
  0.6715682852141287  0.6140984803420300  0.0920737356209482
  0.7675858311792577  0.4901593637115407  0.1658936997471134
  0.9523557423889510  0.8637566351305388  0.2339745435021894
  0.7341304236626540  0.2999864200145561  0.0492022887169098
  0.5971357108688377  0.7849957434069853  0.9687738900947670
  0.8390535569431801  0.1839579597715396  0.0659904329828568
  0.5633242534151540  0.2358918708517635  0.8037837328352865
  0.7343249035513858  0.7682545984102386  0.3025908390293094
  0.0189486738822874  0.3672762889367350  0.1789152485922681
  0.4920553696019673  1.0039591689858980  0.9395091867433466
  0.8506533973921491  0.8869648545258561  0.5320570802366247
  0.8539869404935430  0.9484688628119632  0.5268055999278014
  0.7789242746370061  0.0452188402120593  0.6291072872180561
  0.3675082403872363  0.7344591205049391  0.4096760193895315
  0.5625764185802768  0.5824723099312011  0.4096607163357873
  0.3666589005704340  0.7522126547825785  0.3475048414720366
  0.5137633534781156  0.1983002176761604  0.7384470126738830
  0.3667133628936236  0.7687953907376828  0.2884100014425823
  0.3162481879058512  0.8006458425343123  0.2635531648290187
  0.5697240677483633  0.3226073878460794  0.6229644205343872
  0.5104295242208462  0.3300471861356656  0.6006952232389536
  0.2740532300354456  0.9055284408560065  0.3961130461658620
  0.6086388336630042  0.3735347835834594  0.6276264872233253
  0.5691028626132189  0.3548783820711049  0.7310495085925627
  0.2190910936439374  0.9106247575664891  0.2593781325210744
  0.2737878065374722  0.9234211642878284  0.3323860413287959
  0.6869514741247805  0.3726983779976555  0.8817910531208133
  0.7155736560929575  0.4366997777045207  0.8239265513029106
  0.7720812704755006  0.0320033198776995  0.0941345716831770
  0.7495011860897278  0.5204027972964557  0.9280745171134699
  0.6490558206064571  0.3827997552986031  0.3345257901087180
  0.8601432623871816  0.0123151758955695  0.5046934105379126
  0.5962245709534808  0.9616043698731381  0.2467508169338091
  0.7473750076173304  0.8731326924534247  0.5647515251241240
  0.7901025670825805  0.2152359971174240  0.2697679445605363
  0.3990916938089470  0.0804684701380555  0.8320630388824154
  0.3948032368136329  0.1902141990804079  0.5256689136002560
  0.7362598364535083  0.2011797949505878  0.1971260898310119
  0.6936525994470247  0.3074402749081353  0.3208809936292868
  0.4039918731958892  0.1672946347856379  0.6491009381389186
  0.6008729559601403  0.4132454969318070  0.3070670703513911
  0.4318024588581125  0.2305477711479602  0.5823127330268802
  0.6276213467737153  0.6536989526893491  0.4618527052757376
  0.5251425495418404  0.6948546497929972  0.4735714243415742
  0.8191383166153465  0.7334321984224621  0.8906136880451674
  0.9426268075860395  0.8133125129522941  1.0163635777129001
  0.4789904533660795  0.7753571908890623  0.4977692916774338
  0.4312885495352379  0.8907273152679676  0.5612929253968852
 -0.0359510598459440  1.0012795051077750  0.3715732175958423
  0.0242086293140822  0.0776952733129923  0.4291667295445944
  0.6109560203215560  0.5266151466434931  0.6606407946273860
  0.8399006459261270  0.1535928138129781  0.4195484709909696
  0.7209196380470945  0.5560094566462265  0.7461778001512828
  0.8952744833932006  0.1989797450892104  0.3662634687309749
  0.6496765710497652  0.5775211511443464  0.6631223206749365
  0.6365951350814534  0.6029035475874357  0.8008073049906254
  0.4203677531870371  0.0250823508233128  0.8508724381463253
  0.3682397266861149  0.7543237863890248  0.9064943367150725
  0.3081963893018855  0.7618427459148581  0.8836736017020813
  0.5322300862717605  0.2035747181302072  0.9657139372896729
  0.2285686868893165  0.7938368916152377  0.7341701967916131
  0.3486203144623581  0.7796851189129921  0.7810240559341149
  0.2858973893233036  0.6338146292222328  0.7296568884418086
  0.8368221991200225  0.7229908296270886  0.2934382655286395
  0.8784820532647054  0.5688162647206572  0.3509865830494362
  0.3755264534333718  0.8740239474392625  0.8295431400886770
  0.1610771992407916  0.8462014866036401  0.3733454331936528
  0.3192243264637727  0.8287305691803138  0.3714228320103576
  0.3229033888303903  0.8720276314853150  0.4153377764973428
  0.5978983422861731  0.3175242009112262  0.9138841688823530
  0.6258814292952689  0.4090780052801674  0.9714319235981898
  0.2681225460792868  0.8402397408872443  0.4129607277832571
  0.2762116436240013  0.9537610516478842  0.4386314693335219
  0.8818755477778424  0.0615389842748270  0.2339474896670609
  0.4488478845808593  0.0534394126467197  0.6836759158190638
  0.4091274937292897  0.0372937245864201  0.7883918537918947
  0.4872402198542083  0.1364290545926843  0.7939697233429192
  0.4739100597801760  0.0619087898837408  0.9147727995234129
  0.5584026152274955  0.1173893706844878  0.8779455158930810
  0.8367664552417757  0.1366758069446017  0.2531077312574248
  0.5629055784470417  0.2680132854610768  0.9081871536492270
  0.7333718328539118  0.1702377386634183  0.3227481996564109
  0.2022687429454348  0.6141825674358443  0.0471695151826789
  0.2658843318634355  0.5878107311688304  0.0152455437477375
  0.5919298456128230  0.5595353370760240  0.5368247954050415
  0.9708731592423565  0.9069081340481587  0.7150127988545693
  0.0213740083386743  0.9249127538557870  0.6005719310203537
  0.4695818265009525  0.6906784575582932  0.3983068305026338
  0.6868051275504210  0.7728121511340094  0.5628441180883691
  0.7965312148030719  0.7803844357169518  0.5566600418938771
  0.4770487415594631  0.7960584581565311  0.4335105664580591
  0.7595182316430594  0.8395245144228944  0.6304345679771725
  0.3722721082114803  0.8916858257700233  0.4856379763640420
  0.8085557710664462  0.8775277726792770  0.6922146624744174
  0.3236621245986937  0.9168541794103456  0.4599680338760994
  0.8635901601153373  0.9022009201183185  0.8217113545881073
  0.3831410238826793  0.9498622139188353  0.4721371990431611
  0.9366399891630242  0.9881073553988986  0.8631659686914963
  0.8761612730573313  0.0277875128694573  0.3545787609301670
  0.9425771889729687  0.9771973200213547  0.9238983315807193
  0.8348762091654044  0.1228990947322985  0.3142636224227093
  0.7574692193912945  0.0116590747017851  0.4637729714650850
  0.6422563278359548  0.7156262096030510  0.5647349509634764
  0.8911299684779660  0.1530159990718805  0.3227466564739869
  0.8476467993728893  0.2774444473517666  0.3827334735722258
  0.5297144518203968  0.0237167634241196  0.8314800381865622
  0.8336268292786060  0.9348677167505571  0.6269073859508714
  0.7986412056270890  0.3444386863164974  0.4648191153308348
  0.5561113747171368  0.8897654178890135  0.6674396121908477
  0.7539599554159736  0.7218317986222390  0.7066771319390470
  0.8329831063044222  0.8402506253458775  0.8815690845728325
  0.8098532191955521  0.4154667934097441  0.3774976514023489
  0.5301795343618070  0.5608704599110079  0.5162247034317844
  0.7832609187275406  0.7144555112747741  0.9933080184033466
  0.5194304783470275  0.2843644162757016  0.5519200798555902
  0.3960699847793606  0.2529874725488792  0.5216188669700481
  0.3135257911804289  0.0127148259569305  0.6646778942941399
  0.3879825439376793  0.0613331324200321  0.6622679433332578
  0.4390072920089363  0.3160065472527462  0.9755507745909500
  0.4747937782785334  0.2510434355260862  0.0415467939417830
  0.5589117989706270  0.0839927081156529  0.7706275699894621
  0.3960732055387989  0.3926889949301173  0.0648008238268460
  0.5093131023457614  0.0795599552701509  0.8123112608852748
  0.4985760797486000  0.3473890347433349  0.0547132851559082
  0.3495003009289000  0.4217987571432604  0.0401457255134877
  0.3970817504896736  0.4395251581090408  0.1101501750482817
  0.6120241401544555  0.1445545112607153  0.9446090451649348
  0.6780187406064626  0.2128378590682154  0.0068294735171438
  0.7713490147445168  0.4607468515769003  0.5127626261263780
  0.7286781780876116  0.6768818258148870  0.9261175477291073
  0.7496828357057415  0.3707628080372661  0.4356893575049998
  0.9056285334676484  0.3535394404161571  0.4308540060696914
  0.7438810703153119  0.6318524082351565  0.8861166739764982
  0.3646763860564546  0.8368096132378385  0.0520960221175135
  0.4651242096991379  0.7290318783723475  0.0480139270686087
  0.4340512726272339  0.9342285526929399  0.4381151997420173
  0.2982004957112487  0.3544981313070816  0.8065390300946647
  0.2998628190867155  0.3211592072802701  0.6996371745780990
  0.6290756897046570  0.7353661660264784  0.3905772082994248
  0.6712484785451913  0.6141942646144454  0.3231691309388697
  0.5759923046514173  0.6250839837006312  1.0006276863903647
  0.6145146771102630  0.5665746816280435  0.3752457917422231
  0.5464231200911396  0.5783108719447931  0.9476321240793506
  0.6058992934187692  0.5711824503167287  0.9682514785429635
  0.6657312790305994  0.5516945570600182  0.3393530158307929
  0.9529631723122399  0.8215504787115141  0.9350707202083072
  0.8379869348701177  0.8077177858508305  0.7749177905353989
  0.9056349802917804  0.3974612404404312  0.9497252228110189
  0.7597784838977626  0.4143606866440472  0.2465676677379428
  0.5853268067895079  0.5974931730317350  0.8420443785672181
  0.4468220521332637  0.4105253060916305  0.1369845862582098
  0.4130288316379110  0.6915035340268063  0.2672000876468191
  0.8005823814200791  0.7584183348861022  0.7687917051710704
  0.7253258124806962  0.6586992375889428  0.7628407685249984
  0.7087890645657405  0.4452275058806391  0.4446990822659790
  0.6734167298881372  0.2326991101031033  0.7863597148012678
  0.5520663083441516  0.2157517519351328  0.6388835987506142
  0.7730311095270410  0.2761327363033371  0.8115119883057162
  0.3800745506762649  0.9210647081496548  0.3640939614945453
  0.5592009633261653  0.7904542468982400  0.6784700671983346
  0.5130612276472408  0.7567523413296559  0.6211743122359514
  0.5020537738934648  0.7661960388283108  0.0031715923592974
  0.4425097485572634  0.7765663094890922  0.5364290002618920
  0.6608143404805167  0.4420090540815499  0.0853544580377633
  0.7328492222750521  0.9607533585087091  0.8197410017730996
  0.1288977620235024  0.0419784932009619  0.5353553646949876
  0.2068510683194366  0.1130909196303099  0.7029338583577337
  0.1169095183469399  0.9565072918851435  0.2689139243472263
  0.9290854559251441  0.8852732581178004  0.9097478031699680
  0.7529443391620403  0.4857863793189239  0.8252271497887073
  0.7083227756538925  0.4298851233501340  0.2800182456052804
  0.6621702678338307  0.5061642262874468  0.2949713273094354
  0.9396576235866605  0.1047442922852551  0.1806905853412427
  0.9527734286581278  0.2164426319868005  0.4396036993434981
  0.5808647495379419  0.6306894919435424  0.9448199299048732
  0.1726604476106833  0.1810528889411153  0.6205311682289046
  0.1925850204720540  0.2201596585967931  0.5068770108143129
  0.9480814430431941  0.1981716638873766  0.2699824534058560
  0.5718221568550991  0.4084515030328972  0.0076944028484036
  0.9919748340134765  0.1053114713896819  0.3148551543181332
  0.3927767724440346  0.4307154519514612  0.9391604368631673
  0.4433151824301761  0.4356941024276636  0.8979817426952669
  0.2646622700419490  0.8341134802109672  0.2380477198125015
  0.2565272435099641  0.7579540385030035  0.0837303276508444
  0.4609556428312789  0.5099080134293184  0.7781580645194320
  0.7170671327383932  0.7231627443304159  0.9707940154647623
  0.7711740835732969  0.0167043028226842  0.1585188119494083
  0.6151955569975119  0.4981071971223487  0.5611236785943877
  0.7212466550746364  0.5243599464328605  0.6436445235189333
  0.7098740906712349  0.5473222398002685  0.5263389619841967
  0.6249778289895800  0.1681293283467254  0.0555728148761922
  0.7584670705718042  0.5884653273165548  0.8444026054415436
  0.8038203582900895  0.6244170802077468  0.9077603714380880
  0.6865202942284366  0.2302374294657387  0.1723807036772632
  0.9447487351668121  0.7046236873316862  1.0001147057499660
  0.5473223238523804  0.3975311219264354  0.2374682184872176
  0.5367715214475107  0.3060506966232867  0.1535600731434503
  0.5398198033073111  0.3951565606943961  0.5409526227225936
  0.5508086199249785  0.4131420351610041  0.1750871941422362
  0.5114408289317244  0.5827193099456009  0.2767398521247569
  0.6567569859242166  0.4101105176396087  0.6957528890234547
  0.6936605276838802  0.4600387010827920  0.7006482966328426
  0.4574831391915238  0.5669040534302550  0.2053747772121392
  0.6668934507481897  0.3979269754008752  0.7564238911674540
  0.4093248629818905  0.6294211245672556  0.2840491004785404
  0.6822202268668091  0.5060095765338759  0.7423835938595286
  0.6692455184966085  0.6858285429994636  0.9052977259299683
  0.5174719316968065  0.6743460408622234  0.3664810250287058
  0.8696337459903117  0.7390533232626214  0.8533713085101091
  0.8337579140037904  0.5575863324957974  0.9905788533408962
  0.2523040874004581  0.6615227132541638  0.2231905351557097
  0.8459920947531495  0.6643601354160759  0.9716820742033404
  0.9154585976996314  0.7760467542220979  0.9212188939616358
  0.1559365048534598  0.7883221328605923  0.1556899166171920
  0.1582898667464745  0.8335204304159980  0.2037944239883387
  0.9208314254405396  0.7448942991859835  0.8170799449942581
  0.1037080171295029  0.8219749004401350  0.1302923953396919
  0.8471096903122409  0.8208831352699388  0.5501541139568483
  0.8063306118924173  0.7014544029655982  0.5643263795970044
  0.1623619027277154  0.8794667164119209  0.2493375088358448
  0.1273749684822735  0.9095597833336810  0.1359182957834311
  0.1324803183302913  0.9538477151527605  0.1806869784312637
  0.8834286864479654  0.8253552618908575  0.6752316520312384
  0.9118001844899755  0.7576208622746872  0.7561402340305527
  0.7616820672095493  0.9377606369511494  0.0089481381850974
  0.7224683104509468  0.0745924188278777  0.0033860037828879
  0.9065653541630436  0.9418214069642765  0.8884899413519759
  0.6750336476570761  0.6431383631884345  0.4305864321546429
  0.7014169713138727  0.6608066416640026  0.5374902134299298
  0.6004828909274397  0.3614914507567482  0.0278554678910953
  0.4912636850163749  0.3662044274754046  0.2284321597836304
  0.7684046966299762  0.5747116120322118  0.9068831451004481
  0.2230680558621079  0.2197743029903462  0.6874721373640280
  0.2384072178051363  0.0749162221587405  0.8906744912361562
  0.5224035297334397  0.5017392940111219  0.8014131783320521
  0.8164850981697416  0.4759075660637241  0.3582676966995664
  0.0252892540832724  0.9241994266659403  0.9129775249860657
  0.6119551616721176  0.5262106882541719  0.5003724242453648
  0.4496207023519440  0.4582289975540845  0.1811112913517401
  0.6402083089111744  0.5925725081845815  0.6020400110766825
  0.3556046381561838  0.6291411974522776  0.1505459790759966
  0.3548015003534650  0.6139011520221448  0.2133013690396647
  0.9333457451809735  0.6999794980580581  0.7732558005670690
  0.4135359401220837  0.7068763110402406  0.2075241321296626
  0.2615168290430110  0.7874109311766234  0.1920793314399437
  0.7614452338937375  0.4454008414248370  0.3503139602615616
  0.7981327537797395  0.3085010758501448  0.3572725627179539
  0.4313226833977994  0.3935475586108021  0.5604861487478090
  0.5367545840361222  0.4255718063459822  0.6535698231522058
  0.8938552533600397  0.1833843786981035  0.1991990652589952
  0.2214707432563301  0.3515555807258549  0.5522312398687229
  0.3407657229275621  0.3376264961819328  0.5976383535236246
  0.2670425222822794  0.4235572978152998  0.7255821190557932
  0.4262102094185470  0.4264326120914986  0.6699661953047411
  0.7572757651640040  0.3992527855081960  0.3089212829655605
  0.4515408288875910  0.5225883059954574  0.7180408837243759
  0.9112909545730781  0.3683465899178604  0.3707200527458394
  0.8577347156279277  0.3865752397572220  0.4039099885761498
  0.0038039873624980  0.8272804364794770  0.8615357365459538
  0.6386072001438616  0.7575813191057135  0.8265050525400658
  0.4054583056880524  0.3855406288514145  0.8958844026108985
  0.7718559767082244  0.5525677619491826  0.3760953636223465
  0.4512233332553170  0.4220677510698512  0.9590537088202304
  0.1818768342512840  0.0308610779530849  0.5606409421697894
  0.7467797749541896  0.3076091356817270  0.2244018140036711
  0.7874377305691214  0.1838565581863118  0.1643494028471754
  0.4255783460873435  0.8434841707437688  0.3452253709728720
  0.6555524139788937  0.4138543623245218  0.2105915540054648
  0.8182696689700107  0.8648361485819480  0.9854316836761775
  0.3810288290954140  0.5137744242974827  0.5335833482083987
  0.6587316781838993  0.4598298394150241  0.2528529896098922
  0.5036295335147585  0.4987431489296500  0.5758048863534634
  0.2909457818860696  0.6201729424552189  0.5316665251171696
  0.7113134817332494  0.4449280216198095  0.2179260952904620
  0.6094817845445673  0.4900180651557325  0.2259390419812093
  0.6130166177098824  0.5363796982825478  0.2686452799081441
  0.6645549024450745  0.5211106018700730  0.2339764007460381
  0.6272402783697714  0.6163111523042157  0.7408407769110201
  0.5633256378081291  0.6544115925854700  0.8219715069744165
  0.6232968199490271  0.6481283377148253  0.8438266064584543
  0.6490767756643872  0.7444795979428253  0.8867766976160399
  0.6112150326173927  0.6939671035602477  0.8858377016418452
  0.7210600447821846  0.5678173229745170  0.4101696452041297
  0.1387600270089380 -0.0017384190568127  0.2264377633925182
  0.8815153794321096  0.4141571339981459  0.5057268727931414
  0.4174347694346203  0.4395968149378344  0.6118401660622338
  0.6841887370654869  0.9246477310749438  0.7549101373780817
  0.6170220955276342  0.8140725167723737  0.8082083700584975
  0.6123601746429440  0.9764587670414699  0.7749642654131587
  0.5270675668934802  0.7804315752820976  0.3989124173177105
  0.2458550872627500  0.1958176169839643  0.8126304305467277
  0.2834192530863899  0.2468973021889835  0.8157974474693189
  0.4800756136954898  0.8564616218755803  0.4187188074507315
  0.6368346807087871  0.8422263560884887  0.4201272896743411
  0.9916750837893291  0.0897319482898474  0.3760238722227996
  0.3680815545875535  0.3357457381202552  0.8915782049601744
  0.2035604337095314  0.0124882584695202  0.6847770601019330
  1.0008150187537292  0.1980681032937486  0.4048768556084072
  0.1913378428535085  0.0219247580093582  0.6214094125366830
  0.2786067196451045  0.0952103858656916  0.7876830243972386
  0.1579873680380723  0.1080555681145601  0.7432074987881042
  0.9035882542410764  0.3068007647878833  0.3920016034846355
  0.2177515703840456  0.1328291116152095  0.8709371530836244
  0.2901407005736511  0.1157517507091965  0.9552066694734288
  0.1965856581894243  0.2229763265979023  0.9553997365029994
  0.3625045430962516  0.2145738243948495  0.9578886550065508
  0.4894861491395368  0.5728069503726679  0.7229223134955778
  0.1888444094363648  0.0383620142635286  0.8254524920169339
  0.4761677590085614  0.4313199968773625  0.6317964124154906
  0.8462477972594153  0.7761365666620800  0.5086364564603610
  0.6735105961498697  0.6531206153719510  0.8024065411486893
  0.5346663398485907  0.6945195155699890  0.6385653921549964
  0.8081227490040874  0.3581940185570647  0.9233326515761210
  0.1080280281416770  0.0673976016497576  0.6792659380642255
  0.4579715586837308  0.0790068058130133  0.0244376743133492
  0.2067810621370761  0.7728834939739574  0.1216764300125620
  0.2485036490039987  0.5343168014223545  0.0349148074701005
  0.4080246794123067  0.6128043168098674  0.1184683224843484
  0.8996456209444605  0.9317863156264224  0.6551921431101450
  0.5982919254700066  0.1000073791348206  0.6644953772151806
  0.2368792886514489  0.4259123821595253  0.9989736181629084
  0.5255801994143645  0.1193102379847298  0.5832416909950067
  0.5505255177915495  0.1623438100027482  0.5341847020224867
  0.5409659633662022  0.0253641660944556  0.5550729084185969
  0.4168453508080782  0.2783453373940386  0.0152129404133541
  0.5226678661317501  0.2422031787963803  0.0053143707906123
  0.7757228187042379  0.2897929543363355  0.9730531193761043
  0.9634154042810139  0.9201845139977790  0.6577363897967182
  0.5330255874271692  0.0073291245763227  0.6213843783318258
  0.1456747916420261  0.8886139770860524  0.7984959206809928
  0.9870331186957195  0.8777431402720374  0.6153240150729293
  0.9689257605970886  0.0289301650504963  0.6030247112056709
  0.6338836998645725  0.8876121383999538  0.6878201341704605
  0.9050185120753966 -0.0176441746388407  0.5268697905744547
  0.5749204797413736  0.7209722113240900  0.3167282656977718
  0.9225335011786812  0.3997498059878669  0.4664407236041629
  0.7849398932110456  0.6398543697845160  0.4669724804178698
  0.9865250631676364  0.0679213900941942  0.2074430613003058
  0.5705581569263605  0.5405631510312336  0.8656322549509535
  0.6884518583683218  0.7617689312510201  0.7865624419405581
  0.8523265033691344  0.3068296640482129  0.2599792215500497
  0.8500760570659834  0.2911740565335765  0.3221835248662034
  0.3038041049709710  0.2223068174032612  0.9373266075025301
  0.1912293417181262  0.9778233062386433  1.0253190237284697
  0.8271460183540121  0.5680732454649943  0.4482340695900462
  0.7448412529757196  0.6628333385769396  0.4978207178339297
  0.5846442763541042  0.7188130743442540  0.5421258404979254
  0.6465082889780311  0.9289638713258355  0.5695527734172371
  0.6493832086547446  0.9967154494526814  0.4862803599839789
  0.6859736753039806  0.7941667015966566  0.5063289883140849
  0.7386140563039788  0.7229968477858419  0.4813380979551193
  0.4274962953282457  0.8538133951102393  0.5197900186452593
  0.5376206778851571  0.8999084294858962  0.6037526604494678
  0.5394279227098954  0.9313575358269515  0.4725199234070889
  0.9531740702871900  0.3294949165551922  0.4641809942063638
  0.9654812795044635  0.3853549637497671  0.4359369133298537
  0.4727259888606087  0.7672330691981789  0.3239105886898324
  0.0250036181500443  0.0261003589129337  0.6195390730594871
  0.9560580880948838  0.9400624237725425  0.6045509443866823
  0.8720940417848917  0.4300346301884146  0.9890992926644312
  0.9662745789695374  0.0318964284862652  0.4775847506826536
  1.0137930236681700  0.9977264860938821  0.5084468471796784
  0.4874972965219574  0.9487399244981791  0.9629714530852730
  0.5755000556763358  0.1561516628387020  0.6550238482070209
  0.5788572144374025  0.0636081096289361  0.9012323361928896
  0.5418335371106311  0.2606784493332831  0.6803923297552966
  0.4845547015041977  0.2333140019990925  0.5533898586137291
  0.6481760782489855  0.2046123229960572  0.9446684214280240
  0.6742685173717478  0.2651399043922448  0.8926993305365831
  0.5810384317751683  0.2444817298345873  0.0793032952362511
  0.6093562673553239  0.1216489000038396  0.8376477376493549
  0.6602826074451617  0.9829401897114390  1.0130581425779839
  0.6219718335300192  0.1864550800576272  0.9947144524523183
  0.5869467820503467  0.1456349723176563  0.7134005402492940
  0.5495410379179657  0.0963820179889703  0.7072945988032956
  0.4872418874524974  0.1032999740778750  0.6863783859994352
  0.4990697485254464  0.0583158518356671  0.6430695609806649
  0.0260740059330380  0.9604249967542794  0.1487181892404526
  0.0737330668339650  0.8976847723631353  0.0653008550665988
  0.4902937253510827  0.0658543897978736  0.5816854499695439
  0.1546862859055831  0.8056992763150639  0.0961405209749408
  0.0961061539164909  0.6618387721068310  0.0544544326962210
  0.7916548136872092  0.7708169211050181  0.7079090260225145
  0.5704662198451627  0.6168225369618957  0.5186791710541673
  0.5835666798078748  0.7948153239333855  0.4741351591070311
  0.4164395034643092  0.1221529155037842  0.6030369185247040
  0.6927860497204871  0.2915806843428357  0.1533010820578219
  0.3983799168626846  0.3648857769577353  0.7260236255201958
  0.2088104071831102  0.8366409720151073  0.1074675387617332
  0.5066149079067420  0.3945556965282183  0.8148679404657029
  0.2331115483923206  0.8812740672898143  0.0613157416363051
  0.6161319492554576  0.4230432759413974  0.9056534204143331
  0.5424633624340346  0.4775728522828521  0.9244396299956833
  0.1341931203039506  0.9716398539770846  0.1201335672061038
  0.2353848253471857  0.9241488735393251  0.1099824470559431
  0.2959983703573646  0.1400094616185751  0.5595766315438686
  0.7272172344548060  0.1072978835559430  0.1106896478887141
  0.2812595806002084  0.1813221945966429  0.6013859786261283
  0.3323887043113675  0.2192790806337634  0.6704609808103236
  0.4034976497842677  0.2003641377303577  0.7542031848698546
  0.3931678365367650  0.2451273700447450  0.7983001720903581
  0.6368612794133290  0.2953922545609974  0.0267988290280291
  0.5255345217020237  0.3708453622675151  0.9376720402897774
  0.5561606887940146  0.4459966516306665  0.0500411737518355
  0.5164931041631848  0.3832046522935753  0.8764278697451082
  0.4546187463246843  0.4430077257473565  0.0123595492236287
  0.6757156019330707  0.4161684153629257  0.9254397826207726
  0.3601309679467816  0.0869819172949717  0.5343885532096716
  0.5590425143174721  0.4892675957103100  0.0937656598390395
  0.4553746808977824  0.5353897745141387  0.1005430399864287
  0.5064044336820801  0.5049178358525647  0.1277369734201042
  0.3595852319071978  0.2824053163699706  0.6149364113507552
  0.5137366196618023  0.5836306007505945  0.0495772021973409
  0.3041581522517247  0.7444378336109927  0.0442299839919061
  0.6681252582767957  0.5682698084381670  0.9895189625012937
  0.5739379422885109  0.4755931114085141  0.6584573444411321
  0.5267776668491398  0.2167438756108061  0.2955242825818271
  0.5836106417557713  0.4628109855224787  0.7180108362080455
  0.5402920097400333  0.5792213614375148  0.6821600094370123
  0.6322696343579621  0.5002855925016481  0.7831231786610584
  0.3078770039820248  0.6322162163365791  0.0226676267200605
  0.2540178511588561  0.7083965074806962  0.0395724795057502
  0.6810095302936318  0.5394684760532634  0.8468096597847629
  0.7058373283667880  0.5834777789988165  0.8849518746055113
  0.6460689870872208  0.5899968283293406  0.8632821713645393
  0.2087344123397061  0.7421932528455386  0.0177259120978782
  0.7161822557825662  0.5707158091176199  0.9469935189632187
  0.6943126997052524  0.6256543326354677  0.9319668541323588
  0.7333886456930827  0.6718162580811518  0.9863097210518837
  0.1842965907796562  0.8507880257367427  0.0510224830611961
  0.1226431003955196  0.8606900866255157  0.0872787179844879
  0.4093091213716364  0.2870172546928927  0.5748310859362648
  0.5790801811950647  0.3428603650238668  0.7921276337601065
  0.6804547740304310  0.2929952301603722 -0.0014628680446542
  0.6051063588424964  0.4368202374156057  0.8421630027362187
  0.3660208703724082  0.1821493577947108  0.8564863990076281
  0.5241191385482762  0.4704595975855346  0.6968059766285554
  0.7027442456083711  0.4803903044366040  0.8654787034489182
  0.4111999157246936  0.5810577128528547  0.0147007427584401
  0.6904468046625389  0.5267466257705425  0.9084475931665332
  0.6305574807376033  0.5336781640385316  0.8864677898307781
  0.3081805932626705  0.5673115632791615  0.0466180808565716
  0.7182249788254234  0.4534277488555364  0.9875044903754236
  0.4650105277218173  0.6784114476209521  1.0085000271423441
  0.3098127889623370  0.2434308033510497  0.5442752190379836
  0.5902592321736861  0.7193034395839443  0.7624591339762476
  0.3583266170229115  0.6461319727742776  0.0932302173379397
  0.3164331389643524  0.1444350025403771  0.7905465499270339
  0.6887940617577055  0.8402993011220462  0.5501938538934886
  0.7485471659605877  0.3389169344893065  0.0976710034080418
  0.7122230838689011  0.9085706332444977  0.5978454076715273
  0.6594604928886528  0.8050338194283723  0.5996730437209141
  0.6517183124546275  0.8764992154033692  0.5903501337285453
  0.6020111637381119  0.3981445204927264  0.1394359782623654
  0.7202540701894117  0.7892543106134643  0.6271462409813418
  0.7563389319253061  0.8719741745823607  0.7329527366225571
  0.4551342188262202  0.4889977948602571  0.0596069033858605
  0.5052104933756170  0.4896183492238267  0.1884924785237270
  0.8599853812707570  0.0465751736589512  0.8851081313374555
  0.3501408863469189  0.5680852681394865  0.3957324101014273
  0.4712092705894054  0.6008150787229825  0.5989614160072430
  0.5679312274343997  0.6287555521699386  0.2248568975799474
  0.4615798764990585  0.6286358847167085  0.1890966023329242
  0.4722065158572702  0.7836426483333514  0.2629354775952566
  0.3692410766170274  0.8296703040109640  0.2735857162052640
  0.7181866700874106  0.8240921659918991  0.7297840498823024
  0.6172341332566041  0.7827867827045848  0.7016682562049987
  0.3258776513019814  0.9253777776926814  0.2328988220153741
  0.7534586220249742  0.9052362414104821  0.8398543205226889
  0.7277321187251062  0.8327827243344295  0.9625464397741672
  0.3315768509256184  0.9705117266583453  0.2790743244023314
  0.7991686398492975  0.9419668709661509  0.9047591649756145