Cr H  Ni
 1.0000000000000000
    38.6687825624360855    0.0000000000000000    0.0000000000000000
     0.0000000000000000   38.6687825624360855    0.0000000000000000
     0.0000000000000000    0.0000000000000000   38.6687825624360855
 Cr  H   Ni 
 1596  50 3725
Direct
 -0.0067367217460452  0.8559611570132266  0.9687113828145110
  0.5782965993925542  0.7630399717546142  0.8038307293952376
  0.0852796426596065  0.7676250666264395  0.9041091382535261
  0.9837616135703303  0.5383386731291967  0.0563645268888833
  0.0755938989340546  0.8138633663818872  0.9430243072438076
  0.8114510775966325  0.3999842914393834  0.2123246056824581
  0.6724234054465640  0.6145338589510149  0.0929026484428149
  0.7683664099214840  0.4907763689845868  0.1653599444213176
  0.9519621442860698  0.8627138394842276  0.2365716595862313
  0.7372592359691009  0.3003620230572845  0.0505698689803083
  0.5636539543978470  0.2356169067959745  0.8047336484443712
  0.5994317345007704  0.7829261992889452  0.9706462975533594
  0.8398735012089955  0.1846984755554862  0.0660469488931544
  0.8591867565346654  0.0140181644239498  0.5033060189610334
  0.5972549818306552  0.9620757807668925  0.2455951226597950
  0.7340593176305491  0.7684275612210294  0.3023682553167505
  0.0198371563918482  0.3677240095430199  0.1791954879759911
  0.3684388253850838  0.7546057673769128  0.9065647062146099
  0.3077048730526286  0.7620369896718912  0.8840717705756115
  0.2285312932852498  0.7930602915040675  0.7337156279885256
  0.3484915425462949  0.7779084859732869  0.7811362605420589
  0.5377366401883754  0.1728178302821941  0.8646545913373834
  0.8775583847525097  0.5697481722371248  0.3502903048843697
  0.3760489118729610  0.8738814155164130  0.8292640674278192
  0.4930230256374036  1.0062918474173932  0.9390617701657035
  0.8487940176507671  0.8862962341512696  0.5323450626678474
  0.8531109408294306  0.9506521349903607  0.5225585214377795
  0.7784444595963497  0.0452216147706325  0.6296387044625615
  0.3670384807308407  0.7338513172323587  0.4098802058967935
  0.5614945364888788  0.5842717352586189  0.4085517050926293
  0.3670693445242048  0.7525137459847409  0.3467868362302107
  0.5144521601635580  0.1982043780705524  0.7384732232775818
  0.3663394872692450  0.7689439004504283  0.2882114459673293
  0.3162924984795713  0.8007775668800031  0.2640355160471764
  0.5702943651382471  0.3218440985392151  0.6236502271861718
  0.5109596355168706  0.3292156532735015  0.6010940487292223
  0.2669516570311296  0.8603055633893261  0.3497481372926905
  0.6086626687272018  0.3728040359644867  0.6286456249705344
  0.5691795006284962  0.3544472551110746  0.7315426256209996
  0.2189236656907806  0.9102320123400787  0.2587946807436455
  0.2733655644552088  0.9231093044278784  0.3317665460200587
  0.6864774209462919  0.3715831806758159  0.8819691627779858
  0.7151245909226933  0.4357728400785171  0.8235639631605043
  0.7727589509949302  0.0314563977499110  0.0942996020343088
  0.7496073683825850  0.5189658677951724  0.9281414105553377
  0.6492774736897724  0.3831667963252075  0.3348674194906618
  0.2640617337954793  0.6915465194948229  0.7104716972926278
  0.8366250270578297  0.7234110607154099  0.2928256086780290
  0.7471680523832605  0.8700928306776695  0.5640943679949189
  0.4318271469079243  0.2301260155332286  0.5822829428852219
  0.5246658596237463  0.6937356784557885  0.4739500072689445
  0.8182012471703949  0.7333669535472418  0.8907640517966191
  0.9414453301104002  0.8129802728893302  1.0163700802445419
  0.4782472092030865  0.7750716715276527  0.4964323183352881
  0.4207667184876579  0.8807495285385283  0.5568909999682563
 -0.0362404276471068  1.0008991302669035  0.3713964786316866
  0.0239352645886186  0.0770229223123500  0.4288492608671951
  0.6496984258223284  0.5776588512514196  0.6633748668547020
  0.8399630428136967  0.1538486043407694  0.4194166694033588
  0.7207167347944230  0.5557237780918807  0.7462471263431837
  0.8958567024878704  0.1987993738282917  0.3659384367481962
  0.6168619609846149  0.6286494308552115  0.6779057725796896
  0.6362038408242953  0.6022885936837237  0.8007995401965903
  0.7447481728653769  0.6302779278767784  0.8865916436887785
  0.7989332473262828  0.3440244305915297  0.4649630554380295
  0.9061133422693080  0.3532696032256478  0.4310090932184127
  0.7500546696014960  0.3702011317403283  0.4354811884961324
  0.7281372192107215  0.6761889451915777  0.9254177956114535
  0.8180586229563452  0.4410138322616562  0.4837023091643737
  0.5691859606684612  0.6159604597452690  0.5192122443324113
  0.7871324835115939  0.8033124346468515  0.8120679031227127
  0.6271809237515479  0.6560731709116497  0.4622149212103044
  0.1607685273663518  0.8462922788706004  0.3721339437057742
  0.3191944022224441  0.8289462373523382  0.3713448182302126
  0.4044172091735572  0.1664307466692072  0.6493930955105565
  0.3231365577976107  0.8728316750015301  0.4153407861273211
  0.5967451486914075  0.3173154022988550  0.9129452089849101
  0.6460106722080294  0.3499885939814719  0.9873071656823985
  0.2734140031897448  0.9051097961432562  0.3944523584367209
  0.2761969351188581  0.9521349250346771  0.4367564725400528
  0.8815399997463448  0.0608227366244294  0.2331928394627205
  0.3984204197771954  0.0493735208331826  0.7250263023651963
  0.4084827447304955  0.0365064617329424  0.7878721701471419
  0.4862506246014325  0.1348346735246287  0.7950174880705574
  0.5245445733525789  0.0946425338434377  0.9269904365818353
  0.4974569553852849  0.1551073082960241  0.9172133674335271
  0.8365393036214835  0.1377995308955878  0.2525242187286492
  0.5733575812282595  0.2214335015308142  0.8667731825317009
  0.5290438571048721  0.1949188673476946  0.9626339552168938
  0.7401752458169568  0.2309305877314088  0.3042589139010674
  0.7899043832947885  0.2158561207689039  0.2704910233855933
  0.4196449826724606  0.0247697309909764  0.8501568397039647
  0.3983612267458839  0.0806258699762989  0.8306997788178112
  0.3949380804430829  0.1908616844234996  0.5265011205265326
  0.7368192781024068  0.2013898341454359  0.1979004690514562
  0.6939879251642519  0.3075923451266416  0.3209823131568680
  0.6011732496807142  0.4129380538916299  0.3069372680610942
  0.7389800013380952  0.7227939042752953  0.4809330945688954
  0.4266818674987672  0.8471971108016616  0.5178702272826958
  0.5920600461687426  0.5580575400580908  0.5357854232819608
  0.9748087112283345  0.8968320552654980  0.7785748062160518
 -0.0006939509506757  0.9724145888769004  0.6454240792704332
  0.4683012603533128  0.6893058269004049  0.3978469240474019
  0.6868730466346825  0.7714705049265325  0.5631999888384465
  0.7458079564172522  0.8115163911378495  0.5742816990799784
  0.4765774774153729  0.7957084896785659  0.4323879016932676
  0.7590092966588786  0.8401414197803385  0.6283170865963132
  0.3785751838770020  0.8911223867761436  0.4856759112313785
  0.8075209307625515  0.8777653860892142  0.6926305013020909
  0.3243986966023040  0.9158509925994421  0.4612995164724639
  0.8630442328436485  0.9027885321689660  0.8224541198025295
  0.3828731310032952  0.9491465442575543  0.4723117104112528
  0.9346747213002718  0.9890276807547947  0.8627687843314636
  0.8754956173830845  0.0283759755407968  0.3535685556323117
  0.9404955149426862  0.9781818417816461  0.9224689012439528
  0.8839979120504686  0.0903704836511683  0.3389147867016226
  0.8118636406018358  0.0428668102597525  0.4743468585745311
  0.6419011624187496  0.7159889591210249  0.5650094721605715
  0.8913852190341767  0.1529007711137119  0.3227201906322895
  0.8484375734935472  0.2773757185774303  0.3835637767745827
  0.5294207554137630  0.0213250496737102  0.8302135331664434
  0.8330012909241342  0.9357354325835441  0.6297657760388005
  0.7719440548655087  0.6962063534456224  0.8260254460523937
  0.1360515391257501  0.9019499321739529  0.7348375750264229
  0.7534208676280687  0.7219449224999552  0.7058160462768632
  0.8323144529298870  0.8400058763368907  0.8816143884438848
  0.8098538508241068  0.4151161004627332  0.3768002291488127
  0.5295969407730152  0.5600568743477937  0.5159556068600690
  0.7828677745654152  0.7145125788667768  0.9931701718498791
  0.5195990852732716  0.2834144067882575  0.5544152313847269
  0.3957144881317199  0.2532415577255914  0.5217812607941571
  0.3137032523682531  0.0123291282346561  0.6642795253118179
  0.3881043618412634  0.0611588478593776  0.6620562061618408
  0.4374396413179076  0.3155545178655820  0.9770306182115813
  0.4777544810114376  0.2510303857381077  0.0416997119774454
  0.5580446110347514  0.0837058838853803  0.7707964402099658
  0.4051066945223395  0.3472181530233358  0.0169370168272971
  0.5083519227567904  0.0797395753507880  0.8120544445008455
  0.5015915327660171  0.3473223998889265  0.0543958127498992
  0.3501202535967555  0.4232142124626984  0.0400052556312937
  0.3990121276092037  0.4406138425299421  0.1107861490005247
  0.6189033117397765  0.1454561226627551  0.9490300582912836
  0.6822003848972528  0.2144385541544737  0.0080030823266288
  0.5891925914542259  0.3294002521651669  0.8546476368304889
  0.6935454702236165  0.2921384436377947  0.1540782846286922
  0.4814843893190385  0.2664470143920197  0.6594606976495767
  0.6903619785087969  0.7296794614107662  0.6806470753128705
  0.5683124909834565  0.6434074855146734  0.3917947194720284
  0.5331080149210582  0.0075147143820166  0.6219451036076621
  0.9606730534255800  0.9224850932561972  0.6568024134646885
  0.1578521374354761  0.1085008788203019  0.7431851196134259
  0.2779909026378221  0.0950830218087864  0.7872729890292918
  0.1907685702727848  0.0231614482782859  0.6214402702057549
  1.0008019632252942  0.1975807587209576  0.4061179742856163
  0.2023691052566946  0.0138786585828125  0.6845209603769706
  0.3675504995271145  0.3360478921054824  0.8914415480389571
  0.9914320269908439  0.0894035917687722  0.3759792781234252
  0.6362733254836722  0.8422491778003954  0.4203437207074764
  0.4798910362899238  0.8556934342599674  0.4175354249938359
  0.3043628852911832  0.1898439093980392  0.8338515825260264
  0.2452897287221749  0.1964558261579017  0.8122253148379173
  0.5270042272055447  0.7803417988955060  0.3985521512110562
  0.6126975136616982  0.9764820390876394  0.7739703062174534
  0.6766965629138237  0.8051282786870874  0.8290005048897631
  0.6835144470233064  0.9245304067753443  0.7541614177109254
  0.4179614107258108  0.4387863375726638  0.6114867179358083
  0.4899573117695469  0.5721423004140492  0.7220680502489878
  0.6330056792747066  0.8873770384894683  0.6873994209995434
  0.8821836693777804  0.4146849625607511  0.5055615098211030
  0.9655959657366593  0.3860848052137613  0.4370232958681017
  0.9533003416177150  0.3281031470728393  0.4637663270148574
  0.5393498457324233  0.9309350453415891  0.4723346756768252
  0.5342932833078864  0.8995703371078267  0.6038649516046435
  0.9042423854255409  0.3061427678002095  0.3925104189932279
  0.7772107578013590  0.2890062019656857  0.9716946216241861
  0.5244202190289150  0.2377980071451276  0.0054388531500155
  0.4096906085708537  0.2811011861752959  0.0188473336700035
  0.5405541260780307  0.0249002042531292  0.5558821761963010
  0.5508683502803243  0.1599750142379572  0.5332237957292636
  0.5257375602870652  0.1190702237770772  0.5841229815522693
  0.2364467275633696  0.4258841819268094  0.9986661803409322
  0.5982529165417158  0.1001594379782195  0.6658317515330775
  0.8968506852127253  0.9330010936451735  0.6554194619572805
  0.3543656394713185  0.5820192344527452  0.1089362498831974
  0.2484772637681756  0.5337308555769654  0.0354799099396376
  0.2067327542880243  0.7728798436755002  0.1216863208677555
  0.4589641231197439  0.0768259402680371  0.0221154823646003
  0.1078732368482466  0.0680127478312176  0.6780120389517925
  0.8076142105663444  0.3575713047058910  0.9238364037165245
  0.5427961770085535  0.6802599699704830  0.6988001222010133
  0.6740377257810922  0.6528571282008411  0.8024954387227846
  0.4762847400695604  0.4308581543450736  0.6320730387774542
  0.1890240354578341  0.0386903403054209  0.8250988858859365
  0.3606441381352298  0.2159034787161920  0.9570250976067287
  0.1966259561501352  0.2222292420207978  0.9552645420045325
  0.2910088931642076  0.1140452206150332  0.9551762095137034
  0.2165808727595230  0.1325910795982711  0.8707848358684661
  0.2643356839667633  0.8336183774049017  0.2388117661751803
  0.2569211702867811  0.7590690726658720  0.0847266342854245
  0.4610468497412288  0.5089798361987155  0.7784619868711730
  0.6738796931725857  0.2326215933067413  0.7870886342721591
  0.7715748662019472  0.0166749211541839  0.1585091887371235
  0.6138444070860500  0.4945075110792900  0.5594084651756764
  0.7207866848017853  0.5243595790058015  0.6435037610485274
  0.6889291160979852  0.5975388418041814  0.5630826291523532
  0.6269441028254710  0.1692062091208785  0.0587225493286876
  0.7577260164135184  0.5878649937625502  0.8436190872942955
  0.8189287301985773  0.5802222563702676  0.8654590718371239
  0.6874941494444196  0.2305842429166390  0.1730706952881858
  0.9431960318462215  0.7037401454382584  0.9992944345989853
  0.5476961547096965  0.3972801018634414  0.2371363157167009
  0.5381486054336527  0.3063505490120645  0.1534299465142213
  0.5395963524310010  0.3938467153373286  0.5431423999700612
  0.5515648933736460  0.4131886951766144  0.1747982006032521
  0.5104886555786499  0.5832363361289350  0.2763275835082761
  0.6565350740797224  0.4099795584816224  0.6961734233840176
  0.6934328297129499  0.4600570550664629  0.7006717485060652
  0.4571546200843604  0.5667882539928004  0.2049808118280680
  0.6669579126582296  0.3974898849801525  0.7569976189386004
  0.4082899233377768  0.6291943762578243  0.2833021866693411
  0.6819273702552267  0.5059511847347145  0.7423369994282730
  0.7733329979420214  0.2749273706279470  0.8119058320236849
  0.5525225166191765  0.2153187560107883  0.6386978883250276
  0.9073327372884114  0.7886502371694228  0.8613946345172325
  0.7673231002747597  0.5744106602947930  0.9071056017815767
  0.8335427005448299  0.5573228713622741  0.9909890237568973
  0.8443894204537512  0.6633059862487942  0.9706955751972874
  0.9147672634005725  0.7750601895706059  0.9208768537942776
  0.1560245758670602  0.7886213455130622  0.1561691676140655
  0.1584989808782142  0.8337823754263842  0.2028253648582265
  0.8603399585025595  0.7519263820252420  0.7918933016104597
  0.1039776947956390  0.8225255251414699  0.1313414162194759
  0.8499522896535548  0.7499692679852260  0.5660188126974462
  0.8070239357934523  0.7009126174328204  0.5640766605950982
  0.1622483459293103  0.8788473586494885  0.2486131777538462
  0.1277432018469742  0.9092491981662576  0.1355522747845588
  0.1326778238369782  0.9536847355654210  0.1798206470733670
  0.8818700197218442  0.8257747731765231  0.6749375445748097
  0.8898951046871600  0.8143897464632768  0.7358089422413008
  0.7673436448890367  0.9870911131211287  0.0506226544921138
  0.7247246931813710  0.0764241318719192  0.0048757053236567
  0.9049742979906374  0.9412804873256065  0.8871145862789737
  0.6758439195423277  0.6256480019031664  0.4948916480779113
  0.7008192100368594  0.6604781369361614  0.5361675284607567
  0.6034208674752342  0.3616156185024308  0.0285894304558866
  0.4957136190250295  0.3823436237245881  0.1666849263500555
  0.3066166057596662  0.6935842255234385  0.2315057203135458
  0.8461770158573951  0.7762367734663158  0.5081961267013230
  0.9676642762674637  0.0282295859084187  0.6055125065734154
  0.5217981192866458  0.5011692616534522  0.8012782765804702
  1.0133879898202052  0.9979950830481934  0.5075040836559808
  0.0235304100666055  0.9241208527617393  0.9131042065861441
  0.6085671553443033  0.5191863625354431  0.5014436842648429
  0.4500600046800217  0.4578026293656524  0.1814681074493618
  0.6400620794619589  0.5912730837761953  0.6015256507978923
  0.3562221947799560  0.6303072073674848  0.1516076471091867
  0.3546953420241384  0.6145990770789719  0.2129102152587321
  0.8460571261707934  0.6423291270475181  0.8070023335225268
  0.3590780980975448  0.6773838537855903  0.1953624776464882
  0.2608380019933920  0.7877473058539284  0.1926772371415487
  0.9661690919730435  0.0315663326384020  0.4776701505364849
  0.9534103881200523  0.9403039762080844  0.6050231986546901
  0.4321055981375016  0.3924283123713578  0.5597349358709129
  0.5365183707155436  0.4248715384078896  0.6536431004619123
  0.8945096681790990  0.1832362708534425  0.1987504884953934
  0.2214366423074390  0.3517486695228151  0.5517418796570682
  0.3414324656009790  0.3368679338141138  0.5976479280935885
  0.2664254217037134  0.4237617672520379  0.7256444452673600
  0.4266071956392661  0.4255416107103392  0.6698319981548647
  0.7576402423460163  0.3989771679721354  0.3089828355660958
  0.4024211928221917  0.5164969150557326  0.7572481034094433
  0.0231520090077271  0.0268381792954449  0.6207066976301463
  0.9043168925076491 -0.0167960823108769  0.5268552244476921
  0.0103103873679002  0.8154716613084307  0.9237404410057208
  0.2032785315162501  0.6154192893754378  0.0476250081224705
  0.4816279222488119  0.9507868832252219  0.9621969435079315
  0.5756106600213231  0.1562243774845213  0.6551890552721963
  0.5803145487826338  0.0607824702196973  0.8995000709135714
  0.5424490363008108  0.2602673731902509  0.6807574434431389
  0.4854742237980540  0.2318496407311623  0.5533490003352616
  0.6454042830800567  0.2063343118314332  0.9419424138138540
  0.6736907784062742  0.2628039870526483  0.8942209976495110
  0.5831988463111349  0.2452849885961381  0.0779126771217026
  0.6094509628753594  0.1203073784859410  0.8386503510863821
  0.6610186996732761  0.9868911242520130  1.0116482063670114
  0.6239342956017686  0.1244146011298585  0.0099988415161855
  0.5864494110174291  0.1453266759900880  0.7148703251983900
  0.5487355768115509  0.0964145509357476  0.7087049246929014
  0.4875840700815749  0.1034404618612696  0.6871742487887096
  0.4995313734621992  0.0582086604178062  0.6434787698240654
  0.0268677458309210  0.9594132803354546  0.1484107015232653
  0.0742831863588222  0.8965426124278775  0.0646453776320048
  0.4906988218854523  0.0665096492042282  0.5827329362302904
  0.1562184243955916  0.8057333341229637  0.0963672951512038
  0.8745809596638976  0.4302888013789802  0.9892130072904255
  0.0967660248237192  0.6624504187937059  0.0528214084463546
  0.2659647832284849  0.5876409649338188  0.0147198553831661
  0.0181401400983079  0.9273689048903784  0.6095282447472562
  0.1382152812975189 -0.0018619077897445  0.2259967100370767
  0.9918178462552137  0.1052195916937883  0.3146860849210720
  0.1572848620686276  0.1898374751212838  0.5594481118614453
  0.1733246064937751  0.1818264452937144  0.6209406265070346
  0.5809323578334787  0.6296363063688661  0.9447132352102716
  0.9534905612499224  0.2157233845561814  0.4398396414613366
  0.9397289913909757  0.1054706734123836  0.1810970690583010
  0.6617603849954453  0.5064439058723998  0.2941261580919532
  0.7087067448500735  0.4299301837635672  0.2801445465485999
  0.7525456133530921  0.4850031218889223  0.8255434062183600
  0.9207915739382968  0.8972542841601128  0.8461800093210194
  0.0607896432079448  0.9267029549445029  0.2579062367995960
  0.2064339428656530  0.1138176283795859  0.7028660465269010
  0.1283167088174159  0.0539451163503933  0.5301560327537099
  0.7324411501749288  0.9598865487374044  0.8200657046931881
  0.6620074024869705  0.4422968527928037  0.0856613222156754
  0.4432515777487374  0.7750550224425877  0.5361204873946381
  0.5030979342924536  0.7667504467439803  0.0033683761485494
  0.5137217850460843  0.7553514843834378  0.6205438383144425
  0.5525358064433913  0.8367539374867486  0.6317795232338785
  0.4654104362317932  0.7302212024672015  0.0480126635032726
  0.3520215682887393  0.7803366578310162  1.0035375005793228
  0.5571180106849368  0.8903607031527826  0.6657530922729000
  0.9449079170050423  0.1817494209557344  0.3325756003954471
  0.7203100770965239  0.5680587787504111  0.4099266304189133
  0.2224561374680490  0.2201254967338055  0.6877534932241322
  0.6121687525332580  0.5367917592179539  0.2685095950701304
  0.2375273627800149  0.0758149074672835  0.8900363149428144
  0.8585582700545498  0.3864099844634251  0.4036312133196140
  0.9111275899083734  0.3687341184375974  0.3713507754375677
  0.8061270491350625  0.3691126134548742  0.3366246411790044
  0.7616189645368323  0.4447235138813139  0.3497848653659869
  0.8170918478470616  0.4762364091606514  0.3576308403277259
  0.4048138496748957  0.3847457773086583  0.8951684552487054
  0.7707267754427444  0.5530147910913538  0.3758207362825747
  0.4505947752131800  0.4217591986758905  0.9592067622938257
  0.1807493253215050  0.0335832730998098  0.5590044546694362
  0.7477413082623697  0.3080352705972674  0.2245342207283389
  0.7880859583181201  0.1845522278200376  0.1642240820909262
  0.4256422603078230  0.8433361906085609  0.3445889035533575
  0.6558661462730597  0.4134940153197391  0.2108852325315146
  0.8171760129637267  0.8642753601153242  0.9854495183726925
  0.3805984189301156  0.5128423698778785  0.5337778194507048
  0.6589348946943480  0.4595442244272997  0.2528128486649007
  0.5029352258726629  0.4973972436283749  0.5752510590229639
  0.2916605887358385  0.6192842810039468  0.5315373374111775
  0.7113089106882504  0.4451806837198297  0.2177405687873822
  0.6103574802107838  0.4902870586871231  0.2261123016283071
  0.6649643513523602  0.5219580828677653  0.2335448959144464
  0.5710397856685901  0.4077298375709486  0.0071244574125893
  0.5768691137939351  0.6096448792138497  0.7804769264563183
  0.7091526119635257  0.4452418119408945  0.4442133938810716
  0.8000227763701576  0.7592007158503077  0.7682505063394318
  0.4123414148610141  0.6912133844211725  0.2670130651533475
  0.4478599552664839  0.4099960644481999  0.1365867372239818
  0.5848897440795970  0.5963932577081921  0.8428245601235802
  0.7603240532489592  0.4147773270646646  0.2461866702221349
  0.9053329868713479  0.3972641784468817  0.9502871765657778
  0.8378211930329101  0.8083385957091661  0.7746954602631493
  0.9529429268111137  0.8231098923573749  0.9329986555932366
  0.6640752419095137  0.5531560976970771  0.3385294761343696
  0.6058221447694152  0.5700378082123222  0.9684028584623317
  0.5462828409096976  0.5774611857167113  0.9478817752275124
  0.6133042927050306  0.5676979761220075  0.3746391612906313
  0.5753640575988170  0.6241247631905001  1.0005757837228628
  0.6708990667173649  0.6147165413646705  0.3222740552738280
  0.6287084081184157  0.7353246447033599  0.3900877004417344
  0.2997213795757925  0.3213417550344362  0.6988178319410800
  0.2978060543081005  0.3546243563281486  0.8057010209592702
  0.4337323806795433  0.9337056143706134  0.4382772965623349
  0.3801342452335139  0.9213540940854282  0.3639343131155146
  0.4333230256819170  0.4465173119749218  0.8372578505660490
  0.4430469894023930  0.4351837288460663  0.8983889086975082
  0.7242297217473639  0.6584397470717660  0.7623789021355494
  0.5635465603735426  0.6533232633064762  0.8218729617759919
  0.6235312314760718  0.6461637108088003  0.8431143327551313
  0.6489380315156794  0.9963562585022392  0.4865895032190072
  0.6485475252760811  0.7440025039180952  0.8867272158233575
  0.6388564404578760  0.7563017731523617  0.8262382056933019
  0.6113658034889929  0.6927149862073886  0.8856370736623628
  0.6690417170507321  0.6851352531453979  0.9053395803329715
  0.5236694436286693  0.7354488722980017  0.3493866049879681
  0.7163098830057452  0.7231574648185939  0.9701051709972826
  0.5739170975496422  0.7215890202917505  0.3162648092142976
  0.4167935454520658  0.7371660927723704  0.3131981149832225
  0.9211426018447245  0.3999828055625774  0.4658567219386713
  0.7852441139994171  0.6403154200319262  0.4656252376196435
  0.9872673874009338  0.0695387824989098  0.2080082913577376
  0.5702517229907748  0.5397114481933515  0.8658468711927306
  0.6885547779103606  0.7617431613440909  0.7867026192558193
  0.9032234941013256  0.2759645887771832  0.2869464976733766
  0.8512316285215791  0.2914897147916701  0.3218406195255722
  0.2654725847129449  0.1689695432859464  0.9377906396943418
  0.2076362102482489  0.0100772041987228  0.9533890935970762
  0.8270292776253498  0.5677953788202851  0.4483976879808252
  0.7451471685102624  0.6616421736393607  0.4975797812361580
  0.5863885030341247  0.7175474920938634  0.5417127454390187
  0.6447458983930527  0.9287493564557339  0.5686389276771003
  0.6852838271353084  0.7933646589122911  0.5069510736596572
  0.7909711203174049  0.7713562812465292  0.7069036068820698
  0.5788727939855276  0.3424147030343077  0.7922911400809793
  0.5822280317890414  0.7951629584924150  0.4734414862875114
  0.7961243865287202  0.8886526638115377  0.6298209219784840
  0.4427351597211870  0.2175096642438208  0.6533462515899814
  0.3985597282420730  0.3639368314546201  0.7262625451650545
  0.2094128921973559  0.8370658516533405  0.1065970629463083
  0.5064765364713458  0.3939153297440688  0.8153009422501584
  0.2351430092411463  0.8817757000598236  0.0595439375894451
  0.6153110926160745  0.4223947319010564  0.9051626601338860
  0.5420514360751131  0.4765021773554435  0.9245830351875877
  0.1341370169557416  0.9715369272097494  0.1199466699543124
  0.2359350537136707  0.9242848847538098  0.1087913457568962
  0.2957574379417073  0.1395529705042023  0.5591262035018968
  0.7282497150530455  0.1076549878674626  0.1114869576119338
  0.2817205977714780  0.1812973382336900  0.6018077890742838
  0.3323250468135341  0.2192029387232354  0.6705133872167565
  0.4042152655497152  0.2000444210602461  0.7538738782483376
  0.3926926147019774  0.2451570186668122  0.7976844404052967
  0.6376071647241481  0.2951118563037191  0.0249877450502347
  0.4874782118999730  0.3190832620955292  0.9362388935300451
  0.5579726404686736  0.4457598821978684  0.0498169163370775
  0.5160674656268880  0.3823781350008522  0.8759527168520763
  0.4549997704348840  0.4430816576582923  0.0117673452101783
  0.4518242145827929  0.2845555606131528  0.5354421100133848
  0.8552077581138703  0.8896190035421526  0.5923998843243333
  0.5597853029025200  0.4893848356043376  0.0940074353329606
  0.4094478548064959  0.2862153364480854  0.5755058468760674
  0.4575041207349761  0.5360998539326162  0.1014193268500878
  0.3597400274725542  0.2817385275645362  0.6151562191527791
  0.5137300074649735  0.5836449076155933  0.0500969356655470
  0.3042546943252058  0.7444814263166204  0.0438328150852391
  0.6676231798770078  0.5671672849361235  0.9894993190685608
  0.5732644061886915  0.4744532692063245  0.6586822209874245
  0.5266640575034682  0.2160304835107272  0.2968684744867712
  0.5835163664022884  0.4621594756753519  0.7183420637166904
  0.5403744341284739  0.5786604963383410  0.6818761194792656
  0.6317103308432559  0.4998752469045611  0.7827945250729885
  0.3085536021056523  0.6320840686393588  0.0228716710878771
  0.2546185327318982  0.7092090676945100  0.0396008410823439
  0.6809642208323816  0.5387047622484156  0.8468805534604544
  0.7056334780895572  0.5826024658070053  0.8846883353137800
  0.6462104392704388  0.5889183612274084  0.8634262383577724
  0.2079027376065704  0.7414284344227687  0.0171361856353268
  0.7162760979004662  0.5699535679677400  0.9469860493530270
  0.6943323392236467  0.6247787515558667  0.9314283149291563
  0.7335316561825344  0.6732436513728158  0.9855959390460677
  0.1862188991732493  0.8517179926148262  0.0507121125176343
  0.1230941859345332  0.8589677782068714  0.0863332737204490
  0.5111956697524794  0.5675704119738070  0.1099764149227991
  0.4614685300867788  0.6602034598407976  0.2927746077549275
  0.5743108990071033  0.1907945077093020  0.7612904420130761
  0.3650132889409813  0.1818993203609221  0.8553462838322968
  0.8047257328281825  0.9095594057610531  0.7990976377410925
  0.5239121198375521  0.4699151420004671  0.6967570087810984
  0.7025893882252177  0.4796185173635551  0.8653942624511890
  0.4114817419744425  0.5808229212533360  0.0156938576283842
  0.6905506194312289  0.5256830321476962  0.9084963829461001
  0.6303404809538522  0.5327742449615948  0.8864254197049500
  0.3074853215853228  0.5680744744123892  0.0451162463979224
  0.7188280055165140  0.4526854294248241  0.9873714295535143
  0.4647165996129144  0.6784067201216858  1.0083648768985711
  0.3097940014887078  0.2432927403563706  0.5444995680969483
  0.5906232233329320  0.7195911045877490  0.7634845661702158
  0.3593699145446849  0.6474963945278431  0.0932822914269838
  0.3160917794576661  0.1448252700247426  0.7901384946926342
  0.6873483070370671  0.8377830649842928  0.5502607030280362
  0.7507046467395292  0.3395354695320963  0.0982859698444264
  0.7182116714222914  0.9054792764899504  0.6026318575773495
  0.6580956038909052  0.8043331669276572  0.5999546588579094
  0.6825045932017886  0.8896242179195927  0.6497401246267627
  0.6033918619447675  0.3982742108571314  0.1389718585191052
  0.6959764206070659  0.8805587166835672  0.7115722713475479
  0.7334732266712051  0.9287753390893214  0.7137014496532070
  0.6047553456414134  0.4362021367752721  0.8422525068593361
  0.4559162978540367  0.4891704279123141  0.0597664911474584
  0.8592740758299144  0.0461920454969429  0.8847333451657705
  0.4142821138256906  0.7245502816652747  0.1464034621653636
  0.3487866511271903  0.5679970790941996  0.3959306733027829
  0.5671557674426474  0.6292396129546864  0.2242742437975319
  0.4085517281928854  0.6448664314163841  0.2231108455207339
  0.4721276897546849  0.7841354033526076  0.2619568871281186
  0.3697583153488547  0.8302033997608265  0.2732750268678716
  0.7171548803643036  0.8234009138928443  0.7290368782393242
  0.6179880552171028  0.7823406248622766  0.7015509818870836
  0.3256785941065292  0.9255213202067782  0.2322350256006958
  0.7528088422297857  0.9051295195502644  0.8403765488045464
  0.7254481509071210  0.8322014268196004  0.9598293448829386
  0.3312680150382294  0.9706111080047387  0.2782421235587200
  0.7978717815401986  0.9420089609125710  0.9057565545376992