Cr H  Ni
 1.0000000000000000
    38.6687825624360855    0.0000000000000000    0.0000000000000000
     0.0000000000000000   38.6687825624360855    0.0000000000000000
     0.0000000000000000    0.0000000000000000   38.6687825624360855
 Cr  H   Ni 
 1596  50 3725
Direct
 -0.0072382034400124  0.8560575846185753  0.9691331244432566
  0.7402620107291998  0.2308783246101872  0.3042062913293915
  0.7900256217973582  0.2157780576717650  0.2703809254195437
  0.4194545874107923  0.0248493108076815  0.8502214326227980
  0.3981595251652451  0.0807311793401341  0.8307076302112127
  0.3947775100391055  0.1912269621049588  0.5263968828041099
  0.7369337731714070  0.2012793094989627  0.1978337930930832
  0.6940844297653828  0.3075835350552620  0.3209397668943466
  0.4033800386255550  0.1668181523006161  0.6489859795290935
  0.6012339328342394  0.4129200596545570  0.3068760568861733
  0.5358018326429922  0.1735217277718596  0.8638202852089888
  0.4320131279983754  0.2303759805082791  0.5838505177193116
  0.6273301702249116  0.6565528863587839  0.4619328369816447
  0.5247972928699259  0.6936232478586648  0.4740404516211240
  0.8184626248699158  0.7329620626800658  0.8909974852633946
  0.9410653193934042  0.8136973624351489  1.0157912009850478
  0.4781995297318448  0.7750152605254647  0.4966152229524219
  0.4215053763401841  0.8811329078131347  0.5572028097159715
 -0.0361352909129409  1.0011397633853789  0.3713113542051560
  0.0239274834529454  0.0773752576902301  0.4287680996245298
  0.6497514979935927  0.5780787250802953  0.6629903949441102
  0.5634682444459581  0.2355878874655649  0.8049535682150781
  0.8958911150542719  0.1987427059115145  0.3658497317056873
  0.6168544791325348  0.6290441576529884  0.6782174502535601
  0.4901488078596514  1.0058854778479629  0.9381442646196936
  0.8495448550230486  0.8837498342729326  0.5334909325461321
  0.8508175602707869  0.9481054792528459  0.5278576495396966
  0.7626038731381091  0.9898771545918582  0.6541295499825265
  0.3668371538643288  0.7336116993377076  0.4101552690178387
  0.5616261598652849  0.5842452170212485  0.4086360887467847
  0.3670736202022296  0.7522416754824925  0.3470861899561203
  0.5141261030360246  0.1983756287342079  0.7384913787274647
  0.3665476111631423  0.7687043784950420  0.2884217532486903
  0.3166787760842798  0.8005426471019552  0.2641820528011922
  0.5703862893194560  0.3221052509466056  0.6236735669538326
  0.5111570755343519  0.3295935510631581  0.6010120674389036
  0.2674078299317350  0.8600318661291024  0.3499349374545967
  0.6087333579797423  0.3730741305761356  0.6286416569463789
  0.5691811768793302  0.3545880741766027  0.7315885687067853
  0.2184321150968203  0.9099306646420130  0.2601293284583245
  0.2734283667071000  0.9230783954909184  0.3320931377677866
  0.6861337065001140  0.3714019856053941  0.8819428453015145
  0.7149392406747725  0.4357683780326738  0.8234049607282558
  0.7728227726706314  0.0313536892130885  0.0940553247198820
  0.7493799285902593  0.5187478341596381  0.9280215540535705
  0.6493695756204032  0.3831851029911619  0.3348533698273349
  0.8398861977206910  0.1537812351611947  0.4193569827886622
  0.7203516788129624  0.5563094221403428  0.7459271006617653
  0.7486630657630737  0.8710876745496717  0.5645010294241490
  0.4517707757567316  0.2846346001099259  0.5353777232683109
  0.7965762627772351  0.8891355662082567  0.6292906913556203
  0.6070456141334644  0.6428247978062780  0.6184668021183261
  0.7276344967616620  0.6272895364407877  0.6594314690711842
  0.6525792392674662  0.5610368055426825  0.5014995330880451
  0.6546793605944364  0.6796583703252459  0.6820208090664064
  0.6644894959135944  0.6663991133449549  0.7418318635966613
  0.2033157934725907  0.7095257132273877  0.1379480067400543
  0.5629110767638373  0.0511209310687287  0.9515637458395020
  0.6003213046271590  0.0063731504326187  0.9175429408557567
  0.7620667833333360  0.7083033208612114  0.7658662160930990
  0.5149682936264733  0.9666593751551027  0.8574715420231828
  0.4040591832586471  0.5510777000053276  0.1361587450895166
  0.4105098922700051  0.3193245002532841  0.6818180464661601
  0.0796672139048353  0.1078011628216815  0.4384808531002598
  0.8274150375226229  0.0316046590935466  0.2295447391804667
  0.4054813623044316  0.0307139962599953  0.0734516449005606
  0.0475420821771236  0.2119171408801077  0.0180175508293918
  0.8813485621160614  0.3050759229184761  0.8942610632880488
  0.2569075154316057  0.8242551176165577  0.0713282381036743
  0.5589720277887650  0.5210795236695280  0.1981476027584212
  0.4264982751086895  0.1758627114989942  0.8787003439826155
  0.8588001477894847  0.8922774715294690  0.5895842172331743
  0.6359364488094953  0.6024202997519290  0.8014942707711682
  0.7444578503843773  0.6301656005822346  0.8864435464165504
  0.4615672405171238  0.6601070155855213  0.2928673370440694
  0.7990428868504695  0.3440179333413232  0.4648600446532097
  0.9063212457152995  0.3531380525593414  0.4309065910010372
  0.7502408799583233  0.3701713560229835  0.4353372134641932
  0.7284365920091116  0.6761275155393307  0.9256688789210663
  0.8184736525460733  0.4408127172402054  0.4836093498282833
  0.5690091775733453  0.6160735663829559  0.5193049621839576
  0.7870108715721342  0.8031642904579919  0.8119404337644573
  0.5683113286343767  0.6433060233130751  0.3917987603777786
  0.7719471052365987  0.6959288831744300  0.8262189854508815
  0.6904305203947824  0.7301363774133636  0.6805467037263774
  0.4820861127950555  0.2671749993666753  0.6596352850790388
  0.6936548823753917  0.2921275071965125  0.1540986198819494
  0.5890145044809407  0.3292548832107258  0.8548092679542556
  0.5788115953185966  0.3424117974441300  0.7924129641835269
  0.6861117263595914  0.2898793484170907 -0.0000664898856492
  0.6746753371878801  0.4146122778720683  0.9245822751010621
  0.3603395353749523  0.0886384170971152  0.5347165567510822
  0.4162255128890835  0.1223378442101202  0.6037085318130719
  0.3660237294488820  0.1187527654394583  0.6430756065471357
  0.4632410173321473  0.1602128017678337  0.6709657162399749
  0.5641121712003044  0.5978177764132948  0.3487315324652936
  0.5740829250411544  0.1908566109335423  0.7613923380814877
  0.3544336696935864  0.5820696778203962  0.1090188030481712
  0.8968093422489349  0.9321016352354018  0.6557124881354655
  0.5916488109737147  0.5582585595345635  0.5358231712038100
  0.9747017030822165  0.8965438383072151  0.7792741892096392
  0.0013345343050336  0.9704871052899039  0.6450727165651566
  0.4682855972158998  0.6891840145027003  0.3979738949356864
  0.6873262547648411  0.7720566432655570  0.5633316165301963
  0.7473469006580391  0.8123899956979223  0.5745894797253240
  0.4764815832923308  0.7955837761972575  0.4326178055524895
  0.7596141435702216  0.8406551312624199  0.6279289342357181
  0.3783802903636765  0.8912549141849948  0.4858584638774045
  0.8075936405045039  0.8777001648415649  0.6923531072939820
  0.3238866095524454  0.9155501514775741  0.4610183254463749
  0.8629634816100311  0.9027745846075550  0.8220394397274382
  0.3826345253091781  0.9490732965429279  0.4724760146747290
  0.9347856206231975  0.9889541103763275  0.8626066830328482
  0.8756383933486754  0.0285403355859038  0.3535900147813053
  0.9395908471522275  0.9780279948317562  0.9227466664107612
  0.8840462550585335  0.0903076832757701  0.3389393858808198
  0.8112255618895349  0.0427378580292652  0.4745172248269969
  0.6418461244151987  0.7157716707166774  0.5646313103298393
  0.8914572342619559  0.1529238132686968  0.3226510676694172
  0.8485311187187946  0.2773055529663885  0.3834245807765979
  0.5289079373095793  0.0210495039290511  0.8316468185489841
  0.8336278771793791  0.9368833044497779  0.6277190959253806
  0.5592450962953230  0.3204711951089846  0.0144620677210713
  0.4476669536274199  0.4099888055013283  0.1364880363238656
  0.7538960673898970  0.7223057553805625  0.7052396541906121
  0.8322089329817556  0.8400589498141664  0.8812201783460504
  0.8100317102679455  0.4148916928874363  0.3766410269552310
  0.5295330748033630  0.5601954410449455  0.5158236055023301
  0.7822536095201403  0.7148610356901077  0.9934560145002905
  0.5197321079154548  0.2837241292755951  0.5541599623573499
  0.3958339103642893  0.2533255644681041  0.5217771776097698
  0.3136090852348866  0.0124062001843063  0.6642366566736534
  0.4490068295828584  0.0537085501439057  0.6834269355021625
  0.4373565856751538  0.3146406824561003  0.9768091703170134
  0.4778749404837320  0.2510310863996078  0.0413587708020918
  0.5579054771202324  0.0837282811434492  0.7709769572950991
  0.4052918194053428  0.3473023415366926  0.0170053001121713
  0.5079056409296129  0.0796412321768838  0.8123189096159180
  0.5014225517973313  0.3474266238499947  0.0546230908268951
  0.3501535978045719  0.4235715973486535  0.0400630101743778
  0.3990762708816542  0.4409144724418150  0.1107441077823111
  0.6218974960551631  0.1449961207662978  0.9515911811210349
  0.6820679422123478  0.2153132716173222  0.0068892955870109
  0.0211970033996679  0.4175884827684370  0.4448206587462886
  0.0527106760541648  0.3620943511524213  0.5521293323005478
  0.2674519178654537  0.0740498064330118  0.6189054327867337
  0.2204021113853300  0.9677958769862648  0.4750133143423209
  0.5662329779842924  0.2442861915635835  0.9658323774824961
  0.4125544672114952  0.6910384853852317  0.2672176428349031
  0.7998997115870440  0.7592019354207903  0.7681140058898278
  0.5423681038714597  0.2606801448529268  0.6807977209201491
  0.5797515306083824  0.0614537611224541  0.8995511511663832
  0.5751096951802358  0.1562214035704005  0.6554397203772525
  0.4796349941794412  0.9507102203440948  0.9612322345765489
  1.0127996838763840  0.9986128412285469  0.5072377081617288
  0.9662011112583804  0.0311268062509218  0.4778407263648652
  0.9558943585590374  0.9426858635064095  0.6065121525152510
  0.0612269869421606  0.9733023431553132  0.6051330470341086
  0.9545367504016141  0.9534864152088089  0.5505141638153428
  0.9621694772751921  0.0291654239549214  0.6081755933701073
  0.8462969076669681  0.7769355733535468  0.5080509598079309
  0.0220610978880475  0.9274753034840075  0.6033767561642467
  0.1358683102614367  0.9022432805493246  0.7350999589989782
  0.5327681400017820  0.0073425940897479  0.6221164214548757
  0.9608218410966237  0.9223815913457060  0.6588616142795245
  0.7767366027450459  0.2887742774292671  0.9715215755495256
  0.5244576717113607  0.2369155243995030  0.0050781674365533
  0.4099793399869618  0.2810254355952080  0.0184132367760306
  0.5402571363934333  0.0249292661106027  0.5558588463627491
  0.5505585326801774  0.1601465422905542  0.5335190799547550
  0.5251353319206470  0.1190625804601965  0.5841989340188057
  0.2597084166574128  0.4843319021845356 -0.0072243974456460
  0.5977692633073675  0.1001699333857720  0.6660857834366095
  0.4851919706081655  0.2321886408466935  0.5535216796501908
  0.7243942068627847  0.6591816925183163  0.7625683908470789
  0.7094205948184070  0.4452292038418059  0.4442006165639298
  0.6735305069233914  0.2327083966485640  0.7872598691907238
  0.5521432119606664  0.2154170461570391  0.6388116052244979
  0.7730135631759445  0.2748480480104188  0.8117243620363552
  0.2655563186716893  0.5878801811747021  0.0149467053266591
  0.2025931602122656  0.6155254770969980  0.0474458069721766
  0.0962892524955328  0.6620497937594465  0.0533542098223667
  0.8744495476450370  0.4303829111648689  0.9889717111036774
  0.1550610376038085  0.8050899577633907  0.0968942607191827
  0.4894705590619782  0.0661931358979730  0.5823444213643552
  0.0740489978067574  0.8970692358963673  0.0648111831996277
  0.0267584997898028  0.9597912088999438  0.1482517840338069
  0.4985092515722744  0.0584839770820598  0.6441744323254402
  0.4865232431041975  0.1039822220386000  0.6872641313332229
  0.5482438861265191  0.0967004443021520  0.7086763866401490
  0.5862954614408910  0.1453333606786681  0.7151125744485715
  0.6239638074316932  0.1244323379038635  0.0101005629538806
  0.6608877805200424  0.9861632829503253  1.0109409407817480
  0.6086781616876471  0.1203054727563257  0.8392880177702785
  0.5833460978124095  0.2455088505806328  0.0776466703265639
  0.6729056128439754  0.2620560014750695  0.8951581139426180
  0.6362798942550216  0.2502523904570325  0.9838249256721922
  0.2646186607409795  0.8337174289997502  0.2389485666348868
  0.2568499260274874  0.7587157154192041  0.0846145331323554
  0.4610275608381059  0.5090039200488486  0.7783523156928861
  0.7324999976955410  0.9602323243467458  0.8199686160974372
  0.7716500243877386  0.0166218631075525  0.1583320770954723
  0.6141398077112410  0.4952729695455815  0.5595795984447168
  0.7205706047074143  0.5249817453826603  0.6424040627643636
  0.7129828096758924  0.5373078410860679  0.5852256578443624
  0.6269446539843888  0.1695481342688043  0.0581309809482131
  0.7575365153820983  0.5877467360933052  0.8435457690184457
  0.8188676684524870  0.5798244600161384  0.8652913237946341
  0.6875791002093415  0.2305394137067150  0.1730340272759247
  0.9446464175520659  0.7052226927908853  0.9993611220315733
  0.5476963733423834  0.3972353255477977  0.2369964339737045
  0.5383711466685877  0.3063675481540207  0.1531514331949570
  0.5397502567366976  0.3942064488732103  0.5431737720594211
  0.5515626400693331  0.4131364416290068  0.1746100315499054
  0.5105951625178397  0.5831560482280820  0.2763567307294980
  0.6565340607850673  0.4102433825760535  0.6960895090630571
  0.6933322043544091  0.4604155433155894  0.7004685520777859
  0.4572884263712984  0.5667578907964637  0.2049798584746030
  0.6669046234005601  0.3976539503544055  0.7569127011621081
  0.4084090286717194  0.6290107172486297  0.2834084015677520
  0.6818722014721337  0.5062514138430955  0.7421204308511024
  0.2062935813436550  0.1140203205318263  0.7027408135670453
  0.1278480254926004  0.0542043794548364  0.5304968441280842
  0.9072171225649485  0.7885316805887642  0.8604859174646426
  0.7669711332541751  0.5741402199944302  0.9070160778953401
  0.8333275186816284  0.5574527116502241  0.9908854859586372
  0.8465204230853878  0.6625421054093659  0.9702469238301432
  0.8781398311646219  0.7245255259747859  0.9135205066822576
  0.1565682831805330  0.7881593353048122  0.1560568859477585
  0.1586463501285260  0.8336133440696806  0.2027902860300700
  0.8594341803119055  0.7518304992299448  0.7914339543084526
  0.1045507822987667  0.8215379555998076  0.1300614589594642
  0.8505515392985441  0.7506864115948158  0.5660988156975951
  0.8071711628645246  0.7013113653755060  0.5640522165160432
  0.1630775648489357  0.8791323001130009  0.2487233290290985
  0.1275898883300040  0.9090312673323580  0.1356450853421030
  0.1329614297324846  0.9538439759935621  0.1792920963005271
  0.8818535762476696  0.8260352072311860  0.6740551686439783
  0.8891466404985662  0.8145144398145865  0.7356271910192882
  0.7673742520169101  0.9870144672838320  0.0503844088902463
  0.7250697711374787  0.0762845352663097  0.0047337046472596
  0.9050380091029433  0.9411658347923438  0.8870644441619506
  0.7354011877922538  0.6046565961669064  0.5218761668222517
  0.7013098542029520  0.6619848404193878  0.5366215515094056
  0.6038381546250933  0.3618112034291854  0.0284292516799164
  0.4958402134025467  0.3823567721531239  0.1665083265353887
  0.3069811839648205  0.6933921293628690  0.2311905285102753
  0.7603850958585250  0.4147436198263019  0.2461377226023849
  0.9051013703161809  0.3973396697102499  0.9500385628361355
  0.5217136906258539  0.5011870331811207  0.8012400609188340
  0.5462026140170615  0.5773800804512578  0.9479608982669863
  0.0234768594923339  0.9238771066969728  0.9135203343110774
  0.6086745186921940  0.5189414049796087  0.5015697906850880
  0.4500500731708124  0.4577541750883962  0.1813888296020429
  0.6895952256395986  0.6000840093388047  0.5596182383488113
  0.3563796212282683  0.6302325999303043  0.1515662784102429
  0.3549855166283181  0.6144702746686904  0.2129093143505557
  0.8458558907171226  0.6422385328213044  0.8066651933967521
  0.3593964488939460  0.6773595187860417  0.1954027654133096
  0.2611350105603847  0.7876941054913978  0.1926612064543127
  0.6057316252554107  0.5699318881870127  0.9685091870593581
  0.6642652079546268  0.5529793510576608  0.3386053473717257
  0.4322034082180548  0.3926661986651191  0.5597156961837657
  0.5366017834331837  0.4251464908374743  0.6536767444358269
  0.8946367587643567  0.1832243415781646  0.1985859693557240
  0.2215495035065909  0.3518863678196708  0.5517890736709244
  0.3416309800513218  0.3370458674853120  0.5976324506309462
  0.2663746531933905  0.4238040790566879  0.7256216291408141
  0.4266298375873999  0.4257484915386869  0.6698657262708940
  0.7577048988407474  0.3988836852649320  0.3088634574376985
  0.4024531836133483  0.5165280413023604  0.7572349002864950
  0.9534297375231451  0.8233258004830979  0.9328990539436296
  0.8377099686051787  0.8084451547506464  0.7744009007150551
  0.0096685632922199  0.8153362823934558  0.9243768239702506
  0.9207098441634960  0.8971127621075237  0.8460366278674718
  0.6134355993030435  0.5676317477853134  0.3747190502110708
  0.5753486227730661  0.6242496761047923  1.0006937037438619
  0.6709468861165050  0.6144898963158885  0.3223413942830928
  0.6286742691635572  0.7352171730434489  0.3901830273592192
  0.3000842692396322  0.3211183318874443  0.6988939410019552
  0.2978627478036414  0.3544449650868715  0.8057204411972845
  0.4336506835704858  0.9336809756986354  0.4384786897717673
  0.3801378816980431  0.9213098176887591  0.3642745130148552
  0.4332670999140745  0.4464984927833427  0.8372900581905857
  0.4428870083037297  0.4348488803514383  0.8984432426087673
  0.9919252469836550  0.1053261328839206  0.3146045442979430
  0.5704275117926094  0.4074484205251316  0.0070219208694632
  0.9449908760972597  0.1817807029251620  0.3324743412734711
  0.1578242832136258  0.1902194488307357  0.5594503645357894
  0.1735009098171616  0.1822229813788985  0.6210519900514011
  0.5809383431595573  0.6297080754690325  0.9449364226099156
  0.9533495484256266  0.2156580289553162  0.4397296011732359
  0.9398735440668227  0.1055318587100103  0.1808971112581090
  0.6618461922891671  0.5063614426732045  0.2941208433657139
  0.7087576737473047  0.4299125525407805  0.2801247157232821
  0.7524594340041755  0.4850084914599582  0.8252808912749340
  0.0611643108019335  0.9267701238479902  0.2574027014071131
  0.5846990798327497  0.5961786327067858  0.8430587725402864
  0.1678626220193353  0.9415136360351369  0.2341869048271464
  0.6559078100822532  0.4134967917558621  0.2108282496466707
  0.6589920328346912  0.4595190409288845  0.2527673910300656
  0.5029060739110026  0.4976243248882898  0.5752560415786738
  0.2915318663321121  0.6194645492222789  0.5318230439343172
  0.7113856403177156  0.4451927525590289  0.2177352495430595
  0.6103876218879956  0.4902235854229727  0.2260286659698383
  0.6122215400048036  0.5366953794967178  0.2684735401779418
  0.6650099077356282  0.5218987615939685  0.2335091489886829
  0.5766654983302451  0.6094788207395636  0.7805442715466382
  0.5636995548550759  0.6532559292178393  0.8220146778389665
  0.6233660809804037  0.6461078468584990  0.8434091581644038
  0.6487569229810721  0.7434883498744221  0.8866412142618882
  0.6386142637501311  0.7560530685217480  0.8257359538504960
  0.6114005780539475  0.6926767888346184  0.8858617401984751
  0.6694358639196168  0.6847096467431789  0.9061195137891269
  0.5236738528785739  0.7353626958240508  0.3495494698295623
  0.7163762232193136  0.7233447627833516  0.9702134667755679
  0.5739937324918015  0.7214751380385975  0.3163382218238021
  0.4168935985407522  0.7369780936535791  0.3134625479938865
  0.9213128515995128  0.3998423935608247  0.4657617555090048
  0.7851202587057924  0.6397028063621349  0.4668454986384157
  0.9874227957660795  0.0696676488089677  0.2078610554926782
  0.3804421625873691  0.5132263174739250  0.5337875279714032
  0.5701310632436146  0.5396279084956571  0.8659159912668197
  0.6885337294228586  0.7616097028458795  0.7861864340162313
  0.6767027983700084  0.8054268101155810  0.8291176527121903
  0.9033398674157717  0.2759189761790296  0.2867870459304783
  0.8513504341642354  0.2914117876009303  0.3216749631565198
  0.2271744048256445  0.1199939081112633  0.9319775268890735
  0.2071083686580384  0.0103806283357394  0.9527894948103265
  0.8272958830165763  0.5681918663965743  0.4473455688296766
  0.7448975887107617  0.6621515459070197  0.4987863462227359
  0.5865453982816490  0.7176388009114425  0.5416503033375657
  0.6451392681977408  0.9288439460422346  0.5687489608087846
  0.6488511730567048  0.9963393973235709  0.4867052253588753
  0.6852351178364985  0.7934217071168119  0.5069770217356713
  0.7388851595216348  0.7229665224203217  0.4810705403560219
  0.4265365913116330  0.8474055137680735  0.5181229196373949
  0.5345923973507909  0.8995986238877158  0.6038190045017753
  0.5393183910511860  0.9308987149681033  0.4724107760778988
  0.9534539008828772  0.3279689503389535  0.4637092858801263
  0.9657842871201590  0.3859685586318612  0.4368967310941115
  0.8823597650224091  0.4146617853488740  0.5054216077548965
  0.6330061955670279  0.8876710171828514  0.6875675443725455
  0.4899930628690480  0.5722586511921786  0.7220370958849279
  0.4177037546702523  0.4389735770446749  0.6117321358453167
  0.6835099710378960  0.9247700223474433  0.7541464977927751
  0.6126300360167303  0.9766344865773280  0.7748487125873129
  0.8176902785953123  0.8642203710980684  0.9851050502829173
  0.5269792074262835  0.7802502710189515  0.3986456622957431
  0.6620577789496452  0.4422670471338397  0.0856028611904054
  0.5035327860086471  0.7669956458557551  0.0029950013423781
  0.5137243038566012  0.7553954317787268  0.6205660999451601
  0.5525196987294755  0.8368698661245599  0.6316941728293342
  0.4652084826139552  0.7305610580533928  0.0483726093162940
  0.3520684140142354  0.7805247412607484  1.0035303913827101
  0.5570446029979025  0.8904940151431328  0.6658702947949157
  0.7203236348987075  0.5679978631641042  0.4105520970082683
  0.2225487989067881  0.2204333334423814  0.6877952955477691
  0.2373191356779719  0.0765987991987476  0.8905621943997197
  0.8587714155577409  0.3862455610621332  0.4034456377601975
  0.9113001427188320  0.3686204806875478  0.3711884151595685
  0.8062450401843144  0.3689635770749729  0.3364570945507655
  0.7617324559709210  0.4446449313721231  0.3497010635841726
  0.8171027665370234  0.4758812004400791  0.3574466337239220
  0.4047224693249724  0.3845686713537156  0.8951761092851116
  0.7718623654627176  0.5537724488185013  0.3758393979966615
  0.4502958197467605  0.4214544900059052  0.9590938866126195
  0.1802519737015404  0.0336372782360695  0.5588188951670374
  0.7478376248345517  0.3079617641635785  0.2244767171276724
  0.7882265082046020  0.1844332332788157  0.1640808657286320
  0.4257697814207828  0.8431759327520151  0.3449444204451816
  0.4430157001345380  0.7752215724471073  0.5362108691503995
  0.2451456186496829  0.1964569951928969  0.8123674043895690
  0.3043854378360863  0.1898563611224233  0.8337185093329499
  0.2066802466982058  0.7727091556754517  0.1216659569237675
  0.4798565333307506  0.8556130157277405  0.4177067330116330
  0.6362411757646497  0.8421291262846421  0.4202796245743808
  0.9914297308622170  0.0895160131892787  0.3758440339619857
  0.3675260463870719  0.3354612331496916  0.8916899905034313
  0.2034205065756359  0.0132585157976618  0.6838254689583879
  1.0008287360675876  0.1976957749241828  0.4060005229854936
  0.1908379169058745  0.0224262900775064  0.6221942295193997
  0.2775135409207362  0.0950538093410463  0.7870039174458999
  0.1574543170780542  0.1083958686762738  0.7431253240901281
  0.9043965714682586  0.3060662282895028  0.3923798713368147
  0.2163831889101067  0.1332418352332490  0.8707136137549056
  0.2907969088605652  0.1133444145269491  0.9539283481198325
  0.1965276564587431  0.2221696476677613  0.9551939814707905
  0.3605569050100354  0.2153221838465570  0.9568789978918434
  0.1883739072384450  0.0391104679688920  0.8248460824318308
  0.4763529143602619  0.4311416843322381  0.6321196138054698
  0.6508550122714247  0.7121971939940955  0.7835006038874665
  0.5429113250359607  0.6804328072777759  0.6989142903562994
  0.8073578279464210  0.3575170076443888  0.9238246954703730
  0.1077938543328387  0.0691741114349011  0.6783146015665105
  0.4641754729483704  0.1051496096395789  0.9586728159278356
  0.2484076399693954  0.5340831537567319  0.0362913786727250
  0.7909994675545537  0.7716022979029595  0.7066066801882079
  0.9228015061573506  0.4785163536872030  0.3919881817349223
  0.5821565474117871  0.7951625976856437  0.4734458599910172
  0.2712503083687287  0.0092682454212471  0.9745763089174047
  0.7380919434967146  0.2151655395031967  0.1369695807730772
  0.3986200497309377  0.3640480457824825  0.7262798924025169
  0.2090858556358731  0.8368603389483422  0.1067353713981245
  0.5064412756385109  0.3939036925680694  0.8153235694071445
  0.2348211918312725  0.8817094762118450  0.0597751010025362
  0.6150924400720686  0.4220865313571348  0.9051960491220566
  0.5418024083396225  0.4763629313194126  0.9245546847975159
  0.1341746734556335  0.9716943324302950  0.1201437389549004
  0.2359997940710737  0.9241824289288739  0.1090869811224095
  0.2958091937819139  0.1398462443335553  0.5591523733931497
  0.7282894033158003  0.1074974842125441  0.1112751378868645
  0.2818407768478446  0.1815283086330667  0.6018848324412055
  0.3324846901905849  0.2192807059248259  0.6706328825009887
  0.4041029784765119  0.2000057526501247  0.7541745265609904
  0.3927563505804865  0.2449622472662392  0.7979779419751603
  0.6385989120813935  0.2952385346328447  0.0237718205039761
  0.4870794971441364  0.3184887850521209  0.9361574974673084
  0.5579792052370532  0.4457751512713978  0.0497062557237937
  0.5159201536708253  0.3822595842197435  0.8759509280635039
  0.4548711961292224  0.4432139229980723  0.0116455717937632
  0.7836062342595118  0.1380453760905970  0.1186718711609175
  0.8329618851717673  0.1075622430475170  0.1448499116779410
  0.5598058477185284  0.4894455044059349  0.0939438502883822
  0.4096157067341855  0.2864439851138127  0.5754756784597883
  0.4575570522956199  0.5362092028548617  0.1013815266668506
  0.3600204824746274  0.2820197200604602  0.6151667767227134
  0.5136350603667067  0.5836927182903199  0.0500766181203973
  0.3040950470457860  0.7446110037591523  0.0435578045091711
  0.6674289079944182  0.5669943043440664  0.9895875843101793
  0.5733246391396992  0.4747135244205478  0.6586525975603332
  0.5268295916237932  0.2160079580474535  0.2967766037276707
  0.5835163434737035  0.4623877279500833  0.7183133436862382
  0.5407808792667178  0.5788949498421572  0.6815545167164451
  0.6315930457317396  0.4999705435234488  0.7827687981135112
  0.3083375777948708  0.6322415814969752  0.0233040136230702
  0.2546866553547319  0.7087683751243683  0.0394475920854836
  0.6808621656527110  0.5387631531728942  0.8466860065477383
  0.7054276955713146  0.5823308531752526  0.8847785705573288
  0.6458870066454253  0.5886375810162912  0.8638216789921492
  0.2080984981307245  0.7418088530845736  0.0175339528506642
  0.7160838619032865  0.5698560950480893  0.9469688207796794
  0.6941252393252265  0.6247764970242642  0.9310725888801922
  0.7336746517383500  0.6734295469302223  0.9857785998031402
  0.1856677506658325  0.8514964211494400  0.0510305388911403
  0.1229577200489557  0.8598458990954282  0.0865293171371849
  0.5112589204837314  0.5676379195820742  0.1099918940132375
  0.6583770832468452  0.0555597224111728  0.4623756403383227
  0.3479032123072042  0.0746888574437385  0.8737391658606962
  0.5053528108202987  0.4895134708127071  0.1887513827211586
  0.4558667011650349  0.4893166978785252  0.0596854220210140
  0.5239390107579652  0.4700962004821664  0.6967259227455002
  0.7024216261776545  0.4794568382003523  0.8652788392552174
  0.4109879018883466  0.5808338162151079  0.0155099098546437
  0.6903258561049832  0.5254996549625982  0.9084063190750119
  0.6301251154910149  0.5326407959601609  0.8864761544642323
  0.3070553422466828  0.5680691658984252  0.0450680328810179
  0.7185760483007951  0.4524950643704703  0.9873308606833120
  0.4647088878923545  0.6785103477620803  1.0083444568633124
  0.3100395154203263  0.2436373282438228  0.5445717506483742
  0.5909691825219466  0.7196667636497612  0.7633328585442328
  0.3593685393246990  0.6474386104278479  0.0931233054903128
  0.3158910603882329  0.1448064096574138  0.7899756219975207
  0.6877737272435285  0.8380562428824077  0.5503250227011112
  0.7509572431601330  0.3395232398875475  0.0985092298791872
  0.7176277894386393  0.9058200619085488  0.6021721960083781
  0.6581414445703944  0.8048948794374275  0.5999105436415543
  0.6825657534826622  0.8901029035239855  0.6496219185505699
  0.6034640551740995  0.3982279391060062  0.1387488895879202
  0.6960427814645960  0.8809040896955732  0.7115438676442580
  0.7336619509893133  0.9291333459793100  0.7132220724534432
  0.8048369077913714  0.9096071999115587  0.7986887120793580
  0.3647784710976756  0.1818256013090333  0.8558621589786606
  0.8593203919738823  0.0461839987715756  0.8844074953866631
  0.4140547343066774  0.7239990554354048  0.1466077298567789
  0.3488960945123553  0.5673643488956296  0.3954803131123288
  0.5672511354174046  0.6292237476056798  0.2242896478333841
  0.4087806970423773  0.6447785634969082  0.2232196142919995
  0.4723736786904368  0.7840038105268446  0.2621953659178970
  0.3700258442523807  0.8300213396325801  0.2735777183299690
  0.7171640259780704  0.8237097353364506  0.7290336411380517
  0.6179518729597898  0.7828402616694458  0.7014794221943467
  0.3256870224677578  0.9252596395974927  0.2327096177959695
  0.7528225543213922  0.9051600863530425  0.8401678772852927
  0.7255349004707250  0.8324689999122104  0.9601314671597679
  0.3312242428999651  0.9705878061611579  0.2787447314186528
  0.7981349464524417  0.9419694301043778  0.9054722540799797