 C Cr Ni 
 1.0000000000000000
    21.1200000000000010    0.0000000000000000    0.0000000000000000
     0.0000000000000000   21.1200000000000010    0.0000000000000000
     0.0000000000000000    0.0000000000000000   21.1200000000000010
 C   Cr  Ni 
  52 259 605
Direct
  0.5795665136676570  0.9278724241776310  0.2584597111340310
  0.9087223532520055  0.2605059414512701  0.4207035659985877
  0.7445613243412528  0.7446133923337780  0.2410016035259586
  0.0047182921409893  0.2582588084608909  0.5141882510613266
  0.2540641698955202  0.6681969058635665  0.3320563150714970
  0.9213871389164382  0.5726176709045544  0.4243481902314217
  0.0020326123302370  0.9897153662042177  0.2358838706455725
  0.6582395798174387  0.3371107399856271  0.2436925316698262
  0.7619974282697636  0.9321694689798200  0.2645526277081484
  0.9960608844116491  0.9979756134710162  0.7516427005950130
  0.4790720376017785  0.0183850956084035  0.2615524398708681
  0.8236975321867046  0.2528475203710315  0.3286778822971514
  0.6674776957482558  0.8339358116112384  0.2570691860197612
  0.9087921481330200  0.1661890507660229  0.5128324006665017
  0.9113032053106974  0.0883341744092070  0.2374120594151515
  0.4138082342075757  0.6672550537718184  0.5064146868706240
  0.7388476056172195  0.4139867215408994  0.7513143607525845
  0.5641247651376970  0.6637442639591160  0.3361615398336726
  0.4887780141250118  0.8337773756980725  0.2566634583265471
  0.9097610875111383  0.0754177120324797  0.4221785109143277
  0.9069124040105154  0.9843227000550132  0.3272662585664521
  0.0848592901524465  0.6730809475809998  0.5032157397949716
  0.0054607198497112  0.0727912966449368  0.5158073991960931
  0.0931609085516795  0.3404487264239676  0.3262420128427340
  0.6700856470648343  0.9275433995088985  0.1574395912830246
  0.8308868448438262  0.5698826151451727  0.3283770036214281
  0.8298325212110661  0.6638853378529759  0.4272333436754106
  0.9263085827264308  0.7497432519119206  0.2396854935746279
  0.8139053572942813  0.0781714642982339  0.3268545162677337
  0.1648398350889491  0.5758242874270293  0.3340680790125657
  0.2508352507495988  0.4168070697614790  0.2481400291085152
  0.1814545490218644  0.0864059106671569  0.3362868696550018
  0.9255352462971862  0.6639466369264936  0.3318930471606766
  0.4172857093355296  0.0809341231100911  0.4153554477595023
  0.4869589395911334  0.9228867558570942  0.1606855601338583
  0.0023044805205075  0.2575915485265469  0.3236215241561822
  0.5787542407788169  0.8315907398770580  0.1593967572143384
  0.4069613580469060  0.7404136166992330  0.2554939444130140
  0.1839369723018555  0.9930519984571856  0.2389884057312910
  0.0062518340147863  0.1667729801553768  0.4212013169610114
  0.9993755469840186  0.0794565529930324  0.3310705214741776
  0.8169447508541668  0.9894846789075562  0.4229281611942753
  0.0028294576749000  0.3510304295346683  0.4208422230523309
  0.0916840109127746  0.0871021968215496  0.2386845136135810
  0.8326706267326901  0.4148877562539272  0.8390298463277017
  0.0702380233454413  0.4940261553082062  0.4863357475263929
  0.7408315286930330  0.3420312873158387  0.3368732674650227
  0.0818161354549466  0.5807530536879062  0.5943265214932122
  0.0913262107456015  0.9906643550259523  0.3370279412515811
  0.6623709963261153  0.5848469445562620  0.9983833282355418
  0.7418918407140590  0.6595847887873824  0.3338156469284017
  0.8304036591001991  0.7554757907302182  0.3332852665627797
  0.7584006637571942  0.9199860958630940  0.1641450916938312
  0.7464278668516668  0.8332237417400193  0.9167295695693455
  0.6682230327439703  0.9233051715995132  0.2492841302470399
  0.5694551534313725  0.3357810936635420  0.2457743052305666
  0.8236958572129917  0.0889107783992198  0.2375501024628426
  0.7544999894663040  0.8373823599259028  0.2440608612567132
  0.6628842830534604  0.8334726467144190  0.9957500620968860
  0.9132775556920264  0.0008601130729273  0.9179197961264661
  0.8291676814081989  0.9166287661387577  0.7541316368432232
  0.5772295070413329  0.6695977226228035  0.9144976760064826
  0.7463063745418207  0.9159885788989729  0.8358222221516463
  0.9965947295999908  0.9998165633576462  0.8414831869585510
  0.8309124526765782  0.7479404151337783  0.0758293770634634
  0.6614781781984405  0.7513993999003699  0.7534805833884636
  0.9988513914936795  0.4165930565058700  0.0793444291975331
  0.5732878303265715  0.5744949975483945  0.3353054826453982
  0.7414409433073053  0.9144067068425172  0.5089493743472456
  0.3316812241288961  0.5004372891652820  0.9956963803181190
  0.1666242508792665  0.0009232047006943  0.9966376157925358
  0.3933944085233875  0.9988023985761076  0.2480236551045957
  0.2531441968200664  0.3266474829337123  0.2452212275589412
  0.1699997480604054  0.8308085131185871  0.3345990893052682
  0.2483287371977544  0.9170393926827846  0.9951947938489760
  0.9151613701049492  0.2491379682188919  0.8341567351072339
  0.2547981674884242  0.5788930486554531  0.3331425005781481
  0.0006136625418023  0.5823997593815102  0.0772123735819329
  0.0821145013376106  0.7512256018491188  0.6731931470100282
  0.2491161739200331  0.4991971900665303  0.0768114440656253
  0.8293815515188084  0.7497120025679644  0.5897751034492302
  0.8169146511210945  0.9880525642787124  0.3305109694900081
  0.0822307996815320  0.0825361125793606  0.8333432459780904
  0.9080803931517719  0.0765135407549354  0.3295731703653327
  0.9156838962017930  0.4823269536943989  0.4217234710078842
  0.6603222753923359  0.5807305991794998  0.4235778564939277
  0.7438961499372518  0.4157895808087801  0.9960607187834460
  0.7415632313662099  0.4164087411135697  0.8395979908927330
  0.8300072719190389  0.4153695068805765  0.7490607019077272
  0.8289380972529716  0.5730913885645681  0.4217692135463428
  0.8194012111368002  0.0809266227733650  0.4193350786129506
  0.0838277024700992  0.2500429286346991  0.8340063287279499
  0.9088872657351592  0.9856803723272144  0.4189647436815898
  0.9135113449918134  0.0776907905968495  0.5111067170978130
  0.6619328375317128  0.6691508463651469  0.8334174854618210
  0.8265027313937343  0.5022649009875954  0.6746273385220933
  0.7398888046806175  0.4157681982830695  0.6631200299570571
  0.8256255352533048  0.2503426817206563  0.5895659977719363
  0.7474615963995549  0.5797614744082430  0.1609073302332575
  0.7455443484310146  0.1680424736627766  0.9162808069490505
  0.6591297367729458  0.2489539426813445  0.5890051971749553
  0.7451338235453350  0.5055657915875241  0.7532283222251478
  0.6605381058991239  0.1705606246191593  0.1600139657233144
  0.8270530003736414  0.3296329103011987  0.6704346640789767
  0.7438869891262844  0.0829460576962880  0.6720094300573098
  0.5809341921614574  0.0003611206981841  0.4243712002719278
  0.7361545933298926  0.2505233152774212  0.3338999401731620
  0.6595724154954509  0.5856780825831095  0.7546787467951570
  0.5776574673674874  0.5810137516360361  0.1613476455790201
  0.7411703761122794  0.5708606912387988  0.3354571671320243
  0.5794479648291646  0.7511080092232192  0.6724973354352136
  0.6608839002078133  0.3351229522209406  0.1543738279931724
  0.7449290236289421  0.2496685671531039  0.9985347283968888
  0.0105481942934400  0.4394627573651729  0.4214799360849126
  0.9174760824072242  0.6614664311665917  0.2409619255268109
  0.1702583201727704  0.1682860109910983  0.5060771187071300
  0.9146057157271394  0.1689826172646707  0.9154570280314249
  0.9985721736257056  0.0819455869228292  0.6036474953547757
  0.0838706709316330  0.2521686546988686  0.9945055795684093
  0.3310711784189525  0.8345383518958071  0.6716112177427539
  0.4923326999033620  0.4981990478892364  0.3338150736609526
  0.3339683013133148  0.4157846055505183  0.4214231879634783
  0.9984250391031878  0.4157025669786911  0.7509891378145516
  0.3322882466584932  0.1667426913032022  0.8324781734921578
  0.5789575861378216  0.9228642176788848  0.1633707425636686
  0.4964986015728732  0.3326805239827451  0.6705394464573357
  0.0013640905132288  0.0824341865578631  0.2414693760976015
  0.3328456773980562  0.1666591288941853  0.5051930125815909
  0.3349509052085311  0.1714163389551734  0.3335057330451693
  0.0836852914024355  0.0860266249087828  0.1493964471195729
  0.1674588282857858  0.1670647572203159  0.6715012805838033
  0.9997658955050177  0.5003205072312484  0.9972796433750075
  0.8337465895785212  0.7496157578700041  0.2421936352306089
  0.9129087079130176  0.2546193660255511  0.3308027420266617
  0.9974302686722787  0.3363900633656026  0.1566757042841159
  0.0967327774674295  0.1696317509459866  0.4174986629038893
  0.0848995899161169  0.4925114552874720  0.5869839985582848
  0.0861108437056851  0.9944576072662166  0.4272523027038253
  0.2700418211254920  0.0872427790662046  0.3334751907595658
  0.9211999794340278  0.8963755869008346  0.3348045719748138
  0.1677682150300908  0.9159578441500446  0.0756726315532775
  0.0823300216299281  0.7486910570151328  0.9958274044930907
  0.0902170902830050  0.0826610452274162  0.3316623677592302
  0.0847174982335307  0.2511929493484139  0.1578622676913633
  0.2503546122373147  0.3319321539005172  0.5897126619083938
  0.0869910152301263  0.5823388327130342  0.5045516518052539
  0.9995713941672335  0.2582707604473664  0.4209389993296481
  0.4135746579045069  0.4993482917201594  0.9159955083149961
  0.0810963231015309  0.5817308238757797  0.9962463023554865
  0.0001954817563978  0.9148164468898555  0.0756754921771528
  0.9130078453035111  0.6676837392442709  0.5911539509307976
  0.9989810124467163  0.3345410818078058  0.6746137623803012
  0.0004852382797671  0.1668541270971153  0.5102609078176440
  0.3326091344944523  0.0880793258170518  0.0752708799757171
  0.0869132515684612  0.0000132599335075  0.7533496420378450
  0.1671326390482392  0.9165556436411502  0.9176793275995181
  0.1734740691101656  0.1759850000209813  0.3327451865723933
  0.7520389474950794  0.5846203867505873  0.9972519538232485
  0.3322743878745137  0.5009542451160914  0.8345156691241596
  0.9109820700646439  0.2552213883952517  0.5101974444792530
  0.3313619128418317  0.3330651120842669  0.8325117569473850
  0.2509708934084631  0.0834495325317714  0.5072324109906378
  0.9970492260435638  0.3461617162972691  0.5104947385854820
  0.9959587388247702  0.8332565705663054  0.6713134877270460
  0.2572697807873872  0.3335230796248839  0.4211609426417297
  0.2499836479304988  0.1691541229888365  0.0761652414580347
  0.9165416863143323  0.8309075682949292  0.4236183045443901
  0.1664843053727388  0.4172400006921967  0.7529495347571238
  0.0020585605464796  0.3448875642853362  0.3301555784204622
  0.8302846062847145  0.5059920031333357  0.8328854951886949
  0.9975980981923888  0.9942542144217483  0.6623133083680169
  0.2493106148559179  0.6632958349185981  0.2408235926517045
  0.9120860009659502  0.5800934532869757  0.5148419664513674
  0.3342657133343815  0.2554252749499401  0.2457093040078677
  0.1647163795520946  0.2499727226457612  0.9140855787975856
  0.0884845867942891  0.9007017700409571  0.3356962463182423
  0.3308890992316282  0.3327542852936243  0.9957813003231168
  0.0916190723463706  0.2504151257401516  0.3316494325755958
  0.1631098411806871  0.6672779648990487  0.3316814750232899
  0.0810468315392320  0.6689952372039396  0.7539746044365538
  0.6542267699925078  0.6614447137372760  0.3353323009833082
  0.0016096067240389  0.0766018952539441  0.4227443012025445
  0.7425871039143163  0.9987036366869400  0.5899487854167088
  0.6624608140979645  0.0837182957936071  0.9138405791068308
  0.4889598641729754  0.8318969189506900  0.1643421613916512
  0.5782788352214491  0.1645448320502938  0.7515864414462439
  0.2498904534903464  0.4160204142617552  0.1553767156172798
  0.4954511198367791  0.5008483163041819  0.8359466906394677
  0.6589745088250795  0.5828118563703604  0.5891194962831454
  0.4970165354698475  0.7441876447102096  0.2501903488480308
  0.2505627441550687  0.5795204062062275  0.5067493937607337
  0.5744505181673870  0.7523479356237827  0.3405931982005857
  0.4138138190718399  0.6684777340722354  0.9159180669439173
  0.5781079474665290  0.7427129810475054  0.1629438450392785
  0.5751631934352925  0.4991982759471324  0.9150831173180280
  0.5774969366612716  0.4161926962952207  0.5060106541490937
  0.4016129078192349  0.8319517408817952  0.2510352627574628
  0.3281412445898086  0.0831536199947684  0.4237109768379374
  0.3290609907800003  0.9178355550555589  0.0767401093496761
  0.1799435439342089  0.9957984416861524  0.3317198067759827
  0.1663693191073509  0.9151484398860429  0.5890902724277626
  0.0808954415301647  0.6708970316084755  0.5944817894647866
  0.0766104325022783  0.5782212316971789  0.3277098652246790
  0.3186956449363049  0.7458370381914070  0.2457192086025809
  0.0860239704924330  0.8311157945208980  0.4216735166265513
  0.2507512150059435  0.7569673218002658  0.3371297270030200
  0.1647069401605088  0.7481701957072618  0.9153729220839621
  0.2471573312244792  0.6676563682334959  0.9155694593312487
  0.4145848028183424  0.6674232009776802  0.5958764930402931
  0.4143397583554895  0.0834605156188224  0.3254474639257922
  0.4954538708486090  0.2506250166353365  0.0770422713137706
  0.4125262079544993  0.0046065965125898  0.0772687202677929
  0.4135957720361266  0.5729833799375754  0.3347964231995222
  0.4142021302668956  0.4993087564998184  0.5896258173373274
  0.6677671315891242  0.8350115493835060  0.1612011176408674
  0.0000422808530700  0.9901079328510587  0.3303720463571406
  0.7443933807690867  0.0842602673647122  0.8374293446214164
  0.3320044735446722  0.0002024566093404  0.8348317096652497
  0.4123359677444448  0.1660714091724110  0.7506182524059065
  0.5778958415262196  0.0847079847104725  0.9951478856624869
  0.4140614026531532  0.4164728740852511  0.6719461340617608
  0.7443951767182386  0.1698358126834408  0.0759942850992207
  0.6548229482814100  0.0030805281931898  0.3379441339126219
  0.6615668094184559  0.4173298399039613  0.0799188865628032
  0.3980085761877061  0.9180409889041610  0.1632091596513097
  0.4915659419526977  0.0121333851540763  0.1649071588250670
  0.5788548820857489  0.0829383372520940  0.6716054708519419
  0.5742965311750091  0.0158583037234661  0.2487022663633692
  0.5784297973766120  0.3325522186423908  0.9158681223687211
  0.4125993852740591  0.0001889704900852  0.9133257705380831
  0.3315661454304807  0.9977723855777459  0.6703081473207609
  0.3315286054486052  0.9160588702509000  0.5900880299292525
  0.6508550036161580  0.3386070065306871  0.3350095021422554
  0.3305311960588223  0.9137634647546963  0.4251589809857786
  0.4139321741940157  0.1708496788630819  0.0774080533050639
  0.5767781877037808  0.3316348826071236  0.7513137008046631
  0.4135474139933070  0.5802943592648595  0.1586440796405039
  0.6560055117674395  0.4160301694921038  0.5877544936563412
  0.3323362740317963  0.1654453377601042  0.6715364026566050
  0.4971113740190808  0.9174373819465023  0.7543501177017813
  0.4943425621218860  0.8320226006086049  0.3469381454375455
  0.5782051870391784  0.9995835517530001  0.5902273189139147
  0.4971827603477458  0.9167247112503506  0.5897880982813715
  0.4900975830909786  0.9246859540571418  0.2512448529342455
  0.7389018691964203  0.6630810760514619  0.4253489409392315
  0.0825412624300211  0.7605840920934258  0.5064791978291129
  0.0007385550227257  0.1693902092605782  0.3319815385225243
  0.4939766881497408  0.8336271158382875  0.9960757481225553
  0.7424289981023865  0.3364520303152818  0.4271052875451364
  0.7488671399925759  0.3387459115385342  0.2443801606726153
  0.8290985100667875  0.4180896659026506  0.0743466503713234
  0.9145647921373194  0.2503174826911527  0.9945366036172547
  0.8253984367298591  0.1663363600573159  0.6725145917882305
  0.9056998389898483  0.9989852833607753  0.7531486443908167
  0.9993326721263560  0.2532480389860865  0.6027374291431279
  0.8188553729085534  0.1664998173096879  0.5055185606941750
  0.9125904241012373  0.1671231623476901  0.4205180936839576
  0.8310039495108436  0.3452353563245439  0.3332290360962745
  0.5741544173318407  0.4189675358133869  0.3369534001517371
  0.8267915806968879  0.2539192671114991  0.2388249784041906
  0.8291123301481704  0.4168017271171744  0.9280018764569291
  0.8301942305533627  0.0014261846483092  0.9955926344093797
  0.9139746618120063  0.9965131332082818  0.2374251180550071
  0.6555914376325327  0.7445294769235421  0.2486151152513393
  0.8314686025489564  0.0035136003358919  0.1574844861381169
  0.8327797149630238  0.6682605250374012  0.9994602393598997
  0.8292451921874732  0.7492438014715370  0.7536279847627880
  0.8314372692372374  0.6623179203643066  0.3352749526651942
  0.0858307806961496  0.7492143387132314  0.1586526800794579
  0.8316337221097416  0.5846757744035905  0.9158119434545613
  0.8295590545970386  0.7549374624367564  0.4240106621668107
  0.1757088455574172  0.6680017158191236  0.5061644580408806
  0.8296149957078499  0.5846426523188457  0.7540001473983606
  0.9196388566775867  0.6635521381566466  0.4219153820022591
  0.5775687483232183  0.7491319759185127  0.5091039487594918
  0.9186420960686797  0.7537310799845968  0.3317687820797339
  0.9202895104173711  0.5747674396173487  0.3327067738327467
  0.9103175286005902  0.3508083212579753  0.4192122112465513
  0.5770278381178913  0.1715045113864686  0.4220194700703411
  0.9962805064600913  0.9081709911060996  0.7540944833255384
  0.0812824926272538  0.5835064545762628  0.8323858986943687
  0.4108978555013449  0.7484770583487113  0.1604719954050087
  0.1790186524808544  0.0842684490277934  0.2440179829855404
  0.0907481561861344  0.9950774821015752  0.2446315039492996
  0.1713835033488511  0.4974455685521257  0.5051581396636590
  0.3304011541624667  0.8326817917366048  0.8339107447522904
  0.6617107593643893  0.8322865880699624  0.6729160085069743
  0.9134439717071517  0.0851296840236053  0.1486106490292927
  0.9982161186537344  0.0873957822600595  0.7527995533335835
  0.1642330040931672  0.9163851596224593  0.7535954807220834
  0.3237963259416595  0.6652192169912752  0.5067549064730762
  0.1672273182670730  0.4170431619408713  0.0783415761819376
  0.2472186618753281  0.6649885855160641  0.0783223217448907
  0.4150786951130644  0.3326509715663025  0.4206677913989916
  0.4133195929107281  0.4974975356312046  0.4208869086085136
  0.0828163126116026  0.4990407465508525  0.2397979262346909
  0.2489292199391965  0.4981261744568729  0.5898454377966553
  0.9144911508015692  0.8311656903872193  0.9170986205184378
  0.4956713586637508  0.4994007963759704  0.9951345917153573
  0.8195903757281826  0.2521819680567660  0.4213732386593010
  0.7411957359323988  0.7493977392864647  0.3345443409735022
  0.4922606406751330  0.9207705262229354  0.0715827261864830
  0.0111881351916264  0.5653130978252902  0.4239608902626702
  0.4142487377776430  0.6682243407055621  0.7513550134787340
  0.4139646726588002  0.4149752860954042  0.1602996147490425
  0.2480419273814999  0.6669862127030636  0.7536470395653679
  0.4137601754523609  0.0840910143544201  0.5076384342347859
  0.4965050245826751  0.2521055217627509  0.4206596895007170
  0.4155143495582657  0.3335175835787548  0.7507696664468089
  0.5784777708867668  0.8359569702390944  0.2513834730247150
  0.1659545785208958  0.4174592207137457  0.9145903271093034
  0.2478482770412596  0.9164399779935991  0.8341583067986351
  0.4136531324246243  0.2509649597388650  0.9946446235413661
  0.4131020639899809  0.9166875742805497  0.8341299897731306
  0.1656515398831417  0.8338151979737551  0.6720938923506441
  0.0816698467977746  0.9160827705521706  0.8361662944904017
  0.4132816144357054  0.0818345312684393  0.6705630264407675
  0.2506591368701158  0.9110846637042503  0.3387438056089177
  0.4959170487613232  0.1683386844688854  0.9951901161326940
  0.4140397490540989  0.9989010405668373  0.5889244564103060
  0.3318247098268345  0.0845034789947914  0.9137646654611929
  0.4958420609932246  0.0828505623323354  0.7520069747651176
  0.2487644770126093  0.5818188025814186  0.1584457433270764
  0.3320600194262132  0.2515425971320982  0.0771247672009203
  0.0843949585789624  0.4160624772003418  0.6722044063782642
  0.4129393046130096  0.9991488285919069  0.7529874777330079
  0.1681316624436009  0.7472682299375386  0.2462460097839305
  0.1675046614897139  0.8317773813218906  0.1596199386468702
  0.5751927249322454  0.5846332833912359  0.9958340568268080
  0.1647121011123246  0.6653891621579726  0.9965734460697568
  0.6618988004387187  0.9990365001778447  0.6720055748706821
  0.1656011924706587  0.7496029846301576  0.7534558616340720
  0.1653030372413034  0.5001251475197109  0.8338273648199511
  0.2487350121084268  0.4169823866273983  0.8342656498661676
  0.4966727505969826  0.1011341610434635  0.2457127104679086
  0.2461251663950041  0.7474484851032164  0.1594015624223523
  0.2514743129263922  0.9967709368910651  0.4239954311095799
  0.1664292118193305  0.5840215808273749  0.7537644774134525
  0.5780679161988157  0.7510700196727332  0.9964328340202131
  0.2475164315821040  0.7487199155034379  0.9963222896947550
  0.4798393830788589  0.6631722201225944  0.3344965045197066
  0.1654107373060862  0.5825139401296515  0.0778408056372853
  0.5774296766676800  0.2518151750698436  0.1614120135321485
  0.1668487937230128  0.5810263967740689  0.2424590743183808
  0.4125925731983134  0.1737712362219387  0.2472042513521938
  0.6615948862671130  0.6714659803082195  0.9968699561551929
  0.2508804343108166  0.1670284390315680  0.5892406026142489
  0.2490277165913714  0.3339405608138486  0.0766366265209131
  0.4141828873520594  0.9169867166249137  0.6718356838070335
  0.3316946575132857  0.9990508092210330  0.5074569361260677
  0.3320764968455775  0.5840270044128790  0.7531747873419858
  0.1650090030371316  0.8330911131009302  0.8347913680505114
  0.0833967046638819  0.9158263415404045  0.9958069728734270
  0.9993880571478383  0.4997270908486963  0.1588870430228625
  0.1652591710396512  0.9990964147612286  0.8358858760910353
  0.3312135972663720  0.0022321800750071  0.9952346016338769
  0.2503019299740811  0.2523123728382113  0.1591892802678783
  0.2490746023928353  0.4997970055923797  0.9149060444370827
  0.4135550308034820  0.9931346030500855  0.4249187613822787
  0.3326274322900199  0.0945220286771080  0.2421210322208590
  0.2483969330348508  0.9166033376411854  0.6715955515051568
  0.2556055874105497  0.2520487609557051  0.3350846093890526
  0.4133129372215836  0.1660522723596729  0.5887298204258056
  0.3316994342836854  0.9946945019312136  0.3422445942599933
  0.0824300007163005  0.4167771737972573  0.8333059388397797
  0.1651430756359031  0.6646421373724061  0.1601494863857300
  0.3405600575256203  0.6635700547960486  0.3321743543187188
  0.2524147905007649  0.1748773423493357  0.2451990256653505
  0.1757890549766964  0.4131284367886834  0.4191848408716010
  0.3362121530451193  0.3324879623333912  0.3339528735101423
  0.4149181241315380  0.4152157615274638  0.3350951344307478
  0.3306393210466789  0.0825906226113081  0.7520867454945663
  0.2488279143347338  0.4995293510022554  0.7538952257710381
  0.4139242368303898  0.1682388044003220  0.9130544013017112
  0.2496707389686619  0.5827573246913005  0.6727184613311155
  0.4133506015165071  0.4155721905569096  0.9957424462699110
  0.5767835380803807  0.6600576701366949  0.2449545188611436
  0.3296108300855736  0.0072420107159997  0.1558659870645255
  0.2683430401910814  0.0030288455052719  0.2488610082051453
  0.3344326153453798  0.2508979383277548  0.4211001681711488
  0.4151946571926342  0.1701421079628428  0.4193818118838909
  0.2490541181283266  0.3337135612283962  0.7536196858745065
  0.4944669248234597  0.0873407778600707  0.0778590030372683
  0.2481365069536319  0.5832514896298812  0.9959560306868026
  0.3296757466136650  0.6636084089424408  0.1598879359468786
  0.5775653945172683  0.2510503568610762  0.5053101431524100
  0.3312446813961935  0.6667857363832826  0.6726073813109797
  0.3312522333853022  0.6672856592306857  0.8337871793155240
  0.4138967915111006  0.7515025066564229  0.6720431619330753
  0.2483592556736466  0.7494901714401474  0.8338329565529137
  0.4957986942398830  0.8344652309566559  0.8343440431747587
  0.4951347867753093  0.6677779408268908  0.9972250882111054
  0.3308396126933303  0.9168870453506104  0.7530158256937151
  0.3310623270809049  0.5797568644220652  0.4199159133975525
  0.4952243766005344  0.4992656688424760  0.5054876978682301
  0.4105784314925017  0.6646280175240408  0.4202828890783943
  0.3293307922282397  0.8322868807363806  0.9968014180251306
  0.2494531917544699  0.6673067319682181  0.5913319666405135
  0.3308132021787495  0.7511758612919335  0.4237201554918088
  0.3308133333304720  0.7502542438444687  0.5915103784119290
  0.4109760499267072  0.7527377043030670  0.3430530396479293
  0.2484804555626551  0.8304086003644972  0.2464654818458681
  0.4128249740762832  0.7544225422132599  0.5084163043762845
  0.2485811823619383  0.8342896610124586  0.7532389057409054
  0.6588770567314837  0.9996958372607159  0.5092147928341380
  0.2500401484942290  0.7515528473302059  0.5074584992890050
  0.0837011262256690  0.9114589931655296  0.5057682924880081
  0.1647237884003082  0.6666647847691000  0.8339936176450357
  0.7433516646596329  0.6664560616155866  0.5902007612815331
  0.2490358925420656  0.5842314786496776  0.8343778871787816
  0.9108904055215593  0.9117865118938806  0.5075486179048347
  0.1649696418660358  0.7480202492597501  0.0770132290803236
  0.9990277549626042  0.5834165109684942  0.9155868341119269
  0.1663129435184264  0.4988832087518545  0.6718645145382413
  0.8301207854428176  0.6679565269490844  0.8344506236450493
  0.0861456601186076  0.6648659945186483  0.2441294593793136
  0.4954850091999428  0.5826362167088338  0.0789828059243461
  0.2487810943832929  0.8340977768335247  0.5905029289383816
  0.4159917445154775  0.2524638642008700  0.3348704674636327
  0.1676733080028491  0.3337288257854030  0.6722857113922771
  0.4950163418868942  0.1718421498874085  0.1593900356630356
  0.2490052889201402  0.2509634496595329  0.9943672797259855
  0.2490237173573827  0.2502294846188740  0.8332026693734553
  0.2489579789839082  0.4166442312983153  0.9954812007502729
  0.0841308962237759  0.8325863615598111  0.0769788165855596
  0.1656393725892686  0.8322072512575245  0.9965281719878130
  0.3312624328205305  0.7501255909246610  0.7529881168165125
  0.2477133056438435  0.8333151467233455  0.0780674559006070
  0.2518200393788483  0.9190253863065401  0.1612747358352506
  0.0890752927168685  0.8294132566177362  0.2440586846344125
  0.1677276162797664  0.8326983652878398  0.5069276014828310
  0.1700276744770756  0.4151059822682778  0.5901559981286697
  0.0821337074810887  0.3343583715967148  0.9147155184704466
  0.4145225389107797  0.2497722285595135  0.5050146754912064
  0.4953624191028673  0.6638306761975106  0.1620451039823218
  0.2521614394563586  0.4154818672863372  0.5066195355120250
  0.2481534097389406  0.1674412189444441  0.9135157024397837
  0.1650817634472466  0.5836234031571729  0.9144165626611275
  0.0864175441800124  0.2507600489803406  0.6725639107109878
  0.2475012945830307  0.8324961808764517  0.9149302614035111
  0.3305258428466530  0.7489710198105732  0.9151851879214778
  0.2522306679523976  0.6681803779331174  0.4211968083134774
  0.4147767610422714  0.3334358843971355  0.5896911296084987
  0.8308955826256779  0.7498190316315240  0.9172888554218952
  0.4135741976194596  0.4160011468935008  0.8334788809062691
  0.9154480375085695  0.5011161187044899  0.9162256409564478
  0.4170337957455196  0.3333903231351164  0.2473513828017766
  0.0057891086138563  0.8272253836114197  0.3350605068496160
  0.3300445075979091  0.6663371613087943  0.9971171169869310
  0.6530072685233869  0.4172113436248078  0.7526845232576558
  0.4944671377700206  0.7497531103578365  0.0793536547233626
  0.6602677029973695  0.4970150545196061  0.9966573713606521
  0.4949936739537070  0.7507967572803852  0.9155297091657858
  0.7467048931621948  0.7501095146797698  0.9973297254478652
  0.4123583589293765  0.6555317680748619  0.2428484840699669
  0.7460635034313768  0.5021726462384002  0.9157752057815364
  0.3315598403802802  0.4981504627620305  0.5064332968390840
  0.0016150194825699  0.9103510556510691  0.4204198774518396
  0.4957953508584782  0.4998847356617202  0.6708562990629728
  0.4963737628415273  0.1658073865727783  0.6705848491947483
  0.2498216002697874  0.1662248994256939  0.7523875039174517
  0.6545807551708702  0.4994720657324115  0.3359832448126526
  0.4972463386014795  0.8344170484103167  0.6719328898717166
  0.4946699037052295  0.0029464691681268  0.9950075570108369
  0.3309771238292896  0.8344600490960358  0.5083895364027814
  0.2495025613542201  0.0826475912918054  0.6709416971153825
  0.4966071630992389  0.3325735284060340  0.8324662496136817
  0.5777743505342920  0.2506058311530946  0.9962978524029001
  0.4949246553144473  0.4996072465009758  0.1617753230017184
  0.2489142151290407  0.7507311801093374  0.6728682400798670
  0.4943866170790345  0.5796881055631521  0.2463077867868067
  0.4138399528922443  0.8345136372697100  0.5907805538962645
  0.5756611873138490  0.4999631689654885  0.2466790055091281
  0.4139767613253265  0.9156315738827878  0.5083430971058250
  0.6616024600624304  0.4996856216342505  0.1620872707615965
  0.0824098881961103  0.8324263787747045  0.9163190024333328
  0.4139448947069840  0.4990982272307309  0.2449135095523316
  0.4119459966586370  0.8339354007401425  0.9150892794335901
  0.5772837909250431  0.0880690574340621  0.3363380803551064
  0.5757186089024346  0.4994838973109144  0.4223639410718522
  0.4966298435070976  0.0001263875226508  0.8341606256657826
  0.5789947951480446  0.0837716075590236  0.8335506401026215
  0.4137868892291145  0.0862238738480149  0.9947614199985492
  0.5788401612380879  0.9167475518521135  0.6717809042411615
  0.1682712084863147  0.2522245487380971  0.2435434682001587
  0.4112712139492560  0.0900132590174103  0.1611766453855278
  0.5790735592581248  0.0010861290390694  0.9151444476824856