C  Cr Ni
 1.0000000000000000
    21.1200000000000010    0.0000000000000000    0.0000000000000000
     0.0000000000000000   21.1200000000000010    0.0000000000000000
     0.0000000000000000    0.0000000000000000   21.1200000000000010
 C   Cr  Ni 
  52 259 605
Direct
  0.5908592584434825  0.4235681100231313  0.0864408896744671
  0.5860250341478631  0.3322396133781048 -0.0070782623430949
  1.0033656239882036 -0.0084495896946590  0.4073115484577485
  0.4074266545180327  0.4236352802984072  0.0867377072788585
  0.3355212262001778  0.4228854394629312  0.8365407165294400
  0.9205674549285001  0.0932550595126530  0.0792501301586199
  0.2500808954056025  0.0030281559066540  0.3317978793675843
  0.4121904202882586  0.9097035716993878  0.4174161275999460
  0.9219878965913861  0.9092712551268081  0.0780820795321988
  0.7429349466235299 -0.0029357507169748  0.1715837334482440
  0.1633253741717769  0.9182633611389778 -0.0044632421838825
  0.9232206044628756  0.0003931826614035  0.1722747001082152
  0.0778139535462039  0.4123798273934813  0.4239215230978203
  0.1712364358358019  0.5081758596597916  0.4228956914292585
  0.8192437277351488  0.0026764500466598  0.5851857943609305
  0.1676761094160456  0.3234725202691901  0.4217429920834510
  0.9861994656294576  0.4083235108712135  0.3261492643538719
  0.1637681800349640  0.1697271418095454  0.9148514349855305
  0.4152394402500140  0.4142402674510460  0.4114842763473174
  0.2402294549571426  0.4223904425982691  0.7463240073974439
  0.5028302409669838 -0.0029362154422580  0.4162569679889091
  0.4131874734361932  0.5968711673074877  0.4120245409641781
 -0.0918488502032542  0.9097215497959216  0.5874598178363282
  0.0902492887892211  0.9100084570063988  0.5830229603602189
  0.4977744215113309  0.3292931181974777  0.0870059667187097
  0.9061225434087534  0.0841656016413413  0.4101244689734809
  0.1701331346125040  0.4138452628109094  0.3268711922405798
  0.6665725571951475  0.4993765758929096  0.2454382221338374
  0.1636988786218250  0.6663093713065035  0.7512263114966928
  0.2414551257734633  0.3290895852453348  0.8390710091220497
  1.0004673938613318  0.0889749676820547  0.5003707841745721
  0.0859463687638711  0.0009311918127301  0.6750935237821977
  0.5052642788889039  0.5948517824364142  0.5065021461926394
  0.6544248729510103 -0.0030260094108882  0.0773111438032853
  0.3344021276921411  0.3288545690731653  0.7460733534055068
  0.0807351312733734  0.5030839792085801  0.3271043567360527
  0.5053629292630833  0.5027935510887258  0.4135252784289182
  0.9985192853287692  0.0006137612895903  0.5893064231169149
  0.9871579342003501  0.5015707272288588  0.4228325280833330
  0.3284646580628495  0.4119906882470921  0.5087888749652998
  0.2474151627158502  0.6628631025694732  0.1689142878042680
  0.3313822258944656  0.9158653431069370  0.1626456056700376
  0.9144339708598015  0.2501858171826633  0.5832967794853837
  0.2469945626417045  0.7521158084049283  0.0766523334705128
  0.8282869380796437  0.6659307414498257  0.5855387230631374
  0.4150388250218470  0.5036093880966388  0.5062091401437173
  0.7460585079056328  0.5832458902840336  0.4138689317509696
  0.4184522547865849  0.2429388151477668  0.4172016454818583
  0.1592334978337089  0.9141662112221988  0.3343498605659199
  0.8324649076598457 -0.0003806625946922  0.0777892956865224
  0.9901975278141710  0.5909720594384599  0.3316284247593470
  0.4987200157070928  0.0853674280733032  0.5063857241794727
  0.5829235467192838  0.7548078746778627  0.5035246352820115
  0.5829387121664941  0.8341372471679196  0.7522834558620534
  0.4979674261229883  0.2399914180835754  0.0830891950199615
  0.5005929837727572  0.8303381258344669  0.1628840232582459
  0.9149907983553625  0.0854598164884850 -0.0099335904681639
  0.7479059759808402  0.7521204327938527  0.1626488303495860
  0.8338408004437816  0.5878657583140039  0.4192474455984265
  0.5825865287223487  0.6684320902023091  0.7525763722580402
  0.5793455234633587  0.7507324959733362  0.1623051018057347
  0.5777759587290952  0.5027044407660586  0.2492797517671478
  0.6643504554287876  0.6674058144630086 -0.0036473566011113
  0.8283565847218390  0.0896216881654446  0.0814554691317259
  0.8305622662050437  0.9084570933796783  0.0798619363197315
  0.7498529983066238  0.5866183293228333  0.1613877535556802
  0.2448281960655759  0.4175263327098550 -0.0022711425341879
  0.5815777681896629  0.6681250315536137  0.0802043809173242
  0.7441155834828461  0.5816654382472531  0.5055518252152702
  0.6643020126254945  0.6688849708753304  0.6702635253423865
  0.7446537250846709  0.6754299800531260  0.4156044358459714
  0.8317235848387103  0.4170872039329984  0.7513395634556013
  0.0780780192433180  0.5822543802710892  0.6651676787283284
  0.3316857987931730  0.4202357523806988  0.7451184448185084
  0.9158438730564332  0.9158714291690551 -0.0103543081130064
  0.5833205459283161  0.2418809515199684 -0.0026024979126418
  0.0109850474644691  0.9160444700673933  0.0814213612074823
  0.1634738358164161  0.4995520514412575  0.1610388539233883
  0.6627461372460666  0.9175162274835761  0.7540040046554752
  0.9144014380238235  0.2543440085216461  0.1661123155514199
  0.0741738381544854  0.9160399699060551 -0.0067733046764941
  0.8253411629698100  0.4133433073939523  0.4196939982891065
  0.7531813732683799  0.5024356492419989  0.0781123677815976
  0.6664242264763984  0.0885695289679801  0.0825226766160878
  0.9114710010255603 -0.0060410368503749  0.4143091093849994
  0.7462802324717540 -0.0023779491102409  0.2608727732467143
  0.6664191935853939  0.4997471723870790  0.6705154328524291
  0.5006247942333617  0.1656392413367342  0.6703692048377884
  0.5822221827962005  0.2487745437548285  0.8340895783278620
  0.6651774952637017  0.4124984700567953  0.4172883141159027
  0.8312235090477467  0.6679525662364880 -0.0035968094346353
  0.9139216126954693  0.4173357187575134  0.8327394889035311
  0.6664328414521336  0.4998559464361914  0.8326364312786856
  0.6669607492644244  0.4161857391036963  0.7522090343756128
  0.1632417886876140  0.1668115031282411  0.8254253415124607
  0.7473569954142542  0.8325818903142364  0.7526137770036571
  0.8204916530430197  0.9125481275589213  0.5840436806948244
 -0.0030295896418826  0.0888149442898153  0.5895459010156301
  0.5815812734866553 -0.0007270461814607  0.7526355951923519
  0.4979332306076133  0.0007278760409667  0.3270110188921438
  0.7457267714312037  0.9141473824706892  0.3333540059761979
  0.8322100199606847 -0.0017459212615579  0.1685744159377319
  0.6558109927070983 -0.0000197175754949  0.1672122495233294
  0.7482282540224121  0.9059086571829202  0.1650286279429287
  0.6654365995261948  0.3340539568404541  0.6701593717097639
  0.5020551393192011  0.0860746897950208  0.4145156655389249
  0.6630704631820914 -0.0009488283877813  0.3309643973531212
  0.6579805601077312  0.5879434866429688  0.4147889096818790
  0.6663866043222558  0.2488847056140496  0.0826067736281553
  0.6639321732074657  0.0007400040891347 -0.0112762897511499
  0.7446738306760193 -0.0034716685115974  0.0811692901035129
  0.8285002832556075  0.1657487865782619  0.6705663352908219
  0.6651312437948104  0.9145838373295601  0.5855022713007733
  0.5846886048477993  0.3320935390348614  0.4149299202694314
  0.0790863937967854  0.5831123463254010 -0.0020058458192644
  0.6661364382538963  0.1672316666327449  0.6711442341193717
  0.0765774256848604  0.3366600523882003  0.9180001497474634
  0.1641439007963225  0.2466316052654766  0.5869700114715178
  0.2508472845615195  0.1645915902681912  0.4186689142681081
  0.0825602292124299  0.5931727064376695  0.3312708989897999
  0.2532688931086708  0.6667962063230264  0.7519938705517318
  0.7458482877471755  0.7526212643628838  0.6722549902122338
  0.4995695641794338  0.7482347853667577  0.0778553207891398
  0.8283289098357706  0.4143403440660260  0.2455346666702668
  0.3329373415197001  0.1638931330623462  0.6662588659554188
  0.4185543867366186  0.4193944285721759 -0.0038277319693353
  0.2468733507982151  0.6631835503201120  0.0775438899811599
  0.1652192409283178  0.0793714032468579  0.9144938524354084
 -0.0061638622764280  0.5867835479334851  0.2420465541819844
  0.0841122417717974  0.9108775471356382  0.6741762344904499
  0.1619689041739348  0.2485894122275432  0.7512328232134751
  0.9091540424746967 -0.0002582900442251  0.5858990795357412
  0.6658311761022025  0.5904574498504089  0.2445961869930265
  0.2466798695509307  0.8408606059004111  0.0780037918262891
  0.0812491567972193  0.1680853997757011  0.2459566689841729
  0.3351655456662754  0.4198335974104896  0.5977594490532251
  0.5899560613898465  0.0842881058782062  0.5027764054721884
  0.4088578922311325  0.3319575613516331  0.0862263259747950
  0.0810705400585104  0.7501120644397239  0.5007224624638058
 -0.0104786725060111  0.4121208064897586  0.4176847143388889
  0.1652372313984274  0.3248826375263932  0.3301733628427595
  0.2457744604447199  0.4163499596393624  0.1633011466404851
  0.2594258553210448  0.5034963887522435  0.4172162984570078
  0.1600197163555423  0.9151320875108233  0.0854074445904315
  0.5831463049478560  0.3331129901194338  0.9047482819005249
  0.2538799473327015  0.1644400461764910  0.9203548783162904
  0.0810313875071955 -0.0005680318937529  0.7629736115935691
  0.0871814262069465 -0.0005691913487845  0.5854585264954674
  0.0803138658398241  0.8306719320481247  0.0808663277387675
  0.0813328949189929  0.0902759865039808  0.6700125837833431
  0.2499594143015247 -0.0010538376394927  0.4218367795232039
  0.7467328613935410  0.7498830670863026  0.3323423125627820
  0.0728506064206304  0.1695923577653976  0.9163969666516421
 -0.0053698069597358  0.5828507664430722  0.0812315727370292
  0.2488277832438120  0.1669758425683705  0.2447056894648706
  0.9137333476802708  0.2515534896987248  0.8330159388548587
  0.3328920331326474  0.2432888325341006  0.5851997618705291
  0.2493017891461642  0.0017253779432218  0.2418678421342038
  0.3300025666144932  0.1656231807827267  0.1663366926138236
  0.0801786046261009  0.5027227663512294  0.4201271174653639
  0.0777195768004154  0.5011358295047764  0.9174552428997821
  0.3310223552228529  0.0053898519070843  0.1644134812575304
 -0.0056727999298817  0.5904621179855868  0.4219365080831029
  0.0794361206022238  0.5045366928560825  0.5874051092005070
  0.0793373825686365  0.8311312727456386  0.2508595431349662
 -0.0035040859645005  0.4173389622560188  0.7498769815261350
  0.3336142125490162  0.3324109188426997  0.8360068850854127
  0.0786529800304295  0.6665596782919962  0.2480953137888219
  0.2580928944783789  0.4148277517678267  0.3305680332061305
  0.4156457305617824  0.0821932818421218  0.8322748500120285
  0.1682806468374836  0.4154738775644783  0.4192663403953704
  0.0764615848660568  0.4171988665757455  0.6670182021108207
  0.0813063137367245  0.9152850863800218  0.8312976673830458
  0.0783193892040465  0.3234208724126780  0.4180515881680251
 -0.0035254678218052  0.7490574742343382  0.7501163593142410
  0.2474964637804662  0.3333917880092448  0.9281685782100572
  0.0785923298589392  0.4130302497685778  0.3305652519722375
  0.1651238463068652  0.0861547749769554  0.0795821080777323
  0.1696171974242935  0.5036579667496602  0.3321540656123246
  0.0793613192752564  0.7501267594183831  0.6690111577056337
  0.0111234882022997  0.0000769644045455  0.1687615289210574
  0.3325710043724895  0.5122289666231573  0.8349375609226323
 -0.0024448201550159  0.0849971251372584  0.4110723502391241
  0.4178724773609067  0.4141709281787624  0.5036008514337132
  0.4149733042962389  0.2455695283500354  0.3265917954088770
  0.4137261061030214  0.5885721647908194  0.3222341808803585
  0.5814919790966628  0.7519192746857220  0.3304676701128614
  0.5823725836684155  0.9168871248668383  0.8335040204751595
  0.5844741785882958  0.4988334205853239  0.5884951646159868
  0.5003964306007495  0.5866859529010013  0.7500560301973102
  0.5057191967721473  0.5026028405795314  0.5056678897080813
  0.3324953754443162  0.5000715508751885  0.1635439847551494
  0.5034970161460014  0.5920180443387815  0.4164552754814519
  0.4142063261851800  0.8212142750295379  0.4176689022433622
  0.5020459848774158  0.5864504768083982  0.5952016820426925
  0.4997294883287215  0.5852605369842218  0.9145963510423538
  0.5869841718947731  0.3325005172052136  0.0824994941074223
  0.5019263934081849  0.1743075700482372  0.5011169388813810
  0.4161363788019607  0.7499608674971379  0.8336013959629544
  0.8317710440536903  0.8295982258001139 -0.0052244016570722
  0.9173058675606350  0.6682586146818668  0.5860085314776079
  0.1644234183416388  0.6699773961767267  0.3339651322303601
  0.3304270625455693  0.1643164120206257  0.5045136857913946
  0.4165081353637535  0.0817198937916571  0.3315217088708724
  0.5010569401322219 -0.0047635877096459  0.5068628142709636
  0.3338004584655297  0.8258400431792130  0.1641234836266176
  0.3344283160310736  0.9160749354040176  0.0737027309100392
  0.1629129623815165  0.1688327914056602  0.0046144663614501
  0.2494200416670265  0.0839601255133560  0.0003923255389127
  0.1682961050283253  0.9137716551645665  0.4232703796132783
  0.2529775398499426  0.9170688682996726 -0.0039597929821086
  0.1608318575038657  0.8279021732901251 -0.0047072247742236
  0.4130711304366022  0.4156368657353360  0.3224228435887203
  0.3369591261745525  0.6689750768623292  0.1633913087923940
  0.5941545737612826  0.4978947411905912  0.4160438068768055
  0.2516428547843600  0.8313354050529015  0.7542994714026531
  0.5002988107624602  0.3306024396750651  0.1766309397571721
  0.4975201982369393  0.1681311665740292 -0.0023089231959050
  0.3330118256999048  0.8338137231692747  0.8339215616320405
  0.3235847869895577  0.9135747230024700  0.4181728048284874
  0.5004767971327573  0.6674007088559452 -0.0035509665408490
  0.5012075544349582  0.3328317841934151  0.6694012178588353
  0.4964791349671548  0.0021229989111644 -0.0048920316016562
  0.6659843466638726  0.2505048281534230  0.7514118121443707
  0.4171288270667598  0.2482271635377764  0.5076116413722815
  0.4170881278664997  0.9172816178350840  0.8331167447413207
  0.5840070456908637  0.2485712933554179  0.5034720419106375
  0.5060543895105052  0.4122883839399640  0.4144625030297696
  0.5819498866795761  0.1668737722875608  0.9151322566050267
  0.4120588935157546 -0.0001925151772880  0.4177148074363325
  0.3326304213500333  0.9140673918426849  0.2515380514874491
  0.2468312989970521  0.7537952590499710  0.1676169641445951
  0.4986332564196490  0.4203060569807729  0.0860804432099185
  0.3318602404448869  0.7509565775815806  0.5878686467341298
  0.5820734149653594  0.1664154584810213  0.2493610726901695
  0.5831863574982772  0.4226951369347685 -0.0051980128882294
  0.6660494655980671  0.5838323720811728  0.9158102098069136
  0.5848056421265189  0.4142515769099118  0.3321121886570026
  0.3317972550360061  0.9159989345129875  0.5883461600585939
  0.5017303078008217  0.9085888635766143  0.4167525497974863
  0.8270714303453932  0.8310237804100498  0.4986303053688288
  0.4972562009586102 -0.0002425330353437  0.1660863427221849
  0.4154974187352685  0.8332807497656449  0.9130119174574870
  0.3333226320388601  0.6651713577859629 -0.0028286442380083
  0.4236684932515465  0.9155915039166728  0.1632869006405864
  0.1571502629064486  0.6669214719659191  0.1636078586163107
  0.2556504693660031  0.3286400765353790  0.4178962869192376
  0.3317535244147155  0.5839368692039789  0.9182295138489561
  0.7474247556783308  0.2484174410095287  0.3322777251686824
  0.7466457613706902  0.2501371257264203  0.5017348316977341
  0.8309476840649076  0.3325461166268290  0.1657984140417499
  0.1641188770761564  0.2513727951315389  0.0821523903820845
  0.7495535453032049  0.1678757405374004  0.9144547991306129
 -0.0024312236094299  0.9115278747242589  0.5839701725574071
  0.9111785156749116  0.3394336222277868  0.5858826682931235
  0.0800574416255316  0.1671963310781096  0.4157132942694728
  0.9112886912301544  0.2494493425114848  0.3316085619164674
  0.7465886677698232  0.0883054770711657  0.1645631506133904
  0.8303587549221388  0.3341340712891944 -0.0019992177517241
  0.9142398016081489  0.0899393579644523  0.1694137315927116
 -0.0019406908282257  0.1688899744115615 -0.0013467169543457
  0.8324059935908656 -0.0014519756970238 -0.0109677763227483
  0.2512933096005880 -0.0004015504754273  0.5861055815931091
  0.8324276531780960  0.5013309782839050 -0.0017988384979380
  0.7473397193620177  0.4997228008907175  0.7518100501792706
  0.8302626565827792  0.5825161646753255  0.7505160169884327
 -0.0046084242211940  0.4168072274724935  0.0814631282785803
  0.9119109508086776  0.5832762565388789  0.8326676671993908
  0.9118869806061874  0.9148055118654823  0.8311386720469013
  0.6636077130155131  0.9153681341440867  0.9152815176709851
  0.7322442031316364  0.0002921572465202  0.5841383773396033
 -0.0002413461755825  0.7490081190817173  0.0808678939133532
  0.8310500611979253  0.7493688140803022  0.9153906737951409
  0.8301889156998721  0.0003318192114144  0.8327613345654789
  0.3371037618765523  0.7498657038084688  0.0791068466080463
  0.8303752507999624  0.8310300408727095  0.1660439029919577
 -0.0041800338975562  0.7481363262703206  0.9120532929321129
  0.9115646213768633  0.4994668653889976  0.5860271091063451
  0.7427679940259080 -0.0024121939659055  0.4117087473025096
  0.9155709556707241  0.9100042182023231  0.1681858975048274
 -0.0089009379616547  0.5006267691766617  0.3317609942326099
  0.2516508606290974  0.0003311952079363  0.7523583337940716
  0.6652667507950160  0.0845675664195474  0.7523235039276285
  0.4155219977644714  0.8338429609703248  0.7545095172869083
  0.4943042493009486  0.3331735393301287 -0.0034275194435246
 -0.0056545427620133  0.6783157351505241  0.3322055967022323
  0.1569793931118341  0.7502869985802254  0.0805381773819165
  0.4160706607917279  0.2464536478146641  0.8334087093533821
  0.9142581580949324  0.9116359855646987  0.3335266505307484
  0.9151901141442917  0.1689143626435435  0.9157301523695969
  0.4186270125658095  0.5033889665043599  0.5955712408184608
  0.1612421979622051  0.5808408873610211  0.9182994655053440
  0.3248864498338751  0.5043264649369510  0.5072232478482196
  0.4143006435093073  0.5047143567769041  0.4155600085019148
  0.4145511650577285  0.5929806521154100  0.5034696803326377
  0.3303843785653702  0.5860572060551245  0.2481905913603199
  0.3322697916840409  0.5060103397351049  0.6663574475111318
  0.1503062032987126  0.4186018698217930  0.7484881874389805
  0.3247590034890923  0.4147508482013538  0.4171590703505579
  0.9202873413038077  0.0012501794462090  0.0808922464431916
  0.4239645638199400  0.3307764322009282  0.7485311474925571
  0.2445815028817037  0.3312243496261555  0.7483650722106764
  0.2406498451189532  0.4148997061513710  0.5085780280946540
  0.4168181734006870  0.0007069849481884  0.7518489044879809
  0.2443305564678588  0.4202778686411351  0.8364500076698688
 -0.0021019764417695 -0.0011603642245167  0.4978084990540557
  0.9127310544664012  0.6688602633215878  0.2460963656912473
  0.0821338268498963  0.8218163172630254  0.5850557750935528
  0.5819300538573111  0.5113527952186897  0.0812998552494334
  0.1631304831308168  0.7499312166182911  0.9131685652902912
  0.7476905424595196  0.4153308256163717  0.5032324452488501
  0.2520208342907106  0.9150938758057421  0.6717187422991141
  0.3318676337493730  0.4187969209418986  0.9230624881280964
  0.4991463357257077  0.8344294868299240  0.6708426757572418
  0.1682083670585224  0.9149285225088455  0.7531252730655991
  0.2510572153853135  0.9167977163090343  0.8326449741130566
  0.3334661105705877  0.0828368000704308  0.7512267651619500
  0.1647631169391815  0.7532476356418849  0.7524251644164346
  0.2500920858944339  0.7480961008484134  0.8348364814595931
  0.2477164915356869  0.2497180009841596  0.1639145359818743
  0.4989826099541698  0.1653719817072307  0.8336443652562919
  0.4975453606730392  0.0837782457411482  0.9152633389997747
  0.1643326398714447  0.7490342528691259  0.4186854128587310
  0.2475348703099849 -0.0006671421310448  0.0819134576047062
  0.2467155632799125  0.5050832659575141  0.5880980370871023
  0.5833983922327578  0.2498557801434425  0.6705457359908654
  0.2484518924640945  0.5877825241255744  0.6681774646705786
  0.0764476665122685  0.5025705079384092  0.7501242261747342
  0.1615159205254577  0.4989384087770473 -0.0001873958584757
  0.4184861823866350  0.7507359366065570  0.1627768495392164
  0.2493135223545292  0.1668767090061883  0.0825337912437512
  0.1632647007753457  0.5869775829476410  0.5859917996812752
  0.1642837944457416  0.8275550524572961  0.3337988825414903
 -0.0033359301500104  0.8288319561055243  0.3330652082634403
  0.4131843073361380  0.1655364702879735  0.0834115290670874
  0.1663188885884523  0.7498159865629102  0.5866593138658968
  0.4167181807353550  0.4164308795821441  0.1731048750982250
  0.1609461793622256  0.5798544146412928  0.7506150771019219
  0.7427744435133774  0.0830697564368445  0.5004283838502177
  0.2473202556890886  0.6646738823265134  0.9164536109248308
  0.4172729342690400  0.1644830509349687  0.7505615335455058
  0.2477093529893579  0.5084224162829092  0.7500616487089369
  0.3335539669667429  0.1646617966814873  0.8336893091812526
  0.1618143435905934  0.7497382390003320  0.2491547862191684
  0.4162726165723160  0.3286917676266298  0.4147912949349198
  0.6630495275403342  0.8306664262835455  0.1643262412260407
  0.2498418128541107  0.9129309492279390  0.3317834688403955
  0.3312165147736236  0.8314825854175586  0.3330187233378560
  0.0886401382712681  0.0009459268775744  0.4189809399466989
  0.4990305194646755  0.5875168388363966  0.2478064510103081
  0.6650852313149607  0.6691059680586302  0.1629096768336059
  0.4158854459112560  0.0829658359728285  0.1652575291310754
  0.3302678701994519  0.2476733821869094  0.2478195229929688
  0.5808271326547069  0.8323079625812962  0.0789202615930674
  0.4987044891622899  0.8325988020282763 -0.0035783817176032
  0.4161366134491176  0.7524418373714369  0.3295407267072251
  0.2508961079701155  0.9142427925932219  0.5038536557327727
  0.4145875641811174  0.2488651455844046 -0.0001739112787786
  0.1650797580868681  0.2484948835020542  0.2464870306534711
  0.2464431949182146  0.5843547612473202  0.8353200210368176
  0.1611520094559616  0.5024690936776304  0.6674017975198653
  0.2493807249040537  0.6697717955467991  0.5860959537481956
  0.2481276415778988  0.5884982857034519  0.5035530026013814
  0.1661712669835987  0.5845296668510922  0.2471421909542359
  0.2477715231066061  0.6698373308629789  0.2551245120832986
  0.0810113971737968  0.8310023473530450  0.7526635218332177
  0.1682332196352940  0.0002081046399143  0.8321905271130569
  0.2496443336840247  0.8333570863606203  0.9140842961516618
  0.3268238879121733  0.5908980962677581  0.4172864637774051
  0.2472959389824738  0.5766601638569966  0.1627332706851344
  0.2490254367121948  0.5004862961016874  0.2465638908973347
  0.3310422726846254  0.2490787591454373  0.0831174293560706
  0.3325593101195693  0.1659730907891787  0.0003475333789460
  0.3316782996069477  0.0841406614127926  0.2476673627399822
  0.3316995981477346  0.1649265831920489  0.3310539133377131
  0.9038083114367637  0.5843462780558324  0.3306109054512905
  0.0795879064338364  0.4172730793208958  0.1622770468190225
  0.3304955568027825  0.0819575575589022  0.4170964833406544
  0.2456138713517670  0.5019100916815760  0.9176394809593291
  0.4990181522046787  0.8323711423396718  0.5032864726928271
  0.4992367337119589  0.2469105397511890  0.2497052712477169
  0.9126526551246722  0.8312342824282860  0.7525094355407507
  0.1652882817148896  0.1658969589341298  0.6701900292726497
  0.2517822767291862  0.8308638984676427  0.5872377133772320
  0.4153710069357737 -0.0002659799411293  0.2468746160109785
 -0.0029831147431423  0.8292558817389032  0.5022154757255028
  0.3316365999930612  0.6718732761546772  0.5038706313052480
  0.3331018056952664  0.6697747909150924  0.6689890413038283
  0.4165904306086330  0.6684793919750499  0.7522963073988361
  0.1654105120855037  0.8320257012607671  0.8333242443514793
  0.4155926872903820  0.9166251274711507  0.6702253941584883
  0.2487639379233382  0.7505320231882691  0.5031635785284508
  0.3323089916928069  0.6652070519135557  0.8351495525838186
  0.4165249576011348  0.6664236852529056  0.9151952056080164
  0.2494971662983898  0.1653179809382951  0.7496528098337353
  0.4174022347756175  0.8325534473904400  0.0783666416704058
  0.7443819885837339  0.8321140953027305  0.5854910985954304
  0.2496337566848784  0.2427236343158620  0.8336286048780055
  0.4174873873149166  0.8322017200367888  0.2470845237691850
  0.3330629411029980  0.5026987233458825  0.3285676062276469
  0.4165702154524955  0.6705780867259695  0.5879459335359073
  0.3285978265814637  0.7513044983629076  0.4180803444810284
  0.4162881872197712  0.6821074282868553  0.4168712820060230
  0.4161248558209433  0.9151258384298099  0.3276592148452545
  0.4980877192571025  0.5024948846550088  0.3268507908217281
  0.4152358677156008  0.1645605438969930  0.2481284608742634
  0.1606112315493438  0.3349566536627431  0.0003145740104735
  0.3318535314845197  0.3285805926329035  0.3299921019385768
  0.4160214166679805  0.0819181666802514  0.6687919748336566
  0.4967313812044090  0.0864452235724420  0.0816750235431854
  0.4185671313597544  0.2465505554283093  0.6673742728507235
  0.1615923610580798  0.5829194018348386  0.0796827755215917
  0.1548972397738190  0.3359214490984900  0.8330821480557360
  0.4151419258717312 -0.0019019944904243  0.5868034424437134
  0.2431281629961790  0.4173386441510968  0.6604680357878047
  0.2465486873209586  0.5008374962372135  0.0801862185770575
  0.3310991151407616  0.5027380854402729 -0.0013341192032844
  0.2430939510212538  0.9145822976381239  0.1657870045209930
  0.4153843310161310  0.3331558912323813  0.9156526224674650
  0.3289988552627695  0.3322908790640019  0.1657657328751571
  0.1612732865258132  0.3311176834313920  0.6674776033568671
  0.3336039619604142  0.3283943730563206  0.6600624229027392
  0.3338060807504465  0.8320354488948657 -0.0052825117310796
  0.4994808344069633  0.5036973030864326  0.1670353886669131
  0.4137539517230437  0.1579457376629503  0.4177769018827065
  0.1648397027897481  0.5026357884561303  0.5092610936498206
  0.2490200603189530  0.5868858515447528  0.3319590577935073
  0.0838221076589325  0.0011362850585470  0.2489935015417303
  0.4154642146421115  0.0005337148034921  0.9152299369354251
  0.1621895551233440  0.8316955569699407  0.1659316948745414
  0.2504223456404002  0.7502916506899127  0.6704623862975360
  0.2480626745522652  0.8314102471207651  0.2495322311316533
  0.1619570750355612  0.6668984104758817 -0.0036213999989040
  0.1633418524568815  0.0006829568217963  0.1647751456583854
  0.2486321975453860  0.0824836975183910  0.5023954377044517
  0.2475483135434707  0.8312089389979576  0.4189395148549678
  0.1641885156318100  0.5941844011106602  0.4195791695649180
  0.1667609762382329  0.2377673092678430  0.4169572975492765
  0.4136853813916853  0.2471691455439321  0.1671073611576173
  0.2484897390978015  0.1649951040139954  0.5868615820522319
  0.4978315975900597  0.9157655289650545  0.0788614442242433
  0.3324222277571077  0.6705614317234861  0.3324292758642661
  0.4161410460341264  0.6708573793242659  0.2472023175873838
  0.2460201287074579  0.5829994977776908 -0.0017628055857566
  0.2468043324958763  0.3331303847470758  0.0802538910808243
  0.3330325543990477  0.7506183483743543  0.2483071790169330
  0.0813088688136015  0.2504846498723324  0.1642106170218132
  0.2481526806303238  0.3314121334077636  0.2471518446111658
  0.4176327322239908  0.5860372239696864  0.8328578436971803
  0.1635985432880565  0.4167085335094588  0.2404414246904412
  0.3330062245029975  0.5861831711210445  0.7507048247651070
  0.1622489053202905  0.6652606621559037  0.8384473049472168
  0.1606311327376621  0.4181225880787744  0.9175198846246128
  0.3319706370429367  0.5885489653971855  0.5869862910885427
  0.2490056484144688  0.2487989672775660  0.0009911294004278
  0.3327884134165450  0.7481780504982273  0.9145918155324997
  0.4165492989511650  0.7488498796739623 -0.0043412749786457
  0.3310853955652087  0.3245628390581199  0.5057068564077414
  0.4995327792327552  0.5868446603186207  0.0810576469509855
 -0.0041435278169935  0.1676450288949286  0.6702277108593334
  0.5831517195430423  0.5845627610546916  0.8326946214409486
  0.7492000390305571  0.2503693507501968  0.8329739488708691
  0.6631474889155895  0.6704415255326107  0.3300643929184353
  0.3324335075975089  0.0818835973589236  0.5861504937312054
 -0.0027702517831480  0.9163922595355618  0.9106252846926256
  0.3325455249872682  0.7499523609552581  0.7524355196750839
  0.5825709010341821  0.5023816585684222  0.9140472880984984
  0.4167221039891710  0.9168291463163176 -0.0032586806346668
  0.6653346270513891  0.4979651294328016  0.5042155125463919
  0.4157138490697729  0.0838110305777504 -0.0007623300087906
  0.5822987423444793  0.8341499542481381  0.5861654120836649
  0.4999456166158781  0.7517774731994887  0.7525285314952886
  0.9122141193710308  0.5002964051560232  0.0808606626068936
  0.4984812000821712  0.0836415662216692  0.2489714004996745
  0.1618794121025143  0.0034245753054002  0.3327130299267564
  0.4142541365126837  0.7532208219890325  0.5066399724526669
  0.5831746836360436  0.6723756136446108  0.4160866149872420
  0.7482289230122620  0.8321271779404283  0.9147875322352780
  0.6649597807882888  0.6667744686174301  0.8337315021842007
  0.5828930621473769  0.7516004856573675  0.6700185781702085
  0.5863235177187575 -0.0012924604181109  0.5860505882429186
  0.5012075686204843  0.0827239685576536  0.5925656194261214
  0.6649420482973232  0.8323679642806997  0.8340534235919151
  0.4999340672375826 -0.0015986906076239  0.6698203425286586
  0.1629924855154786  0.3303290065963812  0.5090393175668544
  0.5798227218796252  0.0017100986122660  0.9151621157022867
  0.6648879834685052  0.0007180942317122  0.8356673082046334