C  Cr Ni
 1.0000000000000000
    21.1200000000000010    0.0000000000000000    0.0000000000000000
     0.0000000000000000   21.1200000000000010    0.0000000000000000
     0.0000000000000000    0.0000000000000000   21.1200000000000010
 C   Cr  Ni 
  52 259 605
Direct
 -0.0876350644664795  0.2546349891285078  0.0830046561741525
  0.9180660043932369  0.0742678546204094  0.0820835508095692
  1.0088472710948464  0.1632444507722306  0.0849506321624713
  0.4109278823633741 -0.0006016110642797  0.3368882260298156
  1.0104103601008980  0.2537116619540535  0.1745749605315124
  0.3227467163466378  0.1610889263009700  0.0751514231706696
  0.4970415683760799  0.0049548237114106  0.0888638563290619
  0.4133783709868148  0.3478806011824234  0.1703927320615569
  0.4164316969458923  0.3342096232785163  0.6646353481597059
  0.9288607626669756  0.3222067049077729  0.8398922750759806
  1.0083423248429166  0.0708350249386004 -0.0079205802196869
  1.0019029003456947  0.2571865864457658 -0.0113386198856303
  0.8294219571849706 -0.0041359598213753  0.7466669710085667
  0.0837538530701205  0.3288188911518187  0.3337645480299115
  0.7406340741681090  0.2500513257505966  0.0854378732257916
  0.4963436076736600  0.9071703334803952 -0.0057870600802489
  0.2462492795610531  0.8286217305693311  0.1677184556211750
  0.8297561838711804 -0.0065280757322789  0.2634092224906975
  0.9140382145293326  0.2508844837016941  0.2637565106003062
  0.5803394329415823  0.8248622440062159  0.1703780369579611
  0.3200936242381291  0.2568346351266508  0.1699974853604516
  0.4953421239137299  0.0014102132070434  0.9038083868275295
  0.2333730981537191  0.1612631789570002  0.1695640078102160
  0.5865575014432285  0.3389460847796681  0.1705607406286407
  0.2501096773203375  0.1684695235423752  0.8253210359499200
  0.7514180345564925  0.8296085932043213  0.1684641684508967
  0.8255542878185401 -0.0121109559501437  0.0788927823020524
  0.3271301420912885  0.1607299604279236  0.2609406311587951
  0.9950945622699172  0.4236527791249938  0.3382160652596027
  0.4034118056357109  0.9089600762327876  0.0880349950467478
  0.8306787535235222  0.0855422043826743  0.1712731984215748
  0.7406463375673618  0.4132172178037324  0.9226423295807633
  0.1653947747389176  0.4182740269353484  0.6646472832098400
  0.3239494599051789  0.3473370183350187  0.0739550299951634
  0.7404075436561371  0.2448025314803342  0.7460487073235202
  0.8308430789462852  0.3296595492405932  0.7422405953645054
  0.9092997639859436  0.4350203783122608  0.0830397696547354
  0.4151034712875717  0.2548821660861404  0.2626113426179245
  0.4962230014748661  0.9119465419975019  0.1783602529972621
  0.5020269658639633  0.2542403353217221 -0.0080404960880730
  0.4142794852723438  0.2532758430091352  0.0789431763869803
  0.6593147474141090  0.0836447068493918  0.1672289783628378
  0.5892169874114226  0.0026045994149860 -0.0024525985619820
  0.7419408331008214  0.5072454790288539  0.8286503628017610
  0.8374164597928652  0.5091579814704924  0.9237586638010433
  0.9085931942632819  0.1638796201063114 -0.0073845560167697
  1.0032668553667279  0.1647278321839648  0.8998575087976221
  0.9225695285229250  0.4218663762592484  0.7409254505371101
  0.9217470363169866 -0.0104006237863516  0.1728711713125856
  0.8337233491196949  0.4174086119676916  0.8334010944421485
  0.4020159072139001  0.0041495269631776 -0.0022085120874904
  1.0062133448393469  0.3473955182110929  0.0831832714779186
  0.1670227880525281  0.5850842383481365  0.2535487212062554
  0.9124072267512054  0.1607603304231214  0.9037111758626217
  0.0006081217941232  0.5110035495697612  0.1706770319227819
  0.4165070952734907  0.4240620867791947  0.6648864422474872
  0.5801887585896560  0.8303059503401238  0.7481110522761973
  0.1652469528443851  0.5847097261963756  0.4211281193024682
  0.7468865366046100  0.2511699588664451  0.3393251102158992
  0.8308430224698423  0.0850476926832572  0.2611851647582037
 -0.0060451181556308  0.2559749566908155  0.8982446859948522
  0.0827513608635621  0.9122508097652784  0.3390141142435185
  0.4961125448717319  0.1694706735954528  0.1711111686275384
  0.3315132177058045  0.7459484299491638  0.2545596395254062
  0.7427176518952968  0.1565111520632670  0.7439880818401948
  0.3327409315067190  0.5854900934951116  0.0816031686642341
  0.4060482587397006  0.9133801963115875 -0.0021251931675051
  0.1661036474114250  0.6675670794309839  0.8305325517906222
  0.4963052321509053  0.0010267563617670  0.1780313855184430
  0.5008974183531972 -0.0004906026273099  0.3393485634675514
  0.0820493185374186 -0.0040773105199442  0.7439746113393099
  0.2494515870183274  0.5873333757319847  0.6644551677653000
  0.7464200437761394  0.8308765184465974  0.5824401844445432
  0.0818969018675945  0.7460067478536482  0.3359081651245004
  0.6636369695793598  0.1657001277655038  0.5012936239465683
  0.2460863226805489  0.8273841504459823  0.2582158200700024
  0.1629460981791878  0.9123489363830960  0.4205405765314800
  0.4963564683529495 -0.0000820867784628 -0.0038651471958784
  0.0824304770095548  0.9122592489767782  0.8285020796136074
  0.8219892510199157  0.4213863359182546  0.0882379709262945
  0.8311627485678257  0.8983833323655198  0.0820206480882808
  0.9205178741872289 -0.0036479223664666  0.2612364336883560
  0.4985757444098744  0.9135675062047142  0.5831814197175810
  0.0825083800091716  0.9127468788524973  0.5025356475810365
  0.3232675937663457  0.3461725062843692  0.1658420743389688
  0.7482336597639917  0.8317772194409631  0.4185924210090353
  0.0819653138937202  0.5885134560502565  0.6637847985605069
  0.0049845104668398  0.2516383971807334  0.2632845304861420
  0.0076214829871361  0.1627864888065797  0.1753749151185184
  0.9204947438307041  0.0825821647801126  0.1731562676782051
  0.0156232360153247  0.3391195011512200  0.8251860489296899
  0.4987841457439968  0.1650619418597265  0.5009599577773786
  0.8281440425140828  0.0784136922368789  0.0818379256070858
  0.8312371673200046  0.1615196338132219  0.6592527208911682
  0.8297888004462588  0.3379375543593434  0.1720637749986033
  0.6657478391871290 -0.0031400941407111  0.5004520187390687
  0.8282578581290023  0.4194827776574844  0.5821513817864202
  0.4128556512383009  0.1645413609474224  0.0843037262382547
  0.5032492174775600  0.2511118334419394  0.0833972921494976
  0.9122482887351445  0.3437969270842349  0.0871656388487290
  0.6646546924811024  0.0821288172116389  0.9128244767905173
  0.4124721667407581  0.6646580939212045  0.2548550348510432
  0.6625753301401213  0.2485769182965784  0.9127141486317593
  0.5042623000158949  0.2532713128708434  0.2578870733495597
  0.4160338162332994  0.5071459497549504  0.0796650918926951
  0.4165713791234918  0.5843278710976113  0.6654905719095917
  0.0813824570576318  0.6682176626079070  0.5821460815134784
  0.9174198802643984  0.1648180561060427  0.0834782508476943
  0.9198397505535907  0.1599747647719402  0.2580502120130146
  0.9178420691016275  0.2527160772939549  0.1730401455840542
  0.6541214502872770  0.2522402477815340  0.0832729041122151
  0.8298679934986752  0.4199402667821257  0.9225136798670400
  0.8305967577228507  0.9134068387524922  0.5812165782565168
  0.2463719147600219  0.3398354251825644  0.9098546371350223
  0.9124233916304810  0.3417143892411620  0.2526506107141109
  0.7483012532736506  0.7383438726432512  0.1700045528149004
  0.8306131962550843  0.0810114921339015  0.5809229626231212
 -0.0016640984393920  0.4252977122463635  0.2479821602226118
 -0.0048513532931560  0.4191562541425845  0.4284404775511431
  0.0827190761660301  0.9087121891939214  0.1682097354033209
  0.0813712314551561  0.2494863693157126  0.5033803989008138
 -0.0008554416816217  0.7482871587965265  0.5827143548730427
  0.4138737499111994  0.1660764893667972  0.9092877666639589
  0.8278721277699100  0.5024765497842223  0.3388357471771871
  0.2337388843768041  0.1652134714976594  0.0793088554223046
  0.4921742115036741  0.8225740601461072  0.1698769210020944
  0.0864635302592077  0.3396349972609137  0.9127081655749179
  0.4161920174388480  0.3352454987825289  0.7538357073541486
  0.2504061855550768  0.2500579548895301  0.6634582678886195
  0.7463771210716076  0.5960469474474507  0.8310804730288579
  0.3305786175263748  0.3382125327785893 -0.0152076220686436
  0.7439727384523680  0.5064310391896515  0.9205883606377726
 -0.0000989552103778  0.4351524000819370  0.0852381381320445
  0.2371617255259644  0.1657978406721830  0.2602338080536871
  0.2467786510143801  0.5068377828445362  0.2541846293494639
  0.0050373494488138  0.3456574322075656 -0.0066782897578405
  0.5808740714857451  0.5870521721668149  0.6646048023307227
  0.6633930237654883  0.0833815981998850  0.2601706506182191
  0.9160899655858064  0.0739539804477580 -0.0085407014318696
  0.4136784631226223  0.4365116976980399  0.1694408021658188
  0.6529523135966901  0.5037709432412215  0.8290295643661701
  0.4155597953637910  0.5023791604089877  0.7479935249202343
 -0.0010327156660034  0.7483982979022886  0.7474207299157877
  0.1653001574486389  0.8313517593292898  0.6656981399259779
  0.1642528464448596  0.4227151242104795  0.7531316538885882
  0.7432635020557208  0.4161603370683942  0.8309540288457590
  0.4976365342307002  0.9150461252435914  0.4167122063055130
  0.4142154988183257  0.2525055396847837  0.3517134840701054
  0.4977459538340729  0.0809989367070650  0.5818687729216967
  0.2539877309957688  0.4219666242125968  0.6669629631851213
  0.6516470472102976  0.2485285660604041  0.7455945074349820
  0.7465344632609576  0.6659074035958437  0.2552531797730306
  0.8275443278165961  0.4194448917173386  0.4201545067893240
  0.7435789075667493  0.5883535052135841  0.0017129242750427
  0.8311081769832692  0.2459604389167039  0.5811785982778397
  0.5819022606382784  0.3349319730465999  0.5798898245222636
  0.5812624364493889  0.4296674421207473  0.1692108977513633
  0.5798497472643380  0.6646020343680785  0.2562436986693510
  0.3239702301023130  0.2539755426340530  0.0787808694284846
  0.8343922590464641  0.7494188984419238  0.2562293927439246
  0.3310215252359788  0.8296664527616923  0.5011338302000929
  0.7472550658167519  0.8273380290315814  0.0783697619055480
  0.7480608814749998  0.8280745040888934  0.9138304992575501
  0.4150577541066662  0.0809302801338060  0.6635401806824847
  0.5813051460274847  0.7459997630998441  0.3375801500411406
  0.6625452018749398  0.5025102978171161  0.6640011943781441
  0.2491423389976694  0.5041218525650252  0.7476000463723627
  0.1646770007987953  0.0809165776432481  0.5837446679467141
  0.2469735071035559  0.1663464337629877  0.9140870784169750
  0.2502400860407292  0.0759621322282458  0.8266664860276681
  0.5818894638855139 -0.0029229263028041  0.7456961050950710
  0.3211081247436259 -0.0042515218498854  0.3377470183262589
  0.2480303025402703  0.8308833519940090  0.7468051332851938
  0.2465984218878053  0.1644608127201753  0.4247006037252140
  0.4986507790285691  0.7502238953017141  0.5833630617838652
  0.3289342926118992 -0.0044922009455188  0.5036994421883768
  0.0030876390739594  0.8277708630300993  0.1684892608805438
  0.6654772978979659  0.5013723381070806  0.3369703968107954
  0.4167168109006502  0.2445475617230761  0.6647594915228421
  0.4171341014372972  0.1649601133031038  0.2553671912709961
  0.2481426339707127  0.8297338053903768  0.9122200000549083
  0.4116319244826291  0.2537905772083718 -0.0114070256127262
  0.2301880444601900  0.2539048272089854  0.1707731797044920
  0.6613933270149400  0.6686689411083551 -0.0013777932374934
  0.7490647159830151  0.4192459325579049  0.3376353082629713
  0.4109602658227130  0.9090108875811268  0.3390260314601260
  0.3246788514652927  0.2523887358894544  0.2599127271759513
  0.3231538297419609  0.1663624758155738  0.1682402576331115
  0.4147242687422988  0.3434243133428836  0.0794978716885607
  0.1670438923917960  0.4280785728674150  0.0798968858923906
  0.4955999318716787  0.9113965890009835  0.9055102153229917
  0.3300238339102237  0.1651931130681726  0.5009781383888599
  0.4071611594473328  0.9136780271626536  0.1776156868615092
  0.3320637239693330  0.5832949991312634  0.4220190285655063
  0.7411804432710994  0.3351459145444851  0.7463274713448873
  0.4144997968543877  0.3375438898448028  0.4198595481114248
  0.9145898464059038 -0.0084899407966538  0.9100362644441381
  0.3305807662946922  0.7487654618658151  0.4211973992617440
 -0.0017780967746319  0.5844979435322251  0.2515874711486043
  0.8321695943814809  0.6711399151782460  0.1706914336120034
 -0.0000989626204609  0.7466750414307071  0.2542178294071086
  0.1725052022118635  0.3381767294943849  0.3399766779927925
  0.5854378941303902  0.9154476743396414  0.1707195335887867
  0.9150054087214964  0.1637895205435814  0.4236865345069207
  0.4966390568843032  0.5857060518447842  0.9129462289623133
  0.8310965825859320 -0.0060757571086228  0.1721141190332346
  0.8303475598294908  0.6678609402127410  0.3344669822868639
  0.8344006705585038  0.3271686581177924  0.8330259086713345
  0.0114794386962081  0.4209926032862536  0.7451629105082193
  0.6643522556177258  0.7507485741330826  0.5825549221557801
  0.9167274680212905 -0.0139843769122550  0.0829077154855529
  0.0814131740007416  0.0786387043287136  0.6631691260952829
  0.8394046660338090  0.8249880276163544  0.1702737450715828
  0.4077368639340981  0.0002766261567684  0.0875439949431390
  0.9137115856105016  0.7498845563039381  0.4989712112974513
  0.1459686165776631  0.1619461337486776  0.1741857269432209
 -0.0006850606299338  0.9122995701367304  0.5808328605189290
  0.7482698064780720  0.8282891189397025  0.2584965211116313
  0.4997389122899987  0.5030036188042722  0.5021913650689931
  0.9177950581316729  0.8270757898169322  0.9136465299334011
  0.7459952333305755  0.5859657422791388  0.5006834900800033
  0.1587934640005448 -0.0091008322018047  0.1698553276413459
  0.9199503175560894 -0.0053031146547528  0.7439573542321452
  0.4955599956009095  0.9129657231160966  0.0851454986694377
  0.7479744747747669  0.7499603230354828  0.8306303773287765
  0.8316985809007504  0.4198471192881844  0.7434463506895346
 -0.0007277890451924  0.7491149155566775  0.9136347478837217
  0.9144873313616134  0.5864879460417858  0.6641617916769593
  0.9170657357195801  0.8285358073778991  0.4210269088474086
  0.5861567858923026  0.9111125718376468 -0.0009703919755868
  0.3352021580646782  0.0796107908768331  0.7426903739426973
  0.0814669515698661  0.7468801776162064  0.5030698725964690
  0.5835161793794675  0.3351947148184765  0.4187232627010834
  0.8301866110008210  0.9054852675246060  0.7472990398713313
  0.5800501140679278  0.7364211597762562  0.1706415886352741
  0.2484926805143007  0.4233701702144597  0.8288788297753177
  0.1652151294110557  0.5061983833667045  0.5004610272290392
 -0.0004947101550468  0.3441311872785154  0.1734900407665549
  0.0034696435105529  0.2552601265415307  0.0821807324203525
  0.9119109473751285  0.2531745102940730 -0.0055758235083136
  0.1664425423559110 -0.0075773137025031 -0.0040234614303793
  0.0845253882967114  0.9088359476678619 -0.0038691359233647
  0.5794254502334061  0.6693961578744361  0.7481655457860827
  0.0011430992815203  0.0744818370345257  0.9041172451818563
  0.7454241888272285  0.5868711238192641  0.6647191464433674
  0.0829206134434004  0.0793743722537869  0.5047529284721081
  0.8328226385851550  0.5074786401579874  0.8313929965134405
  0.0827211836618296  0.0790397193758128  0.3421076168569741
  0.7443246353828062 -0.0011154193800130  0.4214123535566909
  0.0075414680937012  0.0752989348809915  0.0814295058394153
  0.0013931771108134  0.1656615157423040 -0.0077845969874571
  0.0764110992011252  0.4185168988512970  0.6585740468317823
  0.1005269641415083  0.2559268966317315  0.1661270998125893
  0.3319320866781715  0.3354707755675103  0.5021031213064617
  0.3327172488103373  0.5043333197571399  0.5009822244015165
  0.8307286387146664  0.2397817763020024  0.7418258116187385
  0.5810152222432575  0.7450184766397504 -0.0020420627747701
  0.6624534510569652  0.5040092583339152  0.1690663884275528
  0.5797695352390895  0.8325533710012002  0.5814537948337402
  0.1674167041630243  0.4202859217232078  0.5754718812228650
  0.0832925639514570  0.6670807197110473  0.0834761176864989
 -0.0055045121735607  0.3337028267566531  0.3407043493046856
  0.4122467008586066  0.7490219754706268  0.8295152061990745
  0.9128439798521362  0.5861023468825850  0.4985919520018833
  0.8299742914017409 -0.0049809542732492  0.8370579235329461
  0.5863361876980859 -0.0027837529894864  0.0874304822447856
  0.9239020262856665  0.4169091257185014  0.8316233519724437
  0.0826423374669293  0.2476181241987800  0.6611430673191454
  0.0829509114842804  0.5083270588991329  0.9149022887075525
  0.0818977990328835  0.3316400778392780  0.5780344902379529
 -0.0039618320145401  0.3327648924662553  0.5007156230242740
  0.3255945646153180  0.9098495138271134  0.9116374922989613
  0.6638089848163032 -0.0026421918814288  0.3400462670094878
  0.8311346781904235  0.6690418617066642  0.6639549764740831
  0.4118461994530801 -0.0029520056112810  0.7437437516958653
  0.8324517064550997  0.9090193720831536  0.9120910466904651
  0.7476633953758525  0.8305970884833219  0.7477015944129252
  0.4100875957891603  0.0005017653394459  0.2469250594365468
  0.4133902609405904  0.6636703061132423  0.0828646572274096
  0.4978097612413058  0.0835242866660622  0.4235093959008627
  0.1608880423247367  0.1641536606790263  0.8227084626607692
  0.6629256755691958  0.6677223016389184  0.3378037236702201
  0.5820009057064247  0.1633797135355577  0.7456316647071455
  0.2491435783757457  0.6662457552478753  0.5842535545238904
  0.5813868601455515  0.2507123625358216  0.3395265105847113
  0.4978113661780850  0.7476073813175848  0.4191706281064852
  0.4142930869340277  0.3342631883377062  0.5748840436335735
  0.1661002782671627  0.5896888949713043  0.0810605500292803
  0.5807306960614615  0.4223411139762497 -0.0007370108069775
  0.4120716093331432  0.2558595432697500  0.1705544518842083
  0.0025784176614228  0.5096101482498117 -0.0021146218952489
  0.6612854911789757  0.5083242939053916  0.0017114359487359
  0.1653837421594203  0.3346822374147373  0.5041541576079263
  0.0859347340604052  0.4222179877333491  0.3378165782820533
  0.0916335089065440  0.2570555144873910 -0.0114117659657589
  0.9207442469846816  0.3302505745417284  0.7448971913141847
  0.2379430964313640 -0.0049063883928131  0.0821296353991260
  0.7461932958975749  0.5027285055879277  0.7383076470955138
  0.9097905834858722  0.2357920214260375  0.8226118565304726
  0.4981378913896486  0.5024564410018048  0.3379714768655794
  0.5832337558910355  0.5034739606404696  0.5838100550993051
  0.4176631193680246  0.5060245253003087  0.9122257079064560
  0.9160725991058589  0.4185930705587219  0.6516846265912504
  0.4958708662352861  0.5861357865921744  0.0827927459025792
  0.3315592492533413  0.5857777437981715  0.2541595477461813
  0.4136299913645235  0.3444804817895309  0.2601704649192839
  0.9155018248183715  0.5122717763542907  0.7456738636004016
  0.3325828800513415  0.6679694072715086  0.8297427846870409
  0.2454417998113292  0.8260367248741525  0.0776455112533350
  0.4983388612207697  0.3452026917718214 -0.0036040558558923
  0.5788641021486145  0.7499473896688984  0.8289973012221811
  0.6640070578189495  0.0823965429743508  0.0802786705871293
  0.7465040941688832  0.0831258784623473  0.3401206714030032
  0.4959956007587459  0.8280215770482608  0.3386155270165823
  0.8263207783310732  0.2532883792595297  0.0879219761359812
  0.5818350225072697  0.0891676659122402 -0.0016034689690489
  0.7468643282559451  0.0816065902746682  0.5006868527250516
  0.4157914612727315  0.8317623247338267  0.5820175125716492
  0.5799272767894422  0.8295264295703856  0.9130432485984781
  0.5814982354261473  0.9126609673376685  0.8280113309682300
  0.8278760911256158  0.2498353916420667  0.4214691149508635
  0.5801103573240652  0.8279272336851022  0.0801303037367095
  0.5801110040554012  0.8290830189772270  0.2601994650636558
  0.4980421835186228  0.9131259847635426  0.7461833168042443
  0.6638905880177070  0.3342492925772087  0.5004588662434565
  0.7457863330869668  0.0790101177553354  0.6616751660373966
  0.8295168877732644  0.5863789617060298  0.2536076180226634
  0.5818501654317970  0.2502475836621905  0.1724417180940936
  0.5810975568236427  0.0817133109754634  0.8284134308912483
  0.4967788935436360  0.6658095862907191  0.3376527348790165
  0.6654273854423771  0.3355644636574397  0.3384934709151590
  0.4961868807072451  0.8209477116974166 -0.0017212168615744
  0.5742854598732342  0.0851306223752410  0.1723465836873710
  0.6554043039428226  0.4213925903983266  0.9149041188164978
  0.5802014929598547  0.2485319506620081  0.6607673710158756
  0.7465410737440630  0.1631513970329176  0.5813663045326637
  0.6708074939797297  0.3365034708403490  0.1719158849762801
  0.5815661294839979  0.0806879162916739  0.5011263752554073
  0.7465163587355698  0.3267623334333000  0.9151744709200559
  0.7462308996514322  0.1664120706878404  0.4204759888318477
  0.4981180169118549  0.6684365752056222  0.6651725466682634
  0.9147661411324768 -0.0046310609342979  0.5812553400353930
  0.7447374780574020  0.0841538733901281  0.1717979814189035
  0.6620608530390257  0.2489972705158661  0.5804055884646082
  0.7457183758343335  0.4227951386763031  0.1711411588701368
  0.7467609442870964  0.5041414383472600  0.2534914929340494
  0.4956373666519305  0.7454308913557576  0.2549101251565207
  0.5791285392319466  0.5056541963324980  0.9156543728206731
  0.9120123258567354  0.4262422780872340  0.1725948730836229
  0.8309789113041484  0.5046705297529297  0.6622368820085383
  0.9153616417024760  0.2472671570967772  0.6621548850549623
  0.7462573567269630  0.3332645471414024  0.5807801329256200
  0.8252860284169442  0.1602425714409549  0.8289963752964477
  0.8306864614454516  0.0831513836021505  0.7452543407819110
  0.8304296302161586  0.2467572800209826  0.9134998201735427
  0.7466718255456183 -0.0058027051387068  0.9119413984187397
  0.4959379351071291  0.6682487746494776  0.8294834878221654
  0.4965018767459340  0.7498211771726935  0.7470145358142574
  0.7419866064663565  0.4223059878502179  0.0083948887068019
  0.4129320206788652  0.8222087258210393  0.0832931376342362
  0.4148196705271652  0.9140473731907599  0.6640572264211050
  0.7474055468118848  0.3363232305219454  0.2560889832842734
  0.5799744002266383 -0.0033012508446610  0.5814375526884583
  0.7466051653142526  0.2485892429350125  0.5024382623076680
  0.5808836017210078  0.6684344573898300  0.5826426705456051
  0.5793539067978677  0.5869137130497563 -0.0015207667186745
  0.7447025020690764  0.1643316165359388  0.9136944417662969
  0.7471212360469905  0.2509188265315127  0.1740171264476015
  0.7479683624411508 -0.0033670059293066  0.5804869600562028
  0.6627582394590810  0.1715495509628561  0.1723514569252087
  0.5805722803893002  0.6662507978297493  0.4196569199800222
  0.7452105471482724  0.1623513208039842  0.0833697069212191
  0.4974398767141575  0.9131776086901415  0.2644742976814817
  0.5804811802800024  0.1676573175948730  0.2569400349156623
  0.3302386999225514  0.7453554639844306  0.0818891713549939
  0.7451080658602680  0.4167325438134394  0.6628605987942687
  0.6650817402442234  0.9140380940939520  0.4190567873602833
  0.7467818620818496  0.5035651011993389  0.5831716881356840
  0.6735171367510088 -0.0058923324391523 -0.0038254844370809
  0.7466417199753955  0.4185582607854814  0.5013130918124825
  0.7470576977151453  0.3345958471506099  0.4200140996286190
  0.7403918137902891 -0.0052929966171607  0.0848969935095917
  0.6639420719830893  0.9123486656774874  0.7474694288360449
  0.4977365264828757 -0.0028162969696129  0.5010520009752407
  0.6611927907376308  0.0791829405506383  0.7462345849911632
  0.7438569263686930  0.3391522932895820  0.0858959713372255
  0.9120283486728273  0.5048235628881084  0.2534408943717965
  0.9125347267374102  0.5850508756884594  0.3358118715026475
  0.9122778563288614  0.5032419012855035  0.4201618352646332
  0.8299900248340701  0.5863615468168496  0.5822884835383924
  0.8293875682286661  0.5033499427273165  0.5011301213045611
  0.9158204568923777  0.9103931210346969  0.8284532060463050
  0.9138088514838585  0.5054891691111184  0.5809505936318777
  0.9165829122146147  0.5883139482868863  0.8304016673994509
  0.6645401157150589  0.2521482083464176  0.2578829682793040
  0.9123433901546613  0.3407011868135567  0.9240998838039266
  0.6621111684117518  0.4238069643255404  0.0859576603445610
  0.9139115997360611  0.5882424185851868  0.1719046264780774
  0.8290044299322139  0.5085541788268133  0.0096727643465072
  0.8303835265074977  0.5944669422201894  0.9157869175984222
  0.9236259698164416  0.5060551673850747  0.9129045922569367
  0.8278116783004095  0.4216700790640239  0.2532992919334264
  0.7474515668842345  0.5877748658291150  0.1700780346830034
  0.0020928643898490  0.5888965940548503  0.0829379261216101
  0.9150472845265989  0.0784373044263492  0.6610805300613984
  0.4979664558190023  0.8319144825389562  0.6649939609012601
  0.7490103806642266  0.9137947582076491  0.3386447213092933
  0.5790668135042139  0.6682085544634248  0.9133339541388045
  0.7454440765882763  0.2472889069767541  0.8343872590259555
  0.4972244843755044  0.0814715416075351  0.7438861149568028
  0.6630146475383996 -0.0042507446833931  0.6633997107346974
  0.5811968889223523  0.9138074184517715  0.6646164001524389
 -0.0004645971967281  0.9126623426227713  0.7459250932193179
  0.5829944832412970  0.1660350096912627  0.9126284052490716
  0.7438005634284330  0.0794846449676359  0.8310277227290831
  0.6613845370267063  0.3337575624006069  0.6622447397110777
 -0.0031407628694603  0.5047930995431135  0.5012470762952291
  0.7460797425782124  0.0798924602849518 -0.0041678473936432
  0.9147851915388786  0.1637386175774404  0.5807962392928477
  0.7442651614833041  0.2475393217187651  0.6569764448533818
  0.8302628037716855  0.1648164655453429  0.5012709627381462
  0.9138677701179001  0.0769935379393703  0.8268843978689300
  0.9133814049295131  0.2484656511531604  0.5001555230886358
  0.8331760683677943  0.7478294575240556  0.0834495830834352
  0.9157406394926877  0.8297284375345848  0.7462188972745800
  0.8304397120619511  0.7493492636361502  0.5812019693852675
  0.9149659409762145  0.9120309573575305  0.6633553589966261
  0.8315961711890708  0.7478315640437748  0.9144748510482275
  0.9148784157157543  0.9081701665662905 -0.0039853356031651
  0.0014345011508323  0.5060756630767929  0.8291589949210764
  0.8324740007560468  0.8289408467837737  0.8313768504363239
  0.9167489454134188  0.6701798756206109  0.9140158631578208
  0.9113657352332288  0.3354888913206484  0.4225480067093924
  0.9164134158794661  0.9114563070404382  0.3397149885996154
 -0.0006429198552561  0.6695151228156155  0.8295492380409618
  0.8327960791017095  0.8297001509762635  0.3390463225048193
  0.8325885948902918  0.8269248865236908 -0.0041501074609547
  0.0005190524936844  0.8294511120559540  0.3380338954024862
  0.8322998619307213 -0.0024676295833751  0.3484974914219006
  0.8314084874444473  0.9118234404028882  0.4205306159865564
  0.9152414515280144  0.8305870521453736  0.5814540792300378
  0.9174116665567557 -0.0036032810818840  0.4219266139814434
  0.7467863619508510  0.7486379447734720  0.3373657443240146
  0.0809772240759172  0.5042702433765556  0.5808029613579757
  0.7473711072551102  0.7504210364120393  0.4997367662070065
  0.0821253390311477  0.8296512149403608  0.9120552361606556
 -0.0006240173671088  0.7474853131024846  0.4193866071317150
  0.0830630724326068  0.6687866827297080  0.9130570131263388
  0.6621178038129583  0.5878117153905167  0.0852398563218839
  0.2473383970795554  0.9132310870430168  0.8279210375259066
 -0.0019420659141907  0.2468455696071526  0.5820216748015032
  0.8304669582437980  0.7483287221368746  0.4183017009295267
  0.8296501051179840  0.5882365394009955  0.7463847166309555
  0.9146949208602765  0.6676568551592531  0.7464809250946528
  0.8311002610006895  0.6686547322876008  0.0002801032381574
  0.9148244289966559  0.9126057503967460  0.5008735347384918
  0.7474400656136899  0.7477811546158413 -0.0011602180244430
  0.1669554104647431  0.5070731772772019 -0.0035521474506033
  0.9168556383256014  0.7480540668259013 -0.0011423179886522
  0.9177676167551010  0.4265231138150886 -0.0042492912957876
  0.1648775384588220 -0.0045872784700918  0.8272668660278344
  0.1654817279983717  0.7484012679269529  0.5839633792501655
  0.2487683756101984  0.7494449797750442  0.6652462829858045
  0.2506849229255315  0.4209311401938696  0.5007746549830842
  0.3312231066948217  0.8315892389298171  0.6652640474514198
  0.7455720902727275  0.6693231126257181  0.9160700256030770
  0.1663466932501682  0.5871181592731992  0.7470433965598295
  0.8309854692312676  0.1664751706533758  0.3403873625503639
  0.2494387567844491  0.5856396593364659  0.5019876522290618
  0.7425574953344063 -0.0026623549984369  0.2577578534567478
  0.3330658168073932  0.4206946829723248  0.5824797422510858
  0.6644201049202161  0.7471134379219186  0.2543226047120220
  0.1654187263756348  0.5860004784165660  0.5826726499546723
  0.5806795548866255  0.9146205922927189  0.4996873453275819
  0.1640368565701473 -0.0036129401189461  0.5029686185383918
  0.7472394025141738  0.7510240533014622  0.6645218513528954
 -0.0013807976285438  0.1634039025126520  0.5024287435893519
  0.5807326762907692  0.7507960667135276  0.6651256472373643
  0.1656097400826916  0.1641442420158466  0.6627551271837000
  0.2474969130842792 -0.0038378053302448  0.5826078382616282
  0.8292593099447573  0.5854991436705809  0.4185762982059191
  0.8305928683106917  0.6671604231011602  0.5003573076781399
  0.6621962411285746  0.5882914208814697  0.7473943113197231
  0.8320223953218124  0.6699152215332065  0.8295162215644195
  0.7460578196104085  0.6682276376100856  0.0834913681537487
  0.6646396856060907  0.9095478610719899  0.0839322090896023
  0.7472726830716656  0.6662716291420950  0.4182654529210693