 C Cr Ni 
 1.0000000000000000
    21.1200000000000010    0.0000000000000000    0.0000000000000000
     0.0000000000000000   21.1200000000000010    0.0000000000000000
     0.0000000000000000    0.0000000000000000   21.1200000000000010
 C   Cr  Ni 
  52 259 605
Direct
  0.4973565372288504  0.5775785783784434  0.8341442182344025
  0.3256198827153120  0.7545604520023305  0.1665372857139759
  0.4046387990249356  0.6671560064001492  0.8413990832056465
  0.5863260067164897  0.7525523133171925  0.0753532129336955
  0.4117645789760651  0.8413931677641380  0.8383865372725383
  0.4279241614761458  0.7430747815354273  0.5941750207903524
  0.4904970093521271  0.5839010729683692  0.0045069687347043
  0.8390979369724524  0.4068544111676267  0.8423689304207511
  0.6744330975008669  0.6776281270227364  0.7479104511340201
  0.5880915941839504  0.5771429461549732  0.0828687610689453
  0.5842675709997870  0.9236941711380372  0.5894317515908687
  0.5911098494385207  0.9235558751703729  0.4176973294895588
  0.5028287931844146  0.0133938094155890  0.2444615592308542
  0.7514699225070434  0.4953539732493638  0.1665781835904313
  0.5861365273236382  0.5714304416444201  0.2608381447229213
  0.5868130628392054  0.7510654095657020  0.2575961465554021
  0.0739813023949559  0.7600066842652101  0.7588772573823976
  0.7603394200655487  0.5896689879458862  0.5713061552413993
  0.0718714106202684  0.6657071349637262  0.6675397958012976
  0.6598110114514993  0.4051991849841963  0.6650365230330054
  0.3233334688051273  0.6578849910635750  0.0759860093205393
  0.3269617924497689  0.8396493505679143  0.5898683174573759
  0.4998669894434143  0.8298664510334083  0.2443862390064402
  0.4895115109781464  0.6763115787715717  0.7462109883202632
  0.6745621650565577  0.7519635353272420  0.1669738789631377
  0.3334737652040661  0.6530695797415851  0.5865863101410741
  0.4082455065163357  0.9205603323472982  0.2427017503295726
  0.1659435464131321  0.7594637407467268  0.6656969509814882
  0.6635523257949543  0.4952375120185656  0.5701260947035300
  0.3315893132130742  0.6599923700289080  0.2550108335929590
  0.4187283698652132  0.8416770074271854  0.4970838659113778
  0.6685467240250971  0.5879606482687539  0.6597545124916239
  0.3262799848338366  0.7473645451818742  0.4962070416650797
  0.5787788249184560  0.6786378289449534  0.6524633791636636
  0.8410362720542649  0.4995832897922939  0.7541113964317842
  0.7483903542418390  0.4057517335700973  0.7542975155727732
  0.7479205294573661  0.8357185205641094  0.8338033193135523
  0.2375282990356031  0.6631752717314658  0.3353091111770763
  0.6662510059793296  0.6704131426604159  0.9260258091686767
  0.7546240658068275  0.4958487201483849  0.6626437027210105
  0.1569299981416110  0.5728774291787629  0.4937011211410077
  0.5018670159527804  0.9224689157459247  0.3349241678585263
  0.2458372619671180  0.3321820515257708  0.0011986923652003
  0.6647079759343212  0.2452574165008175  0.4989779871636069
  0.3201772197227241  0.9220412940405350  0.3375657134352313
  0.8319943985443938  0.0850064624290160  0.0005823556408653
  0.4146201898839303  0.7531053226449868  0.0777216703848110
  0.0802197400893324  0.9205929172696872  0.4142839164950353
  0.1555342392091001  0.6675670498056374  0.5764367700304575
  0.1666461665085772  0.6636684965599043  0.7575402804464424
  0.4011456424560707  0.5755660442151633  0.7436893563286995
  0.5837228472670412  0.5798696103030426  0.7490203950286665
  0.1584591789162166  0.5782788917254769  0.2494479163313321
  0.3279843117443801  0.6572771191578943  0.4946656953249354
  0.5832998075466163  0.0053945079018984  0.9181144677639481
  0.5847887924334426  0.0038788955543146  0.0823717237941596
  0.1629064927547026  0.6660986071650005  0.8459386388264039
  0.9143027469836611  0.9203663027097644  0.3308978815756607
  0.1553952270058725  0.6636628916531452  0.4903420041503763
  0.9970007495722002  0.0851296763997799  0.0853311763106636
  0.9155416243356761  0.2496702262757866  0.1642616498512455
  0.3196195447505495  0.9222029854294580  0.2467849342498180
  0.9146784876071672  0.0048208259693006  0.5838735086891161
  0.2444846463728310  0.4909342405394543  0.4130166389139703
  0.4111855215369142  0.9220005537431039  0.3349626220899762
  0.1609102442088133  0.5739595041981528  0.7508040142559024
  0.2408141554333818  0.6641299814430275  0.9233187103695110
  0.2433941410382549  0.0065202427058867  0.2478476091479428
  0.6652909915511934  0.1564891941932179  0.4994013541232957
  0.1612762767033459  0.8374798441035740  0.0027253023133446
  0.3300608769534229  0.0867975940227485  0.9177292183339626
  0.9159014344685337  0.7554143839576197  0.4969218492999237
  0.6688833809242160  0.6708654024598799  0.8366790800455505
  0.4116483695873185  0.9315231145597338  0.8370306617252011
  0.7497016307755739  0.9268222894265739  0.8337598306457077
  0.9182911135344197  0.9183931633083934  0.0004732131444721
  0.2437452381439766  0.8422710589533531  0.7552752751205499
  0.7517027597533893  0.8361857371535230  0.5831461047725772
  0.0807835596968359  0.0111565153280663  0.4161121511124300
  0.1643148812612140  0.0854912474981523  0.9178216515926044
  0.8333535652819175  0.0862956826072284  0.4157305205720065
  0.3282357603654768  0.7501236038660661  0.4077277433285105
  0.8366274846210191  0.4099112666823736  0.4139465856022327
  0.1648641440935914  0.9229705599622091  0.7534926699619999
  0.3268156644527453  0.7516638802548504  0.2550502171743334
  0.4123521553930695  0.0072163578325177  0.9205927134370040
  0.3149324544076806  0.6667975869763186  0.8454266886473895
  0.7494182485114298  0.1686022950491684  0.2480678224914943
  0.1629874213418336  0.4114896035459450  0.2484635841326726
  0.2476253109471179  0.5745967864408655  0.4965923813903023
  0.6652040403821656  0.2466598218878400  0.4082464752471722
  0.9160119588642948  0.0857766104983838  0.3316660047345022
  0.4963907488244901  0.2495185298272090  0.0853228669724762
  0.5075271382929092  0.8379345416542616  0.4945055615790261
  0.5917722086009093  0.9207471818319490  0.3293306952294793
  0.5740967959433463  0.2463704067540003  0.4988141705995853
  0.9164214760931431  0.2499511030311421  0.0010050452485915
  0.2452166155006951  0.3296180544602700  0.5836578486225333
  0.6665680381828623  0.1675702337467107  0.3322074318969691
  0.7492557664980720  0.0870366434724473  0.8336928386221206
  0.2461522384999589  0.4101096831519763  0.6654463508261799
  0.7462506414015259  0.2438722469655680  0.8358189052927019
  0.4143146507705067  0.4944476476763648  0.5785449748254946
  0.2474177186334507  0.2478538606494335  0.8331618814461034
  0.3356459944460125  0.3313590552841866  0.0008861411896952
  0.6682019130768982  0.0029469371086647  0.1638839041033336
  0.9153535331420662  0.0042403286797697  0.7511332752078553
  0.9164854645182374  0.3307457323176500  0.0827000934664773
  0.5802679229376602  0.0859472831370987  0.6700715461620337
  0.3257033081857623  0.7489365377483194  0.0778097307013225
  0.4168678811517516  0.7510931991452083  0.1679467663287540
  0.9985213329015177  0.0847661096716644  0.9158287866447846
  0.4140615631524300  0.0032477779036402  0.7513008349397708
  0.6635317907881555  0.1684744730516372  0.0000575675557805
  0.8414783940377865  0.4956710280383029  0.1660343137597681
  0.2445028777145725  0.6615645458191552  0.5803678543530852
  0.0672541014671449  0.5786941151923861  0.4967320360313987
  0.5708738786184721  0.4126742030011174  0.6620752587371439
  0.7493504543720740  0.4055495633588845  0.1668473860784959
  0.0794345626045405  0.2470971641293658  0.3328578455714553
  0.6648696862733503  0.2496456029139273  0.0838654986977982
  0.8383226005780881  0.4087848244894258  0.7521738043826431
  0.2445040219306703  0.4127486602820106  0.8331975282615498
  0.0771562362656610  0.5798253661985386  0.1682090352840542
  0.3273008793552893  0.1679918504980712  0.3341071680480247
  0.1637645740461062  0.0861489969755341  0.5838826881887157
  0.5809373015637576  0.4103338395400393  0.1689413599731597
  0.0804013933512447  0.0832345372823402  0.8347134170349990
  0.5737558996093446  0.4953038158868351  0.5767278906987287
  0.4136842952150009  0.3314490121126148  0.7497875747115348
  0.6641753607874378  0.4974543414999066  0.6613616277413946
  0.8409369412541213  0.5812140202823338  0.4140854273958198
  0.9150908724207074  0.6675400438350616  0.9217843004249288
  0.8331612315268895  0.1666858027164665  0.6672572115736831
  0.6767089995855544  0.5802120852974174  0.2543670324190069
  0.4960618650684874  0.3297058306321537  0.3341863187474122
  0.6655742369369056  0.4080601922964049  0.4147969128821627
  0.1614124318978408  0.4958999214990220  0.0038206824616478
  0.3291886033669653  0.1679270257899544  0.5016397902073740
  0.2437770287660083  0.4212432664680327  0.0017153514774794
  0.5844830036827906  0.6616420277098365  0.2558082691094978
  0.5858972606928794  0.5792252566119848  0.1714526564135555
  0.0791874436715831  0.9212397280611397  0.5049966861043604
  0.3254710143421386  0.5657590291707206  0.5802940239081561
  0.8489346175821225  0.5824078442089211  0.5801276011270220
  0.4113533936110553  0.4861906619385176  0.7494518195785477
  0.4998661304043827  0.6621139796443543  0.4919908645248592
  0.8355272832549299  0.4976494357417690  0.8442276512964813
  0.5000716276317135  0.9243547709367065  0.4236507219404056
  0.5812974854535538  0.4841700004585939  0.2521144319022738
  0.2358446534313157  0.7510693735650518  0.1680896791995217
  0.6635903685333003  0.4064915182053755  0.5763559048866277
  0.3289873284669425  0.6624401902866445  0.1663239069246365
  0.6711069952970345  0.5834286652935597  0.4183727106530444
  0.3277884759882267  0.5698932384989297  0.0855983106038237
  0.5805540384632878  0.4869725020516606  0.0853341292042519
  0.5001702859205950  0.6606099650779177  0.3396711517592409
  0.7497414711394146  0.4982506695247833  0.7534839972230102
  0.5899359708883192  0.8408879662902869  0.2498859275385552
  0.6688031055202006  0.6768484838105799  0.6604205702426637
  0.4112545429280946  0.8297663034629172  0.2518911290749292
  0.5813782678967400  0.0884650245947357  0.5008030050250473
  0.7504826071012090  0.0058377172091745  0.5843173388355567
  0.6802135314790557  0.9231759539560379  0.4175723999637313
  0.5002051525611481  0.8326184199880721  0.3371470289971704
  0.5823298313867518  0.0057013750893952  0.7512804300257777
  0.4178985645469496  0.8354974104957588  0.5871864792227425
  0.4964841082704818  0.0119372079789646  0.3348177506296451
  0.6757980699262438  0.7494518521638278  0.2550078043325976
  0.3290772637873924  0.1674818861741772  0.6683270335674988
  0.4112957211532909  0.4125743269701763  0.0015854372855409
  0.7497184755810595  0.4960864023894563  0.2576671709004964
  0.3284709192248134  0.8371197260667010  0.4997123177080746
  0.4094207750333225  0.0110840935438338  0.2480759749213290
  0.5782390661921257  0.3280100940892814  0.9180614565868929
  0.7451253713538332  0.1706194334747496  0.0838811719580621
  0.4116379487605271  0.0061809157373683  0.0828655489697116
  0.4193516745046740  0.7487213848579191  0.4983513568073921
  0.1621413128126405  0.6670644106045281  0.6669172088976074
  0.9984727348383967  0.2487870943720034  0.9167248595152611
  0.0809412490274674  0.1667508488451004  0.0838003414195519
  0.7504529224072690  0.3304142410898194  0.2506821921714452
  0.3280242519890683  0.6607795675572915  0.3419544825339144
  0.4964667672066263  0.9235929963740684  0.7517887711519776
  0.7478527056167992  0.4110123747636812  0.8436826373777995
  0.2468377648664056  0.2485859241522335  0.5004768473063651
  0.0790057938573568  0.5806447469707595  0.8370207258017212
  0.4148748662366011  0.8441137390854634  0.7496272413685100
  0.4935372999063711  0.4084032217978267  0.4138632613804543
  0.0795606959056598  0.2474262272899773  0.4995212145208957
  0.2473858764447343  0.2432179967068488  0.0004222858189359
  0.4123310595443204  0.4116783822944851  0.1696069427743108
  0.2445889588342599  0.0849239282180680  0.1666453032317633
  0.9972981187666325  0.4116717771592377  0.2485822667436606
  0.6627329335971822  0.2470914522668835  0.9197737450563335
  0.8341128905368353  0.2455283505681764  0.4155400741606180
  0.1643730549765592  0.7554610975478255  0.7560895645480075
  0.4123454410272733  0.9235842182780380  0.1527187344596163
  0.9152537635599549  0.9198148111591391  0.1654374278379991
  0.0793464107608590  0.5800016587803988  0.0038295563884971
  0.7572374384448589  0.6674311717106054  0.9211446102809796
  0.3334698426170816  0.7463640516770331  0.5860339434044098
  0.5842300410088725  0.7504290988102905  0.1669121873296763
  0.1590707473380480  0.5752559415220798  0.5847558233337483
  0.5836536463778922  0.5798153499342990  0.3482127620770000
  0.5775597915270365  0.5846854336544330  0.6574938353761038
  0.6745474851224275  0.7538971812055922  0.0786952552275579
  0.4973594345741751  0.4109257246903538  0.7487433749318944
  0.0785000555925135  0.7512082213238828  0.1667611827444022
  0.5844998793288610  0.8431190962800507  0.0795071296659538
  0.4959396250013097  0.6694277504541857  0.8362091610284963
  0.8359337596061236  0.8374668081905430  0.1661446379922597
  0.0015573422598731  0.4976040486331250  0.8373466577111348
  0.0786556943635034  0.7521886532337030  0.8467183656295734
  0.1594437342732478  0.6641265725007518  0.0012765183008365
  0.4964494696291640  0.1716421208352525  0.1619252422549961
  0.9989110277891661  0.7513751343195254  0.0852073440566001
  0.9163538726025771  0.7521790955330537  0.3316082550585320
  0.8364230311648102  0.6655700578617333  0.1673671623904161
  0.4144386201054571  0.8330528446190062  0.4075731258397491
  0.7491519036362558  0.4974205232744121  0.9180041203726401
  0.4958546230223398  0.5770791022415691  0.0915920611790815
  0.4981894103897996  0.9220906246023246  0.2457563354678907
  0.5821751223462632  0.5774053282269838  0.9960905150766959
  0.9971195087551138  0.7518001307101455  0.2475823209649574
  0.9946047907580754  0.8383708937104335  0.5014375515362041
  0.4064766103094782  0.5762387742187746  0.8359821952064553
  0.0748099235888319  0.7571272958597273  0.6687275801671342
  0.4932720275512534  0.5825123482259940  0.7455687530675646
  0.0761407278887966  0.6666464093122348  0.7569037677714172
  0.9149421196565104  0.8397567524398705  0.7512952458136423
  0.0669557903620299  0.6637383842751847  0.5778315697300210
  0.8355169191752407  0.6677381265887227  0.0021362512077984
  0.9950563583707662  0.7541564792662848  0.4139224447669008
  0.2456082055151025  0.3288454173616016  0.4154493122648757
  0.0809875834712585  0.2493251250384590  0.1666748664052149
  0.2464185854415120  0.2475416160942814  0.1674073047295939
  0.9999541229889670  0.1665005027248819  0.6678152464216037
  0.9991772942318410  0.1669865905302641  0.4996818466029927
  0.1636615155876587  0.0855221975560641  0.4169190198440107
  0.9983933036306377  0.1671660621315342  0.3312698722587640
  0.2412510719604505  0.8386869988601267  0.9232760082524004
  0.1627613830806447  0.9203567749131202  0.9206092604159477
  0.0789775048970238  0.9241354100735576  0.6660562214442766
  0.1592260577291816  0.8354926476080959  0.3301865637727289
  0.9990093053417823  0.4104642080028861  0.4147618758555192
  0.4134955795922717  0.0080142477861668  0.5836858802291387
  0.0788685837126229  0.0035088356357321  0.0833689147640813
  0.0793957224951035  0.2470983319852916  0.8346196590315560
  0.0798889573747473  0.3280004624357382  0.5841914925852704
  0.0764614276443392  0.4143962062857899  0.8346072436646088
  0.0761856009617024  0.4924048371141031  0.4129105142234181
  0.8317542961457277  0.1674282072565096  0.8337401933264589
  0.8344375069789961  0.8385957139284984  0.3313649113123879
  0.0746093856477947  0.5752794902908668  0.6654442914150595
  0.7514435349531360  0.0052204897721440  0.4151062881544899
  0.9947162303789301  0.5780875789665231  0.5813260834307005
  0.7573770549931644  0.5813666539492237  0.4826969415078506
  0.6719463010360988  0.5849996060681274  0.7510771657353426
  0.4904761081712282  0.6737344839814580  0.6570856478588389
  0.6749665236237515  0.7542833989780368  0.4161209360296333
  0.9906310159168649  0.9199049976231629  0.4162671529192063
  0.0810099705773479  0.3295582981228614  0.0853577149527304
  0.1565589466560534  0.3311425935465870  0.0008430292851868
  0.0781417202009281  0.4106660581482778  0.6653727333226308
  0.5776738494716391  0.3284343687887559  0.7504145254562359
  0.4951973076762021  0.5778245898376314  0.2528780710923088
  0.4018972528488201  0.6655445151447272  0.7524377698078965
  0.9983495605965891  0.5809959379303756  0.2468398661154414
  0.4119403230368108  0.3285516801150989  0.5817746777465869
  0.0828027264600887  0.0009794223157885  0.7502720834839877
  0.0792262308330105  0.2466599904941113  0.6665794364305646
  0.9151504267824886  0.4967497430255784  0.0828954970493871
  0.2438261121882085  0.0046266449084179  0.7511558489464701
  0.5026278205695094  0.8422433304082783  0.8377526731628181
  0.9952889106593098  0.9192291678628607  0.9193413161526662
  0.5849992879762603  0.7676950172289349  0.6680442281411090
  0.2387934973121610  0.6641987777228964  0.2459664575773222
  0.9151941203218348  0.8393223247382537  0.5813256299478036
  0.4945932554740173  0.5775419837403055  0.4137370934163245
  0.7544360207890227  0.5853196389272332  0.1682543207317245
  0.8345596543115928  0.4975094438831050  0.0018807690540081
  0.4128635386212715  0.1678277134539234  0.9174037713901713
  0.7508792771039571  0.0040890255724043  0.2478292270958004
  0.9839429147338697  0.6714863137708975  0.6691045369957239
  0.6693445788249107  0.5845562184458739  0.5698879630321477
  0.7548117223980260  0.4963254747282204  0.5728296347254287
  0.3272345665719993  0.4917969611819926  0.3332331314788770
  0.3286058765185202  0.3292387317183292  0.3324586957293394
  0.4133396178728029  0.7543718082563348  0.9895620421834336
  0.7497448692848552  0.9206536957378540  0.0002892675543240
  0.7506339276783432  0.4063152966684477  0.6638988430215037
  0.9157733996423389  0.3282938512963939  0.5821794105369259
  0.6641661901400682  0.1667301360180102  0.8354045192058231
  0.8334274568582323  0.1666747324741714  0.4993777721585571
  0.2480076830298673  0.2476249661474204  0.6667898680459948
  0.7593871310873961  0.5862458625987370  0.6629610282274964
  0.4959325051847395  0.2492858616011127  0.9175352894758312
  0.3289494242189622  0.0115197510619337  0.3326388295455076
  0.5804530164749720  0.1694458464663608  0.9188754749302311
  0.1631634261955191  0.0849948069385773  0.2492379752483925
  0.9157448281625444  0.0849438361016195  0.1667355711080213
  0.6585418410800071  0.4102671570924349  0.7541527265746042
  0.8430531267051579  0.4951627298951601  0.6634425343541044
  0.9179355947298240  0.5805016457761317  0.4952420581432737
  0.4953422990711497  0.4896220529703734  0.0013598070365325
  0.8355455568564244  0.5884440097940363  0.7520313298974917
  0.9173477306024175  0.8378847283379542  0.9205408489543575
  0.9850898021984741  0.7548296354826169  0.7518774863742814
  0.5811212815603086  0.6726817025119689  0.7474905085537447
  0.6672309688535040  0.4939018295771815  0.4809301366465250
  0.5801691070147582  0.5772005932727422  0.4911915503810306
  0.5120330988511824  0.7564311705724631  0.5772953002518391
  0.7476719099856031  0.2491647106736489  0.0007885920627251
  0.6700570424378633  0.0074408173847713  0.5008674305706396
  0.4969696157933110  0.0979135732369473  0.2475013106629428
  0.5813781880420487  0.9253767028123413  0.8354384968358477
  0.6726192627986175  0.9227967667137402  0.5846316434578328
  0.5855323677484668  0.6656791481530253  0.5660909467111954
  0.4986125570750953  0.9251502923341250  0.9190382930709220
  0.7509220972046881  0.0866840442063300  0.3309926673219332
  0.6658143025992801  0.0036517137022564  0.0007735644996721
  0.6664362347236394  0.0860524468359084  0.5867300576894031
  0.5891850674711008  0.7539021623228831  0.4942508037740145
  0.4131034710433298  0.9241233126188402  0.6671282935056770
  0.5790741623847272  0.3278107688288657  0.4152406318730510
  0.6653493967607295  0.0861742228110398  0.0838387825428451
  0.4979345719778478  0.8410828532083789  0.6679767384971317
  0.6663977224803168  0.0044647216425931  0.6689212512693767
  0.6673377682230842  0.0866022521892432  0.2480027373735433
  0.9163532048371519  0.3294135164376011  0.2491705676671972
  0.7527553558820496  0.4102330146782665  0.4953535873499128
  0.7509330780767075  0.3281149333364443  0.5805053261029370
  0.6717046318381478  0.9211380128141105  0.2474491007303428
  0.7513586052901474  0.4101903890553573  0.3335155259609643
  0.6645178892132850  0.3306772242488603  0.1676948867190693
  0.6683935959827693  0.8411824583978973  0.1642205455148290
  0.7505114607784811  0.1659339611721875  0.4146409781777576
  0.5786381714140038  0.2502829614921617  0.0024426986757346
  0.5828321787209307  0.0869373278802399  0.1655596495612070
  0.6675037024139586  0.4111917249165686  0.2523737589012636
  0.5821120714854939  0.8418067773629674  0.7544654521806163
  0.6655566921266471  0.0859416282341058  0.7509259671655175
  0.7478546831007408  0.3192426259499490  0.7511428470587707
  0.6651272158871417  0.3319826325124533  0.4961145011165252
  0.8334584315308314  0.4118684235709801  0.0825886170591181
  0.8333155915783897  0.0857548421414071  0.5840251853914095
  0.5010554393417135  0.7491438927027706  0.4168680449310775
  0.5896085847573477  0.0033213270579738  0.2482672904393342
  0.7609939064918381  0.6704207834164188  0.7495272115014091
  0.8328201476253935  0.2484236168633387  0.2483874886338329
  0.6639409492528234  0.2448460752561397  0.5855732283460757
  0.8329946538910443  0.3209243486470907  0.8361388509569957
  0.7514267397854842  0.3287740899762811  0.4142547289204074
  0.9998697366700012  0.3289071531495764  0.8340130077117794
  0.9161352834397876  0.2470358942188705  0.4993789083471171
  0.8337866659540930  0.2454892524550580  0.7493341913028302
  0.9162066824756765  0.2462007452860548  0.6664083353058540
  0.7487374869806227  0.2505062967169969  0.1673437228215109
  0.9986893734549827  0.0838925347534666  0.7506687558550352
  0.7503078762340585  0.1660919413366659  0.5834483073313610
  0.7483584554837054  0.3300113546129598  0.0829269879105571
  0.5884246154896720  0.8371808743633554  0.5798159449637996
  0.8333915175551055  0.3303160973750905  0.1663597238560204
  0.5829166934581049  0.8408803784467528  0.9174258381241320
  0.8341756956129347  0.3279496387737983  0.6657777472089015
  0.5001684474982065  0.9232677233043725  0.0788039994440294
  0.6638341062779591  0.1666586182782757  0.6683829752627249
  0.7449054731727002  0.0848432163051080  0.0018901832027075
  0.5844493147789278  0.7550338875261927  0.9904886094003399
  0.6624917509085055  0.2450586606165315  0.7520474260285017
  0.5796807626634268  0.3316253512606182  0.0844651311572503
  0.5793049671874687  0.6676362782679713  0.9180379752467762
  0.4116030748971871  0.8423254363412160  0.9247226676909298
  0.7483582895235478  0.1660029140151119  0.9186730394379004
  0.5836327979064098  0.9233384385782195  0.9989370643126370
  0.6654835279903558  0.0053144485356708  0.8345206159136042
  0.4962884092448325  0.3297955974995067  0.1680676377516234
  0.6619689425227655  0.3194808821592948  0.6666631282760874
  0.7496973621298466  0.0018779473092818  0.0841751984268595
  0.7524734277790065  0.9210738459263107  0.3305748295473493
  0.7483326808565232  0.0863827397901616  0.1661697641445435
  0.8338543506086162  0.9981140828262207  0.0004220451383834
  0.7469349825050324  0.3275306910753495  0.9187422019348404
  0.5820025094055540  0.0105766196681244  0.5857684361842420
  0.9154185898367900  0.1670143267004649  0.2485052665687277
  0.9252361067184496  0.4127832255592084  0.8374925310478233
  0.8349216754185641  0.5820552316909825  0.0836941781083280
  0.9158773699456325  0.5824499976070026  0.0021792551066703
  0.8340476742930601  0.3293723124838077  0.3322123881335108
  0.9165882697246259  0.4962445386750999  0.2493730564755717
  0.9160404270880445  0.5818638738630014  0.1668997049378824
  0.7540817586073995  0.5810600222064893  0.3377435133293849
  0.9178040451996390  0.4937359147819151  0.4132425580026027
  0.9171876981246908  0.5806281369266022  0.3297205100271030
  0.8380090404334744  0.4943137841259754  0.4953016798000385
  0.9168513517686507  0.4083987756081239  0.6653175190792541
  0.9268094961610045  0.4959897192521996  0.7520152934272486
  0.0732658684303166  0.6669519173399462  0.4140447762171373
  0.9175243709772488  0.4917578411186272  0.5797921877248003
  0.9170817280222483  0.3273058989551348  0.7508101424090382
  0.9160442931777838  0.4095182682474818  0.4969854533451122
  0.8345492076013271  0.4100519231747112  0.5811237381306218
  0.8341133804106632  0.3285447548981033  0.4971731635441705
  0.8324561718526827  0.0856396781718085  0.7502194251202672
  0.4971932786827031  0.1686124183573236  0.0010615566039948
  0.0798517813810790  0.0857939612070329  0.5011659979506761
  0.6709017277948830  0.8398141863570301  0.6670339086710626
  0.9978450014071031  0.1676127818439946  0.1665821361383100
  0.7502359745046703  0.0860775058923789  0.6671310765739388
  0.9151641659820373  0.0855480734433918  0.5000769112306068
  0.4993791578021476  0.8404301493809565  0.9985314271790818
  0.7493704574122956  0.0028563950561127  0.9167892532379929
  0.6622589310650807  0.3274483554015468  0.8359739304538506
  0.8334597587115312  0.1666472696148077  0.3313340222002768
  0.5838096809295137  0.9205052129230347  0.6742898355712724
  0.8329822243732504  0.9218412629713677  0.5846153363264257
  0.5802926772813725  0.1660999872016460  0.4150427599469190
  0.8332890459137918  0.9230809509293313  0.7502927307928940
  0.9191120962830198  0.0852581250039064  0.0003457415344331
  0.8330777224119434  0.0842904108217203  0.9134873241369634
  0.9157626651595715  0.1681075343318279  0.0842254119971950
  0.8364925822708875  0.6667316983378522  0.3323869722709513
  0.9159877328790239  0.8360750030943902  0.0840308047408047
  0.8314534429895605  0.0853347492504146  0.0876724417990654
  0.8338854373200250  0.9203356851577281  0.2477045797134098
  0.9159886936769909  0.8364108531408344  0.2484841330109771
  0.9139197414369706  0.8374943819858630  0.4144534681377752
  0.8332945342763181  0.0038138052185146  0.3311857524703962
  0.9145517090063540  0.9224372464721849  0.6670368429825062
  0.7532469199734461  0.9223210556567536  0.5025053931354706
  0.9953874218721982  0.8402749667207983  0.6662914098715682
  0.8328788675718856  0.0039251689435777  0.5001663184805704
  0.8335696682319143  0.8399004791868501  0.6664953723983260
  0.9155649491391866  0.9204113848997288  0.8344882630055767
  0.6615691775175230  0.8418520299395722  0.8361296984803956
  0.8346014215188128  0.8379871807088098  0.0010360302371697
  0.9968634837815815  0.8384416757426236  0.8363096429857749
  0.8336636413710241  0.9198961066278005  0.0835964763663017
  0.9163170787892158  0.6668553345455177  0.0848095101318308
  0.9158586744253507  0.6660413897584146  0.7564294715842012
  0.9984362447377141  0.5811750593048886  0.9210975302896459
  0.9162249292933130  0.7523188532515978  0.0023926529304317
  0.3260592153808297  0.4916233949918619  0.8332511186326621
  0.9165070558685843  0.7516515802829917  0.1662536701042675
  0.2451192204672538  0.3312877707816006  0.9120657158137695
  0.8368081975142960  0.7537395947507011  0.4150753671702800
  0.3278399489558344  0.4126561540181665  0.9166475357325141
  0.9165419258336271  0.6682431517083802  0.4128015087948899
  0.2427215744915968  0.5771294383849027  0.0031702683053676
  0.7565019043620315  0.6702559638373826  0.4138668774872252
  0.0761130321148998  0.5788928492639940  0.3298456500023820
  0.9190059100199253  0.5815822491825668  0.6690902333824226
  0.9959038488956318  0.9223927133920491  0.5838909220799579
  0.9169459720981602  0.5822020584089527  0.8390880123204942
  0.1628843404386068  0.2487829473283679  0.9157965833000818
  0.8349857310355946  0.5822596693073010  0.9204660185648263
  0.1604751537100217  0.4118528049390784  0.7500310140177847
  0.8356832752412885  0.7560386130503234  0.5815325901079430
  0.7506760294320945  0.2458297417211769  0.6651252483425802
  0.3276831579623753  0.0883535105068912  0.2482838270976482
  0.0778281783331373  0.8359924890826207  0.2485038401546329
  0.9972369646144802  0.5817536614317732  0.0846023740253966
  0.7545286823064336  0.8371358710009597  0.4153860384569286
  0.2412337739219922  0.6637820627344996  0.4209819180806599
  0.7554448381726737  0.7524987346165232  0.3333913997100341
  0.0749895600216409  0.7530118120625626  0.4976376243150217
  0.6697676213844725  0.7569151343358036  0.5800027675758138
  0.1634453997817179  0.8456979667510938  0.6674470304682637
  0.7548783633571583  0.7553715923453492  0.4977300677332324
  0.3280987306325945  0.4923191438697085  0.6669623045300591
  0.6665840844810875  0.7631946285592097  0.7525223774102753
  0.3251358221676253  0.6636763687146644  0.6722048660295963
  0.5821602037376080  0.7538129324388234  0.8357020753401418
  0.9964829182717220  0.6669835196127466  0.8390456400156836
  0.6680662882402136  0.5794854201760054  0.9197708671353484
  0.2458590424486533  0.4097381368820913  0.4984333558812051
  0.5000231797446957  0.6712205594066959  0.0002561843093855
  0.1605300302895664  0.4866507420394340  0.4988481324696770
  0.4185335630016605  0.6626439348781211  0.2514679953252787
  0.6705205753901914  0.6613835241342176  0.1684563105677127
  0.6629900045977164  0.4117940873518739  0.9184994504403279
  0.5796241121044614  0.4114234876826652  0.0002673618919613
  0.7516236427200411  0.4948926700958692  0.0788140526596239
  0.8362822304349455  0.4950729382634581  0.3320014025225116
  0.8338197487103718  0.4115722181111198  0.2492150152795330
  0.6674520149582071  0.4933721135861667  0.3391896167906271