 C Cr Ni 
 1.0000000000000000
    21.1200000000000010    0.0000000000000000    0.0000000000000000
     0.0000000000000000   21.1200000000000010    0.0000000000000000
     0.0000000000000000    0.0000000000000000   21.1200000000000010
 C   Cr  Ni 
  52 259 605
Direct
  0.4981065939754905  0.6653796454288589  0.9186737488288753
  0.7408305880574915  0.1680314098785815  0.4940912623748737
  0.8325464117535851  0.7499200467084401  0.0023432023242819
  0.4122432621137233  0.0875890720323850  0.7564249757020565
  0.5823826628916396  0.8291607749207888  0.6641871431361660
  0.7306200508304482  0.2593311318647807  0.5962851407193133
  0.6741598790849552  0.4013599827515484  0.6494352774345208
  0.2498408835621469  0.9118705155293532  0.4160570615874715
  0.9185597964467134  0.0888836000128959  0.0846011716012437
  0.8295185268423443  0.1686428053009541  0.5870663788336878
  0.8378215288648666  0.9208924864411662  0.5030802574099896
  0.1593970534772492  0.8251469353187253  0.5910815923239141
  0.9151903499052300  0.4988375563753182  0.0015160840199647
  0.7450936430415084  0.8252742490402412  0.5046572148517268
  0.5834804764462521  0.9179457844729730  0.7559423596365822
  0.2526231059345796  0.0074994578101060  0.5070856357684252
  0.7468867108670734  0.9217479900216551  0.4074643680445142
  0.9178016782112324  0.2583021383622881  0.5813339339895671
  0.9262754929453789  0.8263774597986413  0.5035532951998328
  0.5739554498797060  0.3145194786119083  0.6556985723188241
  0.2484230954612457  0.9185944260414894  0.7492294031917516
  0.2491970975303784  0.0066928337375764  0.3224133708689161
  0.5807283669380140  0.0860740672684282  0.2483766370314909
  0.6408427854358331  0.1620990329382382  0.6004096178999658
  0.2499052071003564  0.8274150106074907  0.8393509274887669
  0.7392771456162355  0.0735643880903790  0.5892937130538818
  0.8189084097493302  0.3541758444226215  0.5971156791423430
  0.1646697425659034  0.5811865195230799  0.1650452355734886
  0.5754983247475028  0.4064444974843042  0.7527841109300383
  0.6533026029361403  0.9210874954491834  0.5033247310383900
  0.8287244657320851  0.9978567349377262  0.0846094172565897
  0.7604952357364395  0.5014666294199723  0.6549365887580265
  0.1572864339097793  0.9096139979319107  0.3225019333935124
  0.3380603627841021  0.8325765858091531  0.5838639209896557
  0.1562028117329968  0.0083317299897004  0.4136853809245560
  0.9217482722476366  0.0759363588314804  0.5795032337962241
  0.4105276534659061  0.9978575675110918  0.6636859515662437
  0.0852351384176618  0.1679812658064727  0.6696871172352824
  0.9195444549157782  0.3413655404825170  0.6761762042181736
  0.7651589592569393  0.4018060370243667  0.7511353206397496
  0.6664345943351753  0.4966133425195451  0.7545394455919378
  0.8368200581762510  0.8270666058135426  0.4071092800871279
  0.8354673030825638  0.0778499752983187  0.6821200061578306
  0.5737793955651020  0.5892553796507314  0.7535693005001025
  0.7564920127548405  0.5894337882006039  0.7536773351401760
  0.0810975091469028  0.2531176501045660  0.4155693463457621
  0.6545816507317578  0.8273853884444485  0.4084303167429272
  0.5740772680579397  0.4991165469636526  0.6561491573709647
  0.1557606299212025  0.9158590010883718  0.5049698776382515
  0.4984089248415375  0.1693052432508869  0.0829050341059842
  0.3400447228237054  0.9106131764657512  0.3243209494353324
  0.5953484957337279  0.0165711855729483  0.6546957222119569
  0.8289388043689365  0.0876963283069172  0.0819627076372938
  0.8369045702567469  0.1692034838008302  0.6788715693067933
  0.8322631954055142  0.8331713204359299  0.1674954630130710
  0.8314562430152306  0.0801342378900799  0.5908547481513439
  0.1639438249384779  0.7477940367646938  0.2470748996083093
  0.1646407404382012  0.6711536001835774  0.1646681447013477
  0.5790386771904158  0.7394556112378279  0.6632864939061032
  0.9244472653471748  0.0817646759880659  0.6742523914709959
  0.9997207062416491  0.9134695332621978  0.7575696104257174
  0.7443695521450981  0.0783661623888821  0.4980025568617613
  0.8357237421433806  0.8291319566422981  0.4989924526752100
  0.9970854861679026  0.8318796511177111  0.1651592587995593
  0.7465024535659075  0.9172375056892799  0.4987336316359768
  0.6659005663544183  0.9991479349159469  0.0004265110905863
  0.2486708160104445  0.8270097210776292  0.5831350410340007
  0.0074510357071247  0.0851796076900476  0.0819433488304769
  0.0807422122623476  0.0868966862175328  0.1657092502252430
  0.2466187025661676  0.8213063309060840  0.4175052665713986
  0.2497049969683555  0.9146205040105851  0.3259688617692135
  0.3334675064819195  0.8276100037911620  0.4933343649346745
  0.5801838628200772  0.9204861645296279  0.6658507477037459
  0.6760660586225754  0.9128187824656846  0.7574330809397976
  0.1644525016110696  0.8207766781607340  0.3304148005662226
  0.4975832249105799  0.9989937442697913  0.0011773012327394
  0.4148555150825210  0.5825630863002395  0.3278604538011675
  0.3323920938684589  0.9184882654206276  0.9199992856299114
  0.8327423202404333  0.9978454092328328  0.9933180507710909
  0.0833753986289645  0.3332637548808814  0.0845437830387934
  0.6663446705503869  0.1685512117734131  0.9996032630187298
  0.2498763561733621  0.5811544387140533  0.6680867933973751
  0.1680150408448646  0.4190134042973754  0.7516522638305443
  0.0014896663506203  0.3343369007217678  0.0020675500969421
  0.0832683261077761  0.2561229567514035  0.5054250508540690
  0.8349704275590429  0.3343892435373635  0.8366152529110288
  0.0001514043300790  0.0816606765738103  0.7591752526795266
  0.4277331053975486  0.9148889142360696  0.3264591456764331
  0.0840449859567435  0.4999105463955576  0.9185655973205626
  0.9188765998803600  0.1683395062550620  0.5848760709113326
  0.0017454223146899  0.0837086904716895  0.9203639316587106
  0.7392171249897448  0.9996491023121188  0.0834331775499888
  0.5792016145710788  0.2488980124863430  0.8394958487809471
  0.4153920515548116  0.0000664637369113  0.0795676844450946
  0.8244860567151938  0.2588929014192702  0.5872003471557132
  0.0823386837825717  0.5793225817145151  0.4967165309108022
  0.9176205056457286  0.2493916546420450  0.6742363065159950
  0.2490182387547405  0.9195698380345213  0.8405207587091319
  0.3296859076269314  0.3364097565359470  0.4982476607855479
  0.1596043505541253  0.9150292205995431  0.4141352559838039
  0.5751772878199656  0.1028561443896615  0.6679375565373362
  0.5804387830949442  0.9964229085077160  0.2466334656641710
  0.2491384884158091  0.3374378237538359  0.5815055860517430
  0.7493941292859673  0.9116945081308304  0.8385670890597386
  0.6612565052745359  0.8299723688042424  0.3202684462155362
  0.4102854091396655  0.0888513334106673  0.6651458028884308
  0.9222996777072070  0.5046114028144162  0.5814977674597904
  0.7485076666099820  0.2474015850231544  0.8433280609113133
  0.3290298997667252  0.1708235650655409  0.8383520018912830
  0.2479147680843091  0.4170728492427311  0.8354050725307480
  0.4159570362126036  0.9161914504416663  0.1620812797621981
  0.9268247004894302  0.9168524335285114  0.4998634236767861
  0.3287839249602934  0.3351738538444249  0.1655349648625640
  0.3343770764325861  0.8283525716837578  0.6740600122802523
  0.8369355465646534  0.9127362850665036  0.5933230678451688
  0.5806949315082767  0.6775829605706727  0.7509237124096723
  0.6496508519214816  0.1639355436627709  0.4973029384400986
  0.3309960348676426  0.1694791923527135  0.4975674472644716
  0.0812249984497413  0.4175193759203051  0.3300298399786523
  0.4255818226314648  0.8274111732709561  0.5820571332901865
  0.1670499131710335  0.2516911500899916  0.9192218522206262
  0.2477942364389650  0.8324857716212113  0.9279001973192379
  0.4115749180500024  0.3318375182487473  0.7516655561102330
  0.0819890047642414  0.0850853233942365  0.0002903055725963
  0.9172214723136171  0.5023268050420275  0.4129210112794913
  0.2478625606021349  0.1709829101921602  0.2472944566730148
  0.4982474703511190  0.4982316279560891  0.1663854191539128
  0.6635593527600891  0.4996621466831528  0.3315045173243156
  0.4973120810720645  0.2598159023657595  0.0824029705037767
  0.5852424630713430  0.9995208040042948  0.0835597429249840
  0.6600014761260122  0.4201933945312133  0.4109046738564714
  0.4139908153832605  0.6649942876332865  0.0838836812695422
  0.1596520041343976  0.8305792102402960  0.8375878415347798
  0.5761087446708290  0.5024184710057201  0.4113563023387424
  0.8331804292335517  0.0816821475453342  0.9197586844553864
  0.0137993997909803  0.8258666600480943  0.5007931410846964
  0.4961532293245960  0.4153598685697878  0.9202190531253628
  0.1577255302126446  0.8252580756944634  0.4996586444063997
  0.2480710787441961  0.7456204384108980  0.4973482576127734
  0.4983143913129813  0.7467948273041333  0.2433439839068760
  0.6647073876329302  0.4986537934153064  0.1667747605286508
  0.9180515718861595  0.6627913347495568  0.4121397864921600
  0.1660012887331997  0.6637611286109384  0.8375794032608911
  0.3283551033756564  0.5029052933830576  0.4969301144796713
  0.5753755184172417  0.1697169485323803  0.4134076934237416
  0.3318057338798861  0.5812924595158405  0.2481516322313223
  0.8312723097471605  0.3289992862107288  0.6855279803213808
  0.0807233521051113  0.0785436652791877  0.6753358608192512
  0.5802073943824292  0.4992426100750858  0.2471237955579705
  0.9980189138825033  0.5821688160662202  0.2486831625466969
  0.6647145866237362  0.4131770586813546  0.9201957238495664
  0.6653485935798910  0.3342004283208170  0.0005710725533239
  0.4121607010061549  0.4164012633237746  0.8356115279567135
  0.2477261058444496  0.4989368075490906  0.9183351761458912
  0.5797389091002867  0.3342358018952051  0.2474267243021068
  0.2493524307370361  0.4974741426108518  0.0830146914847776
  0.4147631579906600  0.6617957301078868  0.4113960693397044
  0.7492138483260612  0.4981753846141623  0.9176687090618784
  0.4084812426313794  0.3362938658002841  0.5793054179242983
  0.6638993001379974  0.7492093523760466  0.9215798917096795
  0.7469465642516613  0.6633133328094669  0.4107387833698886
  0.1735666387259359  0.1716189173852213  0.6692059495313345
  0.3309927560802014  0.9155608826586794  0.2343586669867420
  0.4155538026168983  0.9173146236734651  0.0039587915669519
  0.7463587711752235  0.2533777562121475  0.3325814778790903
  0.3320845864247050  0.8310224487186478  0.1631364117524990
  0.3309977583147216  0.7396626607011706  0.5833416557942717
  0.6575592450234327  0.9182181632806823  0.4109334284285395
  0.6634561520123509  0.0012690995284784  0.1662199342713388
  0.2451457293626141  0.0071211760660327  0.7559790619480709
  0.0810258690627247  0.7412112223896068  0.4975419852905464
  0.4157620113797105  0.9990228558486588  0.7550388570846173
  0.2491541143017101  0.8283961913400921  0.7494095738300600
  0.4119703655137014  0.6638897567046753  0.5815654761452639
  0.5013292979303081  0.0035797748247119  0.6649503922693907
  0.5803126133470430  0.5888152573835373  0.6614657571056816
  0.5876692226161847  0.6654008616040529  0.9204852969100435
  0.9143904879270647  0.4155748217468281  0.1666495075808600
  0.5801127920947360  0.1756565062379061  0.2485928896294917
  0.8298635255078056  0.5826395863504865  0.2479148832799493
  0.2468946107142287  0.9997958485927640  0.2340927272992592
  0.4119817295609556  0.4176804681909231  0.3298378418939987
  0.7623787931378330  0.4126789778371965  0.6619827780891988
  0.8291596832417216  0.2516192007520185  0.2499350203192313
  0.3310920107157714  0.1704628527605387  0.3289978500781787
  0.9968433139386220  0.2523908993375870  0.2510556580004203
  0.0016692911610629  0.2541199948736083  0.9193784924028944
  0.5775961216704619  0.4975530442846680  0.7473597404102338
  0.2478472263401874  0.4175886185863792  0.3302775267871389
  0.4084507560473534  0.6652934628802004  0.9197387553164006
  0.0056103516604936  0.4207552480126910  0.7545219972036170
  0.4116481777872678  0.2516634494892393  0.8373754785758676
  0.7456934022281339  0.6691709881863838  0.9180292742978662
  0.2462729966114230  0.0016154703453894  0.0834709239487433
  0.4977977406041503  0.7548943028378768  0.9206153874113022
  0.7467495780423041  0.1680730881375720  0.4051806116896727
  0.2473470088951974  0.9154198478325348  0.5052163815825867
  0.4949593524304615  0.5826497552537333  0.4117090721653095
  0.2482864997812454  0.0037695317477829  0.4144320316157174
  0.9250190522060191  0.8279257861131977  0.4104209779600907
  0.9180066515028081  0.6651062321329100  0.5857847960097232
  0.3390282031165475  0.9138181272790979  0.4153948141650287
  0.0000686985689200  0.5009134374072608  0.4996031071326404
  0.7521420425844342  0.8277953663108009  0.7548225311661568
  0.4955372904391536  0.5759411407144684  0.9209880396232266
  0.8370265785155648  0.9186535156032888  0.4115937467497857
  0.5819090968935657  0.8275917949716044  0.7541625424480800
  0.9184905151770513  0.7468841964091493  0.6702613955908524
  0.9979015193393513  0.5825298200796658  0.4139113865010158
  0.6636194329497107  0.8317242737663910  0.1664288538794870
  0.8358120825923747  0.6665807425759497  0.8369177974883840
  0.1663900872524185  0.5830642406619294  0.2541492161040209
  0.8440652221406337  0.5845328072206577  0.7524202812643778
  0.4953628858830354  0.7421302689880593  0.4109504371080389
  0.7466781195609742  0.8298382742413347  0.4116263699003330
  0.7456077061795560  0.6639549135921593  0.0885140301862661
  0.2459096629363941  0.9153860162537425  0.1612256216665821
  0.9179658101567530  0.6629184661628583  0.0854128864462505
  0.5824985872184036  0.8321186008730951  0.0841952932431956
  0.7460741246246840  0.5036229494512348  0.4102513000339726
  0.7422730408215653  0.2584538308192533  0.4969169409450879
  0.4918198960579149  0.9162032988177523  0.4110492371010392
  0.0015791237324781  0.6649496845746099  0.8369614999363639
  0.4856437538615841  0.5826219558340744  0.7502856970554214
  0.1634373678574164  0.9148692722987977  0.2347087883233104
  0.6568978137645975  0.8303202458268586  0.4985542135223049
  0.4909173927937169  0.3370743755943875  0.4943259205398413
  0.8309499598259326  0.9080850308641611  0.0859345694392772
  0.7480475638847776  0.5886732609639839  0.4928346645067568
  0.9974352512640836  0.8293863334207912  0.3272252867584007
  0.0671525465205448  0.0029840181892621  0.4157790204636676
  0.9164508365681658  0.0845261190983893  0.9929535669324553
  0.9185545161611928  0.9973628929436286  0.0824702428467851
  0.2495181604110705  0.0967140924598370  0.4979954652401625
  0.9917062080546361  0.2540021404854505  0.4153025232189796
  0.0797278651740091  0.2529977246674520  0.3248320890828182
  0.1707408303877591  0.2531564626559141  0.4147339288143383
  0.0024296252943455  0.2522999923237630  0.7560736971652534
  0.0850459808317592  0.2580288460965600  0.6692406611186386
  0.0810214795041085  0.3370961265990694  0.2490546135037539
  0.0795502753949761  0.1698270889415862  0.2489133681461778
  0.0826015722291082  0.1707926083418785  0.5783325156657235
  0.2464705309643160  0.3377220021160970  0.7525875108004435
  0.4967277143018803  0.6646323424420711  0.1630106854091437
  0.5773307277744639  0.5840230890702006  0.4924208624873743
  0.0003667462582549  0.8320343215532983  0.0021000112252832
  0.6652477235465015  0.3335133317797059  0.1669012342683732
  0.1600200701038747  0.9161001731022385  0.5935419239645937
  0.5735058157702971  0.8302325818245982  0.5755934633508456
  0.9189988419763413  0.5000321294179265  0.9130321628703995
  0.9981846225150147  0.4156593292047309  0.2487044707602649
  0.6655613003218892  0.5863749319622982  0.7497730402556203
  0.3316952654076609  0.6665155022499110  0.1638814624025956
  0.2491210805550061  0.5821852688849976  0.4976841970924271
  0.7491457149322941  0.7475239226397383  0.8404764130043892
  0.9993609619389110  0.5840461860240646  0.0823483543160229
  0.6660248715687810  0.6640460764212911  0.1637608759780330
  0.4971901919577750  0.6654193191382858  0.0096778384534600
  0.0849859511567752  0.5826090640988545  0.6698659116256581
  0.2478332801758028  0.6653320528473997  0.4131433287101870
  0.2488831381851111  0.6645569985926412  0.9198653060193893
  0.0819239978766524  0.7453941505839891  0.6723850528243281
  0.7331487915357213  0.3442459285317402  0.5756312744967994
  0.0819144723356665  0.5002971056435395  0.4141990746673748
  0.3378118828607856  0.0031574236045004  0.3262570587585862
  0.9112143502187554  0.3455345385063830  0.5866854898147316
  0.6651623681396213  0.4967395012925356  0.8470519830910161
  0.1602335689772338  0.0056505340390489  0.5031379387036838
  0.5850755078333004  0.0847233335453962  0.1584267427609889
  0.4151102148420470  0.4978892333139323  0.0856977537710077
  0.4962961274431165  0.3354914668052671  0.9986855513795916
  0.6509524118959008  0.0741742601195554  0.5889548953224837
  0.5810033452680963  0.0820402803678783  0.8397604094578682
  0.5817836738877903  0.9164114852690031  0.8443026661322456
  0.7457672158339297  0.4979844450388209  0.0854503529212198
  0.4845117222002836  0.4135468967312983  0.7510845540727831
  0.1646575823392751  0.0001070018173617  0.8396410327492342
  0.5820264475318881  0.0079045682286734  0.7514099918534035
  0.4079950794967089  0.1692831447572704  0.0811950961954247
  0.3270737656094807  0.1693524621171032  0.6659025877792856
  0.0666132843160402  0.9203466901920283  0.4976283718952030
  0.4967807513853624  0.1668750306051227  0.9943408606887230
  0.9166041706114060  0.5886825423721610  0.0018240368351658
  0.9152202891628736  0.5002817494338618  0.0906467283397844
  0.5785207034400038  0.3183526876318843  0.7499790915861116
  0.5820965862256199  0.4082440096569389  0.6606871763617022
  0.3291025478597794  0.3357496231173432  0.0008079913690771
  0.3287729494983447  0.5019650210646763  0.6671635555484964
  0.7495614818501870  0.5888356358359241  0.6627901375021301
  0.4109444236551515  0.2527473443913895  0.3299346295409832
  0.0817722288872009  0.4203811901920058  0.4982584118551235
  0.4907157653350456  0.0868734746036444  0.2457105440914566
  0.1656649236410482  0.1700023816272955  0.8387128105587168
  0.9209362363227507  0.0825084745041412  0.8431782251470641
  0.2458396533458249  0.0003432816691207  0.9190640437834757
  0.7505588620312780  0.1716933662490353  0.2505891311818478
  0.6690635304567093  0.4071739000152934  0.7462761845543511
  0.8301165742148364  0.2522396786365846  0.0832054544527321
  0.4968307655042361  0.3336786851027982  0.1671268453027141
  0.1665544194558781  0.2522433062532924  0.0838660590635939
  0.1638473345728368  0.9164644340862964  0.0846992900058800
  0.4923996428713541  0.0869432417887769  0.4120476959063463
  0.8308017653074433  0.4174771523612856  0.2487235204348527
  0.8481870949450105  0.5082364923588092  0.6690094195554686
  0.7552183799613317  0.4976256227535349  0.7498845242349722
  0.1593799075534124  0.0011320681939360  0.3240197363688812
  0.6677617220082886  0.4967665304346884  0.6603883726900986
  0.7373841320535147  0.1675275035838779  0.5850271254964955
  0.4900793900960941  0.8288553736921059  0.6689387221393993
  0.9155855100698672  0.4097530856928580  0.0024092283989042
  0.2466722103036014  0.1702443473199041  0.0820962686057704
  0.6641255481923477  0.2504092918084345  0.9201753357683133
  0.4973471553775921  0.6644776700103777  0.3270222939282040
  0.7483260974899758  0.4158446403984600  0.0018165787242706
  0.4978914889025238  0.8321015525357411  0.8368260201919024
  0.5793187130763174  0.5825859228994719  0.3281033186135213
  0.5816108168183087  0.8321755349518133  0.9206732145375838
  0.6638757896924947  0.5858243640352627  0.5793115516394424
  0.7479218580492438  0.3343053315130899  0.2492293933830662
  0.4171114911824193  0.9139879956709808  0.4966018101045321
  0.7480025078804602  0.3337950687644438  0.0838907176401715
  0.6670560784158728  0.0867610182017670  0.0813171408361659
  0.0816729780643027  0.4996585161496948  0.0842406644660844
  0.7488724863952261  0.0838364957763836  0.0000826704108397
  0.9147698596000016  0.0011570876561651  0.2478626409393891
  0.4121489846362759  0.5010309253145946  0.4117888380807465
  0.6597894134379823  0.0861143191999848  0.4114094103765641
  0.5816106801367771  0.7487655011688654  0.0039388210396100
  0.8303609503599744  0.4997224779886137  0.1666245412156429
  0.7464880683146737  0.0013991627425087  0.2477686161852280
  0.6466086315194466  0.2495362838588166  0.5750650165015629
  0.6605858835592148  0.0008429498439984  0.3297779762832974
  0.4948953044811866  0.9163488215357631  0.7529256861041506
  0.4955477516422079  0.6637464645693625  0.4964275149633467
  0.4925708916290615  0.4177353608438126  0.5795099041618410
  0.8354416184351106  0.2464200433804838  0.7620227759350264
  0.5820339621223953  0.9161205173640290  0.0013011588717445
  0.8325936005478208  0.8302865279828363  0.3217587307339733
  0.6652637243741584  0.6650620424412178  0.0040377231207885
  0.7486635484102047  0.3329195434931946  0.9193642657072689
  0.5737718444220026  0.0002485244560519  0.4112170659694581
  0.5721970025121257  0.9953239193692114  0.5719662020930333
  0.7528983575024776  0.9105044445441102  0.6737695587536037
  0.4965321168616175  0.8276649751924969  0.3266073913682498
  0.6576849982430687  0.3364548854024934  0.4894566247235331
  0.9160476822587732  0.7456203892441263  0.3286971975005832
  0.6642085676885527  0.7489441794597599  0.0852708706085823
  0.4902145832019589  0.1695764405144559  0.4911140248006243
  0.9149378262943871  0.3329972816291817  0.0851350350550629
  0.6761287175540762  0.9944108710473292  0.6768628419799185
  0.4944060989110279  0.7482886357519370  0.7525359826098306
  0.7484578244813413  0.2513464740111256  0.0009132563731034
  0.6656901399305604  0.2521168145760730  0.0827397319384368
  0.5825280275481414  0.0836182987185566  0.0020014764087951
  0.7476169018928495  0.0868090718375846  0.1661118376292425
  0.6639308635389223  0.7475028243084711  0.5802719094888787
  0.9252658888927711  0.5043517034723602  0.7558125917455453
  0.8284626447682684  0.2545002439325065  0.4150781846051781
  0.9161020763315476  0.9156607166333320  0.1659037891219997
  0.8331442138276148  0.0019624001063492  0.3298893150644940
  0.8298430177868306  0.0863581640478434  0.2496609708869558
  0.8331336189765207  0.5070936969952492  0.4918660593769279
  0.7519127984732897  0.9882723370339948  0.5885112578160699
  0.8481718245257603  0.4240376263670197  0.7543137404491442
  0.9238698458436162  0.4276329686939367  0.6704043579049382
  0.7481234231572067  0.9974928996095149  0.9191700081637300
  0.4934150514928776  0.9151400869975980  0.5833028121314051
  0.5810315450649390  0.7494392649327852  0.8382797244113809
  0.8333168932653541  0.9111740857195336  0.7579091304916378
  0.6619697769856656  0.1696732167597166  0.3310753911475768
  0.6640351282929011  0.6669619181146410  0.8352845369972773
  0.4119388803486380  0.6646095361479741  0.7520721094464501
  0.6648099453432049  0.1646533795717661  0.8414083707774793
  0.6697787095465575  0.1630340861846855  0.6838560292701258
  0.4126102822122038  0.5810145607739629  0.8375106063040538
  0.7485510457901009  0.2515591515120695  0.1664724123201267
  0.5719778792935547  0.2532301158621194  0.4911203800796953
  0.4914053013301404  0.2537249681633552  0.4113202007506045
  0.7496934628545707  0.0815799435919331  0.8420945991002624
  0.7480762312106546  0.0816740132274919  0.6785035307936248
  0.7471839673765995  0.0856620883476106  0.3292882387522023
  0.6641213662535296  0.2433794288098707  0.7611816990594532
  0.5792228383603760  0.7461150508351373  0.3267053771279507
  0.9160444835452167  0.4216049184038820  0.4964601598146338
  0.7468638055786853  0.4988884355920895  0.2484993342341462
  0.7490193154696321  0.1668387998707023  0.9209080710356830
  0.7473226987493659  0.4175178842293344  0.3308708454298864
  0.8331644822230052  0.2530158813490481  0.9190254675521334
  0.8309991875805852  0.4159591918988883  0.0850478897941336
  0.0040604752534159  0.4990511059394078  0.0020959127442406
  0.7462028709155877  0.3365339818047950  0.4130946852243834
  0.9137244554493473  0.3349653861590898  0.2495266644692903
  0.8308175959705791  0.4209133661145221  0.4141299806199917
  0.9211106916453076  0.4182049606796454  0.8385131920983642
  0.8348150947229611  0.5017233494373888  0.8375489278123202
  0.0044835143857341  0.5011525489824001  0.8375358608262993
  0.8320581537628409  0.5843741588545318  0.9191293833808643
  0.9195318614702428  0.5845413791523297  0.8381459063654173
  0.8314291455172272  0.5011966272449845  0.3301820495586192
  0.8291154800070561  0.6628569931166038  0.0026395140089220
  0.0018969180792579  0.4169266865509032  0.9198990077570544
  0.8358866766502330  0.1673266318357537  0.8428077852782604
  0.9174714771076979  0.3344695426541515  0.9180089938027903
  0.0019753275711570  0.1684050820334189  0.8388682868497912
  0.9980853218708341  0.1685641606885450  0.6726725839986416
  0.9165910756375495  0.5841520301679415  0.4982032496226634
  0.9998121006665033  0.9992150465900731  0.0005669735226037
  0.6618313898619209  0.6643901174046897  0.4958805434374596
  0.9980761724171793  0.0868984189722601  0.2482719002668698
  0.8306743748939382  0.5826456117220079  0.0845245591317406
  0.9962189878757999  0.0036944819090429  0.3282254451105846
  0.8325199285468057  0.5852199568836224  0.4113033014760591
  0.9960823020559353  0.0880511279857986  0.4140569537701871
  0.5668649968676035  0.9144838436090482  0.4951450562627573
  0.1656573833115219  0.3353156176971181  0.8364198506399896
  0.6656403163706333  0.9984782849206545  0.8388346836490117
  0.7471283414041208  0.9142519413947010  0.0017434912071740
  0.4984062134581810  0.8321994714492397  0.1634437627831505
  0.7463413249050930  0.8320838319497316  0.0863238116312475
  0.9151239247096827  0.6638676140681748  0.2471815745066072
  0.2457521966795631  0.0869294347074034  0.6694151514138537
  0.9194756386470595  0.9960152080872483  0.9189667179027677
  0.6572450559513670  0.0069538620919752  0.4933927909268833
  0.6634319215561748  0.4164448407436781  0.2485675350048064
  0.9985441672207206  0.7486967671881728  0.0839693371524610
  0.0812844906106141  0.6666730474034828  0.0835627615460064
  0.9975436205906619  0.7484214783080855  0.2467394719877716
  0.7471452640213030  0.6646954054052200  0.2460462400940509
  0.9198677439942544  0.8302300014015345  0.5911964479793587
  0.8319543184360214  0.6636856193530526  0.3285937522810463
  0.8345588753396481  0.6636038972451801  0.4976609720227052
  0.0008408554422183  0.8311747057401871  0.8368800805651189
  0.9202501637659080  0.6672831926197832  0.7531780868899619
  0.8345254258447046  0.9909642835065301  0.6776802156060777
  0.0017510962829726  0.7469728269710811  0.7541276992096617
  0.8334310326892609  0.8296152614470191  0.8371251085215826
  0.8333081129982067  0.9129983129235177  0.9188060449289009
  0.9180958472662362  0.9130340564051138  0.8376809654407997
  0.8357312526146286  0.7461092879135339  0.5840015560658863
  0.7472094837850530  0.8307074686226842  0.2457451670066980
  0.8315484261814833  0.7465094821363654  0.2457466363601890
  0.9168828840965263  0.9142500491795518  0.0016116200439704
  0.8306466867741698  0.1694475128900992  0.4956686155451216
  0.4977580835602727  0.4141970525502720  0.0844210200433850
  0.7481405590607663  0.5840366657247527  0.8409193164931925
  0.0818289791196109  0.3419303695889812  0.4149158148453850
  0.6641585622226926  0.8320636539494040  0.0021635720317740
  0.2483762710106963  0.4992468086561955  0.2492619010113623
  0.8365617578298959  0.8287568576780036  0.6715980869822908
  0.1669636999996814  0.3369171032595130  0.4991301022764225
  0.9188056247746503  0.9909030507040918  0.5921517746938511
  0.2491093178513453  0.4193491908561300  0.4981583294789493
  0.9192171887740904  0.7475941109932186  0.8365746706088699
  0.1664870807427345  0.3373792081381274  0.6672573047539088
  0.8363020038081420  0.7473755789987617  0.7541849024998064
  0.3302545948799467  0.5809096288794218  0.9198093656459873
  0.9181545182833497  0.6661566096966479  0.9182140819891366
  0.3307200003465118  0.4173835003486946  0.2478159190371924
  0.9168996793305334  0.8314336381239384  0.0845744529926930
  0.9985253039095200  0.1706749658952601  0.1666096794289559
  0.3306809818253282  0.4986776514281939  0.0014271089478107
  0.3301013654567237  0.4164124954122735  0.7514247844963144
  0.2485970252895517  0.5823833678718690  0.8369463439429481
  0.6637176873528051  0.6640295330797171  0.3283678100176668
  0.1667667576279414  0.5821796605267907  0.9197192087246787
  0.8363526503438328  0.6659775683564617  0.6679009353059639
  0.2488695786027625  0.6659414866608093  0.0840116054279713
  0.7453585523108328  0.4223604441495112  0.4900796027316038
  0.1662694180393042  0.6648837833481065  0.0004461678158504
  0.6653500257790630  0.3142650752763296  0.6682382034198630
  0.2483261990638245  0.7469814449631041  0.0015500870413169
  0.7477126170740720  0.7483513146821279  0.1661321338385716
  0.1642285116783295  0.6654793481008346  0.3305153758521993
  0.6622455442604415  0.7410677538517920  0.4116407179802913
  0.2481301628265675  0.6658939280425813  0.2469780261627357
  0.5797321391986339  0.6643745314402911  0.5784566174084341
  0.1613820383293939  0.7442403852987433  0.4148191679708811
  0.7524055039070058  0.7479695366373261  0.6672243559760931
  0.2486311090500625  0.4998460545474284  0.7521223652994252
  0.3307501621644165  0.5828219300941949  0.4124523186699172
  0.6620050166134778  0.5055667743321066  0.4904236138601440
  0.5771993490871650  0.7458488923668998  0.4961966346644977
  0.7473913843645298  0.7469283810278200  0.3275770223481920
  0.6619526961818509  0.5844872701117775  0.4105450829568261
  0.9178898329869846  0.0014631609146331  0.4135135523219375
  0.5779441413396157  0.2528078582747098  0.3311532521794207
  0.6622999437098045  0.3309526624606984  0.8378899861903809