B  Cr Ni
 1.0000000000000000
    21.1200000000000010    0.0000000000000000    0.0000000000000000
     0.0000000000000000   21.1200000000000010    0.0000000000000000
     0.0000000000000000    0.0000000000000000   21.1200000000000010
 B   Cr  Ni 
  52 259 605
Direct
  0.3359171532111380  0.7573504914745297  0.9744588510779784
  0.2435986813984187 -0.0038875916752790 -0.0041097166185324
  0.1761323441556502  0.8370618005150792  0.5843888930968067
  0.4915821005785779  0.0004750884919612  0.5917695103556218
  0.3301776714918452  0.8636650455279450  0.8727698167024311
  0.7417417120120186  0.6750070904190173  0.8268976619910384
  0.5713994742167537  0.8406645121725391  0.6780340419054618
  0.3942786552253915  0.8610566946180026  0.6868775244762318
  0.3320923498533784  0.0555711835669640  0.8314192127090045
  0.4752937677464795  0.6604646535955577  0.8996525428185096
  0.2188119528555502  0.8159383248197437  0.6499084299473360
  0.4928921910135295  0.6652905131343718  0.5967478835738841
  0.3235808749551135  0.9731894506218951  0.6025499963109722
  0.6605290249539929  0.7433037077017887  0.8254516865799154
  0.4847955779610592 -0.0052781645965956  0.7522949724713005
  0.5778413071645553  0.8463395033229083  0.8216027114660943
  0.4214964623677816  0.5093658426181200  0.6757542595942998
  0.5774761074576549  0.5994803947808951  0.7517693970282778
  0.5006987587095999  0.7069355534377839  0.7483106267006420
  0.6130338653532268  1.0198550709960996  0.8652490518803471
  0.2603599524835873 -0.0089445513192089  0.6517135879720440
  0.8371433337128955  0.0792405239029735  0.6735925221573446
  0.5363206287412104  0.9131695920929991  0.6419003453897251
  0.3272430785380367  0.9386228905407925  0.5262309171568191
  0.9182902956288052  0.9928018754473193  0.8145267868853501
  0.9015397053771971  0.7543769389283627  0.7542045975599395
  0.4104963199337322  0.0049947508346241  0.9703542301962736
  0.4782552976103259  0.9417566440123762  0.8302436121452703
  0.6888647075846491  0.9749920453453678  0.7313531748775456
  0.3148918070278703  0.7155305226862035  0.6152822611565618
  0.7459114591491112  0.9291753144005870  0.7631248496369638
  0.3286420504563061  0.7373451206315222  0.5270463760044712
  0.4276957402298553  0.8361837226908695  0.5188087044360390
  0.2850780133491430  0.7252961866931381  0.9197003588455592
  0.4148688946390538  0.1734668123121716  0.5136131438558649
  0.1688183430250090  0.8411859474852603  0.9082922763934844
  0.4048806527118688  0.8991673200183073  0.8605492102230442
  0.1532962516926732  0.0665979859577459  0.8478469830657276
  0.2493976476960716  0.9212083108092912  0.7607382382571268
  0.3788956934694838  0.6950750576492063  0.8179042458983938
  0.0717217693667612  0.7840350101766154  0.7575233262427350
  0.7441423422529890  0.6701469567702583  0.6727840264172666
  0.3941208944834683  0.5735334078344566  0.7248488443952863
  0.5930704329377036  0.0740945165128409  0.6007579672786617
  0.5742025415473679  0.0843135958671659  0.9078270458896199
  0.3710760669372399  0.7250401517947649  0.6754477179747842
  0.6524507704782477  0.1671186097477781  0.7528851051385504
  0.1091621473560345  1.0037446359634015  0.8194104902205250
  0.4156323905089183  0.6109034163225007  0.9341009153223625
  0.4132196255724643  0.2312923546149263  0.5781922010473609
  0.2332139635067074  0.8412418292901968  0.5120769856751411
  0.8447244433257174  0.8182283691081440  0.7495035241078160
  0.0776147742382922  0.4970570889935186  0.0874856009884328
  0.9955243569308989  0.5781643766290043  0.5810814453866714
  0.3323282795356799  0.5741247195365713  0.4122852927218366
  0.7509661517093937  0.6648175469670852  0.4144659951596268
  0.8402930508501415  0.6578805866605365  0.6617044477626186
  0.4160369940431129  0.7450279119505953  0.4805135838052235
  0.0757515459416167  0.7442016415311837  0.3291400586476664
  0.0719386198797404  0.6535164593817949  0.7531390001030860
  0.8369791121048327  0.7495187986410163  0.5743162810808564
  0.9952122304550588  0.5809302592902583  0.4141309118807722
  0.0747208189776760  0.8226862608193880  0.9272419757257282
  0.8351447518303396  0.0015672287634692  0.4930066437369454
  0.7023446923541818  0.0000504924463032  0.8293908362754298
  0.0755984509432752  0.9187932768474421  0.4884083713305843
  0.6641382522422722  0.9270657531125684  0.9254842802487504
  0.3495232022520057  0.0876091210080133  0.9300917541117224
  0.6505270433635221  0.6596394758804256  0.6623024353460087
  0.9138078084237096  0.4984790779533819  0.2487652639990598
  0.1583204667087629  0.0122233459825134  0.6575260101403071
  0.9152110985615363  0.4997879318608224  0.4139437777180117
  0.0760831278341827  0.0884310987048314  0.3287505250365683
  0.6666492938656053  0.0213910101100911  0.6512412320176745
  0.3294979052374841  0.0067295306773491  0.3306703637986989
  0.6670526909192491  0.7503439927063051  0.5748513437553879
  0.0798334233961407  0.9160200357029574  0.1688330440297085
  0.7479655369371142  0.8326758324899254  0.7502872086042766
  0.0896582053129688  0.0099386913700693  0.9209159141183479
  0.7472801021006605  0.5798037503080784  0.0049596906374187
  0.3987141006796445  0.6749803571079885  0.5723860296566008
  0.9157189200655309  0.6627593807489744  0.4138192786638251
  0.9155132615616604  0.5789875316968032  0.8398605812841619
  0.8341871640336428  0.1674171608299947  0.0042583291291105
  0.4411521494809104  0.9532996558769243  0.6649418803412103
  0.6676246991229260  0.2555857176185806  0.5787542825393034
  0.6693056793589509  0.4904468899632913  0.8373454139052124
  0.7484660953295216  0.5002103987489033  0.0843276630210915
  0.7481018509891612  0.4177267626569974  0.3310463170221962
  0.4975932855484048  0.4176990090205194  0.4125333493520831
  0.1591597335440412  0.0888047752935028  0.2507308245661011
  0.7506096046087216  0.3334231044203426  0.9204136834089847
  0.4056624676427459  0.9996826738405711  0.8742640321676795
  0.5024466658558338  0.5671562725513262  0.9189327493936564
  0.4140059485329657  0.9172566596152933  0.0262072726834605
  0.4127699198903690  0.0939449903704035  0.0211420933842575
  0.8314361796752265  0.1684491097075838  0.1650702386798920
  0.3443030274618847  0.9265583447167739  0.9426524439841266
  0.3889358838405614  0.7832494131657333  0.5918457490993232
  0.8367933541642271  0.2512524461134938  0.7500536845751887
  0.4977400711468846  0.6648342662379597  0.4945605629758125
  0.2444825905956015  0.3312830387146005  0.7522713239203271
  0.3280151311730292  0.7413612546734870  0.0904310838924919
  0.3812744967168078  0.8898914070888178  0.5928829978986841
  0.5859403084431620  0.9183289609166495  0.3291456470251802
  0.3267033622231421  0.9200191946871223  0.4059744820219017
  0.3200467281398647  0.9515613156142571  0.8240885050178504
  0.5024457764791430  0.0042912322648917  0.1725175833157855
  0.4147027820068356  0.8308872919963601  0.2545122975415191
  0.3283334646576287  0.9192674010252697  0.2551898305885471
  0.4129576319412422  0.5020381057270689  0.9204729085390958
  0.3318478045092750  0.9195841466706770  0.1048692934978468
  0.8367424528832214  0.0860642290804413  0.9234582706455761
  0.7512268916733225  0.5829172847579066  0.4972122540022986
  0.6623019444319724  0.7462827581623048  0.0849136577733382
  0.8334005887986822 -0.0002306591852754  0.3294184540393532
  0.1630655229415992  0.5794845223494530  0.2490614360410512
  0.8328113612836896  0.3355071186682901  0.4954600236294688
  0.0797449550791715  0.4185257670264244  0.3336959163650977
  0.0001765624591050  0.9145192256827309  0.0851079111464746
  0.0804314514524797  0.4183110842687819  0.4979051310342514
  0.0799262108178496  0.4180631417966260  0.1665149631540898
  0.0791072464938424  0.0867260380217958  0.1697264918985679
  0.9947798960109480  0.6632960069498840  0.1689742294510587
  0.5824421898736424  0.6656809421996839  0.2509583981792417
  0.8310100824563552  0.3350811126598948  0.1671310405413594
  0.8328152028279510  0.4155983414338386  0.7520071423437700
  0.2456206369079662  0.2563882275015214  0.3321125126861869
  0.1562981720997599  0.0900655288719832  0.4085527602807904
  0.9138318805932355  0.4150863997656865  0.0028893067548996
  0.1615762606065724  0.3367889145788618  0.4981909646671909
  0.2482100873758736  0.4153301601545694  0.3332731147081319
  0.9170051573096557  0.1744580242902432  0.7489403397909566
  0.2395094032527213  0.0937847948936739  0.6596384313526620
  0.3272143105964369  0.4153077398164968  0.9208483677371381
  0.0791341615957635  0.4975489306765286  0.4151072033062511
  0.9964257472884156  0.0882135139306739  0.4109459774722824
  0.0796737139156972  0.2554341474842695  0.6650255823161286
  0.1597736336479491  0.4940542573091937  0.0054792837623377
  0.3313819039834648  0.3342502737972460  0.1687575555725843
  0.9130390197919960  0.4161280933939949  0.6655920433046079
  0.9139269440976124  0.4169900970511043  0.1682205951501720
  0.2407675745661028  0.4960158056026782  0.7533118283188276
  0.1627839156576344  0.2557806218232191  0.2505971468666165
  0.9129497799099687  0.4187306405157290  0.3306269863375343
  0.5796169347929521  0.5793173060036212  0.0050624106060415
  0.0783983623759765  0.0904497808753528  0.6610574915038659
  0.9974637444474006  0.9145504219949745  0.2483532462462553
  0.6735587099273127  0.8215548810934545  0.6527707718507875
  0.9976649861901048  0.7471517774429550  0.5807351573308648
  0.1599865674154356  0.6598732480479418  0.0091828966589681
  0.9194393442126619  0.9160251080767133  0.0085264563573061
  0.0811043133786880  0.2509013347207129  0.0019700816431512
  0.9987441503179874  0.2515249791412455  0.9208418363754199
  0.0631334783822951  0.0907783890586775  0.8290435810142901
  0.1616296534139922  0.3327234311750176  0.8360037161760465
  0.1579192006696546  0.1680472614093606  0.8354215387965910
  0.9997104971181952  0.0859853339811404  0.0883661912752673
  0.9981182303549996  0.2532776061758504  0.0846025609326406
  0.1568656342931068  0.0819900037702878  0.7483495287249635
  0.2338714542717450  0.8794658661792308  0.8477103961757380
  0.9993998418548935  0.0835759899028690  0.9192508507555250
  0.0773429208027939  0.0901519599189190  0.4890277825479786
  0.7487667341982635  0.9195737132288870  0.6634178073182914
  0.0058707379638611  0.8277465965888348  0.8460869967332526
  0.8453983429059329  0.9197007433880061  0.7515805248359370
  0.9956744124645599  0.2564525842506102  0.4134619325465060
  0.9962643689037465  0.0859372629937381  0.2500022406631662
  0.0771655038193245  0.9153883453747295  0.3285593809272485
  0.9133381369329543  0.5813926039362791  0.0052406824608789
  0.3299004147669833  0.2562656167035369  0.0875687745903984
  0.0811431892066967  0.4147915448978291  0.0028785334913574
  0.0806222798973802  0.4161667707169248  0.6674278800288087
  0.9957405099714561  0.6619647116745278  0.0067810050066897
  0.5902195055292671  0.4899076259850103  0.5742928762475233
  0.0762301136412220  0.4950916953705627  0.7511539413456598
  0.9144145517948733  0.4879289110547660  0.7492345622452408
  0.1606474928835589  0.4974573382618499  0.4988963193968074
  0.9167992348858022  0.8316515205876779  0.4116276482197142
  0.0745582686179067  0.5790113647312413  0.8366472185145345
  0.2400788032700652  0.1721312826824502  0.5760169962096591
  0.4140171234632948  0.4983782648970206  0.2485891065186520
  0.5002647166778963  0.3346781436228939  0.1687988924468274
  0.2407083915114508  0.6584073892912342  0.4110964104470213
  0.7467513337435534  0.5716030624594749  0.8438761372666428
  0.4138478771837031  0.1771648797701797  0.0931861021262675
  0.3298388138296443  0.4131345792435387  0.0879302092708185
  0.5785780197613818  0.7471855837610711  0.0045451610706429
  0.2016839423394574  0.9123717224772533  0.6732904906393751
  0.6676570831496504  0.6643036555862885  0.4923241822174495
  0.1480802203379847  0.9250812629249764  0.7609784428381202
  0.2644931096759990  0.8240984182154446  0.9374968558194134
  0.3293019813459532  0.2512267041924895  0.9193670918562094
  0.3292751838000703  0.4151697714201773  0.5838307432744162
  0.9962576471885013  0.4977133433736183  0.1687953688123499
  0.9155763825457399  0.1746241012955801  0.5746345451263267
  0.2262198432809167  0.8227737565189137  0.7481713116075094
  0.1629664892373304  0.4956883730004624  0.1691609134632096
  0.9957381928175154  0.2552185676257263  0.2491596640273367
  0.7505209483656160  0.1679780625750797  0.0853818130819006
  0.7484392136202122  0.4995258545274650  0.2495088369535955
  0.2469869507018623  0.3327884907723878  0.0860129772214176
  0.9158234943441345  0.0894512261347110  0.4931383029712236
  0.9153564113395365  0.3356118168395895  0.5803873521698310
  0.3286250281964084  0.6611465050985366  0.0083238398085752
  0.1586816459187308  0.4966039920837497  0.6666104898935509
  0.2452218496857639  0.7456778549567817  0.3360314493624823
  0.1599168065283402  0.9140696599534397  0.0921460530507744
  0.3270721216954421  0.7481378324551228  0.4149617461575323
  0.2443394144066254  0.5783937045857798  0.1716506496810828
  0.2391781507812920  0.7382995564785807  0.4787000161645810
  0.9182816487056780  0.0010951800071944  0.9216338595973177
  0.7474371621342627  0.8311501526562041  0.0840940798676141
  0.5383552707488821  0.9111305402106924  0.7446333854904496
  0.6277757401542886  0.9209665431473325  0.6731148483651891
  0.3302311739859982  0.3364884660544356  0.3322911913442197
  0.1640275175340255  0.1706648234130667  0.0073013496010698
  0.8308770345523644  0.8324508795066011  0.1646603222565054
  0.3449978434939101  0.0474387224809453  0.6602456139034272
  0.4964738387400758  0.7610806528069817  0.5591120742479015
  0.6674515030852158  0.5824064688569155  0.4128472823101176
  0.7519978139351646  0.8316504858467471  0.4103987071704407
  0.5037645755986997  0.0882598378102853  0.4111753591894591
  0.5830522399210281  1.0021893084243765  0.0905701031655422
  0.3305884094569992  0.1729518889527779  0.3299104314003174
  0.7538504390395234  0.9063289978233413  0.8559201020224593
  0.6782651067686847  0.9163354983363737  0.5719765090891242
  0.5114319834602157  0.0321387889002855  0.8466467421155450
  0.8352260615657437  0.1714571099949120  0.4950308091621142
  0.4123253889281712  0.3367997739799299  0.5814760110427103
  0.4767813480227686  0.0779482721126523  0.9356437095393074
  0.7506052851029102  0.0857868001723885  0.3300619827477364
  0.7493685916430346  0.9187977858975884  0.0050013532711447
  0.4044042663242604  0.8293563311414615  0.9345956360847086
  0.2464652222943298  0.1722382157048133  0.0899463416372000
  0.7777433786488842  0.0158681690195021  0.7350719289602745
  0.3291111225659913  0.3389936726663248  0.5001783795169532
  0.3309722675374961  0.0884445169773413  0.2515383461215114
  0.5772353995819287  0.6647401787118782  0.0842163198643487
  0.4979626056364240  0.3346502401580938  0.0030037431894438
  0.1009692856167082  0.9149621589923744  0.8674898356365104
  0.8318999458868394  0.7473209582344706  0.2485167278560983
  0.3292660948802910  0.0053890316932640  0.1771497681242515
  0.5846839014637201  0.7453937480100502  0.3274104551895646
  0.6674100131232782  0.8308847487849187  0.1662801437173955
  0.3302563120846050  0.8368599590316272  0.4952564033376074
  0.4030700301138490  0.0061027659343849  0.5610959458519927
  0.8330643399254689  0.0020353317660315  0.1654564965805380
  0.4747230747121233  0.9292738237157190  0.9342824674698599
  0.4994738649907383  0.2547822592870341  0.4117663066833769
  0.4133527234146220  0.6632419420080158  0.2516700443267381
  0.4123829552259619  0.9262683622746770  0.4773824987209269
  0.5836836552356405  0.8464539979349592  0.5766306366054823
  0.5815266294052013  0.4158897763713450  0.8349430822671821
  0.4141851038350947  0.4982657775369451  0.4151407831853794
  0.5828763582928125  0.4983346897584614  0.2496469377859253
  0.4993219383510866  0.5799243577654771  0.4147921342623970
  0.4166124016588928  0.2535354838419047  0.1702547882810136
  0.5020984178510455  0.7459923530636947  0.0907313552966952
  0.4964667137010206  0.7566759491036111  0.9362829632375359
  0.7517787622187677  0.7484878840544453  0.3296666999267390
  0.5835297753489748  0.4892029228942744  0.7508271129179626
  0.5836424811431251  0.1706374013568206  0.0868053407633269
  0.2681261471621010  0.8935857024056422  0.5935837466987112
  0.4081365852774343  0.3357745552706432  0.7523061269001727
  0.4875518832678255  0.9097063212651713  0.5561321461828155
  0.5869415849861040  0.9156902095152738  0.4847231064127470
  0.9921266940056733  0.6569014334510003  0.8391267726490003
  0.5853859950091032  0.1711113089060353  0.2512726148585354
  0.7503224322982897  0.3339106422969233  0.0865515180441702
  0.7485297057036195  0.2522105718281308  0.3307983236712634
  0.6692044186584796  0.2530933803902425  0.4103087797789926
  0.3239136876646521  0.8501653840341138  0.7759039766582373
  0.6675000209841223  0.4145871753228648  0.5796984383788901
  0.4104565337452262  0.5892381473031321  0.8362084138677565
  0.1271547512249699  0.8285871575520799  0.6843005584731958
  0.6689708037551315  0.3344664133699630  0.8371694851703445
  0.9153968196649771  0.0864618045508635  0.3294005838174969
  0.6678779889731079  0.4183333807525265  0.4126456956109986
  0.3270877997128512  0.5774431305843538  0.5779123763391516
  0.6701815598810374  0.0853595410150350  0.4119088698011156
  0.6668053734966846  0.2521346950705225  0.2483929629583093
  0.1553038923172770  0.9167970814143513  0.4091505715064410
  0.3265789474158146  0.9320194628593361  0.6970182196535764
  0.6898901274678485  0.0765530943500512  0.7469584547163609
  0.4136286321054208  0.5790081068880780  0.1707739573989584
  0.8317879772972119  0.0852885635611839  0.0843585041101218
  0.1594115647588362  0.9147817838833205  0.2498271907087063
  0.6642670593509604  0.6650225884929143  0.1670580614440775
  0.2426458314700368  0.7433250625834597  0.0126041561481000
  0.7522064886053226  0.4133084604388032  0.6650268296698462
  0.1647208632888545  0.7419844605144161  0.9236637933649143
  0.1619477901954754  0.8296372193766056  0.1720238388718136
  0.6736001053388114  0.4886833833024752  0.6648343225926551
  0.2428573465763039  0.9171469580514506  0.3303879966436830
  0.5814824345901216  0.4990482172540801  0.0849484230130100
  0.7536495061517897  0.9177660316790306  0.3289988383595907
  0.2262692254513228  0.7553949037616212  0.8385141704506266
  0.5978456219685747  0.0072194448616876  0.7636419560288648
  0.1613157070917827  0.4159536907586718  0.9200510596009543
  0.5004159928733813  0.2559519317600362  0.9211808040095997
  0.5888715919978252  0.1753573140338522  0.5805843270488612
  0.5470432450853087  0.0110877905525781  0.6703018266091203
  0.6680608708634976  0.2584763329200082  0.9226583893126227
  0.6674352293726359  0.4986474979982293  0.4938211552309498
  0.9179481039644666  0.9161552782375774  0.6554697213714462
  0.5865055477503105  0.9776366755122915  0.5705567913763921
  0.4485978423325932  0.0631903725226167  0.6687665810009814
  0.5844890878323035  0.3348135455002651  0.5781785685004657
  0.3302592958714635  0.1746399619668995  0.8415246212059778
  0.5008355893452987  0.1753308082544115  0.8427871686719487
  0.1626733989185843  0.3364740982273586  0.3323788931764174
  0.9948623101794442  0.4960412925093244  0.8364424892822360
  0.9909029052700263  0.5752678016751887  0.7506603736824472
  0.0759313818843127  0.4958198830879437  0.9208334794168852
  0.0792157726463578  0.5795426329067472  0.1689461355832354
  0.3267315241579873  0.5797942040970896  0.9226760993133279
  0.1630297717807747  0.4983919456866365  0.3325310229464671
  0.9962896313597539  0.4988521100341918  0.3315007498687503
  0.9966791136914033  0.5808894249646231  0.2494845656011889
  0.9156970092834246  0.6646975805359363  0.5791417455560773
  0.0745648790156987  0.5767938289896474  0.6670793657398170
  0.9131051777389568  0.7474619616789366  0.1668989787135542
  0.9906531026945726  0.6589791226513674  0.6659440183596889
  0.9959287429877741  0.4980312116503224  0.4979217052120816
  0.0789426851807124  0.4972065475562799  0.5820866966932501
  0.0785181935605942  0.6619082395165883  0.0898032115236792
  0.5711792982185462  0.9984984785486842  0.9449031837728489
  0.3138414927631673  0.7299700786456473  0.7541435886459418
  0.9965385146615109  0.4148697997040806  0.9206102918891411
  0.4159627264113446  0.9172419425742220  0.1779194126096424
  0.9956553826499620  0.4148182697470167  0.0847743421548830
  0.9960939676427907  0.7411055042237645  0.9255858045636024
  0.1586047392114323  0.6573989006239437  0.8406023401776136
  0.5006151283407304  0.0905744233688172  0.0925714869447477
  0.9154234749790433  0.7455275714460435  0.0068030650561175
  0.3152797136632534  0.5800621771254117  0.7652339043488025
  0.0847174832983118  0.9166265419121374  0.0025089806823997
  0.4169335812264944  0.6634621519737061  0.7421128946906509
  0.0780263364920551  0.8292873858981162  0.2500509503002097
  0.3274263370167190  0.6415118753020161  0.6714854826643707
  0.0704334067539611  0.7364999461245409  0.6682665959262235
  0.4630627109643299  0.7281414140354147  0.6609628699697038
  0.9970684121552325  0.7451912308454675  0.0876760173523592
  0.3020774234877637  0.6614575749642708  0.8450365924308351
  0.4171507184070417  0.8314315624511259  0.1005580369809453
  0.5009157896079105  0.2535659964239904  0.2507858291748641
  0.5856434200827204  0.1697495297305312  0.4124480465291053
  0.5835007558937034  0.2527307197700573  0.1679897466732964
  0.4177931291884929  0.0086318344307209  0.4056289386579868
  0.5864848140750304  0.0036927803539786  0.4111215795515539
  0.5858696678685851  0.0871880253526906  0.3310093357973318
  0.5017891629766241  0.0044543461789858  0.4907681502696769
  0.5043840900805719  0.0927259806184633  0.7550516061581360
  0.5941817289015833  0.1083090080523946  0.6882627792349808
  0.6761786229609367  0.0935256749563459  0.5691808223363206
  0.4925967254549082  0.0029299134997110  0.0223087851988853
  0.6650570697135715  0.5001760713331890  0.1674345433529033
  0.5849377200648542  0.0876327006447973  0.1693893198118621
  0.9135548539025328  0.7498436359061049  0.6617735169241949
  0.5017287392093921  0.0883409342360917  0.2501472739911190
  0.7554106643510726  0.0949072918093781  0.8425455305842241
  0.4147849670877087  0.9192622591767354  0.3305419603927770
  0.4987437047698492  0.1725110867042937  0.0051393347603420
  0.5017741762265605  0.1718136500767564  0.1701479934554393
  0.9153681177858730  0.8309055323688279  0.0876302696159025
  0.9980617233609818  0.8315658141880038  0.1671516780035496
  0.9954632390269618  0.9165709984531448  0.4097942218578969
  0.0778396926561822  0.0013709631915166  0.2490695020448569
  0.9957740763472543  0.5784055589128143  0.9234491105722243
  0.0797861716187223  0.3324371117079929  0.9193952067094401
  0.0777432005968720  0.5788678086629904  0.0070404286712092
  0.9954867761915309  0.5805470213805860  0.0872901912588433
  0.2454272479509855  0.8305915916358751  0.2524544619462555
  0.2460673335347680  0.5786673339072567  0.3318595316248640
  0.2454620669799761  0.4975035346931816  0.5836949966781935
  0.1605101553291864  0.8306703060632041  0.3308865602894505
  0.2441808975710137  0.4144104060069430  0.8365450018633912
  0.1560094384106471  0.5748375460377509  0.7529382486620236
  0.0795286281381538  0.4979589616268564  0.2503214901279588
  0.1632472250645927  0.6625440049808714  0.1713065621882740
  0.0772625733705516  0.6616004619161063  0.4139733547035734
  0.5080705292350964  0.8330827724767172  0.4752358178564168
  0.9932534911944709  0.7400097354228400  0.7541881739442603
  0.6660554866819510  0.3354453161724783  0.3306938105764645
  0.1638319002708505  0.4140470911983945  0.0854529145132433
  0.0792205520836289  0.1732142807877429  0.5778528080286895
  0.0798935091795194  0.3371494622405584  0.4136607244314250
  0.9153785088713742  0.2537028313514848  0.8366380182949626
  0.9979153122338560  0.2554243047658281  0.5792062331476211
  0.9974414575331076  0.2537954306072204  0.7493053937259977
  0.0792767373243632  0.2563696559088311  0.4959425140297647
  0.9976220091528745  0.3335098365633395  0.0026050140845547
  0.9143072548930917  0.3342177073638172  0.7501242104042458
  0.9969182195959490  0.3356165609840395  0.1674679242120144
  0.0791571095915824  0.2503851805781271  0.8360471921317834
  0.0792864272501531  0.3359006967067995  0.2500269561495423
  0.0798081633343301  0.3343376736993659  0.0848318409004685
  0.9961275766596921  0.4175855340405917  0.4143434112247182
  0.9971030305226701  0.4162881964249436  0.2505387292820426
  0.1638237363141934  0.4167320337550547  0.4150430371125053
  0.9966489151522037  0.3365085498030419  0.3316521210382878
  0.9971694166806485  0.3369452632444933  0.4967577369473490
  0.9971630777766231  0.1738540876203587  0.4936779042392230
  0.0783413653476684  0.5803924842131485  0.3319658883710307
  0.1483457799160078  0.8277992631000078  0.4905157485066766
  0.4123381946440930  0.4153920183154414  0.0025392187702553
  0.5716100905136494  0.8425348461941929  0.9281595400500361
  0.3287464175942755  0.4953786992845681  0.0047821620149866
  0.3344192894478026  0.8345527071491858  0.0268089289606980
  0.7494879551918183  0.4972656192683889  0.5775498940250900
  0.3279432995951783  0.8314656806406908  0.3332690365995404
  0.2455464379966782  0.4171485491744076  0.6679994198743727
  0.0782356154529477  0.6591466326744072  0.9253515768286510
  0.1614909477162978  0.5782478878817999  0.0894069765187588
  0.2409736799644011  0.8339036603147986  0.4135197857409479
  0.1559063633222012  0.5742794865398431  0.9243826259075647
  0.2423697753975059  0.9276269429604690  0.4831830848574896
  0.2458959780228557  0.2535138668185009  0.1704214061742106
  0.5857639095432382  0.0023137912423909  0.2503695542103606
  0.1601805182646706  0.5784877127833730  0.4146468018983068
  0.0775706375732776  0.5792735500305584  0.4982864546318458
  0.1627113602534684  0.4164961494273101  0.5831368216420212
  0.0777728476747044  0.1742831236195776  0.4107242171433772
  0.7488981845733380  0.2514750487422176  0.1667415623246845
  0.8323477453690031  0.6640710039219058  0.3313621150638580
  0.1614881833564709  0.1723915746329275  0.1700407682846038
  0.9971202971571630  0.1704702818156035  0.1682671750462743
  0.0786863759999706  0.4137815859529852  0.8359914565295684
  0.0779087827617893  0.1722983207508669  0.2495326694595248
  0.9971477712254981  0.3329332419438762  0.8360243928954283
  0.8370846756389706  0.9915378115862651  0.6454038284907471
  0.0786812388029528  0.6633836099002605  0.2488025538741119
  0.0800386507722811  0.3332435442102928  0.7512010617751973
  0.9954329822496156  0.6633732923618765  0.3308767264530634
  0.9135831961903452  0.8317555701668573  0.2462821725462100
  0.9947957653453793  0.8302029302040674  0.3289418522617629
  0.9985628220375073  0.8297942507708538  0.0075484547476706
  0.9185199832795424  0.8318251270215590  0.5775496920942822
  0.9964708936090746  0.7460250992831852  0.4126610332317890
  0.0781727892038047  0.2552113910765336  0.3306320895202289
  0.0803182834554577  0.1665702135207735  0.9200801644440282
  0.0797369491950918  0.0888228387300038  0.0064419189523236
  0.9162325005900911  0.2538228711146996  0.6635281788746444
  0.9960834476897847  0.1720310880443451  0.3300056639652129
  0.7483820827935290  0.6654470001840005  0.2489085377738574
  0.1610163871110655  0.0017706547183291  0.1707674929249017
  0.1621167605762420  0.4139230501257711  0.7524128370105474
  0.9970724981460164  0.0006748980684447  0.1685718356593427
  0.0676692953986235  0.0032766072884381  0.7380303838684750
  0.0795958389763056  0.1710566063859681  0.0874611398131179
  0.9138007985675851  0.4965565346752678  0.5808713514472034
  0.0760528158197682  0.0032066407308681  0.4083625630931612
  0.9153549308532826  0.0857774938597143  0.1666116313614399
  0.9975324500073781  0.4132543139281555  0.7509585068541407
  0.1569667013765950  0.0065868354259253  0.0156363446203256
  0.9929791892651625  0.0891871154945417  0.7421717065935006
  0.9151788434297106  0.5757178247285578  0.6633226999404075
  0.9173543577940328  0.0853120809730947  0.8350606194723469
  0.0744527180306130  0.8309512819616749  0.4082637315965786
  0.4159702989677063  0.0041582710610527  0.2530868348761739
  0.6620812608133473  0.6609954989440793  0.0033949457343533
  0.5813683432607980  0.5815543389227136  0.1680680418810174
  0.3278805865873371  0.5050321566284639  0.6712141165090862
  0.4987359979683937  0.5804851061193548  0.2496699453752788
  0.3175627649953705  0.0903910877028137  0.5641665214008865
  0.4990848795821148  0.4983351026570220  0.1688512305036730
  0.4157739324553079  0.0870471999603990  0.4885746822893936
  0.4152671642845587  0.5782546576749319  0.3302748307377525
  0.3923357482212063  0.0160365655290878  0.7591814523821000
  0.5824127445773554  0.4984623138785573  0.4135907532732550
  0.4982190808954228  0.7470774742974804  0.2526864641601817
  0.5822403586722223  0.5812249371685235  0.3310414851920528
  0.1632835639392010  0.2532649413158578  0.0867738100442545
  0.9952190947559257  0.7468127841593148  0.2483849294546736
  0.4989910360041844  0.4993427966906780  0.3315534922343641
  0.4134377351701842  0.2527742956171379  0.8363716237275818
  0.4139364140780218  0.4976595347376920  0.5814050363258062
  0.4100167656038847  0.7863053974021150  0.7412034031783489
  0.4116121828093093  0.5734602524270284  0.0145317646522574
  0.2429584682107643  0.0037750771751077  0.2522664624029662
  0.6641582202832215  0.2596716470565021  0.7511303025796242
  0.2451821922146803  0.0930710196714937  0.8339776348436447
  0.4162871504184249  0.0909942324437436  0.1733737241286157
  0.1564288917211695  0.9255354025471249  0.5657138036256988
  0.5842105172134991  0.1745496261430136  0.9208218941653000
  0.1340676445272125  0.8226444152985917  0.8178336523489541