C  Cr Ni
 1.0000000000000000
    38.5950107061839773    0.0000000000000000    0.0000000000000000
     0.0000000000000000   38.5950107061839773    0.0000000000000000
     0.0000000000000000    0.0000000000000000   38.5950107061839773
 C   Cr  Ni 
  50 1596 3725
Direct
  0.3805169260890513  0.6695378512438951  0.4836813024498334
  0.3912268677156095  0.8349385598372397  0.9963280259920313
  0.2585657674700149  0.8282895120338400  0.5231543797445887
  0.2829186645618785  0.0015942491931784  0.9454624806385953
  0.2594931716587667  0.4491839362994554  0.4498168938616808
  0.5275228614481567  0.3527992976292186  0.0914220171653669
  0.0880847031244385  0.0999951481547336  0.5599452924908541
  0.6132978768134358  0.0459596043811108  0.5649394025532497
  0.2822627174838307  0.1071961047567881  0.4115197647040451
  0.4571587289083166  0.1922249748343148  0.5629895406858147
  0.0948094216099201  0.9509311918141057  0.5899236014737239
  0.0432210441365629  0.9717191188333982  0.9643779235637682
  0.7710328123504950  0.3297045166707274  0.4285499513060668
  0.7810426784537636  0.9971638826402182  0.6544820446880157
  0.8441882291633204  0.9038328942588678  0.5355232653304005
  0.5216218196700488  0.5411216201537922  0.0197877482871976
  0.0386873760916493  0.6604202313174869  0.7204971418386052
  0.5760227579325282  0.3550355293209225  0.5227899400279420
  0.0136546280065223  0.5173986852794634  0.9166475843225366
  0.0131140982396022  0.3698588571257244  0.9629450063093004
  0.9562358008349935  0.9491784381324927  0.5400766033026657
  0.0494081203805734  0.4601806721591170  0.9895977934533576
  0.0875432999168495  0.8800950924208827  0.4828442857554507
  0.1162555496521277  0.3927081768693432  0.5308017019940228
  0.8114467664726208  0.9466660309793256  0.6980225356727588
  0.1450487971965202  0.8652965678289977  0.5623940295922454
  0.0522973349768444  0.8849469736124518  0.5906971069920139
  0.9998440740647210  0.1402735233087687  0.9726645934100598
  0.3434682526001721  0.5510913797078827  0.0168462086620450
  0.8207363624348664  0.7739365004872878  0.9859786682972445
  0.9858284499064863  0.8009884159623711  0.1021735041269464
  0.1826651778634757  0.6290810504154607  0.5003003614773425
  0.7190055344030402  0.7727390515303751  0.0042828248804732
  0.5402794314495846  0.0455828520130050  0.5570288097342296
  0.5994261827604997  0.5357732365400090  0.4813832427926994
  0.2737870335005509  0.9285654189352255  0.4894307621644235
  0.0311360091062206  0.9020686381218784  0.5243073559996321
  0.9700001745897960  0.8582732753428899  0.7158977258634200
  0.4803705003823778  0.0714426847188150  0.5983948236413567
  0.2326824044738352  0.1324431328380719  0.9184818690871334
  0.9455563925361369  0.7920640640925738  0.5349001141192191
  0.0143050444545892  0.6083768306264719  0.7666043836194949
  0.9987537666742206  0.0789636310149969  0.9093203397470928
  0.8421583594281941  0.9622447786800946  0.5831408019230615
  0.4325520345437214  0.1746437966995620  0.9247259804482568
  0.9893377136357331  0.8101695850143347  0.6670932915963331
  0.5082889404878186  0.8332125423184144  0.0170552419055160
  0.1835024424182119  0.9444620333772972  0.5121027232407211
  0.0259755556814008  0.3932538707342870  0.5030135256868964
  0.5129536750835103  0.2560442504432604  0.9973455199539213
  0.2334463355633046  0.8414434372184093  0.0178858371364260
  0.1391697103035489  0.7415101924113104  0.7754144954667394
  0.4366218699406902  0.8035080474041933  0.6418315803878456
  0.8567289037552489  0.3178445223340707  0.2018545028121169
  0.0868120701571964  0.6018418729380025  0.6918469476563920
  0.0291383277031912  0.6065651108290960  0.7154618126629384
  0.0491840507775160  0.5825359723017574  0.7887865951917882
  0.8837630080764431  0.5331736670775097  0.5884985183298101
  0.7691518630676836  0.6491013521981930  0.5590362082869049
  0.3198870348624049  0.7182963601035524  0.8402283746341400
  0.3982517646134026  0.7876915551082890  0.7433869339367438
  0.6665894850813519  0.9817971996474411  0.2388817869983529
  0.7947746992395697  0.6126875403268787  0.4824187832128211
  0.7264161014370634  0.6254183394332147  0.3973187767496496
  0.3375313322292687  0.7621512400697641  0.6182022489061065
  0.4206389455900895  0.7288210809180971  0.7614182959275912
  0.6029228528154725  0.8976502728114835  0.9587617487977813
  0.3816492775735714  0.9516891022660593  0.9793369279201483
  0.4701285408399509  0.7683665466906060  0.8269620803855712
  0.7233442954585103  0.0271104472618114  0.1864468041659497
  0.2723830665942548  0.8867670676425420  0.4543592819611973
  0.3378378480964187  0.7609404863245092  0.0014463332179680
  0.7317859992216756  0.7038833423953118  0.3178979636815963
  0.4974982460446488  0.8311881772371130  0.7670651003250678
  0.6804929172677341  0.0993290011568178  0.9770501384360203
  0.6213845502438438  0.0710163579844320  0.1951696476364553
  0.4659194842297205  0.7277390974927028  0.0508953584401683
  0.8837977778776220  0.6597708168240564  0.4356863921806659
  0.1781918298084859  0.6245547887690868  0.5511947838319676
  0.8850532122390107  0.6266897302500248  0.1076369477779703
  0.3808091658376072  0.7121228462385673  0.8624002003893252
  0.9345857145227906  0.5961598572847874  0.1344764258924466
  0.9961510440917120  0.6610006970813079  0.6911872897233866
  0.0715273435558008  0.7253857111047098  0.5902630327117878
  0.4538720091860562  0.6603247010378083  0.8412241398775168
  0.4304601663347307  0.8461700618057614  0.0303332612176986
  0.5501683735320717  0.0423887847296444  0.5079277443128435
  0.4685837542385575  0.8472245919391850  0.9845675964443144
  0.8414876910721408  0.7965766270392309  0.2142144908339499
  0.5855391500505654  0.9201015191485440  0.8340875824601733
  0.2372039361004989  0.8176157829580100  0.9071056699660079
  0.5685436109267815  0.8131599373236128  0.8510468674055174
  0.3024001883442295  0.8062393005561456  0.9850122036365672
  0.4369002356755238  0.8372169674503009  0.7462157949220168
  0.6839776887186072  0.7458543588373264  0.6186125450427198
  0.8269405502625071  0.5804752701596986  0.3868665665427519
  0.9778213237891784  0.1981807720749879  0.8920076634962278
  0.6637842962230538  0.9861501562013634  0.7328295846963587
  0.6662610380769256  0.9844009675039813  0.0057723255614923
  0.0702460976471879  0.9186967590399898  0.5578177599285790
  0.6974868299415227  0.7881048528472822  0.9605811983158188
  0.0489411749832117  0.1465068762991102  0.8679446550284367
  0.1895641647683189  0.6113512165178535  0.6117169511050173
  0.4332758747706517  0.8693269998318333  0.2084685359315330
  0.8067134352698738  0.3340023800554774  0.2340909338498657
  0.0079025678134565  0.9417158172186084  0.5451130478037003
  0.0752978380071815  0.2074262935134352  0.8072700569542378
  0.9125124664679968  0.3477195973336528  0.2117750108259233
  0.3432051843697546  0.6616949896658210  0.8584487199195869
  0.8341520006377185  0.6903048269849666  0.1832475515103976
  0.9979804273874089  0.3949887039609841  0.6998236656209850
  0.1068503659127195  0.8436431117855172  0.8006165017105037
  0.2977166527513227  0.9992955051578530  0.1632395075081613
  0.8340407775345734  0.7046600173346205  0.1232921694424477
  0.8610966385938333  0.8744241122357825  0.0495444273473144
  0.0228038475343119  0.8584763071942884  0.0548468031389588
  0.8475325165758678  0.2236128917683438  0.1152082513611304
  0.3513187802110176  0.5148796881425982  0.7968103233919677
  0.9984988635844699  0.1496693674545150  0.1326685592588236
  0.7649624977090719  0.7756437266531949  0.9806597735918409
  0.9605893830304334  0.2850967712725841  0.1366318031252322
  0.6539144796614024  0.9760840918081589  0.5584305477024130
  0.9185185936893068  0.2423976868121936  0.9736262168936811
  0.6757443540952471  0.0426719616537460  0.7067032024112636
  0.5081930235219921  0.7288502672792433  0.0131484211959027
  0.3830140001988976  0.6803134615505836  0.7570185183645037
  0.7700614433315831  0.5188912349621911  0.2723822126802477
  0.0413247376606675  0.6434659088745098  0.2118186665708506
  0.0997194725968569  0.7373866435520914  0.2069091810392425
  0.8761266617123440  0.5509264583955105  0.4121771406319905
  0.2336051583248707  0.6308799028818192  0.5113870146235583
  0.8679139786640206  0.4431220977790684  0.3853422212546977
  0.5867297798439332  0.9539413431515575  0.9399234891717035
  0.9754779813644895  0.4588089126614512  0.3631968304719083
  0.4264414359305324  0.1809887390442177  0.3813308547882490
  0.5240575961734409  0.4736183552581081  0.6968005689511165
  0.6578013958271244  0.8669095895838749  0.8124722636569941
  0.2024126238710970  0.6902758811423835  0.1982763837371549
  0.6871537793895203  0.0290550653053705  0.7708939383319797
  0.8653654944656064  0.2041557624907174  0.9112359929052332
  0.6185285112679095  0.0432007625131782  0.0865462294948895
  0.8894128102116742  0.1299317993904915  0.9902655880605019
  0.0202218178802308  0.9824688540907692  0.3400295079404531
  0.7770402656127828  0.1172834819290053  0.8417226462988030
  0.1090760891380961  0.8451790747795239  0.2380599183641728
  0.5754413647582507  0.9641592535593070  0.8766292327636497
  0.1534379483158530  0.7515307679698457  0.2812709437097727
  0.2082547448925883  0.3318135163678972  0.9497740197269096
  0.2492559098423422  0.2838657886877261  0.6307255577546014
  0.2219209213632153  0.2558946463893465  0.7936893314311741
  0.4811540400030893  0.8954564412482183  0.2964685767511794
  0.1125142391922008  0.2234026576983252  0.7054927972258827
  0.5372824436271912  0.9246373957292819  0.3058107609237888
  0.1605090845793583  0.2284878062816736  0.6658744974235169
  0.7460155194380766  0.7407779170131604  0.0342336988987335
  0.2062743212252948  0.1778871778329539  0.9107490976014587
  0.0611702830308154  0.1866999823137226  0.6393529188211655
  0.9424820099182786  0.1200165979064894  0.1212357607128765
  0.9509099669660147  0.1932470306406436  0.2774208597238463
  0.0056956617206454  0.0147965024212177  0.7071401346826452
  0.9460593288637938  0.5540261539958475  0.0350993423651829
  0.0520366479298544  0.0660828753491898  0.7138330948538090
  0.8605387512739298  0.9619880016722646  0.4631034371756312
  0.9121213722994425  0.9499899463417921  0.4263278533445547
  0.9551114536737160  0.8562639698844166  0.4672031535055033
  0.1300491481225278  0.9489263190108357  0.5099812671799743
  0.0804746786481551  0.9135833136849003  0.6256008783863536
  0.1845462048559287  0.2391700535959242  0.8943942601180236
  0.2711428951003854  0.2948295772685608  0.8605142717942863
  0.2331184358438689  0.2715728142459284  0.9582450367514395
  0.2310595160451864  0.6981158830726063  0.9791400409478053
  0.4633981734172578  0.8991669814886319  0.6853158518160845
  0.8662983041888912  0.6914547397795564  0.0283520872784850
  0.9750291428369254  0.4255407229772895  0.2594742231597376
  0.7857313158784562  0.7353842123854055  0.3272047816715543
  0.8630046673103561  0.3641558138069361  0.2426475511685408
  0.9608817821692709  0.3014668579292001  0.3020487216514648
  0.9573495061751904  0.2538668207224893  0.2595257353165701
  0.8970197975971217  0.8134205092551350  0.2869257292743284
  0.1146192218491145  0.7680645642753344  0.6479283509979278
  0.5533990799442818  0.9876807073206277  0.7526744000801324
  0.4933219132440657  0.9932099445477692  0.7305251228072053
  0.7742345293656389  0.5655327270529977  0.3173760428405841
  0.1560117252799912  0.1449883773043704  0.8470650938978246
  0.0304738293881487  0.0429524308049938  0.8839718318519250
  0.9787995466479220  0.0682712882347721  0.5274730044291213
  0.9853478621919279  0.8592962109718422  0.6669997176059786
  0.9802092287505895  0.9072366085479802  0.7116605572215963
  0.0101955134836416  0.7658411679341500  0.6699152513180898
  0.3187829694088649  0.3323807760696861  0.9295778154423001
  0.0222853060477738  0.5197087514848113  0.8651187366940986
  0.7726093248879728  0.5008613319610539  0.1078946538505502
  0.8687036300005763  0.4253116010968758  0.2234086720522091
  0.2147153254823638  0.9489218483964662  0.5515822491418388
  0.7848925398118297  0.7832320691743778  0.1434815363102918
  0.2815629582027032  0.5347264558237738  0.7131790685727459
  0.8990819820013458  0.8105691475788578  0.5167612244348181
  0.2487017362832309  0.6044820285273810  0.6335096120080647
  0.3011700838075261  0.3755124334508714  0.9731799011390436
  0.7574026231289583  0.9344617719842979  0.5506744632144841
  0.1968973234191402  0.5786148478907253  0.5102323946572801
  0.3281314025146981  0.8721392011523504  0.8719220758563961
  0.5421049682647874  0.8441506699056623  0.0600836654530629
  0.0613445248522066  0.6397948915104646  0.7629703346877527
  0.7902709494219282  0.7637521523163059  0.4365896489385625
  0.0643787003641363  0.6543627717175300  0.6787038684360018
  0.1017381301193776  0.6904498261260940  0.5086283960269024
  0.4937723783670283  0.8775168616021182  0.0397138805635681
  0.3939563434119243  0.9288374461482027  0.0493933522040775
  0.3399101693607409  0.5600392799351538  0.8399226630069235
  0.4388089309080916  0.8910549242687024  0.0790379266927776
  0.3784518096458510  0.5782311501174824  0.7391254240305456
  0.2947336941446992  0.9404240810081995  0.7902227657339471
  0.2419987419848144  0.5166330546174476  0.8132011394743154
  0.8043086897463200  0.8665162650311113  0.5278368876602052
  0.9795725667785791  0.5531260072389284  0.4477539090275562
  0.6373002668869808  0.2252181650443409  0.2691297864021286
  0.1620485682338363  0.2622752499176945  0.7712589690273343
  0.9235594140980543  0.4205625762885455  0.1278767937105999
  0.8365097211869542  0.5467625023153264  0.0550303998498042
  0.8217507915821093  0.4212222203482287  0.0876246432901628
  0.1627071989200070  0.2946861659605577  0.8779345930123938
  0.9115640324727118  0.8825314321048369  0.1948671477557112
  0.1282769161071708  0.3962385794634645  0.9082236571532716
  0.9926630972367253  0.2739705235256259  0.7720792513177366
  0.4217866167248142  0.4968942981199047  0.8792275754275233
  0.2264825950717901  0.8630753911706335  0.9508096477840672
  0.4501002669248764  0.5593026289690557  0.8226018426915505
  0.9320905056045442  0.0308006738050882  0.0306363255784128
  0.2920667066170308  0.9539682121261169  0.1193645040240034
  0.3087847681212930  0.9656836720487391  0.9685068014528611
  0.2659309697322359  0.4261783881061336  0.7247171900846505
  0.8678785420373157  0.9214414714397915  0.1021370143684020
  0.2438412923601663  0.9715786855136392  0.9305949343289596
  0.3230839140853928  0.6541130935590683  0.6293639723981712
  0.2063494594071456  0.4322770955226186  0.7042432810525414
  0.7792747725293199  0.1103531875778636  0.0076534972990458
  0.5210824957589809  0.7003539211770254  0.0776837579075787
  0.4412450892877311  0.5377629858571922  0.6569093972001631
  0.1070142775872065  0.3516192950386002  0.5009685923870881
  0.0650282475402052  0.7077824926372351  0.9802835978547826
  0.1613923826959332  0.7424278585252891  0.0013385597441955
  0.8572013197823157  0.8991603703462986  0.2354166516109349
  0.1058124809381825  0.0255156891362883  0.6237334241403688
  0.8659455469709018  0.9402858621464207  0.2769109595884258
  0.0143324353926597  0.6381727961657739  0.8105482470396164
  0.8909689809904224  0.5510831211011795  0.7523991748993643
  0.7492143341957404  0.0565760016948203  0.8996038947123323
  0.6206132055949518  0.6402966658126281  0.0681431179429905
  0.4629339524232390  0.6294558299380948  0.4154119379779859
  0.7599094076755887  0.2922504950742237  0.7523010816777077
  0.6874127102560148  0.3460129987342370  0.7741682175291026
  0.2245199499555724  0.9708918509618016  0.4887373980104529
  0.6388005236542748  0.3077201633567274  0.7061601198521864
  0.5908916871879722  0.2704508991746118  0.6399412517893206
  0.8740236500649015  0.0734678393500153  0.4867107576492467
  0.6294974639905481  0.3195540150829096  0.6451952515862787
  0.5798944967781733  0.2818485527017152  0.5781118805752858
  0.5675296098901204  0.5738906475816885  0.4702980626305517
  0.8646004431937425  0.6234675931217188  0.9305502452822030
  0.6116079142785638  0.4901412662394204  0.5026571226607067
  1.0005127308026474  0.4525313818353211  0.9764002307323584
  0.8591174531509448  0.5218995898017651  0.9115327295408595
  0.8565651829707397  0.1399935345602386  0.4832976743251659
  0.7492155332099785  0.3733095912016640  0.4376157197745579
  0.9424811337676539  0.7989570014968470  0.5857064980046088
  0.9580214278999865  0.7655477340714343  0.7135500692409849
  0.7426276154437372  0.4406131768032964  0.5594004682315815
  0.6251501405816838  0.3396883238897151  0.5161710868203857
  0.9914981778376036  0.7289504334572519  0.8990052952377944
  0.8219564489079623  0.2544231780133587  0.6676738651672534
  0.9536954328832344  0.6792310402301631  0.8950408248063733
  0.5144330160399067  0.6140207506400789  0.3811842968841507
  0.5092703734389316  0.5528173806737855  0.3971388884160743
  0.5546107972527671  0.5104141303933359  0.4841490430516673
  0.8471252575850472  0.6161331993642665  0.7059332573565581
  0.2849332288124007  0.9821009701067291  0.4946084315444534
  0.7612244773398821  0.5794528164130893  0.6467145791060621
  0.5933468248908750  0.3851373306452045  0.4279076144408047
  0.6388585879804703  0.2577645484320122  0.3752198927932466
  0.9311763841146588  0.7037559111826756  0.7718544795239811
  0.6866513206046325  0.1797272006361085  0.3580767420606573
  0.8762247266819457  0.6796469634512169  0.6477548693339140
  0.8391752089712061  0.6293253168242119  0.6460247661183275
  0.7705119549946472  0.0700244800007176  0.4408421874624459
  0.7830381805459854  0.0887942221832367  0.3075276591813965
  0.7347026122085900  0.1032116523019993  0.3405407981868410
  0.6114165540951739  0.4961831828513567  0.4472784763746526
  0.6860241969944155  0.3223028848833686  0.4876374159401782
  0.7419110267343765  0.2576193076519692  0.4128040647921702
  0.7990866636548785  0.1704690570955464  0.4570125737181697
  0.2996950735980849  0.5662213677017497  0.2673324635934177
  0.1000495424931345  0.3357808279392452  0.9593701266077308
  0.3471743971933699  0.4881659089701674  0.2504965313873249
  0.7868644096075158  0.3880603207102777  0.8002446405381672
  0.3531728197695520  0.5823208391932007  0.3379091257639807
  0.8517912375921687  0.1988410850339542  0.4657119514349103
  0.8588600930674890  0.3352335901941236  0.7770869356813167
  0.1421788280885457  0.5489821833663804  0.1608488487930236
  0.2473075351668406  0.5502619292528254  0.1960198134043444
  0.8576881121855050  0.3679840417409688  0.8814410322298371
  0.7608365928079045  0.2613055777509795  0.6447848822179928
  0.6854009722157759  0.2622356402499972  0.5053766482115584
  0.6730369031122979  0.1719798064431462  0.5707190475530216
  0.4471078196728679  0.4280512918826847  0.3029468965689433
  0.4915017258546043  0.3184233303348249  0.1865955594382300
  0.9985436885193925  0.4657350497925748  0.9142488271705844
  0.9455036005690741  0.4229584541590343  0.8455314655783732
  0.9677745735411836  0.5195821977434770  0.8938249256757995
  0.4840401580232418  0.2575153835565600  0.2060189144942255
  0.7340796361836229  0.1972649890918436  0.7016769915658305
  0.6024325175292208  0.2272989599574174  0.5937147855955378
  0.0174973103033159  0.4059163529005683  0.9269820095214304
  0.3066289578774005  0.6588986103878051  0.3570745911844032
  0.9689976329154325  0.4019886158571063  0.9691447288157201
  0.7765870655918079  0.4000337338970158  0.7400447342782699
  0.7910386370481781  0.1836367420560884  0.3955551110857806
  0.7290789541588115  0.3629724362917220  0.6725244029929058
  0.6451474758919875  0.4258574694768895  0.6377886522883198
  0.6641556588211268  0.4539433667037520  0.4792940405620705
  0.8028158204453053  0.1456044243823589  0.6772154843351420
  0.8273336958761828  0.1218334737787870  0.8028182440613785
  0.9189826878366854  0.0115571244186902  0.4104927823723173
  0.9237211112406316  0.6178300320026352  0.9524435148953520
  0.4355796688988186  0.9199034855499548  0.5000064033101099
  0.9010132578414836  0.5381617154599138  0.8118462194118873
  0.2690776121794741  0.8203039143923390  0.4748670256729456
  0.3112330067435140  0.7210960199471701  0.3417483947693003
  0.9232071830338922  0.4801670694690675  0.8297068992488300
  0.6735382274493454  0.2049566639723739  0.6803995601291807
  0.2645116019044241  0.7964564982934182  0.3618302738586028
  0.6338747199765062  0.1554169121853684  0.6739770066511438
  0.6254975104562601  0.1281021817061282  0.5613638358863793
  0.2091521253869773  0.7670067297693627  0.3518626423662024
  0.6149150749584460  0.0739771166496309  0.5175205673365315
  0.5742053238647071  0.0839078030856520  0.5563647816240557
  0.7165458632749256  0.4844351005504587  0.4855185951712707
  0.7335176736079873  0.3331282349877550  0.5663075259135696
  0.6949304455997279  0.4317424716592272  0.5984531373326466
  0.8138234317994912  0.4502106783064134  0.7443500563862908
  0.9919452219116451  0.3072924536824608  0.8808788790362632
  0.3712503052634145  0.2357670915552604  0.0590951252221933
  0.9087537251439739  0.3403411372014103  0.7370096994220369
  0.9405065220872915  0.3834688666011865  0.5056154710960586
  0.1948611014400835  0.4844699346181296  0.0837713480318049
  0.8832131446740732  0.9850004332449365  0.9634295832599611
  0.7937281214791145  0.1902944920808804  0.7226598774944258
  0.9860545353300555  0.1876981341508279  0.9507539589154430
  0.8147069441440092  0.0331296617483422  0.5321359759261242
  0.9139107876106086  0.4301036663981245  0.5608533027469138
  0.0029319028138348  0.1325051304631271  0.9193703071971295
  0.9492691973270877  0.1374573089467299  0.9559812088409491
  0.8576629314340203  0.0530505422729630  0.8826090412226656
  0.3658280667426691  0.1862612093622991  0.0157308397058785
  0.4165682109744890  0.1086750648590438  0.9961072430407244
  0.4631946094636648  0.0725660126706657  0.0244222585824070
  0.9944158612922492  0.7217945001855242  0.2316948913888331
  0.8351671679055985  0.9768623913606246  0.7364551418579754
  0.0161393554257662  0.8412335876218091  0.1131703473494183
  0.0027818340779364  0.2617155767634992  0.8321582091066897
  0.3606123758495843  0.2544535271508661  0.0043890350205092
  0.0244969739632316  0.1693666849081835  0.7434249975071797
  0.1735389736357530  0.6995978831029683  0.9589100309755355
  0.5345469081573064  0.2416485833318794  0.1721672614314237
  0.0358423922369603  0.4516911612940319  0.0394403547373232
  0.1199404175118174  0.9351386875684247  0.3302474896279382
  0.9641283087620679  0.4982925522270515  0.7305671439439390
  0.9146646584683428  0.4601851836374181  0.6643667894720625
  0.1126301898344205  0.8743485703973414  0.3462519921014152
  0.8769451941427857  0.4121159711843785  0.6596943952755352
  0.0076632625698528  0.3819442394740417  0.7584668118277051
  0.7671340835855880  0.4115802844082792  0.6794161997464271
  0.7692642475815441  0.3829558300166414  0.5636077973607969
  0.8563154540762573  0.3023883867008097  0.2629993474331973
  0.9420169878540582  0.7779385490795675  0.0817375963647237
  0.9326310216913999  0.5696019275569401  0.6525732714335907
  0.3058441151067623  0.6442024261752071  0.1897437349246070
  0.8887679902679073  0.4105117577114001  0.4999953238962234
  0.9831380100527134  0.5875877278566412  0.8079622377834313
  0.9464111985088989  0.6416436877649671  0.5683561822505404
  0.3957821137146588  0.4115494059081227  0.2361383154628414
  0.9737859172597116  0.5886994896781127  0.5536205593534046
  0.4432921578185692  0.3478903625237048  0.1576187934741564
  0.9965669550777431  0.7030263627340904  0.5188234245412018
  0.2016185343553328  0.6738867697856200  0.2592367816616291
  0.9374616023479059  0.1167003552048137  0.7836614834493649
  0.8644831657223325  0.1391584778314388  0.7001059446591150
  0.8835975033799297  0.0850162366135515  0.7184067514490323
  0.9198178569295689  0.3278685225102829  0.7959503923626384
  0.9810618682249906  0.2867473481018406  0.7120254384858158
  0.8705583238332349  0.2907487734155452  0.7317470836827581
  0.5551425306359040  0.9504679912043870  0.0953542406825856
  0.9211947119148143  0.2645344111495548  0.5845076189505323
  0.8598789390031290  0.3036540592818036  0.6718384646442044
  0.9913937268680234  0.2412814404868380  0.6670402243879010
  0.9245252312711162  0.4556984800323670  0.4571309075880604
  0.7286853921536292  0.1124685524123752  0.8810790305476737
  0.8137941991728193  0.1560275507480867  0.5156059865354908
  0.9847259014541840  0.0877771765293168  0.9685403602769772
  0.1354006214244247  0.3910795888859722  0.0925453778655294
  0.9472672148068225  0.3583316161084067  0.6351205964576330
  0.1493422088778189  0.6759686082592380  0.1260356677014190
  0.9902609963428712  0.3758009302302840  0.5363295808800779
  0.8431127694819784  0.3303083273780169  0.5496224600426012
  0.8578996816654607  0.2494264507223599  0.5115799508554663
  0.6339246547906695  0.1948403673024925  0.1633413976928882
  0.9728947733866542  0.4846105288038798  0.7901749393668774
  0.5390811622359296  0.3546396674008076  0.4246090605389478
  0.8743790233777484  0.4430886392490976  0.7647138529922488
  0.0288179186339641  0.3564095659902554  0.8770577474403140
  0.7182502593371209  0.1446595126957387  0.5364990145979965
  0.5179035435325462  0.0888901340222992  0.0982235491317938
  0.1854418260038543  0.5423890761009046  0.9521327006590888
  0.7542007390823040  0.9967947013337037  0.5264176126352504
  0.2402489600295477  0.4242714122102649  0.0011914801016822
  0.2370187680107913  0.3961265499966335  0.8895903518842946
  0.9548780383660136  0.2257453376420341  0.7686691054305678
  0.6584849159778124  0.1699053444460154  0.5097066349491294
  0.7085895468693761  0.1523304574384832  0.4761233931639347
  0.8650921262257008  0.1078145519599283  0.5949276730035105
  0.0463589143056387  0.7216093132658704  0.1360266159755050
  0.7592248168842096  0.2327721760764006  0.5390415457157565
  0.2486743436080485  0.6958726179200638  0.0462837253139892
  0.4797256842364832  0.2258173525680900  0.1006017833378640
  0.9738704914234132  0.4243303080616562  0.5700127861870399
  0.8927052167419119  0.2650591435517771  0.8543498047427860
  0.5219439135697460  0.1258118112880067  0.9749737742510960
  0.8325481288219371  0.2409465820575027  0.7279096410500627
  0.5292094883747538  0.2109547572537974  0.0661095081931852
  0.8318293083442346  0.2095137100009046  0.6211611930559141
  0.4726815232581618  0.1664896565350419  0.1166585576641377
  0.7437684989072498  0.1520691749950450  0.6567936035214758
  0.5648607825632281  0.0298089901070508  0.0162465627094490
  0.7939196170311901  0.4768416437911847  0.6228872106123561
  0.9308177262941110  0.5500630342217427  0.3169043256014683
  0.6407639898202394  0.0125871075355212  0.5998932580889872
  0.5640736777479607  0.9752301833887849  0.8157586473228878
  0.8826812531407207  0.7524086356570842  0.0736378522528402
  0.8406276022803024  0.1489959663336039  0.1938957248525791
  0.1962220867728182  0.9308766065609411  0.8694851007295962
  0.3135756750230963  0.5130479133944669  0.5111253096065710
  0.8809475620600654  0.0013308041430592  0.0201031169605119
  0.9483560860736692  0.1780629549763558  0.1072642483937852
  0.4282864052356414  0.8279865354413863  0.0899212336857142
  0.1063202145694457  0.8746097950444476  0.9063460565014985
  0.5232742285490809  0.7867548535011154  0.1693651911598956
  0.8437136092508216  0.2280424933948814  0.7897798906205943
  0.5790678230641918  0.8365548230489570  0.1200287938989573
  0.0392533178189640  0.0743718537225250  0.9381012116224405
  0.8501900583113776  0.8731062121336257  0.3694027466628284
  0.9404753931237283  0.7051544307991803  0.1596005776836910
  0.0733932310706848  0.8453779797065897  0.0157200178819828
  0.9686031095629960  0.1069084775846232  0.5709801796797386
  0.2839210480447906  0.8611496508553431  0.9728331868604640
  0.0405802481406274  0.6115419879179523  0.1060197637373602
  0.2574978799530826  0.5887835059274267  0.0139239832373019
  0.2560887516797826  0.7207962271725966  0.2085787438492470
  0.8218836885529570  0.7055531393030386  0.7903642128078955
  0.8448058844973191  0.4148887424463663  0.9272842428270375
  0.4059166739753332  0.4536738262719082  0.5511780348545398
  0.5346331898054404  0.4281305573088091  0.6532483500445836
  0.8960629175440329  0.1784576739223015  0.2043203454360960
  0.2795546822701408  0.3483756421285220  0.5732082747733415
  0.3774902202440066  0.3916395501926823  0.6006495419879341
  0.3267634315792266  0.3861650148629991  0.6400359064259461
  0.4250040472041106  0.4300109130141155  0.6702497349737377
  0.7589179786959971  0.3949204307323669  0.3085445441396320
  0.4139388040515490  0.4757526988832027  0.7129388030061420
  0.8172395810357035  0.4414124357817167  0.2560705566535449
  0.6989293880342682  0.3175546024077456  0.2577245674218431
  0.7784995391627534  0.6106552072651855  0.3608791572947106
  0.5001167771824286  0.5639636912694641  0.7835779747494698
  0.7190831262948650  0.5349222599924018  0.3062035949611185
  0.0435803569650291  0.1128033794624129  0.9853701653698858
  0.6671255735086582  0.5506912096081475  0.3398594853357020
  0.5604836570969682  0.5712767291629328  0.0089391076748845
  0.5315087577348043  0.5249595857611179  0.9717069256033415
  0.5654716571435882  0.5991123780467447  0.3461908328214472
  0.3601506798327859  0.6745205813952903  0.2013432228794846
  0.9641197305272405  0.8206600988818499  0.9893774073084032
  0.4130578630981026  0.6754616234352901  0.3299291663048564
  0.9281387372674275  0.5040478091263786  0.2749577937633826
  0.1568410418899351  0.6813971834165711  0.5338727467313954
  0.7133721985073178  0.9217251298864566  0.1590547663480544
  0.3498588472259627  0.8154862166530525  0.8901855844546963
  0.6028491719592058  0.8895025591527455  0.0136497627568482
  0.0961783236905821  0.4664582741064418  0.8305364810650716