Cr Ni 
 1.0000000000000000
    21.1200000000000010    0.0000000000000000    0.0000000000000000
     0.0000000000000000   21.1200000000000010    0.0000000000000000
     0.0000000000000000    0.0000000000000000   21.1200000000000010
 Cr  Ni 
 259 605
Direct
  0.6675727328016151  0.7495277876462545  0.7510888271384192
  0.8325684702229754  0.8334770093921561  0.8356230150175723
  0.5845386118392696  0.5842539762943096  0.0024481854915095
  0.6658766030011588  0.6661820022316923  0.8339780096293163
  0.2492238591095018  0.9168442262649525  0.1665204834816937
  0.1673383129750182  0.9170925423918652  0.5834736625797398
  0.3321922247493022  0.4163936980609525  0.4163433606426676
  0.0826360105907970  0.9171158549963672  0.1656804077522088
  0.7494908246765271  0.4164415732276737  0.5003666604892235
  0.8342550226969814  0.3343642900393458  0.0008760350185950
  0.9990391793141723  0.3330317496426263  0.6664549040910721
  0.5838789007849292  0.8330038831468698  0.9168486753249572
  0.1670056773706505  0.5838139505512479  0.7501529654229079
  0.4189769061565253  0.7500427815479204  0.5005269296479440
  0.1653186743574174  0.7490643787590937  0.0831220383729016
  0.9160186986764457  0.4165885077776599  0.4997213314913313
  0.8321979118259022  0.2499681019071767  0.7506707255753849
  0.3333317257087168  0.4175971904235422  0.9166843388889525
  0.9167822899652062  0.5834041587150093  0.1669640195777892
  0.2500163236954350  0.0019989207178426  0.5824145828607226
  0.0841207664664460  0.2509662282811756  0.1665101341257938
  0.9996582224839587  0.0005294554632663  0.0002448684612234
  0.7505523076867924  0.3344927539489682  0.0835764161848683
  0.9158868365603564  0.6669633901863981  0.7502819585186489
  0.0839871443748474  0.5004881367301525  0.0843320440361605
  0.0828063747045357  0.6660068476834881  0.9189515323127173
  0.9993159874018087  0.9162514627417629  0.9175320313291686
  0.8333707447369300  0.1673242359484405  0.0007116231516392
  0.6670756347368045  0.1673642778450319  0.0011423833099276
  0.9148780705108465  0.5840925599000431  0.6655405152361245
  0.0835408583197915  0.7491475660299569  0.6669591893671083
  0.0002556864402422  0.3348777714326017  0.3331178245452373
  0.0844227739357341  0.3350716812882581  0.4172211548025161
  0.4164081518331408  0.4999234652205624  0.0838082128609783
  0.3331118901527035  0.0825294561572871  0.4163232352609021
  0.0820726450191752  0.1673877641675784  0.4154585131168466
  0.0834494183918125  0.5821058680289771  0.0001826236422214
  0.4158043989639869  0.5830987248032798  0.8315384135565170
  0.9163105070735488  0.1671421387678532  0.5833423756129783
  0.3334566671031613  0.1649872834267613  0.0008139093541693
  0.9997222457519027  0.4998711653636905  0.3331497511106050
  0.5005734736290859  0.7503147601269748  0.7509045138450949
  0.2492521994928475  0.2483929871432502  0.6642227000663850
  0.5005760539647921  0.2484286967865795  0.2496682330451684
  0.9166799931499920  0.5827515510072949  0.9999790225072797
  0.6659056106876874  0.5000615371007109  0.3337686824445911
  0.9160997328379988  0.3337857434700655  0.2498000124237255
  0.9999589181980177  0.8322530131217084  0.5000497530228720
  0.4176382699888404  0.7487892101670685  0.6666683997460175
  0.9995825333674266  0.7495792325853342  0.0833063469576189
  0.2488491928095606  0.1670193343426732  0.5829756249917948
  0.6661060700615969  0.4161068425317923  0.9168913935640021
  0.4173161039021820  0.9151825239625989  0.1647931949147001
  0.5845312307116234  0.5826435240697810  0.8335297794515057
  0.3330150834938218  0.8340097839876323  0.0000509299431708
  0.8326390599365153  0.3336320210589740  0.5006964542335044
  0.4177130936093248  0.5833322844375313  0.5002179130531645
  0.0826788120942536  0.7497673763207812  0.3332264044705122
  0.4159732463899778  0.4146925947354346  0.0004616519679592
  0.9175498139608766  0.8326461046697751  0.2496790504779690
  0.0002505123313355  0.9151068941363678  0.4166960936308119
  0.1669213977604398  0.6663631665425520  0.4996047207299542
  0.9159565847883006  0.7488106347267777  0.0007428551073240
  0.9171424779445276  0.9995519654764153  0.2504544780430119
  0.9157029421435550  0.2500305291888626  0.8338737622437890
  0.2499849256794679  0.6663785955532695  0.4159614532578061
  0.1656848142981325  0.9996876439378733  0.4998226111434869
  0.9156370028397711  0.8336405938385995  0.0834393339684120
  0.3327073704242716  0.2494390265457830  0.0836139751449386
  0.2496352966870882  0.1668311572512154  0.7489960344026408
  0.0826055239515171  0.4998556935471785  0.4166837847288504
  0.9997360939844772  0.9157175253314572  0.5828988556483938
  0.9163934410617717  0.6662469116207541  0.4166261607020107
  0.9164823843595035  0.7492827333949346  0.6669334566802265
  0.4998571073908155  0.1666046743454515  0.1660411419250978
  0.9170382683281105  0.7498238576161685  0.8339048716277709
  0.7495229421547144  0.6649502211898790  0.0848226989087358
  0.9168758577947926  0.9168994877529365  0.0003515242179258
  0.1670958299913684  0.4173475641198738  0.9165872449042425
  0.2504688939560032  0.1668896766025586  0.9167820818100917
  0.0001781562885029  0.0839323204152311  0.0834575368735125
  0.8317880321104838  0.3333838446035520  0.3332225942221451
  0.2491472497076546  0.8329213173839527  0.2506487741768370
  0.0817880393393145  0.8334578138756203  0.7498418102059231
  0.5001771688781199  0.3336820359814950  0.8324374637321096
  0.1662462995414556  0.8322428000325827  0.4998370896139486
  0.3328479077850748  0.0821236461916248  0.0835682793855270
  0.7493609790692863  0.7509131109787621  0.4998268862450079
  0.9160796469788447  0.6657710732507300  0.2513373584034806
  0.0002167942321063  0.0837494950014732  0.9170216939894713
  0.9992467803077808  0.3340340129806011  0.8337203794699249
  0.1674707377863171  0.0008443852506378  0.6663987166511118
  0.1673267212926145  0.2495158525009762  0.0834138960442257
  0.9993950656455195  0.6645145387385124  0.4995879762309959
  0.9994363042886308  0.0846739910326253  0.5831677948944990
  0.7504228725536125  0.8327691079006451  0.7502929744083805
  0.9145997264931198  0.1679125676313496  0.4145997749543572
  0.4993810874408974  0.7520775963614448  0.2502905428407624
  0.0828485607429233  0.6664525778322825  0.5836602266315278
  0.2492832136697802  0.8323985955716543  0.9156159875145862
  0.8330419035416834  0.3326905474902201  0.8325685171557966
  0.4168752861697781  0.5829641856335674  0.6658766310932396
  0.9152525865738522  0.5001014627979473  0.5834612498821458
  0.4993253860338955  0.0002135769755720  0.3336437484962326
  0.6674007101456942  0.7492318791395849  0.2493782102159577
  0.5010958433437022  0.8334715476094072  0.9991476914013850
  0.0009529901369565  0.5016881767371404  0.8298590363488473
  0.0840016537774199  0.0826552379578196  0.1680111693969732
  0.5856826243901736  0.9163130546769042  0.3334489805823930
  0.8339211942077545  0.9995500896395174  0.5003216388994143
  0.0825723727636538  0.8342806308097659  0.9164410755476947
  0.8335100039687571  0.9173444559969213  0.9170824128324236
  0.7499980454644771  0.2498094491608419  0.6669801945243026
  0.0836902562142395  0.5839263253518624  0.1663778559935612
  0.8329736866394609  0.5835793694501304  0.2506742501599173
  0.2503340003988291  0.5835948155100722  0.0006643214898375
  0.2507368089820325  0.6665061125966111  0.2511000560296955
  0.0010814968515365  0.9998381847666931  0.3346470319543800
  0.8333489271510296  0.1669266374513702  0.3323528375523992
  0.0000210633475298  0.8328415589528597  0.6663530453804615
  0.8335955495622623  0.0835304061798130  0.5839549211967973
  0.9171322994123915  0.2507382978017013  0.1663383828575098
  0.5005488176663396  0.5005979211048071  0.6661687854058173
  0.6661040959318432  0.9154367388133490  0.5850361273852439
  0.5836462348569044  0.4166913968096119  0.8335559073394192
  0.9170389323005499  0.0008885661733305  0.7506087739584425
  0.6680113284473878  0.0824651564566546  0.4153900614768695
  0.6655924836016245  0.1657624834907307  0.1656646464412212
  0.7500706751173173  0.3339272881029369  0.2490806453932325
  0.1670443379852236  0.1676424469689857  0.4999453736488519
  0.4163740285704209  0.1665288272972984  0.4170420961406732
  0.4999959293842411  0.0833753194129032  0.5843146325138672
  0.5830204448056540  0.5001568835488196  0.4163611152234158
  0.4991291911250863  0.6679218958990744  0.3338763289194456
  0.8328836985673431  0.5003011326164859  0.3334584672173971
  0.4188113548571218  0.8337769364116578  0.2489343640683724
  0.2501444099856571  0.7494962419056305  0.3332917327022807
  0.4162496715282455  0.2500695384771107  0.4995138446180934
  0.3327350245879441  0.9164001648054767  0.7497962367368251
  0.3339888142897258  0.7515401387353460  0.2491298043617305
  0.6657246601271380  0.8319041211464876  0.6674319056322963
  0.5839921988435626  0.0006915088741451  0.2492093559933728
  0.5838346926565886  0.1672210340940276  0.5831897585310998
  0.2484513026972845  0.7476535312317071  0.6654152876481226
  0.3314677784569438  0.2496306489780468  0.4159075981825355
  0.4990006486738843  0.9987517751935345  0.6668924713312817
  0.5010526226468184  0.0007288406607780  0.5007854822395417
  0.9994840527496045  0.2506487641294610  0.5835269210460979
  0.4997480866971714  0.1649696062975808  0.3331887687917093
  0.8324216816531916  0.0008396414516796  0.8343931118627007
  0.5835623100479808  0.5820562565456895  0.1666455342170474
  0.0823235912175689  0.0004209018984760  0.4175040288587318
  0.4176108691949548  0.4994603932326829  0.2508867611455149
  0.6666685166423967  0.2502436205518127  0.2479118477806996
  0.3327344821617804  0.5843058210579491  0.7493033581401188
  0.2502121087486628  0.2496168829639176  0.1663027695893774
  0.5001905589544017  0.2492762043416166  0.4167923928526403
  0.8322964044335671  0.0842098199412062  0.7500948735071675
  0.5836618136045512  0.4147701294666891  0.4982635446830447
  0.2507841048064071  0.4995367345485006  0.5832507861768941
  0.6714114396554483  0.2474810435958942  0.4138882977067834
  0.3327299186520266  0.3319387799875930  0.0001930606954216
  0.1653746044963362  0.1678615611136090  0.6667210028444194
  0.5851651242029232  0.9174476386741917  0.1657406241010865
  0.2498095034350146  0.5828365979224397  0.8334910301569732
  0.1667393669078403  0.6668216370173143  0.8342706381030943
  0.8336278301109789  0.4159246716100256  0.7519931542044140
  0.9997745568040415  0.0850255511102698  0.7505680300738243
  0.6665046685149714  0.7493789129372452  0.9161074937325303
  0.3338685006519284  0.9160649862915426  0.5828471991588633
  0.8330679436926702  0.6661242817491324  0.1679127024462973
  0.0005534115734727  0.1655095644108901  0.6669516863425019
  0.8340415203640438  0.7488534546487119  0.0843579680659776
  0.1654547051670359  0.0001049828011712  0.3335965417079635
  0.6664646588812385  0.6670432390343142  0.3326969695342405
  0.8337626638610958  0.4992141020422119  0.8335183333978463
  0.4172993082316355  0.9995804589865762  0.7504998553548166
  0.2489728535531087  0.9168919130496037  0.8324818803525703
  0.6665857861894753  0.8330808221378063  0.3331446087909194
  0.2504532965875600  0.6665128434075350  0.5808318197854963
  0.7502724061297495  0.5003097948525473  0.0831889832831346
  0.5834182382992882  0.1663635112722391  0.7493911551003077
  0.5001519066624780  0.3341365087283409  0.6663024094940702
  0.7496223571710494  0.2505650305294501  0.1661974906171261
  0.8333399224913904  0.9160753387471778  0.5842222647948685
  0.5837372741472602  0.0003115199212369  0.5840458744676374
  0.9178873552154877  0.0001847400309838  0.4155289375155672
  0.5846030811000330  0.5838243328706209  0.6680354563350310
  0.3339026109445392  0.9984290960757546  0.3347978502902567
  0.5004726488993264  0.9165830589197650  0.0822176369716629
  0.4997530404512396  0.7491162151397011  0.9164879050169024
  0.7507736365236930  0.4997280166342126  0.9170140730388077
  0.4171629818397092  0.6679302061056327  0.2498360333147537
  0.4994244072766574  0.5009719790554988  0.8330930192897016
  0.4997764888838673  0.7500242605163305  0.0824551674638739
  0.8330820234102977  0.1669565132928977  0.4999430854189922
  0.7498262666271719  0.0826475913055779  0.1659751411533555
  0.4998215899910952  0.3334682439114307  0.1671604918147729
  0.7500488544581825  0.0003519439911525  0.7507505351343079
  0.7507002394387446  0.1658937691794439  0.7514265565871093
  0.0834178314503345  0.2501305348782848  0.6665761271496718
  0.3324878713856543  0.2499335928558907  0.5824799914054828
  0.1661660813674003  0.9997678412950174  0.8327748901985542
  0.1664072965773285  0.0001129857870316  0.9996788661501127
  0.6658201933615989  0.3335271253041854  0.8335209377454268
  0.1645080397185104  0.3358943804631712  0.4998607913328564
  0.1667745744451015  0.9994002814796749  0.1658036256228229
  0.0029126399039228  0.3343832475613568  0.0009160259515535
  0.2497777604318146  0.3333994096601389  0.7483336331218139
  0.4180729424136608  0.9157347416836354  0.5000608822610968
  0.9164697298785536  0.0840826617910777  0.0006087144472340
  0.5000623792101391  0.0828817259040494  0.0835017882739826
  0.2508877838128172  0.6665507895340707  0.9180202721647099
  0.3330259257879865  0.1660872930991221  0.3330167601147600
  0.9166214351069091  0.0839800269913800  0.1671656197558410
  0.7498732874185036  0.7499321490707119  0.3325091893894332
  0.3324819288995682  0.4173625971888739  0.5843577826416183
  0.5835869600008534  0.5835088841074221  0.4999864653508389
  0.3336774208257876  0.0844138180018173  0.9162389874312479
  0.3328596047712130  0.7492055525500406  0.7499189627107640
  0.4998846876059576  0.4160374352802708  0.2494940641687606
  0.0828206154106453  0.2506598585502929  0.8327885161352251
  0.5008420361520630  0.2500380248602528  0.9182633208031014
  0.3334138490221741  0.0008823295498163  0.0003184643959692
  0.1674230721561843  0.5015339928989714  0.1663886178045866
  0.4168531381011192  0.2516437745386377  0.8325696404849060
  0.3333278136077473  0.1666582158113023  0.6659121604678716
  0.6659982695004032  0.5828849153943654  0.2503333317365770
  0.7496668223836255  0.8322519479458347  0.9179946125496229
  0.8334468477269551  0.8326187480469477  0.0004130396154136
  0.6681124254154959  0.9180017208951282  0.4171581029981179
  0.1667837346360713  0.5835777631403686  0.4162622798777885
  0.8336099676178390  0.9168176982874980  0.4156443380713787
  0.6680709115931200  0.6668504923069702  0.6674781142911654
  0.7499946245174250  0.6670332165181656  0.5828086857629048
  0.0827826937273327  0.5007293665086590  0.5840010253181241
  0.5000679778209224  0.3323378906615197  0.4986100322799387
  0.0834591619694941  0.5832841585546327  0.3328645843334509
  0.0007148207511392  0.1679059860320316  0.3309800713875859
  0.4169058335744638  0.7501894799228724  0.8327096334701366
  0.3338718473935254  0.6665885349548818  0.8333572009906453
  0.5841487300910336  0.7496487784603970  0.5005237976106957
  0.3332908383741677  0.5830725189399059  0.9162828792502288
  0.5005531419891701  0.9158318124675797  0.9170039035402876
  0.1662688036462316  0.6665811626144059  0.1667935381711293
  0.6665402336366699  0.7491366104535264  0.0838942317034669
  0.2506478956648702  0.4177407148550859  0.1671557036965552
  0.2495598171923846  0.4988614000655000  0.7495808454739313
  0.6674107141317052  0.9996667826794617  0.6676101535816080
  0.5823461251198091  0.4161679068953732  0.9995284923690745
  0.1664657537214220  0.2506486691897134  0.2490890926758611
  0.2498642940474565  0.4169312075212224  0.3336909385147924
  0.5008969340964917  0.0835591946663945  0.9165704120929459
  0.5831019911428069  0.0832051327753608  0.8334983533573419
  0.7490776042124667  0.5002890313225151  0.5832141068760508
  0.6676342587823685  0.4179753872905115  0.7506734434267800
  0.7494424953857298  0.1659327266508137  0.5838384025725988
  0.6666664387378911  0.5838937539020076  0.7510247031758785
  0.3334934172069333  0.3335608964899014  0.3322315528447260
  0.0825004622586812  0.8333523995024197  0.0836575829392037
  0.0007959500597935  0.4988966170259034  0.0011409301065584
  0.0000628619165155  0.6660293431709328  0.1669733226234558
  0.9993004643776492  0.8335998523679555  0.8331327185897183
  0.9997192725599807  0.8334928193608488  0.0013288267411745
  0.0836965517848803  0.5840330503687248  0.6670589088794839
  0.9993186644068971  0.6650850561003160  0.8343393236296887
  0.9988512189409143  0.0831612526730564  0.2493072944095088
  0.1649812576762278  0.9160913120685432  0.2497040569698382
  0.0831848303595350  0.8325951498815953  0.5840385319937337
  0.9170825622216769  0.9165650971980456  0.6674165405190039
  0.1663955506278925  0.7509191849743616  0.7527919418640447
  0.9167152563848966  0.6655552865296925  0.0831044110279022
  0.8318169346139738  0.0846466677596057  0.9186749609420485
  0.0005228587520379  0.5838816516736594  0.0828667489793704
  0.0003390630615072  0.9165303494076930  0.2497096363873747
  0.0822900579814372  0.5827946403730179  0.5002931944476142
  0.2507105611442060  0.4999175779868671  0.9164303652420185
  0.0812489887166761  0.8326568350981766  0.2485607555456912
  0.8346177703061662  0.8327970670200580  0.1665820662271215
  0.0008048586451275  0.2504373642016213  0.0837995038783059
  0.1664313944914760  0.2505085977893630  0.9160951544164252
  0.9998139047372894  0.3346008402024647  0.1656461789958130
  0.9993929631079711  0.7486520413697688  0.5823870402771267
  0.0825795164388859  0.9994858164220513  0.2503996021815015
  0.3332407252325169  0.6669659996599726  0.6662567927456003
  0.0834803844344521  0.4176424913957402  0.8327768938013678
  0.9996953293537969  0.5841025367030181  0.2506912326078087
  0.9989376378219662  0.4173434496240364  0.0863568881397421
  0.0831803500566120  0.6648334655329142  0.0828665809632988
  0.0825778838024850  0.7491002965808241  0.1665732679082848
  0.3336371940671748  0.5837382699460084  0.0834393750571670
  0.0829899252468213  0.6661781503326586  0.2501169111592364
  0.0839952936648845  0.4997428451056656  0.2496060541547656
  0.4176235821977872  0.9165695528781646  0.3334679376633706
  0.9988196298797788  0.5005275929003014  0.4998756192427523
  0.4154951457133483  0.9168464066912591  0.0001164137300844
  0.9157737014360868  0.8326603645523313  0.7505242309922582
  0.5002276475508944  0.9996429200432484  0.9998654684526938
  0.4167345286609748  0.0820802274766359  0.1668784518258789
  0.5842870985460205  0.9994182034353915  0.0829711739005424
  0.6666867783254282  0.8333725812291610  0.1664539679030385
  0.6674313188251667  0.0000289608924563  0.3330825885150951
  0.9157428473976613  0.1670193045228067  0.9173309860417507
  0.1660603503998149  0.6663188086210787  0.0004877487929648
  0.9994419759946493  0.2512421730266631  0.4151332887514470
  0.9176283958367596  0.0006854949167768  0.0838806271601325
  0.9166083890308264  0.2494089748094686  0.0005416173804672
  0.9994134468892207  0.2497845070801268  0.7497873240761526
  0.5827950099097891  0.0845099395375689  0.1646932453258723
  0.1658554606230666  0.7497388328660018  0.2503254956576841
  0.4997225366095784  0.0837085928147285  0.2487947509045691
  0.2497422932863414  0.7493782794706678  0.4998952305283104
  0.2500133738183595  0.9164830006078351  0.4982333075886327
  0.9162883334548135  0.4996705643060536  0.4162390621697348
  0.1671771784253561  0.5843996183552612  0.2496900032447929
  0.1672082105324619  0.5001482225147911  0.6669414025835474
  0.1675045565093192  0.6666403261095682  0.3329283040535111
  0.8327651528990421  0.5831072306935007  0.7501421205491127
  0.9995774751272253  0.5839143841722861  0.7482054914106308
  0.0003014359215244  0.5829522350961659  0.9162309888275394
  0.0833708000340484  0.4997127813716646  0.9160677735863556
  0.1666756670083398  0.8329899431182806  0.8317799740747717
  0.9996586795365248  0.5826151101083393  0.4166987498823562
  0.6651341156512343  0.4174488622976933  0.5828365531253131
  0.1661342948505451  0.7492521177824413  0.4162418823894194
  0.4178017216793689  0.8333096917854907  0.5838954379111873
  0.8333364764792210  0.4165463417732602  0.4161837882232718
  0.4166482869028197  0.9171487877216251  0.8338412688529022
  0.5005976024744264  0.9162099645157407  0.7509319939443408
  0.4170618907499458  0.9164204820846802  0.6668644717837998
  0.3323250737153318  0.8333135689101491  0.8329883539004203
  0.0827648758671909  0.0841197143287842  0.8330671830216283
  0.0834029337711659  0.9994348321841325  0.9168244801774610
  0.1653755858568939  0.8326716887732026  0.3337538469031911
  0.2506778051517994  0.5000470936203248  0.0834791728804257
  0.1675382596059145  0.5006816891297323  0.3328961987904415
  0.9994224987023560  0.7497496054866823  0.4161565051767541
  0.1678452330747427  0.3332677222667381  0.1664284342299597
  0.2495333658873848  0.8332744798827265  0.0828954663093835
  0.4163760586660338  0.2490441923227639  0.3334783256199230
  0.3346545479941873  0.5838876882835522  0.2507027246835037
  0.9993494281366706  0.4167697198013822  0.5831907036163873
  0.1661483755583789  0.4186184228016883  0.4165928850595996
  0.3340247343194767  0.3343191603007762  0.5000038206907429
  0.2503032894390843  0.3334427796739907  0.2497940845518844
  0.0831675977076519  0.4170881201126377  0.1664695444946837
  0.2502275784288752  0.4174335209528561  0.4999543295715103
  0.2505424456570590  0.2509041446859386  0.8332989319886300
  0.1679186572234626  0.3341713075860788  0.3336372777626258
  0.1663766056883616  0.4992243922658121  0.0011746621045798
  0.1668095705806831  0.3338953726000713  0.8328601821510835
  0.1660576799649082  0.4149440709612724  0.7482367356414278
  0.7500738748590601  0.9164907004203292  0.1654829206884398
  0.0826443114096580  0.7497841026867317  0.0002324307542152
  0.3334784786781094  0.5007819013087074  0.6658891104070327
  0.3341147291696318  0.5842668592114016  0.5832163623095959
  0.0841070080926739  0.5835168712832256  0.8333550981303546
  0.1665986924756468  0.5001488897314941  0.5002166062092825
  0.2506068585825132  0.6667246801220147  0.0835332506834926
  0.3321127695735184  0.4994759562318302  0.8316584515366436
  0.3327533395496438  0.9990219971364521  0.1667490912982807
  0.5829148315780509  0.0820873412182785  0.3331027034765415
  0.4181875445005841  0.8328314326875200  0.4161904804143732
  0.1660448484104825  0.7498696576278255  0.5826715123833586
  0.1667691229118068  0.9165705752891822  0.7497443609552821
  0.1677317661384844  0.5838495317753993  0.0837624035240201
  0.3334953934315915  0.9152771487960474  0.2495828751541789
  0.9162877975248739  0.4179621733378046  0.1674169010261939
  0.9150736735641670  0.0845945781090706  0.8343277800498264
  0.9175079962312057  0.0836117486621590  0.3328915938120126
  0.1670602462501726  0.4172449868682380  0.0827347737038174
  0.0833078258636634  0.3343768830760410  0.2497827552339187
  0.1666916313498950  0.4168234707679221  0.5838736198403635
  0.1651510959146645  0.2509102365550307  0.5819689819607011
  0.0826768501110830  0.3336017073932109  0.5832099107162162
  0.1693970803170350  0.6676990739100837  0.6659205954914423
  0.2504887558516596  0.5834751687951977  0.3327215860001090
  0.9152618947111277  0.3337739998661967  0.5845529239664305
  0.9155223199734553  0.4163979287092840  0.6671373691538630
  0.8328695896663759  0.2504822825402949  0.2495133408173014
  0.1663073040322789  0.0841494462550328  0.4168722761122964
  0.0832879825311810  0.1672435846909438  0.2493985387559027
  0.0832015646725914  0.1678132426710665  0.7507122493220926
  0.0812734866532815  0.1653920269578786  0.0843203456850589
  0.9990916979851364  0.0004164126774226  0.1648042178733407
  0.9985332856156914  0.9998797304560125  0.4987972536801289
  0.1674576893259564  0.0821299952059007  0.2489515000975125
  0.0816798552676851  0.0003309815552140  0.7511079017807260
  0.0815771866748981  0.0846037619146501  0.4996116023482444
  0.9996763359713978  0.0849779731555901  0.4162669739255941
  0.0831689470930808  0.1671779147485765  0.9163248715532872
  0.0845780150013751  0.3333177764140911  0.0837947919125392
  0.0826993973255801  0.4181200601110330  0.5012660554054247
  0.1656450015002513  0.2496302678797910  0.4166877676374127
  0.0840649982470866  0.4177648554372350  0.3328128453699037
  0.9997664244436510  0.7489782250098440  0.2499999476002217
  0.2489285362985710  0.3341423077042430  0.4170939688897198
  0.9997689654110823  0.2517681214226633  0.2497665895006923
  0.3335285422085262  0.6679820737618306  0.3337434944135141
  0.1663732102127591  0.3324520867763669  0.6648034094222272
  0.0002490665427582  0.8327471093445348  0.3327231808077808
  0.9161177621608606  0.2507953855916703  0.4996273823137054
  0.9993069649153860  0.1664428688886596  0.8338072213879216
  0.1665329518721970  0.0840119533498135  0.9163269268542793
  0.9987123942541251  0.4160676324631530  0.7492336089777787
  0.3332692533429208  0.3332039977194416  0.1672983440700338
  0.9180908637568607  0.4167859953420383  0.0005637295078222
  0.9155801337984908  0.2497491964140668  0.6668011968824072
  0.5016342035005282  0.2511270322876023  0.5836353258626666
  0.3346231063423375  0.8320036307321172  0.5010554346001123
  0.2499327382687214  0.9169192667827676  0.6656590101770924
  0.2508743835374330  0.8329815260111095  0.7482380511040143
  0.1658262303016693  0.7498696488207524  0.9167494475212306
  0.1664058779311564  0.9166137200308332  0.9158618577225238
  0.3323755192694478  0.9163286033744878  0.0825290889502002
  0.4178656075227675  0.1668412908349051  0.5825847397521544
  0.5005014567478708  0.1669190135031730  0.6662764434868652
  0.3343874275268682  0.0825909805519700  0.5831689658101014
  0.2504030842054580  0.4163882578840885  0.9998608054653041
  0.3336519788911212  0.4164415374288703  0.7480982142881865
  0.5008802309009032  0.0823608219721126  0.4166907094005139
  0.3345348284664559  0.5003443058217258  0.0003670178834689
  0.2508840511282380  0.9986585051892678  0.2512355247250964
  0.1661132532818186  0.9161086661837556  0.0831460226146843
  0.4158494079236749  0.3326982102144526  0.9161978542940681
  0.1680773029216344  0.4171083984638649  0.2502931784704405
  0.7497494612279919  0.1672579661901618  0.9176269141370462
  0.5830530250456640  0.3323615544059033  0.9164031828917275
  0.6667387930964842  0.2501465108278560  0.9177543341421118
  0.9157175550663073  0.5006167189139784  0.7496526697255705
  0.9169735421390971  0.3337016747728571  0.9177308004608620
  0.4169926708391560  0.0830385142419851  0.9999608997411611
  0.4156832467592332  0.2501411222167988  0.0001564627885404
  0.3333099053055916  0.9170417338258698  0.9179630881412415
  0.2497294354387940  0.8328627857420245  0.5828980145533782
  0.0818044902187778  0.7490264746011678  0.8344098739224063
  0.1654087750978399  0.8332765859104250  0.9992117681848901
  0.2493770316467980  0.7494840113455222  0.9997801463364669
  0.0002927949848803  0.1673517108668133  0.0000247454809305
  0.2490566335693963  0.7489413757912621  0.1671543048806606
  0.4158162122765766  0.3334301279092058  0.0835457250724694
  0.2495869992719901  0.8317011657883099  0.4175787291825405
  0.4167522706371182  0.6663925267639882  0.0831102950170226
  0.3325620689982513  0.3344906912426998  0.8327295000143428
  0.3329243708438085  0.9152072758250719  0.4184797231777502
  0.5000379259304981  0.4997109401952533  0.3333779818319284
  0.5001493974503854  0.4995630451329398  0.1666635047798465
  0.2508782949437437  0.3343604570723128  0.0839728092916169
  0.1669612694832998  0.5827125454111389  0.9178614828009498
  0.3332119253263118  0.4170976906099618  0.0838488374297429
  0.4163459228329821  0.4162782481902907  0.3330197526582265
  0.4166484419549649  0.4167335825001879  0.1667843007962297
  0.3334412278755097  0.4166662305352566  0.2481895543699534
  0.5015629505039162  0.4151722422366346  0.4163581298117950
  0.5827778162112350  0.6661108956722792  0.2501026969469701
  0.2481708246378318  0.0003667389376915  0.4165053260032555
  0.3328280295999597  0.3329496463555797  0.6649370940067105
  0.4171515241816554  0.4166268044794468  0.4996993514078099
  0.3326803390414587  0.2505461991249364  0.7490779326442610
  0.4152005352259631  0.5827465053895298  0.0002447649883550
  0.3331008613627941  0.7505737083790284  0.0834873816090134
  0.2495843584846190  0.0835838763362918  0.0002640066394955
  0.4166106052007847  0.0007160089339393  0.9166983943332880
  0.5849774501181286  0.1660011067043191  0.4156125320286470
  0.4999266878600070  0.1666209159308611  0.9999773483344894
  0.0825703569942721  0.6658217913304926  0.4169248071575094
  0.3340054995210615  0.5001726413645274  0.4995185573431273
  0.4179972660813375  0.6658147342150761  0.5841675262452948
  0.4170310072475386  0.4177119523255795  0.6651288419120170
  0.5023184038849867  0.5833522754706361  0.5852887188869014
  0.2497731047182084  0.5839417130811561  0.6656952730092187
  0.1669602546952889  0.2510428565125701  0.7498550466919659
  0.4160369566980813  0.5003456518821711  0.7495526765533905
  0.0840124449153837  0.4982358348927834  0.7494033987499408
  0.4173997041858152  0.4996316614438829  0.4162734214416907
  0.0826680582022419  0.4158304988417647  0.6667902031075620
  0.2505023115221673  0.5835973604985717  0.4995173902621407
  0.2496315771488008  0.4160609775631396  0.6661216018479940
  0.3348062299588730  0.6671916309909700  0.4991996085367619
  0.1677941876783353  0.5002284335427546  0.8334533821159289
  0.0833666169961874  0.6667412895212171  0.7502737093220742
  0.3334999827547582  0.2488094254569670  0.9168242696088416
  0.3345762113099330  0.0839118082490457  0.7498450034501727
  0.3344667477760113  0.1677500820471467  0.8328292530538266
  0.4996796590347721  0.4175235270137237  0.7502956107930537
  0.4164389624990918  0.7502575360918691  0.0003727694276861
  0.4169756325562959  0.5827282811165497  0.1673923687653237