Cr Ni 
 1.0000000000000000
    21.1200000000000010    0.0000000000000000    0.0000000000000000
     0.0000000000000000   21.1200000000000010    0.0000000000000000
     0.0000000000000000    0.0000000000000000   21.1200000000000010
 Cr  Ni 
 259 605
Direct
  0.1665863573285137  0.7488888462502572  0.9166176184213273
  0.0006300533485909  0.2490979475456938  0.4178694472713926
  0.6666634513793032  0.4153796366371595  0.9162567254961007
  0.7503167783006832  0.4994595783357138  0.2487167665201545
  0.4167118544254774  0.8328554582658845  0.0840952812921868
  0.9993531476442858  0.7498705513545060  0.0837768411087565
  0.1692138521232625  0.4156487295912900  0.4163552728938444
  0.0006368797487497  0.4997059924458738  0.0000427913650491
  0.8336546771512273  0.5814641755031399  0.2482623127787412
  0.0001709435396094  0.5837420719350740  0.0830028521859086
  0.0000271616602922  0.4999613927246342  0.3339623639448144
  0.1663375702029975  0.5839963069396553  0.4167621246992760
  0.8334402587168672  0.6666319120548737  0.9987567218452071
  0.7498852935595903  0.4162576182953985  0.8324859279370008
  0.7504510373754992  0.2500929976951237  0.6669715203678962
  0.5835793397224364  0.9993791382917574  0.9161290186821802
  0.0821034965380506  0.9177171183034568  0.5014932530986261
  0.0839502012801535  0.7500490385550841  0.3330547170905707
  0.1667463795173064  0.1668614054822694  0.1670365939894837
  0.1662879689305788  0.4166477363232111  0.9164091283780093
  0.1671781488178829  0.1667045377460446  0.6667057676011254
  0.0002154580231674  0.8338197330329906  0.6665687650644267
  0.9163372590220669  0.6669249674609473  0.4167673418180842
  0.5002057928344767  0.1673507681536348  0.3335498895642747
  0.4177088201405718  0.0835208794635538  0.6677632451293329
  0.9176890843586466  0.4162419209913460  0.1652474068981727
  0.8346469435986956  0.3334713216863025  0.1672293660972859
  0.9169049683434906  0.5008477625383654  0.7501444286079505
  0.1676685209148622  0.8330511150736973  0.1670010005217190
  0.5842021478554930  0.4186004782619598  0.1658225091581215
  0.5005246385297619  0.6665817326145922  0.3332825683015226
  0.6659724283583252  0.4987701891388990  0.6667318756343712
  0.0011474180064066  0.2492662320982252  0.9163629225398590
  0.4186167513203856  0.0000374223246932  0.0829362872782585
  0.0837689635097728  0.3325771325435379  0.7497324860988710
  0.0842291327197084  0.3327359465243442  0.2514525784490271
  0.3328106639096989  0.6662846114968445  0.9996058746459708
  0.6642299403388899  0.5004356516651129  0.5001964330070571
  0.9178372827176250  0.3341090342058745  0.9163206315836747
  0.3328842505112464  0.2493495714225210  0.7492402301032967
  0.5004927889055831  0.9171819386197584  0.4159052988137684
  0.3331069201269241  0.0011943967033186  0.3328934796099167
  0.8348630075271862  0.9149703404334881  0.7507935223272149
  0.2490642717266569  0.0002711230418416  0.4165429341001013
  0.0841460350486226  0.8325198127531239  0.9171311586787413
  0.2492226457033322  0.1674672388119152  0.0849732614046509
  0.0003089004764968  0.2506026658215454  0.0840443717889869
  0.3324692879671778  0.2479887064928176  0.9171730003017229
  0.6668003886598122  0.6672949376567391  0.0001069347862072
  0.3327557406106713  0.5005948577039455  0.3322910829653030
  0.3323957597067931  0.3320750941554467  0.0012256186042246
  0.4157688812019992  0.4155247893369306  0.0008885592218590
  0.2488447275094845  0.5006916252052155  0.0834837438082757
  0.8325369342432548  0.8326837178426848  0.8339530857435408
  0.7492725179186014  0.5836535855122942  0.8332425299572253
  0.0003408587006320  0.7501278638070689  0.9162328743007980
  0.8336683290634084  0.7495295613002445  0.9165742904002767
  0.7499459693250174  0.3331240916215442  0.9151208745964283
  0.5000228317283526  0.1630211717831842  0.4994275775703677
  0.7495454141579033  0.2503160238410178  0.3326857428166025
  0.4994877635306710  0.7499339483258733  0.2513190512248871
  0.5830366995331738  0.8338414810840244  0.5822691811558185
  0.4993252869186582  0.5004139837434961  0.1662746827105890
  0.0822083210404213  0.5000700887542906  0.4181853251830114
  0.6666541163435553  0.5826837693046152  0.7501769311875121
  0.4993768151053952  0.2492776236313018  0.0846278227164202
  0.0000045276522558  0.6673241191087793  0.6666870896158948
  0.7502149495180174  0.1669458095516717  0.0830669077847531
  0.5844383153104550  0.7508082744026682  0.8345110619635542
  0.0834260836728460  0.0828035347289449  0.5003371016150632
  0.7508613361357390  0.9173420269685137  0.3325463007106610
  0.2514461364622422  0.8337125327829360  0.4155145557077223
  0.1664174002284837  0.8330900310733140  0.4999112444378585
  0.2491314905771197  0.4165600306112747  0.1675783352392831
  0.5002682894062060  0.0010782136596248  0.1675490506934604
  0.5834216753196912  0.6669744990230884  0.4165040017350632
  0.5829641844108534  0.9164645384056144  0.1662766993945403
  0.9997605247454273  0.4165584406188008  0.5834702031780610
  0.7514927397968818  0.9167817110603866  0.4999961692356604
  0.9997885656079107  0.9993261573414863  0.8327678808662440
  0.6660536159114054  0.9167424771633728  0.7514632183597723
  0.0825357531899281  0.1661927527272781  0.9152657272623338
  0.6670265112775120  0.0833330870932050  0.7509584627103049
  0.8328595307397134  0.3318907678421698  0.4988261503079013
  0.2499032212890328  0.1668334161196466  0.4164526423584762
  0.9162723820367199  0.1665292824504351  0.5837835516020943
  0.6673733629792373  0.6655685917454077  0.3332014836014331
  0.4155721244385439  0.8336154261411962  0.9164741651693225
  0.8335266742033989  0.5821221333598512  0.4167997962002605
  0.4155490624820807  0.4167599613044191  0.8341691341504359
  0.4998390180272421  0.9174022470306860  0.5829634759056002
  0.9169435965971849  0.5827703442983614  0.9995392537394037
  0.9998099939269278  0.1668644086419735  0.3342103313713670
  0.9163825104341841  0.9169264158332113  0.1665635640003410
  0.8340638700462798  0.8338858047359767  0.3321745808859495
  0.7508164185699999  0.9172595240727124  0.1672835713213850
  0.0830355446073446  0.5000708808057087  0.2510880517088113
  0.1659365843709386  0.8336499195140469  0.3334387764654630
  0.9175012916062515  0.5015288024397627  0.2474405615825755
  0.0840190060022837  0.8326683699629617  0.0823718987701073
  0.7505788531817591  0.7510462035918570  0.4995681689509169
  0.4165034672639296  0.4161493947912613  0.1665531541291419
  0.2508850020185894  0.5009921736306217  0.2491874594461624
  0.2502749784102827  0.1644120749837255  0.9167183430135157
  0.6663967242646730  0.7492555299694531  0.2490453853439512
  0.5823753305036928  0.4166212004504241  0.3316172606408380
  0.2502270860425422  0.1638375001627539  0.5841951911598728
  0.0825588898179590  0.5827429871933555  0.4988520455651064
  0.2496808351991695  0.0831314886053291  0.0004739394742956
  0.4163418556772868  0.5836900345225380  0.6666712021263399
  0.7494774022154970  0.7497264972809865  0.6665912136922192
  0.5833732112296810  0.7504144461960170  0.9996430280825018
  0.5818820478051704  0.3331797899570991  0.7507347639021136
  0.8335278711555069  0.0009196580036775  0.9997490811937121
  0.5828463989347795  0.8328424696959220  0.0838182156351736
  0.4989374837352404  0.5838742590347561  0.7498141441245918
  0.3326090671296413  0.3329862756831728  0.8335492726603556
  0.5832402070900897  0.5003585964665226  0.4157417528930896
  0.9992587884799522  0.7500023571820192  0.2492023532191655
  0.9167277980420075  0.6679557214783435  0.7503117234589743
  0.7493615375184628  0.0008331696158063  0.9165952026328432
  0.5839766465720856  0.5834748967371625  0.1660453430193297
  0.9985616725648903  0.5837157637442598  0.2493588045077611
  0.5000232889171629  0.9167080366568771  0.2503575762138457
  0.0831706259567409  0.0841922305014333  0.9998383113472861
  0.7501266798941952  0.8331945511064747  0.2495665081201365
  0.3329790923847032  0.5833392945061728  0.4158369785584142
  0.0832600792886464  0.9167815549110434  0.1665638531386616
  0.1662949515842163  0.0833277933868353  0.2500056117311128
  0.9170407698689382  0.1656032329396477  0.4174965773707062
  0.8344040376802615  0.0833965463424518  0.9163484106634452
  0.7503994026431050  0.4990224895029250  0.0827056534494245
  0.5002126879000667  0.9163790286532698  0.7501581914796758
  0.9172978675340351  0.6663936114334521  0.5834944592989615
  0.9162510912809289  0.0008671310027888  0.5839466808912566
  0.5827338360783955  0.6666825555544793  0.5835416120028295
  0.1656853639890796  0.9166873781525962  0.7493693000468875
  0.8335698340969289  0.6657138272063156  0.1671147519523106
  0.6660703828760930  0.9994399895445973  0.3329839471013792
  0.2494098941788759  0.0835087702781157  0.6681324434048336
  0.8341663552646363  0.0006251496151534  0.3331220914274299
  0.2499460610320315  0.0828374561509325  0.8332873288502332
  0.9166189576468426  0.8342963401664326  0.7507559253390588
  0.1671656883584009  0.2505793164559519  0.4170673269756768
  0.5849267076765663  0.9168275381844144  0.3332351367354311
  0.5832684481150453  0.2491567878664729  0.1671160445165553
  0.3340186662960991  0.0830687685008930  0.2486999619649435
  0.9994382097707784  0.0826447686134351  0.2495939472878362
  0.3331112357424587  0.9168855659630969  0.7500556126705844
  0.8328638344244629  0.0019935525464481  0.1671817708600504
  0.2484411168113081  0.7500154018266432  0.0000472431480126
  0.0843167737544900  0.2498026029511841  0.9999499583812900
  0.1681686053225231  0.6677196785148701  0.8321334593915695
  0.2501495603400097  0.5002317923835061  0.9176237414216013
  0.2514348373629808  0.6675718879418140  0.5825739352017701
  0.0840018667755591  0.8341174770010281  0.7500602079001629
  0.4994899634814440  0.2508721758173262  0.9162753448420107
  0.4157149345160820  0.7484940964229451  0.4997380981500537
  0.4984892812710349  0.2512829834886310  0.7509366950671356
  0.0824734232977945  0.9157473520952263  0.3323460465869842
  0.2484793486791215  0.3335789632102392  0.0832652248139979
  0.0836351098615828  0.5840125887923061  0.8322058289502809
  0.6653019878613315  0.0844102362707347  0.9166296006998668
  0.6664795925716225  0.8346977390407220  0.8338589615171081
  0.4991003108580436  0.5837676505585057  0.0818866153757556
  0.1662845271374789  0.4184229340416612  0.5829047766993037
  0.6665709028676853  0.0837032129718003  0.2493294091313669
  0.2496523656118397  0.5837388866066333  0.1674779724175992
  0.1668236682936552  0.3316598601368828  0.8325705673307594
  0.3333465142207789  0.4178235816157823  0.2492333257473383
  0.4169049599152169  0.5850941954437603  0.1671474556037298
  0.1656367613572500  0.3331512866988211  0.6657231753990704
  0.4992217612954096  0.1671038546964691  0.1677046323452193
  0.0824616096464244  0.5002292398875240  0.5826286386504758
  0.0006124391480819  0.4995853556852822  0.6666713276072709
  0.6669056419168701  0.9162863070790721  0.4168666902813975
  0.4163364164552604  0.3328034118862563  0.2493023585064839
  0.6676203318133024  0.7508782433032071  0.9174825500047649
  0.3330701258585502  0.4173297181716984  0.7498703190982599
  0.9996674867361444  0.9996647992764660  0.6670948480752540
  0.5012071873726951  0.9993317774487888  0.3324762643585514
  0.0010869386384368  0.2501814419096355  0.7499125664198166
  0.7511227553643871  0.2493546685013815  0.1670327686217858
  0.9168676228374607  0.0004271601804223  0.4173373208074448
  0.0004523207216919  0.2500194123408653  0.2501713560932526
  0.7497641433612279  0.0000208787063570  0.2489959247689370
  0.3326544341728802  0.3335645577825344  0.1667490601497454
  0.0012404232274254  0.4176226465348570  0.9152252406388601
  0.4161993841697943  0.0832435603243152  0.0004438677592047
  0.0828492306698512  0.3323196195655401  0.5824755179968321
  0.4169283689146381  0.6670156656980477  0.5834198105369873
  0.2495571507613800  0.9175184845404047  0.0009221216626468
  0.7517540634002331  0.2509957122883227  0.5008679940615388
  0.5843392895089153  0.0827150931900347  0.5006682202945740
  0.0838655774165825  0.2499909112410434  0.1671109258178076
  0.0003562560152880  0.4998649730990907  0.8326742620637908
  0.3331273046309203  0.5830248954587237  0.7503931132632239
  0.6670895836588262  0.4156400696373715  0.0829116319283074
  0.6676878422926334  0.9161242551805618  0.5829140075227587
  0.5001015370402802  0.7501053291371752  0.0835560809077896
  0.8335856729004868  0.5001216517371806  0.6671501876741335
  0.8342607228127823  0.0832717610542988  0.7503582677751938
  0.4166965114356692  0.5010643531086046  0.4167906470856710
  0.1670616451613708  0.9174166153358019  0.9171184647211603
  0.5837835883161925  0.5835674001517908  0.9991080712122464
  0.0827523550811182  0.0839835873100395  0.8338360588309809
  0.4991184464477403  0.9169217193802278  0.9174814121506615
  0.2494573022900402  0.2490540856587158  0.0002481452931435
  0.0831694490862728  0.5005549776160310  0.0829143275384399
  0.4994141826679252  0.4181293939135001  0.5820817038566415
  0.6669874897367438  0.5814050313736002  0.4152680227370826
  0.4152196507163375  0.3335735701277467  0.4179171773081823
  0.3331135929135033  0.6671552049894587  0.8328633998902106
  0.8338532059894717  0.3316434624990935  0.3339328650278076
  0.8330813495750489  0.0818570584005604  0.5839912556146341
  0.2507721857436432  0.7501508035110205  0.1677829712509022
  0.6664126441367176  0.0830267039915896  0.5856613454720859
  0.8325979290901672  0.6663691418867942  0.3334265671884720
  0.7507018874753416  0.8343026287900771  0.0841112504855150
  0.9159623864578734  0.8334692777013224  0.5833477977230249
  0.1676518838933097  0.6671630102542703  0.0012386834984458
  0.0840717469958585  0.5841694942434158  0.9999049251556454
  0.4996714912910998  0.4986231310950466  0.0007277170714428
  0.1667755083598648  0.8334639273232910  0.6663842418607140
  0.7486864294293483  0.6670245371559287  0.7502153316387079
  0.3338781609625940  0.8336768424983918  0.3330554550254919
  0.3337757920453024  0.6643749692131629  0.3345899062749156
  0.3331452373715538  0.9178725064597963  0.2499748557143174
  0.5831687040641410  0.3337268571486783  0.9165050221255069
  0.7498185062413347  0.1662807407192607  0.2500739292673602
  0.8340994998645357  0.8343824778673864  0.9997675134489910
  0.9999185794189879  0.2475458017781550  0.5830097313865439
  0.0001455961739161  0.3331630306923956  0.3336337028226065
  0.9999592671345818  0.7500627999686957  0.4164543561188778
  0.6656966603486909  0.0841024757778422  0.0819661005861448
  0.2501467723123361  0.7499518944143861  0.6657995987370170
  0.0838952815813771  0.5840801571113502  0.3335075632975941
  0.8334446659237186  0.4170092048928929  0.5832675150950094
  0.7495074754820491  0.1644380930120083  0.9163721582393540
  0.5825867833040387  0.1673180052552806  0.9158789662948272
  0.4163852933269059  0.0827076812810230  0.8337586527791868
  0.5003274381111638  0.2484787264548123  0.5821343594337206
  0.0003899324075963  0.9997041032722649  0.3331300244789310
  0.2518156933217169  0.7513067556188592  0.4995236305138042
  0.3331763907422471  0.2492072370986480  0.5829594907486192
  0.7513806571068945  0.3319095697037740  0.0844211359324563
  0.8332136293118934  0.2492867825901961  0.9163599558505765
  0.4160714481664852  0.1668167449219508  0.4151392605600102
  0.0829577690239713  0.0834787272469198  0.6670843687848994
  0.5818273450243950  0.4175916377868638  0.4997847353861837
  0.5004633970082109  0.7515024362051569  0.7504824116692008
  0.3330755988826290  0.9175413059887007  0.5835404912181461
  0.4162625122446635  0.0842116215386233  0.4968086119442037
  0.3338941947858752  0.4162153679911603  0.5827734916013144
  0.6648335639424902  0.4159029788782383  0.5838085743099167
  0.2499576426282047  0.2500730341080638  0.3330291397979209
  0.2492869683105752  0.2487216951038257  0.5008218019103916
  0.4164468682680870  0.7505919523278499  0.6663560053806712
  0.9162737271648494  0.3324034833928662  0.5829552358194956
  0.9998066561224956  0.6690343019266540  0.8332902620524386
  0.0840728457078834  0.3338739372727515  0.4174924418336396
  0.9994122293878268  0.4166771055426404  0.4173403603544098
  0.0839233270581658  0.4997885747905825  0.7497436502799711
  0.0002612497409854  0.5839138744113944  0.7496187572832612
  0.2498457758373042  0.4163797632344055  0.6657480785742793
  0.0833100872688573  0.2494810947337241  0.4999075271423296
  0.1668031024549179  0.4996388786383666  0.3334659122414033
  0.0830448480754322  0.4163097539120204  0.5004849790824853
  0.9165225238269635  0.4164288177047737  0.5007786067396236
  0.1678264877459845  0.3333518565237929  0.4999171491815892
  0.1650014188146686  0.9162265326249543  0.4165598262126036
  0.2507290926520437  0.4181657650094041  0.5007275046335344
  0.1665464560692250  0.8335472239306533  0.9999099074387765
  0.1677867943454373  0.3329519597375655  0.0002997850734596
  0.0844728458275394  0.5832393687759799  0.6668094694851127
  0.0843268795273280  0.9167200420368344  0.8332532355459983
  0.2504997950799340  0.6674205567332225  0.7487192866023076
  0.9160923273561615  0.6666035500896427  0.2505962558220276
  0.0832712184994777  0.9163535455337412  0.6660774577365276
  0.9164712953495384  0.9990265677851663  0.7502094089977288
  0.9997552303836473  0.0004870583714318  0.1664460298737746
  0.9154131571722030  0.7499051452938682  0.5001715632187294
  0.0001398755077263  0.7507093639196899  0.7502626669974396
  0.0836256018539264  0.4146632382910133  0.6665386498508360
  0.3326708628171457  0.1666066057627525  0.0008708282087399
  0.0835239276300491  0.2501028016915054  0.6663502405112938
  0.0834186964792745  0.7508107624077331  0.6665129546051839
  0.0847376475501238  0.4167660759492782  0.8323642824395965
  0.1666332598511961  0.2503431035055559  0.2503695568227885
  0.0833001541592181  0.6673347491953713  0.9162657773136217
  0.2494280654534874  0.2502729821344832  0.1672374599877547
  0.0840895655580669  0.6661990612653916  0.0845130540398315
  0.0841140107477421  0.3333746498471667  0.9159355342907058
  0.1659198533899895  0.6654637596842955  0.1678036984436790
  0.0832318094438754  0.4160847837890054  0.1674364382300908
  0.7499560684836775  0.4991253793483130  0.9154818527673192
  0.6667128698503383  0.4987212977266208  0.1650710690513379
  0.7507758696914446  0.5822017439312481  0.1637818296688283
  0.6668107957720320  0.4981309699154098  0.0003826849228569
  0.6662195133173071  0.7505464393482800  0.7497093595079555
  0.1663689199374584  0.5837393027901154  0.0841611716154360
  0.7511370300451981  0.8336079612904580  0.5837705182908314
  0.7504879938451814  0.8339935891145498  0.9176644090666013
  0.7505806397245575  0.9162833414141272  0.8332455698098740
  0.7510681936170999  0.4159524867227265  0.3318191397255860
  0.6647095148176020  0.6668605430079673  0.8334091967718087
  0.3330970027725238  0.9163587042946179  0.0828878585421758
  0.6662782966005922  0.9167538241347489  0.0845499272900887
  0.5827722836742136  0.6683640648435855  0.7510331771638120
  0.1656867731398564  0.9179967335466698  0.5834321661025759
  0.3340364391853761  0.8346438366725749  0.1664531515448156
  0.4159483000158293  0.6674975459088928  0.9163287511084129
  0.3334442266440912  0.6669523309619381  0.6666194196637475
  0.7479637732717597  0.4157228193211562  0.5003531333281548
  0.6643757596257215  0.4164991525107933  0.4175002985443907
  0.6656171688413586  0.3323757448438285  0.0015789069791660
  0.5826714823285654  0.2509258565111211  0.3346464050563847
  0.6662997355699840  0.3331069230351836  0.1663501598888508
  0.6669449237100096  0.8333123632712954  0.0009815754344786
  0.8342079179639649  0.6667275792742611  0.8327765585306208
  0.7514085015736718  0.9164367776286065  0.6671126728872138
  0.7496679428023263  0.7495297763510185  0.8336490260530389
  0.7511624313095058  0.3341266032689770  0.5856871442280323
  0.7495788252441848  0.3334333620741395  0.4150866535145663
  0.6656076845863930  0.4156540289717445  0.7492345918901593
  0.7505340575102041  0.5821889227461908  0.3326833657944234
  0.7500740405409950  0.4166545972016195  0.6670207252062846
  0.8338463781574517  0.3323794617686881  0.9994234408211181
  0.6662892119087043  0.4989713950712658  0.8328713216721237
  0.7506479533629321  0.5828833815887594  0.9996816013692104
  0.5827627028281177  0.5010879452631251  0.2489851849361520
  0.2487569238814198  0.3337222957180054  0.2507613825434252
  0.3337175162435229  0.5841140878157866  0.0837139628152377
  0.2499169661327339  0.6670561399241745  0.4170568153101499
  0.3324148161353051  0.4167071561983707  0.0833334106961534
  0.0845612919113293  0.5012856920892798  0.9155914640906542
  0.4162346015679270  0.2508866223139090  0.3334831286176249
  0.0832676648353559  0.0834283947559524  0.1666614028633297
  0.3335358152346808  0.3335812655549981  0.3337165134880881
  0.0841689093239349  0.2492765456944236  0.8333588211813832
  0.1668847477730439  0.1672171246955994  0.3326095395087502
  0.0829872675343054  0.4166954932829959  0.9996986075776093
  0.9165893170662044  0.7499238960172622  0.6672984440343515
  0.9994156139273187  0.4169417299942323  0.2499832089245403
  0.0007446858113944  0.3313553899569115  0.1670036644287910
  0.0003600886135301  0.1672132638161563  0.1664023651655571
  0.0841203131690400  0.3331650775505963  0.0838548418988009
  0.1667681183673272  0.2495144020174792  0.5834069757281165
  0.2504089254001313  0.2499958487580733  0.6664340127486805
  0.8323664351688317  0.5850725071904960  0.7495171126708391
  0.1657429356352980  0.0834399104613537  0.7502791338037786
  0.9171534655465816  0.0833469755242295  0.3338980419855122
  0.1663639655707150  0.5001544192277008  0.5001482215767462
  0.8324960509760814  0.5820567937176792  0.5838754938549624
  0.9173173330295986  0.3325011737301378  0.4177588074686819
  0.0837191365051801  0.4167586651686462  0.3340508538584727
  0.3353163273824508  0.6667788853997220  0.1672611563054321
  0.9172858951247100  0.4167767800649772  0.6671651531245952
  0.8340657287363394  0.4999577981001875  0.1646750298554147
  0.6673930557977643  0.7498210391757265  0.0845565166507531
  0.7501566512451019  0.7499956932825550  0.3337459565633155
  0.5841643330973237  0.7488811589232743  0.3324243416042526
  0.7487589469726692  0.5824471079465002  0.5002510314828387
  0.5841350410205330  0.5831419004626424  0.3333382326373401
  0.2510403919325693  0.4175416252716223  0.3324790657237140
  0.6671014759125692  0.6674971822037884  0.4996621439010975
  0.3336515863916196  0.7492090634364010  0.0839347807651021
  0.5826292682887988  0.6659549950325379  0.0819202527662764
  0.1666462973926102  0.4999668908363253  0.1685454870517883
  0.1681892875476998  0.5010183435799673  0.8321061387077859
  0.1668047402694705  0.1653978408381158  0.5002256019283889
  0.0836904248511298  0.1678304154562718  0.2508112256197731
  0.0830634706806785  0.0832010578467818  0.3328107338632391
  0.0001161384206290  0.1673717355635506  0.8321633960310006
  0.1661588716344714  0.0829276886315401  0.4163154555803265
  0.1672632257724034  0.2488394535424401  0.9165243047383698
  0.0009347003747639  0.1651746416809475  0.5009000182532696
  0.2496175547504494  0.0001042799455592  0.2497964698763912
  0.0006271464096376  0.0828301172176493  0.4170881008602614
  0.8335494331623250  0.0842827401501457  0.0824106758353533
  0.9998218175476375  0.0831261941546644  0.7510871259744578
  0.8327527026598585  0.1674870919555039  0.3332202751947745
  0.3337048799702073  0.1665207280161199  0.6696467123305206
  0.0002596647789228  0.0838156338276055  0.5839977892057711
  0.0004418809885864  0.0822756293482905  0.9161766818474530
  0.0835637638379699  0.9154652618318856  0.0008674507723445
  0.9999286090929982  0.0836703782691640  0.0827180353345594
  0.9160518505921226  0.0832614891603474  0.6672790009620446
  0.0837817066685008  0.9999411092994462  0.2502777591423292
  0.0830801261719098  0.1663756812648883  0.4166847973544405
  0.9170628513825386  0.1657931208459254  0.2505707553376131
  0.1668509590992117  0.2497205838832219  0.0836842996184420
  0.1662485930790208  0.0832322469832730  0.9169557418512707
  0.0006691331510388  0.3328566109806472  0.8328330308840944
  0.1665624088478707  0.9168642378646880  0.0841333784110868
  0.9173794420992173  0.0837760757509264  0.1661359887276143
  0.2497539580765409  0.4162081356852842  0.8335661059019976
  0.9994006695182157  0.3319665683799836  0.5007975828300084
  0.1664608210198699  0.5015173979426083  0.9994057271353816
  0.9998451984822001  0.1664188446772568  0.6669850964685676
  0.2499362696552680  0.1666967773048524  0.7501208866925989
  0.8337096850631432  0.1665720084765877  0.6676901122044465
  0.0830904493999956  0.1669373471164822  0.0839072158631320
  0.0010052203811189  0.3330667189375602  0.9994574820154762
  0.2495291854358622  0.0003749334565864  0.0836780569097710
  0.9174323502641681  0.2500446311653315  0.9998991895577088
  0.8336408864003230  0.9173043276357410  0.0834671331983988
  0.3346225490100886  0.0001083623092515  0.1661979115439731
  0.5014769701685138  0.0825799010036417  0.4156370466351156
  0.4995090782689465  0.8336998334814070  0.6664017222697793
  0.7510776254522173  0.9996876500961129  0.7506977880467685
  0.8332874556518770  0.1653697157679543  0.1670889572840735
  0.7505373784118955  0.4159007223747139  0.1664894200587081
  0.4175325938849834  0.6661843017614879  0.4159765372266951
  0.5825256226422374  0.9163807523768079  0.8332227591973457
  0.5830951818369728  0.8336603236636920  0.9168009327329686
  0.6665282852158912  0.2498427290659718  0.9160338520806799
  0.5832040833239469  0.9165591757816404  0.6665883873661842
  0.6666540407365138  0.1668050500047249  0.1663984894388176
  0.5840227659655308  0.5842354438648216  0.4996455016832427
  0.4992635693124906  0.7506164809706584  0.5825796079763178
  0.5832496557260139  0.4985664522806704  0.9171158952334051
  0.7508404458938784  0.0839568201725208  0.8326697010456604
  0.5821378662609877  0.0013160025921678  0.0834800831338459
  0.5842990569272516  0.1672186845952707  0.4169092201439484
  0.5008548876341754  0.6670381069143972  0.1660331869107927
  0.7500056547705547  0.0002644703794223  0.4164102260854392
  0.6663915262523999  0.1671014548329095  0.6666656085873730
  0.5833288161345302  0.5837757879428197  0.6678420802792474
  0.4988511891973465  0.5003604101482899  0.6660293456446186
  0.8346248702814499  0.9176521219067718  0.5835690770134903
  0.6663669550009336  0.0001216838691300  0.1665240859728657
  0.3336960011924306  0.3334497613946963  0.6654912324803784
  0.4161802451053502  0.4998875069004771  0.7503637421740397
  0.5003590288567488  0.5823436766258683  0.9184489859481908
  0.0838894766548158  0.7502375884113269  0.8329571260968145
  0.1656979133536128  0.0005374496037442  0.0008026101456426
  0.3330454960752569  0.0006004430777468  0.0000380588686540
  0.4147280911504093  0.2500637092731249  0.1665536416841012
  0.5008522905187962  0.9998046069068636  0.0014066034735616
  0.3333450575000672  0.9182537388668409  0.4154806560899562
  0.4164351839461413  0.9186781027620641  0.3330665249087392
  0.3330466905240028  0.0833737250303432  0.4161063941521401
  0.2500574710273523  0.7513625180676298  0.8321497907951392
  0.3329516407787523  0.9988687978093703  0.4992154097823877
  0.5009474650120460  0.1670983526912704  0.6673298975433372
  0.1661732317754282  0.6671314487646053  0.4999186753900604
  0.5826679075445985  0.1677322989501655  0.0831964745413372
  0.4992038954510968  0.1669519606091515  0.9999620168790726
  0.5826109060815179  0.2506104301369122  0.8333067126835174
  0.3333911635714166  0.5839636492057382  0.2497433634828969
  0.4965457489057881  0.3326360413305929  0.6663991547219806
  0.5821570612122577  0.3318008205503007  0.0846639832443910
  0.4995739288587104  0.3332719011620971  0.3315357324783939
  0.4990591772976650  0.4171533076137758  0.4160907209020265
  0.6676640276433816  0.2514298772989765  0.5834737119011659
  0.4977733853157591  0.3336384887207609  0.8342483701327593
  0.4163667090696891  0.4170076754571851  0.6660698519373286
  0.5834393815007574  0.2497328196628520  0.5000056646561409
  0.5831602670906846  0.4163756081224860  0.8334671788813452
  0.7496264894712835  0.3332571824597783  0.7503790350326729
  0.5808048780340994  0.2501007015140905  0.6666548970149939
  0.4997137662558955  0.3330745583522990  0.1672520732390033
  0.5812722770574257  0.1677439521074841  0.7504465725910148
  0.6681589521847860  0.1688472942378588  0.4993018692821685
  0.0836224041062612  0.2501312656678375  0.3343764243920022
  0.0011725880643804  0.4164020693726206  0.7504888671000765
  0.0001386916685541  0.6675182471631137  0.9995663790513606
  0.8349009895076649  0.2510825768327823  0.5840302901004221
  0.9163921033154576  0.7507012824283048  0.0002234954079896
  0.7508617590532121  0.7505790539126764  0.0007118160668655
  0.9162505936225049  0.6667539476701377  0.0827689149988860
  0.9179104165339699  0.5839034143332013  0.1651832297823014
  0.9996437828031597  0.7498988011350056  0.5838822023232937
  0.9986995344340186  0.5841192822034399  0.4158090228409971
  0.0010918983510285  0.4151634058999270  0.0832251485595018
  0.2511060076584352  0.3339706068263668  0.4163315748356500
  0.2496149696063220  0.1665823772914025  0.2498410408144116
  0.3349021258840276  0.0820775438526041  0.5842509340696551
  0.0831598931709407  0.1660298291932520  0.7499919361515164
  0.9992997621186017  0.0008848417367671  0.5010222806649945
  0.4167322047226394  0.1667836135751098  0.2505562597879090
  0.5831237086684827  0.0825618959317590  0.8333267701009643
  0.6669474811809856  0.5830163904121488  0.0830532446911422
  0.4160373577045620  0.8326171360817537  0.5830309915860298
  0.2504340183383095  0.6662482569747984  0.2502764291907868
  0.9168807174469786  0.1687693161793364  0.0838115778840998