Cr H  Ni
 1.0000000000000000
    20.9853657880113857    0.0000000000000000    0.0000000000000000
     0.0000000000000000   20.9853657880113857    0.0000000000000000
     0.0000000000000000    0.0000000000000000   20.9853657880113857
 Cr  H   Ni 
 259   9 605
Direct
  0.1653381738943135  0.2546638700409213  0.9189056246056275
  0.3339691507443613  0.8374695590536275  0.5024274900389513
  0.5009158122212185  0.8358851263628537  0.5033942131033272
  0.4154719449988106  0.9249431203055420  0.1703876595511176
  0.3326844346288639  0.9222808489004266  0.2538388736819600
  0.5842671376792353  0.9184555701851878  0.0034939450337280
  0.4981068450634971  0.5860037617031172  0.9203357634631638
  0.2499408761376019  0.1704722731998159  0.7531529488622739
  0.2487190607215381  0.0024167411922052  0.5867405385537865
  0.4987872221665329  0.0038363079978052  0.1704148274844315
  0.6654519333927882  0.8365386992973156  0.0021542020670267
  0.2497211388276906  0.0023593837759444  0.7515848302329080
  0.6656443816839233  0.0045646056840937  0.1694021263501240
  0.4146947573436127  0.9191064933266814  0.8370990539730451
  0.4167909565188987  0.9193735020704070  0.5025431601851217
  0.4978040004072575  0.6682056084874141  0.0044112729495636
  0.4149063959230129  0.5857872237616315  0.1693204765998174
  0.4159857028237575  0.9202094497106568  0.6692080791270599
  0.3327239686474290  0.7540466300023029  0.5859957972880857
  0.5001935106504070  0.7534316295233152  0.2538539438562900
  0.1677338475112495  0.5873589042924833  0.2549420920097662
  0.4169274127678229  0.7502365149190492  0.1718735169477099
  0.5840987566962252  0.5869590854673731  0.8353868689799520
  0.5821130002590507  0.0039494292319083  0.7545190696458334
  0.8315554234829655  0.0884797553993298  0.9194121183547429
  0.3338608849483095  0.5045259224868390  0.0082205671930848
  0.7501978300094742  0.9209149542072268  0.6732134953342956
  0.5804218626632095  0.2535522459227110  0.0044709219482282
  0.9156170916626031  0.2533937906954655  0.1694768650705668
  0.6661432351768459  0.5856067982316110  0.2524178386679578
  0.3330258029530717  0.5867203075111493  0.0880719240214482
  0.5841583267614534  0.7537433020572006  0.5026511353490288
  0.4999738379510091  0.0856940657796891  0.7546690971430482
  0.4162205168104520  0.5868384136391691  0.8371011645404524
  0.9161038996836324  0.2538384493832753  0.0024885460292064
  0.6658230449470226  0.3374157771881758  0.5024884876697523
  0.9160141046231116  0.0036913221917175  0.5866368842110403
  0.7516465781737089  0.5049091348112110  0.4182719148838082
 -0.0026602899459481  0.0863299967614236  0.4200432170489979
  0.3327656916718370  0.1686849547024358  0.8350852249900260
  0.8316674875862266  0.7471746251264854  0.9208675638523439
  0.4993879988851571  0.2531819091302367  0.0868749313720714
  0.9165804735135467  0.0865189570554853  0.3364535494375651
  0.5003437088697966  0.2522213984954821  0.2545052337644129
  0.8311411256056241  0.7545363974215473  0.4200804074137466
  0.3330474430356798  0.5868542520203699  0.5852030472515838
  0.7520436906281253  0.8373164693149469  0.2532053089792407
  0.3333482930371438  0.0041511322986903  0.1715313224849396
  0.0822255124835346  0.5038094846364478  0.4191490006137482
  0.8325774158229531  0.0873107415269157  0.0869004165313313
  0.0827027525726938  0.6709286599067597  0.9202851580651903
  0.6649173027327800  0.9203731438091313  0.9190388410710375
  0.2494289527180082  0.7541649497644178  0.8345221046349592
 -0.0007960315656284  0.1699973624047477  0.6700725150954506
  0.2504884049021306  0.6706567416748463  0.9194819871354505
  0.4984510031361973  0.7523020052908337  0.9198593104801372
  0.1649827965933337  0.8347277858554707  0.1704353693605833
  0.2488875270197888  0.2519672239377032  0.5037002516083430
  0.1656459808427056  0.4180671363351006  0.0870765324624698
  0.9174221950675988  0.2523661960210096  0.8370362573965893
  0.5831867080320199  0.9211573522737477  0.6720410359945957
  0.3314872772122229  0.5864095934680207  0.4184530159775697
  0.8323199949835426  0.1679575927865943  0.3378269209137850
  0.8322042735484482  0.1695118739900850  0.1668543922816978
  0.2487059671176029  0.9204957074369975  0.0048969050392022
  0.5823476632003087  0.7528503985628362  0.3350371545953467
  0.9154834662209353  0.8355209599423310  0.5859792010139904
  0.3316560076451087  0.5850039989088895  0.2549582765703839
  0.3336485816967098  0.2509785989765290  0.0874686251482793
  0.0001775698311838  0.1712199942767371  0.1687349992403418
  0.2477718310740209  0.5032022817366896  0.9203465045989065
  0.0842079232459442  0.3351519841125500  0.9197476545632837
  0.6656367110883963  0.8372696915299892  0.8374091533600969
  0.1659488737223020  0.5032551607372309  0.6698275213725469
  0.1662839662767528  0.0042705823375473  0.1713125427867362
  0.8326109074365767  0.8374210613552181  0.5032013220395805
  0.2432770681566478  0.4227380395440922  0.6710878651665597
  0.1662727978017151  0.2535847052400123  0.4205368506365197
  0.3338026678564872  0.8372546760855591  0.8362577541566243
  0.4124623067942904  0.1700535597544303  0.4210406269666055
  0.4150329134152021  0.7537093234659404  0.8361726382549222
  0.0825701423473496  0.7533157765238929  0.3373474986730905
  0.2497898360864592  0.1702834530081062  0.9181902716163476
  0.2493011811466001  0.8376588854521938  0.0875483891122678
  0.4161027196652794  0.1689939768629369  0.0867220659208742
  0.1651029801795880  0.5871837148173709  0.7536746593643519
  0.4157610188368285  0.0021017034301513  0.4203660025713600
  0.1660777792835514  0.3378520496048376  0.8360209323865501
  0.3327622486416050  0.0025075274119913  0.3391200578608998
  0.6631520468213653  0.6681334019567119  0.8345924075823099
  0.4148842105329088  0.9210921010728269  0.0041591923109771
  0.4174709862285311  0.5006297502606147  0.0882943869352433
  0.1656512056643607  0.8367171538125008  0.5038964303737011
  0.4162451612612003  0.5869488736915138  0.0041868951053003
  0.4153278492374134  0.1700843573833734  0.9178893631431203
  0.2499077690050312  0.8361322898441222  0.7524762308003795
  0.3339658159744492  0.5868472849815347  0.7533042690236278
  0.2485420976326621  0.9194369597824810  0.6696928052832078
 -0.0013875363726402  0.8370448646653169  0.8357821313252853
  0.7475153556656249  0.7527784680500104  0.0034229970752468
  0.8314316521206696  0.7507434050162397  0.7527670578509225
  0.0821442788657832  0.5024051515024260  0.9223460183827669
  0.3327899845296590  0.7533778833534697  0.0868563071542603
  0.8333463961532716  0.3360431968330490  0.1687066781221317
  0.8313359599753244  0.9232066376592591  0.9199219862199065
  0.1675184501069224  0.9196955491590758  0.9198153491616727
  0.4151048421475657  0.4197389041763429  0.1701752333967609
  0.2482456827957439  0.3374993612947774  0.2536780297512889
  0.5834809926563239  0.5866913873259391  0.3348707248446860
  0.3342092887702929  0.3378121239279883  0.8349624609309196
  0.1660014624242135  0.6697794079392573  0.5031213100728104
  0.4186593265634589  0.4200442519848583  0.6680430172948587
  0.4162199599688196  0.4198046228453165  0.5009086848074952
  0.3328984913589723  0.0022581126159799  0.8361972437892822
  0.4998061490271734  0.3373508458929174  0.8354406354589735
  0.3326939006828061  0.9174997089284634  0.4198961478880029
  0.5849429705958999  0.4192820386503661  0.3370944784685090
  0.3323908122033362  0.9216776009172889  0.0871222675720195
  0.4158855981394146  0.4165727541397086  0.3381323291838418
  0.0009321500909218  0.6687128793481868  0.0025024248368964
  0.4171865379358554  0.1706354368527478  0.2539871886072240
  0.2483978919898644  0.4193135118975491  0.3356516073151348
  0.5845377948160256  0.3366176166385654  0.4208576973816519
  0.1664092161129034  0.5868479118605181  0.0867744259300999
  0.5010521882525260  0.3350688197270593  0.0045769610894931
 -0.0005151822081552  0.0029495290082753  0.1694100108987999
  0.5817642181461440  0.0868752998067076  0.8341979242851072
  0.8321460933315877  0.9212479277415568  0.0887435509419504
  0.9157336311460453  0.0046694541632564  0.7545283249740599
  0.3330842728491741  0.2535110264456925  0.5865920084492569
  0.9164486373862293  0.8360359903978128  0.7544356680181914
  0.1651390221118942  0.2541691725365232  0.7539320655457703
  0.9169802857061704  0.5871695138378534  0.5031234447903636
  0.2483368554391688  0.1700072786713813  0.2554945424354377
  0.6669061630478583  0.8377401103551343  0.5033244767681008
 -0.0010839667525996  0.1703021942648207  0.3375161540495091
  0.7491452438841822  0.5847055195385061  0.8372464330176000
 -0.0011499675571165  0.5882669128347469  0.0852172958351646
  0.9170636350924906  0.5865700438859278  0.8374287676154051
 -0.0005904531395752  0.5014271798254151  0.6696010540410486
 -0.0008976219101247  0.6683042151025381  0.5023974455136945
  0.0817730301881213  0.6695952182697591  0.7529747468957901
 -0.0006636447547805  0.5864701455803965  0.2532804151694784
  0.1650240353756232  0.0017220962996429  0.3393186363651558
 -0.0002894257515185  0.8388014527462052  0.0012709897521846
 -0.0017712592109361  0.8369245016633060  0.5050815899928467
  0.0836433312179814  0.9205746052986419  0.3378672821975059
  0.6650374745720202  0.6674133381203559  0.6707253773455607
  0.8351017274084688  0.5013286262328337  0.6703820679765801
  0.5840611283543463  0.4200761913853862  0.6684424337463516
  0.0809348567244996  0.3355059862383618  0.4190901781018504
  0.6665085700391864  0.0027825914616750  0.5042755384354380
  0.2489346603281236  0.5868775219774904  0.3355005578237708
  0.8320350523108567  0.0025168332677276  0.1688884655378870
  0.7484038780911857  0.3344544370175117  0.9211900633357918
  0.6643636247319616  0.1704333453618518  0.1700020013434810
  0.0796834545086391  0.3350557400332539  0.5861450124979536
  0.5814291569441412  0.2536764969567263  0.8350295375156583
  0.0821822901603045  0.1692652566328655  0.9201757333434815
 -0.0011664027201286  0.4187960057225414  0.2526416072030484
  0.8323790678763832  0.5030098290417784  0.1693046823316061
  0.7493248265520760  0.3355327861002558  0.7534959914960888
  0.7491719733688530  0.3356669183881556  0.5859332647189549
  0.7511248652954413  0.3362242478034257  0.4187227263137147
  0.6659138548335467  0.1701660083556450  0.6713062983185065
  0.8331606942485272  0.1708737340395746  0.6700542074545481
  0.7494811769439904  0.2540834565692944  0.0018294549783147
  0.7489435359700488  0.0044785124302235  0.7534346112039227
  0.6662706134144332  0.7534254331904169  0.5866163844982875
  0.5017567185173194  0.7541683936432981  0.5824290583390136
  0.4999295730475041  0.9219346078106518  0.2527461715841635
  0.5824552865277129  0.0858836953397865  0.0018695810486659
  0.5855821012663761  0.4180045287909718  0.5015919168180571
  0.5818720229371430  0.6694658971557016  0.7536410687369347
  0.4158915708852222  0.6697808855809718  0.4190054766206454
  0.5836160216121696  0.9209521952139822  0.5030523205565357
  0.5000576972296672  0.0859555715808142  0.5868021170236775
  0.5001628289415585  0.0042525041417530  0.3365000874971270
  0.8330713133408624  0.6720832663887658  0.3368262905455729
  0.4993156630569762  0.2534617246433575  0.5866699524960904
  0.6660637357180316  0.7533826908416422  0.4202979062407989
  0.5821869253651172  0.8370910169613888  0.0859597240653772
  0.6643019489091209  0.6686024723030545  0.0042254801329946
  0.7495517868021019  0.5037459887138839  0.9198172398123213
  0.6666257505238263  0.5869655753087195  0.0865461953510515
  0.5815280633547076  0.4176592809906867  0.8364071317413746
  0.5839419757734651  0.5879226684719370  0.6699330694395864
  0.9154625219503928  0.2518066631291619  0.6701380767104601
  0.5813985511302839  0.9227090813035570  0.3345774005986921
  0.5829358138618116  0.5861054380951276  0.5026884448118880
  0.0008497418578172  0.9204297962361652  0.9198058044363292
  0.7509304116917327  0.5041267216496994  0.5867931838033527
  0.3322090499661075  0.0883114333587373  0.0866381203030033
 -0.0007296098824864  0.0025004777742177  0.8373421547747221
  0.4997668923540001  0.5853676531278834  0.2535328729127940
  0.0821378246182191  0.9186261468435264  0.6716541498543863
  0.0815708023423172  0.5037717323092320  0.5859397145643978
  0.0817832334192613  0.0858529327469913  0.5044798280052435
  0.0014278741812686  0.6703465580554381  0.8369821524228842
  0.7497648189114940  0.3356658373435499  0.0861737001028855
  0.1648178599524783  0.9193040161704239  0.4207642960948755
  0.5836337933162409  0.4200382021983122  0.0044312088610236
  0.1640820572761354  0.0853344697655095  0.4202669873971627
  0.2497006829936348  0.0854665390539370  0.5046156407930710
  0.1659168123326780  0.2514790798905594  0.5856720282959867
  0.1693443024687507  0.8370420616010750  0.0033763508735853
  0.9163725108881127  0.4187630383903891  0.6697701889063924
  0.4148728988352626  0.2512401127675170  0.6673572605264151
  0.5848457185097297  0.4191843126482664  0.1703265984435643
  0.0005514339041934  0.5029451463352664  0.0040647619498172
  0.8337521365725700  0.9214662544135083  0.4186419770304332
  0.9172284640367362  0.7537024778259425  0.1691903309321899
  0.7481133174657451  0.8363637827231486  0.0863843533469397
  0.4156602572308639  0.4175663812523734  0.8364433251985585
  0.8322536303437600  0.6709513340824070  0.5022366286235705
  0.0818677731790115  0.2516244167053277  0.1699949325685616
  0.9142344979236930  0.7526931639146984  0.3371155054892254
  0.2497547492526854  0.1691108074578683  0.0870133982447947
  0.7500787427744193  0.5025813168230371  0.7536101635606643
  0.0826543679123540  0.2533581265274735  0.3383096190493395
  0.8309894578587217  0.6706161863002800  0.6709686359305395
  0.0839955778129219  0.3356671934939043  0.7539985896998070
  0.9157323386103103  0.4200122183391308  0.5024003092065460
  0.9172351306860584  0.4201243130550704  0.8375014869259868
  0.8324195326223701  0.5019051298069964  0.0021441217518918
  0.9159715477291142  0.0029760886208787  0.4201431473180666
  0.8317450104245552  0.5035155579546826  0.3369230759765285
 -0.0005687905046394  0.8344745308846406  0.1707583252595552
  0.7498345509353540  0.7526204517160794  0.6695768355431079
 -0.0003643340461510  0.1695742829429107  0.8371746406547241
  0.0825781121341509  0.4204814201439159  0.1684738267398652
  0.0807072943186289  0.0873180511535375  0.6703642336269394
  0.3309455306830779  0.0844719253846758  0.5859730481874307
  0.3325428948398798  0.3359849703090438  0.0054056640810182
  0.4162105441079669  0.3384341258131763  0.4214094974927843
  0.2496774001565003  0.7532684109180664  0.3371228515780145
  0.0828849435705318  0.8363941052022410  0.7521218561395696
  0.7487275662277969  0.7535413399265899  0.5027289146176784
  0.2484462270972112  0.4208487890716888  0.5028729306475909
  0.1652251372172405  0.4204705374974025  0.7540457296552433
 -0.0013671646802595  0.5874527206927403  0.4208939964725529
  0.0001098341464655  0.3356837175274779  0.3385379174626443
  0.8304273037813084  0.6725627747132192  0.0026698819708038
  0.5824757946212682  0.8369059729805509  0.7538425127393663
  0.8315925087898195  0.3368667446853159  0.3376397606279603
  0.0822032204846059  0.7541074375302566  0.1685506393144915
  0.8313770113832414  0.1677911939462683  0.5043027365629970
  0.8338236861595993  0.6718313661848289  0.1705532832409843
  0.6662426926871067  0.2522401843099878  0.2524378925968555
  0.1662108064975736  0.3350092265375005  0.0037916775956938
  0.7491374182350117  0.1699796821518621  0.0854507299760412
  0.9159836278947556  0.5034224980843163  0.9206748295112093
  0.5843710457091084  0.2517933199955304  0.1716318344958267
 -0.0003996392610436 -0.0009072889173469  0.0005625676841545
  0.7490769070460608  0.0866969051579027  0.5044520048351465
  0.9160518695045564  0.9212912286943823  0.3379637787324348
  0.7509639246782196  0.0881796158211666  0.3359524430612656
  0.0816067195306982  0.1705695560969281  0.0883314941571910
  0.5877296314185587  0.1691699443933468  0.4207814200289332
  0.4161411508664172  0.8377330765487131  0.1700699336736125
  0.8326425436693191  0.8347873070321046  0.9188892394084608
  0.5001542066545879  0.1699657656887820  0.4214717084772406
  0.3360840435003790  0.5011948754806164  0.9184690238502217
  0.1683474112667924  0.3395145439321196  0.5860041660296743
  1.0002621721251133  0.0898140673442692  0.0029302217691612
  0.3310255517580577  0.4213173372054991  0.6692460317472391
  0.6625212877371116  0.8378179282412253  0.2521181649212546
  0.4983292526949747  0.7528984463419007  0.6731426417214658
  0.8326570461522991  0.3365054374930950  0.0024820407163346
 -0.0004032961101967  0.4196058529727523  0.0868633071016287
  0.7500908714684144  0.8374316705437385  0.5874334193305655
  0.7496909785759126  0.5869913639489498  0.0035526160032696
  0.1644391006873288  0.4186851708454575  0.2524528554063339
  0.9156975329533806  0.4201426145399862  0.3364236123053206
  0.7508807747281090  0.5864733581166280  0.5028429381065210
  0.8328924970627762  0.5020931367122631  0.8371907147031066
  0.7495046662199563  0.6685029064577466  0.5863528296814741
  0.7488498805982861  0.2543880186164999  0.8367349908591143
  0.6657279844419163  0.4189717575696086  0.9198434915266908
 -0.0007684941389614  0.2530230550090780  0.7534611714497766
  0.4993204432822580  0.5852176223847110  0.7538592159872981
  0.6649014963671891  0.7526145010256420  0.9195175516711938
  0.6645929263681042  0.5853508083197602  0.9202184059392080
  0.7479596036451407  0.6677525722412042  0.7542593686593744
  0.6663696751226816  0.7528354508629224  0.7529419680712514
  0.0822050446625579  0.4195576502139955  0.6694113414842777
  0.1656776731980748  0.1689138291944520  0.5039974300340436
  0.4999197900635558  0.6693930315374286  0.5022748760579336
  0.5818011227600595  0.5023103855670550  0.9197752919378702
  0.0827282936314689  0.6695602933701702  0.5857278740257695
  0.0817075707933489  0.4197590476874086  0.3359890792517462
  0.4153079293902651  0.8369687911942431  0.0857196633909668
  0.0823204602211011  0.5038690024005282  0.2526913104712014
 -0.0010985432147145  0.7529402328350440  0.5866214748710010
  0.6687921023924588  0.4210248692158857  0.4188203474757551
  0.8325911862465041  0.6684373068749184  0.8365044100892332
  0.7496064053219097  0.6698236875984314  0.0870253108298222
  0.6663966462262543  0.5028651236449415  0.5024935000343496
  0.8328056044348709  0.3363394890035043  0.8371213433814708
  0.8328916480226505  0.5870304093472440  0.2526775629644822
  0.6640087840827907  0.2537040747403420  0.9195683499896373
  0.6659577912041237  0.4194105287640982  0.7527998503421545
  0.7497604197046084  0.5036709470528745  0.0866159695175822
  0.4996523564997882  0.5021256896360922  0.3363436891445202
  0.6655828322059429  0.6691164912889119  0.1701611694444718
  0.5828411810115068  0.7525758790739496  0.0037431157347863
  0.7485747464671232  0.7518016614705744  0.8368982659076708
  0.5012834198694027  0.7530544046402746  0.4190958871979791
  0.4149716264142675  0.7525832261589874  0.6678947945002534
 -0.0005065089811744  0.7534928744844447  0.2540125862699427
  0.4157501465346009  0.8369100799052963  0.9209228709605586
  0.5829549629972078  0.6688163004920008  0.5856342757879257
  0.6658266743697514  0.6696917040420893  0.5030054912654239
  0.5843884625414183  0.7529349377673126  0.6698077381547695
  0.4995951337678269  0.5021774318779832  0.0042900904141569
  0.5819756628880720  0.6689872298194441  0.0872030115592411
  0.0828380103726904  0.6700963421466848  0.4197849210911009
  0.5831792445067369  0.5023660196804425  0.2534088306070150
  0.6659999841960788  0.5030697467253097  0.0033814333060972
  0.5000201031763005  0.5856738746209583  0.4189511083832527
  0.4980911714535781  0.8371082746229104  0.8367491395367984
  0.5008707664352604  0.4201727423465659  0.4196865688376347
  0.4164189181018070  0.6689637633159710  0.7532328477936284
  0.6659943785173853  0.9206127882076345  0.0866815421627447
  0.5839037840968663  0.0864240688863649  0.5042432044516045
  0.6651476283492943  0.0870804871385510  0.0858951317087722
  0.7496202655477335  0.0041235964964345  0.2525516208688844
  0.7504422378656485  0.1695146074516421  0.2513867081333295
  0.6664949408522275  0.8373725454594583  0.6714305395137495
  0.6665395870199258  0.0038161271697730  0.3365563618149996
  0.6655103468076535  0.8370122431118607  0.1680035447628947
 -0.0004239522565000  0.5859059751325942  0.7538035714676958
  0.7493976397743077  0.0867981741926453  0.0030922641436956
  0.8330720599596674  0.9206798114492514  0.5876555129336966
  0.4155461505990920  0.0025562277993901  0.9201132382202077
  0.0002379098626080  0.5860657645706184  0.9210918355862975
  0.6666920503052421  0.0871123312415092  0.2527962240866944
  0.5820717511227806  0.9197437546356070  0.8363276834066078
  0.7496515022593960  0.0035482470705530  0.4198739483771669
  0.5826291419818052  0.0036933370733521  0.0857694569582078
  0.0848929818382535  0.9200249622679697  0.0034286259892106
  0.6665027017174805  0.5855351386075903  0.5860141340149180
  0.5833471301723586  0.0868059128480373  0.3371398511364024
  0.5827320763432007  0.0871086354909615  0.1695496804762190
  0.4988386295216636  0.9202411913730607  0.7532215082894718
  0.9164342043201671  0.7531225122709990  0.0029296673014595
  0.7502728723104730  0.4198958014643548  0.5028574217153208
  0.6662556219160305  0.9211105839000854  0.4193111534427267
  0.8328095452390745  0.0875917387233564  0.7534287358055438
  0.0826724144502153  0.5863183029227181  0.8374095520379683
  0.0824601191277884  0.4207791907166870  0.8380407549916605
  0.1661222476093988  0.5868655084430239  0.9197599825227112
  0.5003438836383461  0.8371196346663510  0.3360824581328750
  0.8332243840401896  0.0034324997228152  0.6712072649203730
  0.5827322488585417  0.8381123293163956  0.4188578925631698
  0.6670161862362272  0.9204060385487697  0.5882657126987274
  0.4177359888474045  0.8359455941310664  0.4189075871735696
  0.6648282272751811  0.1706178080344468  0.8364511211312652
  0.5841069183931834  0.8388565740618675  0.5878427578793430
 -0.0001020245314507  0.6704289215501233  0.1700953775127050
  0.7490873148761465  0.4191177628138084  0.0030218198229240
  0.5819753882795830  0.6695926536335289  0.9201932560648778
  0.0836169918049471  0.8371816854483006  0.9200691674858829
  0.0819648890179565  0.8355021795445605  0.4203447955223831
  0.2480994652882700  0.0032595664571756  0.2545710994351461
  0.6651709526966201  0.0034385489092581  0.0020590158489001
  0.4993472413089081  0.0871592027086491  0.2541666739595348
  0.5836640439769339  0.0056438361250748  0.2522581830207130
  0.4997101138724355  0.0871061733351003  0.0855864169977550
  0.6665792735263669  0.5832374948883510  0.7528505637589168
  0.5004649130053014  0.9203236864228402  0.4194355505009529
  0.7501311628965754  0.4197040481082819  0.6697063791339051
  0.4164650286629105  0.0029023865993217  0.5865130567384425
  0.4991839693493430  0.7538799338404377  0.7553093638376084
  0.4991869237838829  0.1697852510702293  0.5049145221479989
  0.6652511272350136  0.5017864404192119  0.8365377705224304
  0.5001074298694290  0.9202073180773956  0.5866922556784642
  0.5815789509721117  0.5860388266239889  0.0037047714216944
  0.4995927512645085  0.6677596785937182  0.6692077555321861
  0.8326103263752287  0.1708403860845902  0.8375137201500893
 -0.0011536732704260  0.5869101620069134  0.5866659615563722
 -0.0009132205844066  0.5031972232154288  0.5031110821412784
  0.6656927908046510  0.0873716436772203  0.7534342184116889
  0.6654697059365877  0.2533066448873662  0.0861959856407103
  0.8335095998397191  0.9203540989223838  0.7533802552929632
  0.7502698878133109  0.2527365273308537  0.1691049971697445
  0.9164356936601591  0.5029170091847848  0.5868080270287462
 -0.0002511482479651  0.5033605751968944  0.3358840191982630
  0.9164941977620917  0.3356483204358418  0.7538291765525671
  0.8325282022149249  0.2523137755910585  0.4203382214657844
  0.0825566457770123  0.5866323864194383  0.3361071507763732
 -0.0004296616978271  0.0856903277184518  0.9183755949588447
  0.1655610478845802  0.5034974239219512  0.5020840314467044
  0.7486961141621524  0.9206930726282996  0.0030847144070542
  0.6671734596275438  0.1696731401576090  0.3362009750165756
 -0.0010067584787491  0.0866657930603661  0.7536067709101191
  0.6677583093693062  0.2531155457200706  0.4199696377892281
  0.9175381487879377  0.6691700387448406  0.9204134508484673
  0.9164290676623610  0.5025616536688849  0.7541625167502515
 -0.0013411726196849  0.0031886848113440  0.6705567582641332
  0.8333866640660654  0.7537638262252848  0.2529869890157567
  0.1654321182326555  0.0857070612522841  0.5868916573866492
  0.1660807349416959  0.9199058245089966  0.7531076134932119
 -0.0007755362699616  0.1686354990548320  0.5036520099502056
  0.8330519487721284  0.5033189223766222  0.5030509915103999
  0.9158470005749327  0.6706195578289288  0.0862471903833125
 -0.0007537685992695  0.3359377047896505  0.6699117442673163
  0.8329517483114967  0.5867522533418175  0.0864404125906625
  0.9156186725699482  0.5866240468769571  0.0032577832198974
  0.0821148265376899  0.5867630210992849  0.6694172119848194
  0.7465980694602761  0.6679057045966843  0.9192505002615307
  0.9159978112018216  0.5867097821281828  0.3358309753293944
  0.8313092689279995  0.8368006654742512  0.0040487848414595
  0.8332500039658777  0.4188073877276944  0.7542203614022328
  0.8327374256819081  0.5869293737211180  0.9203501437187782
 -0.0012554294524195  0.4194853831354567  0.5859047431804096
  0.4996485851286295  0.0853303404852296  0.4207741159364868
  0.8321029124806286  0.0038721687369661  0.8364022215397215
  0.8323424368235722  0.0032271121856363  0.5039955614216276
  0.9144037867918451  0.2526902064858320  0.5035277827757412
  0.8323286484143240  0.0862732333125027  0.5881173039997185
  0.9152565004392931  0.0862123775849389  0.5038357973885811
  0.9159059608003137  0.0873971753719551  0.6704844287210977
 -0.0009988235139216  0.3364913987777998  0.5027665470018197
  0.9157061052431444  0.9201162705089322  0.6704755218832658
  0.9146310830378356  0.1694074084229586  0.4207152676321333
  0.7494572105968332  0.0870008532976164  0.8364874068644567
 -0.0026093871521524  0.2518224017519885  0.4209373639087529
  0.0815433867384400  0.0863549982780553  0.3377152949023328
  0.0806487439088258  0.0031152136018938  0.4217033852907215
  0.9161151740470613  0.6705777457274187  0.4191097410133346
  0.8327417478322152  0.0044785414778737  0.3351011569865676
  0.9149771272327490  0.9207674476143706  0.0029013525797019
  0.8329123082399104  0.8364736241999259  0.6706878782563942
  0.8321690218811081  0.7527099388773878  0.5864392561601858
  0.9165766778063698  0.5861597814753990  0.6702104715334859
 -0.0001031750219626  0.0860565966322286  0.0877557066136365
  0.8317769625052233  0.3366904266303986  0.5033010529840873
  0.8326413173698786  0.0852090438657077  0.4205441047301326
  0.9161893318843710  0.1697635853760067  0.7539325182459038
  0.1665626649494271  0.1702526846057132  0.8363671697666384
  0.6651931318471171  0.8372022827915997  0.3367771017490584
  0.5834407643912835  0.0036337628612152  0.4202507766486035
  0.9155237242955044  0.1692473229649521  0.5869362625591795
  0.7501551206062287  0.9206449222303986  0.3351919539045222
  0.8315361830475848  0.0033569927445247  0.0031953148016421
  0.4166314220429831  0.8366709489142579  0.5860463597588824
  0.9153862275288923  0.7523973862582302  0.5030832504663060
  0.0822222890029240  0.1696138268765661  0.5865247153219826
  0.6661008283931360  0.0035517042648732  0.6715494635048332
  0.6660078760754607  0.9204556621477067  0.7545626453405521
  0.5817026314983873  0.7529061395044502  0.1699795238574509
  0.7492680568912510  0.0030248518764012  0.5878397409910684
  0.4992440188626703  0.9195343460207059  0.9210824375239047
  0.1652235253550437  0.3370209704502648  0.3364246768780915
  0.0827268822426862  0.0863047534288409  0.1700506390661944
  0.0832659531910223  0.0865801194009451  0.8365063002959862
  0.9158140824622411  0.0864187121382017  0.8372809195160936
 -0.0000064427556862  0.3361566178334224  0.8370348814730939
  0.9165564781479248  0.3362031098273200  0.9194766305836221
  0.0000801095141971  0.5042180415678210  0.1697549169050356
  0.9161150409306152  0.4206050590473109  0.0029806551080577
  0.9159846242940706  0.5038268237197099  0.2525231289125882
 -0.0004108581170291  0.4195245656386009  0.9205545096083534
  0.7499897032993602  0.5868190603811075  0.3352565456129828
 -0.0015186489920782  0.0860845950860755  0.5874110664834921
  0.9160300695574012  0.5035825313532700  0.0865969440726708
  0.9158979679475368  0.5037392037561464  0.4189968494407784
  0.8338329870874913  0.5875547039694916  0.4195137103830774
  0.0829097392642499  0.7540310897412609  0.0027722025147372
  0.9166755991216652  0.6701638128048368  0.2528242593641896
  0.8334725508214887  0.5861336748808691  0.5873148124868590
  0.7489310431940032  0.8384756379188436  0.4181359611200069
  0.8336430856058022  0.9205323289742435  0.2528613072739271
 -0.0015726375633760  0.9197081326486007  0.5880002728077708
  0.9150807871628258  0.0030542630339930  0.9197919675928453
  0.8330670347080379  0.2534556982473793  0.7534856131722943
  0.1657970784348161  0.0871780158114666  0.0876322544579557
  0.0822282708779375  0.1699666756586418  0.7531345659440488
  0.8332377715166591  0.2532464779932990  0.0851434702574233
  0.7508873933539609  0.4200289052553339  0.1697981693080199
  0.9160336030913000  0.3366982219010072  0.0868663476630193
 -0.0016573267047618  0.2544865527904102  0.0856971398244995
 -0.0016952072364989  0.2529245109789244  0.5863423453746859
  0.9163925690376598  0.1701533846727685  0.9199678755947843
  0.9152547955778972  0.2525146172987800  0.3367828951891890
  0.9155850081152694  0.4205952575340385  0.1698886053915196