Cr H  Ni
 1.0000000000000000
    20.9851216732985861    0.0000000000000000    0.0000000000000000
     0.0000000000000000   20.9851216732985861    0.0000000000000000
     0.0000000000000000    0.0000000000000000   20.9851216732985861
 Cr  H   Ni 
 259   9 605
Direct
 -0.0020797076241134  0.0030903913003323  0.0037791480243344
  0.8313247478818763  0.3361878597576929  0.3367755195835236
  0.3314496156425110  0.5892691762042956  0.9185241519939155
  0.7508414903745968  0.7529993180104999  0.8353328063975409
  0.7486192842642233  0.0841595812784514  0.1664128842835041
  0.7490207725646688  0.0027994853202441  0.0867441030098500
  0.6647440460885571  0.8356562334561691  0.3386044648055035
  0.5000061696749813  0.8365513035661019  0.0036203562731253
  0.5824669669095301  0.7517196079775582  0.8360659054723579
  0.5842443954261064  0.5863090456252308  0.8363286163219635
  0.5825263940336098  0.7525549812453044  0.5041724869315803
  0.5828428548362556  0.0032648666055410  0.5853930047284026
  0.7484457483374117  0.1696741827641148  0.9186632589386990
  0.5827561200250386  0.7539769787898239  0.3375042585628725
  0.7496402755050611  0.3368526858055443  0.9192367840517517
  0.7498348482145752  0.7528175860124806  0.0018116542968610
  0.6648643259121396  0.5870580037220879  0.2540371959918599
  0.5019750791544378  0.9208150260849847  0.7541994891394089
  0.6671116260624951  0.9194002229894056  0.9183393240068753
  0.7494815934809047  0.6706863714276856  0.5873072439727974
  0.4998967280109850  0.8355186625359345  0.1689435247434452
  0.6655068902640888  0.5871209000884913  0.0857730736451519
  0.6660880670585985  0.8361188019812680  0.1695098055206494
  0.6651551712246331  0.5854704443078274  0.9187193985377763
 -0.0008360535825802  0.5042259312589819  0.6691647635322107
  0.7496644506082312  0.4203233485444130  0.6687791909727958
  0.0834789616968530  0.6723437759099699  0.5859821655292388
  0.5840813841779433  0.5848872890741934  0.6689629005674091
 -0.0017100333593805  0.5038617156006759  0.8353238077697142
  0.7480639968480132  0.5009170578533343  0.4205821978729927
 -0.0015530936624240  0.7539925913611450  0.7533435556352128
 -0.0008998160408870  0.0025286249709463  0.5034535840167604
  0.0810904988883676  0.0020281402439429  0.2516370004316604
  0.9161856655370736  0.7539674682614711  0.3364602507166478
  0.2496166151559078  0.0844636297690687  0.1691946665225996
  0.8333343554152491  0.5856213924090411  0.7526508217263005
  0.1661498135100212  0.2525990594522386  0.0854195894810172
  0.9177877670935369  0.5024874976816835  0.4194162651575664
  0.9160994764658422  0.9208598771084947  0.6697307573683475
  0.9170953687014843  0.4212389637838797  0.0034915006018827
  0.9159854353429299  0.0865436850774976  0.3369246380599012
  0.7490340025350604  0.7542973736572675  0.1698458878225265
  0.5834833674505985  0.3358460442516011  0.7538797969884217
  0.4993285282684504  0.9186547420858422  0.0863819205917641
  0.8335099506386668  0.2531842740958006  0.7528842447351730
  0.7513927288972575  0.7525906777581287  0.6708635327909537
  0.1662071958152344  0.3358840673061936  0.5026513259814966
  0.0817668351712149  0.3371043742164476  0.0865183792717611
  0.5001137198050256  0.1700811475586551  0.1712960510852924
  0.8313642632754564  0.7534232252884436  0.2533299362691164
  0.4987201285496394  0.1706719764069798  0.3338537038437410
  0.2498952285998772  0.8366673349653645  0.2539859965472626
  0.7495918034159892  0.0041649231666599  0.7534451540729188
  0.9160611134166624  0.6724287295386534  0.4172878171231483
  0.5842236726165237  0.9204886951991164  0.5043719072868718
 -0.0001036694415418  0.8382132218137246  0.5052287324333361
  0.9175393592091854  0.5019968319545693  0.5869258844596666
  0.9157118896095352  0.9190871005447350  0.3379913214207528
  0.7490558796333936  0.9187380046109761  0.1703971885670683
  0.1644776673700508  0.7535963830513850  0.7520702491664030
  0.6669213335474514  0.3373983219018692  0.8371621440920278
  0.1658407178562697  0.7526463459546039  0.0889640623373009
 -0.0015167647426889  0.3344966678419898  0.6699772506588931
  0.3328257964942199  0.1691765113270603  0.3343803172385187
 -0.0029209332871685  0.5854931056888499  0.7519167643708734
  0.7498291609562399  0.1722525720128838  0.2531428813638810
  0.9173083853728299  0.4200689092009818  0.8364700863311394
  0.0824206831768157  0.8353292659883921  0.2544524840507337
  0.9166960792007696  0.8356091406628535  0.0861585232216223
  0.5831495181818017  0.1690088266623020  0.2513130506564598
  0.1648511733563592  0.2526015975516470  0.7530139641566387
  0.0824540180278887  0.7523080486031802  0.0025108821567846
  0.6671964731650176  0.5035256291498361  0.6689272953313500
  0.1683423981808775  0.5035549546069967  0.1694206933481808
  0.0832794080355833  0.5045855545924707  0.2547694507219576
  0.8308595062591144  0.6713487864582652  0.1697881496385189
  0.1664602684639291  0.1701223922595551  0.0033947042237475
  0.1652565194312323  0.0868239664556105  0.4195324290314554
  0.4995658872796834  0.3374472237933509  0.0031312481340872
 -0.0025544516482376  0.0047298691727897  0.8372105438695979
  0.5824487973285124  0.5037542360833239  0.0867482047021012
  0.8315375255742329  0.8359013678837514  0.1697972429911375
 -0.0014788782174410  0.5039432390778985  0.5027515721474943
 -0.0007047814098530  0.6688215241409292  0.1716991614174941
  0.0814164311606175  0.3374539243329172  0.9205444795804134
  0.9157018886071608  0.6688173000024755  0.9198485298982658
 -0.0002164026158114  0.5044532151016209  0.0026011558074112
  0.9163159739659944  0.6715434144162182  0.5865039923830248
  0.0821387113334270  0.1662387771518884  0.2526918558780024
 -0.0004357892559667  0.6701590901884775  0.3369302097468324
  0.0836548382010205  0.4194089826157615  0.5031303659186872
  0.0005114244491514  0.3356641092917781  0.5034472437747028
  0.0006912469478328  0.5060692695265478  0.3353308611050299
  0.0006933962701961  0.5051067662494124  0.1722292376741636
  0.9163305570474750  0.5020388625873726  0.7518643288248417
  0.0813209172191201  0.1693651472745639  0.5861655725608498
  0.8334422616814594  0.5889403021710281  0.0867479690203018
  0.1665784426978670  0.9184180497364182  0.7541846282520686
 -0.0024740337458974  0.3343954383176199  0.3344318066840227
  0.6658920586932657  0.2542275479713695  0.0868095715661482
  0.8334450128660568  0.4201916393162855  0.0863727230698378
  0.6636733411056710  0.2549177772931201  0.4202018847201168
  0.0835084715136251  0.1689830374686982  0.4208119658519493
  0.6664609729345673  0.1706751128773919  0.6704348385889415
  0.8339094557638849  0.0869992471780773  0.4185854833827369
  0.6655255294462330  0.0868740560684787  0.4190989017555370
  0.6658595595097941  0.0037960591715698  0.3387259322447266
 -0.0000111117803326  0.0030158242810884  0.1713925411959533
  0.0836047623409528  0.7535269957012720  0.3368895775643235
  0.8330760962567659  0.9176067898303250  0.4186597219040172
  0.1672264251261266  0.9198504537211291  0.4194414863796631
  0.2500950644369827  0.3365104839722195  0.5860367844636784
  0.2498145406068506  0.0030233673917843  0.5867297662249168
 -0.0015319780807954  0.8376098604772706  0.6690635786367084
  0.2500961690224462  0.1691522276430481  0.5878679247010995
  0.3311156492909094  0.8344965894261207  0.0018204801697924
  0.2497392198818138  0.1688748692249762  0.7544936084344805
  0.3334617769341153  0.1684581124342733  0.5023429087825916
 -0.0013592152410031  0.2532095874460260  0.2527500255714416
  0.2486781215781015  0.0848830990087920  0.3348596009191520
  0.5000271066249421  0.9197876247359849  0.2534135265102512
  0.1670531448867696  0.9209678384977817  0.5867461061905660
  0.9153702202033126  0.6683658327778290  0.0873012932078894
  0.2490740782404458  0.0889344529546456  0.6710263714416009
  0.6660937390872379  0.5041717399564075  0.8375048358230981
 -0.0013187732966629  0.0029588343766987  0.6690439425907340
  0.8319124281462195  0.5867245285738892  0.2532331719660416
  0.8322464245316412  0.4192760141835576  0.2538605568422692
  0.8327328095035196  0.7535894363973938  0.4200392689829184
  0.9167696597037723  0.0871941004862434  0.8375301844232333
  0.8315514068322887  0.7530842048797888  0.7541664342504720
  0.4169961026372323  0.6687290264588579  0.0872226943121368
  0.4165357520889266  0.1699858731490630  0.2519181011571725
  0.1657677780864738  0.4183532543103946  0.7521317423537833
  0.5007015376561996  0.1704598793387712  0.0042460854203830
  0.4160105769796242  0.6705718653942376  0.5860603897703591
  0.4163165877433283  0.0024709798700355  0.2527588910135657
  0.2494969137404420  0.8356030751601831  0.9197486132042584
  0.5007216080557680  0.4191540469143480  0.7536554742474473
 -0.0013755351892066  0.8353882135460051  0.0021640829275368
  0.5819498905712324  0.4189103442659313  0.0033732400896449
  0.1666686273453286  0.5875358091093063  0.4207754521341053
  0.6672435667987595  0.3369172079316106  0.6697046399828362
  0.4155876983292286  0.5870152535433676  0.6706664915847103
  0.5837799295815563  0.3355084449955021  0.4209368569177390
  0.7499848295148778  0.4195163375959879  0.8368232178485171
  0.8337519917615352  0.2532434354849109  0.5865692132654708
  0.1664850215381078  0.5049925220931287  0.6701205396561235
 -0.0011553377725320  0.1698238100526510  0.0038688698198357
  0.0838844867422947  0.7539015833813756  0.5042965036368300
  0.0824301636797044  0.1703641659591957  0.7535790110348184
  0.3344040483952376  0.7520211343382268  0.2542523451615215
  0.8323292327201001  0.2543970800249176  0.4202495220555034
  0.4145396215668649  0.5865198237279127  0.5028485681620413
 -0.0017524663355217  0.3370205401034717  0.0027862009462858
  0.4165389729016684  0.4210178156796057  0.0023326041380969
  0.8327894001315086  0.2532471190766041  0.0855725904804629
  0.1653822601766181  0.9188382311615801  0.0871676479370230
  0.9162546132061022  0.0866286016122233  0.6690513064377820
  0.2484139254601055  0.6707384368160877  0.9188140146269074
  0.5828737428110334  0.2518427394259847  0.5031825205505881
  0.7505782142594549  0.0038890105696121  0.5856798724585669
  0.5831123631163837  0.7540382610796824  0.1702081965844618
  0.8334441470841640  0.0860266895932399  0.0867116020596593
  0.5830784865206929  0.6695805279505799  0.5871631574766782
  0.1645346672779545  0.5853142157813946  0.7516399280953301
  0.2501138362564274  0.6711079626107026  0.5861934226837191
  0.3331187301513507  0.6700699548474288  0.5032820515954384
  0.4989677918585708  0.1701108932632596  0.6705941420340172
  0.4181351311048617  0.0869383592536764  0.1692022136255094
  0.4987642268881526  0.9193899939009751  0.4207783032653003
  0.4164340859455030  0.0867913005244222  0.5021956105052180
  0.2500581542874298  0.0014681204726521  0.2521800580166090
  0.1679847693357990  0.6721065655595949  0.1675650145382017
  0.1656918284128595  0.9204326839151253  0.9209225925124054
  0.4157968114134084  0.6709622485469265  0.2551166343577604
  0.5009186907430223  0.5872927722488117  0.9194148634515732
  0.5036821090154886  0.7516763534091244  0.7534367525922969
  0.4150992614650560  0.6705001391661317  0.4201664540466640
  0.5826973242763555  0.5874830204260592  0.5040004012014850
  0.6665995192827071  0.4209812544877174  0.4208785997179557
  0.3326355301502257  0.6716536302012940  0.3373205861093549
  0.2486246579366417  0.6692541453153618  0.0869998701307495
  0.3334235362705802  0.4193614985582330  0.7536004504885999
  0.3332162095484901  0.5870749864500703  0.7523607272159691
  0.4998000321290071  0.4191463132961314  0.5867183554077553
  0.3330125190463596  0.5042095754597861  0.5022311818180263
  0.5006907390920150  0.6688142899391445  0.8360272190319649
  0.4166096353310817  0.2519286189784326  0.5030509495333484
  0.4148238765208728  0.4204340471615214  0.1701418067794344
  0.3325426037724407  0.2530902776266755  0.0863056383335689
  0.5010324089485436  0.0019751091948479  0.0038207182302018
  0.4168232814096113  0.0869286205608423  0.8414736283621272
  0.3354152818609436  0.9210013072207006  0.7528155830770040
  0.4158943316886204  0.2537022641268198  0.6711100772613696
  0.3317204085056524  0.7521853834796688  0.9206949137362024
  0.3330407044434522  0.8381842419166601  0.5038973504532365
  0.2485674828708301  0.4203615847015364  0.3377504199707628
  0.2492527357163463  0.9193391656508747  0.1694031205811517
  0.4140271608216106  0.3370995420191942  0.2510342959274960
  0.0819665270070799  0.5866730559860603  0.0031238846587533
  0.2494837649369426  0.3378521218227015  0.9202143998678235
  0.5814935923565896  0.3378637814570066  0.9215117781957071
  0.7496814520860964  0.6699911869208186  0.4193316711579748
  0.5008057573511500  0.5059527515648686  0.3362126401216624
 -0.0016204911813534  0.9201183259983874  0.5879687268164899
  0.9177710333364466  0.0037016432853596  0.9192848140303311
  0.7494508389300736  0.0886606514192199  0.8378007510328669
 -0.0010632212438656  0.8350340951206484  0.8362664298342311
  0.9145295463335781  0.1708218575006996  0.2530908471060744
  0.8307326765644617  0.9207806379285719  0.5855336684503351
  0.9153661083394465  0.0029428456669678  0.0858115354889452
  0.6668444119960022  0.8365839048186237  0.6696925166529815
  0.6672184571825830  0.0864127154194195  0.0869853545742098
  0.7507559039952144  0.4206333412402665  0.5027260199152823
  0.5824028811805729  0.9199100461909960  0.8362877517577761
  0.1658845848293325  0.4196035498534624  0.4210432446234433
  0.7504397239790987  0.4203283648544226  0.0035097720482016
  0.4979588059988485  0.5879387075567060  0.0872036130114232
  0.0001773970956345  0.3358427698773679  0.1704313102028472
  0.9178353416219734  0.3368304986269518  0.9199333385213230
  0.9162536581458849  0.8361092641711144  0.9187558087846642
  0.3318861477521839  0.5027484576329160  0.3368609975369328
  0.2497438028893534  0.2519565894995942  0.3357972608788673
  0.3328330028771920  0.0022451968997014  0.0042928707743436
  0.3326650455821597  0.3357331737837465  0.5044134686759899
  0.5831103854441581  0.4195725102629805  0.1708492461975167
  0.3332882480973905  0.8373903596557003  0.6715820860574354
  0.3337896172257451  0.3349759524741130  0.6715256566925492
  0.3352906932899111  0.2527158125474955  0.9203872018265051
  0.4159796649733732  0.2524397746593824  0.8378670584378056
  0.4164263298786960  0.9225302881972013  0.8360108625303364
  0.4165158859339627  0.0029258619081120  0.5859092274658565
  0.4997369064923178  0.4194177414143395  0.4218484136875055
  0.4986002977962463  0.5864315935665789  0.2548260620129809
  0.0005586970559810  0.5869171126090567  0.2528478027109198
  0.1662339019915959  0.5858350868177649  0.9202311567713888
  0.3332021262687160  0.7527283343940218  0.7531772069690460
 -0.0007059079594181  0.3368226025744748  0.8367829893238730
  0.0825997299354348  0.3386322576945272  0.2495516280128622
  0.3325872845580177  0.6699687951052562  0.8362563736909339
  0.3319119435049050  0.5021261462615176  0.1690774982162722
  0.4163992933406039  0.9183948268190621  0.6716606514682364
  0.2491048728105255  0.4196151402666605  0.0011547654674494
  0.2468214936864639  0.5022052398273014  0.5872845754427317
  0.4157931766104692  0.2528287400396247  0.3337245936941755
  0.5840448999124686  0.3384253495403009  0.2510106176961431
  0.1629500391943607  0.0868199251438749  0.9217939529002358
  0.6647236811728026  0.2548028087438356  0.7532956136134851
  0.6666739386187583  0.0868804522445985  0.9191443020739590
  0.5819383508702051  0.3370853134991600  0.5867140217788013
  0.0002269934644076  0.0859737518365302  0.4208033761830205
  0.4984671378735773  0.1699024255157559  0.5020876869668343
  0.2486020720255121  0.4216284051270787  0.1690811478538305
  0.5824432841863629  0.0863689166137122  0.1708788622998129
  0.5828346821972246  0.0032573350048655  0.7547695348569463
  0.7501573198909647  0.9208641470135823  0.5037309256027986
  0.3317144402043234  0.1683469370330860  0.6705085738606723
  0.8328960159542319  0.8352049269631614  0.3362080631509680
  0.4990350329796921  0.4173620892598367  0.3338353011843196
  0.7497302435214915  0.0827083968206053  0.2561903654009803
  0.0860531992601791  0.2526609494688935  0.2520782178974211
  0.3357524427020556  0.5026510383033361  0.5906823586409157
  0.1653264655868627  0.0079599464649824  0.7536630586466020
  0.2534423122673251  0.0861279087121388  0.9203561536156221
  0.0860428867542033  0.3355477294113314  0.3380221407633449
  0.4172664017589189  0.0867007769946107  0.7505595817712827
  0.4172079181278668  0.8334146363346142  0.8379131279465546
  0.3325761630162150  0.0867082597532602  0.4186668158101076
  0.3332536002171170  0.0853580111795935  0.2516754008616360
  0.3330515352183624  0.0034906036510835  0.5031288168704422
  0.1667936661612361  0.1685615748457465  0.1692710903671791
  0.5823812164254090  0.0872431293171902  0.5028647698631347
  0.1686739420643240  0.2522075758725268  0.2519219588536074
  0.0818693184714127  0.0867781704298418  0.8375853028592287
  0.1653123541160357  0.0025200054512955  0.3357599948050718
  0.2496408386804287  0.1692396284650842  0.4190466268523030
  0.2495378235571123  0.9204463762072953  0.5035323183352586
  0.2491295183770809  0.8364879651299221  0.0865615032836539
  0.2493464651170130  0.9191717898507460  0.8372945025517997
  0.2495250435491028  0.8370437292071147  0.7538948745259545
  0.2492300689232246  0.2528297593496751  0.1674821689798758
  0.1657328932776501  0.0029125489622491  0.8384826153472779
  0.2488117316505479  0.9191110973849048  0.0039060736138129
  0.1663624384385906  0.0036538698944613  0.6692745991344433
  0.2493411352962140  0.0861836738751287  0.5035283572639009
  0.1668258720189482  0.1680426756238128  0.3350265633175061
  0.0828762119862106  0.1694897395557539  0.0852144922133815
  0.3328915672894335  0.8369707042899639  0.3360642133876677
  0.8329350261174786  0.1704611295505586  0.8364306411561120
  0.3331018155199197  0.9196810989163932  0.0859483059659144
  0.7498155144262493  0.1707208567165281  0.7531390713968934
  0.0823854660314615  0.9197242736506530  0.3363192255620698
  0.7502729689608020  0.3370519571373002  0.0858854785880862
  0.2491345309108215  0.0034358873760571  0.4195059791934369
  0.2497182952525790  0.8376138904154129  0.4203776808262876
  0.4170693663138472  0.0025242532988884  0.0859102798274884
  0.1660490038470074  0.8375422201345314  0.3363944038570880
  0.2496146413967776  0.2538653797534596  0.0026988853842992
  0.1664974578787344  0.8377461490422587  0.5032647791465099
  0.6654645523679963  0.6697722345883341  0.3378537040358002
  0.2489736418961146  0.0025344208815448  0.0866266210289316
  0.3326181722742535  0.0026289853874363  0.3357353261005157
  0.3332102565326933  0.2521003750586607  0.5870509507016182
  0.1660019536740904  0.1691013135118399  0.5036607665023195
  0.1658467610929952  0.4193397337367359  0.5866643154299219
  0.9161298440139360  0.5033896501333869  0.2534085341811489
  0.1673800551162854  0.2519270600135158  0.4204790133130669
  0.8322447117753662  0.0867403635179494  0.5870744564899143
  0.3311295288454704  0.4203070987908692  0.2532143019083664
  0.7494373142343247  0.5860084486189957  0.3368253628431294
  0.2505632143277428  0.3357757847906376  0.4207348614779605
  0.9161658278131536  0.2529241813886843  0.5027013388530747
  0.3315161107088223  0.3356529051253098  0.3357811952118149
  0.9162540085283701  0.3363434010805928  0.4192802713108845
  0.7500524972909439  0.3369459937020874  0.2527431578588100
  0.9157504687064274  0.3365304130395938  0.2526512569440207
  0.9161859906013913  0.1699674802899842  0.7524136535352492
 -0.0015272762964672  0.1695231376878502  0.1705005669730508
  0.1655354198408168  0.3364026785479435  0.0032299772262750
  0.9163704385421507  0.7529064712605759  0.5032106749741746
  0.2487761252890503  0.4199541298848387  0.5031105512237218
  0.8335629891947632  0.9200373497754806  0.9195175320076958
  0.3314630767991734  0.3377017027418943  0.1686433902139341
  0.2498463917096160  0.1680861472027018  0.2520932109239335
  0.4165304393039009  0.0865768682609640  0.6676307025584851
  0.3327220476910401  0.2525641891570684  0.7545474309001569
  0.4158571267523218  0.1698053422059187  0.5863828441385764
  0.1644508448023609  0.0901301893415048  0.7538139561445175
  0.4159438297648164  0.1709992481065434  0.7542964689057855
  0.4996489032815840  0.3370072214423997  0.8375847983919695
  0.2496943921127298  0.8378802894483610  0.5870370143363054
  0.4160263297173101  0.3368435943745353  0.9200533883417432
  0.3332527632522797  0.1698175212154229  0.8378508586019274
  0.3335888392386099  0.0859539775688819  0.5862536696987567
  0.1662818137038544  0.2523461942980575  0.5867073477740207
  0.3329163489463992  0.4199369647360564  0.9200296962978901
  0.2495529794775021  0.5038760895542120  0.9186776907290509
  0.2502629542513096  0.2522799535204885  0.5036581459686473
  0.4153616349819873  0.3378286154104748  0.0862326642041647
  0.1666568556871718  0.0867917775061583  0.5866666205064938
  0.0818715936757262  0.4211462730199050  0.0033057885387693
  0.8323691924407918  0.1701563089070566  0.6700702011016638
  0.1662215804493579  0.0849577400837107  0.2521662051915403
  0.3331670907867416  0.9198999590200377  0.4205687066084725
  0.5002424469262624  0.6692975173848683  0.6697867081087598
  0.4155447080099234  0.4196399261878959  0.5031965113423725
  0.4153810596433380  0.3362018112758185  0.4194187013423586
  0.4998714869448167  0.5032121693631026  0.5034233345566853
  0.0820164545297258  0.8374204136399074  0.7530622998382986
  0.2489189623406153  0.4201273395989483  0.8358563384722886
  0.4160913244171193  0.3363397723735934  0.5867958275818348
  0.4178492513996917  0.5033166526046897  0.5871725345892671
  0.3327847273414284  0.4177803700598071  0.5869472925262073
  0.1660059153731812  0.8362608935938053  0.1702848055005695
  0.3330049312218028  0.7541794771878112  0.5866665356595357
  0.3327743183704576  0.3364935816063652  0.8370890349709380
  0.2498216749354265  0.1692591460461312  0.0857372714923631
  0.3324107955400604  0.4196319163538195  0.4199836583484516
  0.0819261605371309  0.9196591259641219  0.8371467906051795
  0.4161472622171046  0.4201863978176959  0.8358369739404761
 -0.0001187574049274  0.4213434635792326  0.0869426885223444
  0.8322409846735734  0.8365860300328991  0.8365955280940734
  0.9158487523235086  0.7524418811114330  0.1699454238640124
 -0.0002830930284659  0.8359132525159298  0.3374541552820531
  0.9153126755366872  0.6696515944210552  0.7532093794869986
  0.8323156133103470  0.6693854992962811  0.8367219621574652
  0.0817715669319356  0.0861868168896595  0.0042819011255630
  0.8327028419877021  0.9210853080497715  0.7533378377260463
  0.9163976829160202  0.3373200679896718  0.0868367681157129
 -0.0007779721001947  0.7545903051515745  0.5865779416780637
 -0.0004078185653350  0.2532728107223702  0.0864006270249499
  0.0806378181389216  0.0028290241689270  0.7538495288960371
 -0.0004989854957249  0.2531572065443773  0.9201111309257042
  0.0816323304828312  0.0026988857282450  0.0862860705362647
  0.8333104837228619  0.3368184426237359  0.0031006662709411
 -0.0019736875636653  0.0858583831063322  0.0866945474723971
  0.9155182017129481  0.2534248808357239  0.1691665878840910
  0.0834803082916874  0.2516201501121632  0.1672821117289116
  0.3326871833257048  0.5043005460119007  0.8359421971800743
  0.4152102051564291  0.7534474475268926  0.5034974923688226
  0.0827579432379205  0.7538672360986265  0.6699455939351012
  0.3329631839478093  0.5867749884882056  0.0866084142145661
  0.2491844465136913  0.5871665750972591  0.0022777900984468
  0.4997451838294122  0.7534807558812335  0.2537649153243356
  0.4163154905551339  0.5871313561420173  0.8358222102633202
  0.3331675889215306  0.6699512942271691  0.1701196241400248
  0.1668481050596828  0.7536868965507625  0.5865447657974883
  0.1670075265556073  0.6706694554600966  0.5037851542546874
  0.4162457521346052  0.7519250596360335  0.0034567455043473
  0.3326114516918962  0.5871946413732819  0.2542845478181276
  0.4171108343884566  0.8365473550111956  0.2530693763373833
 -0.0013534427999193  0.7523949101206968  0.9195302790196141
  0.2496775547282619  0.7540889154644222  0.3368977357085494
  0.0824998214260905  0.9198027569584668  0.6705042528870874
  0.3326488981239971  0.7543145789017633  0.4204460504185177
  0.4160823683867494  0.5048007882833823  0.9187352274594259
  0.4163283809554928  0.7536104482019002  0.6701288237204320
  0.4167920193264565  0.7546139033015228  0.3377336724873197
  0.4999408890937432  0.6699323766170525  0.1705914420951181
  0.3332116311281879  0.8363643669804361  0.1704274283899212
 -0.0001413510271883  0.1689606785163156  0.5030036689845182
  0.2487678851895655  0.6701798900224667  0.7530435071983698
 -0.0017475922617324  0.9200703837798319  0.7532402333303387
  0.2497740536203598  0.6706193778103190  0.4205159669092941
  0.4185991030379471  0.8351628465428744  0.7539047636165396
  0.2479108036636272  0.7521050847064916  0.0044177260606841
  0.0829513007455487  0.0021036788188071  0.5866726345604839
  0.4165110367371543  0.8359952918197373  0.0854766894854098
  0.4170801794739473  0.7506329785740271  0.8366383398718440
  0.2495773763480304  0.9200282914905511  0.3359666147446549
  0.9145104649292040  0.8365612678243183  0.5863268313719651
  0.1656963878703046  0.9194487098364427  0.2529050168081627
  0.1665594700449808  0.6713040868518226  0.3374365717191319
  0.2492524610025648  0.7538671054339575  0.6706630485385089
  0.4164103585010557  0.8372302067633084  0.4210456470938809
  0.0000217422607112  0.0874497819795662  0.9210037046490768
  0.4996843330712454  0.2527923342651495  0.7541465480701836
  0.0831519136314406  0.6685977088674214  0.9189171854136597
  0.4998905880562743  0.0041186622667641  0.8383780601241380
  0.4991183514294549  0.3357044320785377  0.5030786541317376
  0.1656659714287201  0.1701375495632632  0.6698185123131872
 -0.0012940293207262  0.6710905815026939  0.6693793312029365
  0.4170697226791130  0.1696143225339643  0.9220299246619438
  0.4992951465899216  0.1693465581027771  0.8379576517345908
  0.4989862716613992  0.2531365679925658  0.9208086962020376
  0.0840227239998107  0.6704816739728875  0.2533786704604515
  0.4998179367573973  0.2537345446395968  0.0866979130239021
  0.4989520868433593  0.4207566126966565  0.0869405484713973
  0.5825791592634462  0.3378238044559366  0.0863720306990492
 -0.0010652308589284  0.5876873601728462  0.5856440483359417
  0.5830430249998803  0.5036803075844967  0.2521723177706315
  0.4985783364811374  0.4203553432261706  0.2513581731659434
  0.0829482505409183  0.8373829523766861  0.4207074213204405
  0.7503349347607186  0.4204826639005912  0.1695285937399728
  0.5001569692719525  0.3351859009453507  0.3350925914660567
  0.2497904105829662  0.5866887384157016  0.5039222524642939
  0.4998837695657493  0.7535436616136099  0.4216799080385529
  0.5824437268318774  0.6701119440869995  0.4212590995583623
  0.7491793511909981  0.9191428367431179  0.3380854111083162
  0.4988891056843531  0.6698284953561638  0.5037705329859878
 -0.0003581324379410  0.6694958642449769  0.0028785612309106
  0.4999397242462141  0.7530961158568514  0.5864507888356854
  0.3324507651250281  0.6710847213492432  0.6703439604575638
  0.5008576437351533  0.8367904072590678  0.6702081704973053
  0.5835214957949458  0.8362685178239345  0.9196249429809612
  0.1660503514184520  0.5038545425118608  0.0023457699494586
  0.5839759541714432  0.7530103932845226  0.6695634623165551
 -0.0007778228912849  0.5865514103149387  0.9194928887355071
  0.0827659087136514  0.5040493680401662  0.9186383836118979
  0.7499375815674787  0.9199180606732830  0.0022197653211148
  0.5828241860558689  0.4195442961495018  0.5032052157687359
 -0.0001683575301605  0.5876804880991959  0.4200444570137654
  0.4994843410827641  0.3367397461426207  0.6706803170666515
  0.7494294726334126  0.2533626318197371  0.6700722437446464
  0.4161490395129246  0.9207517810146782  0.5040501657152596
  0.6671592886660618  0.5867326174604227  0.5858112479225194
  0.0818659131822702  0.4200932835430079  0.8352981539199322
  0.2490550214447077  0.2536335881054700  0.8378511266052979
  0.2489760302199060  0.5030317075397881  0.7529483639847062
  0.5833341857581621  0.5028201367667966  0.7530049426665214
  0.0819085541831165  0.5030264675743517  0.7523536075819212
  0.5000719623915804  0.5044344793961663  0.8364245099848912
  0.5001727103750985  0.6689949636204970  0.0030404658433055
  0.5821810191703116  0.5027226029974681  0.9213000091060110
  0.6674337239260726  0.5854718509994763  0.7525905652099860
  0.5826030377509496  0.7534792952820213  0.0033089785907431
  0.4996555708200355  0.7533233246991904  0.0862742362122739
  0.5830464324667425  0.6692311745113402  0.0862320887088884
  0.3327615189356009  0.0036281791013232  0.6701041465881655
  0.2500022376080733  0.6707693091430607  0.2536609921888004
  0.0829944393482382  0.2532374829811295  0.8373092486062493
  0.3330233747262715  0.9206599522039124  0.5874001253349760
  0.2503828286060415  0.7545912624225145  0.5037924049751114
 -0.0012051646982610  0.0866784808208448  0.2533933663917379
  0.3357286548483014  0.0859770099695475  0.9216987072585475
  0.4987778360164905  0.4211353267469922  0.9194920431757420
  0.5835601662490549  0.4203605038618258  0.8372357740358269
  0.4987243377764126  0.5035872262429485  0.0034217058423219
  0.3322128970674909  0.6698951639437298  0.0025678682438810
  0.6664214735715457  0.5040022655560530  0.1693325334709841
  0.5826273067009710  0.5863256030134313  0.0033610906165587
  0.4147143021266321  0.5034374434119158  0.2537238012292343
  0.4155019411168398  0.5870131819324461  0.1712365784001130
  0.2482759267336130  0.5860149096007602  0.8347792710927795
  0.5824274299122510  0.5869272974423466  0.1697940866030098
  0.4989457056089471  0.5870110256027828  0.4204720062248222