Cr  H Ni 
 1.0000000000000000
    21.1200000000000010    0.0000000000000000    0.0000000000000000
     0.0000000000000000   21.1200000000000010    0.0000000000000000
     0.0000000000000000    0.0000000000000000   21.1200000000000010
 Cr  H   Ni 
 259   9 605
Direct
  0.4950951176730373  0.8355023201917192  0.9997252434754437
  0.4113971179704873  0.9175363331931604  0.5011352356823753
  0.1616392796420111  0.0008366597943619  0.4981589861288080
  0.2461272519786959  0.1667505782562979  0.5828396129641203
  0.3296916418183781  0.9997838666708291  0.3331465344338693
  0.9119175310155649  0.5013062221287775  0.2487666683411695
  0.3295885235701297  0.9180800483511961  0.2508984294110247
  0.2452027989427145  0.9165317799168858  0.1684062908913512
  0.7471410394682845  0.5863151795210603  0.1664736914026552
  0.6641545080944476  0.6652213689546631  0.3398103252907145
  0.8301017414197855  0.7490716330364026  0.2512896676122568
  0.2462753139838468  0.9994534519306515  0.0833338831962965
  0.0800881556435389  0.0839953967325001  0.8317719137079701
  0.7456838681797746  0.4994983019612645  0.0787528468597935
  0.4977546594678670  0.0826412753767715  0.4162658454913253
  0.9111291989751796  0.2507281727970324  0.6661909148631009
  0.7460577089272323  0.1659167553137542  0.9168024402897957
  0.1615377973534324  0.0832645324245751  0.9168169562891126
  0.6621207776521328  0.4168530785801454  0.5845802568543441
  0.2462088067018109  0.4175831755080377  0.3332386812388164
  0.5802241933650767  0.2497321465408444  0.0003829221319783
  0.2492207592916666  0.5824003963388557  0.0005532871701478
  0.4114149576539406  0.2485881348689633  0.0000177720652221
  0.2459051950120758  0.1668873840451169  0.7502742863194732
  0.2452262625243393  0.4151426672354738  0.8327896713505192
  0.3291341471111211  0.0004432737851828  0.6654179031775410
  0.1615000352532480  0.8319215426770437  0.6657916281530891
  0.3272963450359829  0.0007624660450340  0.8328351208688901
  0.4969014310205525  0.7497595988818382  0.5843219325237092
  0.7440387651727264  0.5830048547697917  0.9981800403404226
  0.4948962059741482  0.3297903578178542  0.8339661593906649
  0.4922004651355332  0.5842429150827111  0.0785877440298356
  0.5784179354208723  0.4159581701993642  0.9990863024730895
  0.2454992703649308  0.1655820333246971  0.2500189816512620
  0.5791072862789767  0.0011776548552746  0.9162780899198174
  0.6610233594984001  0.4190195979695904  0.7505370143450389
  0.3317337125017737  0.4976901030800311  0.6668705607815956
  0.6648466518819776  0.0826933094998851  0.7483236495613630
  0.6620966807740231  0.6701081322042621  0.1639934740566576
  0.2437249565644724  0.8336486664712598  0.2505030645256162
  0.6625994661228665  0.1682580656593192  0.3329878003711662
  0.4946703200385703  0.0843194884879912  0.5817132118401923
  0.5806115101828718  0.0815742037428044  0.9982257991640447
  0.3277168705861385  0.3322060420959728  0.4978092626431250
  0.4125169813765074  0.7516721458886174  0.9988850419565253
  0.4117492988517856  0.0824444597172252  0.5009203348711954
  0.5776525344208595  0.4979721525700990  0.7508382220300295
  0.7455267559158358  0.2490675058515880  0.0000657834322234
  0.2463699951806778  0.4999658689682968  0.2508072038899745
  0.9114349115743756  0.6684841119023005  0.2500845507019965
  0.4123560292545230  0.0821377988881249  0.9998257340601365
  0.4957878887989093  0.8330702602774317  0.3355104342845941
  0.8272979128880309  0.0005761462533449  0.4987556258992260
  0.5795708970109663  0.4161263083059940  0.8336108159618374
  0.0799746411296516  0.2497599531453921  0.6642919828185443
  0.6634829638152072  0.5812742188072735  0.5863697231505616
  0.8299494695336509  0.9997208606499292  0.0007942026464566
  0.3263939972315941  0.7509130891974254  0.4156205291819323
  0.1625420197626865  0.4159261468156766  0.5825653945806502
  0.4121478868942104  0.5838042671278796  0.5003486714991150
  0.9943432992878642  0.9154866771657215  0.4173867642110596
  0.5800128996048647  0.4942046134101020  0.0808277334536381
  0.5796462325530052  0.6682928172371397  0.9161058119984414
  0.8290365876987082  0.7505579374006902  0.7497040146736198
  0.9084277023355648  0.6670820043010601  0.9163922539778782
  0.2458051900565595  0.8325582670357435  0.4158696916615249
  0.0786344683720025  0.1683106171917395  0.5819015755966699
  0.1617002008052754  0.3314046706178899  0.9997081435559918
  0.6644297233601869  0.8319532770752731  0.3373730417855475
  0.1614636291818418  0.3324399856469525  0.1665578703719249
  0.0776959085327072  0.9971513136841036  0.9191173627387753
  0.0810582999820455  0.5852265232394694  0.9999960937385820
  0.4113787222435499  0.5839759872937151  0.9988326731729065
  0.7465927990098450  0.9167606415383625  0.9996249521476743
  0.1622325883915071  0.6648024282670127  0.8342489703304942
  0.4970103656691341  0.3315533680211836  0.4994111239394096
  0.8295350999470747  0.3330548333483175  0.8337214237658529
  0.3265667957944094  0.9174056686950568  0.5835581359676045
  0.4952531009128360  0.3317482459375188  0.3334189080328807
  0.3292408571426735  0.5823792712460061  0.4162909493535409
  0.1629167297346447  0.9163425212342519  0.2500888929272415
  0.7459548930629902  0.9168757408481613  0.6668328469441974
  0.3300220895818416  0.5836772913298141  0.9169970701105427
  0.6632254010598138  0.0824154086123591  0.9171124018874746
  0.6634010749231868  0.8337110841728131  0.1670169484253941
  0.0810663586244868  0.4160686338550177  0.8335472452411825
  0.4137736711822600  0.1648455361128451  0.2502830633080737
  0.8283219959450704  0.0822893337737935  0.0830298709546333
  0.6625655483272702  0.9996163511284709  0.3365397854808184
  0.3291537678772027  0.2487572344872801  0.2491552182740761
  0.5796457351822280  0.7511464875125008  0.1670357773812176
  0.8312943502931468  0.0001828969282255  0.3328224130773872
  0.6603369399640754  0.8345567330216375  0.8327779468027117
  0.0791159835598970  0.2500004083226432  0.3332215264290601
  0.6631024883729844  0.2506107928425406  0.7500932004864926
  0.0780712798868350  0.7493300333749664  0.3340484065526280
  0.2462495894701884  0.3344658178937653  0.4148868261472806
  0.6619310388153091  0.4996048409121720  0.6671229475279082
  0.4953480918873192  0.6667604458663591  0.5019899173795933
  0.3287106609545636  0.8345840884209081  0.1684903089259785
  0.7467874484368265  0.4977107370118308  0.4170901082280507
  0.4947801370011138  0.5830204637799150  0.9168279951392276
  0.5795565320636397  0.2491048368703867  0.3326911738253691
  0.1635349964186208  0.4162552458060956  0.7510425310006790
  0.4946261425543526  0.3316292547063967  0.6676114056209473
  0.6626778258370986  0.6661976682123156  0.9982909453328898
  0.5789980008934955  0.4981912928363817  0.4178971903837510
  0.6620481764134005  0.1682691125338024  0.5017228585724667
  0.5790904491266393  0.4164178894732540  0.3324252944681634
  0.5813579037249369  0.2494991507355027  0.5009121493695028
  0.4947592871308369  0.0836122437315914  0.7492419710768772
  0.4948496475336194  0.5834211079520748  0.4188402161609687
  0.3280603341073885  0.4148398352212590  0.9158312476860634
  0.4937234811527526  0.5844381080996311  0.5798938985638870
  0.4945293172363305  0.3319399618925129  0.1668782897158842
  0.8303183184267723  0.8325198967777333  0.5019009421192943
  0.4111603060792064  0.3307073588307824  0.2498497787716430
  0.7453672893066173  0.6662358287666309  0.4189536813111300
  0.6647966699613850  0.2499875785644160  0.5815369927732795
  0.2446442634226375  0.5826459856949068  0.1694022826985032
  0.2452812054811508  0.4990285582746883  0.7506254132666071
  0.1627420029959130  0.6644964804041609  0.6665177603627943
  0.7454412392051936  0.5817677158140563  0.6662583907803086
  0.9110414812866863  0.1678691683182635  0.5844993039195087
  0.7461902725213690  0.2505912927428582  0.5009268784652787
  0.4964326968778047  0.1673722309824442  0.8328405268747485
  0.5808014731478942  0.1657236769666102  0.2490286636428430
  0.3280511787477867  0.3329633992565767  0.6660645545116849
  0.4954165578136617  0.8340942212569540  0.8312797357567432
  0.4932761606972373  0.4989522706018614  0.6664894610795736
  0.2474774076957890  0.5824118335447357  0.3346802669047082
  0.7463468965795346  0.8326874550040857  0.4181357175315358
  0.6613746670460482  0.4168881853602173  0.0821729386540547
  0.0776057281422858  0.9990302258620867  0.0828348609883643
  0.8299290349000106  0.9997525232180740  0.8323176809641241
  0.0789261001099117  0.8319939923227564  0.7479107309206902
  0.3303415397080721  0.3324851465132994  0.3336350277430852
  0.9114873982164114  0.6658998252768519  0.5830493607426204
  0.4143852958717455  0.6684527117244687  0.2514455366211836
  0.2459227185460263  0.4999551281437923  0.4166749644321587
  0.8311810132003393  0.2496391489680976  0.5849087973345808
  0.8281919585216716  0.8323850862507457  0.8315722460264868
  0.1626835182231242  0.7497415835022626  0.0838054555245367
  0.0798466405833896  0.4992510803699283  0.0848731252784013
  0.8294258010845974  0.9978224330528382  0.1681615880001783
  0.9115743879248308  0.5831323089513279  0.8324093185232678
  0.9107585120287486  0.9162468258221359  0.9995141967493429
  0.4969583797118410  0.0010493384934739  0.3360539896916970
  0.7453048827327566  0.9155642954975807  0.1687644127863253
  0.4962241026563194  0.8327475834514196  0.1664243670487622
  0.6628377797117967  0.7504143744165029  0.5843138254504552
  0.5787853757710585  0.7494059301043101  0.6665752528686533
  0.0799886432375596  0.2501091713884014  0.0008205327412026
  0.3287925293570859  0.8336935531114659  0.8326822003160451
  0.4134749934428415  0.0836333503347518  0.1688252235605193
  0.4125916180924955  0.8341864583065133  0.7496090589414812
  0.0806382026548327  0.5855236789530516  0.8331772878894704
  0.4124792251347735  0.2482105713065073  0.8324907866974018
  0.0788008774689477  0.2489124249938839  0.8325732415308276
  0.3292638900318580  0.9982022314894593  0.5019491750358369
  0.2466936216609042  0.9178963715062282  0.0021096984921640
  0.5779489560722788  0.4988631236603988  0.2520185902229939
  0.8315539648321804  0.4176776311239215  0.5838285290880314
  0.4961139455925326  0.9166452296124904  0.0833749900628064
  0.3284917866893217  0.7513486159963914  0.9156832260162461
  0.4119929564225644  0.6667660891524739  0.7495472111332961
  0.4119646459599218  0.4152507576259850  0.6652667351181208
  0.3275979423204928  0.7508993073057880  0.5841383246075501
  0.1596757113177074  0.0020451386697013  0.8355343523259244
  0.8298490006310071  0.2492692181577680  0.0832469110637672
  0.4135559314596135  0.4988279422214535  0.2501816436813186
  0.9114752207254946  0.8325261407114153  0.5821527477613164
  0.0784911580672286  0.4179575564758685  0.3325429964842214
  0.9115935740571053  0.7482811261996285  0.3336700960310074
  0.2454090830142240  0.1657319259400029  0.0830926212749538
  0.9111277099467372  0.2497557735261063  0.1658142971799604
  0.6621032111277103  0.5802426271991054  0.7496961215066563
  0.0800704807999727  0.7511748319289857  0.9995862022704449
  0.9952166818612366  0.4169073110442686  0.0834049157862488
  0.1602074587768288  0.8324357644387247  0.5004825032724064
  0.8288895079966216  0.7500837367043526  0.0816623456009175
  0.9984257278949198  0.0000133641402857  0.8327676792749836
  0.9970449098529867  0.8328581926261883  0.6655634800838692
  0.1627573621844256  0.4153269411593868  0.9143897980314540
  0.0787156664656975  0.7504303882307410  0.1663033866582391
  0.9953828467399307  0.9996892456899997  0.6648942980717113
  0.1635668607253244  0.7518188198142395  0.9187390813633541
  0.8281713752511642  0.7490255701135183  0.9169370138961725
  0.0801304165996071  0.8324796486768359  0.5828976684605370
  0.9964237228509126  0.3331884332306934  0.4999206817858843
  0.9971401366722196  0.0815989265810662  0.0826242421891729
  0.0784348908155776  0.0827416630180434  0.9992102499830954
  0.9960517714280457  0.0846548676463834  0.2493052785297740
  0.0786497705403406  0.9160640815648409  0.0000902595760779
  0.9107040344618775  0.5833758481172513  0.9984447528532556
  0.4955092987851676  0.8319476500543831  0.5026026627294504
  0.5806684575610144  0.8344231593249860  0.9143355787494500
  0.9107537247544784  0.2493116938575536  0.3331012298457027
  0.9126718332275457  0.4983555974202762  0.5854770142032180
  0.4133357354484407  0.1655621417159749  0.5824416970546702
  0.9978876887630607  0.4167138419430332  0.7520207605071458
  0.0831599682483183  0.6674810973497343  0.9170029295691374
  0.8299039486264012  0.6651672395477084  0.5010442154541906
  0.8288290584949832  0.4163168453941047  0.0820898080369830
  0.9971294631589480  0.4159159451364738  0.9146165427277860
  0.9129655313054721  0.4984645781736207  0.4170157996514804
  0.9078724807170372  0.5817177261596574  0.1682678486994234
  0.9128412683299992  0.4999606005572909  0.7513790673082337
  0.0801468475462867  0.5836705816632192  0.6653204367494834
  0.0787772090816818  0.4984584761518854  0.2493723224314529
  0.0820595851086144  0.5810081463126887  0.1666655926555468
  0.8298772934980951  0.4172762494299362  0.4156254394312971
  0.8292273077342812  0.9158406735408383  0.2519511672003352
  0.0778275444273363  0.5000718349075626  0.4166805458356543
  0.6625835415276641  0.1660835874836318  0.1669371934015637
  0.9955155744953063  0.0835200910837109  0.4164713271821698
  0.0792752243443803  0.8336449111689279  0.9173851889728544
  0.7446118057395137  0.0821610095546757  0.6681815906740477
  0.6644513172507140  0.2480852915005145  0.9182135909726238
  0.7460197679726567  0.4187918598996347  0.3342133950917628
  0.6635362306253565  0.9177618099074787  0.9154010211283361
  0.3287985693311161  0.2475385177528498  0.0838933285679578
  0.4133597045263377  0.9153101008842767  0.9992446726813287
  0.8290234401219444  0.2504808267197434  0.4155668289635185
  0.7464921922093888  0.3324825240286094  0.2498447916112590
  0.8299303152835681  0.1678142673753043  0.8321774926262426
  0.7478143201589219  0.0820586166090592  0.0000929544905854
  0.9104801066875822  0.7497044719163984  0.9978411727669874
  0.3292825131295098  0.5824899454676529  0.5828029728411840
  0.9958283238534986  0.1700837129306144  0.4995214080652505
  0.9963159143413399  0.7501097127812099  0.7481529321561260
  0.6625310799908333  0.9993953085668933  0.1661874894364355
  0.9953654859952384  0.5818503116431334  0.4169232055247643
  0.1612428685732863  0.0006520699941227  0.3331429694341527
  0.2443030952243680  0.8338045558509656  0.7484686116706499
  0.3299449560161329  0.3321216447180426  0.1682057919169213
  0.4935651552720069  0.2491733378152526  0.7509236473661389
  0.2459892249339550  0.7493051706461723  0.3351057047747125
  0.9109083159727922  0.2498647340603834  0.8327203933222586
  0.7446887175919515  0.7494359865226194  0.6666748414916124
  0.4945611914850473  0.9164511661719495  0.7507464701799684
  0.9961549618592388  0.0838500525425739  0.7501283149419955
  0.7446298074046227  0.1665509846966494  0.2492100625655369
  0.4122314719369124  0.4985029772573192  0.7495095085422411
  0.0800212061683076  0.2493824410909019  0.5005726005339400
  0.0797940244104346  0.2504406725645489  0.1665087173094712
  0.3291227908770850  0.4136998259242319  0.0844843973281609
  0.9964170265275930  0.0827974009600158  0.9154757631265302
  0.2457894509172360  0.6675022935643530  0.2505376293362970
  0.9116880776814869  0.9167047984355013  0.3327958127193865
  0.6628096140215154  0.3334246631011404  0.1656561352895154
  0.7457817900869834  0.9994481786239475  0.4188765809746809
  0.5791340492569923  0.9998014259836011  0.4182102602025392
  0.1630231052063345  0.0831678345093928  0.4171906749884448
  0.7461269704008060  0.0843886932830640  0.5000469225582052
  0.9120052222089902  0.0004198222753116  0.5834812606608826
  0.5806618845758384  0.0816996677636709  0.1687465867563922
  0.0790552641874404  0.0009220125118220  0.5825531262193071
  0.1614472420953039  0.6646454302985325  0.4994683554576948
  0.6593442721950721  0.5807075815944353  0.1688923737492782
  0.0802604973759674  0.4961907138526506  0.9972597625562333
  0.4961329511546783  0.5840479530692176  0.1702792933325861
  0.7453554312172426  0.4972599138715009  0.1679590492325380
  0.9949524785049101  0.5841479329483510  0.1657610334854547
  0.5805791159904502  0.5853632001016519  0.0815849062127754
  0.6620040669722269  0.6661818561918954  0.2514811705510950
  0.9957560281989073  0.6673562200422083  0.9160543919185286
  0.3335650959132629  0.5844712399459342  0.1662641883557401
  0.9959628621865503  0.7489903207397277  0.4168981851151425
  0.5781835539481227  0.4158440163174384  0.1673161696426604
  0.9957774705097443  0.6659256020480666  0.3327786697768189
  0.6619262798092126  0.7498690174515136  0.7487503713230217
  0.8294696779773462  0.4998775005375732  0.8334019897820021
  0.6623881247993726  0.0839019200391529  0.4169968709511382
  0.8290989476287549  0.0842197647007758  0.4164522603102364
  0.6625903272746151  0.1662127944315310  0.8330529488439552
  0.8292592705516263  0.0831711900268538  0.5837576822762423
  0.7461986579408763  0.0832425766180257  0.8324745575340121
  0.6625901265862967  0.5812086383952725  0.4184116314807361
  0.8287631766418734  0.5829252386483889  0.7500868528186334
  0.9947638676087432  0.6648078462643596  0.5004604370410098
  0.5788165630251372  0.8329633904570807  0.4182473492473355
  0.8290214817687458  0.9166341644865021  0.9155896516253752
  0.7468000294808328  0.0000395165595129  0.9155582231750500
  0.9954653341507319  0.4985658081415499  0.5002354817077270
  0.6626132285008988  0.0004970941131934  0.8329516677438081
  0.5790436961263422  0.6664360123883726  0.4190534104824173
  0.3286772557433625  0.0829297227851174  0.5834036665565753
  0.6623973084596799  0.9999059986979801  0.6663950813372661
  0.9127851805452738  0.4167158543452334  0.5003265374032934
  0.8282055792349493  0.1662988216758170  0.6679211318287007
  0.4954455171373716  0.2501718203813210  0.5830737379248981
  0.7460427015764665  0.0006343731294155  0.5834420922494711
  0.7455984531272370  0.1670945521192128  0.4171161250688253
  0.4945173170983375  0.5824395455598272  0.7499682943060840
  0.7456006840692520  0.0827645413157810  0.3344484371611879
  0.7462696335735927  0.2501541769468452  0.1659639915004663
  0.8290118552474935  0.1671617046400349  0.3327366031697653
  0.7466492285705126  0.6681908840052863  0.2508056943670837
  0.6627815520749656  0.2506786898219099  0.2489695363597937
  0.5813482071170462  0.0834305073187010  0.3328803987788753
  0.5782827362760339  0.5829352420446341  0.9974103359718038
  0.6627010266096777  0.9167729410657592  0.7494137552143008
  0.4964601088960453  0.2493785668878691  0.4168503916855877
  0.8297294262386199  0.8324110922286511  0.3346047388569205
  0.3288743898930851  0.1660950609935910  0.5003851883817887
  0.3298173737036929  0.2482219735249871  0.9175897649695530
  0.3289230909377861  0.2498665135816766  0.5822569239577958
  0.4126679401671444  0.1655101153534800  0.9169099566852709
  0.9958923571737405  0.1677056748377268  0.6658395449068487
  0.3287940816321627  0.3316829318396325  0.8340828235878233
  0.3281769745083979  0.1663023354932611  0.6653759269398158
  0.3287396575381594  0.3315281209344673  0.0007037513264383
  0.4113560912668209  0.2499045619246846  0.6664355760383316
  0.4125144865642648  0.4984325691596001  0.0815450264020354
  0.5785603614034837  0.3327955338775004  0.0827303656169779
  0.4131902148170049  0.2481325909220729  0.3337449061936137
  0.4973404565954422  0.0822568058110017  0.2513703104842109
  0.1646086240799214  0.6662066762656481  0.0014482813423755
  0.4121339874981633  0.3316916889267054  0.5827259876037201
  0.4115006981880797  0.1655295672290718  0.7489557926752505
  0.4134917583491843  0.1648682339047159  0.4176924982399784
  0.4120786775642094  0.3312520735593186  0.9173645271459420
  0.4950152587659498  0.6658082880415978  0.6658548652861895
  0.5799815223559263  0.6660436682430565  0.5840954199534690
  0.5784565239879094  0.3323958874944993  0.2499031994420183
  0.5794932922440621  0.7502376954602279  0.3361739493101630
  0.5804311105840148  0.9153658110392169  0.1682415444763904
  0.9114049799118288  0.7499078952111567  0.8326155273027123
  0.6639500570120505  0.0819884067303406  0.2514897756808388
  0.6627582704757754  0.9160740282812491  0.2521307926029183
  0.6629973106775013  0.0820942039226634  0.0830849910729636
  0.6624295152081457  0.7516702829842620  0.2521600342008843
  0.4950986669148577  0.6662625724635400  0.8330380127599529
  0.9124135642880558  0.8316455713368224  0.2505253797225876
  0.5793905704307066  0.5823363776490701  0.5011766361583897
  0.4951495634528125  0.6663361914052927  0.3354291864074341
  0.4952071463023471  0.8333939187445319  0.6666300119840974
  0.6633833254735539  0.6647857803044859  0.5015085187836394
  0.4952526820923844  0.7502117447634263  0.7496714286227879
  0.5793000306414928  0.9171852564343734  0.9984797710614701
  0.4955968455925451  0.0000317454710018  0.5008313681443993
  0.4964841302676630  0.1652452686266966  0.9998355867855724
  0.5773096376288910  0.5827285234732483  0.8330397871898253
  0.4952337402657092  0.4145934279135391  0.9158435020231602
  0.8294547157831496  0.9163735847336740  0.7490184920543616
  0.8292418649353112  0.6659581855744822  0.6668163437610175
  0.4961001913639412  0.9163336997407957  0.4174871237739806
  0.5786447281736489  0.8342186302647234  0.7495242323078809
  0.4121012199350759  0.8333174152822869  0.4183173598346873
  0.9130699470028274  0.9161635758622242  0.6656670795789297
  0.9128962510571532  0.8327750165760645  0.7488855560821907
  0.9125754569875270  0.7487636650059755  0.5006955616361103
  0.4952264163885494  0.9160436589946553  0.5830080930202877
  0.5787514222947064  0.0002549569795945  0.5837014514348657
  0.6624201525761785  0.9161031028404141  0.0832093010752091
  0.8280166473102254  0.6670795872482589  0.8319037159398054
  0.3290564310815677  0.2491812896992644  0.7493816583179302
  0.8286380820292012  0.5832504385055082  0.9158360340278321
  0.4121571851327969  0.4983739305637332  0.5823003663441415
  0.8288475686059620  0.8326558918571070  0.6660892901658406
  0.4117003848884744  0.0001789794128410  0.7491438426197548
  0.4132934913868980  0.1648428006077911  0.0824370605624621
  0.0784603645175135  0.6655559698183020  0.4167295720886013
  0.4957863847894569  0.4152511370756492  0.4163812564108757
  0.5777795409045603  0.4989931368353893  0.5839784965274666
  0.4108138513405505  0.6679223608966421  0.5838505465431822
  0.2465348816270779  0.5825598151457901  0.6662072112569994
  0.2468554833092545  0.4987993448848064  0.9164749985334740
  0.4131933588060141  0.0003190934752880  0.5842572796021662
  0.3294669080441259  0.2495118500134665  0.4162812901002961
  0.5793093798999635  0.0838246768956845  0.5005720584818080
  0.5793108181389747  0.3307663016967481  0.9165352816620356
  0.6634505365065203  0.0834957798629184  0.5837065993086569
  0.4126074282560244  0.3321272738455711  0.4166355232570765
  0.5781438750660659  0.9171333933796403  0.6672780519170423
  0.3303601134291011  0.4166512276774296  0.4164018963152337
  0.5791533256736284  0.0011279399757767  0.7493336246774859
  0.4955174305950520  0.0831998839403467  0.9167916577806595
  0.7462082313996860  0.7493671227720570  0.5011023394262821
  0.9964772742372828  0.9163462702963170  0.7485081466184481
  0.5786038478035875  0.5823810883891655  0.3361871235550216
  0.7456662700204653  0.4993781873757223  0.2522879177429312
  0.6611385984845884  0.5835516381626381  0.9153743484072934
  0.5784456028693847  0.5834326622428077  0.1666652193013102
  0.7455241217427435  0.3322059737828164  0.9168935268132774
  0.8298445329954660  0.9162126696783151  0.4170617477483437
  0.7457278513384199  0.6659588315993498  0.5842304638695475
  0.9129253982987316  0.0827106360683915  0.8325541675328308
  0.5797789581363835  0.7497934992433610  0.5016778193362307
  0.6635681234829972  0.8333728143085679  0.5014872273989690
  0.8299992777681124  0.5820904294789810  0.5839067875323830
  0.9120744502157467  0.1666105862146663  0.9162074980838454
  0.5798242547061208  0.9157726298439675  0.3353266140762564
  0.7452868540959717  0.7505432890046173  0.9986000986748175
  0.7450526665665983  0.5831023208334016  0.8324829905760536
  0.8294980046186343  0.4996399025826830  0.9984405297418162
  0.7454560900016638  0.6671324748635172  0.0824361141899155
  0.6625206884928406  0.7511823134972456  0.0823066152812023
  0.8291338073288576  0.1670691065404345  0.5003689493554703
  0.0786821713731845  0.3330332741756836  0.0833872344585471
  0.9128038843991506  0.1675292639188806  0.4166812602528120
  0.9130896003011467  0.9998872771938895  0.7494993791960773
  0.9123918809557734  0.1671755904228643  0.7495425097791969
  0.7460979623261128  0.9992045408922769  0.7499551986878686
  0.8300439980203840  0.0826632946716142  0.9157391847316004
  0.7458410514961676  0.2508418738379162  0.6666461597215787
  0.8291868788126704  0.1662978199388331  0.1661432422886174
  0.5785688809001679  0.7501083602256564  0.8318767856795626
  0.9955125159767721  0.1668953344943477  0.8326284380090773
  0.7463498144859125  0.8333870182777247  0.5842868113448447
  0.7462054853040424  0.9164568596481433  0.3348419779403888
  0.9117232825429797  0.2511040923528932  0.4999258877698773
  0.5795932826208569  0.8334567340022211  0.5847238459480674
  0.9125565680242694  0.1663689393068907  0.2494957000122168
  0.9959284763212147  0.2498570672943899  0.2498750183459518
  0.4959094599626634  0.2485490797245761  0.2492543622157796
  0.0783615298314061  0.1664102565884463  0.0833902133343609
  0.0789180602313500  0.6672742342373414  0.2493582993567405
  0.2464266839777084  0.2484769225559732  0.8327315202367234
  0.6635309062350511  0.3336369705657891  0.5003245354658958
  0.8295097333695738  0.3337200669358977  0.5003429676961414
  0.9116519618162635  0.4166067403180639  0.1659068552053223
  0.9955045573866268  0.4167455155407482  0.2491912696213382
  0.6629618379297757  0.3341474393280570  0.6670867805593738
  0.9128414176229841  0.5006535807156559  0.9155726818701755
  0.6613623459131477  0.4153109410333823  0.9166286249706639
  0.8302922609288982  0.5008982263610999  0.3329983115282305
  0.8278863199112336  0.5831506505753179  0.0820826838335034
  0.7465569321584599  0.4978349538692092  0.5836200009256124
  0.9956862068520589  0.1667077019332297  0.0002577615668600
  0.6628920840478768  0.4981638729069194  0.5016449851170869
  0.6613814605185316  0.6659944269923476  0.8323854718185004
  0.9122955559184190  0.4173065082387311  0.3329376600021901
  0.9960991890118918  0.4164590879214828  0.5840865237859881
  0.8290568921070807  0.4164693938157377  0.2507392244792244
  0.4116473693396441  0.7506686611921594  0.5011065300926006
  0.3299810854571515  0.6681089704804695  0.1679107368635323
  0.3307588821924302  0.4993572801507509  0.3327182983370561
  0.1621588419606957  0.4995142195062148  0.4993774558973931
  0.1629073976800388  0.5825608889882112  0.5831632870434055
  0.2457085605873023  0.9989039697717924  0.4163566194757076
  0.9957823699240659  0.8323115528147225  0.1666894501566489
  0.9950215162864395  0.9156809958799218  0.2511314699284731
  0.1612917930622557  0.8326306040677912  0.3337814986176054
  0.0777986594905169  0.9997569280874504  0.2510180993760226
  0.9951528822801831  0.8320489015966795  0.3333550929175856
  0.9120322597591932  0.0004341297334339  0.4167367813419441
  0.0790427053348592  0.7486414071460478  0.5002796275548590
  0.0780260580973893  0.9170489035700705  0.3343480455878675
  0.1624399813290166  0.7482491518594303  0.5830777679339249
  0.9959100550980470  0.9163758673812642  0.5823347941052294
  0.0793807887812390  0.9160908137431341  0.8325766061075764
  0.2452392782505447  0.0835877735685878  0.6658031197264385
  0.0803072712690235  0.7501607628739612  0.8331547817904466
  0.2455492522510284  0.1657858591828225  0.4161632155650601
  0.9945801049230615  0.9153835523187022  0.9163158329679632
  0.5777852894639396  0.4988158582113852  0.9162636144392170
  0.3293091944080782  0.0822349730066609  0.4171619487683736
  0.3290686058655756  0.1656754535371894  0.3323092615070287
  0.3283981371693884  0.7504840460351521  0.7500840007088420
  0.1622270933429118  0.0838163189244176  0.7490224199570567
  0.1627544748252309  0.9167229566321761  0.0842847590770516
  0.2453976322852230  0.1661905342121019  0.9166821364602870
  0.3287684002692831  0.9176286659099021  0.9160934528151558
  0.1614266280720048  0.1666111604961588  0.0002622652319634
  0.1621528297436985  0.0841486494570912  0.5822905461010358
  0.0787977112625515  0.9170387774236831  0.1675247114596154
  0.1627101697145442  0.2501337807593300  0.2501403291622796
  0.2452856674397189  0.2490432197066758  0.1665766208105032
  0.1620877810215707  0.2493114737661385  0.0838923535485973
  0.1619844800619150  0.0826631055576570  0.2506182235061162
  0.1620013614847555  0.1662641990464404  0.3330394102130479
  0.1622710254209336  0.1666853653843868  0.4996285131753346
  0.3302789477692610  0.5833436151083924  0.2517210869821664
  0.3294488336588474  0.0831454903467791  0.0837488404484475
  0.2459377980576119  0.4165100425190687  0.4990651543400279
  0.2459505198205446  0.0821295804682926  0.3337579540393245
  0.7460096917617864  0.3331135272902043  0.0827890883610238
  0.9129445511193710  0.3324799009963612  0.9162222920590398
  0.7457123786398090  0.4993925332697207  0.9165643042817609
  0.8298337101663774  0.4160258442932800  0.9154763114019503
  0.9123936650718902  0.3336625544207641  0.5836308682875820
  0.8298380142006905  0.1659159242576300  0.0001384162047330
  0.8303450903902292  0.4164897990363790  0.7514275007478447
  0.9964934678720838  0.3332500976547128  0.6672548637817143
  0.9131581179112722  0.3333525846856703  0.7508155472022325