Cr H  Ni
 1.0000000000000000
    20.9846540522330436    0.0000000000000000    0.0000000000000000
     0.0000000000000000   20.9846540522330436    0.0000000000000000
     0.0000000000000000    0.0000000000000000   20.9846540522330436
 Cr  H   Ni 
 259   9 605
Direct
  0.5808160995022298  0.5034681294322243  0.4187934933781308
  0.3321055462518056  0.3357726443855509  0.3362433310947072
  0.2506284749503486  0.4211191426321051  0.1685050248444767
  0.8332982922070533  0.0870331728620009  0.7540707284436690
  0.4141029942743571  0.4165236591793713  0.6711143031611682
  0.9176856319869362  0.2526573750450756  0.6702288233740535
  0.5825835157190506  0.3374900339420275  0.5853411133387024
  0.3314574395636706  0.6695712867386195  0.6707559508699447
  0.6665487469194903  0.4184740140625033  0.0881748860530342
  0.8311267171460878  0.5029824435851621  0.8360359370926721
  0.2478983001437407  0.4184449702854688  0.5020399703125608
  0.9165934935117080  0.0841605497848885  0.3353149822144646
  0.6659629117121987  0.3354095516897247  0.3372691968405382
  0.4157636100935981  0.4192943287789697  0.0035228652543587
  0.0830528365147187  0.2526405939130743  0.1712593302072215
  0.4143759228175089  0.5027817653231388  0.9204529257033611
 -0.0014945352538509  0.1715075929294524  0.6699497774451810
  0.8346968845680639  0.4195802489549184  0.0864660515293983
  0.3316322023133383  0.0858583237565201  0.9199235999816253
  0.9165101150505379  0.1692096546942906  0.9211704811621939
  0.6670788823838589  0.5859486099391854  0.5853013305420212
  0.7492652023461752  0.3365597081811206  0.5860474172959865
  0.2496996375547390  0.1705140371293798  0.5888795207239990
  0.1673710127141481  0.3366239766741870  0.5017253602017385
  0.0815299012138729  0.2539799840456435  0.6717399879514335
  0.3318838843892162  0.3334636435149241  0.1675586703645603
  0.4157552120135710  0.0855060908925084  0.1689164511616490
  0.8329191558493408  0.3354149309470060  0.1707332518857123
  0.3317309064844614  0.1697405628691248  0.0022965429479795
  0.3316437005424633  0.2523895569638666  0.9195023631806626
 -0.0005907965795610  0.0036167163122982  0.3368293167932106
  0.0000381147455509  0.8375421111197975  0.3375433355702712
  0.5013371294738587  0.2528656502518413  0.9227689847238164
  0.5822163329307384  0.5043706201118683  0.7531375962119079
  0.8320293982209384  0.5033964535956527  0.0047044033715951
  0.9153535895666649  0.4216404384879846  0.5012850580573465
  0.4992571367694762  0.0034315103213941  0.6671394966295178
  0.9150791900755624  0.2528837611266215  0.5019173127571346
 -0.0020661215155818  0.0845708764537570  0.2548843747169954
  0.7517077728714608  0.3362541660568771  0.7537265936638134
  0.3325182007522405  0.0023064778749259  0.6711335064806307
  0.0821316243409048  0.7531786391837765  0.6699138446100685
  0.1661306668014318  0.5867063826303025  0.2530580179065323
  0.0011694277030925  0.8341738857751871  0.6691498260508744
  0.8304071027616177  0.8368306690254439  0.1716646684095729
  0.3308087884085157  0.6696019136369898  0.1683724299080031
  0.2509369233341818  0.5875532898994981  0.1676410830274772
  0.7505926724697726  0.5840287521719673  0.8356395813741725
 -0.0044743324521564  0.3392661988004084  0.8388274220854184
  0.8332384374323450  0.0869087415234449  0.5855258462335039
  0.3308570721048166  0.6702575369983401  0.5046144230355993
  0.5003482595078499  0.8367290780400012  0.5032438906084111
  0.6669704723957662  0.3358244941465102  0.1702288584522333
  0.7479716237602231  0.0018057497267097  0.4195003016215499
  0.2475795096429815  0.1696539523635584  0.7548720525852836
  0.8310348867371948  0.8342697659478552  0.6698069975783024
  0.9169726690415886  0.5020610195126751  0.2531885202666393
  0.5003385926648551  0.2546959409012194  0.7504373771414540
  0.3317805591524458  0.5023452027283197  0.3374880932410884
  0.8306197095514154  0.3354990594185882  0.8369607313791357
  0.3337614420970965  0.5868639073565353  0.5884547001443561
  0.1639807486057793  0.3373079950481709  0.0033408136873893
  0.5015474404558204  0.1670172428720912  0.8376084569230298
  0.1651207315191433  0.3373220712818765  0.6706246303559377
  0.2510203700530274  0.5028375830152909  0.4190284419346929
  0.7491963280147037  0.3350651048163538  0.4176419181785562
  0.3323016038338354  0.4213806362383701  0.0872999351021762
  0.0814709919531991  0.5029039653626561  0.0874884627668092
  0.6658986996243489  0.7516491231245673  0.4202128043837864
  0.1652295683201037  0.3380423170352853  0.8386803522862990
  0.3313552212751995  0.2505063636015376  0.0839085352072818
  0.4155626485348136  0.6707009155507511  0.9183273559707086
  0.0825284337671663  0.7518990242180333  0.0046443693368738
  0.2476050294081335  0.8363806155396645  0.7529652604935142
  0.7475840950085272  0.7540504251389281  0.1730564118330512
  0.4973544182216270  0.3337115427960723  0.3357940864248573
  0.6665016902946657  0.9211714847956912  0.2546310970738149
  0.4156449192916647  0.0029758963712438  0.4206677897914201
 -0.0015775504605676  0.0014624096828223  0.8379586807959677
  0.1653001256534604  0.4193115811564775  0.9200941734504688
  0.1660448289536554  0.9205364648575362  0.5867407875645458
  0.6675015770027146  0.2525872857174550  0.4178270210132458
  0.5015122106642156  0.6700604127590348  0.0011941097697399
  0.3304456604521206  0.0035292974981380  0.8384327294108244
  0.4162843687144678  0.5036824252687205  0.2527938386792389
  0.2499398880004567  0.6692344970654519  0.0879556428275911
  0.1655048392389732  0.7528996398363672  0.2529603651015800
  0.3320262293908037  0.1693109901793821  0.8379991068379228
  0.6675877377957878  0.0017337178606066  0.0038417207363783
  0.5816534781737417  0.5852817023364669  0.8353117314413164
  0.0825715642164864  0.7534386355106106  0.3359723666693152
  0.7487496429258388  0.0019741727640495  0.2532204583428428
  0.2496705607754355  0.7529587822061989  0.3374453887456520
  0.7499886867303105  0.1681607502571735  0.9211773169512034
  0.7493168308181063  0.7532736020147101  0.8343919326911787
  0.7484751656588176  0.5854598421330965  0.1705288368560492
  0.7499177580355635  0.1689395316694307  0.2520427846293256
  0.7509762269008479  0.1682346029352796  0.7539527301119794
  0.7510631875165341  0.1676201052102322  0.5863403702504875
  0.3310449571461699  0.0027909817676029  0.0035470352665735
  0.1655462853339973  0.3378013898720701  0.3355218386357633
  0.5002485691383211  0.0859927416995419  0.9212382925898593
  0.2499579524140877  0.3378570722734747  0.4186158217738496
  0.9131879731321122  0.7511295708604363  0.0049802827337236
  0.3345413432905433  0.9190886994013143  0.2539631411943308
  0.1660462818708862  0.0891781939846562  0.2546042359075241
  0.2492884870362927  0.8354617800466361  0.9191472545280597
  0.5815099681044317  0.7532533377367906  0.3375733928332787
  0.7521455516692257  0.5857137212342853  0.5020261764872636
  0.3311904275519780  0.8349402520540696  0.6721138911997098
  0.7493084141541129  0.9205363810168160  0.8349415436546763
  0.6677261922832614  0.6687928649765537  0.6690061032738909
  0.8322272668084668  0.0857302095532648  0.0871306165770489
  0.7502681916835612  0.7537125301907960  0.0039363245039588
 -0.0021230439185215  0.0858061732894921  0.0878593654314785
  0.7497212363330771  0.0026314389510311  0.5863681640549353
  0.1664767428143196  0.5864986199310639  0.9213571365210442
  0.4992126090351404  0.5031546141916798  0.1692783683501771
  0.5017090652485183  0.7546185481437696  0.7527759836830527
  0.3326958372664209  0.3349153010437884  0.8387363988235855
  0.2489337790068019  0.0030802774613506  0.0867645852423602
  0.6658309533991561  0.7525116228995584  0.2543364854166062
  0.3338516080758419  0.5032064880117227  0.8384742441533780
  0.3328558803829290  0.0019245692812703  0.1709785514014533
  0.9155575193727036  0.4195009227976706  0.0037309514541790
  0.2493182953168710  0.3344452979537382  0.0868581723771523
  0.4159679067449490  0.4190910311129050  0.5031197450864091
  0.7504858733620317  0.5854150133650038  0.6682899325401154
  0.2500837606092900  0.7529484649375322  0.5035896502358744
  0.4993574601078713  0.5039238383802438  0.3371573103732954
  0.3315541398166777  0.6707151028423488  0.3360210678350390
  0.1659147886611774  0.9202881861274886  0.4216283806782017
  0.8324734474114244  0.6707558507910358  0.0037487943596823
  0.5016016349115255  0.0021777266167145  0.0037824396801489
  0.9163646106462809  0.4203292138610891  0.8378118032130009
  0.0004004118681756  0.8360657963816579  0.8373698639548806
  0.0853535015924016  0.2525017244421570  0.5021140848922766
  0.6674283760483913  0.9212480245204517  0.5875105234453160
  0.4993543171388274  0.2512269656153365  0.0858088999630651
  0.7495134592910215  0.2517745859329521  0.0041684793621092
  0.7488232650191283  0.9205642083057229  0.0040298129662475
  0.3323611688184718  0.7551923053847509  0.7534209903346447
  0.9157860732309453  0.2522893293716534  0.3356326987520251
 -0.0001687203686711  0.8366618284510119  0.1699379323449304
  0.7500085491009758  0.5840954005651949  0.3383764138517071
  0.0814245604849849  0.6701732381338902  0.0866623300430704
  0.4160823368755402  0.9190552786073790  0.8381228549654246
  0.8322967527780963  0.5022072677225088  0.6691610904097266
 -0.0006165448862923  0.6695833407713273  0.1697022527645333
  0.1650316091602123  0.2535858439168176  0.2547031592843959
  0.9160863333114003  0.5017449786687498  0.4180882828434468
  0.8303096065727275  0.8354863546632069  0.0036540744433668
  0.7490264727836151  0.5027849193031630  0.4188195468125125
 -0.0009330455509436  0.3368179390553941  0.0044416967306717
  0.9174547598200210  0.6686051668664089  0.5870281461630827
  0.5001290654848608  0.6703372122571841  0.3366713226583024
  0.2488301445691386  0.1703567946865202  0.0835529024093001
  0.5859176848632749  0.2524661171659652  0.8357437916908101
  0.5008887900212423  0.7522014802221976  0.2536794472191543
  0.3308714017443613  0.8355951012131030  0.5033655703432570
  0.0827657861846045  0.5028437655957323  0.5870883862875779
  0.7509342342264184  0.7541682032633025  0.6695653809107853
  0.0844511938257695  0.2543684877706361  0.3336606322502291
  0.8328301546116297  0.8363351580170838  0.5028530823388491
  0.0819159288366797  0.0868495596664262  0.6705312661984080
  0.6668723806461788  0.4185412640341405  0.5863457492196702
  0.7487651893998890  0.0857265350604271  0.0052051549544262
  0.2496287529009608  0.8359923779770538  0.0867885458665064
  0.6656261105723797  0.4176757128939491  0.2540079629433895
  0.3295314490685672  0.5029227063214007  0.6698316878904338
  0.5826352784475198  0.4168924415070695  0.5034781676287317
  0.1655526924861625  0.1700035577709227  0.5020698653959397
  0.5837262529173729  0.5020386593154482  0.9205261251666235
  0.5813586582834619  0.3350867430669998  0.7525941979057473
  0.6659717242184294  0.5862157253999367  0.0858790482943200
  0.9178462415651448  0.9207017828611679  0.8381462333852513
  0.2492358257356264  0.0855569485956763  0.3367355720033171
  0.0834356625932532  0.0856242871228194  0.5042944131798445
  0.4976358099975211  0.2524433929618858  0.2526687904554721
  0.0821775389405496  0.7536055360768378  0.5030601466055227
  0.1656489862645105  0.9194564675471615  0.7530133066458594
  0.0863979873861819  0.9168390160692265  0.0050919286873458
  0.4163739941041565  0.3358298100515078  0.2521268011764917
  0.4178925893193849  0.7548533593474075  0.1722532315594371
  0.9161249195840074  0.2524869517672422  0.0041872219598837
  0.6660601978841951  0.2536541492549527  0.2543036819241541
  0.0816272570053685  0.2526164073123824  0.0030676639444550
  0.9161810631438150  0.0038401153890677  0.5863182073252220
  0.4991732046011054  0.0041685819935591  0.5031122974868042
  0.5826805380161170  0.2534645368787377  0.5048269784710570
  0.4170777909555373  0.8355781745719206  0.2536727218629943
  0.0817872658299448  0.0031198549017033  0.5862545374353773
  0.1668998284266623  0.9152208106025241  0.2532703894526677
  0.1654710849013959  0.5855716462557400  0.5858176365087283
  0.3320296293151805  0.0033422950195881  0.5020907537994097
  0.5832969648121465  0.2520521299578051  0.6707107285096344
  0.4152514849101096  0.5898391600026172  0.6701160055002388
  0.5841004850620866  0.8370208931494945  0.9196745748093597
  0.5010867433368007  0.5853964661892006  0.7546707356165860
  0.4156873529597492  0.9203749101617653  0.6696936098103544
  0.5831181881740434  0.8368279241566248  0.7515740319218666
  0.0013987854792897  0.8355579778093629  0.5029169053059803
  0.3309874380634196  0.2520600686079537  0.5867929634070510
  0.6669771250912656  0.0857971914881363  0.5872515575699865
  0.0825338512118244  0.4213075946939306  0.5021535454608248
  0.5826964939244882  0.0863599280366444  0.3369363178745472
  0.6689592429787959  0.0859324092344105  0.0861095937283597
 -0.0000386702091908  0.6683968762918424  0.6699951637719904
  0.5828723801703368  0.3349903510021573  0.9207645217108076
  0.6669027485917490  0.0035822148086785  0.6698535292841474
  0.4983368209102868  0.9195400437050042  0.2535631107214755
  0.3331342179064906  0.6710864779277875  0.8372172201672938
  0.6682445699217036  0.0857450397764032  0.7532151343396544
  0.1646490277954383  0.5854410532447361  0.7543074417936176
  0.5001042052716806  0.6696432610299531  0.5046902856664619
  0.8329135343001416  0.8367375317837740  0.3373352138279371
  0.4142996111211671  0.1703214033020028  0.5873450643215281
  0.5809882824753552  0.5854172648525428  0.3372204622288392
 -0.0014774172672661  0.1677404072010641  0.8379100945998544
  0.5833624737947029  0.6692099495488995  0.9207672293252068
  0.0812739455226777  0.4214986162967714  0.1682684181096752
  0.5010883338548366  0.1693858360780266  0.0035808843721041
  0.6668852992556090  0.9205250828727580  0.4203794324999429
  0.0822672541925791  0.5042222778706756  0.7540085987831421
  0.4986002777007850  0.5868467770502300  0.5859708608790379
  0.8336046180262049  0.5019453612817687  0.5018594845930610
  0.8327056542700885  0.7535055238048546  0.7530328570060826
  0.3325822869178517  0.7529465859268403  0.9196978663043704
 -0.0012167931428817  0.5028021299918324  0.3358157184739989
 -0.0027464782554124  0.4186059838949418  0.0877610541471081
  0.9167684442149060  0.6706672710469103  0.2524723104920097
  0.7492550610632617  0.5857746262634426  0.0048213062485071
  0.2499765163846885  0.4197357287689393  0.3356725008317279
  0.4997863500261941  0.9203449423951737  0.0845135911043173
  0.0822092298591474  0.7527940946578557  0.8366209275434480
 -0.0008815083245179  0.3361646884562430  0.6690831385672990
  0.2484915448261341  0.4186630397154842  0.6717510689643095
  0.9110855116292903  0.9175347343776669  0.0042739602781832
 -0.0023224922985806  0.4193933063913606  0.9220264427506021
  0.9169173268935374  0.6708108268781577  0.4192801105076687
  0.1640148438484228  0.0862992397115266  0.9194877323794621
  0.7489233674670080  0.1700581360251735  0.4187746737574687
  0.0000325056294430  0.5045038424221947  0.1710410520631648
  0.4163002811747437  0.1679178927256329  0.4195571427856355
  0.9154271602639328  0.4200289900386858  0.6702996527186442
 -0.0022230765209569  0.5873989838215249  0.5859700987791854
  0.5822610112111343  0.5846743784907312  0.1686516883587111
  0.8315039472051973  0.5860518919690586  0.7531470399457080
  0.9158167973506453  0.9193664265445696  0.3371164840585008
 -0.0024081298518900  0.5876587287650705  0.9210014780557838
  0.4977151704627620  0.3344705196849164  0.1691302239418693
  0.4979929615450013  0.0864918842779894  0.5854052536095381
  0.6678964741157668  0.6671313328309498  0.5052644627064489
  0.4156424074764283  0.0866777661406730  0.3377145638959718
  0.1656100438622606  0.5855021477579648  0.4190027949922443
  0.5835984467332487  0.0860672696444795  0.1693811518583959
  0.9139301666435080  0.6712025865522947  0.0872553077722563
 -0.0006913399660630  0.5857195166303244  0.7530095650428889
  0.4163444399124039  0.8378125067609640  0.9196258371735413
  0.4174016060425840  0.5033059393471497  0.6699420174220756
  0.4996842995816262  0.0032091802072722  0.7577037925071985
  0.9166225136431859  0.9203161312965203  0.7482404896702451
  0.0809932516425886  0.0072962539997884  0.0045497327952866
  0.1656104095857686  1.0023763927560174  0.2527825334522356
  0.4178666617489381  0.7536399028714178  0.0827474452653991
 -0.0012850289010718  0.9199234842223555  0.0044994085757526
  0.2486119936471287  0.1687286759420494  0.1736049631769229
  0.4988792772652685  0.2536305689071544  0.8367487501110524
  0.8333089369525474  0.5027688793884413  0.3363901001591551
  0.4161740728833342  0.8359794111438147  0.4212879907423550
  0.9152533416899814  0.5859109527594712  0.8361369933506173
  0.4993294128396917  0.9187787268919889  0.7534699053461158
  0.9141266082597931  0.8354174835258213  0.0874750167057655
  0.4162984953552065  0.6708585377377043  0.7538627645088639
  0.8314638866848237  0.5863995918653345  0.0883634545279379
  0.7502457894227231  0.0857618899628700  0.8367508797205558
  0.8326380875948590  0.4194419446465674  0.9206851110042404
  0.6664711616850582  0.9195737541103994  0.0867362449471075
  0.5833644484829849  0.0027780142801247  0.0872775762964266
  0.8318523183231271  0.9184948253321555  0.0878232278851289
  0.9155771969983517  0.5868712607729172  0.1709451429960846
  0.5008506851140619  0.8366856886663157  0.8368480587911193
  0.8336252946279573  0.5857537946173871  0.5859461782047100
  0.8337687773082052  0.6690084274009196  0.5017428599193023
  0.4996417559788024  0.8369809614782423  0.6699353728737746
  0.6662498768318382  0.9200768265728756  0.7526702204537048
  0.9163499141098949  0.5867840401878818  0.3354837051094929
  0.4157344342944264  0.5871529087065126  0.5042411144157861
  0.9167238557840843  0.3359607448507024  0.5855454035270560
  0.4168560654091262  0.7537543677665302  0.0004697816752529
 -0.0007658671041408  0.4192396890849741  0.2528692988413120
  0.4168800812745192  0.5866716512473258  0.8363774623655853
  0.6662643375004986  0.0860542068638413  0.2532022662504448
  0.2488550234547280  0.9192744447428391  0.8368529818904349
  0.6674478205450955  0.1689711159203796  0.8365266358547654
  0.8319234361894782  0.5864690536660725  0.9203301836065502
  0.8338923711666997  0.7532169194992780  0.5857736385086419
  0.6673972401110543  0.0854044265816741  0.9206858388608014
  0.9164076396824634  0.5026024680184870  0.5860752924109230
  0.8318765214536530  0.0022487847751984  0.0040115265636251
  0.8327663302134479  0.6696233360767990  0.6701851776848843
  0.9160520924036842  0.5027916144359807  0.7537449888099954
  0.5005077479495834  0.9198637083940137  0.9208685078846195
  0.5845431754584913  0.1686910523232352  0.9212509285838565
  0.8323393932420182  0.9189553362339817  0.2543544566229275
  0.5827684007932973  0.3358768610000135  0.0874742461210330
  0.5827473805173708  0.1704498347350252  0.4198128749718452
  0.4152135310737828  0.2506246027538617  0.1680780117457487
  0.4989719505435208  0.1697044040915877  0.5040856121663316
  0.5825441050037334  0.2527726487948636  0.1702642021647074
  0.4144187255676013  0.0868464264737161  0.5033336178028879
  0.5843641281596614  0.2531627611993713  0.0042248844360874
  0.4146982500633213  0.0030084926815257  0.5857794903771013
  0.4148618733113135  0.2513325202053759  0.3370358173395762
  0.6676045256157727  0.3349996679203205  0.5017072176603001
  0.5839922336419908  0.0861797642988205  0.8372106033549341
  0.5827480995738681  0.1695405014786106  0.5869197503706247
  0.4998742590994684  0.3355947922437648  0.0042612468578620
  0.5837085579270687  0.1685299079641397  0.7528072033332376
  0.5833624133174555  0.9193265133512784  0.8368890324994770
  0.4995666614781988  0.1690821527363078  0.1696303902168581
  0.5844130524976155  0.0028889774203947  0.9208120438426742
  0.4167769427758720  0.5031691759449225  0.0862303323672081
  0.4990975104263450  0.7525345941302519  0.4209395933009807
  0.9166844322321950  0.0042708236643067  0.7532538702246524
  0.4156096956659785  0.6704552836394472  0.4208609148518974
  0.8329596381010634  0.5862904238920302  0.2539246605152000
  0.8332259991947167  0.9195362882594890  0.4202406888893072
  0.6665772380808482  0.8368646702845330  0.5025772338453982
  0.9166046217215694  0.8353118880291358  0.5862195142321693
  0.9147965065913690  0.5868747757221530  0.0044969063595623
  0.8322387210451895  0.9188206841001629  0.7529870777050087
  0.9159399584035037  0.8363280613240726  0.2537235194389486
  0.6654112971793261  0.8365603711358746  0.1718490628713457
  0.7495765237377116  0.9198537464926962  0.5028256363575431
  0.7492465643330242  0.8365112686112381  0.4199716438677700
  0.9164951755540220  0.8360695657062516  0.4202439022520436
  0.9170910705377092  0.3351453837250899  0.4196781751176843
  0.9158026634029042  0.9190630892440419  0.5037396969600543
  0.7504682886825548  0.3363484059721643  0.0875237263775310
  0.9169494271716978  0.8350830501488642  0.7529100371018843
  0.4159541437375219  0.0035006955784011  0.0860619619325901
  0.4168416798520182  0.0026330283950192  0.2540783327363715
  0.4993197784107210  0.5008554011777249  0.8380033835619948
  0.7494836274972767  0.8366831123728471  0.9189082045282141
  0.5010412000284269  0.5018467214060255  0.6692550123973865
  0.5833027706490669  0.7539169957105386  0.0021995769905160
  0.4162891182507619  0.6719291485975905  0.5864733662586263
  0.6667983379354661  0.6700326148972749  0.0029762575559910
  0.8322636354893942  0.8365563053792094  0.8361825188384837
  0.4998339342122238  0.5856157716939623  0.9190748885019784
  0.5835704407538482  0.7528019147261371  0.5032749261762194
  0.5827298839475701  0.5863185636619549  0.6689536721302506
  0.8330765593227909  0.4180665381415577  0.5857387364556148
  0.2487541568685077  0.5031163477892903  0.7548920759691294
 -0.0017876719824643  0.8340087961945034  0.0037451944957471
  0.5825611083536578  0.5859460458965600  0.5033222589682003
  0.9168620306266801  0.7528879896265424  0.8359770444472926
  0.4990773209239102  0.0867641876248913  0.4208989040413755
  0.6672376799522507  0.5858275110459766  0.7531298434686792
  0.6660877468351022  0.6686777918759597  0.1705463999122873
  0.3328014402568705  0.9193335158696543  0.4210926295174718
  0.4148704665996752  0.2518703172259181  0.8378352559993895
  0.4160897396669603  0.1685360733138840  0.2529377367773724
  0.3332400802174842  0.4196523305248881  0.2516997635190951
  0.4978001877771161  0.3348812053088341  0.5035315601191287
  0.4155819647334063  0.4196422579973961  0.3362401309064333
  0.4152053235778814  0.3352393039205426  0.4191377788361950
  0.3316283816120576  0.3364184826586545  0.6706014610050118
  0.4160167219197813  0.0858161426136089  0.0031362575339788
  0.4160391525519855  0.3354573952942571  0.9213364867545687
  0.1646960259430737  0.2530526427287831  0.0868927672969793
  0.3323753495429163  0.9196196349404829  0.5869333123238868
  0.3331028599455248  0.0853184707327969  0.2537843464091980
  0.3321222099042634  0.0866346658689006  0.4204219219121772
  0.5829302492447304  0.9198504583342225  0.3373447255454556
  0.4151920418032671  0.0860724102175293  0.8379268481219122
  0.4986582355057145  0.2524030936290111  0.4199670640815930
 -0.0018447247700861  0.9174481515768862  0.0880900996725655
  0.9168318718163554  0.7529791730554621  0.6694218849649441
  0.7499090911507216  0.1698071148069885  0.0874529048259127
  0.5835883921017242  0.1690473029617893  0.0875262270974695
  0.6659829885231022  0.5861832557614367  0.4201438892432833
  0.7521890541077175  0.6703717307775511  0.5863233527042326
  0.8314949268402476  0.7536164940779361  0.9190080097147107
  0.7502325916640822  0.0015804414962525  0.0885523908391313
  0.5827919284072761  0.6700393980653657  0.5862731026193903
  0.6674502128241759  0.9189538558269135  0.9193097031810141
  0.7493914843538366  0.6695402287532827  0.7528471175777862
  0.8329108084368486  0.6696883864739703  0.3360818136998059
  0.8329966726333958  0.3358436363155753  0.5020123049475614
  0.7481008574847405  0.6690771881448012  0.2543059857441141
  0.6660153810847197  0.8362857640620264  0.8360789798356586
  0.6650793407355701  0.5024682687479834  0.3364531119685811
  0.5827294048096924  0.5019163116590173  0.5856648438241124
  0.8315392007968099  0.6692081073759687  0.8363229661649925
  0.8345075466327685  0.5863615731868119  0.4181155545960223
  0.8324881179810580  0.7535302650581416  0.2538456800915477
  0.0816677822896368  0.5866318374113203  0.0033756688897738
  0.6655664418499181  0.5020935118347576  0.1703284723296667
 -0.0005992216699279  0.0879505462783733  0.5858966094688722
  0.5837991377874242  0.6698976583684314  0.0866998183668016
  0.8321300893968533  0.0030579315108324  0.1708433168282009
  0.8328919248794624  0.0856700041894990  0.2541089499269761
  0.6656983048887966  0.5849290964984004  0.2535358704137972
  0.7496790820903179  0.4186740957826144  0.6697621497151809
  0.7501207792365109  0.4194781573678253  0.0049306985512739
  0.8322915530447117  0.0033946029298622  0.5028753169446110
  0.9154874878773970  0.0012979548647480  0.2531084055023138
  0.6664474206012572  0.4190460484357198  0.9200677469513893
  0.9166264580381893  0.1693799736821947  0.0874880051386971
  0.7503813849727904  0.0022521580309107  0.9205445095048236
  0.6666817150139875  0.5021845328769317  0.0038505366733278
  0.0827095067721846  0.5862398104196441  0.6697068920671158
  0.8330002572442243  0.3354918204596847  0.0047446180709281
  0.7488203132646161  0.5026224096582508  0.2530437711953900
  0.6670257815520563  0.1697723897598241  0.0039863009972615
  0.0820078911659773  0.0024414024204682  0.0885191277162797
  0.6665447834964090  0.3351366713297949  0.6699402265255282
  0.6662215033561683  0.5023266733026955  0.5022836287606627
 -0.0005263082222966  0.0041815046295011  0.6686580933057752
  0.9159813624354027  0.0873305373608551  0.6698260274485598
  0.8329442289570180  0.0025561757702497  0.8370915807378240
  0.9163561058294701  0.0858434187444768  0.8374129175078749
  0.8328334211483814  0.0860695790981157  0.9211522524988568
  0.7505218464060456  0.3359799991609791  0.9216324826911013
  0.8325937301478940  0.1696661272557695  0.5015856553397321
  0.7499000407053340  0.2523960715670059  0.5024664035690413
  0.6678648944584794  0.1690962031670545  0.6699975186876049
  0.7503349228283664  0.2525376613119288  0.6698957099373147
  0.9168114690132116  0.1708184279004071  0.5851999249360286
 -0.0014416270042071  0.1698589242185819  0.0040469639240313
  0.8330924224386685  0.2519166263717720  0.2534795064177581
  0.8324441754969426  0.2517822330943921  0.9211471379008416
  0.8334545344661595  0.1697737374136688  0.6695877248105897
  0.6667490866665542  0.1699843411299735  0.5033210257873247
  0.3316680301333593  0.1697956381091158  0.6714650078591494
  0.7493112858082384  0.4187818599268955  0.5016068175655773
 -0.0025489442390570  0.0034680583663766  0.0047015973714752
  0.7514539579340700  0.0865867184477633  0.6701238678600897
  0.7509067185996456  0.2516304153284896  0.3348900922919006
  0.8330668439107819  0.1682928923276054  0.1702901296679025
  0.7492573109868159  0.3355679286866725  0.2535060323540968
  0.8329596402984604  0.1687243475665432  0.3365438046904641
  0.7500819377463634  0.4187342727002054  0.1706774371667038
  0.9154319208279260  0.2523566526445090  0.1704869940074845
  0.8327747181883538  0.2525776764971345  0.4189554728522436
  0.5808660609811226  0.4183952240564320  0.3362786200615765
 -0.0002521161085819  0.3348845460349840  0.3361903525560839
  0.8334555146233569  0.3350688731993330  0.3361936888518127
  0.9155628088047328  0.0860677899550367  0.5029921277213091
  0.9172158678423877  0.1702398183898275  0.4187642511584982
  0.5813226805005077  0.3354981661031028  0.2528975212371083
  0.8328242550526205  0.2524770945388997  0.0871696525716321
 -0.0011134560065473  0.0859881412565133  0.9203272934682355
  0.1655213636444517  0.5874008586968775  0.0865905540030170
  0.7502029611282912  0.5020403118212633  0.5851901900000465
  0.5835196844631375  0.7533533730004387  0.6688124361372824
  0.5825800142162448  0.8370379663408832  0.2539045353748457
  0.6673859562880667  0.8365770972553692  0.0029339395001661
  0.6672035298038180  0.7522074606287058  0.5859759320682734
  0.7501750363846333  0.7528962732270092  0.5024403060927457
  0.9146709431306301  0.8355876086920728  0.9196922812935658
  0.6652051839633659  0.6687737966085271  0.3370221302106700
  0.8320881647576186  0.9192970130764079  0.9196165382481105
  0.7482678439051892  0.8363625268937148  0.0881362754386579
  0.7495350651111563  0.6691879315801925  0.4190818500874297
  0.4987057607820068  0.5873774051507866  0.2531315178934678
  0.6657073285512949  0.0035827988313363  0.3364742595657418
  0.5016252214530326  0.7533963983760732  0.0859763645848457
  0.8328735719697440  0.0035482344306730  0.6691078241359696
  0.7486184207276350  0.9192241695840261  0.1717062264547878
  0.8336561658590573  0.7530812454675676  0.4197214551125916
  0.4159992266173343  0.2526410514158556  0.0029043005132362
  0.4147096237563803  0.3349722186011121  0.0861676805139626
  0.5837733773189880  0.6684351961394046  0.2528693241987303
  0.4161058087836395  0.1688916488626449  0.7546859322813858
  0.2476475699454578  0.0860136834580573  0.8370442624770660
  0.1668036995556932  0.0028377540076767  0.0038918398692652
  0.1636882964324263  0.1690285681047677  0.1705127630960068
  0.3333885701819497  0.1683605264951757  0.1694253882793587
  0.1645441918445156  0.1696254912717412  0.0034773255779212
  0.2480944960465828  0.2530202060912078  0.1703607777537849
  0.1658885192767188  0.0864087437598265  0.0864166117022292
  0.2478432815296585  0.0028649466958787  0.9202705276722778
  0.3327294615478389  0.1686313572084443  0.3367717622824259
  0.1660833061531579  0.2534458787358271  0.4181986561067759