 B Cr Fe 
 1.0000000000000000
    20.0899999999999999    0.0000000000000000    0.0000000000000000
     0.0000000000000000   20.0899999999999999    0.0000000000000000
     0.0000000000000000    0.0000000000000000   20.0899999999999999
 B   Cr  Fe 
  55 206 480
Direct
  0.2601380616576789  0.6750389423877194  0.1467608941770512
  0.5507952059298402  0.9294276420767636  0.1940863644447426
  0.0757792209555800  0.1381747336965961  0.7017226817158677
  0.0024667240711856  0.0459570242166542  0.7440283049973176
  0.0587814951728398  0.1864607617741255  0.4589093848015501
  0.8043352457810338  0.4496577127144381  0.0812900010625221
  0.7958360873872956  0.5198268524782135  0.0296657992548682
  0.4956505315706671  0.0987044169466770  0.2715425751817915
  0.0220625001326100  0.9464505196036475  0.9067944945565704
  0.2888662152269972  0.7910076469004479  0.2742643027669727
  0.0612207406400184  0.0801834729885337  0.9715213491613531
  0.4973798542106033  0.9512803311178323  0.0253133551660135
  0.9991301175099256  0.0744720214508915  0.8254300439965910
  0.6592347480616466  0.4467223031441060  0.0925961273859695
  0.1776898711758182  0.0088542085687453  0.8343769567483736
  0.1479580410331874  0.8020004118738431  0.4635967921651614
  0.9463387971986987  0.1410029631142777  0.8402647708983639
  0.1467670117828328  0.2598112102948033  0.3547905973063841
  0.0110868483056105  0.1299572941177765  0.6444200519916095
  0.2867606576623755  0.0482132708012164  0.5220578465057862
  0.2085972548002823  0.4125177412322177  0.5942650249245968
  0.3648268236604738  0.9455207537378271  0.2770470927379554
  0.4965943143632855  0.8026385602038398  0.4326962405952282
  0.5323467369731781  0.9576605976246657  0.5294771858547197
  0.9718297034407973  0.3900919703354411  0.1391800499471597
  0.5509803676336403  0.0902969009129953  0.2071076294942278
  0.1615668016987738  0.7892027535399471  0.1198161297608570
  0.4286470533198388  0.2191547480924868  0.9091391246370134
  0.6445787115687902  0.4329242119088428  0.3494684952432858
  0.7101387252978094  0.6109008406424693  0.1050890023196722
  0.6609552385992777  0.6121078471543967  0.5077557322559578
  0.6335179219942404  0.8441087289943553  0.2832247583155175
  0.1503983026757469  0.0653590569973046  0.1443429637139247
  0.4046153564999856  0.6845071756411008  0.3047776134156588
  0.8783384183776051  0.9175085530060396  0.6485371676049284
  0.1556077782046268  0.2138768675246042  0.6182691410633205
  0.1459647247796124  0.0003779437900593  0.0898519787562719
  0.5007333651361404  0.8596500053834754  0.3694854812985309
  0.0570443886251683  0.9733248329325928  0.7401708170578902
  0.5648151484429759  0.8132365027856899  0.0882836110435162
  0.7265616612838998  0.6623986227310034  0.6409841008129122
  0.7159241827080324  0.6883743374629853  0.7767592745681591
  0.3218180534996289  0.7926350027690131  0.4440204446326128
  0.3308092165484103  0.7323185619967347  0.5070275038756716
  0.4248282743667177  0.0517911008041754  0.3954572799339237
  0.3133188102407193  0.1836901442653772  0.7424377345649833
  0.7749189547290701  0.6827698989664591  0.7090360642912124
  0.5916400786477564  0.5202991187169775  0.2101454615233240
  0.0802611104524002  0.8562644965346835  0.4651987545781052
  0.1699806288597840  0.6882046583902458  0.6053194563548242
  0.3893324929336855  0.0864355817809894  0.6385810421415176
  0.4913454609510497  0.7664709303246708  0.6558672580127711
  0.4413121838903362  0.8275329270245351  0.6169202346191099
  0.0347839924398967  0.4516768343243491  0.1421117336975065
  0.2114789882403015  0.1463708728894071  0.6072580676881468
  0.4845560596360346  0.8128830439847411  0.1990339406074895
  0.8564928468074455  0.0025090173651784  0.2854958379157699
  0.2064440702540761  0.0455780839917450  0.6383548625207250
  0.7883475791258941  0.0701108135331966  0.2139433532656020
  0.4998555608229082  0.7785062604483827  0.5370465691657594
  0.6511088809365171  0.9245039354399515  0.5149855070790678
  0.5932401410238533  0.8060628731593072  0.3782777816762253
  0.6305863718513609  0.9322850919218987  0.3564653660917736
  0.6813333533556792  0.7539856153990625  0.3285052002092855
  0.2880663484364882  0.1542983720142263  0.8573643031573451
  0.6419142450242783  0.7795565962258162  0.7970849076660559
  0.5748964766623879  0.8425986855673866  0.7082942536503697
  0.7132217564391704  0.8500132253692387  0.8605848607653757
  0.3531723619198237  0.6316819241179648  0.5064990071069067
  0.2989708579242083  0.2923959279362606  0.5737950057791196
  0.7240210367335111  0.8636523362147660  0.1421664767158193
  0.3758366318502541  0.2265454510407646  0.8114875244336677
  0.5017072877842250  0.6531908644510735  0.6298326933290452
  0.3630655129936676  0.6383808368373970  0.7903229816734256
  0.6380431073523540  0.6483951715205739  0.9383655850782330
  0.4331866777612109  0.5694994188715558  0.8632319627755677
  0.6259719701490165  0.7959206277931247  0.4966463355629744
  0.4339601202245645  0.2892053913780645  0.9958805502007663
  0.5020243284885260  0.9322619302652619  0.6504613797937157
  0.7311771721370919  0.8673063946333802  0.2832915928045032
  0.3596384250700955  0.7820216076587990  0.7875504992972671
  0.2454460511433265  0.0054528963962781  0.1349847304610093
  0.6516074605185993  0.9382920120400510  0.2217081518031390
  0.8446299733583544  0.1412137016607188  0.8545064707713951
  0.1421494459851075  0.8617047524693839  0.5634553233752866
  0.0743873915279442  0.6374839584738575  0.9268224449222474
  0.7836621936139602  0.2202447676352167  0.6473288651365773
  0.0678747441475474  0.9197206779685652  0.6404376055178731
  0.0113605652990018  0.8676626648469393  0.1561308978564784
  0.8597312173507126  0.2795602980706959  0.9901767178853658
  0.4105310555784397  0.8605951114655521  0.4274332730910370
  0.2295931276083618  0.7957743489997533  0.3795485337035678
  0.1716775963721096  0.9064324256051262  0.4604797200898951
  0.9265755170704364  0.2136939137062109  0.2138159536249537
  0.3566957555407958  0.5031442007786915  0.0768726042561060
  0.3963763355552685  0.8594503027753406  0.1356491796840837
  0.5661939050167726  0.7275062198745621  0.0095074745593687
  0.5644419432647745  0.8639083338131353  0.9986861667338884
  0.4274246374317586  0.7140810686336408  0.8606885028914261
  0.8669243415015162  0.5325300682324631  0.1221195535911223
  0.2078758893829685  0.9352858044846738  0.9161953704690674
  0.7901416977869486  0.0692395392481494  0.0659736288238392
  0.3386482229211160  0.0856546248375514  0.2095716266166134
  0.2832229730027149  0.0131609744466495  0.2965752905535813
  0.3357352803435260  0.0945915480500333  0.3625073436019201
  0.2811996041913130  0.5677527278033009  0.1473880878713543
  0.7115486828861463  0.4300555090811106  0.4262600805076015
  0.7781200559420595  0.7732243143759404  0.6404816788888008
  0.3535507180326234  0.0835546426671017  0.7880839363318761
  0.2866011484822347  0.4301888271551055  0.1433252038590968
  0.5660816608209713  0.4294545216229659  0.1466026992417964
  0.7058618317549803  0.8626888084356843  0.4140796053355794
  0.4929150747493374  0.7893112260400083  0.9347357094173209
  0.3607566326754232  0.3631479949497333  0.9340784670137217
  0.2567405002127021  0.8581713104196287  0.1229373531445050
  0.7093362047784149  0.8550702066976517  0.7203959546898168
  0.3639533804998198  0.9668600999676369  0.3853557239440202
  0.4772938650226421  0.7625007705493044  0.3355561776813110
  0.7223428882514221  0.4380808435831197  0.0083476960308863
  0.3614952862282974  0.9261112569325979  0.7827183676603737
  0.5050093094185747  0.3562505984137923  0.5023962654246226
  0.6395314403582173  0.9218558768247473  0.0788039913845042
  0.3593100726966821  0.4926845760993885  0.5025947320079872
  0.7826841217648718  0.3613359862577101  0.6451048946502228
  0.7134343564492107  0.2887418385087084  0.5780028570484939
  0.4966195204333261  0.6465062078771731  0.0704617935867342
  0.7165060678583237  0.1388281682978372  0.2849436632748097
  0.9251067620219090  0.6228280025930949  0.2018868305592564
  0.6430221829704506  0.3463383763690899  0.2108049533890217
  0.4339564165917856  0.1510790696466202  0.4285319528151134
  0.4401379306436435  0.2898744653609308  0.7237469107790118
  0.8516675988843332  0.1415920436341281  0.4299222171181680
  0.4261094346144812  0.1497600925245148  0.7221907702064361
  0.4355113456475390  0.5737247943805177  0.7173901426303461
  0.3681709382084229  0.5005919125316547  0.7919938363644935
  0.4254346685775382  0.1478905567799933  0.9924106188433481
  0.2835074174490408  0.5622959172001930  0.2884710294866948
  0.5042449140621915  0.2184140312301181  0.6509172856186336
  0.7910120298692286  0.9291373190228239  0.3604695663393498
  0.6993155782842755  0.7135789514437355  0.5558872460982011
  0.1430448927746282  0.0181270299507111  0.4316367783264335
  0.6197870405000537  0.5408692036590697  0.1020971831384008
  0.6454711068516824  0.0696079261756468  0.7885334329032598
  0.4234940175635150  0.5801554565176806  0.1476455723899223
  0.8658993110531206  0.8586340434456963  0.2832868194181354
  0.5041319287660533  0.3580924720440762  0.0728106476174049
  0.6585417206791159  0.6875228326082811  0.4319656859313808
  0.7781007050173029  0.9180599188086531  0.7885214632928574
  0.7136705519800149  0.9947676979078544  0.8565953763845147
  0.3493216119701521  0.6440145387056732  0.2149326861818882
  0.4145227716378384  0.7280919412065274  0.4456159167554597
  0.5045772762233011  0.5043260320286344  0.9386616211459844
  0.8009882418667200  0.6104071354204081  0.1816560072355249
  0.8573713249298042  0.7111694990266568  0.4198686968534247
  0.7131711830206882  0.4325029544620134  0.5760131317406134
  0.7857657436245368  0.0736296686124414  0.5045834228301130
  0.7848496918819273  0.9348339387481926  0.4988875185470232
  0.2901034862617859  0.7039079300893724  0.9872129170468351
  0.6825520746121914  0.5861235495888600  0.2044731219661916
  0.4290420351070303  0.4277256832623483  0.2866935856064332
  0.4882012851092343  0.5026251121423122  0.2158414529826808
  0.8044027564630891  0.6295302414959237  0.0646616707956751
  0.7157281418812533  0.4363580923765739  0.8587372055027941
  0.3020818411462482  0.8809810120265790  0.3353860510330315
  0.3656979991998080  0.8238321378932809  0.5353857799026617
  0.8576641392098556  0.2785648954844078  0.2890397133043994
  0.8545660663695437  0.5807786846215032  0.7134421996711404
  0.0026570581067047  0.4188844955941128  0.3018273745325867
  0.6597200965807664  0.7825590671985495  0.0802343509261997
  0.2823300569073030  0.2977556214987533  0.0019689164135857
  0.6476032441811302  0.2146307491487045  0.9285938227060734
  0.8516973653530595  0.2859463800391489  0.4333232153025288
  0.5785084585186981  0.2926770513831412  0.8630524179570189
  0.2127023037134312  0.0763069405160380  0.9166342191005553
  0.9327496721109947  0.6367675331910598  0.0743879418495172
  0.5777459801331669  0.1410682419139972  0.8578683112049156
  0.1406293842816252  0.6902492444356451  0.1423850330791252
  0.0047035191865729  0.5685752339694871  0.9984921449906000
  0.1449472028210694  0.5677913929464382  0.8545006971931389
  0.8561746942126959  0.7066976002813402  0.2745660583618269
  0.2182070190790116  0.2184546526132014  0.5267315080638301
  0.5787856216978196  0.1435633172600640  0.4335913226500673
  0.1077937936524329  0.1217022826269406  0.5939831323223596
  0.8534294396108547  0.5635406368156871  0.5719176287568497
  0.8492101144902774  0.5706971086771490  0.4274576286095089
  0.0027649373121282  0.5706668405897538  0.8557612426109433
  0.0740390630993362  0.6448287188623705  0.6390582263398508
  0.5573644657274462  0.5799260493266239  0.2903681585434741
  0.1034052280171498  0.9062155906420608  0.9525558920219864
  0.2118445272963027  0.3647049287548782  0.0735066038223558
  0.7142853458758772  0.5890294055090174  0.7178651271001675
  0.5768783887788141  0.4339486701294776  0.7166766036760596
  0.6763262437988307  0.7369187664891755  0.6942490413401274
  0.5717005417579974  0.2824211764768436  0.1408798979585867
  0.9399155362372098  0.7858687581132985  0.2186209364926703
  0.1026261739469057  0.9034946042176003  0.2652948523751477
  0.5726262675680223  0.4187564858081475  0.4285948883868694
  0.0689412670798248  0.9411102789796910  0.3768372489642371
  0.8604872854683875  0.8543149040283740  0.5663110619443096
  0.7978664420018142  0.7901821044932960  0.2099577468273864
  0.8409182826851320  0.8405444477380727  0.7092767273648074
  0.6465660205407273  0.5004780346262339  0.5033183377831902
  0.9623687324973987  0.9706814539548027  0.6887198889735359
  0.0253364038811431  0.8702866728056292  0.7463126275090685
  0.6825777856790655  0.5149672303720373  0.2974468885986981
  0.6438885607120493  0.3621314207215812  0.6456922289704001
  0.9341933067204776  0.7855189883733741  0.9315111813075674
  0.9361873555481682  0.6415688848415776  0.9284283566059878
  0.9360679134012849  0.7847975312426789  0.7881182614318096
  0.0051583501268532  0.7116031556545106  0.5708181038274638
  0.5040059637686551  0.0702077517038386  0.9280129442559991
  0.8517946385827690  0.2915662152185997  0.7155419434294824
  0.2064282749025809  0.0820746481564667  0.2267813113683356
  0.3443532690320197  0.6507352580220161  0.0792771471439097
  0.0002168497626344  0.7181162281474586  0.7106514922010713
  0.9274709007002697  0.2145372081439499  0.6493951278100885
  0.9517298782625897  0.4720787913107092  0.2082896919033378
  0.2085913061978830  0.6297653039993066  0.2261360565891417
  0.9221529685231261  0.9255456290195233  0.4839705959027917
  0.9236777211507360  0.3589031988225467  0.6471638151201756
  0.6454078527769020  0.0682626262022667  0.3574111441583380
  0.0102419280837552  0.0002383403136736  0.2821210977563944
  0.9370237768131390  0.4988411235232430  0.9240674554448218
  0.0010619891079953  0.2775719216049388  0.4459329786604894
  0.0461213727538771  0.7540440937172274  0.4529507295340267
  0.5577121260717984  0.0080693372596730  0.2709682324107929
  0.0610046305047090  0.3672207358377436  0.0734639893994853
  0.9547260900656275  0.8358241457620551  0.6649703870877044
  0.6531792165774170  0.0696633975424754  0.2113411767034776
  0.1420720264759895  0.1629878877912682  0.2928195622330487
  0.2129171169714350  0.4950741821299571  0.2187256092710635
  0.0734165976198495  0.3459205643650434  0.3702943286634432
  0.9939216097214976  0.2843996382076489  0.1391983384856592
  0.0668879560475741  0.6389620192377948  0.4988364571212035
  0.2811706027867842  0.7034527672900520  0.5909613323312076
  0.1394770001978771  0.5682793956922456  0.5763501132386213
  0.4567168199993176  0.9781546767240319  0.4619020488975381
  0.9950293529062751  0.1638477321064754  0.5498992083784319
  0.1466347070475435  0.4216185573704830  0.7035278189635250
  0.8523643993603424  0.2877895229479130  0.5794749089071866
  0.1482236109911401  0.2931870167499278  0.8517973606745963
  0.6478898547963315  0.0767399969358236  0.5055787382249108
  0.9914090827341094  0.2894132570223868  0.7207081817527768
  0.0669544414240371  0.3558215969289412  0.5091115249782173
  0.1444060569100601  0.2833924428153590  0.4526212595152794
  0.1403130499448343  0.5632677924263997  0.2933221353784352
  0.0717378378264149  0.6343462572999282  0.0704748406434213
  0.2167073255891681  0.3596008667935526  0.5026450812186929
  0.1591408108283064  0.3155718512880948  0.5933023931445180
  0.5716449838445580  0.6003628156937851  0.4395726445669385
  0.0975627647383652  0.0765181825715612  0.7852470810815939
  0.9936078715374375  0.4298197600420942  0.7161659687986470
  0.6439477963955094  0.2192839825249327  0.7919829273571245
  0.0790443871002856  0.5000602098840569  0.0611940850930101
  0.2158059546877714  0.4986994620825740  0.9275287661378238
  0.1433937679624768  0.4293368002234743  0.9982172912967147
  0.9270799955148009  0.5053859984161883  0.7828822937326310
  0.9249600528565062  0.3607369397857871  0.7865153982824868
  0.1382859736029334  0.4235540628196178  0.4351065845236234
  0.9977615677267615  0.5730261031527174  0.5705118742308140
  0.1422648416302225  0.4303373034657283  0.1433484853758504
  0.5721540252810690  0.2769373214202818  0.2810073581503841
  0.7194160582579701  0.1395435433687926  0.1382968375706506
  0.7826399295677889  0.0666361592208492  0.7868834751899462
  0.7135850983671124  0.1420815029740332  0.8568370807119690
  0.7861237364166316  0.0654924817436563  0.9255185579989073
  0.7823825655414388  0.2157598439356127  0.5046099493592285
  0.7176463932587717  0.1398763550971220  0.9970049224668526
  0.6674630704512278  0.4637212155846667  0.1944327932423894
  0.7848698376966042  0.2118833281468837  0.3598644405063082
  0.7897189698043846  0.2113695778995470  0.0660592073210287
  0.7854817514277370  0.0736616005080616  0.6486353280345051
  0.7881903509974242  0.2092953384267662  0.2123749637152146
  0.5540947154348320  0.7282785199371687  0.1440186376805316
  0.9267689833337243  0.3510679113599669  0.0573352382930298
  0.6454216267472055  0.3577137313206327  0.5031641449130865
  0.5712423425626303  0.5683309063870547  0.5670655334708545
  0.5678102959314197  0.5763157935148531  0.7155303850971722
  0.6008168807939944  0.8452670490860986  0.1744401530716285
  0.6443250890466561  0.5062570893034392  0.6467123673391212
  0.6285006600923522  0.6470293570710912  0.7908772725439062
  0.5717671442169862  0.5744981846299819  0.8652434846734206
  0.4978490432058517  0.6446038179150038  0.9344159473420315
  0.6418665473616118  0.7869834970233542  0.9373052196639849
  0.7777815590636721  0.7713352632682087  0.7840590140955198
  0.5579612149164569  0.7121756609734392  0.7203090116004870
  0.8596822816139992  0.2813363002056894  0.1403367707095838
  0.9321080563031342  0.2103237863341703  0.9188386563290412
  0.5869939914337586  0.6803815547665820  0.5340019352920006
  0.8550028747014620  0.4327418589271348  0.7177555779435867
  0.9229206666068404  0.3561333419186780  0.5044078942351955
  0.5700530592420140  0.7678895102260456  0.2593528334675957
  0.6800401411288671  0.7773493857684973  0.2113660512185901
  0.4750329497586790  0.6412525113761157  0.3688444134836120
  0.6100563974849960  0.5164875971498295  0.3832967316279963
  0.5427764990744720  0.8821281706661229  0.2815919734808703
  0.5670670514548347  0.8722132870557179  0.5793869149925887
  0.7139190454407734  0.9999634423442091  0.4306628848558507
  0.7197966608333262  0.0003452940062261  0.2918246798775575
  0.9291576888923130  0.0721062373530970  0.2149666109422821
  0.7201293794923932  0.9992602314470161  0.1385479415935309
  0.8624407085772816  0.9981485146222304  0.9950665425609324
  0.7157966014097253  0.9953204707517801  0.0011056844349242
  0.8604246856026294  0.1389785868750358  0.9924263353190099
  0.9257259519285052  0.5031759043524714  0.6451922099791909
  0.8569093706559626  0.4349923232967839  0.8575665935637556
  0.9559939856676929  0.4735373317655479  0.0774778941250766
  0.7848543726844426  0.5078128808488460  0.9270750677170169
  0.9257332983433745  0.9228907137674609  0.9234893380247048
  0.8555194745827770  0.4242968062632587  0.4330336282926552
  0.9286262939604474  0.3488446256097930  0.3661276704464023
  0.9263522894118785  0.4916600890640875  0.3611717625446266
  0.8759735932292447  0.5372685997778653  0.2586107929671581
  0.9287593185931718  0.3462834676954860  0.2234646522330661
  0.8617594022216679  0.4378479341828120  0.9985803817658196
  0.9272532429350105  0.3587886024996360  0.9248524309598336
  0.8518810010986267  0.2923594563840253  0.8594032507962270
  0.7152216607956688  0.1476286414589975  0.7215680860843996
  0.9154174943951796  0.2258883885031548  0.7898475181813618
  0.9237204614179211  0.4994510573105076  0.5009908980044917
  0.5715059279236999  0.5766560563946572  0.0015024691442288
  0.6273273172286559  0.6580739751888930  0.0808757578938180
  0.4988534263074552  0.5100977718230917  0.0799497394450033
  0.6221391317895574  0.6743676840637371  0.2254960604612981
  0.8579081927445301  0.9974714878277205  0.5795298199471588
  0.6670724630807692  0.6239870141018604  0.3284169507569138
  0.7153421877089446  0.1460426900845091  0.5779409893457973
  0.7858152392591833  0.9235708935625649  0.9293548520810458
  0.7466392746377434  0.8350946102663206  0.5297614928340509
  0.5382503110703916  0.7167219548893997  0.4384186541017577
  0.6729795565651624  0.8304267666667946  0.6114783691794432
  0.6445152091487271  0.5092373327165257  0.7869334726936091
  0.5672034710767276  0.7165861144990980  0.8691013876639119
  0.8536623181675324  0.4292708150589148  0.5752607945842166
  0.9235855754732302  0.2172126761011051  0.3600975987711689
  0.8559800748075420  0.1428577696501677  0.2853728259037251
  0.8587065136799533  0.1409474974988849  0.1396453307260250
  0.9270735341463585  0.2151534901080444  0.0659951536909256
  0.8499554140367183  0.1495830619594609  0.7196353699342000
  0.0029034923517771  0.0323354119848447  0.5747335574887495
  0.9110010770993137  0.2196315128143917  0.5008388132950602
  0.7154526273405148  0.1403938978445415  0.4315398650533894
  0.5743691158931158  0.2872705245806566  0.5763915007243101
  0.6443867958453398  0.9257184180900879  0.9289495252902423
  0.5774053193665211  0.4361822870904248  0.8630580118034898
  0.6401364596936366  0.9231107887112906  0.7871873231108589
  0.6473470826639756  0.5052034082330524  0.9312001809236591
  0.5700142840837484  0.8558373492259179  0.8608694477955396
  0.9096593450691014  0.9050571584105381  0.7750512837048702
  0.8514985784746651  0.8456561128366450  0.8585782621710006
  0.9591609955518310  0.9240346156763627  0.5864166257697020
  0.8464053383586164  0.8437214332786483  0.4332976178536763
  0.7942132468180336  0.7867567471579326  0.3412325368852620
  0.9267779458195387  0.9353642934461940  0.3547470167709312
  0.9352542269598974  0.9287052240589915  0.0711907555315690
  0.8623981198950661  0.8544470246501331  0.0014919135514412
  0.0196374487927139  0.8314719339090625  0.5500606230010857
  0.8228112537997810  0.7460825784612896  0.5269167230396935
  0.9314055503291774  0.7761114882015289  0.4885365585877021
  0.9362398347445375  0.0640207169855031  0.9155802318466311
  0.7761420738860846  0.6391845566128478  0.4940859270051187
  0.9299685950833462  0.9332076937995888  0.2167911336730915
  0.8663150826717292  0.8589859529230768  0.1429307064410237
  0.8664125606989888  0.7135350499723899  0.0028660228705062
  0.8643871617538427  0.7159996511722854  0.8635179278975825
  0.8652804155054049  0.5703389584155016  0.8616778611226097
  0.9327920716727794  0.6438305225183696  0.7879216682754174
  0.9341581363463504  0.6378648767651229  0.6438864273851662
  0.9120131717010739  0.6495905244611760  0.5152732619393718
  0.8962436545208660  0.6179847976957213  0.3392296970979939
  0.7777568549192809  0.5838742484253728  0.2955537292945197
  0.7843737917663762  0.4832290177088162  0.2165789861283347
  0.9377755133443614  0.7855678074265601  0.0773962183959836
  0.9241865396578812  0.7831842209079517  0.3510645254200975
  0.8533734875467107  0.9887128809255697  0.8530298567453299
  0.9077743365523280  0.0614326919404097  0.7789093038382310
  0.8413307872056243  0.9879783078649339  0.7110765604500290
  0.7710131305496991  0.6667492847161204  0.3709325310704255
  0.5733317867416591  0.4373639625414665  0.2804107002060532
  0.0730037087843762  0.6378375700144781  0.3606170077473162
  0.8774180485028261  0.5663589141905687  0.9948346023751912
  0.5759479208240944  0.2893283722278052  0.7203971225383693
  0.4295830769243660  0.4296213246560868  0.1430057512401896
  0.7814759035288932  0.3582888671838888  0.5038196004413945
  0.0061752263452096  0.9965759862279672  0.9966769268301556
  0.7876058511215930  0.3499951338979523  0.3613421164936056
  0.6481299632107234  0.3659701895214845  0.9358792920324090
  0.7991580859514007  0.3463289660736380  0.0583701207558936
  0.9250738647712844  0.0708766417579684  0.3504156807976109
  0.7849566368109931  0.2135973321252377  0.9266337451135651
  0.8551522659574915  0.0053921068706994  0.4293172617606504
  0.7380751994076311  0.5176756106231447  0.1115485402129779
  0.7836266570154017  0.3638865358328577  0.7886536217145074
  0.7858612399257202  0.0731784157961368  0.3581945721437966
  0.8196551275828750  0.6619930567737234  0.6117527591518880
  0.9188551413484192  0.0755715616944584  0.5046997377005090
  0.7821393997653124  0.4981805596181882  0.5007088123456260
  0.7061321190679182  0.5774265083183551  0.0061535166711652
  0.7135064272785002  0.5669350796229802  0.4228690742844450
  0.7142297527281982  0.4346010970328796  0.7177638295888835
  0.7945179087863177  0.3432223264870273  0.2200569815889002
  0.7922218162020064  0.4867369508306514  0.3561836149055788
  0.7377046032321436  0.3987094376890529  0.1381454864625850
  0.7188868805773849  0.4059209478492908  0.2867467333909566
  0.7142518062372405  0.2920293531189713  0.8611329123208006
  0.7206828263054406  0.5762051654949091  0.5814483620236025
  0.9226676363806141  0.0812494574512561  0.6525325601057990
  0.7850994570525134  0.5093774776077445  0.7871189446195037
  0.7858874433279315  0.3650840921316371  0.9304905306610325
  0.7127385973478071  0.5814127295638719  0.8593024132061001
  0.7190198912033896  0.7084735672048827  0.0072397888064458
  0.2186182297346996  0.7779426409943063  0.7851141728666849
  0.1453692004735929  0.8548321949796431  0.7236969703944541
  0.2213800094656160  0.9175180663060284  0.7932556278156320
  0.1494274350741740  0.8380036942786377  0.8601324793997843
  0.7314857668467600  0.7036673657109482  0.1376648822348777
  0.0815831583667990  0.7822772570844384  0.2161808864707638
  0.8606802078251057  0.0021693437050961  0.1398208878577987
  0.9318841149797693  0.0710219888141067  0.0674020799744131
  0.7924927744003273  0.9285110011765764  0.0694736846494651
  0.5017971224856357  0.2154957358431405  0.0645639085827639
  0.7870768646553155  0.7820789069447796  0.9357420009784753
  0.6284282313699372  0.6419704467671377  0.6402092226536210
  0.7162124477715256  0.8565443354805694  0.0045298067205673
  0.7143188229752812  0.9959381547450101  0.7174669114173763
  0.7151632971194692  0.0069986796156484  0.5758167441440133
  0.7847702057885013  0.5021612640589912  0.6492797838333211
  0.7422623795108269  0.7577293693608322  0.4448890612028253
  0.7935517012198052  0.9329620325599041  0.2118677967325973
  0.5793121678938411  0.0008981152849612  0.9991275858313746
  0.7134411683313440  0.7116536293066559  0.8740183092821302
  0.8008310831062170  0.6424170505117404  0.7987084824866320
  0.7719356111076067  0.9136972191167767  0.6315811437302236
  0.5751773486964844  0.6864239061771847  0.3360836259884745
  0.7431084032057952  0.6888099024410618  0.2553396089007062
  0.8647037731325184  0.7139995250379028  0.1420792270884826
  0.7929336494047546  0.7850569064048326  0.0735037392584465
  0.1454285865216436  0.4293414383096504  0.8525630923850192
  0.7140234493638820  0.2839915879749295  0.4320565781026194
  0.7157118872745508  0.2772475491190580  0.2833181777093062
  0.7165881629204005  0.2861481726769012  0.9976040627642199
  0.1445547649717588  0.5673606308923643  0.9933321008215947
  0.1403403194678199  0.5632204328984906  0.1474542438815550
  0.2115685350937993  0.6262656565146413  0.3611681597986559
  0.2193981474304594  0.3607327054878222  0.7836880976542611
  0.1423768591643844  0.5653923025210815  0.4368848978899211
  0.2444527492388529  0.3520568621615145  0.6628803548717497
  0.1292213411765239  0.2987879560833190  0.2690895123193687
  0.2255602702793024  0.0835521418573629  0.7807736750435800
  0.1579043045678715  0.9903331357842011  0.7312083613181577
  0.1360355763457451  0.1503096150983012  0.9895080072023661
  0.2102525809412093  0.2228515074725900  0.0663420476762233
  0.1408069095242437  0.1624081646192910  0.1416200275800397
  0.2100135698343335  0.2263266886009264  0.2113099838546366
  0.9943815016462161  0.1478643195148907  0.2863956023187467
  0.1506984610802781  0.1593394955627738  0.4325635192498400
  0.2323020909757031  0.2150718976706128  0.3666506731083690
  0.2487175690207021  0.2274591162392792  0.6570996858389837
  0.1484738062772281  0.2873286782119510  0.7112458009485521
  0.2236479134653823  0.2241045901519855  0.7855924257862782
  0.1542980860886698  0.1555385514551672  0.8558737913900752
  0.2110944550655676  0.4915189283092167  0.3621539323283905
  0.2134080493560243  0.4907481108045251  0.5112680474363407
  0.1210765469683083  0.4346749394827958  0.5710396952185085
  0.2199168758951442  0.4960156292361446  0.6481949194976891
  0.1410101372786662  0.5652025382875117  0.7159130580014605
  0.2157552500045531  0.4964230215535251  0.7841694875877320
  0.0001178201207095  0.4288022472200502  0.8514240681038694
  0.2134995096575958  0.4994374913073887  0.0721095979564149
  0.2134014305873643  0.2269453722471079  0.9301824295848965
  0.8518848494837244  0.1459413794191941  0.5770476538965892
  0.7821198718496875  0.2210687910406088  0.7899334694222798
  0.1387997393408986  0.4215852644030301  0.2902732090387957
  0.2150896859857829  0.3603595793801216  0.2133336253498079
  0.2100539310214486  0.3496149918051057  0.3614534183308801
  0.1354003459497007  0.2960469164941532  0.1411667137663979
  0.2818130912801527  0.1464175825272693  0.9970351904964531
  0.2869894196845514  0.9916143752327993  0.7213000565939669
  0.2036687343573949  0.9259915876115664  0.6489421778685118
  0.2778066844965940  0.0093136146015562  0.9903410547004712
  0.3503791484631272  0.0700506921849416  0.0735890124913301
  0.5078230319637090  0.0771606103259306  0.5042531772839625
  0.2305555265554005  0.9669938315313988  0.5381338872974325
  0.3234535910761422  0.0136084747936144  0.6115078874001205
  0.2140712976004192  0.3628071339367556  0.9286226397150507
  0.7927967554376131  0.6399136925442749  0.9347563095128708
  0.3527021369935488  0.2228590522487484  0.0650453465833708