 B Cr Fe 
 1.0000000000000000
    20.0899999999999999    0.0000000000000000    0.0000000000000000
     0.0000000000000000   20.0899999999999999    0.0000000000000000
     0.0000000000000000    0.0000000000000000   20.0899999999999999
 B   Cr  Fe 
  55 206 480
Direct
  0.2947717333671644  0.6631494266479588  0.0808409697212532
  0.2501118724051046  0.8993146719907089  0.7424094719979122
  0.8092450526866858  0.4990624054304186  0.0470462821625867
  0.5112143992690527  0.9389481265441426  0.2637310679200054
  0.0423120277742331  0.7945089625134015  0.4354256307073175
  0.3216988985570087  0.9642206053833551  0.4720090081352833
  0.0117118338328448  0.8020969515670772  0.7071646097847532
  0.3446028122318504  0.8827635418085017  0.4663691170896087
  0.2842182097585589  0.8574071411505131  0.9242676844294925
  0.5193591592503787  0.9439055696224219  0.5350419531908427
  0.3758544936199026  0.6342113937767029  0.4056741486253976
  0.5879183903736807  0.7693916127392756  0.2981740405811151
  0.1809059766825647  0.8684402549503499  0.5123233185211458
  0.1385091738008922  0.1592564833135744  0.9983405188279854
  0.3184631382621764  0.6262261046631066  0.3400620826536016
  0.5307403045981222  0.1053909200998272  0.2202230669416511
  0.2947855615166531  0.7707459069892649  0.7864944960142799
  0.4368519726357089  0.1834673423120818  0.3061295724288768
  0.1484965519318354  0.0479697527306202  0.4198323298133951
  0.2959085517419476  0.7802060604745458  0.3030284353578183
  0.6532857481027461  0.4575961072886491  0.0947041020028607
  0.4439777334876784  0.8066488468968254  0.2565763656611366
  0.4523774696846244  0.8893800962261906  0.3855405430728917
  0.0419044514322773  0.8568946169950755  0.3689106396773299
  0.6637385567783826  0.6151738413698995  0.5150045647776689
  0.6264166302786836  0.9944243309179267  0.1617856833044480
  0.1660818745736397  0.7892096313488156  0.1331601074618881
  0.1548887664974283  0.6612561746361213  0.7113315518986505
  0.4258182971886038  0.0642254881710457  0.4932025290906551
  0.4696986669067481  0.0505699965493832  0.4190164865643285
  0.4683171039593709  0.8773184833365241  0.3027609476008492
  0.4434594678891441  0.1284872598669516  0.2397834850458205
  0.1984511349814801  0.7199510841040226  0.6626781420875099
  0.4893415855423770  0.4635943395605638  0.3664612741926696
  0.9450265200417278  0.9688309189585463  0.6302928327754177
  0.2363019567869869  0.8511924058664169  0.9992892405731342
  0.2071951798242063  0.1096009698409983  0.6328024870106742
  0.6384208884666285  0.7003871347806078  0.1537909919549816
  0.5222539967900297  0.8285847392342640  0.6448102318471424
  0.5390365214617235  0.8360719720837002  0.0962290714106409
  0.3512921085088354  0.9830578510111398  0.9286864593444227
  0.0500342158142285  0.7300939267791487  0.5074940167295849
  0.3606553577636187  0.1223941744921460  0.4889139771371311
  0.3386044936698111  0.9912621181720065  0.0803728302541801
  0.3730421208774392  0.9957895295537016  0.2686851797563107
  0.4055294155186826  0.9364266343893264  0.7746659789041618
  0.6508276278805940  0.5194524862112542  0.0353542123790282
  0.4113607819690738  0.6681835079395764  0.6984950305768411
  0.6303110962845220  0.8449200256437300  0.3031965324828171
  0.3236330923509790  0.9233645080006362  0.2667333481314091
  0.4090399670348357  0.8261892328188764  0.4209407909066214
  0.5380317844909878  0.6256238226572448  0.3037739167054898
  0.2828680705011145  0.0512104567118041  0.1117427438470290
  0.6085505203140530  0.8453447560645259  0.1521397872221205
  0.3242562408490251  0.7394197788193730  0.5031003408025329
  0.2069263604409587  0.6253472027405348  0.2021480350167525
  0.7918819810899244  0.4936980162896970  0.2119719118574283
  0.2725677942278996  0.7148995066390547  0.5894757122248065
  0.1392824784119243  0.1504182292566964  0.2763617444375251
  0.5235701149067421  0.9414821031229487  0.6571171124237605
  0.7775232428538886  0.9212467080755030  0.6392382180637352
  0.4901977171845767  0.7895435438532753  0.3595871075970819
  0.4339691658005302  0.9552636204329519  0.4680478770496534
  0.7356666719513464  0.8613622605300097  0.2930942654714082
  0.5062384790280434  0.6417866698412227  0.6359437748799137
  0.2141273983765707  0.6316919414571126  0.9301620586676943
  0.5792217544371959  0.8573040490600818  0.8590093915825331
  0.8622637246814799  0.8579408033072221  0.0026480180903584
  0.3641870343647478  0.6281074480571448  0.7877690562829467
  0.2171364497717953  0.3552437121889063  0.7864582170052432
  0.8564903166733349  0.5658951420844797  0.2862614833326322
  0.5776519714793453  0.5659749912914028  0.5729762616710983
  0.7159784448477141  0.8550208556034823  0.0042348540344644
  0.3577339457932176  0.3555033196249506  0.3548654107476403
  0.6516351840195114  0.2172098408112052  0.3620556796724493
  0.3514067599336605  0.2164648758678945  0.3565828621946525
  0.6907983380400827  0.7573894451983257  0.3428821973259447
  0.4995443309158517  0.7663270112419285  0.5585673027072647
  0.7937470611534191  0.0710617009188905  0.7895823261139379
  0.0003754495676358  0.1457733771672557  0.8583397007655449
  0.3717250590812038  0.8928153431246768  0.1017392698248525
  0.9318652531370796  0.9276633266928287  0.0715426271270790
  0.4984193813002784  0.0739103795701683  0.0489787096428158
  0.6471742912741461  0.3577813175891988  0.7861357739062350
  0.1780329028212812  0.8169510088974101  0.6092611237358047
  0.0744708079265852  0.7867713747992195  0.9321885399272694
  0.8618468702221423  0.1431418968572268  0.7176643615518146
  0.9887764641105966  0.0096973905430038  0.7312694138249924
  0.9315436252474628  0.7782420638860211  0.2089581725543897
  0.0724887250578520  0.0799612766129151  0.0647307808722164
  0.3426271470164466  0.9368164563010833  0.3721175909089517
  0.2560735311541960  0.8027638519722710  0.6923051908760235
  0.8097566767886097  0.7854950035302893  0.3520307575290876
  0.5389570873243661  0.9297444194848870  0.1655868843313336
  0.6478046651317227  0.7799989695515572  0.0773445458328700
  0.6531640039264185  0.0772257367519386  0.6493598933647683
  0.6490767718244237  0.5017897451418403  0.9273531345269462
  0.3103842573388709  0.9224114161667151  0.0069856081278264
  0.4211335103019431  0.9910447396577308  0.0032876047715862
  0.5832994049635403  0.7080863736166665  0.7279744966191604
  0.2980237918065678  0.6936260346442346  0.7127893962440978
  0.9293396155793856  0.4924480445684215  0.0628810509590776
  0.1381532777597298  0.8562777280215951  0.0149969635647103
  0.2338023199823178  0.9540434072604214  0.5481383150389959
  0.1423530313030135  0.1542591539128641  0.7148237797150643
  0.4019999100903664  0.6258580201711269  0.2681577429424091
  0.2811620438885584  0.8325932253489488  0.5480256973361418
  0.3882207422018837  0.9398712814321630  0.6661282553291297
  0.5760710562623508  0.4279158715288329  0.7142715520153843
  0.2894810801780008  0.2855456293376840  0.0025398024883388
  0.6763738686436918  0.6075510688064965  0.1871071816992702
  0.6424396956398392  0.7959657780710804  0.5102233008855104
  0.5150132628762972  0.6280351663754810  0.0766182900438438
  0.3605661023163726  0.3522172842703706  0.0718219931374791
  0.2221576771819500  0.9616002620549795  0.0861805254763160
  0.3221448185881867  0.9228382061417356  0.8463673910651692
  0.7901861438568396  0.2146091896810836  0.3585466856545407
  0.3711362422866075  0.0862365582735132  0.9328231366715035
  0.8564893905501269  0.4264167311647288  0.8569571753330419
  0.7239735283211217  0.8557339490155174  0.1440264666472122
  0.4311581334246309  0.2861154311923995  0.4255453179819809
  0.5801227013395225  0.0026592036962428  0.9965071099008191
  0.4329281134191947  0.4243783115996536  0.5701742260474870
  0.7877586769792374  0.4956883058791142  0.4997506518174610
  0.6040469337722918  0.9313278018909698  0.4664362927066265
  0.2914455960076587  0.5689314697280369  0.0030201079757511
  0.7230114015000635  0.4221375239399621  0.2842541084181487
  0.0701431743266248  0.3563784355524093  0.2103753583830981
  0.7247598449192063  0.0011389214262778  0.2847096930943281
  0.5718107594452756  0.5744371433060308  0.8579519730947992
  0.8078899718004672  0.9220085953071148  0.3670065407076093
  0.4331176627039767  0.1387837953684732  0.5691491531463615
  0.5068381319482419  0.2195216689792323  0.7857540550568868
  0.6541864575133267  0.6346521089429323  0.0693198608216702
  0.7198674766869506  0.7115073641435091  0.8609650009932799
  0.8713631784851639  0.8600759813102929  0.2850286971891092
  0.2883773532485419  0.2866452307983000  0.8573308443004246
  0.5690358961909753  0.4326411130318328  0.2895521000592129
  0.2910717787575058  0.2833731733132253  0.1411013923079654
  0.7889906439795897  0.0702719849667190  0.9306489250070352
  0.5172762866916423  0.9318942535970300  0.7873603540699654
  0.4942520662090366  0.6479236609085205  0.7751049440747857
  0.7884615367562819  0.4985066088442311  0.7869666480023495
  0.4341943021469395  0.4253975975871742  0.8579108305304832
  0.5756252223300601  0.2851949024199111  0.5716162154921879
  0.8504284224513735  0.7306614097571873  0.5547937256253914
  0.4341435041185936  0.2844630789153876  0.7153091685208421
  0.7193716949369094  0.0028173985681092  0.8624149615766182
  0.2497598190827635  0.8722167438977022  0.3220357680068023
  0.5254094287858229  0.6163103638368722  0.1946506959354836
  0.3817230124232313  0.7198671990466374  0.3396790608566975
  0.7301226741033584  0.5329401855615462  0.1104599724880732
  0.2127230302741729  0.7688580521913455  0.4834252189647879
  0.9400359501774638  0.8304874836478863  0.4007392397322996
  0.4047616066532951  0.7381881858983674  0.9687234785998831
  0.8516346606117541  0.8564842283663611  0.7197778854226089
  0.9582550992941496  0.7948209117285181  0.5118200498002698
  0.5953223450439098  0.0005297436459470  0.5823869237769915
  0.7825856446745899  0.6525420247635459  0.3669734978641858
  0.5419736609520410  0.8378687238435487  0.2377140499671353
  0.4977590196004354  0.4932512093630218  0.0724846475162777
  0.7178921948430219  0.4267178600237100  0.4320669499217939
  0.6508706504311292  0.3513947844801416  0.0740745960672178
  0.2516760135911270  0.8516732686251006  0.1076701596897935
  0.4006169637427796  0.7064038881105980  0.5868883181092559
  0.8592107268475727  0.1439982036219930  0.1409783617649711
  0.1249805438632695  0.8730199141938585  0.8609725469609596
  0.7210617057895399  0.2847354742168843  0.1428899907014800
  0.3564464842548020  0.7575315349902711  0.0992981502548773
  0.0669909407267408  0.0806702528811184  0.2098618586226550
  0.1411915057658814  0.1538673793365679  0.8629804372189303
  0.5791218001163052  0.1443047906382194  0.9986593622207257
  0.9272631378735825  0.4953102572774974  0.3552666842659266
  0.5041881551060710  0.3540846251838513  0.3577960479334168
  0.7188425672980958  0.2848429775929607  0.5718742069554990
  0.2149067368930109  0.2190896404115765  0.9326714488825304
  0.9300411039816496  0.6389794633793501  0.0687348545256882
  0.4463752720493959  0.0161193338437973  0.7272887637115906
  0.2040872233610630  0.7982514312299941  0.2329729906740188
  0.0002544186920063  0.4249127160693540  0.8558155453213645
  0.2181820444013506  0.4949434187213841  0.9297610151991399
  0.0686691607515589  0.6262846155046666  0.2052211676399402
  0.6610033112161514  0.9359566314196960  0.3555489814336961
  0.9970982866769099  0.5632507358823224  0.5713331374296770
  0.2207630776611811  0.7540906655693228  0.0492209666618819
  0.8586292458800003  0.0026451020871308  0.8628657625357845
  0.0764355872540865  0.6446577600193699  0.7820769294271738
  0.6449985487035753  0.4977548867480820  0.6453223379582991
  0.1371679976098508  0.0128385175441016  0.8762865179988375
  0.5044081770707574  0.0988217318667328  0.3281513507464338
  0.7912758421435755  0.4974624539389800  0.9280165420598354
  0.4298284376147144  0.4218578471538892  0.1420480120267387
  0.8603113552789895  0.8538517808941090  0.8619884530631866
  0.5094202875317937  0.2200477138451976  0.9294963071589011
  0.9973146452559380  0.8820190271798199  0.5806227798518442
  0.7883120852728612  0.6451615693516319  0.6420093576588715
  0.7303291178329190  0.5715231552014924  0.9938440347989679
  0.1397814371426354  0.8488209938582236  0.4101089433992215
  0.0325655000315106  0.9003029588225996  0.4649865586268995
  0.8609471435037571  0.7103531894889920  0.0014057610098216
  0.0100579983928548  0.9951333139013611  0.8599784622379654
  0.7861027136216637  0.3577724006496140  0.9287667845712732
  0.0723295096643154  0.7838583634927428  0.0744303982627271
  0.2882386758460365  0.4230794917156144  0.7158912068887465
  0.6530104654248975  0.6196781710323138  0.3417352846350780
  0.0022307594575540  0.1453732866298151  0.5706599625161654
  0.1387552617684163  0.5584978996092453  0.1361581101651012
  0.9268199174820587  0.4945393666478044  0.2093834217866382
  0.1256675110385769  0.8631960759235423  0.2896702845288247
  0.5971879436298132  0.5501094840396327  0.2594677305204546
  0.1263131218162323  0.7108023689698134  0.4323128139105393
  0.0730703497478618  0.2174217416330178  0.3540000324779904
  0.6444942096501594  0.0680776607068840  0.0753669243455279
  0.9997850607961493  0.8537766781942883  0.0045549405366809
  0.9978348211433351  0.5645271645359828  0.9981689526041830
  0.2143356640906402  0.2182156535245514  0.2088280914739226
  0.9944782614821829  0.7015097504712754  0.7161301144687769
  0.9351112056473386  0.7906875394243098  0.7829037638818822
  0.0323497601028945  0.8889575912915183  0.7718646046313197
  0.9978356334294438  0.4251256372013250  0.1377249400376682
  0.3364293670244807  0.6426612148070232  0.1756090171121627
  0.2768701770152981  0.0156071056925291  0.2996937662965501
  0.0666770703705323  0.6270657410886199  0.4985867084970479
  0.9316495311269786  0.0782425012836521  0.5009183218324875
  0.7990275345963817  0.9343202209288656  0.5036414888214573
  0.5093655414470550  0.0772620951637260  0.7958313788416843
  0.1433862847649165  0.2847064071227220  0.9978426008214941
  0.3526880691805320  0.0789465643660991  0.1956182465810820
  0.9282396033013123  0.3580140765919061  0.7875629372375692
  0.1437158828561507  0.1550320580198780  0.4269234366332006
  0.1396813231078337  0.5628250431642362  0.2791556893279273
  0.5839040765184981  0.7088922548807705  0.0030771077969123
  0.9294174147596048  0.3543269780029040  0.0683641902659572
  0.4556612071944365  0.9835875547661722  0.3407749536827274
  0.2835332403864833  0.6922160447559261  0.4141361861411318
  0.0773633776323276  0.7841042827846537  0.2079058678816565
  0.8565954565988052  0.1444582147933405  0.8605519561109186
  0.2089311314541179  0.7781231950372376  0.9268424898481588
  0.9921153161498965  0.6996533151351201  0.4238143184027858
  0.6426139147221542  0.5002103223756946  0.4957887443608269
  0.0707343904536435  0.4932871083494279  0.0658814586350173
  0.7210241148073495  0.1448089027958536  0.4295544679845178
  0.0707342992207131  0.2172177037841433  0.9296429412348672
  0.4707900219398877  0.5404131977019679  0.2929914388512281
  0.1407334581032480  0.4236431275650167  0.2807805890636236
  0.9259319614676826  0.6351315412579240  0.3481688477722001
  0.7892235270876942  0.2143717688752615  0.5023013758259046
  0.2898970668141061  0.4253101733888185  0.2814341728801274
  0.0688537567774695  0.2187010931907123  0.6453674998316364
  0.0010513501262163  0.8553974873519651  0.1444409238050753
  0.9341149727026750  0.0771230954024242  0.6421064668645213
  0.4485339079004722  0.1340004080635964  0.1378475513410291
  0.6475550036571194  0.0734549483884327  0.9307469667477659
  0.1419529171713985  0.5619085766217612  0.9949856466668495
  0.2881409317659521  0.5608681489423606  0.8599169973648811
  0.2171618944733575  0.3529242156660603  0.0697863617096050
  0.8586243817034491  0.5687540072620606  0.8571159111724073
  0.9278380032863199  0.2140511626353421  0.7890838964850941
  0.1427272555307789  0.4243680155531538  0.5705993930468296
  0.9206192539399023  0.6296651609192767  0.4944669153781658
  0.8610849760537217  0.1433610596584222  0.5723678933285108
  0.7203607674996115  0.1446219096438087  0.1396895237794714
  0.9997600215388212  0.4258844579881292  0.7155064709129526
  0.7890956543600538  0.2146934753772711  0.0690098390850551
  0.7916749001766018  0.0744927050624984  0.5010711486607727
  0.7161989125674880  0.9978099911212707  0.0039142309623721
  0.6581787497904862  0.4903509037751189  0.3543196975438367
  0.6489811372583622  0.2161841542112649  0.9296558034444874
  0.7950450529513361  0.0743393309372530  0.6488383006989044
  0.5799479619964955  0.2866043773883237  0.2867568162422902
  0.7225132691771547  0.1458835655127249  0.2866247682395607
  0.0000476214125318  0.2858218453597362  0.1384848965368075
  0.8606380631400988  0.2850478726766193  0.2865661131776981
  0.6488836257331309  0.7826050689065616  0.9316624067583245
  0.9318299755316569  0.0777556265152592  0.3560220518974065
  0.5765122410641725  0.4273256902275742  0.5709778097168002
  0.5053959700346191  0.4972316709180528  0.7851644823105167
  0.5051549037558760  0.4955059142092463  0.6426198667792901
  0.5095256697939141  0.8554089151567214  0.4702102408978224
  0.5746499964272040  0.4267601961160190  0.4245570475857217
  0.9287728337814589  0.7814705291373995  0.9335257465180202
  0.4330808849560947  0.4251331025536086  0.7139903244249314
  0.4933490641365263  0.7165147414659495  0.2644957974606746
  0.7124855917946327  0.7194262912046246  0.7109819850943251
  0.7341627878130775  0.7140015625697483  0.1404790539842172
  0.6860531248782209  0.9130913376435189  0.5387248054719466
  0.8589958221570535  0.2849895790591014  0.5729723710322765
  0.7885241113409461  0.0712218317046621  0.0712638782855243
  0.8596894237173512  0.0005741113322984  0.0017608317610144
  0.5736036903679551  0.7074087408570814  0.8640480581338642
  0.8577752261163780  0.4262802552484268  0.5725078221139089
  0.5523793236540511  0.7457577773966115  0.1542755900915157
  0.5520741891556397  0.9040140930142199  0.3515117214108270
  0.4760841862137041  0.6515035704311304  0.3788637107589993
  0.7245720329171667  0.0034498336294144  0.7202462053756850
  0.5917752944425773  0.6825990534131938  0.5462955476939172
  0.5527685044890129  0.5392099252565473  0.3726734313556215
  0.3747210044829754  0.8421186300125558  0.3169086808261891
  0.4587715684840287  0.8795959861585909  0.5854349599960368
  0.7878073216920910  0.3558110783735263  0.5021539530412117
  0.5652349385536296  0.0161063484906287  0.4002522473076551
  0.9284821120871593  0.0764991802442122  0.2114961286357931
  0.6556210739077758  0.0730087888654573  0.3569370113218658
  0.7180085081934068  0.4290906023635572  0.8574606989846862
  0.6503551732714539  0.9314038587997528  0.7909563036719077
  0.4330364119986936  0.5640147729327120  0.7101959203343776
  0.6594680067814479  0.7846799734615251  0.2182152292716548
  0.4268129337962602  0.5667694535236905  0.1388178347340099
  0.6083614019159741  0.6801656399611544  0.2484897701728871
  0.7233859654103644  0.9953397594462080  0.4350681515817549
  0.7158577637909864  0.5676368945450363  0.4309955712633783
  0.7201637825775385  0.1434155687617851  0.5726146372867008
  0.7894618983159136  0.9271782417157349  0.9326343555940576
  0.7643376837524271  0.8251699355541864  0.5455200271475480
  0.5378643306147953  0.7339329388495319  0.4580750271138456
  0.6831852453499111  0.8248601407469709  0.6266429266953391
  0.6451841793994310  0.5011372995594445  0.7869148733048191
  0.7210386869793964  0.1448992342280427  0.7186378784572469
  0.9970422120017522  0.1473566853233240  0.9998053128277226
  0.9993395432759453  0.4256361679334870  0.5716115774960406
  0.9983365143847789  0.4257171876599378  0.2822463127518414
  0.7934853058766120  0.6194680277329861  0.1937257709618937
  0.8579705197723893  0.4243507054038956  0.9974777003759941
  0.8576048006939985  0.2868782394591211  0.8580212521959610
  0.8592025032992218  0.2854335171010256  0.7164323243098640
  0.0717509075024988  0.3562968228897642  0.6438387436577085
  0.8603083942855987  0.4257232923495133  0.2856463390831483
  0.6532871356907557  0.2183747343186151  0.2124474118749099
  0.9286076722205114  0.2147217508344062  0.9270202554644597
  0.9293703511580467  0.3557839487037359  0.5007143065514460
  0.7898451413143324  0.2142956876132033  0.6443383197271577
  0.9225076715705325  0.9280703888261749  0.4887022270653962
  0.0706824591874970  0.2189124185159456  0.4990368237066061
  0.6484301751862109  0.2138657939277091  0.5007024774416540
  0.5764661764446271  0.2857621809230649  0.7144489290357640
  0.6482843461211423  0.9269211316878646  0.9319425617473569
  0.5781344254289080  0.4285631230005646  0.8581606551764490
  0.5786786324243889  0.2882712247137300  0.0006933006580284
  0.7909136227795217  0.3499945718842679  0.0664288705329313
  0.9281026902573783  0.4972653002150974  0.6444778381623204
  0.9292146908657408  0.3564135564307125  0.9257481027561099
  0.8598658874708032  0.2849460553432612  0.9962057586228183
  0.7224092705480730  0.4375784361205720  0.0119480584923709
  0.9303423196978386  0.9309268344351080  0.9329057983358776
  0.0018319616466192  0.1480466579085787  0.4282027053327627
  0.9297067328995654  0.3559078987098236  0.3565799329898272
  0.8537469896259187  0.5668024558725084  0.4238100240937826
  0.9274979654588245  0.4959992081686654  0.4991578565695326
  0.9974300957776403  0.1487133000989653  0.7206567786878437
  0.5894925933751402  0.8501960687672815  0.7176136431949457
  0.8588099752545197  0.7129011833368921  0.7197205287598498
  0.8637433005488873  0.0029574038801311  0.5742896304497431
  0.7317869748778600  0.6901072364349422  0.2637573146731539
  0.9306721059531342  0.7557946331419148  0.3267817376631841
  0.0731692108229406  0.2151335523810574  0.0663332380784980
  0.9967950836765234  0.8554230596956133  0.8718743941531067
  0.9544638848952425  0.8896919437523693  0.6897479920705427
  0.8468994040240766  0.8315427107085755  0.4659395500492057
  0.7110478306172284  0.7105713372704939  0.5702164680066435
  0.7907209708496703  0.0733227873230000  0.2135007549643022
  0.7939244586202899  0.7839082662370979  0.6493455047823186
  0.9323756201895721  0.9324884092150465  0.2118726725079261
  0.8632347337717264  0.8562010539398462  0.1432929514472820
  0.7935811528397857  0.7865921442706815  0.0692926107536977
  0.7884834911200885  0.7828904342732224  0.7917995708455092
  0.9262609076000211  0.7772566612593156  0.6430021973426171
  0.9284898917078324  0.6381740947141140  0.7884010091197597
  0.0703663309000657  0.4950350536954879  0.6426670376520894
  0.8708493561072209  0.7137713573361278  0.4305170408246674
  0.0692999851370751  0.6339940288765046  0.3519604701004910
  0.0704073621461445  0.9508557275406866  0.3540871024044419
  0.9258717049442000  0.6288410938294451  0.2040684757281979
  0.9307157315302146  0.7823554186551276  0.0714666839052583
  0.0664574399273589  0.7640684684080411  0.3398413695722428
  0.0804841789384989  0.8609096624139168  0.6652221500822222
  0.9257364352510217  0.0746009535543800  0.7936657827079404
  0.8652457526905812  0.9877783757477755  0.7062287646362024
  0.7938998150402835  0.7867522876854390  0.2169665375232838
  0.3608301290289264  0.5011546314288197  0.3484520380285941
  0.1938134309890070  0.7401840699292841  0.7769825374017657
  0.9306728395014324  0.6403552134077183  0.9281147341277384
  0.7881864833086469  0.4926005473864601  0.3587822916420341
  0.7891003784641633  0.2153002783862895  0.7878697037859592
  0.5836021750023009  0.4342816026931636  0.0093030650678179
  0.7179720548094072  0.5700763989550456  0.7155103750487223
  0.6663791476093394  0.6891461722707389  0.4451166139533408
  0.7883033344890776  0.4962358545712605  0.6452801326127300
  0.7869144193454906  0.3562836984982127  0.7866581046423822
  0.7892563435238524  0.3555644463704439  0.3591158404257508
  0.5782450904595688  0.2884257584808720  0.8584548817740385
  0.6484963099341464  0.3553878556741239  0.2170990308088496
  0.9305895270218126  0.2163567762479410  0.3571295241626191
  0.6628575144061142  0.4811395497875104  0.2064240972765990
  0.5828381472465503  0.0112998117422506  0.2726446224530423
  0.8590263505807727  0.2850309990881711  0.4298937385081051
  0.7209885487102514  0.5690662443866934  0.8577469869509033
  0.0003165027303259  0.2863592367497748  0.5725321789254769
  0.7201021281459263  0.1436675652407482  0.8600987025670342
  0.7194743458055861  0.2855644252303953  0.4310033975747806
  0.5750951363991098  0.4173401423014504  0.1446939175127976
  0.7942557143419124  0.3523126792146357  0.2156052861322802
  0.5157064329694332  0.7807101926187475  0.7929647918485377
  0.8626149743313464  0.5700804777712559  0.9953415113772000
  0.8636647019437835  0.0094262073441453  0.4282013269249231
  0.6493959673447304  0.2169496930947922  0.7885261275584234
  0.6503882501734628  0.6399400160034580  0.9292780484859425
  0.9299368440496305  0.2144921819175878  0.6438255248927430
  0.7876635512028364  0.2149774321906521  0.9291711257200292
  0.7871893000931024  0.3557671010020684  0.6437459264776995
  0.9413986211719789  0.9382369680771218  0.3585261640146221
  0.6491604980664213  0.3615634903205679  0.9324488955665263
  0.1357699574168253  0.6967079814305402  0.1398254586968410
  0.8627094171448436  0.0015646155142310  0.2871191924442918
  0.8607267055540867  0.0008314769832284  0.1412684968732238
  0.7903684014551009  0.9267657354108189  0.0714554033885304
  0.7176608701503377  0.1418810050415571  0.0008558429404290
  0.7200312301059172  0.8572522745071872  0.8623612164387405
  0.4808426454276887  0.6415499482797068  0.5092017727529771
  0.7908926415194255  0.9313042050528815  0.7930573139642684
  0.7252030701663489  0.0119590516054338  0.5786772616107052
  0.7168225978323718  0.4279711052631304  0.7155791840543747
  0.7839082806644787  0.6390263346665647  0.4996468119214634
  0.8597350910166437  0.1452938962904713  0.2863165537404176
  0.7903233289971697  0.7845388912312233  0.9323188262398676
  0.5444512011035805  0.0414004175446350  0.1424249576191352
  0.6491664121282141  0.6391552120895859  0.7907237239463532
  0.7872059894393368  0.6434385228812115  0.7869765547966024
  0.9304016537248062  0.2159476005606523  0.5014095693791453
  0.5790320857191598  0.6992604863048202  0.3626624029098267
  0.5948193474327540  0.5395182925222953  0.1221692834854944
  0.7955380335072857  0.9283505588287430  0.2151890542891288
  0.8608044585368561  0.7103196329227159  0.1411857416933389
  0.7210714910565154  0.7122882544612380  0.0018544263571693
  0.4970969544760038  0.6465412595102743  0.9416971017070421
  0.7901287691591921  0.0725139581680206  0.3586581309763210
  0.4328781336609209  0.4233685599673078  0.2855480454263921
  0.9288110800295305  0.0741850267727098  0.0696737572392436
  0.1444204171515111  0.4244771671340583  0.8582648106887185
  0.7930150522765731  0.6443326745267464  0.9259319884714486
  0.2178479583569096  0.3547794908451855  0.9290779074963297
  0.2150949428123032  0.3560015590619359  0.4985707766358169
  0.1407011132678035  0.5631449839735256  0.5691684553753336
  0.2880609630032540  0.2846440478280176  0.5721457505885488
  0.1427091174936627  0.2873611034060536  0.2811233636477082
  0.2089823309698579  0.0803428988296157  0.5121821370071770
  0.2803173923793315  0.0264183084238428  0.8747686920610386
  0.9280834835191472  0.2152006530047358  0.0690740165580059
  0.2837036115817130  0.1524720604039666  0.1345451049221317
  0.1395723519898564  0.1481362449609112  0.1430689258886750
  0.2884197042556542  0.2842257310573395  0.2814412400984973
  0.0006876502792848  0.2866318016834775  0.4274507899108861
  0.2163786724588954  0.2167400822388192  0.4991984962509978
  0.2135169020646563  0.2173905868074496  0.3524055495718684
  0.2165710343964909  0.2170052367146891  0.6442017926880104
  0.1438157817150844  0.2866748659128708  0.7160281340257305
  0.2173138888607663  0.2166233151902998  0.7879525861407629
  0.0751584017281871  0.0821161924154613  0.7891630524885610
  0.1426863794024358  0.4248725013837368  0.4248330268684409
  0.9995082302014224  0.4263197364039946  0.4264615624029889
  0.2138741110875886  0.4910299227148432  0.6428141413823583
  0.2160107431811474  0.3551064450950036  0.6439557644042085
  0.1418904888897526  0.5634953479568027  0.8583966994471914
  0.2151793726049700  0.4920192025567979  0.7880064690692224
  0.9997046997132960  0.4237349092041679  0.9968832050092947
  0.2128498835951114  0.4918680586582170  0.0658865554581319
  0.0712267362261379  0.3549062435687324  0.0678146228186124
  0.1418592836438971  0.4224401466707033  0.1386412151566356
  0.3909094318973289  0.6510691978598379  0.0510949261868363
  0.1433943723439693  0.4238988349211604  0.7157145897305793
  0.2821849549442020  0.1348961859799359  0.7133599590522038
  0.1438695945097830  0.2876632214331476  0.4262364459554780
  0.3599344997791240  0.3536102254965126  0.2128376848619818
  0.3451780785522330  0.7934270061701549  0.8756239862780636
  0.1779048531540598  0.9360015063586608  0.6702315948344286
  0.2156720847062289  0.3564849832418241  0.3518224316758583
  0.2157194633546458  0.6241491152212523  0.7884264101493329
  0.0401933424944562  0.7675882030852874  0.6091681462143707
  0.2114910234598921  0.0848966104727782  0.8033147977213499
  0.3051785621830134  0.9931544591444773  0.7424140950763374
  0.4208642441814948  0.9112827657363261  0.2170669516319813
  0.4394057475997835  0.1569130338334369  0.9941659152046316
  0.6501458971331902  0.0691051714295158  0.4962414894121582
  0.2023072772080618  0.7632732448405729  0.3519009938627659
  0.3555188514880268  0.9244224802883405  0.5593261325475350
  0.2921645956034378  0.1527571419456031  0.0009123124833603
  0.1423688369667628  0.2869113003448753  0.1397089989931537
  0.3672148070137157  0.2152921795148744  0.0740313441242565