 B Cr Fe 
 1.0000000000000000
    20.0899999999999999    0.0000000000000000    0.0000000000000000
     0.0000000000000000   20.0899999999999999    0.0000000000000000
     0.0000000000000000    0.0000000000000000   20.0899999999999999
 B   Cr  Fe 
  55 206 480
Direct
  0.2372782202408986  0.7091692566483458  0.1539517023880841
  0.5323709010993644  0.9340876583748131  0.2176487528209322
  0.5477853103157246  0.7955392226726026  0.0632182762473700
  0.3418650041962270  0.9705831078641638  0.9357697961259192
  0.4666649882625774  0.0492444470485075  0.4070384628581949
  0.1740789523129377  0.9297925956964251  0.0904878810133152
  0.4162553961612156  0.9282705009038917  0.7704483511633718
  0.1444504625943035  0.6655258385345570  0.7297805846052844
  0.3714044565911600  0.8635564553014792  0.1465318479226066
  0.3320084403659887  0.7205760782281473  0.4989532160038419
  0.3661526714881577  0.9809287761749375  0.2596055171110234
  0.8615478470156841  0.8925665893403679  0.4054536885153102
  0.3607976878641729  0.1221042849045098  0.4894574496628681
  0.5134253547463676  0.8273091301747424  0.6340247915113810
  0.7888670227271251  0.5272088023789046  0.0377098058549749
  0.0951200062311764  0.7965925787700191  0.8332300143883224
  0.0575128542886822  0.7274886596284509  0.5035792979209041
  0.2655103322681320  0.0444124647857055  0.7421366518921264
  0.0637675098759359  0.9840378919818343  0.5279693784469702
  0.2373958773617013  0.9326698055710799  0.0281322646693462
  0.8781478724773942  0.9264347407015016  0.6494639724671831
  0.4230756139793593  0.6606378450562161  0.6897844451324910
  0.6444370486656273  0.5248983117347940  0.0389400374382127
  0.4320441146256537  0.1240978764052173  0.2307490604958693
  0.4278783493759716  0.1795870269426568  0.2998393606736897
  0.1996158854310894  0.1138977688994950  0.6329730345417469
  0.4281382465167164  0.0665238911863761  0.4935873297463649
  0.2820586534933659  0.0571288630264911  0.3567690398861595
  0.3318972952832001  0.7527232938801942  0.3259890851171381
  0.4063747685544970  0.6328308858650883  0.3580381514301205
  0.2582360288943796  0.8933724534860396  0.7342488715138165
  0.6221538146465134  0.8432723888026881  0.3001995455435078
  0.1847519270258141  0.9280320329788816  0.4590142420472497
  0.3570656923850603  0.7157705416966705  0.6628387077954682
  0.2969814576977445  0.7684407012540347  0.7833102467490218
  0.0507938090287356  0.8528228815532921  0.3674993268434434
  0.5311038794747223  0.0944480563388966  0.2196388794227561
  0.6568828563981617  0.5974556752882724  0.5082247558860944
  0.6440139788179822  0.4625628086466108  0.0973759543934474
  0.2923983008314435  0.8002491782844408  0.2697098274842659
  0.3437539729373342  0.9818982345585047  0.6179330577127486
  0.3381748218729899  0.5868362046600252  0.0783210946510371
  0.2964516338119846  0.7174499963497222  0.0851066901200459
  0.5288997348565980  0.9582408126509108  0.5243212663694488
  0.0514762894554084  0.7927073574220493  0.4364261126294351
  0.7875734589668729  0.4657612981129237  0.0974583241101039
  0.5493337043240971  0.0739414193828211  0.3838980615326982
  0.2024646310346937  0.8543172374088862  0.5016262190432038
  0.3862364355763190  0.8789444791500052  0.4442594943207341
  0.0082400531227293  0.7968774745198074  0.6982424472113246
  0.4688588520431062  0.8135643777829131  0.3001968736959765
  0.4589235089111763  0.9012998883540254  0.3937477376297494
  0.2110695928095201  0.2265475771772300  0.0692485233364880
  0.9477885021419559  0.9769979740242687  0.6427967526219546
  0.3367416934852447  0.9573247889996817  0.4574167190761558
  0.1418520105075199  0.4230821035449129  0.8601136053502536
  0.2134754809896357  0.3551950098578537  0.6438078204702161
  0.2085721985923752  0.0861237492477848  0.9319605399326299
  0.5445510227609860  0.9714040065009536  0.4058325959732678
  0.6426901531112924  0.5042102425703097  0.9293921474239411
  0.4287857663624235  0.4199306275270723  0.1451354816548882
  0.9383541753671301  0.7881437833145722  0.7797426663056195
  0.5759933914239576  0.2878639844488333  0.0003695691763009
  0.0058609780550608  0.8932433514545318  0.5718238443833262
  0.9990366232805903  0.7052513666502738  0.1396585323274012
  0.1419826315917249  0.5629649229116519  0.1371998398226880
  0.2272767042008150  0.7645464309325155  0.3519814417765311
  0.0451484519664726  0.9004767687427795  0.4596285550923850
  0.8549435528349529  0.7081181067122131  0.1414170295134374
  0.0728924840210059  0.0810931399247529  0.7881621999960641
  0.7232650127787157  0.0028985577519479  0.8565054673088544
  0.0715403273532744  0.9511861773187889  0.3502947629443595
  0.5667855215347278  0.0108192335523584  0.2881228831405898
  0.9282720368030010  0.2162054283013279  0.3575372195997197
  0.1828729077016037  0.9351460180004891  0.6626747694928173
  0.7892054305892805  0.2175987668685495  0.5030738415327081
  0.0686094999571784  0.3577296433198248  0.6461196229406693
  0.7895014290913120  0.2187115460514472  0.9297263816181677
  0.6422716967326066  0.6403672949695011  0.3494795038193750
  0.5729184911102811  0.4258293662501698  0.2861105090100713
  0.0702872983586656  0.4963828759537593  0.6430945102580227
  0.2809150773230269  0.7221697516009224  0.9782160934281133
  0.5000014966279546  0.4916762102287778  0.2123794508590541
  0.7167606827386731  0.4271807671594838  0.4286808501041857
  0.5766185447322425  0.4393702134993308  0.0105295573739893
  0.2854481787151428  0.8518693007681719  0.9720536701689196
  0.4139199679746689  0.6937922984810512  0.5773366327188366
  0.9266193343133621  0.2181824039684549  0.0704601265979114
  0.2226605869574217  0.9398994451881393  0.9196727922470019
  0.8533993470874315  0.4384431788676394  0.0102379425659774
  0.4627137251124039  0.8027133180304183  0.1360115850318947
  0.9255296353977905  0.4964119517957438  0.3527947310313083
  0.2874680411485763  0.1523278807537926  0.8594082539512402
  0.5767583887251120  0.2873523678598071  0.4321553472129240
  0.2753205025724330  0.1448015863460179  0.7109880239601181
  0.7867881614313514  0.6407153505460929  0.0684601519806098
  0.4242053367546965  0.9951000152118242  0.8562919018216187
  0.2028578302028989  0.7966814225247492  0.2138828210514043
  0.9295068666721882  0.4989252736907960  0.7875122632228917
  0.1399763034830890  0.5612435543821612  0.8627787684352858
  0.0725563197664636  0.6317222454291012  0.2090526924213387
  0.0672940215772169  0.0834699721856106  0.2067018703219128
  0.5611670612930776  0.7189097370864390  0.4364780461825651
  0.5828162083499190  0.1479616421524897  0.9926439927147398
  0.9276789023172607  0.6400042373658482  0.0718802524484689
  0.6479250352290548  0.2201251827323011  0.9298298175306718
  0.7871039581628371  0.3596975085513507  0.6459196714609307
  0.5650441902846646  0.5746560341041247  0.9947034343380169
  0.7173000502823211  0.4284211088848123  0.5738630523141333
  0.0734542054901958  0.6368423313466822  0.0696497597781920
  0.7241466770794361  0.0087342823190731  0.5777984590344163
  0.2865665472394426  0.2814125404418733  0.0036594666543074
  0.4350822257794228  0.5566224741375064  0.2856828476958180
  0.2147109443801796  0.4945858710948756  0.3545705284206568
  0.9251983455450010  0.6317863671760530  0.3491760309131344
  0.4323838880711434  0.8956239936428715  0.2397183582570960
  0.1496138663658603  0.8408595185307915  0.4045753581098335
  0.9291792035066851  0.4967068924362911  0.9320971925527326
  0.0640498198981959  0.2226256823022119  0.6478021813539623
  0.1337917450030703  0.6977325746574562  0.8571596590274067
  0.5035264529149908  0.0734150342450116  0.9240423925874705
  0.2123737209200823  0.6358397895992590  0.9289546968057496
  0.2097783832206932  0.4902951586878168  0.7906072727332880
  0.2148639661589049  0.3488861547681901  0.0720753107076112
  0.7880899831425657  0.6421031428267137  0.7864505783461692
  0.9279095895487719  0.2180426911723138  0.7907462177857097
  0.2854950485356312  0.2850238771701781  0.4291083737243822
  0.9949394215739088  0.5638067503925173  0.4233429005238463
  0.9214278097226619  0.6284537728919887  0.4946154481569515
  0.5778045255462136  0.5771339880612648  0.4344402199859309
  0.0002530104116668  0.4279358151674545  0.0004848158188621
  0.8542394912693939  0.5661730420668333  0.5707510763357154
  0.2216002987739981  0.6358654779355482  0.4899295327742648
  0.9911018432669138  0.7015563217739771  0.4253732256561102
  0.0435880021783357  0.8724311269615673  0.7674585193963399
  0.4572007379473067  0.0188204102766474  0.2183481875405653
  0.4151474161148476  0.5682482048492340  0.1490850163372754
  0.5088359109244728  0.0777933093432774  0.7925042006705770
  0.9190717781876425  0.6340024698307792  0.6407555158266396
  0.9973242626987048  0.2902790587743082  0.7182488128849668
  0.8048796778108355  0.9265162339569327  0.4983434478236001
  0.3309353212388600  0.9170948814191433  0.8450086225171587
  0.3406142943407121  0.0781817050171819  0.1913555501086543
  0.1238973278127466  0.8546951340429064  0.2860182861850477
  0.8586172228830184  0.1465380904634922  0.8616578596216600
  0.1302398474845647  0.7100419254393420  0.4226139505881006
  0.9297469626951430  0.9257814664679288  0.7954565416668550
  0.1391680841769461  0.2864139233246182  0.4306874643070054
  0.9968498418316554  0.1490996887935092  0.4284687097223440
  0.0007101747589199  0.4251176038533211  0.1442086551924525
  0.9960787633044087  0.2895356656776555  0.0006019170520343
  0.8612515876212024  0.7103864290271874  0.0000171612611594
  0.2121277105901805  0.0825993893802737  0.5173699275851181
  0.8629145161072588  0.0063658449373579  0.4285851521701205
  0.3580992022573959  0.2020196335409137  0.2180328156048601
  0.0702317317285743  0.3562145979292868  0.9316992406216004
  0.7773916510845694  0.6491151731673622  0.3642133365681689
  0.2750903048871937  0.6967003484049255  0.2599575471153314
  0.9700791142738239  0.7966819015823712  0.5143884254420004
  0.7920273147155291  0.0764179136195203  0.7900065046368429
  0.5785636256161832  0.1441013027275793  0.1389767734465913
  0.4309816232356684  0.4261750149478964  0.8611422096513323
  0.0544912892937922  0.7566406778355338  0.6118208388727785
  0.0083061055436032  0.7182584990050139  0.8526893161088696
  0.8586860996622746  0.1488851730839505  0.7211377925356377
  0.9989504907881364  0.1492088633324462  0.7207121903570018
  0.9971468147631897  0.5629419287041673  0.2804630310203108
  0.1395677380825782  0.1566578996144244  0.0001306412463019
  0.2625767796533411  0.0104708718098577  0.2588335149974299
  0.3923309863662377  0.8103028746247333  0.6306107664091348
  0.5635026869615222  0.0099422773680523  0.1497895721594527
  0.6486658361918566  0.2190441626010634  0.6469739158694205
  0.3970049056406409  0.7592004599576266  0.9559021929426106
  0.3534650490087780  0.9331403000772800  0.0472899448203306
  0.4337834998367620  0.0021968560771833  0.9872788074773726
  0.5722029327981825  0.7056963741852964  0.8637901267857724
  0.2764307757581125  0.7060016850478167  0.5890702970001955
  0.9366951397165635  0.4948287033427299  0.0714172565985362
  0.2530901977531305  0.9999991632727625  0.1165153694294873
  0.7597212449978917  0.7462098012313716  0.4567697924420643
  0.1890026261886117  0.9581218066391403  0.3549919400834486
  0.2476154206396970  0.9474605233718669  0.5465514856497223
  0.0001746552411389  0.1469143611956878  0.8606373223557514
  0.7188531836977198  0.8595548000665597  0.1433684285309668
  0.3577588867270539  0.3524596314502175  0.3584274516349449
  0.8567062069906611  0.4261791276201961  0.2852039737319080
  0.3893370942902876  0.7818048605427316  0.2349086818091932
  0.6477013393931346  0.4911786221077480  0.5001311815354293
  0.1696116983056190  0.7410373897448104  0.6630050617262925
  0.1366666750533856  0.1464644581981008  0.2825714970634521
  0.5994104105301039  0.7511843215911261  0.6240706873827611
  0.5257745525074090  0.9363056542791701  0.6606922372206081
  0.4686701479054555  0.8009689195000191  0.4103769496726649
  0.5280059096507687  0.8653723405837020  0.4745706027372090
  0.7282201060307023  0.8546473037404303  0.2895152495183450
  0.8639725797926433  0.8538514451571425  0.8572799021187274
  0.8508193216784460  0.5683592931972603  0.2844769427060437
  0.5901884507302350  0.8403366753073133  0.7120027420725439
  0.9351331137743921  0.6447999661116998  0.9258460365581386
  0.4942506726531334  0.6453766456512861  0.7730233305101334
  0.1415480219330522  0.4230802820906198  0.7156660793276723
  0.3699165344734864  0.0824101789531973  0.3059020681576110
  0.7763180903202743  0.9162291430959861  0.6378859934847951
  0.6759718299458888  0.7594574687001229  0.3567291989187259
  0.5431351969080925  0.8234545076885965  0.2227864146706213
  0.5001235281566975  0.4983217088880037  0.9338807677344503
  0.3557256477070876  0.8038210054565895  0.0551217004260048
  0.6461425786490423  0.2121393991282919  0.2156020330451102
  0.7295608627956102  0.8610693109903723  0.4290833296619035
  0.1452007394287995  0.7058541644533811  0.0007212777598374
  0.4307065744958628  0.4207651642677023  0.2882331488934736
  0.7223730578189810  0.1496634569567225  0.8601222070953354
  0.2859260974834194  0.0240330651832754  0.8576013909077795
  0.2801268728929593  0.5552008013452433  0.7199492995373609
  0.2917339469407390  0.1459504884206899  0.5743386100029553
  0.5305376343421917  0.0627029076106809  0.4944334015950644
  0.5128174032326446  0.6193281210983983  0.1984845561653842
  0.8535757473279381  0.7202634635982356  0.5578779038553833
  0.3155620924245611  0.6707032818394518  0.3924308218252701
  0.1525010427551751  0.0006719107511637  0.0076395145253196
  0.3730557878531626  0.8547287868739609  0.3364981883397219
  0.8513216858696194  0.5554750860557913  0.1266632764196173
  0.7868254553174039  0.0726195752720260  0.2140848429949712
  0.5113935720958366  0.6423614235367472  0.3481650343857793
  0.2773468646369080  0.7912757050448835  0.6812820126688949
  0.6512180512936444  0.9293960940426375  0.7850510930720178
  0.9521234304582814  0.8297864052251887  0.4017129893658945
  0.7117420086188586  0.7173160856710962  0.7105851037840087
  0.7186087493459904  0.5711661676026204  0.8595535839564874
  0.8601716327653700  0.7084502046309910  0.7189254310123749
  0.2124029031466990  0.3540914238937476  0.7888529571235170
  0.6565856595640672  0.6193754480017760  0.1930491340355351
  0.7904065402011224  0.0744356271801842  0.9282146201683814
  0.1424535928570057  0.2843449309432609  0.1405039560482851
  0.4317279479401300  0.2861328667177001  0.8600896201597337
  0.3598768030504209  0.3528666983530098  0.9303742516391875
  0.7906371957095077  0.7875192561530151  0.2134078247795251
  0.5103054899327238  0.7608543706823755  0.5458861620614572
  0.5740504141908335  0.5690982298440359  0.7182804228295111
  0.8529398462651798  0.5667771618983812  0.4237844322799826
  0.2814965964319017  0.1558220229867960  0.0018531868802430
  0.7150346518978501  0.4453009062858139  0.0157588699202067
  0.6453083408425963  0.7902557474977483  0.5019998380885536
  0.4687652825280574  0.7328609583820629  0.0412846811270132
  0.3558455524882292  0.4834548600171171  0.0753668906468866
  0.9999952187240633  0.0038580582606401  0.0027533125059035
  0.9300457387965828  0.9313113290802388  0.2129251514750176
  0.0615160612469356  0.0835828557557099  0.6478667613014787
  0.8570751684564600  0.2909007550174330  0.8615850364862430
  0.4340408485045453  0.1406604360320632  0.0016725155246331
  0.4485481673316196  0.0056646980770418  0.5857609711199534
  0.3671841829760409  0.0782333894052809  0.6579464154031085
  0.5027403505061289  0.4973423819218636  0.4996947910331200
  0.5893504355272777  0.0084144460311093  0.9838291227981097
  0.5032925779787226  0.3561378658894220  0.6450992122783629
  0.7866414695945333  0.4958743289652767  0.4996535259629573
  0.6263376168133949  0.9544226615129787  0.4778500880944725
  0.2228009657170968  0.6381186522601505  0.0715303187012040
  0.7865589436809465  0.3573016392269911  0.3573812360685410
  0.0709561860920889  0.3546046523861303  0.2126921038882040
  0.6451182177905294  0.3603700020384290  0.7907338674245618
  0.1092110969360274  0.8086555242228888  0.5192459602518305
  0.2787850485870350  0.1391465973677269  0.4276422136916325
  0.0666181520326847  0.6341579977875451  0.3513727740727622
  0.0017522059835822  0.8558827238497509  0.0031793276145220
  0.0721659190341883  0.4939011916962985  0.0702905912999420
  0.9953249881809847  0.6920543442301385  0.2678854290854517
  0.9836957214008294  0.6877112804888065  0.5644538964252125
  0.8574301745488814  0.5690625968982368  0.7182117212893090
  0.0778185641425605  0.7865982154217427  0.9358475464181856
  0.8465210012852102  0.6957672229413598  0.2718414364875875
  0.8578586677457117  0.2859862453294337  0.1437325281161180
  0.9195178012746910  0.6269661666535757  0.2039387242354424
  0.1334436831133861  0.0158902563089180  0.2686216445024740
  0.1380860092513376  0.1578296938931391  0.7141676734311196
  0.7876567902330552  0.5025814502367069  0.9295359186617274
  0.5058821259727787  0.2192926000948426  0.7902626940584072
  0.9986524197079051  0.5648647027418303  0.8618779370613200
  0.9263942583774115  0.4970419836021062  0.6438394735470933
  0.9900606314718797  0.6945983628746981  0.7087295437338887
  0.3487893871211690  0.6217133099165217  0.5087231570377007
  0.7919221345080210  0.7832500174509323  0.9290505665638855
  0.9991843155651842  0.4269399955942592  0.8611566117883594
  0.0661892169522595  0.0776094523826275  0.3591049700281280
  0.3637937148984384  0.0469036907107082  0.4162410426150505
  0.9982641348661467  0.1471067037753112  0.2851859692055798
  0.2784150169627927  0.6851513870161661  0.7215168071427595
  0.1497659571758000  0.6975092821348221  0.5548276120939660
  0.3439718411522429  0.0810957594535686  0.0696579652042434
  0.2632690860309144  0.8789640987616214  0.1134256469758175
  0.5085227190958327  0.7904267882598897  0.9282635399320610
  0.5741700751605124  0.4272700914952795  0.7184654031045300
  0.6473840653560213  0.6344509060119637  0.6469899320532404
  0.4316085459014076  0.4249713066740871  0.5721657807593948
  0.3594566998176512  0.4928472962784055  0.7880812480518720
  0.4319979686778373  0.2843570092341849  0.0010499834023631
  0.7169705660369892  0.0039381566985187  0.2829334431840291
  0.2115264823106667  0.4900068681333322  0.2178827343365379
  0.2098647639734841  0.2164815938832191  0.2179780569710554
  0.7160574021371905  0.4287728994863276  0.7191412958640580
  0.6445532087847691  0.3565105333785550  0.3589303673429655
  0.4898108578751691  0.4960089846563862  0.0765792069418853
  0.5002484684397357  0.3495222762400242  0.2183232103956500
  0.5855825026208757  0.5456277505487057  0.1234662057942248
  0.5785710912934549  0.7137938253975812  0.0017941892437427
  0.2765106888683357  0.5573304537094501  0.5707447110679041
  0.6753810583530709  0.6767642869478010  0.4510811614196711
  0.4439108935321427  0.8525549173455348  0.8409998070794712
  0.7155056493960407  0.5686337682179052  0.2873313810944756
  0.2062835229086541  0.0866840453688558  0.1966145428566232
  0.0687492194144342  0.4954734650784309  0.3551192105756928
  0.0724433286097839  0.9346639823294891  0.9426606148359009
  0.3359264879980002  0.0362278463446964  0.5342586222674954
  0.3614996485956327  0.0837188708125388  0.7854522382063490
  0.3544770798652606  0.9671593185258418  0.1589287235214431
  0.2372906047173875  0.8713930508571179  0.3141746400944749
  0.1327719999843030  0.0108921115628587  0.1401067507524945
  0.1543670937757752  0.8621843043067309  0.0055191757873988
  0.0672239543555528  0.2213975455618359  0.7890914210111637
  0.0708471764219097  0.6358681292459754  0.9312134114565910
  0.9283482137605579  0.3584172402252292  0.0711669813387123
  0.9965633143558945  0.1490507607881502  0.1397389449446118
  0.1397300683844529  0.2876910472306540  0.8599652363548310
  0.9279055767172376  0.3599261116943966  0.7897490117852234
  0.2142810337001185  0.9631258346841580  0.7883455302040554
  0.1389453188074457  0.2881815685299296  0.5737753035327915
  0.9837736225348315  0.0213449929234035  0.5649800570925045
  0.1951042628760907  0.9280446306343175  0.2072609148657733
  0.5657839131499015  0.5748942735505457  0.8593322671803576
  0.4207551534969850  0.5630719205550929  0.0071664972270072
  0.2799395570709742  0.5462551840842970  0.1469143164295569
  0.6498135658901230  0.7792357698316792  0.7946891596710046
  0.2973075475571170  0.8171149221022570  0.5436720929543752
  0.4266894626982986  0.6944504775428064  0.4497286008277501
  0.2732459600239316  0.8801809005705127  0.4317999547253888
  0.3907374808937020  0.6524006983888742  0.2568553414403610
  0.5861951941773863  0.8622319693347186  0.9948054379624671
  0.4276912010549176  0.6939328615822904  0.1465264494078886
  0.0714066312534929  0.4943102150356739  0.2115107715541752
  0.7159857395327524  0.4165908872652069  0.1500961948226870
  0.0715411891360099  0.4951653083305075  0.9320938128179749
  0.0692967468431315  0.3553501364099222  0.0716380988206375
  0.9978835515595679  0.5654919176218799  0.7124722943948124
  0.1399412714396767  0.4244706614794340  0.5723014914096139
  0.9965645514039291  0.2908827820228274  0.8606669496310966
  0.1417626199669672  0.5654794638039489  0.4249656258979548
  0.9988809030102767  0.2860956040698493  0.2862274008325446
  0.9289562330055816  0.3553735511309754  0.2158627051260765
  0.1313450260943461  0.1583879226381649  0.5754901570499058
  0.1633911616331844  0.0423313881667605  0.7034841577773614
  0.0679543408836411  0.2183211289156747  0.2133593344725560
  0.1874077319261363  0.0776038036072650  0.3606483074122942
  0.7957714467157847  0.7775504679853126  0.6500669574465554
  0.9987447680694493  0.8541966016639895  0.1431917815620734
  0.1327377992381138  0.8501218662363210  0.1405555534280131
  0.0683795728297232  0.9302262514787031  0.0734486771669215
  0.3395508318687586  0.7973104468113211  0.8701610888855529
  0.0832445522122973  0.7513035035763879  0.7455554634047167
  0.0684621640385721  0.4955636521271608  0.4979224520336232
  0.0647437243664601  0.2214538990422947  0.5004436703047402
  0.0010639582891244  0.5660474079890698  0.1397247982679030
  0.8588346417104374  0.1492253298098300  0.5762007670238171
  0.9276002020813099  0.2161758933796590  0.2143259849222564
  0.0693814761595833  0.3557493507561103  0.3574894709663681
  0.8576356084637556  0.2847453567214020  0.2872857417850855
  0.1391191554433972  0.0109509556880207  0.8693404123308923
  0.0702577276243788  0.0772966997099766  0.9358141740360245
  0.1317850985834681  0.9172591894806086  0.5499221626172457
  0.8576855942510138  0.4292770113033705  0.7183858470372790
  0.1013901583951315  0.9644784958204839  0.7646498393800057
  0.9397368611040782  0.9422731314510685  0.3577234658846998
  0.0645989051065787  0.0885662996767689  0.5081125571055943
  0.0002010450419721  0.0102333028722967  0.2773397000859096
  0.0667519161593485  0.9312360255239406  0.2114650552070998
  0.9987952833524923  0.0049914672818905  0.1413595072192009
  0.0002875706248138  0.0115353459072845  0.4383099468968111
  0.8580368846500971  0.1453688219451123  0.0000481453639710
  0.9651033142275498  0.8860827582535858  0.6821798561533624
  0.5024871250539141  0.3531418878680712  0.0727613498390205
  0.5759771832412736  0.2874849208288749  0.5746781244266486
  0.7196527420826128  0.5644931111283122  0.5774646249557157
  0.3519254863084070  0.2113429875352776  0.3596396383069220
  0.2603915126918203  0.0340779136968345  0.6346522959252185
  0.5327873558428238  0.8936103654559092  0.3158735071190971
  0.2944694431755001  0.8964243222407615  0.6415345142768311
  0.1973504239096916  0.7474493713920508  0.7822353775337914
  0.5050571205533885  0.2152166707956882  0.6438478323942338
  0.2857836873059351  0.4205341551691721  0.2872861165178492
  0.2514466619047360  0.0077288352812499  0.4414368163506499
  0.2864101332845156  0.4226678106154300  0.8590770292555915
  0.4645298617564255  0.9190440744869381  0.1367479504054586
  0.4323673747671768  0.2775863465501035  0.1468188626665443
  0.3102529508766870  0.8899139680468807  0.2296768675563168
  0.2081345751281325  0.6347771878753988  0.3525897094153279
  0.3585278001676762  0.3541134411177884  0.6446869395434327
  0.2858144543101893  0.4235498498956512  0.4276368654883197
  0.2434859744577689  0.8486575512474064  0.8269594810313772
  0.9318929767487552  0.0722462600059080  0.9288581253942253
  0.4392410408398825  0.1476215236590562  0.4257456445079588
  0.1430298449382206  0.4220160712963871  0.0007827159662423
  0.1388026171108544  0.5581444140367124  0.7169783137221168
  0.0698886436242496  0.3575770823800141  0.7881489262135929
  0.1466444597868594  0.0293714774381188  0.5837716451750717
  0.3610320902786635  0.2134270946123753  0.6461944417662165
  0.2277762076190392  0.7572154838488117  0.4734351623974228
  0.1405133257398858  0.4229441809823284  0.2858995089385741
  0.3088628193648820  0.7794768765166914  0.1640654955781577
  0.4329746156209422  0.7073623808207765  0.8578188073873562
  0.3297956813311527  0.9740629657021929  0.7322484153518561
  0.4314851341704469  0.2842696402031709  0.4285408889937570
  0.3590391388283797  0.3494857978306362  0.0737759887439067
  0.5681674800841698  0.7216689910616026  0.1368760887359255
  0.1447798461084099  0.5661011469335288  0.0015585103464650
  0.4284189086863023  0.2830296758757146  0.2900716032519163
  0.2054443577454981  0.0911322604689743  0.0660068241237741
  0.2136805103154475  0.2198022580382552  0.6417545707835661
  0.4321363835727198  0.1392343718392571  0.5690529387253728
  0.3577700611951689  0.2199712613020119  0.4983385534810932
  0.3590498226159796  0.4857575564570559  0.2170647854383843
  0.4312895536817338  0.4250329851129129  0.7159335907149682
  0.3620474945039556  0.2154618703662847  0.9306139597604629
  0.2868811605552998  0.4209679165636366  0.0005087095683788
  0.4325286424873335  0.5681079589295023  0.8600009071503442
  0.3430488497622605  0.6171683283398214  0.6440497339172151
  0.4281363942965842  0.5660298437720962  0.4276144637433900
  0.4317774203875754  0.5600753007658065  0.7114927466867110
  0.2842617592519890  0.6940374293052626  0.8515643960514272
  0.4672798842635605  0.8463681149218806  0.7243545087569317
  0.4323540061115380  0.2857424492566264  0.7162473306003934
  0.4334257457149870  0.1472541402255559  0.8579060698611974
  0.2072474388642366  0.6257301820760227  0.6461498263280880
  0.4312372248721024  0.4252350771939850  0.4281556535726297
  0.2847274695290309  0.5581755675738049  0.4237953419725159
  0.6437179149190139  0.4969037008224217  0.3577260586674416
  0.2854480697448377  0.5632971558528516  0.9970076983122973
  0.0664326036819522  0.6297968574643888  0.7861531796499485
  0.3587162550985178  0.4927266786613119  0.9299066570972998
  0.4388313884604492  0.1489751918213267  0.7192473791008425
  0.3184187134571541  0.9593575107996137  0.3471493945156575
  0.4376927081680350  0.0235778004744961  0.1001996567905114
  0.8765615529610129  0.8559605135079150  0.5803386804367769
  0.4295950126007935  0.4230956835310720  0.0019649537678058
  0.5118742638311857  0.9309066168023806  0.9231145779739279
  0.6548764451165792  0.0799792414850902  0.6503501019033575
  0.7189080909923731  0.2889409698748545  0.5759329739310525
  0.6471928686025867  0.3568659027241864  0.5019484765869406
  0.7163997628779647  0.2847502798023064  0.2869123928375850
  0.5082026486326559  0.2164607848229482  0.3591922553016625
  0.4086863063474419  0.7994074765158258  0.5128644142830101
  0.5267520537624748  0.9554363049077379  0.0493984300688073
  0.7169697659240050  0.2921000763374532  0.8626842716615584
  0.3580457807594001  0.2146365580697542  0.7855129664278867
  0.5162347917871891  0.6372309468234351  0.6349387397262538
  0.4296429959837202  0.5612697793881140  0.5764057023161455
  0.6544115737573551  0.0793089095261812  0.7907278949137386
  0.7219969355522827  0.8535437180854569  0.7264362705641604
  0.6069693887741963  0.8426960577202542  0.4050231875957780
  0.5232197006954454  0.0800776633660975  0.0544377453014350
  0.6492818008334531  0.0729304521432809  0.0708136095017406
  0.2929564970433550  0.5711675180939655  0.2821958366743917
  0.8615439241302466  0.4224463809858179  0.1463843505392827
  0.7174067897756040  0.2904486201416667  0.7182464756440723
  0.6462819460945665  0.3589606687321667  0.6457467463988259
  0.4317979383236516  0.2843881750307000  0.5727305679357606
  0.5846656322944160  0.1521854174109010  0.4347520479059270
  0.7869354482673231  0.2137815531715532  0.2153707887268933
  0.7156886600880548  0.2842468284700480  0.1450206261692175
  0.5725207375894831  0.2805300921921000  0.1467454194132847
  0.5874871024510268  0.8718759647399799  0.5790790335511188
  0.6559682575356975  0.0766330319495234  0.5061872613159464
  0.3497136320940473  0.8529028072179777  0.7505911586333162
  0.1335732334765171  0.1554257999620115  0.8648358494151767
  0.3588891982889006  0.3543452185270596  0.5000318822649865
  0.0699872842771695  0.0795529101978145  0.0682007248719319
  0.4445204038776175  0.1348338670645804  0.1341878761022026
  0.6547256182471752  0.0790414071754358  0.9242519396392161
  0.2791379538635229  0.0206645468397307  0.9950022717222935
  0.4474180341261489  0.0159718955769677  0.7238341745277990
  0.5131656457077319  0.0809143278249604  0.6476055778476739
  0.3554672959300454  0.4907574927167960  0.6444310190620557
  0.5044213274882836  0.3583511160974959  0.9333308131584569
  0.2111588513145230  0.4923837326948664  0.4975974408392024
  0.5031172280619303  0.3558153197420375  0.5007280979055914
  0.2849469515583340  0.4231076140645952  0.5716724403524246
  0.5057685442281115  0.2153802033774651  0.5026966857145109
  0.6516779241724268  0.9372937161795458  0.0677373303653203
  0.2888314102411503  0.2865774812146367  0.8583830017353653