 B Cr Fe 
 1.0000000000000000
    20.0899999999999999    0.0000000000000000    0.0000000000000000
     0.0000000000000000   20.0899999999999999    0.0000000000000000
     0.0000000000000000    0.0000000000000000   20.0899999999999999
 B   Cr  Fe 
  55 206 480
Direct
  0.2881548794671613  0.6667431098635083  0.0923422950131789
  0.1243108757040789  0.0467479597289351  0.6951234659554636
  0.5428844900713063  0.0878332672772248  0.1942889064076181
  0.6647393698306180  0.6169141134792475  0.5154051264443354
  0.6545128570122840  0.4562437237474515  0.0948904591923339
  0.3001828091039144  0.7885168137033944  0.3033849313128364
  0.1185123216472338  0.9333065246987408  0.8507911987244358
  0.3170175372564663  0.6321824892491696  0.3421138397470829
  0.0555947502488449  0.2371707969127220  0.1047299569074432
  0.8092540841590229  0.4994224938186765  0.0478826599974079
  0.5344558278807494  0.9342135471989464  0.1980258347078696
  0.0324560083210673  0.8001165205642059  0.4363004758846377
  0.4791125774850146  0.1127713425217653  0.2452043321263372
  0.2351114749271904  0.1040593703585218  0.9087798076325271
  0.3613296585076320  0.7256775360073945  0.6693636003385551
  0.5208637828981715  0.9454390471782124  0.5292568116748325
  0.3132916489109109  0.9224805516020844  0.4822579513472405
  0.4449005827945086  0.1758767441317569  0.2923861702111574
  0.1511664422278182  0.0444727358405705  0.4180012758491710
  0.1743160304607971  0.8568731229318135  0.5157248821859962
  0.5954805678640203  0.6313384905880534  0.1578197225708123
  0.4549422236973772  0.8085582669049667  0.2583614061591527
  0.4590508244541808  0.8962356562495005  0.3812705117797793
  0.2954829893055247  0.8732025637505193  0.9351800330449108
  0.3790087646224279  0.6375341927535083  0.4012435415979526
  0.0531972849845936  0.9752752894476038  0.5166810392603052
  0.1648955137417318  0.7909723526509618  0.1374213657534861
  0.0058893483910442  0.8001467604994964  0.7024570655461827
  0.4237234116943717  0.0556421945410931  0.4941317695442334
  0.9370992626885484  0.9681152272553233  0.6305369471908221
  0.5864640089043496  0.7738485314947027  0.2942815741349212
  0.3775663597989609  0.9957677232076699  0.2310971585520366
  0.3215146755396844  0.7426814973896465  0.5066793704246371
  0.3425626907693126  0.9265762000235507  0.2689831696059556
  0.6304563904681779  0.8482601217607043  0.2938445173574368
  0.3645399768293365  0.1183420903979480  0.4899821295724612
  0.5412919364105528  0.7895115746303029  0.0580463669393037
  0.0038626722107242  0.8100829321138130  0.6088962040357722
  0.3035788320951887  0.1071779286602198  0.3493742265069668
  0.3388265532607300  0.9883864106102409  0.9342520645447394
  0.4887788928318837  0.4666651894295509  0.3676068362128403
  0.0366903737618910  0.8582857953187629  0.3688122337034015
  0.2835271643326184  0.0323497254202037  0.1022087270696890
  0.4876233580334850  0.8594808599184992  0.9355123253912515
  0.5201379733216933  0.8310019440805659  0.6456339286401795
  0.2162985932175253  0.1522048834690256  0.5665966902667041
  0.6527093302625177  0.5190679034158566  0.0362745553596279
  0.4155210325313244  0.6673669016468278  0.7127648812539491
  0.4587578092664850  0.0320173843324184  0.4189142796913631
  0.4092715732199040  0.9386756475539811  0.7780809133129105
  0.4128084728107393  0.8375855121859680  0.4179372666947455
  0.5392338064070723  0.6251916956039680  0.3062315858589858
  0.2424785643433411  0.8661809890996072  0.0067729282709509
  0.6511645773866170  0.6984416949650356  0.1587062467152483
  0.4149499965861310  0.9224049544467569  0.0411238754070356
  0.2525258896698020  0.7331557852964538  0.1685664600036511
  0.7802174420027077  0.6430345574363990  0.5010400356337599
  0.3538242980104999  0.6345108605562283  0.5080172829479112
  0.0627695773478515  0.0836325887604312  0.2102102645181599
  0.5233900337642505  0.9422940809646819  0.6590635180999328
  0.7768850790805686  0.9193148001360691  0.6391972049695022
  0.5085809465627138  0.8548887549753356  0.4704544553944987
  0.4235210323069434  0.9471442098714163  0.4726069055100106
  0.6885607832620713  0.7611968914922354  0.3429207493891056
  0.7940672966367415  0.0727546887595853  0.7870971583408354
  0.5776673656529969  0.5697780130854929  0.5729328130292636
  0.5738271765753596  0.8555938151439394  0.8648104882602362
  0.8623660090616262  0.8590628248867888  0.0002055824656182
  0.4993308893141729  0.6419210173097861  0.7809909563968189
  0.2166688795646620  0.3543824763591098  0.7842172833371994
  0.6450668778386492  0.7825176683962479  0.9339373200200966
  0.3633481024143632  0.1978915213603653  0.3592608303326887
  0.7179238892341476  0.2856393257953765  0.2872648504198856
  0.5075483889601883  0.2126734746812611  0.2117807182249064
  0.5932894171905476  0.0023673038907512  0.5820273453456254
  0.6431159603014196  0.9242584384838538  0.2192453074680973
  0.8588727508782943  0.5708444390707029  0.2895002638881450
  0.7902232340781021  0.4957199357409684  0.2125621731456975
  0.2131344305145034  0.6334317329579109  0.9297727881457033
  0.3140384490940394  0.9455108227127808  0.0324672494730775
  0.6506574108580268  0.7764512799420993  0.0755043339247390
  0.4169027964907245  0.7315577612890000  0.4524403369511044
  0.5054882529772665  0.0703859205175615  0.0736759485312835
  0.6504533995392622  0.2189912481785348  0.7883413133099786
  0.2696446509772158  0.7908346212163286  0.7005823680064697
  0.0682764765537587  0.6348628267744251  0.9299844168827396
  0.8591984319450719  0.1499149929127656  0.7181389544737119
  0.9886663457740840  0.0067715074283294  0.7299200857603675
  0.9308286556860506  0.7803306899168083  0.2098073652885068
  0.0685663711052940  0.0733682189815755  0.0650293830608097
  0.3437264604577479  0.9316807340982717  0.3841791846349470
  0.7231742742198420  0.4366238362482743  0.0112004355958402
  0.5852303339398489  0.8608812781350099  0.1257745584897372
  0.4321036429519806  0.0133215514119337  0.9924819646499644
  0.5809780687647677  0.7109728954913256  0.7295261888094403
  0.4346962796343554  0.7007385699876073  0.8605007716266577
  0.9306341613408909  0.4916757317221681  0.0642166486572856
  0.1415022256163231  0.8550350854148211  0.0171477327084851
  0.7929868386315787  0.9302671224131270  0.2160723336845916
  0.4314257073214459  0.9023478947198565  0.2099074924600652
  0.1785431576071664  0.9583089367153911  0.6637175731960978
  0.3633683695560255  0.8028380508429054  0.8899601359195711
  0.9295621902546686  0.2163437485123113  0.9294045150292711
  0.6540558688253516  0.0787009374627595  0.6486531779018424
  0.5043493990172235  0.6442105972936734  0.6378502354290593
  0.7080372259721702  0.7121544463009787  0.5710176225160734
  0.8036770810513353  0.6244544651681679  0.1939698422430747
  0.3792937385394924  0.0751006160356190  0.6520538298208814
  0.9307321381554481  0.9289782692819282  0.0723770160370878
  0.2876159279764339  0.2853095505324150  0.9994934827613446
  0.6910065737186005  0.6026657973345663  0.1897384518249405
  0.6390840651435798  0.7992401560824062  0.5056560309873428
  0.5149108650143429  0.6180012481527409  0.0817665655640578
  0.3586454954765203  0.3519506920267582  0.0697026487664945
  0.2063434122526623  0.9550456690860026  0.0783842605645825
  0.3588156906224796  0.0914977859404755  0.9276041365167023
  0.3897451809118443  0.9417853957489708  0.6705621504684401
  0.5715137168804759  0.5712438522463131  0.7145129213622037
  0.8592044896513251  0.4254178527111337  0.8569626708466942
  0.4964405629936151  0.6387678323937070  0.9404453387672175
  0.4337407627634016  0.2826714848552862  0.4269922304638066
  0.5759932834000794  0.0032482946520734  0.0049496627444282
  0.4323644770566086  0.4255179917328517  0.5701377018873813
  0.7883061722892409  0.5002012523342929  0.4997099019712987
  0.6100032266466451  0.9388782679189671  0.4695036826085635
  0.2850979779687698  0.5635471265526762  0.9994444293466630
  0.7883244597951157  0.3565958114856498  0.3584090062883785
  0.0701339995312583  0.3582514299413967  0.2141108446234228
  0.4247146630318092  0.0061221476348204  0.8607402507772522
  0.7883756060439965  0.2153727071034816  0.2166748452112503
  0.3127679714110581  0.8092600590878357  0.4156606674233462
  0.2916115789359918  0.1399304642802407  0.7105793947226313
  0.4420743524371230  0.1372062553146084  0.5672992898628960
  0.8131184690818968  0.9161368084263474  0.3727762567830697
  0.3951225551821956  0.7270194502532310  0.9706885725562331
  0.2789519331559471  0.8362307594928378  0.5476962288298279
  0.4371715441463832  0.2865887551654973  0.7135546106553183
  0.7169254362404311  0.7126163621790870  0.8624101182021554
  0.6541206556086108  0.6241573617939884  0.3422628863033874
  0.2888909223436638  0.2857507287103975  0.8537885352870036
  0.2127122455599898  0.7639984643248152  0.4870787747906462
  0.2785995108343291  0.1494119988952330  0.1301031866302622
  0.4022873776280041  0.6271646857059864  0.2737607487350669
  0.4338926544953773  0.4251921843067081  0.8579081464560804
  0.5206889108436683  0.9379330415736691  0.7884461677350870
  0.7175743647151135  0.5713773897201980  0.7148013754379151
  0.7920450918075106  0.0725859381523422  0.9286733380385840
  0.9307723675525998  0.8345091637349334  0.4005381502368938
  0.6564130282049288  0.6345592458390407  0.0708904857417338
  0.5728072722841583  0.5725370102216897  0.8604491612552218
  0.7911358187877603  0.7832003199714922  0.6512365471488331
  0.8685400012798501  0.8599862450446646  0.2837681739451602
  0.5786151739396206  0.4304920371764087  0.5705504172801765
  0.7204445925298751  0.0036394777495915  0.8606458134495908
  0.5689280741619698  0.4343570250700701  0.2888331067996625
  0.3842804369494150  0.7263633860435491  0.3387523977764954
  0.9516079586327978  0.7960939074946243  0.5143845387736330
  0.5287203269515071  0.8979256925720683  0.3025896041390743
  0.7837183240742319  0.6563096641816961  0.3667103059620271
  0.7318510382832255  0.5620104795946922  0.2892258206717180
  0.5044712372975335  0.4897771341974555  0.2012934633826035
  0.7189709800216330  0.4284371394448839  0.4315432853160003
  0.6515610709602813  0.3507737768870525  0.0737109020670177
  0.2523516559334270  0.8538435065363992  0.1144824880393093
  0.4993463616624516  0.7697901437529503  0.5584621110579638
  0.8574099810135537  0.1451412812368361  0.1426784220319563
  0.0804813161700462  0.7698683700355970  0.7760526678087791
  0.8579140044752764  0.2859732596236118  0.2873459774460732
  0.4620340843888601  0.7979353870472697  0.1448769790237467
  0.8560741432116851  0.5762400715376923  0.4295954688415998
  0.7179305873914282  0.2890533607164065  0.5714062964454673
  0.9285791442121971  0.6393675612828260  0.0708265234123852
  0.5839406310644051  0.0089116268163652  0.8574858778280083
  0.2027914568373385  0.8066139228807699  0.2373780214160716
  0.0014877649226645  0.4255034288216084  0.8560624941020838
  0.2138163143565303  0.4938184187127629  0.9293580252805018
  0.0711060412153934  0.6288583164327820  0.2074474846943921
  0.9442244634388824  0.9384629544928254  0.3559994830825157
  0.5657451609484069  0.0080109937885719  0.2764584679090625
  0.1485356088926982  0.1475251790113520  0.8497489752828714
  0.9982619441350805  0.4286419460190676  0.5717963536086454
  0.5789021043921931  0.1438680461542993  0.0014371530591479
  0.5022646839218016  0.3555163653819318  0.3560913915080530
  0.2163806164483955  0.2183607646565558  0.9230650733804386
  0.7877377101617565  0.3594110956204605  0.7870139274816232
  0.4416783712282727  0.1372098530307632  0.1410959014758198
  0.0743940791896255  0.6325186398905639  0.6451435589375559
  0.2241016540110692  0.7581504992332494  0.0551221465191360
  0.2217998435189165  0.9377234981114034  0.7958175209664669
  0.5024258569596350  0.0870208555280672  0.3484373143854118
  0.7923362043842297  0.4971376015511429  0.9275099670431965
  0.4327593045698074  0.4209372235200119  0.2839343974441849
  0.7859392130200309  0.7833596274738367  0.7927843961639965
  0.5089764318673304  0.2178315350870195  0.9304177436900247
  0.8728404012812953  0.8729031629607963  0.5901440048664797
  0.9263864278759173  0.4970997380548957  0.2124803304961658
  0.8509439033992356  0.8536737594177851  0.7219472730233756
  0.2310632776463007  0.8845109814298409  0.4312104002000249
  0.9168389604361697  0.9314513368115003  0.4899686426316552
  0.8612168498104469  0.7110468707542169  0.0013430475910833
  0.0430736552419541  0.8846361198145197  0.7717716624692974
  0.1414722109674801  0.5639780170780738  0.8598536274246050
  0.5764630685872022  0.6108000032279958  0.4522521868809327
  0.9268744900881921  0.2171686221963962  0.6420087162653620
  0.1384649905652675  0.5582219972712289  0.1375323143908407
  0.8590863261115851  0.0003088895352445  0.8589800741474085
  0.0008838214079898  0.8565610995402526  0.1444005139563653
  0.0731998117636981  0.7833157736045143  0.0763892648979648
  0.7321258559819885  0.5709195417635760  0.9929751111562654
  0.6443226347483443  0.5013371065169246  0.6451842294272386
  0.3956953369936176  0.9966381337917543  0.1132346841305999
  0.1416613340555550  0.5651130593923613  0.2831311404925175
  0.1301106594877196  0.7081642289016378  0.4274066113757044
  0.4297910710757575  0.9798150896749052  0.3211344587863644
  0.9979918546574885  0.2891630301169787  0.4259829646515476
  0.5117107256328766  0.0824159458845106  0.7959465686892538
  0.0006536187576320  0.8553455190925487  0.0047383745390806
  0.9294641233550783  0.3596861961524637  0.7879044248303033
  0.2189273881303690  0.0600018999927609  0.1971470842193498
  0.5831149284616833  0.7020889062601922  0.0050516801642164
  0.9371909705530148  0.7916427128008605  0.7834828137963969
  0.8585380738210505  0.1461340276871141  0.8595396682237528
  0.9972595343344099  0.4260658015525664  0.1405798244408299
  0.1424482764383992  0.1527564185233078  0.4254240053759942
  0.2895877376042835  0.0121684161922063  0.2956196634112047
  0.0843831385356374  0.8620832702230197  0.6651742558160367
  0.9301819941631262  0.3543898059166702  0.0679124908671318
  0.6508935035644158  0.0729995470488621  0.0692404769498738
  0.3812682559615937  0.6331800374402410  0.0576700996130250
  0.9220674034545225  0.0825479093667914  0.4971888835135923
  0.0709500947071422  0.4941295267040328  0.9257935237336204
  0.0703094919761551  0.6360357377421899  0.5005374626843729
  0.0073362958383399  0.2774008118828686  0.0028645345762929
  0.9999937289718146  0.7036578597791114  0.5739016366383928
  0.2053939663996149  0.6360972726003532  0.3557839176660463
  0.0771440080540731  0.7856571629416065  0.2097438260840991
  0.7203475726629438  0.9927955915622291  0.4319510454249179
  0.6426783336248684  0.5028519289144258  0.4965355299514931
  0.5549397706150787  0.7260079215287029  0.1418379654473909
  0.1276564226915307  0.8634197172366337  0.2987901015272095
  0.0708215570256653  0.4921331619708144  0.0687944635601629
  0.5783931901582426  0.1460194020562905  0.4307213505792084
  0.0765505317090515  0.2110300776767618  0.9239449788044346
  0.9991927829126367  0.4301132217713179  0.4267689627954073
  0.1429504242976476  0.4246247689330764  0.2827656585783782
  0.9284729096229213  0.6382546675225469  0.3549542098183808
  0.2193779255421990  0.7830318322909158  0.9354413461259945
  0.9977446818023701  0.7054236429837175  0.4344828301620293
  0.0639796474368411  0.2200059399069602  0.6441322864454274
  0.8580313132289185  0.1471043851458358  0.5735018996078793
  0.2876588623167350  0.4221407363758580  0.1400350764814428
  0.9255233448872742  0.0802988566928275  0.6500612835081750
  0.6471911611173010  0.0741113320323602  0.9315633882486709
  0.1386772128865817  0.5610605468345554  0.9953942708919494
  0.3611997461241341  0.6255214424359760  0.7956339010637742
  0.2158403182433206  0.3543447744096299  0.0696442269087751
  0.8603482817454776  0.5701222444990935  0.8581096939507789
  0.9253754038752442  0.2190769337308278  0.7887613721554896
  0.1444347904294563  0.4255209878819937  0.5694716845490871
  0.9272223116228753  0.6414400307530861  0.5032608042581450
  0.7863662298611235  0.3582512309965392  0.5015642394224801
  0.9908545818168698  0.2925130483974204  0.1466919725586245
  0.7897518112088424  0.2148606111905359  0.0707536223482587
  0.7881006543081446  0.0741300174772331  0.5001202525325049
  0.7159408225107065  0.1421465983947625  0.2880541925243890
  0.7208932684170325  0.0023683602702280  0.9986914405445331
  0.5761176684381877  0.2856306656179505  0.2861576050855754
  0.6498576006554094  0.2168541778351870  0.9310048125708320
  0.7191740817300568  0.1443262445664320  0.1426090548193170
  0.7931880298606420  0.0771608044477603  0.6510143374791141
  0.6571360639201640  0.4926157100425538  0.3550653842501801
  0.9994539656051130  0.4272248347806825  0.7144902061830386
  0.8587455727919960  0.2862760760655808  0.1430903802209874
  0.7414097911505784  0.7161013499969489  0.1379212521247442
  0.7160481375427078  0.1427183610604705  0.4283153907796321
  0.6469812395364049  0.3600690113446082  0.4998306772284133
  0.5061367872536716  0.4972104590081051  0.7862761902101101
  0.5052049543087881  0.4968779523275489  0.6420796424642830
  0.4882699231596829  0.7919058965527922  0.3609271736196144
  0.5737752646094935  0.4280267154687937  0.4246196545088778
  0.9311708068656862  0.7823447158417075  0.9319405232789670
  0.4340080613106294  0.4262870820503901  0.7140913621824785
  0.4940771104400270  0.7167828286669570  0.2640014714876675
  0.7171282673854785  0.8564326151085849  0.0004958655753398
  0.7104848875750110  0.7205269547631823  0.7130800274653225
  0.6878050007166284  0.9114879771691656  0.5455777745639453
  0.0671831315009487  0.2224826120513711  0.4942547939920973
  0.5788693588633276  0.2878788738681165  0.7148971115367924
  0.8607947619429983  0.0007882308810431  0.9999675633160776
  0.7882560722447739  0.2185802494729370  0.6433636283802062
  0.9876895617462385  0.0265501260272627  0.5648188477988692
  0.5461709237228791  0.8292151578751126  0.2221654456295465
  0.6422865397189399  0.9346645851842925  0.3508225347634067
  0.4780653001989811  0.6556609649428090  0.3803230980976289
  0.7243827301448691  0.0028304062973878  0.7199097428136196
  0.5924407080866525  0.6849056015565720  0.5469058068116616
  0.5550952263416459  0.5412743883087986  0.3767046510332979
  0.3863108492419761  0.8485487250361389  0.3152118232726926
  0.4589186298782931  0.8835745365161169  0.5840855690470130
  0.7868501060372476  0.2170184966844521  0.5002726547827782
  0.5316104939942216  0.9692880280073162  0.3950468693721190
  0.9269958363084795  0.0782618296304508  0.2116109656462781
  0.6364797887351437  0.0620327407270424  0.3646193577355012
  0.9979400971240521  0.1488735621669409  0.4268105918760077
  0.9281282565379622  0.3588337672074309  0.3574839314227939
  0.9277440861047963  0.4995915880377462  0.3587003743916371
  0.9278209872152512  0.5000605794391237  0.4996618207069772
  0.9983589984678002  0.4283128208036904  0.2846127887539912
  0.7316259265168421  0.5294698792179596  0.1073603402953289
  0.8594503810224817  0.4255366794740423  0.9980069249018981
  0.8584204494458207  0.2888252281500748  0.8584981672243669
  0.8581794487359500  0.2892213490092487  0.7155916429153476
  0.0698076078246774  0.3580503820786732  0.6413124003254458
  0.8578625828696457  0.4300600374095018  0.2882833800003252
  0.6497449844496477  0.2162777108056400  0.2152852100763632
  0.9971415597676514  0.1483418367399507  0.8558958776789767
  0.9292374345634727  0.3590181865774734  0.4994222818904223
  0.7209080729135101  0.1487189150082097  0.7182038370570091
  0.6471842335626393  0.9320966202609878  0.9300319570198620
  0.9996463785355305  0.5678149136604447  0.5725595224131377
  0.7197996736901451  0.1450602927394076  0.5728672358502311
  0.7899527191076054  0.9281638742281779  0.9302435209421557
  0.7626328434276536  0.8253093352174116  0.5477545807678512
  0.5416358813575489  0.7374105809641119  0.4574674454042841
  0.6799331434659113  0.8239849471390048  0.6281642026236829
  0.6464311987530404  0.5026403388726064  0.7867859820722151
  0.5759588830715313  0.7039632093024207  0.8642036545401205
  0.8573151916053451  0.4293670232190079  0.5713132772903604
  0.8574706808301582  0.2888224704268542  0.5715057645385287
  0.9288997582594354  0.0788841486897027  0.3552526608673390
  0.7897180863580039  0.0723877550007087  0.0719571563582926
  0.9927037044241420  0.1448723221802519  0.9966871525126459
  0.7918616530820375  0.3511825242062232  0.0672354817064105
  0.9282337304260704  0.4998320781816890  0.6434996480347517
  0.9325306132366729  0.3549451080495009  0.9286331390458358
  0.8605739724298794  0.2856922381864321  0.9972966122803678
  0.6502125670791492  0.5012838203948299  0.9280731261988713
  0.9323449448499547  0.9286246844726395  0.9289981219960641
  0.5791315714528859  0.4285992534396207  0.8585216176252664
  0.5784372992528402  0.2873166043341769  0.0014572346157488
  0.7187818802897481  0.4296209829765237  0.8575636417428529
  0.6489811130245865  0.9304083208322522  0.7912895105411079
  0.4325713437177061  0.5640696495988089  0.7131838168554682
  0.6612788952292743  0.7875900211171969  0.2132757136667034
  0.4237875433028910  0.5613558777237577  0.1409911099609534
  0.6081438863983790  0.6804682787741951  0.2479561921474074
  0.7952991743963844  0.9371894400840145  0.5035008272735281
  0.7155049901909396  0.5705439762976833  0.4314646081330221
  0.9925722093236937  0.1531452932385003  0.7238805031017803
  0.7944029668026439  0.7901028243901562  0.0673332199641004
  0.8592077414069438  0.8535285567648220  0.8608381745161132
  0.8582259146850677  0.0066511540098228  0.5759457601820492
  0.7308347745864193  0.6928925508637714  0.2622857989211725
  0.9323876805765351  0.7556418271597489  0.3313227819162932
  0.0972973590643514  0.1854164939011720  0.0379832709826793
  0.0035483604132614  0.8513503855144962  0.8685234198563030
  0.9566775097565763  0.8868250510655240  0.6867028751063853
  0.8414295623382737  0.8336476682433540  0.4670491760926432
  0.8491623475429982  0.7284936157594949  0.5576945598293164
  0.7886936711286304  0.0722686219035519  0.2150795776251654
  0.7864582188360555  0.6477726781589482  0.6428733399646464
  0.9319105435848380  0.9324721671521172  0.2141795099880558
  0.8622794569691711  0.8583918095303354  0.1435033858177302
  0.5873566666005708  0.8500390628123294  0.7201936223308213
  0.8572250722336162  0.7118696974706464  0.7235145844470333
  0.9186240967209016  0.7735418422540603  0.6469772903643265
  0.9288749456053353  0.6388408417963386  0.7894672339945565
  0.0719725082368976  0.4953205122574614  0.6421696900465899
  0.8698372598952300  0.7159098991483881  0.4335231639953104
  0.0692236396213357  0.6359680577390536  0.3527718162191851
  0.0694119710123615  0.9520441315815314  0.3555379180752600
  0.9276499777839823  0.6315070997866504  0.2047018619577338
  0.9315549059461171  0.7849790745403693  0.0710424371496145
  0.0655340174266897  0.7644672400450725  0.3429116775686756
  0.0153118575323852  0.9915175462851858  0.8542607898575285
  0.9242349205707416  0.0737661481971452  0.7901467826513330
  0.8632679218701460  0.9855914123693751  0.7062188300600222
  0.8069718339668347  0.7862621861689666  0.3531622965257493
  0.4709564891983574  0.5403650835124867  0.2979605489711478
  0.8563324615328094  0.1452203937774451  0.2861881910683205
  0.9317500467273011  0.6423033356734074  0.9275307830441062
  0.7909803826457757  0.4979301668103019  0.3632467101998267
  0.7941413101805933  0.6442545251358786  0.9258342465269240
  0.5841728607341518  0.4334221286735828  0.0097940337063181
  0.2172856513630501  0.3545575051706226  0.9262971224156049
  0.6656142884176836  0.6891631022828866  0.4454683735007848
  0.2160847985191816  0.3551529318405398  0.4978298338452083
  0.7874412764064413  0.3590137312967712  0.9298570607280643
  0.2888327988345409  0.4248159540581466  0.2826201057182003
  0.7186729863909165  0.2889501813957549  0.8591146751167581
  0.1435240179778725  0.2883253222203865  0.4246134331957372
  0.9273389910485456  0.2182375703524320  0.3567871860218131
  0.1411522695601692  0.2855435983202950  0.1376605182012341
  0.9940706850698152  0.1511079376539085  0.5636171195065648
  0.8561399015394416  0.2886356895938569  0.4286549359979027
  0.7209507639263651  0.5694892876009908  0.8583102962556621
  0.3835869806419034  0.7583022886141726  0.7688480336406796
  0.7215011108411767  0.1454959455725810  0.8602929065674911
  0.2285823675183969  0.9470970926068587  0.5455124312270576
  0.5740625423735070  0.4161917317754876  0.1445111240068768
  0.2173505949813200  0.3546018390219901  0.3536841275156338
  0.5097167922406983  0.7776833883417228  0.7968119259314659
  0.2118391642944200  0.6298059918834332  0.7935364013297792
  0.8610964339176024  0.0098243701786720  0.4254667975141272
  0.0786971999991020  0.7528531853483660  0.6474101087143430
  0.6512909079872710  0.6377384559636280  0.9301417722574544
  0.2089400428831208  0.0626709996600829  0.7634137041519993
  0.2808432358840266  0.1523514245462988  0.9950742911501773
  0.7869383194528298  0.3590926069592358  0.6426274018851740
  0.5794758500185658  0.2888222361539028  0.8598445860770408
  0.8648690827735138  0.5692747026395925  0.9953108129846772
  0.6482790196684993  0.6381889902230303  0.7891018178495472
  0.7848228073338258  0.6435728728566174  0.7877828237792910
  0.9257466914328308  0.2204913857352548  0.4974408852449637
  0.5793713847638555  0.7055658307903140  0.3606396211051779
  0.5973626999392996  0.5366753400344668  0.1241155442652264
  0.7922863179816841  0.7900259309870978  0.2177402376117477
  0.8635907943655929  0.7157625002306317  0.1399072134213185
  0.7222311566040337  0.7115527640770778  0.0006759951355328
  0.4381060913751528  0.5629155779376828  0.8599697658375872
  0.7856253043852115  0.0716384552072254  0.3579242764953167
  0.4274946874539726  0.4207828821072951  0.1427202063669996
  0.9284170615874356  0.0742123473099672  0.0708305953312838
  0.7903585142917624  0.7838112249834460  0.9313860615293569
  0.6499694980710720  0.3616610943493426  0.9332458225618778
  0.9981165210931774  0.0137796349917380  0.2820139522551089
  0.7211455131792847  0.9975450728190374  0.2892387935349423
  0.7889494880938699  0.2183749352615418  0.7882961290089365
  0.7892702414194357  0.4999278955679257  0.7868079992695228
  0.7890919856888126  0.4990667692960728  0.6456974158778777
  0.7241338221675653  0.4230793981035595  0.2875541599403408
  0.6476336362909270  0.3552453541508319  0.2182237563972509
  0.6622700832670937  0.4805150652833858  0.2069412291939924
  0.7895483039032141  0.2165847698380273  0.9290243744284000
  0.9975548282594533  0.2882915518254143  0.5707174423600347
  0.7168954616585277  0.2883631426516287  0.4286468180461894
  0.7934712999820457  0.3530778088914149  0.2188480429480378
  0.1432035956214118  0.4236212760111752  0.8571815355539261
  0.3178056909153737  0.9937293147845048  0.7470830221617382
  0.2033798445727664  0.7496449797945426  0.7953160445764801
  0.7324889555595245  0.8663150096496711  0.2934597748632917
  0.2165286733136720  0.2177726937693757  0.7790584422424205
  0.0719510787826430  0.0809836610305875  0.7859777655038666
  0.2150318417208434  0.4960348813693769  0.3532080176873243
  0.1433827203405150  0.4264746923477526  0.4258524574483406
  0.2148790578427425  0.4910330731341005  0.6422197449226077
  0.2160449029513319  0.3541950765483314  0.6412806858343093
  0.1443144820395797  0.5639550121593732  0.7151783314696704
  0.2137219499772191  0.4924134160228710  0.7873390763970372
  0.0018310747762360  0.4236993525522176  0.9976201566915315
  0.2114685929199760  0.4908705322883820  0.0675827102939522
  0.0690442524607366  0.3540296511473401  0.0711796783536806
  0.1416452124551843  0.4220789118128321  0.1409512928035871
  0.3327895406638353  0.6453980603432605  0.1831394594911598
  0.1432559188523913  0.4242122323815344  0.7140384655185920
  0.1435532810357655  0.5635772738461561  0.5685803677148319
  0.2902843498155784  0.2824739317132369  0.5713689120495924
  0.1433031424687066  0.2865235751503616  0.2835992491659937
  0.2043926469421978  0.0697401895806961  0.5120348466490534
  0.2818366230514489  0.0294150051596095  0.8585993729280759
  0.9258596778032840  0.2168946865486888  0.0708852925361106
  0.2891072340277707  0.2824815021577953  0.1391226383022234
  0.1354018743083256  0.1501133441821886  0.1458500716526166
  0.2907128684492936  0.2786574331478024  0.2826342360207870
  0.0705099743611082  0.2186192292509363  0.3548217985339745
  0.2122590536819555  0.2209134073655943  0.4976554154692422
  0.2191056846373036  0.2111428913237249  0.3535015339310126
  0.2159026030577118  0.2163412956278248  0.6428279704144370
  0.1416320284022527  0.2870116734721874  0.7121755465361550
  0.1369620128795832  0.1533318609292401  0.7135178586523455
  0.8606805718838452  0.0007929611886275  0.2880295760575941
  0.1352628421375049  0.6977472897744906  0.1393259520648525
  0.7208136244665436  0.1434710361172649  0.9991699684745136
  0.7172017136965282  0.8571170773635325  0.8633105578130380
  0.4821203307664678  0.6449386468655750  0.5107458847751897
  0.7893518043209615  0.9306954081665397  0.7909993421319366
  0.7252768622914542  0.0121227480086342  0.5810300703437294
  0.7174038957204782  0.4302384838873650  0.7151512798293200
  0.7570448357614527  0.7524027620285801  0.4568732388456653
  0.3132175719832768  0.8446142048217546  0.2118389242575822
  0.4398584412869697  0.1490390687462727  0.9973393760118532
  0.6529020719164117  0.0688206631291459  0.4990117835832262
  0.2067178997416111  0.7730608301736104  0.3567795089892892
  0.3502122413619167  0.9259839043665115  0.5726788698050177
  0.7909474035082764  0.9294995506648888  0.0704952928392131
  0.8598295306030026  0.0011739998223538  0.1428437229412508
  0.3625645251387723  0.2127149951705247  0.0687349924741806