 B Cr Fe 
 1.0000000000000000
    20.0899999999999999    0.0000000000000000    0.0000000000000000
     0.0000000000000000   20.0899999999999999    0.0000000000000000
     0.0000000000000000    0.0000000000000000   20.0899999999999999
 B   Cr  Fe 
  55 206 480
Direct
  0.2350144640307395  0.7055290254840521  0.1577195230938396
  0.5360011726632267  0.9394862030841087  0.2256516059345555
  0.1519589551616073  0.6669118623759421  0.7293636216413822
  0.3644051474456214  0.8578527382578880  0.1522298092818775
  0.3316106180370583  0.7279395560337585  0.4953120244422933
  0.3674501366712178  0.9724328900772997  0.2610259298888472
  0.8578100789397576  0.8965174214791910  0.4091654865038420
  0.3635814975676787  0.1245391310985707  0.4881282481728095
  0.2840178883899027  0.0600742277575609  0.3580174774019104
  0.0591351959665954  0.7254806938527251  0.5031101804154509
  0.4314806779282256  0.1227028944186066  0.2285547715980727
  0.0960949105984581  0.7991404266317125  0.8303406159264275
  0.4272016171445679  0.1779263978682434  0.2966029491979118
  0.4188666899970663  0.9271934713403467  0.7726817593413068
  0.1697731895548585  0.9291752292519715  0.0916661491891015
  0.7899042238810395  0.5253053205031538  0.0397511838711468
  0.2278448083921279  0.9323480489105859  0.0263405798457136
  0.6457627736692116  0.5236424709262212  0.0376293452409471
  0.4199418349506646  0.6644028479842706  0.6894124056358276
  0.3436706911148079  0.9787360530523739  0.9301616117848730
  0.5493749912967938  0.7917996157491204  0.0581502718764392
  0.0620848309401445  0.9831882546216769  0.5311092103944499
  0.2635518336283412  0.0474353793295990  0.7432293060566392
  0.2011339272205460  0.1152774014051718  0.6341604183381697
  0.5143323825208913  0.8282483098928338  0.6327901592657335
  0.4689900713594269  0.0496260427016799  0.4058126471802803
  0.4302759279863664  0.0677818783569960  0.4942100867765477
  0.9171569285362765  0.9863198274177076  0.6502073379838353
  0.9067534455818387  0.9335795938848267  0.5841396114762478
  0.3382135006318179  0.9638764757721136  0.4590766592677031
  0.2572289278521623  0.8935498131616649  0.7303917991186917
  0.5353976779228918  0.0906513407450540  0.2205203749453711
  0.6547778521629032  0.5990895506611444  0.5085922510791814
  0.6439223649018748  0.4614993640899061  0.0967925418694850
  0.3094398662593618  0.7899525458370921  0.2940299633994742
  0.3470532469073361  0.9850585779888623  0.6185153959431795
  0.3949306684353544  0.6388204659086890  0.3502328714772913
  0.2069679931320416  0.2259297377197277  0.0708269053029527
  0.7874682944641296  0.4638489262939727  0.0987645760915657
  0.5004006804719633  0.9280310898033621  0.1481168311840640
  0.0562966525012228  0.7908619289623796  0.4359952783613593
  0.0593448360945078  0.8500514349236270  0.3677351765536450
  0.3539824037924736  0.7184322301125782  0.6583154102183348
  0.2991344574129809  0.7703528899277667  0.7854409490856363
  0.5319721242256241  0.9560333173657292  0.5236467720633053
  0.3829942084061698  0.8842165552386360  0.4383668331819955
  0.4585752163645642  0.9028922862455004  0.3970150250722967
  0.4681146840818420  0.8090966308059427  0.2888146642582213
  0.1842561479633394  0.9303281049739212  0.4604734019637872
  0.6253889926926032  0.8454036522787268  0.2988357406377622
  0.2032756912105086  0.8561487963548313  0.5043409093108303
  0.5509229070283735  0.0743943723150366  0.3825749949378003
  0.0089667446449338  0.7999360115331460  0.6959973947292302
  0.2898282402199185  0.7180186871343796  0.0856996930545216
  0.3327554550986812  0.5843584444492317  0.2187380147530711
  0.1437864262627218  0.4250155855120143  0.8620922092651386
  0.1383953346996052  0.7000201484679140  0.8597745369879749
  0.2066864147998549  0.0926745883835213  0.9293561904844690
  0.5464426751195436  0.9713014390645760  0.4067502208805982
  0.6420830392750886  0.5033606231598897  0.9289108391382763
  0.4986457154819411  0.3492598120017182  0.2180061069001146
  0.9399428158295438  0.7895633075831879  0.7786015621995024
  0.5036461973015847  0.2167132334031205  0.9307426083438073
  0.0095220881990098  0.8859666495573146  0.5705531993670436
  0.2190458428265234  0.6166471636203900  0.2150531347550809
  0.4366525480001316  0.8957061371826274  0.2244440504213999
  0.2173353735533559  0.7557901234833122  0.3512235911708861
  0.0512582183343139  0.8986467394685191  0.4612258000883246
  0.8553523973073917  0.7080227930076344  0.1420438598864514
  0.0716167518292209  0.0817576488652841  0.7887900573007670
  0.1549998082518190  0.8398971014512702  0.4073871527109353
  0.7892379135641772  0.5022120661270306  0.9298200373966121
  0.5662061409992367  0.5731605112511513  0.9931028211659512
  0.7159017774424572  0.4292311439083248  0.5731211403420010
  0.8538715011049424  0.5646331992871062  0.5696732446220802
  0.2015126641330464  0.7865698333141589  0.9112925032685690
  0.5759135180563686  0.5801058709311612  0.4323024216606237
  0.7879387525194101  0.2193996737222193  0.5026576370494774
  0.9230840812837602  0.6266841616860348  0.4935910266767749
  0.0684161666915034  0.6316348017752728  0.2122389663493407
  0.2050410502763744  0.7935773328879506  0.2258969340055295
  0.9279330573619550  0.2163213067772726  0.3581888367188050
  0.5006438942875010  0.4951802957320319  0.2109970581290473
  0.7154669685462964  0.4272940312211748  0.4282395273423106
  0.5762132123604233  0.4380557719945186  0.0104457946766198
  0.2603051848785811  0.8768052353787191  0.1136165185742864
  0.4117155866698280  0.6984076623288872  0.5732027291458147
  0.8559319459770354  0.1451068431478914  0.1428037275418644
  0.2391207027053508  0.9254787261577506  0.9187113197640810
  0.8526937520427762  0.4367939105231399  0.0101329323588225
  0.4715775358859989  0.8098475746831647  0.1321311441682516
  0.2170088011751274  0.4955164066166608  0.9326759581752803
  0.4266638184784787  0.9994492580104981  0.8555768753799315
  0.0653880585101784  0.0822376555773854  0.2101181172596604
  0.6758496271962403  0.7588502976707027  0.3558608597655811
  0.2874631010602397  0.1545788031140153  0.8580156134105904
  0.0709681802724303  0.4963008149895983  0.6431908204761513
  0.5790533634046890  0.1477671256076750  0.9946376440294438
  0.9252876833222273  0.4948495803817337  0.3527440718184304
  0.5096646520516945  0.2162268992379145  0.3583236229839687
  0.5758606672462085  0.2867688383080095  0.4308838141167488
  0.2122985838928360  0.2186532428928350  0.7887146706187637
  0.7875164887041898  0.6386488450853335  0.0692253782358029
  0.9300077626382103  0.4986247536687026  0.7880946224013854
  0.1841520387019941  0.9361181062358103  0.6628318058934277
  0.0007577015405084  0.5634015753584669  0.5735421539645343
  0.3388060628355822  0.0763398279177753  0.1902620387224527
  0.8611795076913229  0.0008467028777033  0.8593874543999832
  0.0694901866917257  0.9502679265769228  0.3533795922238224
  0.0742879454260462  0.6366581050989403  0.0719774708107320
  0.6571035073315015  0.0777739802925669  0.5050360165411141
  0.2855443416957282  0.2820121109875495  0.0040452677788206
  0.4322062782952016  0.5553826748420393  0.2846648283785063
  0.2176823642816001  0.4953409397000885  0.3520212904475616
  0.9248459003294057  0.6303684890908999  0.3499745232673483
  0.6405323525081993  0.6399192539404350  0.3501034600384979
  0.0693162241361304  0.3567114319600602  0.4998432592940851
  0.1430254976794631  0.5643011561760329  0.1420936540231413
  0.0642244897483502  0.2243727727219580  0.6483617312319313
  0.7874885452890426  0.2174110601781342  0.9314561232053706
  0.5038368779756774  0.0737820524331830  0.9247666865108940
  0.1447223430243001  0.5666815797795556  0.0023195885513529
  0.2888401055877794  0.5602334869016399  0.8599629456213477
  0.2174776227135795  0.3490162129911537  0.0729224668812396
  0.7874857399982493  0.6417625775355157  0.7841873486778704
  0.9281404939432968  0.2191593586344543  0.7910738386777444
  0.2856316428192432  0.4229736579960188  0.5714029395483796
  0.9949178606563410  0.5619040391340938  0.4230389780067639
  0.9986391974254312  0.7059452763196070  0.1425682577398952
  0.2131583069247613  0.2212120896634875  0.6430695265304189
  0.8127321631059996  0.9260750369427279  0.5100216416897833
  0.5922443604643812  0.1409251754709147  0.3013792418624361
  0.2187353684448375  0.6333140074615928  0.4889159666879945
  0.8583597368612004  0.1486848526049783  0.8619064108784077
  0.9922474073369771  0.7024953751130874  0.4229808137845885
  0.1331840019054551  0.7053629758824621  0.4262240253626343
  0.4569658420542096  0.0175217406341971  0.2180102892496915
  0.9966199127788298  0.1488456347151852  0.4299542459733183
  0.4344611659554846  0.1480896245742869  0.8602617363457473
  0.9299560657326078  0.7802909348698459  0.0748361632507261
  0.9964641623504037  0.2914679732131027  0.7189238940471311
  0.3578847872960992  0.2006868180956783  0.2167163013987158
  0.4431898545019119  0.8499802844890513  0.8484576224163168
  0.1296373719566608  0.8617337046492999  0.2872547506932441
  0.9568225302203103  0.8920126369771246  0.6749678796682971
  0.0004903012420265  0.4239521404761457  0.1427198601094258
  0.9275493178499549  0.3593310191901843  0.6460138931984268
  0.0706840738561395  0.3569989861887873  0.0721651427470905
  0.2118762575866155  0.0834381752294945  0.5195551249261918
  0.0418239917045750  0.8762775954945202  0.7627474113717462
  0.1394877587211922  0.2859101254163237  0.4310966690778336
  0.6448343579129832  0.2141906731432741  0.0713982562878526
  0.3697722057971860  0.6549406550198448  0.0479126210257961
  0.9278396338787294  0.3587157901407026  0.0725507056288937
  0.9999377731373585  0.4264798419015153  0.0035900532319970
  0.8590308426029495  0.0086191914721031  0.2823033456858672
  0.7766702776691364  0.6440048799611032  0.3630616320642355
  0.9220413082090633  0.6292845582564267  0.2056550954492703
  0.9726253781553997  0.7931743887006204  0.5107032813572979
  0.5285342110657341  0.8916062785272075  0.3210502446603605
  0.5778820693454465  0.1435345937355512  0.1383955048834943
  0.5012571608711756  0.3589201168336428  0.7903911135500903
  0.0561552894445011  0.7539265361500129  0.6116374723769369
  0.0778042126844837  0.7878027220650233  0.9359088250257417
  0.8574372536146866  0.1517675828042049  0.7228752934790447
  0.9986920557704593  0.1505636439778530  0.7212304002168611
  0.9961140628032260  0.5630085015647298  0.2810644918041937
  0.1378015069791859  0.1583429873954323  0.9992242685792236
  0.2639763691214165  0.0094234673464229  0.2624406888152692
  0.5765499191270304  0.7027885490198676  0.8593169634236937
  0.9364435556202630  0.4961642964734007  0.0712186512434327
  0.7598660100131525  0.7445528830437382  0.4554700628824741
  0.1985564530493875  0.9282815457769475  0.2090655039218708
  0.2475771965120021  0.9506111890474649  0.5491832450002774
  0.3956753978334136  0.8114859662685655  0.6281726633066368
  0.9999066193972709  0.1478624191960149  0.8606027949961069
  0.4385626029863754  0.0173760030273443  0.1061238808878047
  0.7191013861313276  0.8595953110184693  0.1424225143433119
  0.6484714963203352  0.2203139206426706  0.6475496863571915
  0.3935942425658358  0.7531961199355955  0.9574647272980057
  0.3324110837158857  0.9449627605509739  0.0372260107313719
  0.4339542163970310  0.0022931693918466  0.9887912109499148
  0.2085225112457600  0.6235780564200716  0.6410523890365623
  0.2469024952176157  0.0019675230697105  0.1136288887123649
  0.6458033703697885  0.3613658073477268  0.7905386078849593
  0.7414587995780947  0.8623508369638964  0.4252081715024127
  0.3899157797890818  0.7772702521199838  0.2193168222236939
  0.3591121649811925  0.0850146341174436  0.9281074212152096
  0.2734395368779046  0.6843856428826600  0.7195220699159659
  0.1357785714636342  0.1454954899413987  0.2840812727568527
  0.6005095183591974  0.7525969294348842  0.6221693623527362
  0.5279128681732642  0.9359443157191030  0.6600847916244448
  0.4662016903171123  0.7976602380257390  0.3977239092021679
  0.5278074748001282  0.8629733756507229  0.4688461033615012
  0.6580188738960709  0.9363333856618908  0.3546377717573813
  0.3322253526475077  0.9759321652303357  0.7313557047764744
  0.8562251837956762  0.4252442222774180  0.2849917171875104
  0.5913066490199267  0.8404374615129502  0.7102772256041201
  0.7918137542514347  0.7837595797530963  0.9292843129050468
  0.4923375190466234  0.6474794862153226  0.7732828598499790
  0.1422012626448735  0.4247598213797513  0.7160462510009227
  0.7893539820757530  0.9291975462863090  0.0720367265082855
  0.0594580142664521  0.0825217168146734  0.6484634093857167
  0.5089663410930374  0.7631582912474835  0.5438681774019931
  0.5142036512078263  0.6396705312975520  0.6308873373470965
  0.8530853513556330  0.5639671371002434  0.4239963568338962
  0.7917355872396850  0.0784739215856479  0.7928002533115852
  0.4517991612311040  0.0055247561568473  0.5848160901185587
  0.5005989217516663  0.4979680801785307  0.9314855303616125
  0.3635102796592483  0.7923671062575098  0.0648045636347778
  0.1481957703183265  0.9990730790404978  0.0078637016094557
  0.8517954593697195  0.5547236552883406  0.1293883560638876
  0.7873339890480366  0.0747199424164370  0.2129702250529787
  0.2832241604365464  0.0273026515702526  0.8557817947192548
  0.2787093932945839  0.7919083232371192  0.6825984057869147
  0.2928568270298395  0.1469474900394074  0.5751706863566443
  0.7123003375738242  0.7183233041063887  0.7089132986334928
  0.5154980599539458  0.6176590624051345  0.1965680685068696
  0.2137066604152705  0.3573587349346738  0.7881307191926514
  0.3053199619526204  0.6745290367891098  0.3996344349340014
  0.2849861855839646  0.2782363119255357  0.1424582281981623
  0.3872706879797503  0.8651262651590944  0.3271927384220882
  0.6500999308290345  0.9277019837924991  0.7847785015770344
  0.7231596203031232  0.0021764842937844  0.9980301733483302
  0.7179933487460829  0.5694936185961500  0.7162504629594353
  0.7202693119045674  0.1498530952658308  0.8610546589145598
  0.5026545754609996  0.6526273647212176  0.3437759929152090
  0.6561405409040252  0.6185675792159758  0.1915553308935703
  0.3553345331235238  0.4916068153418820  0.6420766999073290
  0.9607920602328811  0.8383747895541526  0.3992195456185806
  0.8619306092955109  0.8587667148044154  0.2939015316826828
  0.5332381029722660  0.0616948722953936  0.4935700846169248
  0.7968279559925314  0.7770837714575258  0.6471129744310343
  0.4314577899820901  0.4198055817493562  0.2854085073815124
  0.4313221439498010  0.4261202784504930  0.8600916223842300
  0.3586280284642248  0.3541219202337263  0.9314299452488848
  0.8552948089129147  0.7156779777835286  0.5547745515863423
  0.3703778329331451  0.0795662470978395  0.3019720056282584
  0.7927591477001734  0.9207464815817155  0.6358570932544307
  0.6558572145653750  0.7856588117957303  0.2135266635430504
  0.2822093603601761  0.1571191184356863  0.0020854807687701
  0.7159895861593433  0.4444469922207530  0.0150231403403115
  0.6473854473995867  0.7914922424374683  0.5012839132066358
  0.5687903675378065  0.7223028754616708  0.1375549077571539
  0.3570897168101575  0.4901089527846625  0.0714324642074193
  0.9988970583490089  0.0032978222762632  0.0033589312306723
  0.3599650511760933  0.3504552263085896  0.3582975919968309
  0.6450262950745542  0.2115962076998269  0.2169877511052387
  0.7850452951158892  0.3654404483109628  0.9373613319772567
  0.2805102810770834  0.7181276682033735  0.9822031194649878
  0.7932387066071077  0.9269429356298383  0.7901551692122394
  0.8521354509223706  0.5666140687015668  0.2834110178488825
  0.4306714601204976  0.4230358036115818  0.4294255624731594
  0.5847918499341905  0.0058102488246001  0.9863719077125708
  0.5028576813663740  0.3571977874934243  0.6435677503966107
  0.7858497141359028  0.4948057513933086  0.4989758139709855
  0.6297678641771620  0.9545446111808159  0.4800482760916646
  0.2886052229361880  0.5642188242522901  0.0011831319534102
  0.7858852530844571  0.3575363454324257  0.3571736697892943
  0.0711627609196969  0.3550300570036118  0.2139597794002141
  0.6453775455782441  0.4919789603159626  0.4993215990533610
  0.0006494274080543  0.8539419874085254  0.0052213462025906
  0.9930386491710032  0.6975150693503550  0.2762349898904820
  0.0030376263466592  0.7111561049673092  0.0020215472518941
  0.8572697718594393  0.5683988907802483  0.7175670882697704
  0.9857030375357410  0.6858837342365230  0.5636452874681145
  0.8572539853740249  0.2861518890349330  0.1440522416809582
  0.0739973567743784  0.4949842241544782  0.0718282902683547
  0.0671830279928529  0.6324970304034500  0.3521571970931571
  0.2769493062159522  0.1393709805480818  0.4309944129864541
  0.1118205784739989  0.8067578930027154  0.5205622797171825
  0.8479172866265746  0.6946969299511286  0.2715573083257084
  0.9294896577404346  0.6386643358011775  0.0723524963013000
  0.3663362036303391  0.0512933694469070  0.4155324599722210
  0.9989388047809686  0.2856488626400652  0.2869137066541120
  0.9305485354767821  0.4978479567359206  0.9315482691676484
  0.5058449752058869  0.2196533807373140  0.7903596874075595
  0.0011966036408143  0.5670204005957463  0.8599159456520081
  0.9271552041131222  0.4977822628887769  0.6433480317277637
  0.9910016724192667  0.6951877441111100  0.7087309744420153
  0.3476231977006699  0.6255778599010591  0.5069135818468199
  0.8652037163702444  0.7146267570521216  0.8556118985489400
  0.9996217063278239  0.4278398453669483  0.8609378782008283
  0.1328969119812456  0.0115022155931081  0.2721474480553271
  0.0650883546808692  0.0767720054055313  0.3601530495504331
  0.9973940073084666  0.1473329788507561  0.2866490273304418
  0.1417188951530162  0.5621218052976177  0.4245251634747959
  0.9291971890486713  0.3545380782084099  0.2164961145824895
  0.7161195409643678  0.0070699122569798  0.2812948030352603
  0.1394196596456156  0.4241221351320180  0.5713245564065464
  0.9964691778467812  0.2913466571354333  0.8611177874905166
  0.5727507354477854  0.4284860395562854  0.7181086863062291
  0.6472523237602883  0.6346199259151910  0.6442273014263630
  0.4309009108285037  0.4254558379640503  0.5726699665151495
  0.2187513003230624  0.4924831623835321  0.2158746888948987
  0.2102642506873867  0.2151776374230492  0.2175513460699038
  0.7153060829848009  0.4297782730851080  0.7189615649054981
  0.6434053611046863  0.3561339338936838  0.3583332445946038
  0.4899476887696988  0.4968334073885695  0.0766982561556304
  0.4275733624040571  0.4205805555596354  0.1465469404187483
  0.3447588944603632  0.0770129941181290  0.0671904555529998
  0.3601347323526423  0.4936450057502547  0.7877432043506180
  0.4317092039473466  0.2844247080268986  0.0019620749371153
  0.3455115395687700  0.9649368405672425  0.1604462997663265
  0.2482597335491918  0.8614569200545578  0.3265274853825865
  0.1296988948274036  0.0126233033969140  0.1424031743154669
  0.2782915889988233  0.8395420442904298  0.9919810458328704
  0.5143738010746288  0.7770276529448323  0.9220755491137704
  0.1704221364430987  0.7383766980310956  0.6628636512689523
  0.1371118384979497  0.1579477161861645  0.7138843144828109
  0.1493947252691539  0.6950627924502790  0.5549329048905607
  0.0670351495524906  0.2231547741990060  0.7888798187674910
  0.0707842949048691  0.4931732710610773  0.2117216892383891
  0.7146554914812629  0.4158170880827931  0.1507020178805268
  0.0716867394436323  0.4948552814339467  0.9339149479921828
  0.0710518088707308  0.3567563054823384  0.9324316828509089
  0.9995154219241006  0.5664021110669129  0.7126748067709289
  0.1513208487273715  0.8609947145610776  0.0080748632909911
  0.9956244897808194  0.2902159290567551  0.0022096466363310
  0.9292528842481053  0.9256415974291267  0.7933716391938550
  0.6505325330690224  0.7805786902954591  0.7931332723560509
  0.2991234043077529  0.8184135034121981  0.5458475162651120
  0.4202826949866347  0.6985499736320383  0.4391768084584268
  0.2746797786542171  0.8877239320270914  0.4405464174750273
  0.4031571726565428  0.6525539077537038  0.2469840257961202
  0.5894631671135977  0.8591163395184214  0.9924836242074035
  0.4379146026954194  0.6956120733049469  0.1404417785635134
  0.5872095686301478  0.5446786314851676  0.1204349954826109
  0.5818023928773316  0.7084614085021006  0.0006058046391753
  0.2772600611430287  0.5566872167443645  0.5679559856038605
  0.6744710198662685  0.6772049879539803  0.4499757159163813
  0.3373788053145356  0.9225801993576290  0.8430246166856332
  0.7142370650444737  0.5670605182374108  0.2866918708075265
  0.2044719856038771  0.0844138301846413  0.2002348048247091
  0.0688183683034298  0.4938376335476553  0.3546159834873253
  0.0692800457877884  0.9332413060146434  0.9433909042214222
  0.3375256207457448  0.0393036704625000  0.5347247309269042
  0.3628568337239394  0.0856343724646732  0.7853207063332541
  0.9969659061710184  0.1491430731394488  0.1408739746892081
  0.1412385833062170  0.2894279784624926  0.8590273884032059
  0.9280587165699737  0.3605166101190637  0.7903696195873293
  0.2155246459463448  0.9632768425999801  0.7874895617311903
  0.1385751193488204  0.2881670990988482  0.5733006298422783
  0.9789186094743290  0.0113673307892715  0.5749907826227094
  0.1916899385058972  0.9533489742097996  0.3579987658069145
  0.5665169748553132  0.5741526654261160  0.8576382311983201
  0.4262160655784097  0.5624842329128433  0.0022695556267988
  0.2873583321037413  0.5530973770351404  0.1336154434115983
  0.1298963442127311  0.1573665026027515  0.5773435814645873
  0.8571534062361860  0.2846203201367796  0.2874370896114740
  0.1625811289693193  0.0431217685236555  0.7031886514758812
  0.1874215620717437  0.0748892573782710  0.3601862123440595
  0.7877919430318764  0.6416932298512439  0.6423016197061778
  0.9981616343040356  0.8520755015779969  0.1449561515390744
  0.1332387146035539  0.8493439754561182  0.1458654797365351
  0.0662064884366658  0.9292144634882543  0.0763947353106213
  0.3327107409221323  0.8056126472477261  0.8779840623171261
  0.0844655539271390  0.7516403264770845  0.7439730557405078
  0.0680247512521734  0.4940410871562895  0.4974066604765257
  0.0646553013628662  0.2206103526845526  0.5010875516428158
  0.0012417635465895  0.5653873060335570  0.1411643877727153
  0.8565446239969475  0.1516459480560770  0.5760570505615673
  0.9267714845481916  0.2158077059121339  0.2147637349594246
  0.0678901873686588  0.2183242861412560  0.2144019073133907
  0.0702097773319379  0.3551359382648370  0.3571513497094970
  0.1442729355877164  0.0074822300098746  0.8741725430633729
  0.0697588480108219  0.0759749008955458  0.9346383729830530
  0.1326619449506977  0.9173642159667553  0.5516198380641644
  0.8582808548408921  0.4292342608600936  0.7185555266172601
  0.1016360560349737  0.9678420793062692  0.7674104483464997
  0.3927166634050725  0.7453303895720981  0.7520029615071930
  0.0603335925148685  0.0855606315531834  0.5122422297522057
  0.9987168824207564  0.0097841940739282  0.2794742120271473
  0.0638770290613849  0.9305521230692435  0.2126972269570790
  0.9968346101465889  0.0047805587257756  0.1426726467792557
  0.9980055987043692  0.0089974669764037  0.4401995368342858
  0.8572670900596273  0.1453338727025531  0.0007453970240234
  0.0717151278675976  0.6370720314288594  0.9319979624264414
  0.5009074291600573  0.3533944776443770  0.0738893480032557
  0.2446531398044810  0.8506582712807992  0.8210182631793620
  0.7187102758208412  0.5634469193305160  0.5761125980608712
  0.1444622877869500  0.4227682098683103  0.0018946788038118
  0.4322740285648482  0.2879799676423907  0.8597048962087289
  0.0707142616280471  0.3592229542016362  0.7890850170993616
  0.3615815036031276  0.2177562589540945  0.9301501311642399
  0.3604426019188873  0.2145823928467049  0.6473378395812164
  0.2875833832974478  0.4223630887054682  0.0020375905331315
  0.1430219304810398  0.4237509753530628  0.2844514308624932
  0.4321590887925896  0.5683731169429782  0.8586541284592466
  0.3701761886620411  0.0801893620801409  0.6551898734918482
  0.4224126142832043  0.5699776829890530  0.4221326193692847
  0.3543298953968892  0.2068302484291739  0.3617650170997695
  0.4307742504310867  0.5624769512233656  0.7092855748167936
  0.3553702632893362  0.4859835489944983  0.2186830248433438
  0.5480569683326512  0.8327489155898607  0.2233660046374283
  0.1988892415389780  0.7490889596908394  0.7829839382607622
  0.4676028516897934  0.8464141013332191  0.7255715948240510
  0.2866133877853231  0.4173225274438144  0.2874370049400180
  0.4327839266818330  0.2878662623379190  0.7165277035119799
  0.2875026167938684  0.4237404169980082  0.8600987642081793
  0.5107250271433621  0.0787839608896061  0.7926368797966538
  0.4318611455548687  0.2769705360286509  0.1474177241376890
  0.2746739928949510  0.7056737028151506  0.5848921349250742
  0.3581527383897204  0.3551436926730903  0.6446429530435309
  0.5000556810109144  0.4985333389002606  0.4966442556144962
  0.2850109680463134  0.2829445455853214  0.4291242293586669
  0.2833365991476178  0.5550664879519277  0.4289759101324677
  0.2885186704326453  0.6973028490050999  0.8545766666070806
  0.9309166706705240  0.0721685405785484  0.9286594830237281
  0.3593397235958345  0.2210182609341763  0.5005810354046352
  0.4348013170052025  0.1399860119370912  0.5692129084473143
  0.1424897178400542  0.5595371751607959  0.7174982432621512
  0.1466587033222360  0.0300381525934248  0.5846838806645175
  0.2278155768731257  0.7578919361854772  0.4761973607113463
  0.2973349368814100  0.7807476250170017  0.1682874460456843
  0.3194186080824044  0.9605307864040230  0.3510055573222126
  0.5704291626248552  0.0072662953966913  0.1516847723977438
  0.8793589248568463  0.8420880446737754  0.5753949769870081
  0.1317898812176073  0.1578829848189344  0.8644527964235849
  0.3502420615088820  0.8547426252358510  0.7496235383045337
  0.6533116489275147  0.9383148411049373  0.0646475819054204
  0.5079340072167566  0.2165244221342908  0.5041513180611237
  0.3592904050502885  0.3542684227835265  0.5005452353505399
  0.4394428818739488  0.1500964332087496  0.7190992928119394
  0.0682329977081270  0.0788375612701223  0.0686500441274908
  0.4412221287059362  0.1330114968660334  0.1318329670097775
  0.6534591713621083  0.0768549094922865  0.9266974774809233
  0.2699873837348002  0.0238454544920818  0.9883403685338900
  0.4482647094144371  0.0140139360523907  0.7230441569667729
  0.5140922354571167  0.0808932070110841  0.6493594878083737
  0.5758217867745924  0.2883919924705486  0.5748655192990439
  0.5034969351828816  0.1997691616785965  0.2223064222831985
  0.4716070577841081  0.7299682178599304  0.0363347972047190
  0.2150899489174004  0.6333906608042135  0.9299253305680218
  0.4291664843760289  0.2810635228579594  0.2892815924622584
  0.2021817547864469  0.0939234737612859  0.0641829455677043
  0.2138804309324755  0.3560321351072007  0.6443431459228994
  0.3440755158327329  0.6191858339975287  0.6405727599117965
  0.6420812256519174  0.4968334331380739  0.3575803388647227
  0.2209855692492934  0.6394895840230487  0.0734621437919211
  0.0709495312724936  0.6312762916672238  0.7855963891875434
  0.8625618045548166  0.4217231133653426  0.1461546799388866
  0.7168966425970476  0.2913906662687045  0.7195937658113478
  0.6453271946812676  0.3602717522191204  0.6458716675587804
  0.4321923792569610  0.2852968475006989  0.5734544606006465
  0.5854364891685836  0.1526641682672919  0.4347915255695598
  0.7861718415591774  0.2135605863718405  0.2154576255017294
  0.7144021519606391  0.2833780857609654  0.1452320377191960
  0.5712448180735393  0.2798000176262301  0.1472399588681475
  0.5893282930525333  0.8733169775361872  0.5766987687488884
  0.4295954860440794  0.4235863121282302  0.0018107929221473
  0.5094807811830477  0.9291626865854075  0.9227771112584351
  0.6554632704568025  0.0797265220650575  0.6521509786414365
  0.7179907548545228  0.2897778059662593  0.5754784926675246
  0.6457786496689054  0.3575366884183007  0.5016422940387563
  0.7157030420831544  0.2849725103536299  0.2864450011324762
  0.5024141291023475  0.3540511472626252  0.3585320032296627
  0.4078039954649023  0.8031018826464680  0.5037226058170882
  0.5266305496873396  0.9442369400148022  0.0520464604878762
  0.7170104822629736  0.2935644222172004  0.8641406680383911
  0.3582014482643837  0.2164053421710253  0.7851677304544151
  0.5720420937298849  0.5703790916752335  0.7161405970077833
  0.4291957591560245  0.5629780110391848  0.5730782374276099
  0.6539037656367529  0.0789823390813707  0.7919621255174171
  0.7245754482442991  0.8556365340923017  0.7247844854928855
  0.6146445122864888  0.8457665935858210  0.4037665423241347
  0.5206504409360893  0.0741631724828951  0.0565509745337299
  0.6480131229842855  0.0711989456784832  0.0698825332748967
  0.3126832870617683  0.5829586840209119  0.3150090748662154
  0.7243739278077505  0.0110005018379259  0.5786807877434451
  0.3586066760805636  0.3498171035575633  0.0741516487434382
  0.3590662624210050  0.4939195735566855  0.9300917368870125
  0.2615529081171151  0.0351526968531419  0.6360819498579745
  0.2969549357323084  0.8985550290670203  0.6405977725173700
  0.5056777389055233  0.2162283344351540  0.6444121829723211
  0.2515862938779516  0.0117698346017700  0.4424990253868246
  0.4211384018010111  0.9047798570887451  0.0866866504678949
  0.3096334515044007  0.8837797056216471  0.2353839084053145
  0.4288924291881123  0.7088196944181112  0.8569692408606359
  0.2819979428370585  0.5554303396271606  0.7179955913716833
  0.5040622725712521  0.3596276321190933  0.9329891144669873
  0.2103214839644155  0.4899088372901650  0.4981866666500453
  0.5028884149534467  0.3557976571175121  0.5006353714501454
  0.2849295715718161  0.4215736569148967  0.4281877856034341
  0.2075940018636416  0.6294315559939134  0.3535761630562107
  0.4331861973828565  0.2826407130770228  0.4286267525800793
  0.2888481438719466  0.2880287109658660  0.8576571589282518