 B Cr Fe 
 1.0000000000000000
    20.0899999999999999    0.0000000000000000    0.0000000000000000
     0.0000000000000000   20.0899999999999999    0.0000000000000000
     0.0000000000000000    0.0000000000000000   20.0899999999999999
 B   Cr  Fe 
  55 206 480
Direct
  0.2756294157238066  0.6689577047025552  0.1244105385036472
  0.0887089602601149  0.7757350865840363  0.5752902003712893
  0.3464683589540113  0.7227179387925493  0.6563953260659823
  0.4099571256940976  0.9286130543159531  0.7855204458178832
  0.5306724100152803  0.1039346209039737  0.2103422331259855
  0.4106794130048010  0.0587810978958137  0.0060675120785250
  0.6539398008250117  0.4583439227542742  0.0910991170022453
  0.3531642757936631  0.9430359967507849  0.2652683365879143
  0.0817292310005859  0.9223094581572600  0.8454184287022696
  0.3891126847972701  0.6535231705743210  0.2900862260257184
  0.7995194366828168  0.4581042800416712  0.0889233051285702
  0.7914261845492770  0.5241833966089611  0.0335213364623744
  0.5322179727967015  0.9445769900868031  0.1946526129533145
  0.2467783128940987  0.0110531045610024  0.6982174346752658
  0.2189087419994210  0.8572244270402338  0.6026861211126210
  0.4699246851805666  0.9921511919868742  0.0142429599260242
  0.0039800060793321  0.0740745110038497  0.6412201563453455
  0.2808445818738205  0.0576937997312837  0.5271158407362335
  0.1710897433033804  0.9363514906263034  0.4740965853012769
  0.4939249074640268  0.7610481997882587  0.6685850144107144
  0.5202115647785597  0.9644681060147658  0.5391768849592327
  0.4511637567292123  0.8218570699240154  0.2498258668775186
  0.4927075585472185  0.8064143714825659  0.4429552759082204
  0.0937045719678602  0.1139159924920945  0.9189075008734042
  0.1652313099801601  0.8683573955348751  0.9383756944286460
  0.6245892409762696  0.6395629982541479  0.1505920100240178
  0.1738150101731290  0.7903631793102256  0.1489369184479990
  0.3133966002116292  0.7954231905873623  0.9177143295778643
  0.3957319196286753  0.7962751479614922  0.5300662586295644
  0.2803788917155658  0.9932053002929678  0.9238634776126745
  0.6562648028873986  0.6131313443203731  0.5152734191009417
  0.4288666388995520  0.9151492600808507  0.8693871117656312
  0.0686095410806527  0.8543612168685051  0.3919956679447587
  0.3262230125599393  0.7992845650655688  0.4619543642344874
  0.3292535246811019  0.7387078897231999  0.5202112670213382
  0.7172504093718527  0.6847525355721987  0.7758026012740000
  0.6251332177412028  0.8489100014716832  0.2870175537071014
  0.3503898035042879  0.0482660657824055  0.4470837468681075
  0.3772735320903935  0.7115473771920953  0.3505289013407120
  0.8839913213042776  0.9240880169925491  0.6666167544059436
  0.1598185209538289  0.1745588663487341  0.5845141110160432
  0.2936422826678192  0.0423479053609395  0.1214504495278305
  0.0056264685285269  0.4150983145069796  0.1515922912545443
  0.5708010708527150  0.0145619620741794  0.3665435651026820
  0.7298293636643403  0.6608423969653775  0.6411380901510256
  0.9487393553772224  0.9265121121213520  0.6056328744018370
  0.7759294694891502  0.6835341084324631  0.7097459259577609
  0.6042285163271820  0.5700059457681219  0.2218804821126071
  0.4253547674368685  0.9140847675502067  0.0251511219363670
  0.5053653140379358  0.8369483688602359  0.6314666489185723
  0.2157232308507808  0.8716076147754055  0.5144089911209987
  0.5863291319735345  0.5085550210288250  0.2830971869330570
  0.4921412808190824  0.8644757638492861  0.3814935779992674
  0.5382579034141710  0.8124213448334157  0.0819917724007163
  0.6958366927044675  0.6150418174643417  0.1037054083147928
  0.2916045686780473  0.6980192850506273  0.9941915413726042
  0.4305617308593892  0.4262975659091013  0.0025038887825640
  0.1769737608908349  0.7573752910846709  0.6344827514725682
  0.9196976036468437  0.0725516480374295  0.9313790325198003
  0.4983151275879539  0.7724275468396016  0.5451381129343965
  0.6621431941645854  0.9256559785032831  0.5158365476296141
  0.5853142897142641  0.8159988850982157  0.3817025169937447
  0.6338981616574744  0.9337450157717996  0.3565135998795314
  0.6727291057519114  0.7596110738277666  0.3358152366819651
  0.2853677568952183  0.1368169210262756  0.4445551145749770
  0.3474663419016364  0.9655248739182779  0.5193299377109001
  0.4530127820708327  0.8541104945647958  0.7225635434512442
  0.8617066644338122  0.8565870027569473  0.0048899461092898
  0.3495625752772762  0.6274943056476281  0.5028137817331835
  0.2132530497384269  0.3566930426622396  0.6458555921125753
  0.6279453302090021  0.7959775772609874  0.4965387849776558
  0.5048311022022384  0.7787524879467345  0.7882145179215806
  0.5608999722810610  0.7262990729565457  0.1420615755269178
  0.3598653872765020  0.2188872299176643  0.7857997833356564
  0.8261162004291550  0.6632212112612987  0.6116174799189927
  0.2656021822250327  0.6846606520717804  0.7108435786839804
  0.9295453328380704  0.0733401975215599  0.0750994043345967
  0.3861692642629100  0.9763340847396501  0.9507246770088893
  0.2624684195594820  0.0418702728690499  0.8239103239996095
  0.0035945964166976  0.5660982687049194  0.1437873722961795
  0.5051934531333883  0.9291775483845806  0.9366581286447830
  0.3391793285605934  0.9946806594445776  0.7398418497096851
  0.7175865476942236  0.8606016192956755  0.1452041540300249
  0.7193215245954837  0.1465192238854837  0.8627071702261481
  0.2256661296208221  0.7704941643541541  0.5069667832371656
  0.0739335212001323  0.6378225736618571  0.9335991059479085
  0.7886213237425266  0.2220899589343202  0.6485134355622283
  0.0879234830481439  0.0323811514043981  0.6742845019895954
  0.0061403871483790  0.8580462815791030  0.1492046317939646
  0.8630796279254302  0.2874552957901099  0.0011893175365257
  0.4062090661206942  0.8685511438556336  0.4441649335302532
  0.4271226076985575  0.7037819126446513  0.8433377121505361
  0.3078216443039513  0.9230600466156355  0.0397896651988765
  0.1906445389533412  0.9683096195572114  0.9886299531203508
  0.7867869138991962  0.0718054411141575  0.2157929796416641
  0.3951055015476994  0.9919294662712379  0.0935605396298207
  0.1989834930329998  0.0744312491323034  0.6266441484605052
  0.3444251144546285  0.7586050395589242  0.7583461821188209
  0.2316794622922070  0.9636179521388502  0.5541184572094924
  0.5281543840758526  0.8902761632906386  0.2831006731280655
  0.6414680355676287  0.9362567253966361  0.2204434550571583
  0.9970513403660172  0.1459779434049220  0.1455291303489972
  0.3563099074577811  0.4915807075239440  0.0708108738645351
  0.5474902602013759  0.7340189009593651  0.0035371961224010
  0.9935921064468490  0.1495682056758691  0.4298997010624143
  0.4297062491702913  0.5649147962014744  0.8587528485377145
  0.7012644248596044  0.7147422452395612  0.5574341090815493
  0.5577307624333988  0.0171322719183182  0.2689224411600245
  0.4661771280873592  0.7729176922101395  0.3449116628602124
  0.2126990379170747  0.2189887207389587  0.0719139973513380
  0.5708662194397891  0.4181418173633999  0.1432900211339310
  0.7076189965473726  0.8619237135576596  0.4212507261056051
  0.4928663374392854  0.6445302986876655  0.9332033548618600
  0.3619694348672772  0.3598686180384974  0.7866817621922356
  0.2159387416898238  0.9631386943424666  0.1034337473024663
  0.7176926100866081  0.2819223532734726  0.2879850195599593
  0.2864993614006020  0.4205186610490116  0.4309264113350710
  0.6536634395561257  0.0807452691313914  0.6553592138754056
  0.7950111181649350  0.3512151456304862  0.0718092857608800
  0.7190893370228668  0.5865393034995343  0.7152620253564035
  0.5027929350614734  0.3558631305229998  0.5046361940469311
  0.5809866696225419  0.0177311841122150  0.1397008969133356
  0.4274896019337271  0.5625495212925284  0.5749012479391306
  0.7170932547642757  0.4341700485354066  0.7185231319929973
  0.6486660579010675  0.2197031666990909  0.5050641706807608
  0.2895784952247987  0.7076336546025233  0.8576242703080060
  0.7866630038548698  0.2152969621196612  0.3597127058108325
  0.9382355070087625  0.4891640008813737  0.2100809997616084
  0.2125731388348362  0.7727399209259929  0.9381045294150074
  0.2755320367016402  0.1226002604621886  0.7162929222226496
  0.7176795012192104  0.4341318988955711  0.5718447630189138
  0.5664694340410982  0.7044769959989007  0.7229779438179712
  0.4460808321536509  0.1597247358325499  0.7253606072775123
  0.2788956555444213  0.5601800556349333  0.7152974864819560
  0.3458515478160725  0.6361915528488814  0.1982809567270920
  0.2880808361166008  0.5622897233375701  0.2836271522105632
  0.8093054189518057  0.6257200860525702  0.1903991120703795
  0.7852508165306467  0.9308790664217242  0.3604686181318066
  0.2821849952316048  0.5542721341959028  0.1434027370654935
  0.1817622051296479  0.0933856867081466  0.5112238431801366
  0.4319866379642889  0.2907984668344222  0.7193926769982438
  0.5810989931756833  0.8533811631122088  0.8619432347759958
  0.7135290842815060  0.5694193253472574  0.4275170439291443
  0.4233546224260549  0.5600425010434369  0.1421600324327382
  0.4327592670316074  0.4292904860000503  0.7165508387429550
  0.1990603110728585  0.0742708989719543  0.0696400239776435
  0.8600918611066574  0.8583791019427532  0.2865978521224812
  0.9975515988810718  0.7045121547283307  0.4240780627119163
  0.4479250206378624  0.8899860012403195  0.5537534187559111
  0.5037214876641468  0.3527114090965803  0.2167703283902360
  0.7758434607963021  0.9152792862861364  0.6384699944731446
  0.6486982835243043  0.5044816769426003  0.6441776651792864
  0.7177564774829012  0.9986623001002953  0.0029661383934011
  0.7851332703719710  0.9237339198036716  0.7912048862727147
  0.6052045639456497  0.5474325803249336  0.1082999820266788
  0.4113640477964333  0.7290778520116742  0.4496817057628045
  0.8655071168799360  0.8579331239432756  0.5790358949103765
  0.8617113656208256  0.4349578518290342  0.0069211559202108
  0.8554448603119353  0.7007733297117773  0.2831873988468074
  0.1398210405399294  0.4257243515926105  0.7142948110015078
  0.4968087985748584  0.4959012156303153  0.3563914913392863
  0.7267365363454146  0.4083066030070704  0.1489001079123873
  0.7233210577311006  0.4372582393894432  0.0127060935547531
  0.3376182370859021  0.8413055065831473  0.2213431959985704
  0.3167250921062635  0.8565689505201981  0.5552338292379978
  0.8629957199260810  0.2830170834816059  0.1429104570783780
  0.8599757666441583  0.5767400887920047  0.7132502641654805
  0.0030274656898612  0.4231734529341402  0.2877991237812753
  0.6448303041209986  0.7883652708455773  0.0756297970139162
  0.9328914294473150  0.6387371596461078  0.0771023604783290
  0.0814577492761605  0.7859102674268902  0.2161979906677714
  0.2130384153715732  0.4920101857634645  0.9296805695104740
  0.0031760089731620  0.7098247629000130  0.2808467396067819
  0.2154795388823662  0.2153728969771699  0.5020898835574396
  0.4260778061635670  0.1406146006344378  0.4410599603407490
  0.2858526791277806  0.2866959616190748  0.0001405016170914
  0.0777588038486207  0.2081630415527466  0.5079016810000174
  0.5036022707336105  0.2168434703919234  0.0698787217201837
  0.9268739172068616  0.4994356098755550  0.4965350048505077
  0.7889904596693750  0.3549743121452878  0.3585356714443948
  0.5825237096253876  0.2958888375485165  0.7207428315326446
  0.2138929935008045  0.0797832890529141  0.9318161505355357
  0.5734662080619777  0.0031434561481869  0.8655221927775072
  0.0046619050620574  0.5674974719087449  0.0036634661342340
  0.4645056187363110  0.6456242388216117  0.3731110183872373
  0.6494774940340243  0.3643921920659849  0.6462133942064855
  0.0707608955960339  0.6372057011768378  0.6411276453493843
  0.0095282494655574  0.7067841469257886  0.5667256625973423
  0.1980065829878562  0.9454683427674224  0.8690391988360593
  0.4449531449758909  0.1478961518577614  0.1486953265557008
  0.7154260422095777  0.5781971066406389  0.8591829078432343
  0.5026255026454668  0.4984392570063576  0.6439051739681060
  0.7817929211119554  0.7710062523626230  0.7867523043006173
  0.6498266213750085  0.3533814670927220  0.0751974577577219
  0.9242580490458571  0.7765331563636979  0.3507187252422231
  0.5717052461005273  0.4198712609626524  0.4322289027145387
  0.1445790189116561  0.7010215195523729  0.0044159381022971
  0.0596474392213265  0.9495362324719818  0.3574741911100656
  0.8604063645291427  0.9938744553789863  0.5852406635321773
  0.7909343752285953  0.7881126362605275  0.2139708830359455
  0.9752861026086550  0.9865397173774586  0.6979966269670752
  0.8531014113255175  0.5778497125000497  0.4148720691572352
  0.9360777371260524  0.6422784685006613  0.9339015156368358
  0.6460174498598875  0.5027710724618536  0.5037069466133207
  0.8563605729346746  0.8508197704041165  0.8582659988279969
  0.1547463248159252  0.8492161037071445  0.7048093324859432
  0.6926754177175500  0.5131673611542559  0.3086839214633866
  0.1990954397215763  0.9431901369778357  0.3625569846539400
  0.8563484869427777  0.2908280441366515  0.5753732588470675
  0.3569866551363142  0.4928012537122528  0.2143052255748381
  0.0663591253935642  0.6337197982840447  0.4905151903220916
  0.7139918934016471  0.0022496753931209  0.2871848841977946
  0.4267947213651362  0.6972958868292882  0.0298632218820441
  0.5060205768092579  0.9227362898133181  0.0916201633529176
  0.9292484439079111  0.2179368528988500  0.7866269078804358
  0.0722893008567903  0.3520845208750711  0.3604741316357033
  0.2156496870012650  0.6266073494010802  0.2128864106185985
  0.4454153657988159  0.9978060545011412  0.4683055677862941
  0.9272779123852686  0.3577916860627248  0.6447318439888043
  0.4961572039450201  0.0680771216925679  0.9350248590301363
  0.9904899520834777  0.0056526336396079  0.2883672235061349
  0.8574268098901368  0.2910133012036878  0.7185975405387725
  0.2219382225033139  0.0636228087957904  0.2053040302287798
  0.1427374866892806  0.1437720724786580  0.2849928949534553
  0.9978224080295072  0.7061461349634168  0.7138145334711993
  0.9343366095706220  0.4985937551457689  0.9314658957871615
  0.1407717380032311  0.2855608930750974  0.0028836284213942
  0.9486080391796090  0.4856055306058434  0.0776871442646446
  0.0683528118233342  0.7815601899003415  0.4766454034477416
  0.0026981319128442  0.2845289645163059  0.4336489725991049
  0.9218635802470651  0.9299483518201563  0.3585611327325047
  0.0014691478241918  0.8408197513263320  0.5618571762495127
  0.0705858389342977  0.3562540526135132  0.0734305925681013
  0.6450710651055940  0.0767021808695256  0.2156395678305245
  0.2865121036239309  0.7025979010761103  0.4269252463192899
  0.1404279050612394  0.5621328526193556  0.4268477015850103
  0.2143553436719759  0.4906510126279373  0.2161301771045141
  0.0736173784041984  0.6343545269085092  0.0747610099040362
  0.2134883996336714  0.3537955486448749  0.5003358124857822
  0.9841651046925072  0.1513337655553477  0.5707130230625388
  0.1442204276750056  0.2846270654277649  0.8533209004816732
  0.8550049154538077  0.0013311499471323  0.4296841085205626
  0.0700077275426830  0.2211808278313889  0.6409421669800814
  0.0710140673878008  0.3522843292191864  0.5014398722285152
  0.1424780324835727  0.2826338449316482  0.4322103940302763
  0.0715770344765933  0.4936027513039464  0.3578147567608784
  0.1432570724505234  0.5589219264470336  0.1440844242532217
  0.0009609691091053  0.1495532749809204  0.8572765624631316
  0.1450997244466028  0.2861359070385723  0.5735478512344265
  0.0059774343430068  0.7089311519267637  0.0070839915340697
  0.9984349620669903  0.2876751143380092  0.7146186938529510
  0.0019665491120577  0.5680204582486760  0.8634713669250456
  0.6491729635088096  0.3649437049351852  0.7907450503508937
  0.0728501974490429  0.4901341723009754  0.0764070255627487
  0.2842733620819709  0.5577545958710746  0.9976293043249690
  0.1412985122693836  0.4231256043961244  0.0014875832420976
  0.8650086427826952  0.5695248824226934  0.8662025467724274
  0.9296029631288398  0.3573245019790572  0.9321746109119705
  0.1408776832809033  0.4212881974510044  0.4293385719418311
  0.0691803670159800  0.4958781255735148  0.6430946617742931
  0.5727070475988665  0.5993431590596672  0.4379876377100341
  0.7875756265681673  0.4959102453341558  0.2177334211262484
  0.7866358356238952  0.0778296784997384  0.6492388672017942
  0.7183904243177448  0.1441443514062744  0.1431205260271722
  0.7873843596571365  0.0741828756745158  0.7929604631532532
  0.7877694214228600  0.0704228699190158  0.9310463246682282
  0.7909581318410409  0.2148972111109442  0.0717002495366902
  0.6493317574993527  0.2188172584877295  0.9319917163307466
  0.7166560813844728  0.1431341279655806  0.2878988756748108
  0.7867598437200752  0.2201696631490375  0.5022407868642929
  0.8597212025557424  0.1457342816837754  0.8593300800851885
  0.5746397094341893  0.2821264609995850  0.2904837401901492
  0.7889080431652957  0.2135765770633264  0.2158307973038386
  0.6446898454363807  0.7810048221412478  0.9371045716776645
  0.9279264669003183  0.3558579877329521  0.5015611741657332
  0.6482761267796647  0.3613281285778328  0.5019672667348427
  0.5673727582055744  0.5654434407536658  0.5670390555709823
  0.5711039592160602  0.5708137757981596  0.7126642627087655
  0.6448300811631474  0.9281296437469849  0.0771136965022919
  0.6307761499694492  0.6376757995822554  0.6341612059507499
  0.7182844990115137  0.7089311013912371  0.8732065433026323
  0.4318186583511214  0.4276301146068043  0.8580434880136454
  0.4955683949379146  0.8007533487510476  0.9153310042668664
  0.6815341676977862  0.7340937944260109  0.6941065140909500
  0.7151670229929167  0.7078062658896050  0.1411402197147181
  0.7844032163848383  0.7734482132436643  0.6441021144122742
  0.8590171146042164  0.4318424888487060  0.7176722895376849
  0.8602403331014412  0.2839673357702803  0.2893802086278910
  0.4116363446541968  0.8833717111997793  0.3191491678143541
  0.9287309811181426  0.3592460265464961  0.7874779678116575
  0.8603325474027586  0.2895061451341437  0.8610251597567690
  0.5522475804107755  0.7816407607893345  0.2558963360492398
  0.6634873437572395  0.7869325473721953  0.2127750313359568
  0.4849408899584262  0.6869169975101271  0.2553487735605928
  0.5767552606026886  0.8772855936418649  0.5760018632976103
  0.6531577483841116  0.0790781411354460  0.5095874869561487
  0.4268605761166424  0.0066399095824319  0.2892147799701246
  0.9258842494627306  0.0745839799689940  0.2157932410713769
  0.6470064032119317  0.0743208316451246  0.3620180542181418
  0.8599424158408281  0.9981353559757075  0.0029040656656497
  0.7180016401488438  0.9984851514091238  0.8616585149204665
  0.5843794053691813  0.6812583749461267  0.5365256776367306
  0.6117203321395110  0.5111200587817551  0.3818442479977607
  0.7883640752366083  0.0713726054434674  0.0722280444267806
  0.9328570057641492  0.2129754713393243  0.0696464008794630
  0.8596175899699537  0.1440094745504248  0.0019822815751682
  0.9290726710647961  0.4997709723676537  0.6441744380976907
  0.8598641360353945  0.4321247425322394  0.8618697852646053
  0.8588176140991033  0.5429366827959303  0.1249863885047637
  0.7877461351069212  0.5068184286654056  0.9303632371142558
  0.9354066519074373  0.9300072731349512  0.9289282078392552
  0.8606138967423966  0.4257577898188688  0.4302528354312641
  0.9305640214351681  0.3538135031502136  0.3601660170641636
  0.9315733754076670  0.4940001598143326  0.3572383967367797
  0.8751036107001705  0.5593293844316909  0.2778617390429345
  0.9356897450482065  0.3536684129993716  0.2158165511146873
  0.7205745818803686  0.2885732430969961  0.0014310455132221
  0.7203017958750163  0.1507857161183896  0.7228815802019859
  0.9358236338514064  0.3566532414103152  0.0740290266889669
  0.8591783595846259  0.5624689772647602  0.5680052137498410
  0.6485910753279230  0.5021883612626674  0.9282557702836324
  0.6452637929154853  0.9273682104912874  0.7919367039135173
  0.5720481300337489  0.5653613882477407  0.9946394785173518
  0.6248548192510274  0.6633639597482985  0.0528723402150136
  0.4982989928016354  0.4973065928528725  0.0756110067400758
  0.6142949159773685  0.6786406330037046  0.2387826867190062
  0.7909380232816685  0.9369947659011816  0.5029995795672649
  0.6592059559697153  0.6249007316001310  0.3336384656455902
  0.7196801252452375  0.1504310078832792  0.5781446749855158
  0.7896435840404522  0.9254878956468988  0.9315787481628783
  0.7533379903741017  0.8348615757250075  0.5367839958493084
  0.5354620789727443  0.7206720722799680  0.4436890494961179
  0.6777872891904564  0.8289858513660064  0.6152397087232061
  0.6474099012209421  0.5071933702059161  0.7866799199167941
  0.5645588571956449  0.7124911088603333  0.8664782417271637
  0.8579696104900882  0.4298595330406469  0.5717001736014848
  0.8556052396353828  0.2881981468114883  0.4296366689687107
  0.8554072263731676  0.1440904690182992  0.2875582858690097
  0.9313433537494014  0.2145890057691030  0.9304583643628598
  0.9241476042879441  0.2205406307158558  0.6472309825054677
  0.8555934838273163  0.1487767096165944  0.7221711432586789
  0.9985359657437409  0.0074508786318786  0.5672953329885179
  0.9230217590918959  0.2209039116019300  0.4995445034481227
  0.7178510203391532  0.1452485760728019  0.4332362960400924
  0.5796371697737490  0.2918915796872623  0.5749536727019735
  0.6462624507860436  0.9288489045009686  0.9318831590978449
  0.5769711008370433  0.4323198836995823  0.8603131165727740
  0.5782076812180662  0.1479692021382170  0.8657712813867406
  0.9999237963765218  0.9736511556142478  0.8231076778556110
  0.8634482811186789  0.7125318869409872  0.0066816938441854
  0.8652929535780700  0.7154597319747164  0.8648189991454310
  0.9263082652482260  0.9283554125068467  0.4999020004693972
  0.7911773945414380  0.7861525971115485  0.3441094383910043
  0.8468198449198749  0.8476182243106875  0.4361572344894492
  0.9306753027235676  0.9263446117584031  0.0772738228177721
  0.0057783652047817  0.8507010814303982  0.8680495049472337
  0.9546643138323642  0.8517037072020918  0.6761837922359774
  0.8288365159778931  0.7460035880037440  0.5329399697351090
  0.9324803621416370  0.7749401544905242  0.4957894018956256
  0.7888708519662758  0.9312712111302720  0.2137819972972829
  0.7849471920623675  0.6404107723836915  0.4931025766130861
  0.9294007098548163  0.9279570443931504  0.2180696713493230
  0.8609289706600406  0.8568071074194549  0.1455283726794180
  0.7180776711435448  0.8513018007667744  0.8619792898748385
  0.8443052515737191  0.8402452151478791  0.7166083049320886
  0.9290676465294917  0.5019309363565706  0.7883180983504616
  0.9333699337328984  0.6393829817718634  0.7938787293143106
  0.9364918039090843  0.6352915139117344  0.6404877475422679
  0.8607326199373806  0.7098131774047386  0.4204342508720245
  0.9348841953309859  0.6373517845761456  0.3491225613547537
  0.2602133481638611  0.7373865441990165  0.1928289671983893
  0.9338479367942819  0.6366337116834613  0.2098692582235793
  0.9353841675327732  0.7847883745909809  0.0769278711560124
  0.0754559237675696  0.7656961738894339  0.3506386237516345
  0.8594934884877763  0.9962348592221482  0.8570765974111135
  0.9292865990530349  0.0711977337923714  0.7874317200262904
  0.8485218029284797  0.0027645527994088  0.7187890006794512
  0.7609126442984026  0.6729150253735502  0.3769780947983397
  0.5760496552781879  0.4136468239907243  0.2901357503774406
  0.7851724928249196  0.0720957326247038  0.3600482827088556
  0.8745351788513877  0.5687606121231383  0.0009394974548584
  0.6563753065486123  0.6850946829855427  0.4392627075690576
  0.2098608468012704  0.7653566443890134  0.7707753616121416
  0.7907610906609949  0.3634215185860640  0.9343583867195755
  0.1761539299125967  0.0500576995051013  0.7548915917830583
  0.5798563385458568  0.2943218002227552  0.8631221100631428
  0.2312506536841809  0.9289887143650659  0.7635361724878899
  0.9261192957472605  0.2172314519539385  0.3608192390264873
  0.1442949969788175  0.8442254099053260  0.8401426556412186
  0.7856041058258098  0.3613720220779950  0.5000425049279156
  0.7231675349226334  0.8664967534156667  0.2864172574260733
  0.7195220786236846  0.4345447696772186  0.8607283631994721
  0.1451984931783784  0.6954729039157338  0.1456267270726588
  0.2107176230590385  0.6311707673746730  0.7952569189091470
  0.7907696522235728  0.2177081678876632  0.9314083167029958
  0.7296835342200920  0.5233466138569329  0.1137427986470761
  0.8592025108872650  0.0014713254011867  0.1444380813211467
  0.7274253357781332  0.5763973516401167  0.5775348310030912
  0.7887342034636040  0.9286313185000523  0.0741943926022369
  0.7889603786188595  0.0723994944737776  0.5057159928956787
  0.5742764804264479  0.1443862066315686  0.0005620832067273
  0.6358284215864232  0.6461226369423970  0.9329056279556983
  0.7905583400383268  0.7839945628244106  0.9355516246192321
  0.7875388835958611  0.3628794495105276  0.6462865808410068
  0.5040088912456498  0.6488263117150811  0.6300828919819982
  0.7967933651032481  0.4905727586142312  0.3572158370414439
  0.7196356907910106  0.0014489781474419  0.7220820305275437
  0.8549644401201655  0.0019764760427878  0.2872382356912833
  0.7228870862193976  0.4116167132528361  0.2826114328126293
  0.0741693059941705  0.6354683462476428  0.3535047786888746
  0.1694203215906631  0.9536582262142855  0.6557865030455444
  0.9952178430076553  0.0004937182308398  0.0117840238121449
  0.6503465992529512  0.3649424597956827  0.9360186824813942
  0.9231236320838691  0.0762657921263053  0.3597220335861294
  0.7143686911202549  0.0009342813789434  0.4331343715731082
  0.7895284015188442  0.3638173743590529  0.7906353921217565
  0.7889925835241479  0.5074300992006344  0.7890698337623283
  0.7865450083440197  0.5001533143542177  0.4956402803547984
  0.7118194417540171  0.4332890921704996  0.4220832124423727
  0.6448125344093020  0.3485843146015262  0.2157563255551526
  0.6496490410173403  0.4794328126087428  0.2046011282319682
  0.7200423823117857  0.2934921298050893  0.8630116609751520
  0.9105831874514856  0.0815132261489396  0.6453737240341759
  0.7164318196356809  0.8570115134573238  0.0041452118077129
  0.7172884536144417  0.2876831921636891  0.4313882921508088
  0.7955918665580937  0.3461269753565913  0.2163469048772982
  0.7034158001115751  0.5755425036147707  0.0039691329626878
  0.7883199872252173  0.2212404222126960  0.7924032408180526
  0.8525304689426758  0.1516258797436160  0.5732008745649508
  0.7933692246357211  0.6387251839603840  0.9361290093906867
  0.2124569642844385  0.3538318959967933  0.9292118790563891
  0.1423267286794642  0.4216233794682594  0.2877627542631582
  0.2863175635103761  0.4212437097758853  0.1441510818280460
  0.2153925063091099  0.3520079994723649  0.3602347064320570
  0.1426949797910826  0.2847508059089892  0.1441550994736228
  0.2848577883059610  0.1533175864961773  0.0018493516502347
  0.3373193455459144  0.8714442439300544  0.7417026933273921
  0.1420055927467574  0.4246535924631762  0.8579443186442580
  0.7211493348650609  0.0070038776751367  0.5806553869585948
  0.7882108002128108  0.5011015613462537  0.6484052472365567
  0.7460810306390067  0.7589586171027358  0.4513997386049958
  0.2137995804745602  0.6263620919899020  0.3587946998007756
  0.2133742631328577  0.3573841789626878  0.7858272843499299
  0.1357470099671200  0.5612809890919558  0.5661037920545493
  0.2876443072954866  0.2868052593966185  0.5765814809685662
  0.1431218256985246  0.2835013223235224  0.2880957692853937
  0.1178733176838147  0.9943042545988010  0.5537744280560061
  0.3705574516044503  0.0941074064739659  0.7880343431089173
  0.1419874836103007  0.1528613101635590  0.0037620799335661
  0.2869966713211603  0.2848561087484143  0.1442154437503159
  0.1422027574954768  0.1454189562966326  0.1483334769516975
  0.2137166626501454  0.2146804219308320  0.2167381251651274
  0.9935387822908488  0.1483532456323786  0.2881181181075293
  0.1391095234612738  0.1482355886597336  0.4214004100691858
  0.2179472731862806  0.2125084122144093  0.3602718665490185
  0.2200571134996009  0.2195131357566649  0.6515200994502578
  0.1406443172261518  0.2886910733221275  0.7139957798790997
  0.2177941478377542  0.2203891754710547  0.7785694299748662
  0.0587239129819017  0.0743985664848242  0.7824122643590248
  0.2133499398222151  0.4901146120695443  0.3571397748517185
  0.2102245282092211  0.4897736954584830  0.5021215798659533
  0.1395043234098349  0.4236432019125165  0.5724393203168220
  0.2085411988816904  0.4935944400827862  0.6440802209815402
  0.1377910737839014  0.5637124635641230  0.7192691709413137
  0.2116073153086090  0.4937930758507785  0.7875989276024917
  0.9999563593069545  0.4257090080761627  0.8587196230148086
  0.2132416646700246  0.4900819748083328  0.0702679374649918
  0.1402348223536495  0.5597335585553650  0.0000493290315107
  0.1447919873268521  0.4211867799994199  0.1447541664692710
  0.2121890407686014  0.2181918804322120  0.9271219128344582
  0.5765613157954130  0.9996732489901651  0.0062731947111725
  0.8583241175470984  0.1435120606965697  0.1433613450900059
  0.9207330465470038  0.0743685538193124  0.5028817650707976
  0.5698080280302620  0.6994333534029258  0.3437259070690258
  0.6997113474866492  0.5940801907896742  0.2079336818439242
  0.8620940934315194  0.7162432393733746  0.1435387212885143
  0.7883859691611302  0.7860283937262020  0.0755690589412057
  0.7217365165035868  0.7115343078173034  0.0063426201212205
  0.5699202021482968  0.5696148280888326  0.8633289179685427
  0.2599277485270199  0.8505613635560095  0.1314711438490572
  0.4308691640819329  0.1568681797127191  0.9952889303679560
  0.5098623090763994  0.0834286623935805  0.5175974081289240
  0.2185502864390098  0.7841242526696959  0.3585992311779074
  0.3116776214053079  0.0260125964458125  0.6207491624589668
  0.8034091546398341  0.6391377448978519  0.7992598636814476
  0.6321785597897487  0.6405203598492050  0.7931601963229600
  0.3598019462779316  0.2212062094317429  0.0728282037495513