 B Cr Fe 
 1.0000000000000000
    20.0899999999999999    0.0000000000000000    0.0000000000000000
     0.0000000000000000   20.0899999999999999    0.0000000000000000
     0.0000000000000000    0.0000000000000000   20.0899999999999999
 B   Cr  Fe 
  55 206 480
Direct
  0.2351281387997518  0.7051784540701098  0.1569690497342987
  0.4976183102478559  0.9235504998893315  0.1489799647189375
  0.0582560645311586  0.7247426732607553  0.5040126096003681
  0.4301888957138890  0.1225137142574935  0.2280100603375264
  0.0932179337936312  0.8006481824814535  0.8294559567849988
  0.4262835449840696  0.1771692016843505  0.2966319731832886
  0.9705383326405989  0.0018533933729439  0.6313909605804007
  0.2287562689099435  0.9323522374688045  0.0266645901495734
  0.2008330440908047  0.1165337509739216  0.6319264685239064
  0.7895815537063746  0.5247826480422497  0.0402432368458644
  0.5116807645045267  0.8285164069928543  0.6347247100080371
  0.5477818518179144  0.7918690558083066  0.0599467762149485
  0.3435909377178331  0.9813718223053757  0.9294287879077471
  0.2827797261210058  0.0590337105213343  0.3577282138219679
  0.3633077876262705  0.1242992258416107  0.4871801426845396
  0.1511619987135019  0.6682314810362342  0.7293884309748304
  0.1717162569980002  0.9284576553605434  0.0924963272539628
  0.6456761383908317  0.5226713120367334  0.0369210481629829
  0.4194030208437134  0.6637042168374707  0.6900134839565158
  0.3680379596479621  0.9685560860993315  0.2611489192647348
  0.3301139322726288  0.7255633316183482  0.4939480298206126
  0.9451766584505373  0.1269482653010771  0.5004169585583627
  0.2643336252689270  0.0481703879213311  0.7441931286607106
  0.4181159247714786  0.9272175413913435  0.7735327596525164
  0.3663313459187329  0.8561129196944450  0.1542237830024279
  0.8574344762184097  0.8891946089088016  0.4058784575331529
  0.4287998349926501  0.0664448941765380  0.4948249444927337
  0.4671204129735771  0.0483822678041472  0.4050342400984586
  0.9373573223080515  0.9420764350652024  0.5786019323372955
  0.1988113047930553  0.8585136414963412  0.5031997874905280
  0.2560625140186218  0.8902830540705795  0.7309241980529142
  0.7869933910201239  0.4638261638869088  0.0997438271620898
  0.5324363528850201  0.9393305270128867  0.2264750269231452
  0.0528263826585170  0.7906475578321036  0.4369720106905183
  0.3361548843139372  0.9641034476761815  0.4580554867211480
  0.0088825489369387  0.8097359900558351  0.6883178211740056
  0.3801338952569147  0.8842397459063791  0.4377160431242185
  0.2900165483449859  0.7164973132220770  0.0857235327567251
  0.5300919887309488  0.9556453209209947  0.5194488280376304
  0.3310907851669784  0.5831735400879355  0.2190002173316794
  0.6257433248855904  0.8439807220806961  0.2986750842375298
  0.2076206503064750  0.2272695750364934  0.0705791013855107
  0.3451511557476265  0.9847566300106474  0.6183591352505403
  0.3944944177528308  0.6377060739309635  0.3509113579113031
  0.5342442398890869  0.0908363611426437  0.2184200696504707
  0.2972301443538904  0.7717850833969627  0.7828258263297867
  0.4572445125531903  0.9018848639813960  0.3959051039642758
  0.4666627838148709  0.8080835412738397  0.2902217333101181
  0.3084687488200321  0.7889948027210147  0.2942935930652058
  0.6440919469835298  0.4613687916770797  0.0972971016025687
  0.1781005006642386  0.9316044532979236  0.4596890579627410
  0.5474777072860755  0.0781188392796957  0.3841150822917861
  0.3544246897704376  0.7190370677798587  0.6587690195459306
  0.0531021507768098  0.8509898812401310  0.3687695360032998
  0.6590089156751190  0.6015816690058738  0.5086512408248296
  0.1438097757794312  0.4252666893959645  0.8617245925052410
  0.9214926225657717  0.6291664699097640  0.2061693025667239
  0.2059702070952798  0.0949837092452107  0.9286987280591484
  0.5446450948380107  0.9720811190912624  0.4044745144039374
  0.7149334087761611  0.4309099936748147  0.8624984041819762
  0.4993283512934282  0.3478815006049083  0.2196172411009946
  0.9413313809369855  0.7923212024049719  0.7768048537080018
  0.5032484905843161  0.2178080463884415  0.9294220487453867
  0.0099277713459236  0.8661234861673578  0.5842706775118889
  0.2037729720738174  0.7854648902502859  0.9132083494732683
  0.2847184038790970  0.2857355832296326  0.7169564881449803
  0.2165038601481009  0.7553493233660121  0.3518103199074219
  0.0477441789575882  0.8986465900610324  0.4617877977201492
  0.7893582441994850  0.7859348734995592  0.0713442675153751
  0.0698767720305365  0.0837249458913126  0.7922869863704829
  0.6412363347161819  0.6422917564557286  0.3494202694376953
  0.0637731182016958  0.2216136234109421  0.5006804992099397
  0.1446083135039380  0.5629477872988559  0.1409472014756836
  0.8607352938599572  0.0012920319607177  0.8617209102497440
  0.0738085517344858  0.9500310882043851  0.3546694232193747
  0.5909194637569877  0.1406898281202368  0.3011033615443476
  0.9997306921822463  0.7048770723608129  0.1406256798192031
  0.8534646684588948  0.5667492148886210  0.5697946578642314
  0.7876202647256755  0.2190516497898781  0.9320471825815752
  0.0663260042682440  0.0826366904212111  0.2093198233264289
  0.9291077587134049  0.4988893953846679  0.7892137070495434
  0.5659424994631267  0.5733053611260938  0.9934276945805539
  0.5010513276241458  0.4942834171569684  0.2124055132035333
  0.7151654603245431  0.4265031316694581  0.4275151599502920
  0.5756391647952801  0.4377891587756227  0.0120387442291380
  0.2639925808283404  0.8764259733861489  0.1122519262638018
  0.4103846428212596  0.6988339349782390  0.5728600082944749
  0.8561146273600461  0.1450224964558632  0.1429916183155981
  0.2417600861156350  0.9247223593270798  0.9201695068630094
  0.8526699562401503  0.4374477120660053  0.0116277495780886
  0.3647979554175411  0.7889488688810126  0.0663052057585605
  0.0713457322326921  0.6284712510157401  0.2094741264160060
  0.2050314066750650  0.7923797520737270  0.2259516941339803
  0.5591830414032808  0.7233589947041896  0.4321531638700036
  0.2871461620383505  0.1548684453656455  0.8564838768069848
  0.0711053013709003  0.4970788017619792  0.6431750261603780
  0.5776266828772432  0.1474073125453832  0.9960139983913675
  0.9259072581198665  0.4959784212009596  0.3530900824410211
  0.5106188033866862  0.2133783588779656  0.3593849306641975
  0.5774624273209942  0.2846967720506365  0.4317366781848712
  0.2105649330135046  0.2174493967559465  0.7880214559612471
  0.7871115400901606  0.6373470171745764  0.0694305341082109
  0.4267342294329491  0.9995224318053569  0.8559036177382159
  0.2169847697257125  0.4955034586700754  0.9318997585982897
  0.7160105036083452  0.4289193447398900  0.5736450755143391
  0.4432235302420531  0.8505280783010226  0.8495205294285306
  0.1320012430091064  0.7062420372378819  0.4261622691509673
  0.5468194302559840  0.8296039836123652  0.2209367347736567
  0.1516386077447322  0.8394935921815964  0.4067715077674514
  0.0749704069290748  0.6359486953143907  0.0708976795949661
  0.6594853001080118  0.0737434993384246  0.5087957044789191
  0.2861144244761926  0.2825592125574513  0.0032869562625204
  0.4324188352747221  0.5543906367282596  0.2857442185569394
  0.2176690463926569  0.4946166587528465  0.3528720825253888
  0.9258904700501819  0.6318832754685829  0.3485365677149884
  0.1382119632011540  0.7012932344147625  0.8585084646216798
  0.9228113986086479  0.6289417967514602  0.4952891667275514
  0.5780937894931026  0.5811886984676499  0.4325681713119407
  0.0651134664897217  0.2242663027936710  0.6504399158172730
  0.1843486237843939  0.9341877106825240  0.6642401680106403
  0.5042543942061564  0.0744589788903125  0.9246437559092853
  0.1450410893736223  0.5664785610680224  0.0014230539525110
  0.2887557100601090  0.5601157586960296  0.8592545681062005
  0.2179508044883984  0.3493731631861753  0.0725779198116137
  0.7196247861194600  0.5705719139639284  0.8604038802225874
  0.9277499819208942  0.2210009375844311  0.7946548097565176
  0.2859151097924457  0.4225631098038466  0.5716288993216271
  0.9944749588937944  0.5627495719070598  0.4235755952923206
  0.7921257123013137  0.2166110116216244  0.5032416676498748
  0.2181823566782299  0.6170161307245330  0.2147776353266294
  0.8580048068417837  0.1490360151523148  0.8642636865489339
  0.7866976659729609  0.5012373744903792  0.9294859467700923
  0.2200722555551036  0.6346712906818350  0.4884142849922635
  0.2089760765836637  0.0826494912366293  0.5214305444708697
  0.0723033916516112  0.2171042519850744  0.3560316658058543
  0.6454642121264227  0.2148583253958297  0.0715171940520716
  0.9312407390213731  0.7810386697626531  0.0729314141547343
  0.0000170410129198  0.4267667256005853  0.0035416532925536
  0.3569309514452813  0.2006183411243078  0.2170525529022560
  0.9262419097057278  0.4994586992857478  0.6419635216261923
  0.9487908035676719  0.9026873113030952  0.6794506227199142
  0.0403883443651361  0.8789134807763727  0.7614552537207822
  0.0003600194856785  0.4240563989468732  0.1428158451414434
  0.1284062124715493  0.8594677937119695  0.2881213708221036
  0.3696762787123190  0.6524884255484314  0.0481963665761039
  0.9994948875163465  0.5632088935148210  0.5749416214795173
  0.4554253256195410  0.0178156307161107  0.2172029596854739
  0.9272968961309868  0.3592966436595405  0.0729736364091540
  0.8133886621029627  0.9325445948042913  0.5084122610732489
  0.4346885036757790  0.1478445582066274  0.8594213907435246
  0.8598881403256381  0.0054892093510218  0.2809977344392283
  0.3377803993548227  0.0771312568285761  0.1881526238525484
  0.9971010505103362  0.2920323278610498  0.8611609978092468
  0.0708669748072493  0.3572666803899640  0.0721554941217322
  0.9946972596176208  0.6992662712213261  0.4225630262083497
  0.1385864438317415  0.2842469392372751  0.4308278193036635
  0.7784616031775018  0.6519553036684252  0.3645563458349815
  0.9252821164769237  0.2174246027219233  0.3563880108864934
  0.9667660525567540  0.7880576039465967  0.5114416454009977
  0.5078969388802311  0.7626716747570450  0.5439650542640303
  0.5181722932112465  0.0749644747876284  0.0587007428287532
  0.5019478847129470  0.3576795737344126  0.7895777484877583
  0.0569717473769777  0.7513049721720216  0.6120786284235176
  0.0781909283133464  0.7876558217373487  0.9353257834575581
  0.8576918401459313  0.1531421139407370  0.7259595672976770
  0.9983037344083108  0.1518399030804621  0.7233383105340098
  0.9969058114492674  0.5618994465226258  0.2810137022407465
  0.1378606368968323  0.1602188158033337  0.9996071254134699
  0.2635249620741796  0.0089298839460630  0.2609467963674171
  0.2086564458895318  0.6236425379224431  0.6410931460558977
  0.2482676390208217  0.0021317606099490  0.1136449370647075
  0.1996907577819995  0.9259475700360685  0.2087105560224007
  0.2424221417541604  0.9508897098330601  0.5494771361476809
  0.3961031107825188  0.8122967708054131  0.6289100699104404
  0.9994606131284249  0.1479380768962811  0.8627286371835722
  0.4366362273994113  0.0143844366894090  0.1064410998917357
  0.7190239679149371  0.8595452007381724  0.1405461854825678
  0.6561811285210953  0.0788455541168596  0.6530137958157596
  0.3928004604613666  0.7516086741161162  0.9575390008976922
  0.3325605096609085  0.9500515280172925  0.0343076970259448
  0.4345921812211961  0.0041932243848669  0.9880953820575903
  0.5746105628935990  0.7005613392065750  0.8608425651603491
  0.9364076784151225  0.4960460053899899  0.0709424983491168
  0.7610046984182197  0.7471857924867071  0.4589335786172025
  0.8522634148197581  0.5679184250005328  0.2845596767637051
  0.5290182769430478  0.8901376475110164  0.3197256162013316
  0.3899284622043377  0.7751253713901521  0.2198366430917728
  0.7372856610387138  0.8649368656669407  0.4305791706078768
  0.2727195577188385  0.6838011609384962  0.7194254694941931
  0.1373434665662780  0.1464152563534968  0.2819819782897303
  0.5878119125858411  0.8740834262030358  0.5760876162342377
  0.5949913679741909  0.0051181258141392  0.5865146242702775
  0.4647538143881703  0.7967269608460859  0.3978070704638323
  0.5264819665270086  0.8620860260006433  0.4673273861796931
  0.6571875166011060  0.9362367899398910  0.3528738964464333
  0.2811487799921994  0.7168135660187468  0.9823140505562905
  0.7929771860775555  0.0773037443741732  0.7936535299506409
  0.5898087058450543  0.8382791557330045  0.7126360775686744
  0.8607856884176099  0.8546628904814614  0.0032813547505979
  0.4919532891227020  0.6465475360272933  0.7732487978000969
  0.1421137493766639  0.4252295364060782  0.7159591633328786
  0.7919985530347223  0.9274219172694800  0.7925681209257143
  0.3603133298787244  0.3494845063769034  0.3595935253101399
  0.6464119111745870  0.2110436515745170  0.2192464466463632
  0.3688598171714522  0.0776638248908251  0.3003138194578243
  0.7764505668739359  0.9107703399528837  0.6432290759754491
  0.6554305446908124  0.7860871549369705  0.2118397364940230
  0.6475302002080977  0.4933050821799200  0.4989814136488079
  0.5144889122721384  0.6404142534285355  0.6306050963658044
  0.8571569638534506  0.4272283001364721  0.4266597536959013
  0.7880381561868625  0.0736284869203452  0.2128786510603128
  0.3013423882675254  0.8189780356551655  0.5445640594928878
  0.6568267803666233  0.6186786205398100  0.1921015859876273
  0.7088374464036623  0.7200320309141439  0.7086953458822012
  0.8673251870844444  0.8580772023630668  0.2859428818111820
  0.2135813845238042  0.3571820198909582  0.7877711579784259
  0.4321338042676695  0.4187503647980265  0.2866556998652163
  0.2857896990435591  0.2787569136472622  0.1421730683827133
  0.7204124607516372  0.1493422074387762  0.8619203235201804
  0.6497099021761278  0.9287031342057579  0.7872363845680218
  0.3555087088797593  0.4914245684425951  0.6416271094197568
  0.7168230270830791  0.5696115531392993  0.7145139776216608
  0.5323703354764734  0.0601505305244655  0.4940924928542897
  0.9526820797445078  0.8268826018814984  0.3998816089603048
  0.8526144623498595  0.7191928047889080  0.5578761137094143
  0.2925458108201535  0.1462450655266220  0.5749159152956058
  0.7949873857219509  0.7782563383917208  0.6489972767683703
  0.1315384912992848  0.0130611630273958  0.1419541355329168
  0.5154612374675278  0.6160978087065224  0.1971335806330845
  0.7223838550486376  0.0021314573615735  0.9990619018997807
  0.8516769698303382  0.5539170527243860  0.1297010379653980
  0.3044191943473100  0.6744183276711089  0.3986396738368673
  0.5022511226466713  0.6524274181619097  0.3452106003826044
  0.2833044124127255  0.0285921196941528  0.8552208325610512
  0.4327395758824019  0.2882062348886709  0.8590990748443306
  0.3590312291206780  0.3537550953427024  0.9305220726641880
  0.3848378508034143  0.8637923582733202  0.3282387017451852
  0.4509821598325386  0.0038991021278987  0.5847302997831438
  0.7894875486800850  0.9287880664466286  0.0716782300904417
  0.1592364049216907  0.0427342038335114  0.7036268012316909
  0.2819684348490837  0.1585480077329230  0.0011579377264653
  0.7159482397481522  0.4437374492245495  0.0163531321988342
  0.6454554381071509  0.7930005151710595  0.5036956547349765
  0.5673836224270156  0.7193887839844583  0.1365498083179998
  0.3573327422827499  0.4896157100363361  0.0714740333651809
  0.9992523056476591  0.0039795055840486  0.0042898983814234
  0.3313888342566697  0.9753008702959737  0.7315182836668425
  0.6464479564867956  0.3612381685737326  0.7906123344026428
  0.8553025907159389  0.2918195042477267  0.8638008353663885
  0.5020095449111660  0.4977630007934686  0.9312274072200679
  0.3590280094552259  0.0869581268869029  0.9277927123124169
  0.3848043681126950  0.8877345727086554  0.9513617226854522
  0.4315824081066979  0.4222398336272827  0.4301110967096843
  0.5821373523843859  0.0061052675945870  0.9890284005766082
  0.5038521838228376  0.3565656495307392  0.6431063154094415
  0.7824908982211511  0.6351859329762951  0.5011748844670598
  0.6275694287316823  0.9532877165386655  0.4750041827565131
  0.2885240573036584  0.5637833396124381  0.0005558388358124
  0.7867383734347049  0.3569733145122988  0.3586529106648149
  0.0714683953026782  0.3551457816823061  0.2136210053355532
  0.8566123747296579  0.2847256818663890  0.2882467047112218
  0.0000520796036751  0.6918349313399978  0.2702277456138016
  0.8564741692921038  0.5682867810763645  0.7176655024718780
  0.1102778074098232  0.8065466261611036  0.5203557814060484
  0.8570269795203425  0.2863304683149124  0.1444077326303989
  0.9854660255275409  0.6850291644553794  0.5667187734901513
  0.0685093319250791  0.6310352251869218  0.3524500513018559
  0.0741663533203398  0.4947606335403900  0.0714118376274187
  0.8459340258420573  0.6971930539252326  0.2722189954505270
  0.0015108190709589  0.8539536117374591  0.0049366403215660
  0.2746748268137660  0.1378807945118595  0.4329009939124380
  0.0034096458798481  0.7109953612884297  0.0013193837246571
  0.9297744421078100  0.6379726935936729  0.0719274092160806
  0.1350418169523143  0.0121912993573010  0.2702000012549230
  0.2807076295524246  0.8394900020905803  0.9923963073170458
  0.9300611698234911  0.4977342440066339  0.9316678671585553
  0.5060448139275755  0.2195083316143061  0.7900232936169082
  0.0006803563070234  0.5675527640180668  0.8593136756956445
  0.9267924053627264  0.3602460983799210  0.6463810915921375
  0.9902323337733597  0.6985543668662717  0.7069869843543402
  0.3480702588443514  0.6244127942533160  0.5068564126135802
  0.8651957104838245  0.7146377039765138  0.8563709932791533
  0.9995149433094681  0.4283182126336938  0.8611939954922699
  0.0667700834472996  0.0778186251460798  0.3558593193877073
  0.3651258015783354  0.0515382929914811  0.4149532861658173
  0.9984711323471566  0.1489784368307996  0.2845820320506558
  0.1485483687092345  0.9985104655839335  0.0088783130551531
  0.5139169242080281  0.7761214913022720  0.9227197918675792
  0.4280198232795457  0.4197889389088996  0.1476583543046708
  0.3454053110887586  0.9634065796826250  0.1614398455527209
  0.2470206656607274  0.8606351005253936  0.3268465762121839
  0.5735168485428744  0.4280447754618327  0.7178646949037392
  0.6460395896526102  0.6360946181929710  0.6435546433712407
  0.4316588863139725  0.4249086323746079  0.5726202695618272
  0.3454485869631872  0.0795598690878546  0.0650917523979852
  0.3600098027156831  0.4932848781319892  0.7867742201574868
  0.4319656355846704  0.2849255134225149  0.0013778986315478
  0.7182244098473931  0.0055169802198728  0.2816778715031367
  0.2205649145062446  0.4927070292816529  0.2165850185005073
  0.2121117648242533  0.2156158295140792  0.2169825404161007
  0.7150948037413778  0.4296521777614676  0.7187530395430806
  0.6443331723794844  0.3545234744448712  0.3595816972710714
  0.4898006347819825  0.4959834150296088  0.0777647797516905
  0.4023948565345471  0.6506908223512966  0.2476289926630746
  0.5881658028224424  0.8582371528391398  0.9934524626586562
  0.4379702717397517  0.6937075582562902  0.1411466959869055
  0.5872670584495269  0.5441308312576972  0.1206711295843171
  0.5810592797643241  0.7078817957977384  0.0011931794197249
  0.2773093437830619  0.5565363961200868  0.5680343586521023
  0.6741906110728322  0.6798611307094469  0.4496282465652633
  0.3374348967397828  0.9229738333919024  0.8439151281911395
  0.7155746992066659  0.5692340638467248  0.2885009729096638
  0.2060133844142105  0.0860370775068410  0.1985789508046545
  0.0690514251821122  0.4939649490097457  0.3550300418914462
  0.0684619438618355  0.9339888834140173  0.9445761147819765
  0.3354685832427732  0.0390346389886029  0.5344686957269046
  0.3631572090661745  0.0858417706906148  0.7847238007396170
  0.1521657989912246  0.8613057053457398  0.0074122520660686
  0.1715180940400603  0.7385329438808015  0.6621252878980466
  0.9285146336113562  0.9258495291738059  0.7978223117270037
  0.1421531091762172  0.5622299671127396  0.4253814810957315
  0.9992224565428374  0.2855861209434113  0.2869229459746236
  0.9288145694735392  0.3543711398780113  0.2171378979891172
  0.9954615419677060  0.2914997387234478  0.0031060909446890
  0.9971875500503342  0.1499008981252712  0.1409779159504485
  0.1410557800862470  0.2900227223276861  0.8588030197637362
  0.9272851009641697  0.3611495051084348  0.7918004432917676
  0.2172341852162974  0.9627918957433117  0.7885953668157748
  0.1375862715276669  0.2871015111955396  0.5732998515586059
  0.0282920460814051  0.9827349002264152  0.5464132698850998
  0.1910845828489077  0.9534159825175084  0.3579405475293800
  0.5665970258946421  0.5742411646917539  0.8583376422358849
  0.4264803489842762  0.5606728229603400  0.0017112233444284
  0.2875278274200899  0.5526008490615859  0.1330318758083603
  0.6478019364602796  0.7784397368417959  0.7961991554324767
  0.2811346911780936  0.7897705501316676  0.6806070126591235
  0.4195877551817890  0.6983238749308547  0.4395411871835190
  0.2706775184377834  0.8883765883851236  0.4407615666483638
  0.1353704488157828  0.1553991101192152  0.7114625462743087
  0.1498557905868146  0.6953730844988463  0.5545518822717431
  0.0668797201929353  0.2230796493565974  0.7901812245037735
  0.0714413552451069  0.4924355325332924  0.2113027032130694
  0.7142890542984506  0.4156951009392840  0.1519622677773741
  0.0717062227968476  0.4949985275097915  0.9333997039016060
  0.0706865081166755  0.3569753266569995  0.9323386657509566
  0.9984260925067633  0.5672598648665571  0.7123151137310495
  0.1397403015182132  0.4245631638483324  0.5715481084363877
  0.9967987165931991  0.2927688651479086  0.7203326766795873
  0.1251105319650245  0.1553473377079485  0.5770264945722626
  0.0685051685058090  0.2194727580733465  0.2135768502540320
  0.0707905543123188  0.3559002995922000  0.3563221930841965
  0.1864367887915148  0.0755788775949360  0.3612190554861780
  0.7863853785333216  0.6433471377262764  0.6429292291420854
  0.9997175845734633  0.8524053152918659  0.1433860957896315
  0.1348857422751992  0.8481400493387077  0.1449226792979252
  0.0675850981804375  0.9289974703284418  0.0763363396868348
  0.3345840652002058  0.8043776483127838  0.8762158529453257
  0.0832125792933900  0.7547054348692872  0.7418661869217692
  0.0678637331542285  0.4941302615862388  0.4976779560048900
  0.0682349154838074  0.3574566287614291  0.4997251958604202
  0.0010059192605185  0.5648909212482965  0.1409740271970871
  0.8651284072010583  0.1483647410037174  0.5743726177679976
  0.9260896508676341  0.2165800760570042  0.2148838593941401
  0.8557455116572895  0.4262566731142359  0.2847743382987622
  0.0510754323018786  0.0771387211395718  0.6467720046154981
  0.1460765295828405  0.0066928517231800  0.8773416242764124
  0.0704386525916538  0.0768111267453511  0.9358013066574876
  0.1269363164292945  0.9179945590920960  0.5528041256054821
  0.8580410255685295  0.4303654203091297  0.7187123116749240
  0.1033788804320989  0.9691391883100635  0.7726935760693372
  0.4714230091547486  0.8085599260494167  0.1311816551875244
  0.0504643580789630  0.0902250387022968  0.5087103513967758
  0.0007377566074656  0.0076544647447172  0.2791426523321182
  0.0661846505370955  0.9303281663481769  0.2115040393059447
  0.9985284307437616  0.0052237174935417  0.1418123724802096
  0.9944954780761959  0.0133850173094210  0.4301331979199013
  0.8571325620387015  0.1458552668776510  0.0015121826619999
  0.0716856028379427  0.6373707362970789  0.9309406634823203
  0.5012222787929825  0.3534797272757262  0.0745220023281634
  0.0691210084025895  0.0797525600489144  0.0686776285937919
  0.7193870769562973  0.5635380253189903  0.5770847328471526
  0.1445963106896494  0.4227628427626833  0.0013359372317778
  0.2211485458921780  0.6389300149457771  0.0729962504886444
  0.0705401237712702  0.3600136504666939  0.7893719088973472
  0.0701895027826570  0.6325432581388510  0.7849228572749751
  0.3600723286082234  0.2138974076691083  0.6474568474824879
  0.3586262941852197  0.4936686484864056  0.9298284945359224
  0.1438676087581461  0.4236061606932332  0.2842249384520747
  0.3592302448970457  0.3500469146993763  0.0739927917393792
  0.3689640286823017  0.0794916605821206  0.6552541115350039
  0.4337775029802380  0.2812538799988133  0.4294829391517466
  0.3543766763350672  0.2037896372500625  0.3640208253424149
  0.2067848704430872  0.6292433744144524  0.3534563923407641
  0.6429968513362614  0.4972424091121934  0.3582256196165609
  0.4365639455439258  0.8933012307198090  0.2245098612637122
  0.1979726558428145  0.7503797994583931  0.7822592593871592
  0.2954026126513025  0.8989338771876089  0.6413346912905473
  0.2871639868841558  0.4166695523216153  0.2884834583160855
  0.5067077417331355  0.2152320548203198  0.6442327137775039
  0.2877135710940393  0.4234011113018060  0.8591339095605692
  0.2490975468154789  0.0116007566680641  0.4428534922143146
  0.4316408369359511  0.2769805018793232  0.1479230723825925
  0.4162512139401102  0.9027486717456287  0.0842386503504291
  0.3583620173424249  0.3544437411098317  0.6443879349497117
  0.3098105156976386  0.8823947753281879  0.2359080152613579
  0.2847779896600014  0.2817567178743884  0.4300191751921937
  0.4292852388602833  0.7074250178822643  0.8574071487529219
  0.2591479311176965  0.0351366964435186  0.6370002786712203
  0.9306464935360055  0.0725745377396480  0.9306571841840521
  0.2833951274210723  0.5546557221212819  0.4292341186245200
  0.5010226906931853  0.4986392331111499  0.4968115427348618
  0.6525940228727772  0.0767127788707785  0.9278746625866524
  0.2679459644730149  0.0261209153416137  0.9869987467866449
  0.4479761775651215  0.0131934802843266  0.7226719167377946
  0.5148806143936498  0.0794595654432972  0.6486185865783843
  0.5775133326210187  0.2871510014577441  0.5749181275754881
  0.5024569753100853  0.2003723111093204  0.2226946653215477
  0.4711074228208090  0.7288915527305967  0.0373325676980088
  0.2151730091365679  0.6337074716166318  0.9285397952385220
  0.4290522879450259  0.2799108938823806  0.2910618753707615
  0.2019092637177727  0.0945551669906996  0.0637314452276281
  0.2135045930454181  0.3556405316744277  0.6442434111738441
  0.4343017424635476  0.1389166735744295  0.5695143486215435
  0.4397606461893542  0.1494433320237492  0.7181204703670151
  0.3595063981102617  0.2203825391988611  0.5013862758806339
  0.3559120807309766  0.4852104749047606  0.2196065895066682
  0.4316583498840515  0.4256220108980809  0.8593341978692786
  0.3618496048451200  0.2186878687720847  0.9283963526817351
  0.2880418580596429  0.4220055175163421  0.0013764895611508
  0.4322335673401412  0.5675929059817945  0.8587622516196547
  0.4225149134488946  0.5691252065210338  0.4225810922502851
  0.4308953355282609  0.5620763994646827  0.7086960160406400
  0.2889412781261000  0.6979478305223067  0.8529242134921202
  0.4669112051423074  0.8468743596239836  0.7272614439151396
  0.4334919501030369  0.2872477904501145  0.7158002019452866
  0.5100512418441071  0.0788482464204482  0.7922731076148001
  0.2744645452206443  0.7061476805770691  0.5840487848285708
  0.3438106610292097  0.6197932066488693  0.6403217860231029
  0.2450718279306150  0.8506967914796036  0.8237721206835490
  0.4488919027982891  0.1455588832835978  0.4295684725579252
  0.1424765592137657  0.5597903875436671  0.7177820513089307
  0.7168954955399834  0.2832191605130163  0.2892792205384245
  0.5034432086935697  0.3525490633820404  0.3597917091392649
  0.4064464582213144  0.8031242063671141  0.5039625642007618
  0.5240115169460641  0.9411375752072301  0.0530471286874414
  0.7160947440412194  0.2928879892574789  0.8638655608876721
  0.3586349184733033  0.2163199472322875  0.7843809426698845
  0.5724537560022909  0.5703978782247746  0.7160058910176603
  0.4296143610985322  0.5629175818525503  0.5733604573860844
  0.6540222657026588  0.0787029285082779  0.7927701643697131
  0.7199335685925193  0.8530109247701774  0.7301583537389977
  0.6134127581066069  0.8464891753288218  0.4028755136863513
  0.5771732779865315  0.1429999738535450  0.1407197304390941
  0.6478785185386277  0.0710336984967826  0.0706579870171396
  0.3119779220130975  0.5817237290022877  0.3152050710709750
  0.8619425915780221  0.4216603627251438  0.1474812032326994
  0.7174352586929496  0.2907039029861368  0.7192756593513616
  0.6460354518253634  0.3594289709291473  0.6455979739228748
  0.4327534456543141  0.2844508960928711  0.5737360681182427
  0.5880519723350535  0.1507440991408724  0.4384412867434612
  0.7864021104150991  0.2132477038300166  0.2160750643622961
  0.7143210925286478  0.2830250079538621  0.1462802584890209
  0.5718076827965557  0.2788830915308083  0.1485873162414047
  0.5952847666149240  0.7532455632980732  0.6220825165801175
  0.4300971138578036  0.4235246119537108  0.0014221429330828
  0.5097270134821521  0.9286190209207507  0.9241108439737725
  0.6504427897411549  0.2187704710138825  0.6473734002977639
  0.7201445665747694  0.2885375715508792  0.5752530129452690
  0.6474161075543802  0.3567839128527667  0.5017517662408465
  0.7292500367992908  0.0103182425360101  0.5873261853674573
  0.2271252577645414  0.7603369664098246  0.4772098487480139
  0.1415737451087076  0.0293029112041069  0.5863555062598594
  0.5691160702188021  0.0049114445956532  0.1517445630474606
  0.8762492574790430  0.8597021188169603  0.5840601788660594
  0.1316057476850596  0.1591329720476447  0.8654676606907934
  0.3497161456859464  0.8551440837260883  0.7499390286634833
  0.6521772875745585  0.9379328883031263  0.0651459529039092
  0.5089077855192421  0.2153287912876297  0.5052831622226045
  0.3595598051110537  0.3534163233445540  0.5010113549816195
  0.2821473017596809  0.5552830674288796  0.7176417289694862
  0.5046410879138272  0.3594421356324815  0.9328837617399924
  0.2105499619936759  0.4897157700333291  0.4984670473359668
  0.5041673992398503  0.3547082816954424  0.5008508674117019
  0.2852042095715998  0.4208870436529671  0.4289294697706774
  0.3184297755491508  0.9598220424775801  0.3507210361679773
  0.2975816260043410  0.7799532184020952  0.1683702235534582
  0.2888555988990696  0.2879211077449030  0.8564817044434032