 B Cr Fe 
 1.0000000000000000
    20.0899999999999999    0.0000000000000000    0.0000000000000000
     0.0000000000000000   20.0899999999999999    0.0000000000000000
     0.0000000000000000    0.0000000000000000   20.0899999999999999
 B   Cr  Fe 
  55 206 480
Direct
  0.2829909512658833  0.6658658725859877  0.1136868526600499
  0.6602777754712665  0.6163423029438310  0.5089443048427391
  0.5828350502567559  0.0585202048599899  0.4266088699081860
  0.2933031340759435  0.0503030275537665  0.1268576735608491
  0.6228162255492015  0.8833260529495890  0.4536225687380904
  0.0593838210247576  0.8565357957909884  0.3825356707328753
  0.2838796291115924  0.7890563347172007  0.2820525851983476
  0.3189763741740254  0.7805708566736914  0.4767418039154602
  0.3928502717842765  0.9538458157200919  0.2036998577390581
  0.6310727155116937  0.8499635029415458  0.2930893763748280
  0.4323278960093391  0.0413065000451543  0.4089440248106179
  0.5392416565353856  0.7877933436340565  0.0715814108586428
  0.8816870151338536  0.9332936577808444  0.6589557654593245
  0.0072167883852970  0.4144892427252110  0.1450378469277835
  0.4182255843475076  0.9216978614054474  0.0294673212165959
  0.9512839275864983  0.9390792757678506  0.6014368623628545
  0.2830869367182843  0.9894543063750449  0.9312091894224435
  0.6500516570181881  0.5201400686839983  0.0360806123840882
  0.4086841592841539  0.7890742849614184  0.7871691637744259
  0.6545411757614739  0.6936637718324675  0.1644284558030248
  0.7421424524774640  0.6832536087501127  0.7149677715966687
  0.2054762767802540  0.8570715677387687  0.5186838994160049
  0.5366050986438440  0.6102849227606503  0.3160940444006114
  0.3741219096811418  0.6284452499402453  0.4133276684808360
  0.5766386941787019  0.9284440589003421  0.9393461151400025
  0.5066207293470550  0.8398069666103191  0.6324541063465126
  0.3853369531846233  0.7891011966307533  0.5380258902285348
  0.1577666846027204  0.1795873553857041  0.5735641563271389
  0.1676985540788297  0.7927135674421401  0.1430525046880738
  0.7957981527254739  0.5227433341624104  0.0327828486461092
  0.0815949867324817  0.7734117340392397  0.5756072277056402
  0.0237232745475982  0.9401525348655644  0.5508834393771456
  0.3441037761935458  0.7249041377315032  0.6657866393447649
  0.4081369004779530  0.9342032693026321  0.7691050946287020
  0.5432820076876796  0.0803561724218859  0.1957312118931901
  0.4092874204065473  0.0623475990947785  0.0135217935017493
  0.6521142834422068  0.4546242198595718  0.0928369071836780
  0.3416192216346225  0.9492290907196369  0.2752264916025614
  0.0788350065945521  0.9306369036180733  0.8460207448588232
  0.3214844179739259  0.6121653412820943  0.3461805922380056
  0.7963380870554599  0.4589142259260678  0.0884014656894030
  0.2099959084777426  0.8670271756212508  0.6109327371358194
  0.4924083392240894  0.7604849410211163  0.6626747525898781
  0.5977641919671393  0.6285506646948018  0.1607008536172451
  0.9346744154248363  0.7860196215906728  0.8539204815124088
  0.2565108872641183  0.8587275611386708  0.8364797044977522
  0.4528222718979434  0.9003137120766952  0.3856371355974648
  0.4588477296704550  0.8051311289805322  0.2649965122904183
  0.5140779108016191  0.9586269338102014  0.5320449285577750
  0.1656741720223325  0.8652164992451864  0.9369431777128058
  0.1667157891503118  0.9270434630810706  0.4747216757787627
  0.2711989537384968  0.0485597922819755  0.5335170977709449
  0.5463292359870190  0.9344947866120397  0.2021749408248473
  0.4823865941297366  0.0754482485976692  0.2584573614676770
  0.4675653624272848  0.9950561153181828  0.0174959459651174
  0.0717281011169555  0.6350727538186495  0.6391141266094404
  0.8742105418278290  0.5719477686778973  0.9954159073338705
  0.1979857728051153  0.9450532444506653  0.8695960743890969
  0.4501850269792246  0.1323462350771290  0.1685886786696497
  0.7182663723893693  0.4319087280060837  0.8600678294534568
  0.5090682745667423  0.4978048475819902  0.5018174542437557
  0.7752062479372532  0.7724354672884529  0.7808404169750353
  0.5803784413091331  0.4361318733595078  0.0112895931769498
  0.8516989469511197  0.8461833526354238  0.4373702943057761
  0.8708189912589213  0.5567330596272068  0.2741872626219700
  0.0857209736132658  0.7903999994476979  0.9396923967214630
  0.1254880310073638  0.0160252699540410  0.4325955177324641
  0.8610890829262520  0.0024187449692617  0.5780247583147353
  0.7951547433368558  0.7883908218495314  0.2144253795402567
  0.9803534057959197  0.9975520687162510  0.7062569861564620
  0.6901959471306833  0.5111620488363432  0.3081211185468016
  0.6448648338322570  0.3610245819472365  0.6429069892531898
  0.0785809034505847  0.7856805793015339  0.0777533889133516
  0.1402993550305721  0.5662921963114004  0.8588731292632675
  0.5750252164434148  0.6037803395050840  0.4392276947408925
  0.9971200792143196  0.2898681595443006  0.5723031303324503
  0.8569481479901369  0.7092388830133035  0.7147738095317283
  0.1296649100297712  0.8653305445203963  0.3035900958827769
  0.6444732924304042  0.4995740945823592  0.5026842808071896
  0.2854330148699527  0.2886048572106528  0.8551862772517116
  0.0695757130285173  0.6329033098387431  0.2116179947268177
  0.5697218596073735  0.4228257068086335  0.4309782274967706
  0.5770571011140566  0.4275746480461877  0.2851070625003503
  0.7285623739511768  0.4066139280886761  0.1477280186970863
  0.7216409325139734  0.4396973123929120  0.0112287913944591
  0.3305674530834075  0.8541560646739145  0.2133194968775850
  0.4933317584177214  0.7739690880215733  0.5475882509632466
  0.8589683162025057  0.1459040321341785  0.1428759891541382
  0.8590994814354953  0.5706779264788734  0.7130287653856343
  0.8605630379143171  0.2843780414839271  0.2872941417948795
  0.6534008314017941  0.7778917077040099  0.0796967176769329
  0.4303206773727027  0.2862084000013770  0.4306136973823456
  0.2132824872123974  0.4960900076766951  0.9286802610010013
  0.9252202733001628  0.2223869379089189  0.4990635176482103
  0.6495136899537142  0.2161011765472570  0.0695287967879225
  0.9254553424668743  0.4988631963269677  0.4969547543945487
  0.6432809069892510  0.3560043115489407  0.3559511406859193
  0.5749962275937943  0.2891841563576781  0.5726307510696281
  0.2110905389736144  0.2180381972645740  0.9266651546420329
  0.9340059796147694  0.6398980646240296  0.0745825261676365
  0.5730701144034648  0.0014220556180946  0.8660328270516936
  0.0777412192552879  0.7856565251228672  0.2140018098338709
  0.0709869937728640  0.3569432156322227  0.7832456247744811
  0.1351177478709897  0.1563475381908514  0.4249122551486132
  0.4811702457785702  0.6990901634313128  0.2680854680444805
  0.0009362098799261  0.7049200781974353  0.5710503662135964
  0.2864928665068515  0.5591084514882345  0.1369085981870472
  0.3570016915193261  0.4955136918129447  0.2143136400825991
  0.1405778941072298  0.7035904590169850  0.0028963636041786
  0.9987475756600633  0.2900751350894261  0.8524398048061651
  0.7840079011136143  0.2201424422023019  0.4990985082481629
  0.1413556411768761  0.1488114768530165  0.7086611271376595
  0.0694561149084691  0.3559613330425081  0.5014454464967619
  0.2158717194768490  0.3563663669927820  0.5012734076948850
  0.9272680947211785  0.6348756990441747  0.3489096477391824
  0.9850437743427262  0.1537229081681273  0.5699940185695761
  0.9265390350262678  0.3597371298171930  0.6420023173618316
  0.8543125413283070  0.2873336344862903  0.4311518669100153
  0.0716918118583474  0.2230793887894782  0.6398730353986384
  0.9947798606471355  0.1506151752052734  0.8471675738568077
  0.5760324885642948  0.1449458955226414  0.8657084865760568
  0.0697362262604226  0.4893323257998448  0.0725104650598052
  0.2853334412765303  0.5631367826686876  0.8599363934837518
  0.1405241234294837  0.4258594270799009  0.9966828830514973
  0.8601469357987050  0.4294507888739761  0.8568722341951999
  0.9269861283318921  0.3598737288022876  0.7851514721063811
  0.2134977651971161  0.4936432745650964  0.4995596137265632
  0.8557994293404655  0.5683677568037190  0.5663459098023821
  0.0050691100106796  0.7133743230935896  0.1444595452302238
  0.2114499091219115  0.2166507583318395  0.2168892255151130
  0.9959319388097352  0.8411934312714191  0.5620391637945507
  0.9228394125388103  0.6385033399685385  0.6370015077537545
  0.2883000699476977  0.6906890458540778  0.4229772391382212
  0.5118643436403728  0.0788514369667825  0.7954905840694477
  0.0594877643548859  0.6309659753875447  0.4887029392250430
  0.8583959370050880  0.4287433849362721  0.7135559843524072
  0.7177477193778966  0.0000155956062013  0.4322685197625415
  0.4623428735238043  0.7927823623220879  0.1542077317997164
  0.3922051178447239  0.9989672851466913  0.0996558949944018
  0.8577937603499111  0.1468478573131143  0.8555220340673282
  0.1413763092782756  0.4237574763306649  0.2850967857450341
  0.2138294545364458  0.6274397730012343  0.2028293004790134
  0.4377528406450625  0.9885772559595906  0.3049170185275897
  0.2573079264122434  0.7387572324463008  0.1861591951125924
  0.0011727114423646  0.2870378249550611  0.4311810818248172
  0.0087740666380170  0.8584869522775321  0.0080771030218442
  0.1347384799277310  0.0159793585519465  0.2866945522983258
  0.1401627879462828  0.2860546306371238  0.9980864433808349
  0.2193011872080050  0.0666362294868466  0.2062681406002566
  0.6522804705333617  0.0740414304680226  0.2114540719911424
  0.0694954834902556  0.2189002785133692  0.3553342623200091
  0.9461781851623002  0.7906745052736425  0.7576277375548031
  0.0709042085884102  0.4951719120600382  0.9250000444477724
  0.0700928852042274  0.2179732697904212  0.0701488060451029
  0.9346496495367919  0.3588066967392828  0.0717901236494655
  0.1420128611770735  0.1485608921842438  0.2825441932189109
  0.7966845616218087  0.7842466884568075  0.3445371569299458
  0.1388171059190031  0.5593032502880675  0.1405846768422412
  0.8418543835382871  0.7160604330900068  0.5595592923000061
  0.4314094440325282  0.4265534193922287  0.8580540101319458
  0.5003161168507947  0.0720120744279140  0.0799853274256513
  0.7177978855981614  0.2908666307398859  0.8612541684894690
  0.1484102577800781  0.8478449608257236  0.7031461100057100
  0.0719143385028010  0.6389184652053185  0.9309430954195851
  0.7854740207350908  0.2209798813083233  0.6460488675603913
  0.1152080918206913  0.9625456211641812  0.7571301924459789
  0.9319637631764517  0.7844938324954482  0.2150923329170280
  0.9303340392709403  0.0751507683412919  0.0714671586441461
  0.3514388358917793  0.9574062172298200  0.3892443884948383
  0.1946465205681850  0.9626178060322544  0.9904358739401371
  0.3616309207632438  0.0604576427621418  0.2196651743496840
  0.4384775167441334  0.8672279548929440  0.8488081046179247
  0.1126238296413864  0.9978432382120161  0.5525750313589031
  0.5294739716345964  0.8918847863674612  0.3090011116769694
  0.6485401335540987  0.9273817064108610  0.2197435457547165
  0.0010886707861362  0.2886398286755049  0.1403615227220316
  0.3562157622748893  0.4937720335165998  0.0686489013944274
  0.3058923300614407  0.9247705826604662  0.0364904741917270
  0.4914294596984616  0.0651834840302259  0.9368021921124944
  0.4990169558696096  0.7860796436424607  0.9354320523864035
  0.4260007750964654  0.7114233552570847  0.8565685152009708
  0.0011780547200239  0.5659162948980082  0.1405366464223436
  0.7941919580166360  0.9331009855657927  0.2140977239229984
  0.1158170817727423  0.8732402973145184  0.5644514734079316
  0.7942632666327105  0.6337323307196402  0.0669721571576350
  0.7159183674287360  0.2835775443984460  0.2868826280931050
  0.3506142330671096  0.7516538144416430  0.1100575076061769
  0.6360243335339577  0.7924653273408675  0.5037694088582085
  0.2828231975673468  0.5600740875401357  0.5730006949296436
  0.9998088854725515  0.0035402596716061  0.1443170837767195
  0.5782393555438822  0.8795623393070415  0.5653441932756822
  0.6878657545980020  0.9130704402058297  0.5320254578425345
  0.5955065690263399  0.8119512879806542  0.3844235019491756
  0.5263324371321809  0.9778138855118812  0.3912337012724642
  0.6797610413286329  0.7589256612129230  0.3334232102985590
  0.6504603592137906  0.6449308269569854  0.6491758633808544
  0.2973937684916748  0.0215344045198950  0.6314144004684052
  0.5869303173277234  0.8497253802835578  0.7105656082438369
  0.8643650944682446  0.8603523896704839  0.0033788018959053
  0.5130092858434464  0.6498615130157719  0.6383989049035332
  0.1424663974383829  0.4253952131890055  0.5691050341228527
  0.7767955088572239  0.6384982919059646  0.4974120309272463
  0.3567833089224225  0.6278870160121588  0.7909803355945598
  0.8595531265458307  0.5437668278191625  0.1240887680705192
  0.7174351882803840  0.5663685752439873  0.5759404422684378
  0.1710682428858497  0.8508330545740994  0.0378278511342673
  0.3606536285759337  0.2150233354479835  0.5025385364401080
  0.7873691295632004  0.0782746766758287  0.7903861299613311
  0.3688304381308505  0.0897882296381688  0.7906748623910685
  0.9354513958705450  0.9312295017872351  0.0717724214149200
  0.4328628117593381  0.5675838443935377  0.8597974086405997
  0.7151313472902584  0.4297639936997587  0.5718692149102472
  0.6559512982839684  0.6248149964347401  0.3350184506027253
  0.7048846734134417  0.7113800594334713  0.5670139184629658
  0.3519535987015763  0.6222049284710530  0.6495641061999081
  0.3441237289947868  0.6399711116104738  0.2036806374376362
  0.4209551997010724  0.5780328089674350  0.2852527608387079
  0.8049534629730808  0.6215979920281625  0.1879014085929573
  0.7916969779387381  0.9301689686922946  0.3626498764433894
  0.2854562212597877  0.5632830118771868  0.9998803380720372
  0.1985319847443729  0.0780968809395829  0.6209030351586093
  0.4326319666129340  0.2874672716047465  0.7172002008268826
  0.7222123441831761  0.8543049918382256  0.8595328372665637
  0.9928566268263609  0.7031095870176887  0.4194692055510604
  0.3621212164354516  0.3557808909903137  0.7882556238810116
  0.5903769417503341  0.5339146599090711  0.1252075200019324
  0.7831870114936655  0.7742963763607207  0.6482756288387168
  0.1984566982692415  0.0787987107063756  0.0692558046571263
  0.8629514042717595  0.8631505288569777  0.2861135267584438
  0.7872815885599519  0.9270578101222260  0.7893122979696597
  0.5172529148119855  0.9347384620212051  0.7846031789132377
  0.5002115847190624  0.3552245595051774  0.2180234919937351
  0.4076357789799597  0.7229256149715743  0.4582349950417494
  0.7194435415330452  0.5718133180308461  0.7147308649367289
  0.4337636586507125  0.1440187184359411  0.5683780309755937
  0.4240309052800088  0.5581424156854591  0.1438395914596675
  0.7236080351869110  0.0021089282117482  0.0019015052475279
  0.9254272249273117  0.0799171231220557  0.3585507691913117
  0.3503738469156170  0.0852807525817865  0.9194729267571211
  0.3697280143026174  0.0665717977163391  0.4963728634186897
  0.2089610994853380  0.2190726336486281  0.0690382882273641
  0.5654471610015867  0.4169842357679311  0.1464499834368342
  0.7189564126257904  0.8578221876616446  0.4207102652743904
  0.5136040236345165  0.6192124343555373  0.0830085995661631
  0.4319036426410037  0.2875188229113947  0.8588430991514576
  0.2127627093031060  0.9661231341276099  0.1029278363916226
  0.4927492641944212  0.6479699759217283  0.9378929905575756
  0.4351747622317090  0.0038616529404165  0.8488525902046128
  0.8629866044798344  0.2895274616096621  0.9985193568901846
  0.2868379332056871  0.4251473198511573  0.2852120058415306
  0.4675658594931850  0.7843557844887552  0.3683741178056580
  0.5806651560424965  0.0101918642083061  0.7219764771423552
  0.5030378593842316  0.3559372043156218  0.5026812709627446
  0.5904983287796651  0.0046167679869976  0.1387120108390152
  0.5741369184866778  0.4287615607495803  0.5728664921707983
  0.7880897195687145  0.5006095689327663  0.6442773417805981
  0.5048816477387454  0.0681613535782521  0.4954542959314074
  0.2891159468670079  0.6964989000835665  0.8765502422020174
  0.7870218644478423  0.2180121274085872  0.3558791935581005
  0.9366817191397885  0.4870357359196626  0.2056876746083035
  0.5711736612508610  0.0093691963809419  0.2737611669971102
  0.6472029238736223  0.3529906637603097  0.0740048462244862
  0.9935073861702507  0.5646934937534874  0.4217507257690677
  0.0050269522890912  0.8614008471616791  0.1459620055019215
  0.8536140317255536  0.6960530822076403  0.2765052505722272
  0.0717712035028550  0.7711708313331319  0.7826334715354584
  0.0062692545050646  0.7127236756518224  0.0045473266167978
  0.0700768018632094  0.6342795524714612  0.0713731990125326
  0.0633953628981971  0.7773706714860911  0.4782475344315480
  0.9993539618737879  0.5687225913695828  0.7116741445942288
  0.0008961995195746  0.5622953904134570  0.2814722870464311
  0.2827250032319336  0.1420090096602816  0.4372038303975010
  0.7255322045173321  0.5304118714463285  0.1082518850734125
  0.3484445924639772  0.0764078329020117  0.3605232056079615
  0.3782568327247019  0.0878188493387955  0.6559536157782795
  0.9323888490142157  0.4962535353614155  0.9255908131709514
  0.1423542885240861  0.2861514247374340  0.8529092024154779
  0.0014725071797081  0.5704288114505773  0.8568890299892671
  0.9970316280772188  0.4288550512422055  0.5707474337546455
  0.9240069737606089  0.6371277426011095  0.4980214249993109
  0.1817748526298921  0.7692948512101662  0.6070894023550175
  0.8640266540831436  0.7164430262468660  0.8543486133840591
  0.0003545434444936  0.6993628272308817  0.7071034263442105
  0.2680025038657850  0.0100041725497901  0.2998744925833800
  0.2032477038588488  0.0834072385276386  0.3633849947280012
  0.9909433523729878  0.0125610532969869  0.2869098646744442
  0.2801647145865509  0.1334472726590453  0.7161402224639284
  0.0623033970593599  0.9368552605455855  0.2266693230605915
  0.5050979809132600  0.4996840332284410  0.7884924233288770
  0.1406819571731492  0.5605271008701003  0.2797436850254074
  0.1407095824844737  0.8476673210722643  0.8365097246493348
  0.5040255522555099  0.3584508755154423  0.7887154444687627
  0.4349487055954369  0.5697332051137445  0.7166095998523044
  0.5040817443552749  0.3572838712577899  0.6452079949891009
  0.4301451543256223  0.2872824069382428  0.9986845357448342
  0.7254953317526439  0.8604170030700301  0.1432430110850204
  0.2801284075271472  0.5588860475294655  0.2764350829281971
  0.4269730379045825  0.2844918551780319  0.2874359540007116
  0.4336405744743877  0.4271536738019416  0.5740044845071678
  0.5011041096384057  0.3565077491427557  0.3571297161533365
  0.5007219844722662  0.3551239359783722  0.0704165936375541
  0.4287218044431491  0.2854861272631128  0.1440012790363854
  0.3722871562141900  0.1124078438719070  0.0947709418851168
  0.6427211056721458  0.7881251626421448  0.8006529581951158
  0.3890351378297305  0.8090203605276641  0.6389100758989017
  0.4162651171181116  0.6998234890009714  0.5912934886546437
  0.2689102717522619  0.8776317624644240  0.4403470428675173
  0.3733124847137816  0.7558781832942459  0.2412363773907562
  0.5784390247638507  0.8552470733019192  0.0081163740688763
  0.4364607389093793  0.6813514027575137  0.1585972592780862
  0.5717518137121026  0.5711477310788157  0.9972094757420450
  0.5114958226182665  0.7826535095976100  0.7992435864573079
  0.3561442387581608  0.6239543692740882  0.5127374151153139
  0.3849658053178975  0.6885578331007212  0.3345143798742358
  0.3838977927528243  0.8623599222919827  0.9489475090547301
  0.5121132228790443  0.6086056975844258  0.2062816479539761
  0.2734749360744876  0.1516124072770299  0.1419532813928909
  0.1155540684335451  0.0323142199341058  0.9880696529758588
  0.1965286096961321  0.9388864493868559  0.2313224344038833
  0.9214058745604519  0.9256819952732225  0.7825957042810889
  0.0715195285023887  0.3545827703167452  0.9239172815913135
  0.9987657385925451  0.4284127377466369  0.7129087633767155
  0.1417424056781672  0.4274294851883024  0.7136148158085217
  0.9989452415006623  0.2901833551684942  0.7124292191951355
  0.1396311344334261  0.5614546417790004  0.4271119203981715
  0.9999168126869679  0.2870056059653562  0.2869185689998653
  0.0696860653408418  0.3566188387458781  0.2122617177258232
  0.0685625413040768  0.3572943381329921  0.0713389563320397
  0.9975355510360965  0.1502077590122620  0.1430364064132842
  0.0689483050214881  0.2177751555957876  0.9213452867741720
  0.0010282882286955  0.4268916775679096  0.8531314540863252
  0.1280529380395361  0.0239628090388616  0.8642411111836805
  0.1451988258011313  0.2886597622013702  0.5721850596768950
  0.0600296055886327  0.9142106581583571  0.4651775715871555
  0.1497680287503571  0.8392220788598177  0.4268628031850701
  0.5045844460865015  0.4963153853047347  0.9296542669007997
  0.4348265828015934  0.5606677006805119  0.0008260719831567
  0.3884056058465526  0.7388493607671086  0.9665458806147936
  0.9999317064230233  0.0045226275326066  0.9980227527451155
  0.3076709905973248  0.8087789510408486  0.0221886171132350
  0.3316259103323021  0.8014450383116651  0.8680494017080554
  0.1412678763488557  0.7113136653132653  0.7099854873457878
  0.2258854613086211  0.9541607073626625  0.5500463758318299
  0.1288634898711602  0.6905651497693469  0.5458726640037380
  0.0700668151046381  0.2161589720070106  0.7807681906720334
  0.0677394799255694  0.4885001695425948  0.2090839163062098
  0.8621027863468301  0.4175802305393471  0.1467102367289320
  0.0015478895633028  0.5652143499066090  0.9991181021040978
  0.0876749858039935  0.1165003094615159  0.5951057167401288
  0.0687978575793064  0.2190057134165065  0.2146669965910740
  0.0712116380094048  0.3556454185780243  0.3580065259695382
  0.0616507037111987  0.9516318013645781  0.3519512664578251
  0.9726777982412042  0.8393642694276128  0.4257338637410781
  0.0002226751492394  0.8541378768887403  0.2916750565465888
  0.1315688700802035  0.8824005319395852  0.1521732788579830
  0.0769044282213373  0.9403540576068913  0.0676828502667825
  0.0837526867007720  0.9224297581439785  0.9427640471911990
  0.0046291618714416  0.7144237603229767  0.8611276368569863
  0.0666459663254903  0.4939075397203517  0.4965720924801666
  0.9984973398129450  0.4254994975209014  0.4280335808933768
  0.0002441137695111  0.4237039666021050  0.2866792410020495
  0.8547341493728462  0.1489132631128172  0.4296476019048510
  0.9280828170530203  0.2180001009272673  0.2136010267457139
  0.9276203298822697  0.3573827786070266  0.5000579643461814
  0.0037830459353507  0.1413928621334015  0.7021269562246035
  0.2182161023435934  0.0773926365488390  0.9358762162717279
  0.0544871752018973  0.0913431188958836  0.9162190670422751
  0.0893284684272699  0.0397677439599392  0.6739059068043350
  0.9216294443271643  0.7680486017144178  0.6353937159067294
  0.0563705877687640  0.9274231785025617  0.6469125438039518
  0.9984382017414317  0.7052801339324983  0.2780437161871516
  0.0580927321526124  0.0878892022355829  0.4908247947165757
  0.0647550089898111  0.0845071526131664  0.3565854164393602
  0.1262673885010817  0.0116403724755897  0.1557476954195459
  0.0621172363310140  0.0837873636160301  0.2188717363202893
  0.9942902234893685  0.0128466012991415  0.4294419689936052
  0.8615843684464369  0.1439770702933912  0.9983535141278149
  0.9339967641515563  0.7869595376842023  0.9476300866236798
  0.4959310123705716  0.4901162909157000  0.2127734182453391
  0.2986504345010654  0.8409944153470158  0.5574511710651570
  0.5771451440285312  0.5693515449392010  0.5719809309554594
  0.3577605323219620  0.3567487104517085  0.9266451017996665
  0.4333151770014973  0.7080044556112676  0.7201287619303108
  0.3615295716268564  0.3566514733164304  0.6454270197693114
  0.3584878697752091  0.4979187048348824  0.3553514611489432
  0.2869631680135724  0.2865854689204227  0.4310554866666998
  0.3587139527706485  0.4938740326269582  0.6471447578588633
  0.9303026930828926  0.0739531222860599  0.9239293082681780
  0.2575263531698800  0.6843034649386949  0.6990740007300427
  0.2121866842542423  0.3559712497270943  0.0690377641099717
  0.4590315374507680  0.8515933815782200  0.7219561486874988
  0.0012505251459154  0.2869433358164293  0.9973637558835887
  0.5088205054004192  0.2213618520163878  0.7925864277621133
  0.2846350200417010  0.4249802720042449  0.9979259640644560
  0.3621259426990208  0.2133084650053558  0.6472434112638749
  0.2870110801947129  0.4259101881810566  0.4291823208686161
  0.2034391863135188  0.6327015929832760  0.6207892934141853
  0.5055153943464195  0.2188515423095259  0.6440273850154217
  0.4315493292646533  0.5527680337688367  0.4419688155286358
  0.5080577439057917  0.0862042970065331  0.3586486449497260
  0.2894165856358000  0.5606962533727801  0.4300487321258640
  0.4761444444655720  0.0069301883896535  0.1855942424019896
  0.5898067879235941  0.5474975560215294  0.2623005871966020
  0.2163505900274168  0.7730844030456003  0.9353397391425998
  0.2036101536712497  0.6237728037196626  0.0681063563926798
  0.2114184698259073  0.4900517601467271  0.2095333060761951
  0.0712974561834776  0.4993015712917603  0.7836614678047801
  0.4432164899068003  0.1533652380050867  0.7239294976688181
  0.2860841674783555  0.4261839028593130  0.8569038953585892
  0.3559157081605461  0.2201868680695362  0.9244634065964650
  0.3562612319988075  0.3552499942745906  0.0694507518042296
  0.2770061026424339  0.6901228038494579  0.2913723037605653
  0.1891336697184283  0.9453603227603774  0.3683944052052097
  0.5805159223789618  0.8519664893944385  0.1458853831792899
  0.2685718132205667  0.7993768046070219  0.6780989705213037
  0.2803714944578432  0.1547975114026416  0.8546408371177743
  0.3382399251000380  0.8597793105760391  0.7570982026857372
  0.5032049010849085  0.9290859268417021  0.0911937732959065
  0.5021266833005259  0.2176476048452711  0.5018257983528560
  0.5014418718751039  0.2169211280963485  0.3576992576413701
  0.4230039981139719  0.1484328812569163  0.2928339902215942
  0.5023445659354085  0.2216818183613438  0.2166366911613935
  0.3840456160604289  0.9831154837366666  0.9569105593217463
  0.4378416973877524  0.1494074851670912  0.8623015562843401
  0.2973150908721994  0.0380375333109306  0.0241438814468979
  0.4479905394169961  0.0176011613472736  0.7214541682186060
  0.5104661203760056  0.0840256831671125  0.6475584482355710
  0.5759499184431494  0.1563103183132946  0.4304433032756195
  0.6428550547778040  0.9330037082378068  0.3569291877464492
  0.4665962400743556  0.7146384179869758  0.0487149414856798
  0.3704145765967637  0.6343697821514922  0.0660919212625288
  0.4290398688898971  0.4266990421783874  0.2874369258719806
  0.2826883615562924  0.2875233126970147  0.9972302781130284
  0.2895721896930041  0.2865882073742410  0.7150215771083113
  0.2938448034160598  0.1422160209188145  0.5732410883690494
  0.3534734727936182  0.2147116620865601  0.3609837265660307
  0.3563923999952778  0.3543485020919037  0.2155960548726741
  0.2944524879272711  0.7131295178588692  0.5693861205631829
  0.3587262728288358  0.4948476581207538  0.9280341737725682
  0.4291350018027908  0.4247582814828884  0.9985693214471988
  0.4324629037445590  0.4268800371911378  0.4291838263837957
  0.5776059849046744  0.2910845230954339  0.8623421423149361
  0.5056167549015198  0.3602444276915209  0.9316204185899356
  0.5758117410473708  0.4296834081788279  0.7166451965804042
  0.4322246059116035  0.5630730546444663  0.5804992044154342
  0.6478766667381951  0.0759208874795694  0.7943913550434697
  0.7167753344796207  0.8615915101207481  0.7254331558590488
  0.5200349989016371  0.8676644566067538  0.4590995823820050
  0.7205232657494138  0.1454582294779510  0.9995970099206869
  0.5815833120845968  0.1494194656074348  0.1373532011660849
  0.3320762129151179  0.7881755687417410  0.3711932898378813
  0.6475696410293441  0.2160269028560558  0.2137428063260330
  0.6470487155643062  0.2194712873696399  0.7921015690530678
  0.7159349028916560  0.2910838715929177  0.7163833817186498
  0.4316013181387994  0.2858710892614561  0.5735433689818740
  0.5735345054796995  0.2873217300449971  0.4286606390224202
  0.7891050549555555  0.3545750599219958  0.3580246986669020
  0.7198117577419063  0.2823888533986002  0.1419582383840746
  0.5725687112474244  0.2834331740075081  0.1415223579917748
  0.5857190078455878  0.7644515203946464  0.6198199138744220
  0.5751241342712550  0.2873366266138956  0.0027972780003793
  0.4852995349378838  0.9235945805458241  0.9445159865964960
  0.6458876457949556  0.2198223554897387  0.6455614523211641
  0.5759425980211026  0.1482909622557874  0.5719074313630959
  0.7161842147891515  0.2897324374079351  0.5728173153866362
  0.6448403810252756  0.2148176549463988  0.3547524955699096
  0.5721492972297429  0.1445401900806850  0.2775233479420795
  0.3920098514914243  0.8513905561442141  0.4534087132240139
  0.4644062837610224  0.8865944027553729  0.2085296173686966
  0.5161654969161564  0.9401483789327504  0.6512177162962837
  0.3953359776127348  0.9323300665724429  0.6602477545281266
  0.1408287633475144  0.6982369577397559  0.4217499709438168
  0.2594472255016517  0.0100720138009833  0.4415089285153680
  0.2976496298391246  0.9633069813100399  0.1779318649376522
  0.3785254168322406  0.8798181870702098  0.1162346190175163
  0.2864768889389304  0.6880819294603846  0.0017408739654267
  0.2669873504437442  0.8794590132157077  0.9383728683930715
  0.4301219471299964  0.1474386702332373  0.4292891600346001
  0.2803978401270339  0.5629231872312710  0.7167994658464206
  0.2868266778092667  0.4266600225545981  0.7163050116588066
  0.3599599985180957  0.4963117788785750  0.7882910045066309
  0.2862583412214220  0.4240205140031096  0.5735915403125024
  0.3606464167070027  0.3562326825838983  0.5015275333891013
  0.3581835768173000  0.3563581184556120  0.3586784358416728
  0.4395474559600986  0.0106538891545166  0.5833715386541228
  0.2874688734115264  0.9109906295863431  0.6550642913525033
  0.3599057642586989  0.2174112829822117  0.7873855097474340