 B Cr Fe 
 1.0000000000000000
    20.0899999999999999    0.0000000000000000    0.0000000000000000
     0.0000000000000000   20.0899999999999999    0.0000000000000000
     0.0000000000000000    0.0000000000000000   20.0899999999999999
 B   Cr  Fe 
  55 206 480
Direct
  0.2591258826665814  0.6736517674950470  0.1462630871951890
  0.6564930643008462  0.6151606754229157  0.5286264045405042
  0.1704550000526590  0.6919265797599997  0.6092528281268940
  0.0834521879659486  0.8562405841415343  0.4592632697505617
  0.3230255334883599  0.7836467842422987  0.4441309073107731
  0.3224824634245169  0.7214637513518681  0.5054187561590059
  0.7195259346548410  0.6856661076795881  0.7828223695382410
  0.6334197420109680  0.8524061227125116  0.3002504247922675
  0.1579036913565490  0.0611766216163917  0.1360370173566206
  0.4712514350163749  0.7451110342007893  0.3831234360621131
  0.9905654244274629  0.7899758632266609  0.6316455909906453
  0.1578317805619810  0.2102136941204366  0.6043373213692369
  0.1666133634183324  0.9986787010755241  0.0724482972752925
  0.2148964741350728  0.1446007821793022  0.6022263341853952
  0.4451692722962406  0.0542252613733958  0.4101738554765363
  0.7339554392375187  0.6575078874213474  0.6440779843481939
  0.9973244133303355  0.0649163913877649  0.7245544907749558
  0.7730931417439093  0.6878566303582536  0.7136386781852521
  0.5973018324317061  0.5136465884528388  0.2135961848249276
  0.5080037036385787  0.1551193394245650  0.9074558880641568
  0.4293509412397762  0.8370060197711000  0.6244305329866490
  0.3666049858976867  0.1286121165096641  0.6695395774123203
  0.5994069038278049  0.7479112570900478  0.6288520366540863
  0.5708070588167081  0.7865870414751095  0.0735456368208538
  0.7170394511014753  0.6139168908017232  0.1021612675393184
  0.0320879926078648  0.4454650766718406  0.1451415931966693
  0.6523609497158868  0.4575354915244226  0.3687457074427603
  0.4870794584336964  0.8937308725930866  0.3732502803653357
  0.0239595417978274  0.9413891610540781  0.2163932250691896
  0.0276370453240087  0.9309858793494804  0.8591270987607560
  0.5573805732151851  0.9351326286980615  0.1926119332405634
  0.2892331831253942  0.9625840586238522  0.6085987021148573
  0.4405127706853569  0.1299027077911550  0.3519456698920975
  0.0338198793248997  0.9960742221521696  0.9119007389357409
  0.6699139354409274  0.4441590889577219  0.0907499460081111
  0.1727794250705271  0.9318905962202271  0.0084805458051395
  0.0522260110329483  0.0010623590981239  0.7210310087483619
  0.0656515656609647  0.1506281484245242  0.4707627754852435
  0.8322913455890592  0.4517179532947110  0.0735970175339046
  0.8966029032322879  0.5867628159910191  0.7305711589214194
  0.4993580977004817  0.1286703031657425  0.2861341688889028
  0.2096381188512605  0.4113024153266415  0.5894673661260327
  0.1494117201543065  0.7995773256281024  0.4560810060009500
  0.9705054890021354  0.3843980913974188  0.1442380356766908
  0.8635171241262929  0.0413529236015380  0.6977442071992775
  0.8052477095813132  0.2040002334143123  0.1446900294198680
  0.4760403383356635  0.7503374243967782  0.2276293610242515
  0.3654001407224748  0.9920137984651302  0.2882168191533085
  0.5468919283659747  0.9325193358906266  0.5496306207086923
  0.7124606466736630  0.2119484191926286  0.8868022466444644
  0.3261527725913450  0.1805860649339132  0.7333679093994047
  0.9835525214396461  0.2369360004803563  0.2212316780453988
  0.2856018069366470  0.7964959523848038  0.2672251016309226
  0.4872239533299992  0.9017891625668915  0.0131113183447021
  0.4410118133940090  0.2090536879501781  0.8938469527752063
  0.0747800622762898  0.6413762148848178  0.6350378095203182
  0.9551097408915800  0.9779001748738551  0.6977303639819790
  0.0850886308627982  0.9071474491346485  0.9429983456975941
  0.2088279904106957  0.3578585426414132  0.0679845492866699
  0.7058968770492231  0.5918668313613125  0.7229668212876839
  0.5744846325912916  0.4392213568045706  0.7193540665899774
  0.6292954918428112  0.6413678001332239  0.6382867905367543
  0.5750372351109688  0.2857634006569872  0.1351843703422861
  0.9220212221120244  0.9365700886270740  0.3570641362118088
  0.6454539841666127  0.5037085559939113  0.5032723917774933
  0.7109522858540718  0.2918485168914177  0.7215883079387579
  0.0656589210795887  0.0828137971053503  0.3738344191340823
  0.8522071491839369  0.8558060839335456  0.5666213323103251
  0.8013365524995847  0.7890943870800209  0.2155210401156735
  0.0138904229319754  0.8400052937224581  0.5442104991032434
  0.9381078518808329  0.7832671597468572  0.9359700486624351
  0.0048462659466169  0.5697407930292021  0.8604918089795475
  0.5796381916635958  0.6008911471970202  0.4561708585676634
  0.9947814256128135  0.4308464126019849  0.7123903256622176
  0.1384542432035583  0.4208115844946573  0.2912979559959576
  0.1479587748507064  0.1447536543054248  0.6908092657375849
  0.5767012307852493  0.2848373307864134  0.2818398342257165
  0.9322733474481312  0.6347991420782072  0.9393250391477206
  0.0687943873388868  0.9133867430717636  0.7681997029218266
  0.0724063996864847  0.6370448638168577  0.9325921674756935
  0.5732298509996341  0.1456917532598296  0.7270541848122828
  0.1044322460076141  0.9051440125602004  0.2641228101062297
  0.4912708037130243  0.4983095089520902  0.2111061694491478
  0.8578364871837431  0.5454680319388129  0.0134355549877197
  0.7173961830600820  0.4424355089659573  0.8553803690794701
  0.3027124133873113  0.8943517382396632  0.3063565782729311
  0.3665849839729558  0.8127629013599982  0.5355157606853358
  0.8561106141596703  0.2790487448628851  0.2971433839264123
  0.7835314051117136  0.4923248948428964  0.6464133611350593
  0.9258351295144223  0.4900851917661426  0.3617994616142183
  0.6692707399418968  0.7830093048417601  0.0777319024616002
  0.9984789425180759  0.5631425150207324  0.0014889159387248
  0.9370276869397633  0.7843470631503749  0.0821388757650818
  0.9170167803885130  0.7803017741826822  0.3493039097001090
  0.2236426011252770  0.2191059762164518  0.5200355916986881
  0.5772026158413152  0.1569032000912090  0.4498668021796389
  0.1378316553399253  0.2896435267249157  0.9980741624321794
  0.1248713900985608  0.1215276573095875  0.5588435394245757
  0.6172783962233265  0.2051478589453909  0.9169928820314178
  0.8532142758100375  0.5607695632788925  0.5656436063494212
  0.8494839846988979  0.2864714411785664  0.4384635965550104
  0.5798644673924417  0.3071162857737748  0.8660491680624222
  0.2138107962877558  0.0751844787621881  0.9153590650835677
  0.0732750644225526  0.7771959809778648  0.2271288901496336
  0.8441799169483069  0.5685980189885440  0.4211406149702257
  0.2092693883470306  0.3560564880532403  0.2162617051762767
  0.5740931918428294  0.0202397894913103  0.2681530108907862
  0.0038483153541751  0.7097346191267869  0.5624605733099105
  0.6397951707844196  0.3571478762686075  0.5081714719004427
  0.1430759665869404  0.4278631093318563  0.8533155947091950
  0.6438880915898756  0.0815207716125484  0.5136362600122321
  0.9955525526680559  0.2895922623083056  0.7125074699383031
  0.1397467677646130  0.4258955622844919  0.4350985256212684
  0.1517306619902147  0.2877236093898387  0.4387957452870974
  0.1429543430000744  0.5667644306456245  0.4342492184963195
  0.8491259298821938  0.2902190837983492  0.5786023930560675
  0.4265192738121614  0.4243068091308798  0.2822177833734661
  0.9315701828210707  0.7729947925093980  0.7907182339310249
  0.1584099257327478  0.3131518511478327  0.5860231021867393
  0.2201224471805034  0.3588049781271997  0.4995611788108015
  0.6463270841151290  0.2159226091155271  0.7962206459394268
  0.0739013945706101  0.4959681301985372  0.0631476508889152
  0.2106187588806840  0.4954643149816909  0.0710076396728182
  0.1408401850985878  0.4256990159242057  0.0000167216857224
  0.9202183211300247  0.5079997002647060  0.6498117836828328
  0.9291777993168120  0.3587059808177152  0.7820813511252586
  0.0715105423011179  0.4939712982806607  0.3655676216388493
  0.9972366958705745  0.5708708289875228  0.5686534951634623
  0.9836344661175589  0.0029035368486864  0.4302276697412378
  0.1394797840375804  0.5666908834178708  0.7170926437379759
  0.0697562944799914  0.6365156359786990  0.4955865877373054
  0.5550041504184593  0.5801045258968064  0.2791610082210005
  0.2114851077974056  0.6424852176005649  0.5104741420488508
  0.2078037387424118  0.6336191800268243  0.0682015528835368
  0.6565415395084039  0.0813688504140180  0.2081044641909738
  0.9972458136414358  0.1559861823758532  0.5628635955199460
  0.0745477339019458  0.3519271022648542  0.3724428357557377
  0.2108671351496076  0.6259830406576884  0.3573076951367033
  0.3692626407420144  0.0622650540414761  0.4948963447868451
  0.9248761607604836  0.3586805871187140  0.6438645542568852
  0.4975822075819686  0.0526591437160049  0.9265728706198763
  0.1180749079998032  0.9747966215617738  0.1712350744501887
  0.8520101830311066  0.2912481500605811  0.7157042588380409
  0.1417326462700866  0.5677884325033546  0.5728397461292001
  0.2055205002084858  0.0836229326324708  0.2232247361571007
  0.8754541456811399  0.7040850912559543  0.7143216037340751
  0.9349752972354712  0.4976251973851021  0.9257255690468543
  0.0582455012874402  0.3648593334428926  0.0739849984050387
  0.9250536120793263  0.6223077516924584  0.2046659952392489
  0.0484312450832074  0.7577208597745254  0.4541328983343151
  0.9967560800856595  0.1536811719994130  0.2908736752381927
  0.9226082103017069  0.9211747605244456  0.4987935492583184
  0.8610581399899986  0.8346577442050858  0.7114868929346972
  0.0700369638265035  0.2183971144605909  0.0653124431071055
  0.6462354213988418  0.0695303447696571  0.3624998257325150
  0.9993742277168549  0.2788364234252234  0.4443073434091269
  0.6792534684547744  0.5889538661077403  0.1995522962485509
  0.0714547129220565  0.6316766051172620  0.2201531355362223
  0.7843142390109163  0.9360748798490058  0.5001310041422552
  0.8547894869267925  0.0083114262598561  0.2855026881858593
  0.6562117175624388  0.9307326164385498  0.2189054740732995
  0.8553344815749001  0.1367170128996653  0.8493933661402538
  0.2114191190128437  0.7790831826261183  0.7850764648149223
  0.1414684044301422  0.7078321625700814  0.8585453732851017
  0.7799293965519647  0.2206036340087531  0.6506012879685685
  0.1530895611225429  0.0076081581638572  0.7044156676802729
  0.1420404624747003  0.8417603900745693  0.1566363582864979
  0.8623516375923925  0.2814814460512580  0.9834096440097354
  0.4211110063388804  0.8415669773426283  0.4296889182146921
  0.5656946516201455  0.7168482604074214  0.8710356415087943
  0.4222067202260674  0.7155891632545894  0.8628248410742884
  0.2610001523201796  0.9988337803685534  0.9983403248297402
  0.8680101836268794  0.9960425824280110  0.9949572691577590
  0.3503667743867451  0.0699655358980883  0.2102087747902310
  0.1131491763436728  0.8273163028416967  0.3599599096525627
  0.2831746695915771  0.0013471269177585  0.8478147166957118
  0.2685913502329684  0.0150381211603012  0.2883485184687652
  0.2323933942284611  0.7976869850709862  0.3752223552539806
  0.7327151851713894  0.8699002224792679  0.2858301401012810
  0.8551999526153492  0.1459418211296554  0.2969759375614003
  0.3527939379115619  0.4984999326641604  0.0750453736521812
  0.4084258714923729  0.8857948955023400  0.1212027173099324
  0.5820690203478427  0.8599491173308438  0.0046135574500456
  0.9308112500226778  0.3339815321735882  0.2309620601282643
  0.4962285206488476  0.6439637901073849  0.6396579128673692
  0.7137485590088902  0.9834594436190982  0.7083638169992490
  0.4891708165235313  0.8491400074611528  0.1910661534536368
  0.7292520344956133  0.8628288711719699  0.1426664387788395
  0.2633319613801781  0.1103995682890983  0.6962529257743275
  0.7936605702461532  0.0833758526905452  0.2139592665426357
  0.4941266965758377  0.7694636539282284  0.4937175090479133
  0.6542291108685322  0.9150469872910970  0.5195201193597203
  0.5656579701476985  0.8158469864678858  0.3762525777803077
  0.6412325631248660  0.9441982293916157  0.3563785840733319
  0.6639811120095601  0.7569724130488129  0.3427413933265696
  0.3773063179269629  0.2281849850239396  0.8085148598187744
  0.6799896574274732  0.7321127336603988  0.6964982745211018
  0.5823755562281776  0.8333861404969355  0.7081850700419424
  0.7927553417344234  0.7829248152113951  0.9391647519647891
  0.4285696350687124  0.5678981659091383  0.5763786521711778
  0.2991060059987475  0.2951499080501698  0.5750822615406540
  0.4952461991544634  0.6454629986523631  0.7969619083099527
  0.4271595107974010  0.5741441739874580  0.8646787372454861
  0.2776703704119003  0.7133009059851430  0.9972706372705661
  0.3534840192124048  0.9230923243303276  0.7827609530630590
  0.7266865586530336  0.2768662543093138  0.1346396524853888
  0.4982063092640335  0.0774710175921179  0.6581290913134173
  0.3577799573707865  0.6420381491607957  0.7920717479972302
  0.6319870819471546  0.9252845645748614  0.6407710880517585
  0.6332915324467318  0.7914712187013162  0.4812032759843631
  0.5396967674059303  0.7030919507194313  0.3054067486839038
  0.4804149858814956  0.6430435915003144  0.2123906203213561
  0.2809052066905334  0.5598241223307836  0.2872231110450607
  0.7328043501779979  0.7107135340893037  0.1457233237294094
  0.7862288460349935  0.9409159078426446  0.3600262782571182
  0.2758888866924179  0.5637371440286388  0.1411959434293480
  0.2752217806150019  0.0001686895584889  0.4240122780392840
  0.4430429224038029  0.2922168759292251  0.7302089695793252
  0.5715997412637867  0.9896480880516730  0.8541619789301512
  0.7050322060771640  0.5580369603883095  0.4137337033710627
  0.4328025073109452  0.5730223719663656  0.7221162821322515
  0.3629581749405752  0.5016933756003676  0.7952772203675165
  0.4210817990643024  0.1485634981767868  0.1315282768960258
  0.7860977834102609  0.7696368863087930  0.7851008032356493
  0.5054484171005000  0.2215568004073320  0.6556893307516953
  0.5011518654406798  0.2164636075259111  0.0671466471093229
  0.4190901253138228  0.5608319162410026  0.4304166928110864
  0.7023692499119015  0.7123323916164969  0.5614159290799657
  0.7194389473114504  0.9881765667236759  0.8560204604975533
  0.7748669598163673  0.6331400276643090  0.4909079951092176
  0.5726718055411333  0.4324087218626029  0.1433700864296154
  0.4260455541777968  0.4332684048741470  0.0047024421788988
  0.7847417720274389  0.0722681478220295  0.5108466067371530
  0.8616281168978738  0.8678758947079191  0.2882051193850091
  0.5138247454562278  0.2174600220649126  0.8141874938492630
  0.4193103113617518  0.5702031137558743  0.1431944250851261
  0.7112158819492728  0.4307799871915427  0.5749420964421815
  0.3491448250601082  0.0787879774796504  0.3570046945805613
  0.4318007215689207  0.1475885459145980  0.9878223818759487
  0.2923988027671264  0.1418771464909212  0.8455687966953759
  0.2784172150564996  0.4260246730494051  0.1419924526186253
  0.4263606033178863  0.4280398909813109  0.1420414202448206
  0.7459724543487154  0.7584408206306223  0.4406225996766015
  0.3445106715029928  0.7844789567322238  0.9268687526532559
  0.3555192895497741  0.3637333012305882  0.9320349025904600
  0.2782365570167727  0.8523298151077469  0.1709033248572849
  0.8504010871395402  0.1393110823369043  0.4385200605552199
  0.2598234675473605  0.0147901429500293  0.1386250633579128
  0.7584040228516380  0.5186498991786374  0.1115206687338129
  0.3841974924036247  0.9644200516889648  0.3923887726805066
  0.3567354700468131  0.0714687646588411  0.7657875797413738
  0.3555334557843770  0.7857699880335610  0.3463301736375458
  0.5741166071199156  0.2903209048016113  0.5832221612899045
  0.5665227192418367  0.9904844028424847  0.0014270805833848
  0.4351809936773941  0.2853337763919095  0.4302232829299715
  0.7809708177704193  0.3596153710555013  0.6492591114890418
  0.7116043871483833  0.2907504737448119  0.5806647604617899
  0.5565752277390407  0.5891358017130103  0.1495702684464805
  0.7147211288649018  0.1425508847010122  0.2943966325279300
  0.7855820309353815  0.3474071318676811  0.2296677129522737
  0.8556838967057215  0.9939718465848967  0.5863566358927604
  0.9829085964957324  0.6861648871732636  0.2754033068280852
  0.0711989574668026  0.7773141107912847  0.0836995973178644
  0.0646929978528445  0.5022993208688503  0.6451725640140600
  0.0018574426499469  0.5758792400149725  0.7142884058655964
  0.0705229335601941  0.6415716368373763  0.7859040095400691
  0.3633014583807006  0.2149094288593323  0.3589448062731272
  0.0002926389412609  0.7051026442148636  0.1495678948990329
  0.0312954867696043  0.7613749219235240  0.3388916021059366
  0.9911402830086612  0.5674003637642260  0.4272135525073404
  0.5864834881846460  0.4407193561930464  0.0174320141695843
  0.9993847227590396  0.5580818813704874  0.2886006502626476
  0.0054480274710714  0.5581889908593842  0.1439373965535949
  0.2136747363901847  0.0854521692007353  0.3642605924021928
  0.2154734321346908  0.9389427025677312  0.2222268926992477
  0.0737472907358229  0.4964745981566328  0.9252837403341247
  0.0016728560645608  0.2860170549885339  0.8479318185159728
  0.0710995180337264  0.4976802755337733  0.7828436410777848
  0.9914254923258030  0.4325948755289882  0.5736126695764764
  0.9742116653409993  0.6866356079865177  0.4187362272690886
  0.0856704973746724  0.7754225977863712  0.6403655786652400
  0.9986776916885237  0.7118571924162554  0.7026258449811249
  0.0716694659625937  0.7710265127767850  0.7829266588047644
  0.2941710211467572  0.1513892118805796  0.4372474173860271
  0.1441670779173052  0.0178005599805614  0.4427253105956059
  0.1353447628711807  0.0186597508261720  0.2975066985736123
  0.1991537545634285  0.9325992502263332  0.3483365315507229
  0.2101865002598763  0.9100674606628454  0.0978499067943553
  0.5029583971516500  0.3546751405429058  0.3523166513962207
  0.3111410544087694  0.1415000921579560  0.5767240687063057
  0.2255859952331088  0.0437142918390482  0.6146158484320122
  0.5093103044851883  0.3688441755108013  0.7944308616083465
  0.4358428317242859  0.4346504885349826  0.7237536336383621
  0.5072143844011960  0.3625916345874086  0.6534426794737520
  0.5046711584879001  0.3570860735019602  0.2116258018666504
  0.4299881755192900  0.2871816619595147  0.1384561711513149
  0.4224058195677658  0.2935991181251787  0.0012368846058331
  0.5030390434174645  0.5060293770506716  0.7953544915483559
  0.5015037643297686  0.5063703909031856  0.9412716359746975
  0.5142357956049475  0.9373588186125187  0.0986546301991854
  0.4203604981416632  0.5670508809308150  0.2831967253507883
  0.4289869146394048  0.2855531698080283  0.2796768880008288
  0.5035894864845989  0.3584170284139593  0.5047531915275391
  0.4109812833598208  0.7060735580752593  0.5708067092264855
  0.4698476202683097  0.8099424416377925  0.3105358924263465
  0.4107066460490341  0.7022304419291914  0.2904458718114558
  0.4784425077756611  0.8090580568978842  0.0654283211810432
  0.4246058795265992  0.7313413304036978  0.1411665910558627
  0.4165685383093832  0.7210491193583732  0.0045585168748934
  0.4913181023405749  0.6473646461725627  0.9369560804602046
  0.4806863766177601  0.6395969701999329  0.5000245282560525
  0.3505064582557028  0.6256972267782577  0.3599732216174080
  0.3996713594527563  0.8612469206810625  0.9913493742426938
  0.4867503836604042  0.6493123917879151  0.0741809287837691
  0.2097946731875367  0.0900547219283038  0.0551017224779941
  0.0685952889101618  0.6324797547255275  0.0718711278046759
  0.0024330465883082  0.7088962490323956  0.0068381642100078
  0.1302287892686284  0.0166440439134417  0.9769434837198488
  0.1483195924292559  0.8344698463443180  0.0168461913453679
  0.0069959671002727  0.8366561268291740  0.8581742518623012
  0.0611105433484608  0.3588181248965255  0.6419994900308946
  0.9924244174695059  0.2865358432102112  0.5719342959700476
  0.0682982087173629  0.3549289257263906  0.5068012307013776
  0.0058637207102960  0.2817380903056023  0.3070140791388189
  0.0582702760918855  0.3579355560963733  0.2114451640527189
  0.9920972043277223  0.2813795578026139  0.1324743593694428
  0.0007773102370343  0.2855883582776706  0.9930847447637393
  0.0715679642737864  0.2188740814808186  0.9179240565805805
  0.0655525804055303  0.2228741410008107  0.6395935892755964
  0.9989262359474131  0.1475966642537628  0.8389223736239964
  0.9989928580711378  0.1603810654993054  0.7095708740986010
  0.2298907266996075  0.0823197449650376  0.5049170264170194
  0.1279659385657476  0.9968777386101929  0.5699831121589958
  0.5096045589797779  0.3723443224234843  0.9433601807841657
  0.4201016187602152  0.5753684576133169  0.0072276592590930
  0.4904215507027499  0.7933583131983536  0.9351026547081210
  0.4995528333239282  0.7821420324729891  0.7954697897960287
  0.4955724750557894  0.7669171474385094  0.6332487761230389
  0.2075844969393252  0.7810385538742414  0.9238525673563467
  0.1469800170082846  0.7049135340915110  0.7154188659792712
  0.2363896463901393  0.7806285188468163  0.5023335738470953
  0.1265635274738624  0.7377910857242123  0.5386356426393223
  0.0778046761336887  0.2188548463135154  0.7753239983940126
  0.0753648300485773  0.4921346254763846  0.2238741749208215
  0.9533013117987160  0.4694104069762838  0.2119464604078381
  0.0029759414320496  0.4230504670197497  0.9857443293227643
  0.0739362900988005  0.3556194093165421  0.9204547733898377
  0.0725670742405351  0.3581347033883364  0.7789091237961849
  0.0923615926075336  0.2328648344246504  0.5205017583145221
  0.0707035088116559  0.2119224987751983  0.3804060557234258
  0.0645978720512005  0.9230893172100286  0.6426120919702982
  0.0567239740261594  0.9401832705547456  0.4992963030151354
  0.9897737992009713  0.8606560776133672  0.4157158513169262
  0.9976122558251634  0.8694737745417153  0.2904580587516664
  0.0121340129860446  0.8628416169010518  0.1540301709759227
  0.0828817387421436  0.9274182158360291  0.0689770490104212
  0.0059637061925751  0.8502442703760181  0.0101938520015284
  0.0048425605229900  0.7090514324156657  0.8698806581507307
  0.0634596832210630  0.5022246069659791  0.4983627493348914
  0.9975122191957654  0.4239255407680173  0.4354237676803236
  0.0023877233907770  0.4173830166984185  0.3043160073262742
  0.9768000378961506  0.1387351417243800  0.4360835810338686
  0.9982405766168482  0.1512502182381759  0.1447795477948910
  0.0779127790133336  0.2208261310783055  0.2154011657544405
  0.0053147792251786  0.1439679937838494  0.9940996696774165
  0.0703930121992232  0.0883653924626124  0.9066656784895042
  0.0007375972383011  0.0145292857321720  0.8172098798582514
  0.0857799246112989  0.0882015633860130  0.7706480951792584
  0.9974387914526411  0.8400761172867206  0.7197956493067698
  0.0553720973388896  0.0662655755241352  0.6410046177349885
  0.7655738148112818  0.5860591577812042  0.2980630129155478
  0.0430544962881206  0.0596680464826094  0.5078359827884908
  0.0728743853972314  0.9420360091273017  0.3764208385756327
  0.0056921719190498  0.0072850163893631  0.2912689512494313
  0.0732122756966753  0.0850345015207096  0.2143573057277721
  0.0004852158745987  0.0065907190176465  0.1444781695597898
  0.0778301816200827  0.0733843219352537  0.0748024588893510
  0.0771000457355359  0.7793102559806079  0.9355206504984739
  0.4868287933575585  0.4944300233628570  0.3502642718144809
  0.3542921105692509  0.9459203079935184  0.5216858760644336
  0.5030172018178543  0.5014073970809311  0.4952955096096420
  0.2852262989765788  0.5690894331469257  0.8605394554215092
  0.2857156521096403  0.2932266052292369  0.8583108668440272
  0.4405554648751528  0.3068685591776188  0.8715906856181469
  0.3081231266637388  0.2888366575410140  0.7322293510575135
  0.3678850442778595  0.3647849934679696  0.7969357033432677
  0.3661437751501843  0.3578469932985185  0.5002736952552005
  0.3700578842488580  0.3598687939836152  0.6554978836432291
  0.3593718531505038  0.3542041001239473  0.3572125333975448
  0.2911790245317077  0.2853238462343944  0.4335859691073026
  0.3545588699429038  0.3569453148196681  0.2104445906393495
  0.2854214868146745  0.2868395228948919  0.2866896794903702
  0.3540472292723293  0.3597865445079490  0.0726128040226448
  0.3516113615757248  0.4941564522998256  0.2130319260484434
  0.2778726407576815  0.2897591732618166  0.1375668822738217
  0.2826175281646921  0.2912105737084400  0.9975563958332779
  0.2826215734940493  0.4295932899755772  0.0011969400522250
  0.3713805899362506  0.2280532307487539  0.6495342534814814
  0.4283287532484387  0.7090795619184879  0.7207544337770527
  0.2823565663112292  0.4227054044174999  0.2853137554621030
  0.3535375037740024  0.4921656299863346  0.3557547469364179
  0.5048424576424854  0.0782352489441296  0.5063987961729477
  0.2917520119139518  0.5647226404518843  0.7240981149142205
  0.5337480921159039  0.0961149815130679  0.3755745688440901
  0.3576262579226381  0.6347914410843550  0.6513106683660437
  0.4933807009201607  0.0848605108229730  0.1950301692491956
  0.5036382858313964  0.9169793439613942  0.7857073913064532
  0.3497525317280747  0.2208205088466153  0.9277171146029606
  0.3424434442901905  0.7935987492142416  0.0712120574932630
  0.3518129143650250  0.6435821313408006  0.9324465933594975
  0.4102925612213956  0.0125196401733808  0.1231641896693654
  0.3419231643773887  0.9441854419124386  0.2017575150697458
  0.3264440013753578  0.9349767829383613  0.0702950871767114
  0.2674742509840239  0.8587135419436629  0.9964548204541754
  0.3515709967570850  0.7808395511832558  0.7873326693216431
  0.3653722760089681  0.2229418847603033  0.5093343679815634
  0.2827939721723007  0.7069490403941627  0.7195244684056320
  0.3521352398682758  0.7790625327582203  0.6535611286238251
  0.2808059038291164  0.7011764135186076  0.5910757593833271
  0.2794906092246267  0.6987771380366127  0.2948587258401377
  0.3821885828244092  0.8224835123271631  0.2304005207307247
  0.3201559126850816  0.7405646442002685  0.1813720620020313
  0.2802934938204499  0.8541404995962282  0.7133397190774976
  0.4966713202360679  0.0620306686858223  0.7848953657479376
  0.2778636969323662  0.8549975221948863  0.8527632776577959
  0.3406229919619880  0.9325505905170349  0.9241184925976998
  0.4980533829466715  0.0716152772779746  0.0669531525752620
  0.5023950703523254  0.2199741378806913  0.5154599159405334
  0.5034799806233297  0.2157886257571854  0.3500264693188842
  0.4081212794525106  0.1531719321112551  0.2625014669348060
  0.5037013902870392  0.2136736543933513  0.2088257277890464
  0.3505750984981936  0.0617989527107993  0.9303679668713797
  0.4248115466549488  0.9883427339306993  0.0025361663127149
  0.4319919845654431  0.9868119360894861  0.7135480262165522
  0.4532841374039047  0.9969971045928475  0.5815197438169829
  0.4638877752578172  0.9690030610936738  0.4684081941257369
  0.4502069472165930  0.0395796104803172  0.3023708675033143
  0.2782587126021872  0.6943619160663077  0.4187629352304110
  0.4396207200400187  0.1594233885526900  0.7326647555868683
  0.4328490759849057  0.1415481126817012  0.5825188402798668
  0.2864174383514342  0.5616006517071577  0.5787294864700822
  0.5021109923900932  0.5033152722482654  0.6478137593450740
  0.4357959586884483  0.4301273330804973  0.5760890200558900
  0.5805079809185510  0.1185638464317772  0.8494755866906554
  0.5060507491977209  0.9105520352119388  0.6502045441753201
  0.5476217536783740  0.8847476395219349  0.4578316909388467
  0.5672681074742553  0.1339840838409203  0.9946038789813738
  0.5773684956498926  0.1464256625849086  0.1333835395277449
  0.4231045914268785  0.9119240307322783  0.2978760586471657
  0.6510378046436410  0.2182803827461739  0.2040427797735621
  0.6430799696409543  0.3714601689057667  0.7879373298620190
  0.6414998981647908  0.3635881541021392  0.6515401348384723
  0.4369743733623741  0.2937610878015884  0.5802450805571643
  0.5690357024816692  0.2845425537984315  0.4346163784052011
  0.6380792880391453  0.3507110476267184  0.3646796758198193
  0.6513364658482586  0.3473261318213017  0.2056117969614536
  0.6635491277080376  0.3488486311437028  0.0704301011311259
  0.4587326728284336  0.8790496038674124  0.5422780783725591
  0.5868392081597817  0.3022080418676510  0.0050129232906014
  0.6504023578557377  0.0536796260862595  0.7813511731586310
  0.6427926570521573  0.2176491184504725  0.6548789919894257
  0.5711811571977197  0.1467109981133914  0.5870857850387028
  0.6441477049480048  0.2195903111985756  0.5141034911612757
  0.6406610464987842  0.2118398298726311  0.3654884765088766
  0.5918324093087590  0.1494378012089836  0.2761021033394956
  0.5265924162451834  0.9816698753162024  0.3704588756864754
  0.4670193060522237  0.9698546699123025  0.2099731545986070
  0.5125542708257120  0.2446870733087895  0.9485777556123410
  0.4344734064329449  0.4355243687279216  0.8681170968708551
  0.4307241770073969  0.8456221243596608  0.7244857309739755
  0.2787087374646073  0.5607691302628209  0.4334546679633359
  0.3489264856040172  0.6244831328908499  0.5047148212649608
  0.2825284490985535  0.5695080936286198  0.0025572375833006
  0.3559590940930479  0.5017195541492248  0.9337206854276836
  0.2863019848271235  0.4313816236417911  0.8599494993472947
  0.4316523427553952  0.4249870326352088  0.4281220977423658
  0.1547970298808981  0.7044997564274682  0.4228003343653134
  0.3703893557181513  0.9133654196538369  0.6411089834419517
  0.2750978626749839  0.8628332434144244  0.5778913990913709
  0.2966735361372616  0.4323900776225981  0.7253645218768452
  0.3641552855119729  0.4993521638301245  0.6506368005356541
  0.3041680091255798  0.4260014340294281  0.5789587823491955
  0.3591720667690794  0.4943723248723127  0.5027347636011644
  0.2884039946595336  0.4253534794959107  0.4306691323318079
  0.3439705527060770  0.6518966480114734  0.0806473672107658
  0.3432617528101873  0.6314775439272416  0.2129156480081075
  0.4212701448297800  0.1221475177149211  0.8551754502282591