 B Cr Fe 
 1.0000000000000000
    20.0899999999999999    0.0000000000000000    0.0000000000000000
     0.0000000000000000   20.0899999999999999    0.0000000000000000
     0.0000000000000000    0.0000000000000000   20.0899999999999999
 B   Cr  Fe 
  55 206 480
Direct
  0.2916864697150024  0.6635367963479505  0.0819101714072450
  0.4724207072324524  0.8788495946293691  0.2932514741532872
  0.0562416379217637  0.7278692723924529  0.5073299826295723
  0.4437988676847061  0.1249924469746246  0.2314323770011706
  0.1970656737443479  0.7271259279078596  0.6495464812135923
  0.4948997086916957  0.4527977943864260  0.3554860050034259
  0.9465789379026813  0.9657740059738534  0.6262949350135012
  0.2466895661341879  0.8654517709120961  0.0049623323541029
  0.2004576256683076  0.1170591404491015  0.6348926980333950
  0.7937640731187985  0.5225757135409463  0.0375166623543789
  0.5263008743372013  0.8272276388486599  0.6395400227107406
  0.5466452307259896  0.8031511781701671  0.0835207219211803
  0.3425323125558674  0.9762898540037552  0.9341251687600931
  0.2986216733951069  0.0971539694670575  0.3539656004048919
  0.3641841087436765  0.1256813372865855  0.4875072358925908
  0.6079387794178855  0.8385337354192806  0.1462552622083607
  0.2877083075141035  0.0340828505237967  0.1022556015160564
  0.1525157214364876  0.7829564629782767  0.6993974094671906
  0.4127892721837190  0.8278995908202685  0.4158541788201871
  0.3219768001105345  0.9216720609992319  0.2625514264458125
  0.3293519494739893  0.7370217742218967  0.5010604222319174
  0.4184673319982553  0.6671398382578633  0.6950758526488278
  0.6494250441974115  0.5179411913052313  0.0337520588985328
  0.4088084521756603  0.9393376382771752  0.7749164439110598
  0.3730850129245270  0.9917053288556832  0.2579540638290855
  0.8649490588435779  0.8939083785943058  0.4116015369055619
  0.4260886785254761  0.0632707550447046  0.4944585794306963
  0.4721629050926114  0.0506671731218012  0.4189114848961005
  0.1678162852204318  0.7891053388882926  0.1340935283045113
  0.1847458597022573  0.8692708975864580  0.5072683022574022
  0.2558795410833413  0.8999254318334681  0.7398391730102849
  0.7922892618047219  0.4628825840633182  0.0972302058976634
  0.5201355109083672  0.9379161968059521  0.2400231786322871
  0.0493391961449341  0.7931611870539275  0.4379865306808261
  0.3276202266239333  0.9655080486479151  0.4673090541509279
  0.0082594139887206  0.8049953641747891  0.7067496521224728
  0.3509222731696927  0.8834919399619182  0.4589891982486874
  0.3008519099224208  0.8753308438531554  0.9334681415615143
  0.5230906261911675  0.9448806217391249  0.5333934185937732
  0.4250672842114013  0.5528325189866853  0.4685658942230374
  0.6363672319912574  0.8443687194172652  0.3032503511231465
  0.2097912420584801  0.2231676279506138  0.0753684856995491
  0.3380080521928519  0.9905332258752539  0.6178794628059145
  0.3233317404247395  0.6220391065094999  0.3404954610305428
  0.5328128305225877  0.0981584623890945  0.2164553747802520
  0.3014581717974503  0.7747642733750041  0.7922942308572550
  0.4327108753927667  0.1811818572406216  0.2950689890997816
  0.1525722818851979  0.0518616300479191  0.4220389602500605
  0.2987153398072190  0.7800755867966285  0.3030725717649907
  0.6504328756977242  0.4563081513681244  0.0928171624827076
  0.4438890581614586  0.8069811548107222  0.2525396357127094
  0.4544840764258817  0.8905633125111116  0.3772126872940637
  0.3551857619508414  0.7239122352797615  0.6645625806065034
  0.0474278251749499  0.8572273206159724  0.3710170251831098
  0.6697021224207024  0.6147425388673077  0.5123916018146397
  0.0674467335883303  0.6341867452620190  0.7926329203168253
  0.9963638777165186  0.7006506040251891  0.4215174437373358
  0.2054998180446559  0.0877164711975600  0.9322982441567726
  0.4959618523977009  0.0988180045409753  0.3260953396179412
  0.7887995647751513  0.5022879036923662  0.9269022540577753
  0.4295582087067971  0.4215805482697551  0.1430017938929908
  0.8607117016071413  0.8541302829663492  0.8614928909745249
  0.5090645265439052  0.2185435685924175  0.9276710961384232
  0.0035642639586385  0.8767478548643969  0.5849195933178141
  0.0741968867243042  0.7763546356531517  0.7831824673748905
  0.1387935180575099  0.9658687191030597  0.4721293898873559
  0.2033716464552436  0.7629122129254156  0.3523629293248062
  0.0387259701716996  0.8987046117926595  0.4682117863617927
  0.8590167100201064  0.7114834189149154  0.0030135036440337
  0.0088198247870033  0.9963200146665834  0.8595187477161292
  0.5723551219712996  0.5714144756098466  0.9915794348396890
  0.7188106306571979  0.5788253509114838  0.9885488156723942
  0.6460682596104689  0.4979556723377759  0.6457983526766014
  0.8560019397456026  0.5685743250368028  0.5713582869420302
  0.2240498204036814  0.7580484285851410  0.0500773032877211
  0.9208054286234184  0.6339277050097364  0.2094493331535892
  0.5480143914626970  0.8273170319613429  0.2385582651692174
  0.2913545140030616  0.4225787131507763  0.2835160616692973
  0.6464163220622429  0.4957673484158370  0.3609178226427869
  0.0692000518379231  0.0804159828100364  0.2082580991300402
  0.9976275676720228  0.4254855714106376  0.8579674921601488
  0.0587416959710004  0.9699885258151060  0.6581623956544096
  0.4954101391543224  0.4900754999451845  0.0727591579715196
  0.7158972704792353  0.4269231209898518  0.4295246044116770
  0.5800852988779875  0.4349375951319727  0.0083047538901778
  0.2559869616133896  0.8508734147924388  0.1112945436665393
  0.4104201837739271  0.7034167110904421  0.5765531919703734
  0.8584402737205138  0.1442440152691310  0.1416795757490760
  0.1330281898336637  0.8743973574283994  0.8652204277699445
  0.7185536368410980  0.2839592345710451  0.1451544252955414
  0.3574184228216620  0.7509349046735709  0.0991297495489610
  0.0702994366488725  0.6269903072442526  0.2063597308854419
  0.2032345194463805  0.7954292185834934  0.2343403750905845
  0.5564627639694526  0.9049673193813078  0.3431780663732420
  0.1380348841025943  0.1526947720328260  0.8606939716928731
  0.0686662523687065  0.6278995550917750  0.6407447366058140
  0.5796102297175604  0.1452884523575957  0.9965776150477044
  0.9262611186824330  0.4962146896685691  0.3539981572994180
  0.5029381013590860  0.3487855688913894  0.3581457280565842
  0.7188284807396504  0.2853498988163913  0.5714570999240539
  0.2125853552749260  0.2192831745480245  0.7875343788273562
  0.7864908710852373  0.6392269339522634  0.0689702721607794
  0.4303232822074400  0.0017147144140949  0.8595726833492278
  0.2164422485082675  0.4946966530642955  0.9311916636755510
  0.7903669494860915  0.2148245219832501  0.5018149222135390
  0.5804880018987699  0.7132776557237162  0.0051498309014137
  0.1301609683950074  0.7084682041907469  0.4306389640683221
  0.0017538820508918  0.8546611769521806  0.1450247809505473
  0.4468807956136922  0.1323083146108932  0.1312226757042552
  0.0694620901946230  0.4923289344907002  0.0689938029395814
  0.6503096265952323  0.0694411154495906  0.4973965797218252
  0.0685906990428004  0.2201758321207206  0.9303198263009925
  0.4678854847661099  0.5366317125845951  0.2917108275751474
  0.1428468254416268  0.4233951825813089  0.2820668894241140
  0.9259178847773455  0.6350115640818502  0.3491871829208796
  0.0014931774800245  0.1481085060979404  0.5702891202118732
  0.1384422046026456  0.5573275989596884  0.1368247027530399
  0.8593562129881347  0.0022227669256732  0.8618274016400296
  0.0664372555844550  0.2213036309233336  0.6457376467950008
  0.0742452789283170  0.7848697358213690  0.0748548886213848
  0.6498253220384829  0.0736746952735038  0.9296767328876496
  0.1399840700763635  0.5622420845081836  0.9965891951281634
  0.2854498792241061  0.5629274050908131  0.8596743458435805
  0.2156283115675315  0.3496431859874575  0.0720758680590279
  0.8583146481682624  0.5713298041583506  0.8580175704172731
  0.9266448508166374  0.2162413423245347  0.7904018537453628
  0.1426020452144157  0.4243075005976962  0.5708423350250501
  0.9967894202313016  0.5647194187196896  0.4224390067217795
  0.2122492942556274  0.3570329090366177  0.6447599409564814
  0.6474256147280449  0.6413700219971908  0.3495889093876349
  0.8571959994413410  0.1454911512672068  0.8612868590967730
  0.8593796486539048  0.1465187760786527  0.4283517670111981
  0.2916749639284528  0.6901904934106435  0.4114966195884668
  0.1859801913016677  0.9607070896998076  0.3577315251221001
  0.0737248002524017  0.2165954403857412  0.3534468111122903
  0.6381209297966940  0.9265433491197954  0.0802883811400886
  0.0008929702738447  0.8532526819501900  0.0055301485616077
  0.9967633001190224  0.4260058630159779  0.0019627715793055
  0.2136961737535686  0.2183910750134527  0.2051671785137724
  0.0015829463608289  0.6999054297383807  0.7141938834609779
  0.9356750694541940  0.7898365509959072  0.7836045455029067
  0.0342767245810454  0.8897753714181723  0.7750595086500703
  0.9981079645538971  0.4251356648121878  0.1416812949279527
  0.0779503516952061  0.7840826878163804  0.2097534301048917
  0.3332125840304403  0.6404715789397125  0.1760886083032641
  0.0658212422509969  0.6253546033827017  0.4958696228819525
  0.4589787985764048  0.9841124308054376  0.3324274860926414
  0.1444065431035736  0.1571475945814274  0.4289753184759785
  0.8045672391183357  0.9316718060230409  0.5014539511829214
  0.5109183675861008  0.0794134468462325  0.7931234902404987
  0.9288543418444211  0.3558655338715275  0.0714640842762358
  0.3502709454620365  0.0741587160331462  0.1847720719087204
  0.9267712898677980  0.3595969162229982  0.7894469573639247
  0.8634202792610971  0.0049305840364431  0.4274338821570664
  0.0700645881985242  0.6331710071560404  0.3542348316022923
  0.1427803506336021  0.4226614225421123  0.9989438627740733
  0.7812736022059299  0.6506651614019670  0.3654907627446272
  0.7861226849004394  0.3620928516797161  0.9326356702491693
  0.9670523047072457  0.7920753076950318  0.5174191794046474
  0.5070774529020786  0.4943319015029984  0.9269870109686201
  0.5097041721272584  0.0718088814124137  0.0575828643377016
  0.6474168833516730  0.3591208810948763  0.7864465224207612
  0.0665656525095743  0.7597717104355142  0.6264993035074023
  0.0755517449247696  0.7879901095570027  0.9324006489182676
  0.8624165457892433  0.1444378429186542  0.7173747343610656
  0.0704951874314065  0.0812498552914178  0.7902212340705753
  0.9299481208428000  0.7798173599099982  0.2106956484167657
  0.0691781814690261  0.0787448545033475  0.0677409616904973
  0.3463297939274012  0.9425340987601329  0.3666604618724364
  0.2737453220347912  0.6900602627099940  0.7253733034917935
  0.1440890491405346  0.8590717743285847  0.0133905879717787
  0.3870112723615990  0.8760899715918782  0.1097015567315712
  0.2391624938813121  0.9546522349778968  0.5467126215658262
  0.2657850860495830  0.7985120555998085  0.6932053604126481
  0.9989779921330053  0.1481087649850845  0.8600617538367942
  0.5609833688237162  0.0084535123090903  0.1476452318922883
  0.7184542792139894  0.8603230944920971  0.1460026310695585
  0.6547270949673193  0.0783093464509892  0.6471452104213143
  0.6441033991178334  0.6445239233080032  0.9265773289257399
  0.3265957301584380  0.9381718481415182  0.0382255494141837
  0.4266234463500571  0.0128964399242265  0.9890985167417816
  0.5836731220629300  0.7089445123124123  0.7248580855905015
  0.9307225402588517  0.4939139445742365  0.0701357753590400
  0.7657176287806425  0.7507309974106623  0.4583255991950459
  0.5161460207765576  0.0784829098210714  0.6435065838192846
  0.2131043481590911  0.6331929978782557  0.9306141981325959
  0.2789084830925737  0.5608231123076959  0.2707477962311117
  0.4025740944688246  0.9307428779033322  0.6683695742613324
  0.1887488356088687  0.8241712659085745  0.6052651090899388
  0.1425634878091810  0.1478017804791016  0.2715673766078824
  0.5856813783369901  0.8706507668133582  0.5733852534115916
  0.7791646207097915  0.9193247300146237  0.6386569342264450
  0.4907609691761680  0.7905914611242987  0.3531068704081910
  0.4414150858796475  0.9554984457900326  0.4624090308939671
  0.6569306978235194  0.0708457947316862  0.3580474053800526
  0.5765494472334505  0.4284557905005827  0.7155536279313852
  0.3626226889679616  0.0896133797709735  0.9294374898637350
  0.5800618400850738  0.8582683754657562  0.8560275181789296
  0.8595121038253117  0.8572715143326634  0.0047423406623614
  0.4941210184256731  0.6485256676927943  0.7715254584414307
  0.1416407732864351  0.4243673091170249  0.7167859917311514
  0.1377457592678955  0.1565800085296477  0.7172274039931615
  0.5079522383450481  0.7625436209636215  0.5492338669223649
  0.5125021504642384  0.6426922027898173  0.6306725554155730
  0.7849258920369506  0.4940280633168791  0.2134366778057286
  0.7950747692671633  0.0724122774272097  0.7893082863092186
  0.7116963600554472  0.7647841787735918  0.3414361493682273
  0.9313634620039751  0.9261451170831669  0.0721310114101397
  0.2189379215445765  0.9382785940171048  0.9311120058131261
  0.7903600347328887  0.2130585081097557  0.3584037030523658
  0.7928989414129176  0.9408850707741765  0.3544473523932086
  0.2865807041519300  0.8333782268133536  0.5411638213544605
  0.6471141219973993  0.6357796117693870  0.0685721598487666
  0.7140296358537589  0.7195504866826274  0.7100006263766967
  0.8709904144527929  0.8645848612493070  0.2864569491477075
  0.3610575804414824  0.3572673366926766  0.7849450850912980
  0.5713432374374821  0.4265877008736157  0.2876482496467556
  0.2888754279780534  0.2798416509114749  0.1385292535765686
  0.7901902233324336  0.0707040136073501  0.9303931058009671
  0.5195909783448547  0.9346498162500670  0.7834627191031170
  0.4324798085999817  0.5631438481478270  0.7104592803668580
  0.7882784874125006  0.5003349372881297  0.7875281425683472
  0.5825181113383887  0.1425354343765923  0.5717386606163913
  0.3887157104331838  0.7210553294005089  0.3344003191145086
  0.8558337473150589  0.7229957169966608  0.5618700785759322
  0.2880418310276007  0.1484159061930482  0.5751944588913408
  0.9500782349937678  0.8258789748250615  0.4029997249660328
  0.2112880084359774  0.9289884371630069  0.2172872209827488
  0.5240722568517093  0.6071872676093585  0.1990201561642967
  0.8536120582002766  0.8567051432153621  0.7208780750545754
  0.8533631763250566  0.5556404757573579  0.1308093474517586
  0.2174286854853284  0.7676682607808676  0.4825611209352067
  0.7215785452402445  0.0031419057414239  0.8599671253500671
  0.4011172137321590  0.7324239767288244  0.9688171516316250
  0.3614295193646765  0.2147681276891118  0.7850968297810539
  0.3592414465654361  0.3537642215328174  0.9304309523264973
  0.3692836937670118  0.7438729666278296  0.2235294731226663
  0.5993825343259711  0.0005559839403600  0.5812139598920175
  0.6041330821623366  0.6790593318384571  0.2442967871525689
  0.6310101029858539  0.9195630171466964  0.2204972218892321
  0.2781147576031933  0.1577797383589918  0.0048479905501498
  0.7210794563562145  0.4413059642182055  0.0122604000953614
  0.6458955217983682  0.7953096551052894  0.5098992599952175
  0.5119689053222481  0.6182939712835266  0.0763121464189180
  0.3592460982977524  0.4913182946782823  0.0686208846835488
  0.2139912201064030  0.9530877697889932  0.0755542491953773
  0.6498760478721448  0.2148382674141824  0.2129965109561404
  0.3557650648696979  0.1973682361510111  0.3645098271669083
  0.8547527063114981  0.4288138714384889  0.8594715387537232
  0.8525036527372922  0.5683780724770904  0.2845954936772478
  0.3595943621300832  0.3528472348060820  0.3572799758417464
  0.5800074466459113  0.5666404410159859  0.5715474280388999
  0.4309472413757196  0.2851230771428233  0.4279881227816689
  0.5812499731768850  0.0022302830089887  0.9956863207221367
  0.4306997739756347  0.4255009858225218  0.5743829003033030
  0.9244940395871216  0.6309975369599037  0.4973200298291697
  0.6067811995727755  0.9360239051538984  0.4658714395857637
  0.2877851377632427  0.5678724522766994  0.0018097909438193
  0.7158624045958386  0.4259052000676482  0.2872758398618013
  0.1433311683609562  0.2861243712086882  0.1394851482881023
  0.7912618012766123  0.9303881868814724  0.7922617182389954
  0.7865091441159470  0.6385116535535561  0.5012617510540952
  0.8408451357615193  0.6989335159338614  0.2771557955447741
  0.9979301268512860  0.5637652775790948  0.2820174348791165
  0.0018838567846899  0.7132488616801732  0.0031655044064729
  0.0680359643958738  0.6333726824156597  0.0684590151177188
  0.1029505513495689  0.8100453758506824  0.5222462635452644
  0.9899709615498261  0.6901460402011034  0.5723669785235651
  0.2770759573653598  0.1429208485377090  0.4403896161788442
  0.8586784314674157  0.2857494435224730  0.1438368360473075
  0.8569775753656511  0.5691161349446890  0.7173239313527561
  0.0014982097886394  0.7083938060027957  0.1417502984321212
  0.9276582206069369  0.6408457380417408  0.0718205667053469
  0.1419347965108384  0.0144285869439108  0.2680443063712670
  0.7181632430652430  0.5654426456908510  0.2879807247007136
  0.9271451216917945  0.4960086915601556  0.9280354814694728
  0.5084778075288433  0.2190929655518868  0.7874284593525872
  0.9976605798957691  0.5663577844774950  0.8598091086821270
  0.9283508520749052  0.3572354534033261  0.6439700087608332
  0.9227693541724727  0.6355944803441198  0.6454831769251478
  0.3519392103096900  0.6321472697067874  0.5040896412144639
  0.8634641124965412  0.7156964290161320  0.8570631047311118
  0.9275164448271048  0.4975742318929813  0.7887830678848414
  0.0749846007529726  0.0802231376865916  0.3541329586974535
  0.3698535209031152  0.0530923331058842  0.4119612768491986
  0.0012301995542651  0.1470124569964434  0.2835035571972159
  0.4055143715251907  0.8960529226676766  0.9487418759214699
  0.2224621397403232  0.0616485133247680  0.1885153395401576
  0.2080512348394985  0.6232888724377614  0.2012330523224467
  0.2804570736676877  0.5606182482241492  0.5702100626802504
  0.6200263642113102  0.8257017518408750  0.4061200786660359
  0.5052624977547644  0.3578738240376449  0.7860233254253826
  0.6474170324490630  0.6379047869953373  0.6444268829386203
  0.5052007778526620  0.3569329908882200  0.6440359597389453
  0.3658444050702028  0.2023852604514635  0.2129489185533495
  0.7168939152110221  0.4282954403164496  0.5729331157451928
  0.6456448844520900  0.3567643604888231  0.3589337078887264
  0.5106619899632041  0.4879546771330672  0.2013602731828018
  0.4336584947317284  0.2796912339932060  0.1439095842150254
  0.3646114653843902  0.0876878049879781  0.0615172216505412
  0.3603609276713700  0.4955697224834106  0.7870495283343436
  0.4347688684379086  0.2857892926908121  0.9982370526178038
  0.7193230491640268  0.0032233191917300  0.2763551861721348
  0.0145055939517228  0.0003372059013513  0.5536143239228737
  0.1419220818097017  0.8480540870969743  0.4111180889120448
  0.5697095014487713  0.5746839676752979  0.8557242434670274
  0.4362747054673886  0.5538936369823341  0.9950514683731302
  0.2844050978840188  0.5567757196593019  0.1293997058782273
  0.6498566229087029  0.7818317954454821  0.7959337765486899
  0.3739645196215051  0.8160067851106941  0.6329101441857314
  0.4279380226165648  0.7236862973006961  0.4455029976792989
  0.2497320380304517  0.8977255202801803  0.4373123563979086
  0.4015947310683774  0.6239571122188137  0.2644808298934681
  0.5772573726826825  0.8579208905096669  0.9973654458883779
  0.4421570375844138  0.6767888820854994  0.1530223001864471
  0.5914013347885922  0.5363337923834400  0.1161328873259060
  0.5010780062487621  0.7916238129222859  0.9249901157783113
  0.1369634791148808  0.0058184160678575  0.0003563087692153
  0.0708950807108615  0.4938970788149094  0.3535916152830818
  0.0653948064568437  0.6337640917756518  0.9321857499536352
  0.1461944851747313  0.6995399360060621  0.5627985073316344
  0.0679486699913967  0.2204596908698657  0.7894374730441904
  0.0698582431869299  0.4916807874057050  0.2106691510345544
  0.7202725801449327  0.4149197170983395  0.1502176224245609
  0.0671402443410862  0.4924510610849513  0.9304065574218512
  0.0689015367523374  0.3562479572331761  0.9306612887900428
  0.9989015951659116  0.5655288402217952  0.7159527248841254
  0.2140813703169496  0.4929451836137391  0.4971128037598140
  0.9965393769727090  0.2883998862991391  0.7182479789495292
  0.1413740127307454  0.5625904254296705  0.4261695305112330
  0.0007261403065812  0.2855487137458328  0.2852021594676262
  0.9304270723131457  0.3537117665079562  0.2168674388873689
  0.9970104292716039  0.2874549241814476  0.9993906082946091
  0.9987509479405422  0.1471935169565020  0.1398977786990585
  0.1407551965511822  0.2891192253359021  0.8581976579017950
  0.0689318982381500  0.3572431724735736  0.7880514323826050
  0.2138750527846509  0.9630781041039835  0.8032448643559553
  0.1408011132328914  0.2885348190473868  0.5732110897976276
  0.0688956860429843  0.9281151385028065  0.9412473855316581
  0.3314714780537757  0.0426002173961603  0.5317829354847083
  0.3642066597768235  0.0857858879795880  0.7895838408009436
  0.0643613958692542  0.9352178454257121  0.2164092539319195
  0.2540091949207257  0.8710573695337418  0.3194726611397570
  0.9992776201526709  0.0040684518494295  0.0016426095882094
  0.3329199396281851  0.8159296496698899  0.0083929895977029
  0.4438261818617483  0.8628410071862463  0.8382171672353138
  0.1335218159534149  0.6865620469063417  0.7167795825166855
  0.1654779719580153  0.0460609444801333  0.7063578538484302
  0.1333973698132413  0.1567697890498619  0.5735797431245006
  0.0618190003921890  0.0870233159508756  0.6491767729909054
  0.0699698917619757  0.2184984902806323  0.2107055450585825
  0.2005079095466391  0.0892760399563194  0.3446694026407783
  0.7896059779775788  0.6449572443690611  0.6424344930060542
  0.9998149482522002  0.8559957557363336  0.2810206984901059
  0.1370620078095517  0.8784020897663823  0.1476563961846985
  0.0661443260148381  0.9312855588398076  0.0705828963680162
  0.3350989784815388  0.9267256321893870  0.8475290690208932
  0.0024336747248795  0.7149110946155940  0.8594817452335328
  0.0696135360171645  0.4931283190491577  0.4973718204321160
  0.0709739218823629  0.3565772725489902  0.4983401397737480
  0.9964926897798998  0.5644931411557534  0.1401637647597743
  0.8616869680187751  0.1448158468253009  0.5729359776729249
  0.9287363677271090  0.2152422486063898  0.2138925932484296
  0.0722396681469522  0.3555204986211146  0.3545004919220445
  0.8577001623525828  0.4263194475505186  0.4276085673878950
  0.1354765878404016  0.0106095699320187  0.8743854517557615
  0.0668930923560379  0.0826421563462749  0.9328159748182190
  0.1153364293068518  0.9151106723558823  0.5705153558641090
  0.8578021228772755  0.4275046117782190  0.7170022048357301
  0.1036417888323188  0.9686998221208760  0.7699312509380356
  0.4613060457919856  0.7920318949606971  0.1527278706164705
  0.0802372352828143  0.0819529935755334  0.4933829809847859
  0.0018840827185706  0.0104801876114531  0.2821525979790747
  0.1293631754732407  0.0060280648135740  0.1401497009466713
  0.9991513907869088  0.0051601102607441  0.1400071576724609
  0.0054304723123242  0.0111490358781611  0.4300459793293691
  0.8579342256213806  0.1436361986220434  0.0001209220503595
  0.9234146294627017  0.9278926102435940  0.8017080086221006
  0.5024455547681796  0.3496151369029921  0.2164570835604749
  0.2560991905113358  0.7290216447121862  0.1592387583986255
  0.7215222238762948  0.5646649131558699  0.5781889344817113
  0.1966696780556848  0.7562776664020058  0.7976815056685722
  0.3560635406689736  0.4939355651888154  0.6441834930476833
  0.2130687774746930  0.4892861021707470  0.2081426518252375
  0.2914954464894595  0.6983604618634912  0.8590984598671393
  0.2880825144724931  0.4236439505949580  0.8581142005317908
  0.4626282884617313  0.8519991711021554  0.7162648821705475
  0.5033933502577564  0.3537749639920100  0.0716933689505921
  0.4337028743673917  0.2859897933208945  0.7154552609530793
  0.3598399457077257  0.3555672159787781  0.6447689559113772
  0.4406159668140305  0.1487072654661641  0.7179392249216898
  0.2879354173313705  0.2834980369517354  0.4271420239014546
  0.2098926511131398  0.6255496938682575  0.6425623133246317
  0.4064763407903413  0.6153964157265993  0.3939244538821553
  0.9309722222184477  0.0717517425916941  0.9289053791589635
  0.1446437721777920  0.2852438678693320  0.0017616538516542
  0.2861782179256210  0.5627919910651148  0.4238455625256711
  0.9958077055579581  0.2886384203728225  0.8596198225445235
  0.5920361103293510  0.5937025187548916  0.4424107480137990
  0.3616304930739248  0.2133782351356234  0.6456612079281667
  0.2013763960601776  0.6304069503557138  0.0668233926044836
  0.2148585926202058  0.4927060371052497  0.3520019853937627
  0.0685471176993351  0.4941050211935567  0.7891675127874390
  0.3690430447187125  0.0791376856310680  0.6541974440191299
  0.3579835387782431  0.4939339934118524  0.9279888739559088
  0.3801270383710543  0.0873129496228370  0.2973709753397007
  0.3607951256531359  0.3515687682548562  0.0709226508900531
  0.5039754108764066  0.4971231559282597  0.5094296946299419
  0.4635308262626333  0.0271132096359608  0.2223210469232833
  0.4365417253039284  0.5660510956307793  0.8563878469948112
  0.2879531422178407  0.4226508996309025  0.0001393333517297
  0.6460438691768871  0.0698825725778437  0.0708839884333202
  0.8789495846571453  0.8729207745775776  0.5930581283096718
  0.2875852193178816  0.1550018241066686  0.8589280096535711
  0.3475685525678573  0.8608754416304920  0.7514933437337048
  0.4970035498000153  0.9433754953787851  0.0424759428381822
  0.5093490867459644  0.2180912734197818  0.5044870871958138
  0.3603088542683720  0.3559652541750758  0.5002201778276890
  0.1420767741120283  0.1579276934197600  0.0030918750131748
  0.5051693350840714  0.2073122886074808  0.2199050822846462
  0.5089803160817410  0.0741123723740581  0.9251307401827445
  0.2799415938689311  0.0309682905321762  0.9941094193209532
  0.4477672665895420  0.0189380644733399  0.7250364945984419
  0.3437344642038506  0.6238788694746665  0.6448934596101604
  0.4448514027670765  0.0047904404227941  0.5846101680149909
  0.5771851316997477  0.2861006139366727  0.4307335410178578
  0.5913964446429912  0.1469786931171929  0.2901955939217205
  0.4776045233274546  0.7229113228060360  0.0505536565811148
  0.2931542945721714  0.6976722731422103  0.9871437310687775
  0.4278636023067418  0.2832452630310983  0.2891006570277308
  0.2017341221630945  0.0795525954197180  0.0673448905000366
  0.2875331343386379  0.2854216586320319  0.7166880771651271
  0.4338235638282162  0.1396610006038859  0.5708441098653790
  0.3607555366993487  0.2226255080384432  0.5015577721755941
  0.3608350890378555  0.4967411773233196  0.2163189308282245
  0.4323370639916020  0.4250436897184565  0.8580751261571943
  0.3605555664795977  0.2186276028985559  0.9303663465791135
  0.4379518219097374  0.1512416752806724  0.8586916242695947
  0.4312857284929092  0.4287153439332536  0.4301275589916378
  0.2073980331015127  0.6296952164152035  0.3545590681736805
  0.2542855562650125  0.0362848502815811  0.6304024005869808
  0.4283630443090695  0.5665266595069059  0.5772952931635719
  0.6548038116393246  0.0773897294745560  0.7894916182007278
  0.7220430200987391  0.8569881955615305  0.7282811526638940
  0.7305607876096077  0.8656578514890049  0.4301356023380959
  0.6487953447139546  0.2155860256563309  0.0704427219034172
  0.5787962165868838  0.1444215502960863  0.1376538317138671
  0.2755068824754786  0.6873830970953505  0.2766374378387075
  0.8623376172180681  0.4191672506715244  0.1480074724116388
  0.7191828113825172  0.2873109114014062  0.7158270699940217
  0.6480348409226169  0.3571396876969636  0.6441732484394141
  0.4331868671715945  0.2854228183660830  0.5736738573335736
  0.5763011949466335  0.1404011405985518  0.4280641951141083
  0.7888388279899501  0.2139243938611111  0.2143166500866343
  0.7188382624305546  0.2874467280991062  0.0000479376581599
  0.5753656610780176  0.2816796595728571  0.1448515565357672
  0.5976616445132035  0.7531585476490876  0.6258729199856815
  0.4314881314648689  0.4222824479029008  0.9976645490061957
  0.5133831581887328  0.9324991647546638  0.9203311268843536
  0.6504343424880086  0.2156758860395770  0.6434901902480682
  0.5783743478500221  0.2871246447880032  0.5730683769031878
  0.6462679977028558  0.3577281599467279  0.4997821045404627
  0.7172401709624080  0.2827278459934836  0.2899089497078354
  0.5063538641958041  0.2173528154584817  0.3587032097531816
  0.3989883894155985  0.8118156271931409  0.5131484340166533
  0.4222001842369479  0.9938360864798184  0.1172020925397375
  0.7186864491865306  0.2896128480484078  0.8598467281178119
  0.4326461781362704  0.2871117104640477  0.8573790296899855
  0.5736147919217686  0.5713847680087691  0.7145781725023221
  0.5857028301933351  0.0138266868702924  0.7210514270476991
  0.5078124851522711  0.2143437826336635  0.6421953512402248
  0.2894271264016969  0.9042506228068352  0.6446900564104003
  0.3137195576579898  0.8395986060378265  0.2076627604788223
  0.4339488077938125  0.7066189252389165  0.8581581322275702
  0.2508528918193589  0.8508594110702895  0.8361448996986882
  0.4487989142350726  0.1489569552598242  0.4367807407120078
  0.1388224024349295  0.5613231756049659  0.7181324763080380
  0.1403845687790979  0.0271158624974537  0.5885446189255694
  0.2160366334744134  0.6343993470218906  0.4951007582703248
  0.2807339040739455  0.5595821322571917  0.7199014146618804
  0.5076951544981749  0.3585914478005504  0.9298624593943114
  0.2847148688430082  0.4232382910063338  0.5730826560073485
  0.5028495478041308  0.3567299694002407  0.5009970402153276
  0.2893580514575606  0.4255266751770880  0.4249412959138037
  0.3121692391663088  0.9601101434044008  0.1671971551985886
  0.2551501970779200  0.0202782579002007  0.4258642927645978
  0.2898684087193027  0.2869628963193870  0.8561472770293921