 B Cr Fe 
 1.0000000000000000
    20.0899999999999999    0.0000000000000000    0.0000000000000000
     0.0000000000000000   20.0899999999999999    0.0000000000000000
     0.0000000000000000    0.0000000000000000   20.0899999999999999
 B   Cr  Fe 
  55 206 480
Direct
  0.2363661938327277  0.7104160800677368  0.1531559060895018
  0.5267173762135108  0.9398864751573421  0.2193571125875744
  0.8672253110593567  0.8764296313810830  0.3943492010139463
  0.3563349782233222  0.1233106261330886  0.4936407805961899
  0.2830653491941509  0.0489840800840941  0.3568527138581619
  0.0564771965948461  0.7286303291473097  0.5022685416662056
  0.4390598355310347  0.1273486372897814  0.2404675326283551
  0.0946077232622935  0.8004390877765919  0.8348813629443933
  0.4316074411011383  0.1816916338015382  0.3100709475045436
  0.9473561982231311  0.9607485072044937  0.6227765895091278
  0.2369240828708985  0.9324381556626981  0.0277615007947823
  0.1977361886691424  0.1122460543040187  0.6353870513839925
  0.7911687206832750  0.5257736766676772  0.0381064551073764
  0.3655587119821381  0.9894093362128397  0.2658227035078298
  0.4119914471846569  0.7866833433263660  0.5108595942469889
  0.3657685181364195  0.0538846594844906  0.0187540436593636
  0.5421107857487319  0.7946601057469532  0.0511253842739095
  0.2632847949291162  0.0453739001527207  0.7436656723386746
  0.4940354483089838  0.6489664619422441  0.2870045734548867
  0.1552318808664283  0.6675450651941099  0.7307655303628950
  0.4155112379929616  0.9202093091937938  0.7698624979324745
  0.4297635842797128  0.6565841082531551  0.6844397871295286
  0.6448339690080792  0.5243266383132729  0.0366842635244138
  0.3431108285638455  0.9727300703464193  0.9345532376284386
  0.1742685270949795  0.9291926789429384  0.0911781052359961
  0.3708444557081996  0.8656016115773195  0.1462144739715231
  0.4255151334482311  0.0721928351501689  0.4970047382548491
  0.5134542353238332  0.8260088282186486  0.6291831488925118
  0.3414030612170322  0.7329664960452283  0.3146549905350320
  0.5570623074773028  0.8314634712070934  0.4875626089468923
  0.2562570316082257  0.8866848269928298  0.7467879570327403
  0.3398733260927221  0.9803782483869716  0.6249694667219090
  0.4321730748442763  0.6307675885418876  0.3519055142550938
  0.2889019751916441  0.1731157138550512  0.1581671150211982
  0.7892204994701157  0.4651556117586065  0.0977334257093814
  0.6362412685246561  0.7044928675380120  0.1558708385717120
  0.0527983816729598  0.7958423226286044  0.4418075615533163
  0.3321670291388009  0.9549021289116854  0.4660147001894022
  0.0108767279187115  0.8045640904553399  0.6933769861748361
  0.5245517195136895  0.9522564185732255  0.5364254022742908
  0.2956858878549118  0.7171036935798683  0.0839407919551589
  0.2918780932192568  0.7888310113076710  0.2692924583685202
  0.6732474700871017  0.6021710488918115  0.5132020980864350
  0.6453599163970325  0.4621228820672512  0.0967992999551529
  0.2184980320782115  0.8267842553861513  0.6901482464806791
  0.6197297427048093  0.8438882247994042  0.2977276082289447
  0.4657807126346785  0.0576425040123666  0.4176488427929965
  0.1994703619562447  0.8581073470048892  0.5011734805782760
  0.5259401213079219  0.1010298891779319  0.2202079436138208
  0.2702404126430722  0.6759849860549310  0.4388835971496466
  0.4655832053079300  0.8210957449287094  0.3116394754604533
  0.4392310875826588  0.8918434012063394  0.3612317894336347
  0.3352150119234643  0.5833353972095995  0.0764732608749060
  0.1877652504737218  0.9314278079851620  0.4611446402199599
  0.1562814704001984  0.7864927040648888  0.3235449229533128
  0.1414061562980176  0.4228722467577396  0.8591494498973119
  0.3564194108989410  0.3540550233163883  0.6447665242606196
  0.2047449467869979  0.0861074567547564  0.9299582956866252
  0.5631447949211895  0.0192750225999603  0.3974581374466147
  0.6471182640931968  0.3624613982478131  0.9368145558031998
  0.4292528820742747  0.4203059772069285  0.1441963527380400
  0.0885440768994764  0.7525029874123752  0.7436035441028166
  0.5756499875716926  0.2891634173123902  0.9984662265020772
  0.1271471052191090  0.9199634184419271  0.5543602558862883
  0.9280998035579979  0.7810372539529887  0.0731442490872181
  0.1394243944543332  0.5633110984651922  0.1364557977163521
  0.2452440761561781  0.7507028487630131  0.3618596308609416
  0.9283787384287887  0.0762009103629879  0.3549796380417232
  0.8588032060581333  0.7094796084444314  0.1414667131507883
  0.0702723317966968  0.0801741054100578  0.7861463844168916
  0.7211924626024101  0.0017389715736374  0.8557069825286328
  0.0619408016373422  0.9360363585366909  0.3550052959588464
  0.5708037210882396  0.0164982733056942  0.2808615953325966
  0.7882658687523384  0.3563290945255502  0.3570705181564247
  0.1896596064177158  0.9326861299231217  0.6686140135066041
  0.6501503697699335  0.2171302870366005  0.6453722567495886
  0.0690617875767702  0.3568187945175073  0.5002761586459771
  0.7172188275123313  0.2891467581304036  0.9992763378894994
  0.6434724561129537  0.6399654753296961  0.3456607540880125
  0.0781015009805537  0.6413888728945573  0.6488575622602997
  0.9253180736590838  0.0741420424371665  0.0714381275590464
  0.1994374796571915  0.7782359339796789  0.9169856475556865
  0.5004173831281333  0.4900826779183772  0.2116704892261115
  0.7180981425547224  0.4273774833124979  0.4282865005345041
  0.4889237624699751  0.4972858515717191  0.0776324123511742
  0.3554192547902293  0.8017161925819390  0.0537661662514210
  0.4065046650204350  0.6999920296174440  0.5810795859158545
  0.9260963570388105  0.2178620859822973  0.0703646626083836
  0.1521184747462631  0.8624904756131223  0.0045720260212347
  0.8549391992043117  0.4365540610628454  0.0092371744975164
  0.3933540050228277  0.7888734889096074  0.2347953346907592
  0.2866672457970207  0.2835686588346703  0.8570774489065862
  0.0665028758231738  0.6334451209037052  0.2129109273336247
  0.5808328022237720  0.1478280928317081  0.9928224343973291
  0.9261242992568294  0.4963217937838508  0.3530375260802877
  0.5738210029741259  0.4271359549706164  0.2856967487951462
  0.5964500491635645  0.0034397197044533  0.5859849062259720
  0.2123120696960676  0.2215985450595483  0.6431752549294406
  0.6468158536755924  0.4915101527699492  0.2131048857452415
  0.4240227955907933  0.9894441561593098  0.8527815909959303
  0.3068155804132260  0.8893347745239373  0.2351099970664561
  0.9959298844739871  0.2894632889609605  0.8586187155758175
  0.1369365494770576  0.5624066547991620  0.8634055138725901
  0.5692804727989573  0.7241639207068877  0.4395159115575206
  0.7896069997492869  0.6393824256360707  0.0680650939465743
  0.4555954291431086  0.0239195489665029  0.2219070201553061
  0.9965878795434525  0.2892122243041905  0.7159393890150586
  0.5840371164596525  0.5456863834752199  0.1246745723688987
  0.7196209454468337  0.4272325163654506  0.5746137439259569
  0.0716564082788080  0.6382683732247624  0.0700444239784760
  0.7247607958057420  0.0016149118548661  0.7169137520379831
  0.5035376348394425  0.3570253622646726  0.9318308593482379
  0.4333746900761121  0.5562831605319390  0.2802484996018091
  0.1389260793449736  0.4225942299724283  0.2853479601803014
  0.9265493859617778  0.6338925788107427  0.3500151729479901
  0.4257118442899029  0.9027989423792137  0.2540897426581960
  0.1454648137565843  0.8479700729109974  0.4081249985366420
  0.9299166914732075  0.4976977998487450  0.9302961328238785
  0.0649845661298592  0.2212332486962011  0.6484597577615701
  0.0764407825340043  0.7881384832464603  0.9388733979124192
  0.5057513855240710  0.0752796692879065  0.9220355698820972
  0.2887785657412294  0.5608635593451162  0.8574068105677288
  0.2107279349909092  0.4911557042824526  0.7917806012320699
  0.2145850136832428  0.3496140590560902  0.0717972710386595
  0.9291686655542600  0.4987641417610466  0.7860273441466702
  0.7900921545099268  0.2175524394093363  0.7884901550380715
  0.2822713434082522  0.2854517659519595  0.4291888515366739
  0.9942718874578254  0.5641948972359256  0.4235129007767818
  0.9224877934396490  0.6278585579703952  0.4932095260780567
  0.5917228887567280  0.5743537658242061  0.4425874008806970
  0.5094402051452566  0.0758673878285066  0.7907569960302929
  0.8559785355516778  0.5657820666685301  0.5710482647984255
  0.1389101482808022  0.5615772255265293  0.4226485456464230
  0.3641857454538818  0.2050517724360773  0.2269687558290159
  0.3286350635140928  0.9157539966476334  0.8421276807494119
  0.7893722028070213  0.7816691205358465  0.7898905689568153
  0.8579427742486296  0.1463797220517822  0.8581794501962181
  0.9994394369391882  0.4248897512300702  0.1424400987098201
  0.1309335694521744  0.7173627552998570  0.4185585902616665
  0.2114429887501534  0.0793919083532896  0.5183669914999498
  0.9315226584691394  0.9245904181538276  0.4894000213036976
  0.6482634293066287  0.2198577128495370  0.9298633253627524
  0.8621210874633686  0.7124162615162009  0.0005119182314205
  0.1203532205109543  0.8730781555247074  0.2803541906655562
  0.9276752393852723  0.3583348658700374  0.0716773180547905
  0.8608122420124615  0.4265566120781851  0.7197515098301488
  0.9329105620080739  0.0716160420021152  0.6412744859554664
  0.2089090699543524  0.2136578782609141  0.3592522679751184
  0.0406522021029149  0.8752178128785745  0.7669759180358496
  0.3461188420082760  0.0822365429429052  0.2009473993888352
  0.9953116936085580  0.2886687232120598  0.0026024780771867
  0.4124390298425502  0.5675056914622312  0.1467236228022543
  0.9941115076784400  0.7042964263857383  0.2798075793687531
  0.8598015067531010  0.1438209392398927  0.4286177003554384
  0.9209007218735484  0.6345177201903930  0.6414223152982647
  0.1420958773202847  0.2859955144488449  0.7168599342997755
  0.7784494314093320  0.6490048370242602  0.3626935761850145
  0.2032599547257729  0.6211864018820430  0.2053094737264032
  0.9684976182238204  0.7976010054325724  0.5157655600414939
  0.7918754112108226  0.0716858090044561  0.7874267005748801
  0.5786170405913965  0.1466959788639746  0.1392916450224290
  0.4331086530021050  0.4247986317417847  0.8595307636577928
  0.0559308165337710  0.7533691045487723  0.6134061247663531
  0.9314945536927060  0.7831005725754698  0.9305633177601251
  0.6503358561132515  0.2166415390626694  0.3615660218425476
  0.9963222548713603  0.1457597810506793  0.7178127103409662
  0.9972562047166076  0.5642852576875784  0.2820818813139194
  0.1347906000712197  0.1522766738766704  0.9971993009382254
  0.2628329701606869  0.0140361193397604  0.2592564846506931
  0.7181918615105701  0.7038010917610494  0.5699863738585360
  0.2490710197770184  0.9424357867565141  0.5504543823639576
  0.2116880249895473  0.2164492739795770  0.7887412379586881
  0.5599829534319596  0.0147034884858146  0.1496518650005495
  0.6493644145782290  0.7807767430900634  0.0737970188974295
  0.7181766110251617  0.2858921553775570  0.7182509041608078
  0.3917275576682652  0.7579775054866774  0.9498525126801681
  0.3520438410356055  0.9383183765772114  0.0464690633249228
  0.4432473548882290  0.9971189197219729  0.9809959014394680
  0.5076190024851364  0.7915703024494245  0.9319209820668184
  0.2704760245170237  0.6781268320435007  0.7260540382301760
  0.9343333859632720  0.4974576347322113  0.0721355925984857
  0.2526484662558504  0.9978511823303277  0.1180902834678693
  0.1946626597586272  0.9568291812674324  0.3544842768122623
  0.4029231129994243  0.8088555650399670  0.6217084291159369
  0.3574808913512508  0.3532730722355895  0.3606438002436629
  0.8574255080403166  0.4264238015679796  0.2847089222926904
  0.3905967189009317  0.6554814181350184  0.2482834517806954
  0.6523417700270038  0.4927054477755236  0.5038524400119554
  0.2166264611393252  0.7606099732629610  0.7798857325398857
  0.1399947826097340  0.1434505057976186  0.2807826928016753
  0.6029711875107612  0.7490260457265795  0.6248970840164049
  0.5239151099913717  0.9352881509775822  0.6520765282852813
  0.4776638282081793  0.8051102419460557  0.4211389995537867
  0.5160245362610094  0.9168970605543793  0.4330882977664294
  0.6494711470226654  0.9372550095316212  0.3547349830499315
  0.7212453942997785  0.8547770282204192  0.8580534895265246
  0.8528393290315857  0.5684814284239340  0.2841361376237690
  0.5907445000138889  0.8401602109619465  0.7095174735277360
  0.0714411168031202  0.6395316040796944  0.9287886469686583
  0.4962530965047757  0.6445865162437815  0.7736042758607823
  0.1422104867099689  0.4251809809052079  0.7170123254403833
  0.3738900095169359  0.0882271145016287  0.3157851482788090
  0.7799962567920653  0.9185240520671966  0.6363020135927280
  0.6772068676404651  0.7602037900511707  0.3594258858213544
  0.5328599412227867  0.8325983865861809  0.2235467968002749
  0.5001535624093629  0.4978300920209098  0.9305812078956427
  0.4626197668795667  0.8639954839912630  0.0269936451541918
  0.4308198944792352  0.2863624066237137  0.4299155370311265
  0.7975183313459169  0.7879711366199864  0.3533730007668371
  0.1422973394717190  0.7069840622787029  0.0003911850623481
  0.5098479319813879  0.6182702651187403  0.1865377631425399
  0.2084948598231066  0.6307515394598311  0.3552555842250928
  0.1319211795461774  0.1502325719783478  0.1411001132905022
  0.2699022597690215  0.8728346698905242  0.4309987975038698
  0.6526610866374831  0.9284128065474254  0.7853921349957713
  0.7859098002051718  0.0747493130364868  0.2118576281008880
  0.7189598397491687  0.5704616539568272  0.8592054877625676
  0.3003696556738907  0.7614196939909855  0.6570182009862015
  0.6632290988333598  0.6109632318879209  0.1970120278933254
  0.7994616605065236  0.7794450302322101  0.6457426609066722
  0.7868085200078586  0.6258925772685091  0.2022318729682919
  0.2130486229197128  0.3541069612893797  0.7876130766413105
  0.4303193114237944  0.4221719696950059  0.2901868166034645
  0.4381947741732940  0.6931015175269725  0.4510795638587005
  0.7212922248546902  0.1501469790497342  0.8564848430564241
  0.1493955738476750  0.9994725193085415  0.0092848529258140
  0.9983682291913858  0.0074032947477961  0.2814819034414963
  0.1426134904298550  0.5608407185603604  0.7165242772367697
  0.8512249534505101  0.5583705074895137  0.1313359769797203
  0.8598336454928370  0.5699947828134453  0.7184339347959315
  0.5267929776296019  0.0610653121765915  0.5083788002520317
  0.2871327817240060  0.0262585268566689  0.8565213838538653
  0.7885787213882012  0.2170201910412101  0.9294884127391274
  0.8063875598880038  0.9245704065283649  0.4945425720314703
  0.2838676135628617  0.2841371363180417  0.7158405874320360
  0.2846572052116814  0.4225235404161611  0.8569406964519467
  0.2875859300128172  0.1463184991048481  0.5767425375619625
  0.5103629005776978  0.7539496926970237  0.5456355041150421
  0.5853908955225049  0.5598931617224885  0.5729239590060087
  0.8543246363149218  0.5658339885884915  0.4232254052498405
  0.2896927419171234  0.1449874571723349  0.9900528327008717
  0.7165098049442135  0.4433876809795260  0.0153573847805821
  0.6545419033472368  0.7883578627880221  0.5041084529181221
  0.4849706123394076  0.6499516911156044  0.9429595549605723
  0.2122576318897728  0.4915534005416548  0.0678469737267965
  0.0663337029902206  0.0756278722003515  0.9359741213740953
  0.9172501897167529  0.7740288121474742  0.3455776927058218
  0.0664246206788695  0.0861510727764778  0.5044154361712080
  0.9289835840338230  0.3571843549262683  0.7887006787202571
  0.4313136625696768  0.1383074219562918  0.0054161544720686
  0.4459741801847115  0.0044853609624975  0.5898599212200631
  0.3292796340456451  0.9704904950386664  0.7338885021128290
  0.2800972905897938  0.5600281023673340  0.5703254798434167
  0.5865084030230651  0.0079744084314590  0.9832928084593960
  0.5045229153375422  0.3554561519337379  0.6441651707162507
  0.7878510911302692  0.4959605168820714  0.4994441332915756
  0.6180284648161047  0.9458736346274014  0.4787064642789490
  0.2210422474126189  0.6378804605835725  0.0698588576009483
  0.8573508223895285  0.2844436693919446  0.2874480188536109
  0.0698228541687903  0.3547448531307461  0.2132667967481407
  0.6500958465836993  0.2192098771340270  0.7880230616043247
  0.1081304354996187  0.8105253728582988  0.5238296018733247
  0.2785783161035584  0.1382487862412432  0.4256794218436107
  0.0662487399716747  0.6344173152633770  0.3536708329576855
  0.9984939064081886  0.8542605254285230  0.0053543310903206
  0.0712252644257136  0.4941936018024105  0.0696812025938467
  0.9938106503469816  0.7075243146684358  0.4230132365804548
  0.9836640356711035  0.6884637795434837  0.5630413756815664
  0.8618022226972830  0.7108610241455104  0.7197031854455110
  0.0102503434185502  0.7195935066536121  0.8531314646123686
  0.8515793953374298  0.7019883814741406  0.2773657168772886
  0.8584007953374663  0.2863810733623875  0.1424846592871175
  0.9246023096611445  0.6322567782708673  0.2081862486049132
  0.1350487855566958  0.0112115453615386  0.2700294161737713
  0.6503852629163926  0.7800987444174750  0.7938605717081297
  0.7890220170049240  0.5016258794908471  0.9290315135321289
  0.5066128090606588  0.2190404558515035  0.7876357109390666
  0.0006390403235740  0.5661006320352318  0.8596597255036260
  0.9275943804031830  0.4969721740502387  0.6449022911814433
  0.9913034480149110  0.7001113777511234  0.7108842765603002
  0.3469062010743522  0.6298208424936969  0.4989463847708397
  0.7903396886041125  0.7836759690098561  0.9301965964814317
  0.7894004924432606  0.4988701732509512  0.7895088391324331
  0.0681167934664089  0.0740961320490065  0.3557080222513495
  0.3622197517051279  0.0462784723335809  0.4208242402773206
  0.9973207186113989  0.1463298968940607  0.2855228184833458
  0.2759709325365257  0.5435023145182826  0.1458709430646473
  0.3130341833486315  0.8127630536287694  0.5387582753125303
  0.2882143304949016  0.2813314278306904  0.0015059370297508
  0.5661963275668328  0.5742882071915197  0.8600488144106097
  0.4207222845638214  0.5602965557876179  0.0034897973407740
  0.5745198506443915  0.4261175656820956  0.7174586179051753
  0.6514670791436583  0.6334933565825613  0.6470007905115858
  0.4304927037916991  0.4252689236143095  0.5730859325552927
  0.7169068412730967  0.0028265808686829  0.2821680405816527
  0.2079634127277211  0.4877834648347104  0.2182201497594427
  0.2115494150734624  0.2156246661954609  0.2148066688943628
  0.7180055945876012  0.4267072659123681  0.7191709508288592
  0.6458831884398522  0.3576345920931539  0.3594758143394706
  0.5766845921209343  0.4379979608324826  0.0122327346337195
  0.5005297136571942  0.3514084069878463  0.2192929347875449
  0.3165154924197426  0.0990429665756597  0.0928676984531179
  0.3596441567274815  0.4920045269132109  0.7878244742046385
  0.9989571548289381  0.5677952307932450  0.7134037741062251
  0.1394430396873924  0.4243869949433716  0.5715127624066856
  0.9986116016551088  0.4268692459043382  0.8593373246429942
  0.0675014737539059  0.6278416601448409  0.4908489767573169
  0.9991475425116152  0.2854356276021077  0.2862240287052339
  0.9287486490166359  0.3541123258712970  0.2165283136663642
  0.9989240158534198  0.4268771741501231  0.0011392692229312
  0.9940841693085024  0.1482529197879001  0.1395792717611392
  0.0695982840969110  0.3550883331819722  0.9303785853100522
  0.8592596722998838  0.4291457385460579  0.8598507785067591
  0.2137758953775495  0.9650215573108950  0.7929572742309462
  0.1390851206601045  0.2871127577954880  0.5726331172736275
  0.0146607122741314  0.9969592694084393  0.5550038437692093
  0.1968376027292005  0.9259661634640036  0.2083172731039097
  0.2229318468650634  0.9467394187991152  0.9224966138598242
  0.5251856203690347  0.6363245417463647  0.3794602632040089
  0.9353195083240293  0.6446899857526225  0.9259046464559026
  0.2221622899674783  0.0956078164724153  0.1850630308890864
  0.0673376084928053  0.4938845831208444  0.3546817806693581
  0.0647935560360575  0.9361797496441264  0.9480842123201444
  0.3340010494147325  0.0360260891165583  0.5387633959929704
  0.3624715770705135  0.0830537312085641  0.7837893797820341
  0.3517052262193060  0.9655859756444242  0.1661419418508165
  0.2348429479463324  0.8600650256557932  0.3167207179102847
  0.1360859517756938  0.0123480813625615  0.1424397225456006
  0.2658073414712602  0.8781598800581074  0.1131476110727037
  0.5726976042125427  0.7056222409987656  0.8652676342788982
  0.2713262313372301  0.6981520654598397  0.5643272947313602
  0.1375914941039773  0.1550590498118541  0.7136868137371183
  0.1439779151693088  0.6989969125721773  0.5550737392485595
  0.0645323474857548  0.2201317662873661  0.7869851338033182
  0.0694538934645997  0.4933750792997489  0.2120767194639931
  0.7172094414882394  0.4169706321009765  0.1501048397030613
  0.0710035034833651  0.4940218652525292  0.9314618682697540
  0.0692957555120088  0.3544755705267725  0.0714141201271101
  0.3564629578268023  0.8306175043561820  0.3432937694494661
  0.4563424457834764  0.8085861873357066  0.1308391237033174
  0.5863573528133126  0.8639929047947470  0.9949995868314617
  0.4216575053561476  0.6981194774478268  0.1390649815485034
  0.5663481097652795  0.5734149157827724  0.9954660409036212
  0.5769718037134433  0.7087419107186043  0.0003183082675357
  0.2802600245076419  0.5552488134811483  0.7191219155883469
  0.6779372085477331  0.6756316278933098  0.4471240151745324
  0.4409287510717395  0.8465643547747017  0.8401601429981679
  0.7180974110651691  0.5663379086326632  0.2898189660556058
  0.1322355489365028  0.1558542838272373  0.5744253241730876
  0.1618347577915392  0.0397629494580837  0.7052081483165356
  0.0672161001651969  0.2168054153016370  0.2138803653414276
  0.1888871921535944  0.0757915465650563  0.3602738263045200
  0.7153293418442612  0.7176536953628851  0.7100437760963378
  0.9978922720821655  0.8540527524946960  0.1425950506558352
  0.1335165954807687  0.8504640808588796  0.1416398314107568
  0.0680332306662629  0.9309864674358068  0.0748755421287760
  0.3327933056337378  0.7966920764823424  0.8625568085025784
  0.9393267835978812  0.7900906575756732  0.7795339088138892
  0.0674956772567829  0.4952324966696768  0.4973010509653515
  0.0661772477015008  0.2203063899186515  0.5002452996901052
  0.0003962171233816  0.5658694751595007  0.1403337713570544
  0.8602220571279665  0.1441685067258300  0.5739251124029331
  0.9268512974774827  0.2162036113299809  0.2146679440044938
  0.0689586834599089  0.3553146950185647  0.3567776629709632
  0.7891716659458603  0.2151172424740529  0.3587964259443047
  0.1343626056468822  0.0123531516057196  0.8737878091927271
  0.9943719737427602  0.0057543338562882  0.0054068969281830
  0.0677056451627621  0.9559657200687385  0.6562074108838701
  0.7887751058917376  0.3571172265893238  0.6460544820978256
  0.1000306321040149  0.9669346662652391  0.7714627918794504
  0.6456529359617185  0.6401242226143243  0.0739584506585746
  0.0622199343667681  0.0803070696561822  0.6472904703500872
  0.8557821109948638  0.0059841135957883  0.2813720208297243
  0.0625217966592727  0.9364302029712762  0.2070412180974252
  0.9954025540228200  0.0062719886169017  0.1392246010060762
  0.9982472954039648  0.1459139589479277  0.4277239816726781
  0.8576480277007088  0.1455814593311686  0.0002317981356936
  0.9559311204416340  0.8885545202173932  0.6896338116319662
  0.5019296695014491  0.3536768749024132  0.0716171204500338
  0.3110204434989576  0.7777554846946102  0.1645614051051963
  0.7253403552024816  0.5606792117926266  0.5838227751797848
  0.2126279952106852  0.4930316275754889  0.3533378447491062
  0.4321578220842073  0.5590413750773868  0.7105893726078781
  0.3663060196635093  0.0779271616453641  0.6574903070276225
  0.2894582273708312  0.6936630206725043  0.8516061190434064
  0.3491658769193987  0.2150857509723856  0.3604801734836483
  0.4678905889453738  0.8433310014189996  0.7211851558437127
  0.5363894159999509  0.9029096164456658  0.3169519003360190
  0.4317705667298357  0.2860915052266565  0.7145535220452371
  0.1740671616566335  0.7363940042123007  0.6629006692155301
  0.4359804726762418  0.1488397008655200  0.8550699312304003
  0.2855169890563025  0.4208810387404819  0.2870963982453797
  0.3569233216204798  0.4947236833263516  0.5009362019523065
  0.4258546078915931  0.5645259990853642  0.4287038371479708
  0.3586619913902930  0.3532050645957064  0.9283491587896825
  0.4328411449329551  0.2791422440719923  0.1475413674942961
  0.2810052271567824  0.5595001005099575  0.4263542354254415
  0.2123979525426084  0.3559941119775645  0.6447609474726815
  0.6432739931344891  0.4976868356716308  0.3560721046279701
  0.2845382979347826  0.4241423268815205  0.4286853775379789
  0.2847929613982225  0.5627256364135259  0.9941206443410614
  0.9282429631782841  0.0733594536056897  0.9285582150756924
  0.0710164077631379  0.6329433020678361  0.7841992377360804
  0.1423547518516094  0.4220690307182760  0.0008962609678720
  0.3580363508559803  0.4906529661592864  0.9271151203963668
  0.0698594391363059  0.3560132242694827  0.7874653349426234
  0.3587826786730068  0.3505928250796971  0.0733101671153509
  0.4306936777556383  0.4265242645252294  0.4296790931412528
  0.3584918775119195  0.2135638594069115  0.6470136225761266
  0.4326757798189492  0.5668621392472757  0.8592475485722935
  0.2850563779056179  0.4208614070298237  0.9993406672302302
  0.4242583437682496  0.0299129596433524  0.0981574079361765
  0.8565490438273841  0.7180085152881139  0.5539784312534067
  0.9981005244183729  0.1450774820122584  0.8596526803310224
  0.3479065505225215  0.8429037467001842  0.7473153095285813
  0.6476321746694274  0.9375754347810347  0.0692052025779453
  0.5052127569085861  0.2142177739878429  0.5020957754550365
  0.3579080455233749  0.3545853969632434  0.5004605766100806
  0.0679429958040335  0.0776809945329929  0.0694783878101638
  0.4466869025080856  0.1364858770349465  0.1402022622068551
  0.6530951667521881  0.0785348721198585  0.9229404812573674
  0.2765092820764462  0.0222837318095915  0.9968539170603259
  0.4474234743171615  0.0120604533935757  0.7239456903415250
  0.3406006299404323  0.6299954870315055  0.6461868797642503
  0.5142236163064557  0.0790616851982665  0.6479020631123348
  0.5765696983776695  0.2859272912983610  0.5736809298681202
  0.5030890651094428  0.2098914514879840  0.2241668893475398
  0.5471904004957154  0.7286513975309179  0.1289398902271909
  0.1431261570404531  0.5671655630069620  0.0005701405997438
  0.4300519915667678  0.2860219632022282  0.2937013412740261
  0.1992556335229293  0.0891613780047966  0.0634443292011730
  0.2726575498843138  0.1423405360297421  0.7117836606104406
  0.4300648352937032  0.1408610165223340  0.5720160744989105
  0.3547659284269865  0.2217687951870463  0.4983664088701895
  0.3580810846154399  0.4845996314429597  0.2150597618889595
  0.4311466831075078  0.4242133225360223  0.7142385306696559
  0.3634038981375580  0.2150015593900068  0.9280859976642790
  0.4397602866688466  0.1479570318470196  0.7172921043182725
  0.4317688768339319  0.1524151998395921  0.4255505042452491
  0.3361532219899238  0.6469738128167524  0.3651768931802691
  0.2581796581418647  0.0339712923656259  0.6363897050337696
  0.5206979400032299  0.0795761137266567  0.0551258520887035
  0.6471999185481561  0.0744551276437938  0.0699266142969896
  0.2886030069010503  0.5658944434587699  0.2782007510655685
  0.8628189107539486  0.4222102701914746  0.1460334748202623
  0.6482877633488030  0.2146690220790474  0.5011699743330121
  0.6482212509178472  0.3566434638907226  0.6455403029632821
  0.4304509335577997  0.2844452062693964  0.5731931130136959
  0.5748629816639014  0.1426958392197546  0.4258997515547087
  0.7877998060425832  0.2163315943535398  0.2141319139094450
  0.7174388634769547  0.2864257921116372  0.1435765435142594
  0.5721549028745311  0.2832544782313768  0.1449871384046766
  0.5880682199350151  0.8680406014387499  0.5772579664450534
  0.4305949648365569  0.4234748095133752  0.0004954829819762
  0.5128291229779720  0.9264041205500169  0.9191344314071278
  0.6551617398064241  0.0791289689320867  0.6503321579767248
  0.7184212609964596  0.2861729308320294  0.5737546104863639
  0.6483266393838972  0.3569999743592688  0.5024556752853783
  0.7170975342153879  0.2854193955131685  0.2883538055724227
  0.5918253030780063  0.1498620859202562  0.2892641467779314
  0.3864146093681928  0.8695344197241203  0.4495983015687564
  0.5237466238292787  0.9557982424325203  0.0530596490417209
  0.7180842903784467  0.2898458292918213  0.8613325133588958
  0.4328352802356167  0.2861150634315601  0.8577385623817363
  0.5193591093166748  0.6368977873770423  0.6322594487285170
  0.5036065602790514  0.4989708223408007  0.5018125808787310
  0.6539277091161021  0.0766394452650684  0.7885238437165121
  0.7231704035604671  0.8527065580405048  0.7258658067069886
  0.6056219957485872  0.8411130442068976  0.4013929869435246
  0.6508931350618471  0.0731520729212049  0.4969915653873704
  0.5054541334302083  0.2148556694261632  0.6429159467370477
  0.2959668889767451  0.8831013627973446  0.6472363432228547
  0.2008657257980411  0.7906904574117153  0.2188213237464876
  0.4313909147310841  0.7083080068812642  0.8535794124954234
  0.2357263718020082  0.8552827974497056  0.8481231395727958
  0.5104814053322172  0.2211786497014565  0.3616989397594431
  0.2086755659897136  0.6259089844574680  0.6376811146269830
  0.1448572079253380  0.0254397610532355  0.5855171456771319
  0.2204347065371400  0.7613599299659608  0.4789208151938616
  0.3546402746169822  0.4931095000853627  0.6439121339614410
  0.4310072723161128  0.2829403474787471  0.0015909323688095
  0.2096265904039195  0.4924394706178468  0.4992175136367494
  0.5027768728367652  0.3565354460578507  0.5015242735333916
  0.2848896413594953  0.4229697638079081  0.5721766229256355
  0.4617972525339450  0.9248736186363964  0.1425574776235176
  0.2516642036542813  0.0067944495054630  0.4436928908966120
  0.2887642384677214  0.1503197484728983  0.8587491159998615