B  Cr Ni
 1.0000000000000000
    21.9102581932275662    0.0000000000000000    0.0000000000000000
     0.0000000000000000   21.9102581932275662    0.0000000000000000
     0.0000000000000000    0.0000000000000000   21.9102581932275662
 B   Cr  Ni 
 173 259 605
Direct
  0.0786919858348805  0.0761310283290968  0.7641285871601421
  0.8800466202022201  0.3177245804830746 -0.0255215807513997
  0.4196621326742400  0.3022908699622638  0.8714818042288537
  0.7957376028066685 -0.0554066230373003  0.6261265670780018
  0.2294385326475656  0.6862312317522911 -0.0765841211223723
  0.7150362386214336  0.8436492424819928  0.8183973707355610
  0.6725083566571136  0.8144798321103253  0.2958120549046902
 -0.0878851562840122  0.8372291106529920  0.8467304450998342
  0.7672229930970165  0.7100631707778766  0.3224389801170567
  0.4731890346941713  0.0415697063265397  0.6567696781696483
 -0.0552768657049340  0.3599737152354419  0.6367779426515391
  0.9809783204017505  0.1558855584549156  0.1111984203629374
  0.5853766040941849  0.3575303180514806  0.1516006249048913
  0.3621246613037837  0.6232987706587433  0.8343295036897926
 -0.1269724602113125  0.2281191171788993  0.1309058236822949
 -0.0991418816663219 -0.1189051907082722  0.1264141303530190
  0.6902868222890590 -0.0362044135781924  0.0497278760263425
  0.4071283416438697  0.0067770750617009  0.6899015322775062
  0.7543952440696754  0.0466484536353146  0.2237738754378701
  0.1441255876204967  0.9130687069413320  0.8136977503566393
  0.6969272019566005  0.8016486108582801  0.4805533496623040
  0.7868492022730206  0.8754614320030294 -0.0121924336184305
  0.0419306850468233  0.5205738556141388  0.3550805777873934
 -0.0208205673646300  0.6487185481442288 -0.0259917601213329
  0.4626408520064195  0.0149828583273926  0.3411950226426602
  0.5414848913247938  0.6245720911459224  0.8155887902844228
  0.0515826614594616  0.3789029029718199  0.0381962097683667
  0.8479059055425443  0.8319166148987752  0.7151149981141770
  0.6180983967292002  0.5820553281084051  0.5736737367170621
  1.0148403702959223  0.1685691404772189  0.4435682378049005
  0.1892105575945402  0.5336015785864610  0.3213416529033394
 -0.0266323981951833  0.0706800880118662  0.2845595110464926
  0.1234780872602247 -0.0305952209768271  0.3015430808484951
  0.5905182054489092  0.5817367911396930  0.2348189292135797
  0.5568051481101042  0.4686538494551997  0.5043881800733153
  0.8039306051426673  0.0494957539346601  0.3503515644424438
  0.7066064843576657 -0.0999985464671224 -0.0028535855344762
  0.8223749292440038  0.7174478953809491  0.8089947970926360
  0.7670646779181359  0.3778578597865860  0.6563972063571095
  0.3865159846583575  0.4533248354604583  0.5299853998985511
  0.5829851657697545  0.3503597580479573  0.3217713576625750
  0.3042859439746870  0.1183790330186766  0.6468693852821688
  0.6575495877371239  0.2535160904311060  0.6292188037844219
  0.3111603517014211  0.7588222265629425  0.3269205401026995
  0.5537847484752905  0.8981859004740979  0.2377005922601278
 -0.0982620511236609  0.7375374198458017  0.0674590801883890
  0.8289159176481529  0.3642108285318967  0.4808837270788346
  0.8746797336923376  0.2319166636880022  0.5387193488209221
  0.1675843677149775  0.2886612075922449  0.1099741175952552
  0.1779873936482503  0.0375948362232889  0.1793869999709851
  0.0908137006230069  0.3347461146314528  0.5894461689337908
  0.1767404992984457  0.1343150147674845  0.3034563932664954
  0.3697776854158923  0.7385572273099671  0.8864294361385999
  0.0302827925016955  0.6694323122693403  0.3543159191413551
  0.9282409243887340  0.3911672124992910  0.1971161003996221
  0.4944150337946399  0.5463285056909906  0.1479500911023003
  0.2587468714617149  0.3817926161379884  0.0844936836604254
  0.1944486623421901  0.4341590087853048  0.9763405797304114
  0.2349885511289103  0.5165237590316868  0.1284711246478268
  0.1032528358050276  0.3229177764837607  0.8577023405103014
  0.2012618643491375  0.7933731672641015  0.4598414563488637
  0.8074447043758372  0.5740953948197127  0.8225590920233952
  0.2532078229626375  0.0373889247571094  0.4760688438756655
  0.2580880358453846  0.0594570668974706  0.6778321868793733
  0.1215970852980175  0.3743628103392471  0.7159113813918515
  0.9919933957121373  0.1157568770777566  0.8829646795533873
  0.2410571085731714  0.0022712852111836  0.9523382717344576
  0.5350657581235204  0.7076857855799171  0.5317195757716811
  0.2264430256944019  0.5398644214080693  0.7376073234581496
  0.2550552633929815  0.2745969387494079  0.6341065073168122
  0.2629549572425591  0.2738259962287327  0.2248399050030937
  0.7252793514249631  0.7386088093069092  0.0771718485861242
  0.4077754850872020  0.8571874318098924  0.3745488729633947
 -0.0222319335849356  0.5524060245706647  0.6396370443556690
  0.6350075454994277  0.0720330002633871  0.2938721823390806
  0.3975085243626338  0.5850826106612219 -0.0202804718191784
  0.3954544845384819  0.1385437180475984  0.7988101857832254
  0.2726469159058121  0.9571766106624215  0.5856297797015136
  0.0707933244715871  0.0239852911985662  0.0312253908068726
  0.4962557801415237  0.5150000179438546  0.6630306510378973
  0.1539269341670323  0.5877880168520231  0.8983738609644877
  0.1193091797268214  0.4022462927524915  0.3131749820138648
  0.3257744581831305  0.8723163948128346  0.4885220100722776
  0.3814871691789068  0.0909527811499269  0.4358688018594348
  0.7680330120708581  0.4805663219400874  0.4317852788602357
  0.8027445941468238  0.9497689947216064  0.1193522229664821
 -0.1495782812644618  0.4682843145765502  0.5920382894639632
  0.0794346488541882  0.8926251394631097  0.7607205330783410
  0.1747579047324359  0.2116636293144308  0.7597966301846664
  0.0464541909001224  0.5039011428406631  0.1971004769760424
  0.9149768589174280  0.0352611701587038  0.1422821138959400
  0.7630687041343497  0.4634490331762058  0.1620940807144966
  0.7547033511131116  0.6608304856656549  0.4702780294102914
  0.9791706996234675  0.7451833772227023  0.7052747260683536
  0.9575398817510663  0.0403869418327970  0.4130978233720580
  0.7471685928360257 -0.0417692213461424  0.4593924385410643
  0.3686641515364726  0.4909514803075358  0.1699906519253002
  0.4267944076285646  0.6332290819848898  0.3033682177631974
  0.1382512245352328  0.0195607114939537  0.3628556969673800
  0.0065992497034342  0.5991962721575856 -0.0834188126342752
  0.4619051914222494  0.7564685800362212  0.6910900493159814
  0.0569143118876880  0.5123920269740747  0.0338615869235928
  0.1767649664269416  0.1550163367320834  0.0320709922474831
  0.1283213835745949  0.6735426226386224  0.5169385048738763
  0.1335969982933858  0.3870993727359744  0.4498319455723382
  0.9690906443416597  0.4510138883376048  0.5158813899222906
  0.6306520671130252  0.7169933231598380  0.6539413321246845
  0.0985252917271913  0.1536825754360147  0.6214845849467666
  0.5589456951747150  0.1259315996494897  0.3946871856491431
  0.2993623213123191  0.5680642653957838  0.7096542896154852
  0.8916349776918542  0.0225688482326691  0.8253411223921410
  0.7439449046477697  0.3322844740744649  0.2307624793698917
  0.6590936469445385  0.0328605004816620  0.8071952945281650
 -0.0150760021120222  0.2875118677090026  0.3503989102391882
  0.5773176552722076  0.1307552444100704  0.6342470642248853
  0.8410726071827254  0.8596040451520515  0.4977028536789525
  0.4790442667411021  0.6238849309501893  0.4481234220645782
  0.3912688652529514  0.3214481622982340  0.3083440255335803
  0.8223922026665500  0.2950324219242547  0.2508080154019860
  0.3306494345230668  0.8375987344098739  0.6773259118407345
  0.1160382163479108  0.6510948597650772  0.7779385109730392
  0.1362177646925674  0.9110796715861731  0.9711093434296026
  0.2874459190759917  0.8350095870001401  0.8884687323806764
  0.1302387210740931  0.2803877588736129  0.5437124369015667
  1.0121057764300680  0.8341565807549292  0.0135206264660373
  0.0156840463636925  0.5056292198244126  0.2763968659958007
  0.3578970655919513  0.7432740128397397  0.4626722447965677
  0.9810291719639651  0.3683480952620353  0.5113455649179461
  0.2525906308042186  0.3368154148175208  0.5866973917634337
  0.0066806740912200  0.5954308407725917  0.4940068064255897
  0.6265664026406463 -0.0088568369939341  0.6624471174929242
  0.2309546823883291  0.4603723279466449  0.5401826480651983
  0.8698688789161285  0.6117684377086945  0.5594223320341528
  0.5767812182202661  0.8315425351207214  0.7234744743856427
  0.3433066835095719  0.6674861092994019  0.4771325527440096
  0.1463406409299530  0.5378476044079324  0.4540361987561154
  0.0574026948426769  0.4182352347498870  0.7026994290884941
  1.0106128011458815 -0.0163024675580932  0.9026481603270045
  0.8178102672564153  0.7356024123796222  0.1919866411605365
  0.1874036159351816  0.4492769481252504 -0.1025487587057556
  0.3602414904532457  0.3988652506349408  0.7235430855792728
  0.4234575318984498  0.3092766992978508  0.9514784518908348
  0.0124269778341947  0.3966672864401990 -0.0290126561110008
  0.3553657002404877  0.3132338055320351  0.4952272264828271
  0.7832683423130613  0.3124793553954944  0.6126198509800994
  0.0131608633579175  0.2524340675373423  0.0104856139282175
  0.9922751188660497  0.9090293276321525  0.2472787880929954
  0.0578689732655227  0.7706313432377028  0.6505305265179430
  0.1509962205664347  0.2753638433149043  0.3429959392560729
  0.5788162874967495  0.8913038221414761  0.8919902089724533
  0.4891008872501763  0.7438582936434783  0.3569289278194986
  0.2849785157177840  0.2354942416059311 -0.0006420492851779
  0.8160985896550088  0.7927297058478058  0.4277721940287205
  0.8356376175620484  0.7447135963920586  0.5991824449188745
  0.4374878563519539  0.1587391940660005  0.5930268845344213
  0.7733782211766956  0.2261327279572336  0.7353241011532593
  0.2474849720329397  0.7287379824924686  0.7757316873791553
  0.2553250933982309  0.7040007016717794  0.5816432381412022
  0.5055049493515620  0.0616815826802531  0.2095659737538585
  0.7155260350050013  0.4727527530976224  0.7904979955162577
  0.0592040728952598  0.8430846935837569  0.3570810400226101
  0.6276985003958161  0.6514630293264708  0.0903043372510176
  0.2494240800074361  0.4077828812820701  0.2343933962206271
  0.6999819156448902  0.5277002110717168  0.4449901736069465
  0.4292286341157285  0.3325431478844580  0.4637966125224393
  0.6736017501743667  0.4050771196021375  0.5417446118020300
  0.0453918941831274  0.1993084681510447  0.0832796320899737
  0.5987309410991509  0.6794593627918716  0.3695872561241134
 -0.0229582231842037  0.3665192651723768  0.3724723295351431
  0.4461111261813643  0.5153470459289594  0.8508592252247952
  0.6385848650021335  0.3452041205209458  0.4905053756253705
  0.9143800839516399  0.7992454280541088  0.3086387363445698
  0.9577495182470397  0.8888945402706723 -0.0073274144395665
  0.6473438719065517  0.8153069425476838  0.1290578096726967
  0.3118685835238772  0.7378040540632087  0.7072880019436398
  0.1622473449201667  0.3568480819187440  0.9265037892250528
  0.8599683357343280  0.4858797832900324  0.1919677491445690
  0.4363252487169936  0.4580026828336308  0.7190029484411539
  0.4083816076234629 -0.0139191934784940  0.0687381381939004
  0.4140172347477831  0.9270873340482094  0.5053574263948311
  0.3032891549132504  0.6468344163209959  0.1330701487930459
  0.3518226195874436  0.7176492760065434  0.5659635720574472
  0.8762947207002462  0.5567641028834353  0.6540937631179529
  0.3492315774495396  0.8932437818318693  0.5845142184149807
  0.8289518913954900  0.1895528621980891  0.8812152090868816
  0.2875056163372939  0.5614229561083528  0.8093298725196089
  0.6592302657272505 -0.0689026882471583  0.8520593531843078
  0.5442540294103535  0.8924234040662999  0.7976320263195259
  0.5208794514411746  0.2841380120305963  0.1490871391365531
  0.4886843126480494  0.1527238100000921  0.6763039541957983
  0.4805865982403122  0.8084322054375096  0.1310425194444156
  0.6367616518734884  0.7368802389730135  0.0398893208719125
  0.7391924348996836  0.2375119703431073  0.2605445583389391
  0.8282024291667368  0.0664313895441632  0.0738786290094697
  0.7119757561798508 -0.0228136256680709  0.7415822626427729
  0.6593470014847269  0.1083688567889623  0.1352213228742996
  0.5283627199059274  0.8102925229907108  0.8892713450941553
  0.3803194566545312  0.7363477222895424 -0.0045567491397369
  0.4752076375676645  0.6532934326549372  0.1273655946781179
  0.4860737662853358  0.7114191242244169  0.2102320689977309
  0.5641217864265232  0.7257703608163842  0.1306074307398231
  0.6765099516928731  0.1059564384296920  0.4946486408941530
  0.4603253120840042  0.8767331461355115  0.5829146464421392
  0.0949569770733154  0.4422465490930039 -0.0239398047153806
  0.5103215529242895  0.7859827362437365  0.7822144470771454
  0.4337492118863405  0.3875124781017913  0.3800182557018317
  0.4335256271761095  0.7019246995798670  0.5010773161358915
  0.5902242944927256  0.9121045327784257  0.4065311881765003
  0.5551351137896049  0.0635994410938918  0.8086829774925814
  0.5525366058327519  0.4771662347236650  0.7429005539569462
  0.6681570106313285  0.0712591526518403  0.7125160487952852
  0.4422413936357030  0.4694713938825403  0.0990262675415327
  0.3629773221510682  0.4519762021279395  0.8164904868608486
  0.2928601149290243  0.4677572660297098  0.9316384710922123
  0.3691144576327816  0.4402330581383685  0.6318669819137243
  0.4164243738360576  0.3549906406995241  0.7908889916034257
  0.3000793513204951  0.4726099503302206  0.7162660122808446
  0.3869688980949116  0.0918377537299798  0.3328943678563915
 -0.0302253689489992  0.4766585085380620 -0.0637786278027456
  0.2332124679696610  0.4284168775609034  0.4488239382174120
 -0.0563499174201143  0.3273396669826494  0.8028969677961215
 -0.0203541469405738  0.4504525583100957  0.0442242338142487
  0.1189170217730640  0.4189553379885606  0.6278461920417316
  0.0974790899538216  0.9329345601524444  0.3914463424925492
  0.0772876609561977  0.6121680217518689  0.1960381201736574
  0.1074080844678394  0.1595885002965980  0.7168843917860837
  0.8735133153188935  0.5219907888958519 -0.0005350742727332
  0.0734114815961006  0.6684883025460401 -0.0488577167018240
  0.6650673573055619  0.2964673781934147  0.1769590514091996
  0.4060116028877318  0.6765957428621678  0.3990693551387599
  0.3556921894998336  0.3980605234491831  0.4527663954940179
  0.4241130258851592  0.3514507199020085  0.6698692530330614
  0.3048658935693304  0.4005270708528915  0.5461981961533035
  0.3024640402512849  0.3692066991847867  0.3517516512718496
  0.4044763448764892  0.4000625083566757  0.1555672222019585
  0.3215235814361401  0.4672599731715518  0.3717650465214347
  0.5089874287492748  0.3009845149373170  0.0002860642316516
  0.6627577147956957  0.4970952096625316  0.1640451912635546
  0.3452867965632784  0.9123313816149817  0.2323107586510025
  0.3842122772271550  0.5396780478935713  0.7770106272030844
  0.3269756748025998  0.6605665607090125  0.3223964156189932
  0.3292701759776046  0.7394197566606343  0.2325403270067491
  0.3163283529940143  0.7906938340063708  0.8109047744774628
  0.6952838464377045  0.2431532874538323  0.3599498468906726
  0.4652675013005699  0.8995922821643156  0.8947176070868361
  0.2923426959851471  0.9181981174663577  0.9371750016921241
  0.5387316651971357 -0.0257282146771807  0.5986011728509407
  0.3095865933548181  0.5044755491746172  0.4822885639904984
  0.3135840222033324  0.5155810808973172  0.5794053678103134
  0.5406089299284633  0.0040981230898806  0.4072671205072793
  0.4788967393648149 -0.0202082546700394  0.1425758436436020
  0.8452690146854573  0.1025779070024230  0.6167297272765470
  0.1536376033235883  0.3700050902406771  0.0450171211571571
  0.7052026797779768  0.5948079924650248  0.5224070503086953
  0.7578445333342213  0.5305800874479835  0.2357255445795413
 -0.1176550485978303  0.1287231052914078  0.1401287341577744
  0.7920585958641781  0.2879595687130345  0.1573270710065745
  0.9329548852496938  0.2855009817963143  0.6969028346892830
  0.8152402897472451  0.2249060610244841  0.3349145834777885
  0.0321531038579548  0.4230573616328769  0.4421589778195991
  0.7190978644085386  0.1460010617912516  0.3506756660580895
 -0.0354542907946237  0.3371277032197821  0.0280265978286217
  0.7936370897088176  0.1957980834095187  0.0802172411773762
  0.9788755149241850  0.6421046964174805  0.1585278801012862
  0.8167646966770566  0.3863678041668905  0.1954406956753166
  0.8866536457581111  0.3138245675094140  0.3837956638445853
  0.6519300794573258  0.5581608404377505  0.0646141446421847
  0.7082845932395558  0.3809031249319479  0.1513450693448299
  0.8588134396817273  0.3740935709827465  0.7916703383158609
  0.6997410540101329  0.3133072677626379  0.7115580874094307
  0.5920183822484808  0.5589492775986369  0.6688703088494277
  0.9451651670407579  0.8111668812363153  0.9366332009295566
  0.8150597535180831  0.8127809550692308  0.8047123755086779
  0.8070197469508023  0.8370592787755905  0.6256329925259925
  0.8430955276331650  0.6923720292758974  0.4530685227993237
  0.6596127538643937  0.2883065927896297  0.8267762764939319
  0.4437681023643401  0.8930230655670454  0.7828282308279844
  0.9160169492578323  0.6450929440360522  0.0465212201391597
  0.9041557960838069 -0.0135632657917970  0.7238879714865344
  0.3604397682289556  0.2430029718401163  0.9214201196107451
 -0.0374273017831904  0.4012696751052194  0.7246261992510957
  0.8311517164921896  0.4829187914939501  0.0837480012440500
 -0.0566648961256916  0.3663396439001548  0.9132816097058744
  0.8035291359519776  0.4748433002645637  0.8256077875548866
  0.6965907573113406  0.3826063998849448  0.8195851321834426
  0.7895521476001887  0.5725118060149663  0.4660706814809721
  0.7251900663574133  0.4318993267007691  0.2509569147385857
  0.8857518077973328  0.6788232565364521  0.1491260240335027
  0.7615278575196530  0.8071059643133700  0.3383491308022951
  0.8976254960034318  0.7123577283170028 -0.0328746473279116
  0.9429235771321841 -0.0838619141642254  0.8972887279472025
  0.8044884137641145  0.7373367329158281  0.7073387478846520
  0.8659384820002632  0.0308724503312739 -0.0154253492746362
  0.7420757142101106  0.0869705433411943  0.7813481485973757
  0.9659586664660829  0.8123293089152811  0.3936456733083894
  0.7200103059291616  0.8957917315415460  0.1245112134472250
 -0.0313013023957559  0.7001855123342006  0.4398431532265499
  0.7441923979920531  0.5391445804099952  0.3527006216053659
  0.8539392624103986  0.7400275644239359  0.3605642647858819
  0.8667887213181984  0.8590915784528226  0.3778482044411280
  0.6657810914771763  0.3743881114302886  0.9170724698916346
  0.5066793786164050  0.1372822603111317  0.1449992634047917
  0.0349407414042032  0.3284332742462668  0.6714668428919052
  0.2213416015711793  0.4436210343768219  0.3231654543524675
  0.1432102307599256  0.4057387804660518  0.8196796339883065
  0.7674295127811854  0.3067333076512920  0.8014550421831209
  0.6699590155373997  0.2163000757278635  0.7332600580890506
  0.7733627740627850  0.5366098679692715  0.7375189424906918
  0.6453073064152997  0.6461122132425543 -0.0145001776235997
  0.7285707625548279  0.8233052038539656  0.9147856502032147
  0.7453000961376174  0.8171485092615037  0.7239757725531379
  0.6624166608914410  0.8285650621970895  0.3913329149224196
  0.6990393358330402  0.9079426037180699  0.3215046584385899
  0.5472549678962759  0.8183783492890992  0.4078999328196992
  0.6291896870874220 -0.1142614496600020  0.0540767891089371
  0.5410644118218114  0.3709856014628363  0.4080777762920335
  0.5056942021720574  0.2999092950320444  0.8206751651967347
  0.5586464012992753  0.5035713996727735  0.0836375377159864
  0.4925405640318323  0.3624625296963314  0.9081542990485786
  0.7279962822134746  0.1149711833167396  0.0559238541814942
  0.4745590168379794  0.5635720124369781  0.0516093509217894
  0.4837449900120500  0.2342961087489911  0.9077426533840012
  0.3635055842777916  0.2902538212619442  0.4004077058566509
  0.5296584801172219  0.4700360602431016  0.3984982900134764
  0.5092645108091676  0.3167880573155807  0.6189948995004372
  0.5623036549545201  0.0510822179708218 -0.0263411506000848
  0.5208768182904702  0.4276634407889586  0.2939556788542013
  0.2392056624055031  0.8104865991709025  0.7248859804694742
  0.6334489605248842  0.8308563208221096 -0.0428429839745751
  0.7095740698236712  0.5603839856759405  0.8266267576069954
  0.7261839798880738  0.7472347002597909  0.8194011608149795
  0.7391932866218880  0.7477641038839901  0.6201377945671475
  0.7416710737468800  0.7385716269028204  0.4170181549693472
  0.0386100151745822  0.8921415041341364 -0.0580368300152917
  0.6819892178169774  0.6254906770651065  0.4166141946091091
 -0.0099522871545497  0.7363380776940803  0.0164101826957803
 -0.0307691963761829  0.6318544609145409  0.6979671665589309
  0.2204281532954989  0.1678433570505618 -0.0545081911531260
  0.1187966481567385  0.6769283431896240  0.3122024219940937
 -0.0136714678218220 -0.0940365553436705  0.3591562088253638
  0.2354137255675764  0.6392844998626985  0.7418332512643743
  0.2391093974370846 -0.0040023414832614  0.1061321867621340
  0.1849762058649395  0.2096347790894086  0.6572100104122500
  0.0640059820084064  0.2300951233783990  0.3828627916761759
  0.0901586130862072  0.7416639969274738  0.8391757073279178
  0.2829785073128609  0.7118857061232449  0.4065345776149647
  0.1524990659545609  0.6168709016972334  0.6894596247487386
  0.4405113738482904  0.2079280920140585  0.1641487785143569
  0.4203194995875787  0.2392545411118562  0.5079084303871140
  0.5220152763547000  0.2176900465907337  0.2419428159538745
  0.2623212753187595  0.3293506184597739  0.4677808835365788
  0.1875451184631417 -0.0155818581394149  0.5335437087389047
  0.0958826622118519  0.1967971979875779 -0.0013198759342056
  0.1257955181640516  0.4607047223517806  0.5147977899241093
  0.1736367760760404  0.3247608153554333  0.6402454320743689
  0.0740108984361174  0.3390575750141179  0.3819002872268136
  0.9032768180662382  0.3016411821963292  0.1849873130855543
  0.4227474297623923  0.0703753419896371  0.1515881015061875
  0.0018296402966308  0.3593583767511690  0.1258390316985592
  0.8673056601697110  0.5977062513235807  0.7444740473101744
  0.0547797906542206  0.9143482455553756  0.1660618030534005
  0.1293722571347228  0.7853352314385836  0.2950688406179008
  0.9037802651798869  0.8201008612345736  0.5700823398405019
  0.6542154578104896  0.2060870019634475  0.9002622554273004
  0.2353363186867120  0.8875317729907577  0.8248832623555842
  0.1605642449339081  0.0093889150798153  0.8114663642599349
  0.6354220436579878  0.2241942062445915  0.2469106659260214
  0.7916976243993922  0.6355235368799956  0.3784736897963419
  0.0960401417655211  0.0681428895777352  0.5531538819930619
  0.2388381772533496  0.8277473337268278  0.0982109660670156
  0.2134848253700363  0.7787429490110719  0.8482839530080266
  0.0115050842854043  0.8262459765625745  0.8453319872685430
  0.1244573689582254  0.8480230014739741  0.8887159326390468
  0.2091376820607782  0.8413721743219814  0.9422613178788821
  0.1250160908450007  0.8277393414836751  0.0138398173266669
 -0.0395866997049610  0.5329796234640596  0.7412213340703314
  0.2038606503575240 -0.0301078855350185  0.4239926414237405
  0.9456741709284817  0.0706582999655843  0.0548616877639933
  0.0432618324441320  0.9980840437834754  0.2328087298028974
  0.4238995713363573  0.2265554719982205  0.0051069834875166
  0.0100015810069489  0.0037563801127554  0.1102352437688176
  0.0682391532384251  0.3177279343908748 -0.0364925900563857
  0.4181531109140373  0.1419629932542604  0.0686895024127457
  0.0594541031626246  0.1829593437669964  0.1794742246092879
  0.7803291197104465  0.3300469943032674 -0.0155181999288991
  0.1288495893994356  0.4610285400366132  0.3880621228523805
  0.1666212712906288  0.8371330284337728  0.2112600523322290
  0.3170651972469651 -0.0091903488771802  0.0106413613523573
  0.2059834322357612  0.0856475108121023  0.3997123419746350
  1.0392515060634122  0.7039580322506321  0.2525318572744971
  0.0480806523153212  0.4058588738375824 -0.1193053236323071
  0.3499300913105361  0.2284906584094603  0.0838727829749928
  0.1481374904103804  0.4808023202398030  0.7190433104341607
  0.1105387255549104  0.4975210100765218  0.2780273171182722
  0.2811524462320886  0.0553922594423629  0.5748625394937431
  0.2254803750455006 -0.0089316854009340  0.3298058002268024
  0.1471758595117413  0.2468000361000156  0.9104742133383483
  0.1812978932732144  0.7927376550367420  0.5647988762056947
  0.2610196699235905  0.0932677264711581  0.1661050535282630
  0.0407287106647035  0.0126937423582059  0.3449077484042480
  0.1066264590184407  0.7650538253618109  0.4873862648548244
  0.3152762614798235  0.2809338822667448  0.8332421797206788
  0.0742015053047758  0.2898562109721378  0.0745812901444707
  0.1641148331693311  0.0486797759347823  0.7216673226145970
  0.3028657172491438  0.5569423021583447 -0.0131527964951843
  0.5728383854376125  0.4460269045084085  0.6537634816162062
  0.0604882421390634  0.0760073260330070  0.6635436187848197
  0.1036301922275479  0.9930226537338969  0.6292746932745806
  0.6602539987057667  0.6666478242935980  0.8077058745433400
  0.2967436518792145  0.1665270957633551  0.3741669111339226
  0.8569058820675637  0.5849291388215216  0.1893036084103960
  0.1803843178116653  0.3721505637953295  0.5369969284720539
  0.0747759523791715  0.4418226804753393  0.1058956825438986
  0.6270574974892524  0.8184385761674710  0.8500382647172686
 -0.0217174409730131 -0.0174406061964862 -0.0011401942591773
  0.0219814709611107  0.4066367990598858  0.5915785250156201
  0.2313548612176902  0.1421299029688371  0.7215223115202596
  0.1746394266688024  0.2619651169711193  0.0086423769600942
  0.7221861486657708  0.6411202526595090  0.0611146014619481
  0.8879569473115474  0.1713163596902947  0.0493473112736517
  0.3300402230427577  0.4616208211002369  0.2645921306218594
  0.4158265369697270  0.1503372374842761  0.9038840387169906
  0.9167718886290254  0.1060323138683385  0.5469155659959951
  0.1033291431811429  0.1377322164476678  0.9003148455550436
  0.1533341748094934  0.1222151767771961  0.8091441695145896
  0.4047979328876569  0.1734667080182570  0.7070232684285583
  0.2471850657210803  0.2708012064621208  0.7317698699917575
  0.2557132973284832  0.0842723025453591  0.8108055449404904
  0.9373994640622253  0.1757629750810195  0.7372456043810487
 -0.0100441270745444  0.2924585469586282  0.5759604856780094
  0.2818587975922707 -0.0121858493266700  0.8550941238523414
  0.0291110186408525  0.2000804869091783  0.9167044006286527
  0.1519839788252790  0.2806929812759004  0.4515633016697476
  0.8985173239419384  0.6347746019884287  0.3685196450881190
  0.1586519714398995  0.4061265230836840  0.2333979558517229
  0.1043916677385533  0.2262754788943675  0.8199564809514647
  0.2286940920020309  0.3388762392268242  0.1679110090934484
  0.8618610529122649  0.3956315650072481  0.6651167864908488
  0.9469942555277115 -0.0179774367132339  0.2878352818320443
  0.7903075943213984  0.3941199890821509  0.5687189099386226
  0.0823194055351559  0.6605076981602670  0.4312732366828890
  0.8353869010613652  0.6801877036272872  0.2637860412788486
  0.8018834798077351  0.5510199001256019  0.5732028458169623
  0.7925393536393477  0.2864974914617243  0.5246999716021905
  0.8727742700098833  0.2959054269562548  0.6067149409408710
  0.8115410811059963  0.3076905182487337  0.7010394733391027
  0.8319000329733945 -0.0027041488041174  0.2820957026552548
  0.7643748475243204  0.4125545254669221  0.7383999441613365
  0.8303499741912215  0.6020111046885859  0.0822832540341793
  0.8787970360197906  0.3658742272908805  0.2800736408172293
  0.1420727181816320  0.1819152962755116  0.5495078465521163
  0.2082118891057567  0.3863782442040439  0.7287959406001036
  0.1139020338565086  0.3496453600726132  0.1558402034401013
  0.8346702626708113  0.4625437109323775  0.4933209487372326
  0.2582403480311197  0.3696022758233490 -0.0101455322457391
  0.8415098587990952  0.5712445489157024  0.2955568902436274
  0.9054822732355275  0.3988325178601326  0.5618650200419554
  0.9181110567958100  0.4341366021516270  0.3570968332717116
  0.9101820981372022  0.6055271915597707  0.4755104421877026
  0.7831445324633126  0.4747023876657645  0.6496296334734309
  0.7780328666149021  0.6253563979651626  0.6643219187232013
  0.8216586162392463  0.4602334863968890  0.2982124286647002
  0.3333382743229865  0.1549124035439766 -0.0117346428942580
  0.9422688214431266  0.4524385650196263  0.2587393207531651
  0.8629483946143038  0.2554684911073195  0.7811004459805013
  0.2257278975063061  0.2046028169742598  0.8343749450632105
  0.7992949965635331  0.5485586631520256  0.9111261182774083
  0.8301210998448165  0.0786728448641563  0.8748217807604663
  0.0583305291603832  0.2341092517236618  0.4987832466200847
  0.9024046442386848 -0.0337251907739119  0.3899186642510540
  0.8139634636032900  0.7129303174153595  0.0668587599579889
  0.3083953245097838  0.2078822153040474  0.6602374520999589
  0.1869652011790216  0.4349879747239236  0.1302558178653877
  0.7845929381307394  0.3796274988339169  0.8858475346640984
  0.8141104246595569  0.6389622385437846 -0.0236848800826553
  0.2495737930717208  0.1616898594066777  0.5760254848490340
  0.7762136842696884  0.3421834576711311  0.3163866597158018
  0.8732385518244167 -0.0829489421731493 -0.0141522499110188
  0.7805532949625681 -0.0386206887027097  0.0329338650582316
  0.7853291276839424 -0.0388332018230159  0.3754056340315966
 -0.0781212044035899  0.5452871264853130  0.1049427389181984
  0.8923137951166139  0.5372838729618102  0.8386752638514462
  0.8884947101390975 -0.0310666525761153  0.0829081196163463
 -0.0141547236289215  0.0908757841780173  0.1735167673148503
  0.9155758592933740  0.5994086629037680 -0.0706082280343745
  0.8000848802278786  0.0225736658990408  0.6775566526561236
  0.8985641117285859  0.3058864805566985  0.4986148299200320