 B Cr Ni 
 1.0000000000000000
    21.1200000000000010    0.0000000000000000    0.0000000000000000
     0.0000000000000000   21.1200000000000010    0.0000000000000000
     0.0000000000000000    0.0000000000000000   21.1200000000000010
 B   Cr  Ni 
 173 259 605
Direct
  0.7825520551431339  0.0722778914568443  0.8500752714520011
  0.5275405682921697  0.0863449012325257  0.4810212996751858
  0.9958517717994201  0.0286967605722780  0.6619513505487059
  0.5673329977985734  0.4042401061461680  0.5890368214411743
  0.8371699698871239  0.9634705217666364  0.0913127351366070
  0.2646662418114497  0.1980178408971909  0.5965015967854049
  0.5740695956825673  0.2263235234414373  0.3581518667530904
  0.0043835491984652  0.8182527266853341  0.5443056283596942
  0.8772751887389643  0.9230027772872883  0.7344966753808279
  0.0966089152820919  0.6063117794747321  0.6127553424616597
  0.0816755812738648  0.4413017907894382  0.1372610953488138
  0.3131675403175415  0.8317614075587336  0.5510039107892294
  0.7513998144360474  0.3283433734848392  0.1828240157010703
  0.3348556620167217  0.0669065087972589  0.7042434124366262
  0.8348986529531620  0.9386000300547347  0.8552074091296146
  0.2181353206508988  0.1971877447179037  0.7424972088881131
  0.3560156647290910  0.8974364956565062  0.0436887096457967
  0.5713524186274775  0.3807075752343705  0.9833706510573140
  0.6302698190852071  0.1688102441319919  0.3493807084075680
  0.2531458052980293  0.7303287767049491  0.3365014619050545
  0.6814896080550868  0.3402712105483371  0.9024981661603246
  0.8162640261091491  0.7154327351608789  0.3231068169190122
  0.4893743482634701  0.4042951854054520  0.0010039933351103
  0.7388174746550032  0.2175091873918966  0.7587053102702730
  0.2500768724456597  0.2591616848074281  0.2669433003155918
  0.4118603755803087  0.1622444389217897  0.9003070234881049
  0.7027480618106867  0.9087652014805416  0.8098568707738033
  0.3954545879165798  0.0078332782244402  0.8241736858271241
  0.6049005441001095  0.1756377282417108  0.1668019724965285
  0.9888704901406945  0.9417796732785693  0.9864702957403984
  0.9384493427636965  0.8761574318931072  0.2725780298577313
  0.3411991104051824  0.2479648540197797  0.8378528588248264
  0.4692150917395259  0.8325696714085578  0.2619927083717467
  0.3472762599997718  0.2498061220929238  0.4903108544680106
  0.7579489241643005  0.4260405165499672  0.7738566004900769
  0.0037064841983736  0.4336212704454303  0.1687067197475621
  0.9692506654089681  0.7216661648336758  0.8884168328610540
  0.3993460040320859  0.9501469897562352  0.2850194870591654
  0.4219585762315839  0.5714005468135078  0.4105207027484449
  0.8603662707613875  0.8712048818034844  0.4869677197842246
  0.8526833318653024  0.4266347752677139  0.6618541223184922
  0.5154752390784552  0.9720236043610477  0.3798640360867426
  0.3966947790987408  0.3670278459710154  0.7045880103658685
  0.0595125057589561  0.7538521167354746  0.3583840526528900
  0.5504809142948559  0.8346118365765308  0.5046585590932637
  0.9462759769058087  0.9132038416553739  0.3543964530455318
  0.5784926792606614  0.7006200441354105  0.0092140178418037
  0.3253427497166769  0.7884224398109596  0.4767107161774368
  0.2228804210356376  0.4712359485866737  0.8313501005703566
  0.9772466284047171  0.2359664222425479  0.6905466106495594
  0.9417419888804788  0.1830579779077190  0.3459690097910977
  0.5722198559325049  0.7552945361209346  0.3903767058232887
  0.9092194531391338  0.4780250984432807  0.4905648288388539
  0.7265266687310059  0.4947665488631942  0.8136691122898675
  0.2045876735572109  0.8623135698336455  0.4723286764362684
  0.8961059832849642  0.0848731092570869  0.7501849616377373
  0.5641700723486369  0.9254102805474245  0.9149954895869881
  0.1641132899984003  0.8339085177303366  0.7635517986131716
  0.4181496036867191  0.9728018560745275  0.8972773129404917
  0.7481708279991266  0.0757780697520624  0.0302312328177934
  0.1421528096433645  0.3090478073581593  0.2014863258346790
  0.8163367786132769  0.1243080171658315  0.9027095146517800
  0.3075049144468395  0.3297441995550932  0.9397965469477831
  0.4857564629078019  0.5984822656951898  0.0261042638603291
  0.5227137490143222  0.9769598529037987  0.5800878875864813
  0.3348881552095215  0.5812245022226977  0.1549165992510391
  0.6294614960327903  0.5312323373841963  0.0741081612163671
  0.8737701403414792  0.8843209923386572  0.3325143844624213
  0.0065343132316573  0.6834112142763067  0.5636021707251431
  0.0026637208145167  0.7437709593268452  0.1784891429283897
  0.8789759656998588  0.4312610625099108  0.8295979062395298
  0.9866982217931396  0.3429054756799000  0.4358964271441030
  0.9151856682483211  0.6039257128044873  0.2442864004049609
  0.7172551266983617  0.2703136476830338  0.0533578482261546
  0.3165031389325341  0.7372437225741836  0.6490898729753470
  0.4162459916901315  0.8265867687995486  0.6063019944910495
  0.3585723969036073  0.0790204554419104  0.0361632717770072
  0.7513319857069067  0.4624276135140654  0.4957026641183747
  0.1608917213193059  0.0768183519851485  0.6758852343510156
  0.5296451704293855  0.2700363170478003  0.5133481524138357
  0.8722760138990561  0.5430697518067160  0.2120127326724912
  0.2370354915949241  0.5009693421628656  0.0279052505691889
  0.8754118408620921  0.3176192742989613  0.5626539300489620
  0.2929326813338329  0.7056777078480015  0.4828463161922715
  0.1554337672338097  0.0804478548206628  0.4912606443318345
  0.5045930309399914  0.0840879546097735  0.6670811431891898
  0.9419092832737129  0.7335398094167790  0.1210094765725758
  0.1907924639239258  0.4358436499765934  0.0012397350169714
  0.4234696544731378  0.0833612328635376  0.2679024517408783
  0.4380392192123594  0.3762612292718484  0.5276156860093923
  0.7326283767399440  0.4186629033605679  0.4211453703152380
  0.8242612813253664  0.4065934684069745  0.9948805369470417
  0.0976667468090911  0.2865362454163725  0.0583330074437848
  0.6009534661342760  0.2408951516860053  0.9566058357427046
  0.1390763752893758  0.6482115871216675  0.4020125220112389
  0.6499889903657988  0.1960913072129891  0.5002603637077268
  0.4307541024238699  0.4318083790868425  0.9460507812082555
  0.5734722675273021  0.2824418705967129  0.8207894802459799
  0.9525743249289989  0.1918020488993806  0.1015636621579305
  0.7081128466994964  0.0211969095796444  0.4553281493206617
  0.1109353313859960  0.3140607622082052  0.6972119136449693
  0.0517344476399290  0.2051852179856453  0.4422849748367477
  0.9220938981482887  0.9946274599803445  0.5201813186724118
  0.7765909150597013  0.4527325111178211  0.0569410711584547
  0.8853922136788683  0.1984859344700560  0.9861377941064750
  0.8156061439032508  0.5868111034836471  0.4663417448109685
  0.5839293275562452  0.9449312489911462  0.4236118614153562
  0.6631533460430127  0.9093687835066638  0.3677846022763059
  0.9139277676474818  0.2314700661296694  0.8249752627386426
  0.0813253729325929  0.0892384567176356  0.0902059184433877
  0.0658752068050881  0.8109329974566064  0.8681461468020285
  0.9471662512130269  0.8356861519405525  0.8022236116344275
  0.5158950355131647  0.4110837761515507  0.3823042379965086
  0.0258949717045326  0.0978249342435637  0.6313937084180147
  0.9382826788721449  0.3648250906847732  0.0316289671506992
  0.2724224393274377  0.9503541854594814  0.9427300991064219
  0.4852011484930402  0.1370209245126159  0.4277521582400264
  0.2728396874598933  0.3344705336194169  0.0741356899396885
  0.7805034579427373  0.8364785225476438  0.9638149236997762
  0.0441118564878081  0.3006854205489247  0.3613564828688617
  0.9036069873639800  0.3808415937957881  0.6101859389419255
  0.1014751069382779  0.9511246030803513  0.8788928293525854
  0.6223019152568428  0.1712492456778324  0.6367482470158451
  0.2789026223829550  0.2161821076441900  0.7934720262699656
  0.4055954765397677  0.7385697130554264  0.9479354942898127
  0.4775463553180672  0.9223099959721694  0.1427650922441310
  0.2974330183215502  0.4840443862098487  0.5228006442714104
  0.8731247023711811  0.1395763319032193  0.3238435369682721
  0.1840729160422130  0.5912981639634932  0.9243343884131036
  0.0360861125043955  0.5691249775824677  0.4967882403036827
  0.6400605331878537  0.1775549716389555  0.9942649472887105
  0.8510686176450321  0.0581162383971821  0.6875094967960778
  0.0662275088251465  0.3129681627233517  0.5472422921025104
  0.5140115804348427  0.8768263317132443  0.0833453124678302
  0.2307269181384942  0.8909698148793203  0.2850257375483521
  0.4956983022045878  0.7013512467171329  0.5018371799823500
  0.1979117069292821  0.3769577679632261  0.5924930056723102
  0.4168637122455270  0.5107180366830890  0.6016667586200656
  0.1242457904635345  0.2285412018579800  0.8171505954884113
  0.0509953964716802  0.1367835121730950  0.7895783478762533
  0.1414893028103700  0.8464887010563528  0.1089179802597734
  0.5559857758652211  0.2042517044651601  0.1047387641887991
  0.4573955680380726  0.3429328370834610  0.0408671799452820
  0.1957681152625120  0.7361082450460762  0.8847722633504086
  0.5736928964669062  0.0246906326456454  0.5395872467496250
  0.2604054737515617  0.1104999873920325  0.5912408485150259
  0.0287488732500264  0.1783241048948633  0.9292139282021742
  0.6857263705680924  0.6702865078988997  0.2277256824566037
  0.1607447269823164  0.4894351391231472  0.4843514509845556
  0.3561950685904401  0.5722471813444688  0.3613968870769859
  0.9447238283581337  0.5084316299741015  0.3542592210818042
  0.5483353440721355  0.7592506359689071  0.9596249289260635
  0.3698532460621876  0.7639184631099948  0.1186813558997415
  0.3128859299262953  0.6487340248721758  0.7186134768762451
  0.0612652034619531  0.5018001387652647  0.9979119373010195
  0.5470416292622350  0.6446783610379659  0.4723458737006587
  0.5863251815560903  0.9177933182175811  0.0701662596006709
  0.7996133777814740  0.8800923554971060  0.5989653445158982
  0.9087504239762025  0.2387551063404228  0.5670768937598806
  0.3004802115151098  0.8383248291955617  0.9126175952729442
  0.7921337378598512  0.3725960973471494  0.8294071829300153
  0.1610445167761502  0.6904758866496920  0.7568455899561363
  0.2393715593096853  0.5945073974930576  0.2858547464175896
  0.8036540672166909  0.8035592321948651  0.8074936881755717
  0.4548374195568025  0.2158203220793640  0.9460954614798799
  0.4071551375229870  0.4346166779396852  0.1353807653244981
  0.3485654937473849  0.6597640417095501  0.5320224065229151
  0.0318691310964734  0.4174078617404359  0.6904425429516035
  0.6439068056055476  0.6691369539884696  0.1548452948101413
  0.1262428212417298  0.5015095793312018  0.2953966430607713
  0.1667351760809727  0.0881428008491824  0.8542186961587562
  0.9305664698431396  0.3803621863253683  0.7896000609351514
  0.9849659928027139  0.4386277959191816  0.3229316033137108
  0.5641795813995160  0.9900356881041462  0.7381607989929357
  0.5950807256431812  0.2794170868125272  0.1668703669935656
  0.5777383748048210  0.9281282373552280  0.1638777279666483
  0.4999474471253896  0.9909264122956137  0.4802201448966628
  0.5033729334669265  0.0005617571426370  0.9506876983635971
  0.5713426835473043  0.3274983190757663  0.3626805089372961
  0.7751198622502490  0.3331885382479984  0.9286937587499462
  0.5092136472934966  0.2026018878493543  0.1919063465250885
  0.5950589475443704  0.3172748894787037  0.2613451751887769
  0.4023922723210713  0.9661141053552180  0.0995514825528332
  0.6128331263846066  0.0182720050947699  0.0913994817457401
  0.4673781535083308  0.2467903574464214  0.6150298394973970
  0.4899804208813703  0.2481033977960129  0.7639729729488368
  0.6432061161848709  0.6521479700890289  0.5033189911860426
  0.6781996240309283  0.0876197454266289  0.6125375524513120
  0.7201219248400773  0.8310615483652988  0.4128473644352402
  0.6881537222084607  0.3698161561121608  0.3299624551631063
  0.6762340036701150  0.4333050552832943  0.0703379803115563
  0.5175974031664863  0.5440794845301327  0.1021989031356952
  0.6927889726143845  0.5005420802143903  0.1611657595908973
  0.4878929058046312  0.6560903011893294  0.6642803857918658
  0.6058230529516982  0.1426154273762676  0.9112498739623625
  0.6119236326290520  0.9990923256251503  0.3471635410321412
  0.6800170727843913  0.9904261658814921  0.1760812346705249
  0.6153869245329729  0.9685671878001992  0.9939075493739042
  0.5848849813489491  0.9240326020044795  0.5233636249849608
  0.5259674274691160  0.7684932621824418  0.0608628272695517
  0.6686799341604378  0.8685370815010827  0.1796793263562524
  0.4054476194899180  0.5817298921888768  0.8237925486130883
  0.4962570690577787  0.8286578085216437  0.6644477810702027
  0.2308897792547042  0.3975590977518665  0.7579794206175881
  0.5134567543290610  0.9787138338983775  0.0635989756786863
  0.4842227630038121  0.8902343119130093  0.5602779765975897
  0.4867976098937645  0.7914027955282915  0.4485987520730490
  0.5714178118111899  0.6684827260547760  0.9075653395951677
  0.4920555689542336  0.7717525510875720  0.5665373328630275
  0.4030597895805357  0.7231850340274427  0.4674879903076192
  0.5033170189917344  0.8909986620389865  0.4386918931940388
  0.1830333629113028  0.9076606207644131  0.9268858257607442
  0.5620288617137046  0.1838604097689522  0.8010309864176204
  0.3110413498150373  0.9451056672858749  0.1485587245447799
  0.3471681799733083  0.8017397146366593  0.9953059484971127
  0.3335879050315916  0.7387171884948798  0.3913420936015374
  0.4035807261870660  0.6738617030647143  0.2582656472606202
  0.3369535313495166  0.3469510716854319  0.5172915573432063
  0.3121061578398221  0.1504722276806476  0.5146633871597851
  0.0004772939209122  0.8265484122833779  0.3389425317480756
  0.1419324428601358  0.5280708775414198  0.8588202577272105
  0.9118801402348879  0.5766893210656712  0.5218559496608932
  0.4497868046058818  0.1776882435151035  0.0938940909907928
  0.9840892168501513  0.5046058860418250  0.6655964883285450
  0.2415462743189135  0.5685518050888981  0.8441022561746823
  0.0791729228135631  0.5837228668325449  0.9309203123500424
  0.4242938695229193  0.2499559166524327  0.0315411827866591
  0.9577179852380869  0.4918480381193663  0.8012739896833090
  0.9986691627093053  0.4844612020705764  0.5400218829054640
  0.1510306053773169  0.3945147183714234  0.4375977644596032
  0.9744155017687280  0.5936946165269187  0.8839616826883467
  0.2508128815125132  0.0722897729710719  0.3289395762332765
  0.0565478769507451  0.0961984661256511  0.2008843035560243
  0.0304504146921081  0.0328603677806623  0.0256144311196711
  0.6153251017922077  0.3394980815805130  0.5255360317611474
  0.5696570423608629  0.9099562573561646  0.3253533582521728
  0.1891806377604911  0.7312770291825607  0.2020679930313456
  0.8854901801332579  0.6681788050255569  0.7361858196069619
  0.2401981427172152  0.4885152858068055  0.9273879321709882
  0.4100659236112829  0.5241410803262428  0.0887354529333560
  0.5165644267047010  0.4906675557091691  0.3042130281409380
  0.5117166911275634  0.1186081980777564  0.9056807203531960
  0.4892752968783562  0.3112677649516907  0.2007655117030468
  0.3375358882592918  0.5124087395434369  0.9942199922375079
  0.3219685007807915  0.4111742436352131  0.4346995316416081
  0.7547402074285071  0.0528404288651151  0.6670235434137219
  0.3890823277928566  0.8909994019175321  0.1811293783473558
  0.2594293886234185  0.6789884740461987  0.5782353016344917
  0.4088231263932733  0.4772308845240539  0.2748305219618910
  0.2483625151787032  0.6518142528115551  0.1297431260512258
  0.4379345891400662  0.3323000574538273  0.9405760907673033
  0.8318215320734889  0.6295496822744207  0.1906483941503044
  0.4089756682847375  0.4975631769149499  0.7662907169688475
  0.8678986693639544  0.3210567943920236  0.8491132009536666
  0.7452873319332831  0.9948807530110946  0.0900480101431384
  0.7553641748971512  0.3223943614986530  0.7485533165706005
  0.8358476479672172  0.3245728518649010  0.6593655207373117
  0.7003882092789506  0.3187354066945675  0.4181599908785056
  0.8178139950716780  0.5205789984825330  0.1337637301625719
  0.9888113823904264  0.1853359691632528  0.5966213825291538
  0.8597058723825346  0.5524408904035517  0.3079362986726265
  0.8134142305078977  0.4073495717175533  0.5728906636713371
  0.9167820150398384  0.4747013493158171  0.1588318958479204
  0.9097278293797323  0.5268217533696310  0.0579970272035180
  0.8368623917858803  0.2248632058525801  0.9000779912675266
  0.8022697040650829  0.1355749828293006  0.6220625187502442
  0.9058040781724491  0.0943429126434344  0.0443014705575356
  0.8247980397200777  0.6080863665289769  0.0697719062514966
  0.2711063092519594  0.9886898078057011  0.3861723445754659
  0.9746215332740641  0.7131122233880488  0.3858168594099510
  0.9109716514707188  0.4791728476852195  0.5948906349859788
  0.9860762854799718  0.0064176993499287  0.3601630233186423
  0.9551767855335889  0.5140016139915315  0.2574487001080811
  0.5878087191168623  0.1512877229179355  0.4324196698052465
  0.9262393898861900  0.5891733275502834  0.1425080309729486
  0.6219511832015110  0.3919108968766898  0.4330678403609892
  0.9095897067203328  0.7816272179597705  0.3000362071263444
  0.8249733122346569  0.7447550272824395  0.2310485996322106
  0.8261378322789601  0.6780879309248906  0.9842499695210232
  0.6056380590205015  0.2644125535952305  0.4483360413660217
  0.9093525512411716  0.9711114773550394  0.2827453771791630
  0.6611738958863068  0.4392548288778473  0.7539797022677328
  0.4992282343506764  0.2365219352216095  0.4214147281354758
  0.8765868326397592  0.7327063873652719  0.4012052565198543
  0.9039489816230023  0.6722725186849935  0.5720017980845569
  0.7698544825529368  0.0686465544369320  0.5416278177855015
  0.9648456339407847  0.0748745827152161  0.5595111446177562
  0.3156961478434838  0.3197679207496245  0.2097903971242229
  0.8556234907183419  0.0242121122124522  0.8936372050356053
  0.0592987976542090  0.8757774730308620  0.9391251362663602
  0.4066212908691851  0.7415233610324291  0.8153846055858907
  0.9171775749771213  0.8348652099867264  0.4121603032302306
  0.8828390991267745  0.1364464084822122  0.1707650181715742
  0.8445340084396749  0.8808391604432299  0.2392688565649120
  0.7837520039481884  0.1685885923377886  0.1515596726471717
  0.8993568014317721  0.8054496118893707  0.0695591870639920
  0.8441348483314378  0.4515366643563970  0.2381175108062510
  0.8191380211879469  0.7546944976144681  0.9023922158025304
  0.7906660548763317  0.1655706122118246  0.4878752109396989
  0.9966115936653945  0.5863033559100155  0.5889246070988825
  0.6544220384755215  0.5015675256225361  0.6700448603729250
  0.3281928461188387  0.9058354010789308  0.7387832704417326
  0.2605204385289754  0.3855802196656874  0.8502120779991907
  0.1261077502109518  0.9505316866331428  0.1044268561900918
  0.7767097601110707  0.5337798095520337  0.2372969302585645
  0.7465044676413406  0.2782598660485736  0.8453952294423763
  0.7177323613878593  0.1629887929887836  0.9252759664354333
  0.7009578749437977  0.2573843928075706  0.9587093921734587
  0.8173967831625796  0.1408277696777958  0.7258325022827485
  0.6596215882286006  0.1505087902380519  0.8016406835140135
  0.7112484552273106  0.1810564757738439  0.5796017560905801
  0.4794761785435041  0.4155869296904763  0.7532156827004615
  0.6925255053334143  0.1105955387509132  0.4885904700873592
  0.8690870504373303  0.3266333579619015  0.2881899421543148
  0.7455556569199209  0.6029294054027502  0.9842826828609452
  0.6014707282910909  0.1194273822990341  0.5436901387535584
  0.5323498099944384  0.1851790223909204  0.0080319791053486
  0.8343927764611450  0.0171985877974112  0.7844004777357976
  0.5808992930666622  0.8234639061215048  0.5920690775417946
  0.6597350022627202  0.3875930855639693  0.2057861608219017
  0.3934109076078501  0.3480115508215640  0.6067463637941899
  0.5757789779077506  0.5957229680886378  0.9979480293626914
  0.6003801847271982  0.5577557555002164  0.3231171555641015
  0.5708888322652543  0.4676799397698074  0.0200039420363308
  0.4898342396509675  0.4993260804722471  0.6814850122442145
  0.4768418545160908  0.5059529639178165  0.9971398958492812
  0.6546985252720109  0.5776422779827592  0.7458054013911369
  0.4844544032633709  0.3362997893347355  0.6771269896942184
  0.4268192331877822  0.4056289644198705  0.4428506838010485
  0.4910691991674863  0.5925778047679727  0.9152630119689973
  0.5957979277612558  0.4219662929474525  0.3133235891153219
  0.5475866403602188  0.6536864705824994  0.0907505148961764
  0.6478743644663455  0.4789181860728105  0.5001661133182999
  0.3932432779514901  0.4311760674095622  0.0369400609718679
  0.0020303927410570  0.6539911303837806  0.9729284165214892
  0.5686531196428878  0.8253707922876311  0.7400328545628112
  0.0387955824039797  0.4850738915952360  0.8690111065366879
  0.1522107254837455  0.5293476063036188  0.9915801937550494
  0.2415604517109858  0.7864380279891683  0.4150527020363577
  0.3896402778833979  0.2654495552806432  0.6809754230833632
  0.1112712615641362  0.9523681133139652  0.7698459186243586
  0.0817352743686343  0.0434672103358846  0.8263753718651858
  0.1447499340935401  0.5094980256546300  0.1903448420711544
  0.1924960050638164  0.9850599167363541  0.8563757445647704
  0.1924439149061866  0.5716092989337331  0.0934581005932651
  0.0641547536162883  0.1903150668851448  0.1001596843731312
  0.9568925207734188  0.2957873160214806  0.2260525989700369
  0.1083116309212484  0.1489612126589810  0.6187374705453549
  0.0587647904858022  0.2530456650626580  0.6294183246638576
  0.7258231148331065  0.7359560043735133  0.6633024199547348
  0.7431466344166675  0.7225630721280207  0.1667124816512333
  0.3312767036829261  0.1110409463258827  0.2318720557837612
  0.1887521855549432  0.1591953607911957  0.5352123941357857
  0.0170662854723195  0.9148444711535273  0.4198776477917184
  0.1311766335101369  0.5874157102193451  0.7620264430476869
  0.2510364469037341  0.3177117710710847  0.4299004245788112
  0.1636227743527821  0.2376539043019645  0.9228074513367106
  0.1961873030137469  0.9861773080097859  0.3057034152831627
  0.0044649362905861  0.5770694366309207  0.0598751455718729
  0.1889888565530524  0.0374461588588175  0.7665695075768868
  0.3983258476910586  0.9090179886502339  0.8208871275413930
  0.8848237417998454  0.4291498829424888  0.3360617252752939
  0.2726781562750263  0.5929150008763558  0.5152452530979865
  0.2515373490329899  0.0649507851225077  0.4977931104155280
  0.6629087246327001  0.3480085047119429  0.0021575156873988
  0.7698207173455461  0.6434343179342610  0.2701514788568993
  0.5923692043136601  0.0230591374553905  0.9075284104638631
  0.9284605461809340  0.0062109075983004  0.0916755109663862
  0.7230602568715118  0.7418664128784866  0.2966502777716518
  0.1882304492622945  0.4498240903984797  0.1031126423396414
  0.0767556814954499  0.8947618225801091  0.1738270080852560
  0.4211602142263373  0.0746611070837051  0.4862221755256232
  0.0295380150554880  0.9199652047525725  0.2951627695535079
  0.9124157470842440  0.8052096020983767  0.1938179530223307
  0.1524171860025556  0.6464234953552800  0.8457822022302758
  0.2977778936900893  0.0009579824241149  0.7754655273838216
  0.0551767566782230  0.9348688711396661  0.6683693406597949
  0.0098084198062100  0.7485712117496166  0.0504468628294803
  0.2411943955630685  0.7704496482278663  0.9745601172978268
  0.0439774331143378  0.5852285262694624  0.8111672785067254
  0.3033462915900802  0.3131972699544290  0.3318083124055298
  0.5273691658993477  0.1094651483700029  0.1226238019700202
  0.1854692802706094  0.6890739172339231  0.4869535990426682
  0.0658978101297739  0.8109989639535595  0.6392783769907081
  0.1419120577935148  0.1319513937374758  0.7593702850245450
  0.0688659644292763  0.0128316852528540  0.5976311817336298
  0.0931257238043416  0.9494555344616273  0.9942690922075942
  0.0639594058861681  0.1022870870124116  0.5318975864477791
  0.1054496093144163  0.8422822709106023  0.3726908215104065
  0.1295013979635578  0.2243970154881239  0.7099494299874114
  0.2359623006172033  0.6628616734617646  0.4084783625414382
  0.0830834199892807  0.0612071412093949  0.3184685615804091
  0.1566871971920126  0.7427296294709842  0.3755735899786437
  0.2560965323994991  0.0957502369209719  0.0416602407938703
  0.0299265761420873  0.8120514649300167  0.4481059104892083
  0.7601910337112726  0.4245359743783844  0.1544668408859234
  0.1614709513356704  0.3181149648390126  0.3681751079275062
  0.1173636414398725  0.0361371914860596  0.9291539290072658
  0.9858000714667949  0.8308629448778262  0.1211649045097205
  0.5448869718931046  0.0782998277103319  0.0107848465497927
  0.4212949073949879  0.0084877523049477  0.4057613123272135
  0.1475287820523372  0.6839374769216914  0.1204821115981899
  0.9960239934465606  0.7221650250337800  0.2801672529760009
  0.6549623195625659  0.8254965923828421  0.3149058135500372
  0.6557599537579997  0.8247168154561308  0.5061732863694121
  0.6437583529939542  0.8258126297429786  0.8189082393087757
  0.5579592482305152  0.6589253025881160  0.5748111928535079
  0.6796008986006976  0.9141268941141847  0.0815186956152628
  0.7339550679170717  0.6125965293998260  0.1522302731245951
  0.6617752800237723  0.9289142926475727  0.2644197920089497
  0.4888807423626036  0.6531804976750946  0.1925343217783476
  0.7192611422852909  0.9748603661354386  0.9886707940392614
  0.5818923129170761  0.7416386108237861  0.4871439322285844
  0.8308792494948507  0.0137560305620442  0.0081615289747166
  0.6706526557439458  0.8997827772095203  0.5802086050211536
  0.7754585644636364  0.0725806539503638  0.3149942928179943
  0.6023029540320070  0.8450619065301317  0.4184996262935889
  0.9454148772949106  0.0428658094806842  0.8477780461195875
  0.8234793426882312  0.0752846890201223  0.1010202432255918
  0.0154765866790319  0.8264838533649436  0.2295216665894384
  0.1319180893803502  0.6820148937427396  0.9454266161227974
  0.9441491213427718  0.2356360050981604  0.9181072473799747
  0.2478667040543804  0.5487474036527493  0.1874703526013675
  0.0749425117389543  0.1585420403366966  0.2751155269836206
  0.2313963651177163  0.8013531207638326  0.6292848151365006
  0.5038495646926875  0.1777254012396266  0.5141742544883317
  0.9940222756577466  0.4575513549757084  0.0695900990464473
  0.0394813619580381  0.0074610401948727  0.1410244083793894
  0.1627266913773642  0.3181907818043014  0.5156766514119646
  0.9540686914560056  0.8876517444400630  0.5075474184892013
  0.2414101745962074  0.4081394123880976  0.3620689473960301
  0.1612551219192659  0.2243975685094972  0.0136091574860499
  0.1617407146381220  0.1390819039614545  0.3391291124526947
  0.8863104194428630  0.7465600474554352  0.6611322020399166
  0.9394412071847126  0.7542460336690391  0.4944875003731625
  0.8181039288446246  0.5890791947015040  0.9028686534174325
  0.8798205358037391  0.3308507139997827  0.9608211051437111
  0.8060998514850602  0.7411065811511736  0.7411920275616556
  0.1860287955950110  0.3418930129195411  0.0467590646099320
  0.8262439878381515  0.4276081260668920  0.9043602399116701
  0.4136821405647019  0.3392249112028314  0.1191122331417476
  0.2105753741509815  0.1537691267010059  0.6602550826361148
  0.8075868006029356  0.7762191743469393  0.0330643948230583
  0.8130061799124367  0.6683197360147002  0.8208580921701609
  0.9158208996481412  0.2964611168027231  0.7388846067082036
  0.9464600836775494  0.2978796357608960  0.6261897795190140
  0.8835409868069152  0.1509225441639212  0.5506787508581001
  0.8637338787030324  0.0676183716557908  0.2591792465484264
  0.8247835085282538  0.5082441363535839  0.5221013726030859
  0.9414808085282271  0.0492525598364328  0.1874727883151426
  0.8815571796479892  0.4978404072986293  0.7211776426207970
  0.8594564702583779  0.1922527463590211  0.0748357641666346
  0.9056214707893643  0.6269724896452349  0.4171007535980911
  0.3314316872175855  0.1502019434097945  0.6548677676674991
  0.2270975033697195  0.2296170732426494  0.3514286893169840
  0.9393015290657156  0.4032002110879754  0.6969556471621366
  0.8111116649185653  0.6650668941153539  0.6567899437231347
  0.2218202577074860  0.3405954202850551  0.1522125824343739
  0.1738434208862369  0.2468700124944435  0.6035085205900628
  0.8197765301256951  0.5107826834254559  0.9915610947356879
  0.8133664537257437  0.5110961540985596  0.6370249692834158
  0.0655054386526795  0.5953734302946547  0.4123792370839972
  0.2070743419284262  0.1771622543160163  0.8410087067316379
  0.8189706534553313  0.5001690047277983  0.8165637315842961
  0.8150477510207562  0.6036131241073281  0.5695665181454495
  0.1985969787370420  0.3278139910262007  0.6798925911026620
  0.8108986730281731  0.7347212692087582  0.5735111588604273
  0.0033410217149319  0.2726256663699514  0.1216030324762206
  0.7836318932600201  0.2703554533428374  0.1170959832035805
  0.9484064055965976  0.4062704136491547  0.8820807623631273
  0.8499955364944045  0.3564074092674014  0.1781183046527279
  0.9242298721919220  0.7416343445484123  0.9721252387008020
  0.8995999694482031  0.5951510340035311  0.9756289746057765
  0.9120636183718204  0.4385752547169898  0.9836492027907843
  0.2009647348614873  0.2790783174581196  0.7812534851394985
  0.9225966199604562  0.6938697791502104  0.2009217383816014
  0.8904802447185226  0.6671830289326401  0.3056502557638933
  0.8466240834595361  0.7126256985478768  0.1166373518447623
  0.9682046040808405  0.6690561019234745  0.7992364644717852
  0.7963487208168634  0.3567754357602309  0.3720361306661975
  0.8954368490689329  0.3381792478658411  0.4176065806543789
  0.7366503206349397  0.3263598627024801  0.6056549678997870
  0.1442319608561813  0.4152540495192684  0.3133598897433717
  0.0750379092044684  0.2973214471670624  0.4479160267368185
  0.9782461685410689  0.6016509464395718  0.3327452881457900
  0.2635891897220721  0.1804637309336682  0.9535242891419248
  0.2937441186636199  0.5064639298409586  0.0973456316618238