B  Cr Ni
 1.0000000000000000
    21.1200000000000010    0.0000000000000000    0.0000000000000000
     0.0000000000000000   21.1200000000000010    0.0000000000000000
     0.0000000000000000    0.0000000000000000   21.1200000000000010
 B   Cr  Ni 
 173 259 605
Direct
 -0.0983833898215580  0.0005298561703823  0.8697719023358035
  0.6051693390148439  0.2187433984497442  0.6400195931947794
  0.0722676105869358  0.0824014205455005  0.0691630232270508
  0.9272801159806708  0.6825123470058406  0.3819221749354649
  0.7162706193353510  0.8669590231807992  0.0036627012055551
  1.0129734677858626  0.0264145274099627  0.7075912881730372
  0.1838194002152835  0.0317892674522883  0.5526344158015437
  0.1466473520196511  0.2785032445325172  0.8376371421035002
  0.2811218667254580  0.3999938311891242  0.0158724397243676
  0.7756294126405230  0.7997122220665130  0.5034714435939556
  0.8633768949511367  0.3020292512281403  0.0686315924772232
  0.7582130342786143  0.8953131571965498  0.5756139743352358
  0.8060720079097929  0.0151846936945203  0.6045127133791781
  0.5581657291840533  0.0923156873490117 -0.0136028571454186
  0.8562477095598722  0.9329748224398096  0.1823201440777347
  0.8176115559347729  0.6552321573232692  0.2667462597016113
  0.3580649634735945  0.6417638984569732  0.5619101749000583
  0.7429217522927727  0.2180951522677195  0.0310731594012706
 -0.0400804503261184  0.1409776053568311  0.5833863587992006
  0.8833746190731208  0.7653853587654669 -0.0055244491668677
 -0.1208352449160208  0.6712882985348911  0.2037676613001698
  0.7234116949717262  0.3775479042596344  0.7896725728631218
  0.7558578781004485  0.5141499803759805  0.8494569240675478
  0.1138117073250339  0.7020821559308124 -0.0266016973230264
  0.1354696653331845  0.6858530307587081  0.7842033266193233
  0.4926394993586012  0.1627796700620221  0.2760258844756002
  0.6089597671260506  0.6570534426382660  0.6949400713585094
  0.1523995001101088  0.2088227500920569  0.7778702037559889
  0.7369862543131740  0.5931323070979605  0.7145161360743129
 -0.0189052357604669  0.8526068124826006 -0.0649475328440949
 -0.1636406761477894  0.4615923671529370  0.0828576712747161
  0.3850694938536619  0.0693265766805057  0.2908835961643393
  0.7038533193018338  0.8095974276264480  0.3158661225094022
 -0.0831534619992307  0.0508872262905319  0.0535900185792986
  0.5556046272739850  0.9980438158654460  0.4704463748702755
  0.6567441519464943  0.4573338957557916  0.6232107314394048
  0.4947526756777769  0.1205151324159630  0.6140859548144815
  0.7402208756609895  0.4572347960926725  0.1776157103292800
  0.0665530449800634  0.6762696413380740  0.1247860941188303
  0.3205715110939775  0.5224084321341199  0.7573952940154884
  1.0682113232906327  0.1843393096819911  0.3304377258072378
  0.0910850894981217  0.6299989229876568  0.3215048519572024
  0.9977864693369779  0.8425727326017266  0.6969680439257421
  0.2500507839359280  0.6792206759660894  0.0077118306150035
  0.2948695137141451  0.3650258606069836  0.4054954237177506
  0.7364366415303045  0.3356542255323191  0.6621390746929632
  0.6250891117281507  0.8624643843350007  0.4677966958209880
  0.1885993872968060  0.5306749188668235  0.5415849939227525
  0.5258026173798186  0.8955514696355938  0.3193285140266736
  0.7745574367275061  0.0797661900414310  0.7353677092728291
  0.8816163724155237  0.1817037653986192  0.8293247593673346
  0.5727524586596895 -0.0343585930421818  0.1427109538727257
  0.4123448520938869  0.0047265357091215 -0.0498743215283039
  0.5000155396814412  0.4436941101023686  0.6615868949847421
  0.8587776978481457  0.3590462086861799  0.6722804356908897
  0.7410710884935440  0.9048128915382657  0.0812295313049450
  0.9773803263368936  0.5566424271264901  0.7020153631763925
  0.7475724964092345  0.1680798173007683  0.8992230943261819
  0.6374495997390888  0.2213098368978331  0.4915075131436572
  0.6965348957263199  0.3311273830215283  0.0934521286443864
  0.1694828185434425  0.3485286122303408  0.0988811532316427
  0.5725172100531861  0.0145092830067928  0.5472274544114428
  0.7778009092445597  0.1591389150819612  0.1470924208374106
  0.5705276024566386  0.1186709056342510  0.1233476035177405
 -0.1063371422576026  0.9358711837800754  0.7245684628865833
  0.0690072274571772  0.1125344434486935  0.4372451509279809
  0.2855371792739501 -0.0294161710420928  0.4910645045865982
  0.9956192564787496  0.2055442726043640 -0.0372089066647110
  0.6651456261760150  0.6039656757721542  0.6670542145359277
 -0.0534062108273383  0.0989024681462675  0.4584095766572809
  0.3530499709357044  0.0173323372672680  0.8934309613493714
  0.8624491525774713 -0.0074074459083042  0.4246006646484426
  0.1215159319923486  0.5935728243538768  0.6687338560489291
  0.8440277401383762  0.7536222580174539  0.8466248516889662
  0.5226793744256960  0.3005366825129017  0.0634230755750355
  0.6319769936614706  0.5924403407059441  0.4309927661047711
  1.0037298066940912  0.8377325392857117  0.1973882758736309
  0.1766145716207276  0.9249614188930503  0.6444693131566639
  0.1019433217916781  0.3495073603875355  0.6935583738937555
  0.2189615710658424  0.8708387108930499  0.8214698107207578
  0.6123279445875365  0.9539227601134793  0.2119602964554074
  0.5891447068529865 -0.0753297585549810  0.0728646213219131
  0.0370979133018879  0.4274639460546246  0.7959689235036960
  0.8394790613795297  0.6642810593033718  0.6097967368285191
  0.0585882470977519  0.3082446294666137  0.1711077183431255
  0.9983802944031970  0.5327373273525149  0.1897777307865150
  0.9612160693772057  0.0601354063408818  0.2978839870737672
  0.3945913468295697  0.3162559004009557  0.2430213693567341
  0.4378211653881403 -0.0099859096468424  0.1721177425894464
  0.5057664088383395  0.7749041891017405  0.6403500419177843
  0.6741677443739861  0.1147298642287032  0.2290400802282217
  0.9010272852886225  0.5918896685664542  0.5284620868459362
  0.3654613760545746  0.2093198974948209  0.5729327702998799
  1.0056288430676157  0.6442848830833318  0.5647524734721516
  0.3388778433345250  0.4057883875136710  0.3459141390462206
  0.8841602105363725  0.5157363942630109  0.3495407998544061
  0.6533703850990153  0.0872076360757092  0.6519458637695811
  0.9069925156529783  0.7779142354663819  0.2886885785443569
  0.7254355227291625  0.0199883618313291  0.0033292836321032
  0.0428150186930840  0.5407516363310350  0.4776141244635188
  0.2591637245309386  0.4371703681184409  0.2363242801211951
  0.1569846784602248  0.0182791867153611  0.7433744258911055
  0.0479591972466737  0.4867284148623874  0.1417735356358328
  0.6624790196178254  0.1676933476706826  0.7886165182451708
  0.9458854629425656  0.7938103919554955  0.6521193604605174
  0.6346718059029941  0.6224653680055034  0.0764379865587445
  0.4836978583542469  0.7439696561430164  0.4955980226676142
  0.1545288923398429  0.0695722693504787  0.3356131010104954
  0.7718712980250904  0.1035920986955179  0.4544804467133733
  0.0803086267385409  0.1659149070403815  0.7969450683775409
  0.6040901739805730  0.8089617199172904  0.5285829506796289
  0.3469966094725520  0.6937012630248059  0.6899169440340339
  0.9183420037076511  0.8979056614249927  0.5325322689023290
  0.1590491441076866  0.4473233390491335  0.4909226820478608
  0.6451529788284527  0.5385789793917168  0.0854212015776855
  0.5835846482640535  0.3137314357651184  0.9996133715934284
  0.3565152630878430  0.2021261594444216  0.4932193577279443
  0.9435359383302864  0.1946720069396913  0.2029680657838200
  0.6949817021003323  0.3353348369979222  0.9088664563457076
  0.5319070672318861  0.1849749129912767  0.7547355596023529
 -0.1861215544736662  0.4508441054356123  0.5293517521678774
  0.5799775548145174  0.3657131723431410  0.3847663589784425
  0.9454014628110388  0.3236550161554480  0.3044837781817854
  0.7304266233451256  0.7568116547946530  0.7354682499091779
  0.0743614955328800 -0.0083767380277535  0.1735804148587450
  0.2403912590547378  0.7757114796908950  0.1556152138677763
  0.3611706313789373  0.2030611065873630  0.3214016597583662
  0.3395931948524116  0.8098037088543382  0.0620860823697267
  0.2163346329504509  0.6862224759733468  0.4610151816595471
  0.3228720394028184  0.2417349274090975 -0.0451658194773700
  0.1986601036126901  0.3408681959434242  0.8147476317256642
  0.4239095134429779  0.8093719714958859  0.7419059509936046
 -0.1838167303697649  0.2590870201467160  0.5604290839709545
  0.7130279595321655  0.5385669821940967  0.7814787836196159
  0.4635433347916809  0.2100027491391079  0.4384438878961367
  0.1693129611718006  0.8447561570871802  0.7632124658050518
  0.0373851156532576  0.8997491716696804  0.6422262988249066
  0.8836991268066733  0.4200791039113976  0.2279682693830817
  0.9793360975955322  0.3294033178338202  0.6104255599199806
  0.9401723799469232 -0.0138601734714208  0.6827904008477542
  0.9929291491624856 -0.0226688527880907  0.1614483133845635
  1.0660979079395172  0.2315819536302872  0.2675557272310128
  0.9154380176427308  0.1233635430882067  0.3197725068815926
  0.7644534822236599  0.8171522848795280  0.6937659594997430
  0.6117652244844106  0.4164637595182441  0.2442286640512111
  0.7883545311392927  0.2108344506231502  0.7041236968828530
  0.0227585370323703 -0.0568878802035294  0.8161709971248445
  0.2560183375226714  0.2611641958239687  0.7071629049612609
  0.1470994036570483  0.3002629017057976  0.4399637085584074
  0.2486653493347361  0.5932880594282345  0.9140968359295288
  0.8630994643970874  0.3171054887855060  0.3281147884202394
  0.4773859172001754  0.3228291749250473  0.2415385577340191
  1.0532655190695805 -0.0261367269007993  0.9652622442643638
  0.2331106854547411  0.3978774923888654 -0.0643260078174973
  0.9125714149949998  0.2247198279818934  0.4138934283394226
  0.2631911033237852  0.6041205138098750  0.1755050730040149
  0.3972340785840088  0.8086290042887481  0.2206480981233639
  1.0134321904401535  0.1992934641708426  0.7473614047928913
  0.4865924859314275  0.4983545150925009  0.4210571198615743
  0.2925676233205578  0.4003793318824345  0.1667426122017684
 -0.0563264606995629  0.6243804750553564  0.0916860613710135
  0.4155543585998738  0.0213590234625334  0.4629914754170036
  0.7773942770268337 -0.0072620305676263  0.2957539848221544
  0.5631273615955168  0.0211019848528264  0.2455534707083103
  0.7018804117687800  0.8640018455043311  0.1474047309703339
  1.0342584146800839 -0.0038505454832289  0.5241946198595937
  0.1805348619448928  0.1080654992898569  0.6843961409254600
  0.6496855216566996  0.2884042363780259  0.1480377733245231
  0.1689206317497126  0.3313451014061878  0.2808622154936143
  0.8115825400379574  0.1107302209997687  0.2119026438161065
  0.6094547151360002  0.5181567186054904  0.7676465697563540
  0.6084399432482180  0.6533709549932142  0.8383774412773917
  0.7854682426667784  0.6140900794935517  0.4403996399451566
  0.3390032042638700  0.9159581991898055  0.0736705068420377
  0.4035652319255873 -0.0217200292549249  0.2619517991104006
  0.8775640959903245  0.3823391906282028  0.1331211967606050
  0.1809316154830337  0.6816372773461350  0.6787109206255281
  0.2677787578425767  0.4548303072640795  0.7073152431016176
  0.3430088769228303  0.3222860239704300  0.6753510192507078
  0.0881055209900730  0.2064872163935035  0.4238235181964449
 -0.0121094755809921  0.1548735283821399  0.3902920785455060
  0.7399549923457867  0.7568915311485069  0.8418824330905255
  0.2617196213854927  0.5714701316809683  0.0094999798856061
  0.1019931565339444  0.4465359268786775 -0.0175800060813232
  0.1009008782220509  0.7458208086703874  0.6847471100065601
  0.3232838284826318  0.5603778995069565  0.0972639301402194
  0.8511400465347113  0.0224442254881284  0.6942076560822031
  0.2855366944180288  0.7685563408632941 -0.0153692477743533
  0.4740019798625715  0.0632675399801174  0.2541355718763906
  0.9484094609507062  0.0126868901957453  0.7809479548453698
  0.8568556895727196  0.0765147948706786  0.7896711660103695
  0.6257066224803195  0.0453744963107775  0.1717457163998433
  0.5747478702774292  0.0239114872542215  0.0628465221201111
  0.6099074144325966  0.9418514508268430  0.3060717851322633
  0.5529601712513288  0.1050162536345262  0.3390643559088550
  0.8440187238902578  0.0952449075532698  0.1162649151495403
  0.3392900228603351  0.7375621992122962  0.5788894993739602
  0.8545595137234937  0.2795265945399146  0.9705957415726378
  0.8165148901967424  0.5315483393749330  0.0051349864996097
  0.3480108483103516  0.4723998385193386  0.5590975487992285
  0.4069153547229316  0.3213808118986358  0.7493088596578318
  0.7528105353299079  0.0444086609289211  0.8272777811285176
  0.3918831927086055  0.3583030959526262  0.4167464425083406
  0.4806969867992628  0.7491041157577057  0.2455976683185085
  0.3391729054883116  0.3218546130713777  0.0079834517075031
  0.9026470309062983  0.4128119685621560  0.3296025891273073
  0.3604615424385171  0.4029330312344607  0.0887248554111385
  0.7401404072833538  0.6624497652266681  0.9597200451555860
  0.3347361232814967  0.3074778595129060  0.3309941742887723
  0.8686777097285097  0.5529862301918138  0.0969029165219623
  0.4850237228977671  0.1519738753314389  0.1725320785790329
  0.4311666991890821  0.3773043440292708  0.3173812818433924
  0.3943658894185291  0.3081374998044139  0.9171556091841536
  0.8368122609821055  0.4940912546226631  0.1803887720204438
  0.4317239805474196  0.3934200262140173  0.1792139362080888
  0.9322195207851194  0.5007403281784500  0.2591332142101095
  0.4000628264868213  0.1814859035308267  0.9174259522034741
  0.8877850127465439  0.2029653836733214  0.6163300661196746
  0.4086839937034656  0.1190575811629295  0.4544127460278323
  0.9530060350529534 -0.0534469441126046  0.9479108586750947
  0.3233542465171529  0.9199834023828954  0.5665732393752643
  0.4943610606031949  0.1018488758723239  0.7178900200205314
  0.3747534675066884  0.8924147929478279  0.7361612768019912
  0.4893782037909590  0.0672422497772248  0.5302815082819075
  0.6861050614701226  0.0916389088240989  0.3948374812881497
  0.3537823842567147  0.8366344525821003  0.6417117820011774
  0.5152465169449589  0.0447391558293510  0.1540334099224922
  0.9002421265924925 -0.0122217782233054  0.5869541538978527
  0.3553391231325060  0.8295258715834221  0.5185068487666307
  0.9422400335758099  0.0990404388161743  0.8465593757474488
  0.5037047409996425  0.9541238684149490  0.6124507597079597
  0.9134562786776242  0.0951603925566963  0.2113772271872138
  0.0068977732502942  0.7572518280160674  0.2590117668552591
  0.6556405859140771  0.3514197824749693  0.3162935695674106
  0.8222765960948472 -0.0301489185204272  0.5183460731190618
  0.7308674594671885  0.7043716808591964  0.5529978741026920
  0.6783693077164072  0.3801501301590169  0.1765783565913545
  0.5612333478458824  0.4297856546326432  0.8308963081203850
  1.0678108961809725  0.8232457005745474  0.5031394598774648
  0.2498580649927073  0.0841916284818185 -0.0023073822443820
  0.1713716717161597  0.8344497607999540  0.4941873268056224
  0.0271755255672858  0.6254955475390447  0.0409346621087120
  0.0240216529745136  0.4878375681308978  0.6360675071321484
  0.8160505274827737  0.4615680709417124  0.2954554685085146
  0.2006172105645034  0.7516080752575862  0.9154034718046316
  0.9197504485421647  0.4635492056938359  0.0278873078170489
  0.1412618844467358  0.8229945926630299  0.8628287704124630
  0.7501638758738423  0.5148788429057690  0.0979312143719286
  0.2745257272981003  0.8462096746527188  0.7444577578215749
  0.1749683858678649  0.9171334754150441  0.0660426647369804
  0.2746198769938428  0.9197224861368357  0.6533491352596439
  0.6129044695465476  0.6515978322804946  0.5926942975139496
  0.9234514253961769  0.5009419145520133  0.6395485178594380
  0.5870051307010938  0.1659021064265611  0.9111391269215906
  0.5530065492787963  0.7505004821491275  0.8449232628800375
  0.4890823696200148  0.8140069990871626  0.3602561142221299
  0.6623441549579108  0.8210572649728041  0.6884519037338781
  0.5580617030988664  0.7566078853964658  0.1633654153228317
  0.8117343662544578  0.8362851432421300  0.0026363841443321
  0.6473958667075218  0.9070764806608891  0.8590077830663813
  0.7002705624193818  0.7691977944061408 -0.0174544569964880
  0.2611136475190261  0.2014835012509612  0.5414063047721892
  0.4667179123738014  0.8646516115328328  0.6697738037687918
  0.6419868291811287  0.4891447929772172 -0.0060626736110677
  0.4834661982279427  0.8287813277809207  0.1691340696157097
  0.9175754743028609  0.5831903165542105  0.1864983171312352
  0.4017555977145230  0.6610456661170990  0.9298516111286995
  0.5542882433987298  0.8304266621725995  0.2566017802083079
  0.9167514912850029  0.9447011560059569  0.3542241656441419
  0.5516485848644144  0.5728761155744323  0.8296863473363624
  0.6687286501803780  0.5340492739300149  0.3347556723988876
  0.6319757197960409  0.5893071189710177  0.9226863851191774
  0.5124419921011204  0.6755487942024829  0.6610204601204603
  0.5902652273455828  0.7479013198278301  0.6806253936606591
  0.4904554670858550  0.9390257077795571  0.0999182831275460
  0.5759091169871581  0.5810704113515863  0.1536869521142890
  0.5682585652419687  0.3479787721362850  0.4863454040838644
  0.4938807981235522  0.5787212441474946  0.2391005831437992
  0.7085423681166685  0.1600158863052913  0.7031050723595859
  0.4814722114154838  0.8267755086778947 -0.0151393776343902
  0.4737709803198467  0.3682430870213208  0.5019531962548659
  0.6594476892147699  0.9402496624280638  0.7627112302882233
  0.6774682533384502  0.0734638640504177  0.7531098840014856
  0.7121122023310269  0.9021249564451106  0.6688072886826618
  0.6317653642288810  0.6779333849868082  0.1614164153749281
  0.7557683070306140 -0.0165950566502722  0.7327741093859456
  0.7686824040225911  0.1567384138360252  0.7955869932860571
  0.4568263946416737  0.1794845460463270  0.5400775957746927
  0.6395914957742039  0.2197857533437125  0.2160935685569277
  0.5676184132977781  0.1562745640653797  0.5544779048836176
  0.5734866124226283  0.1289279392569555  0.2263999040738772
  0.7564339489026407  0.1602153794647858  0.3730749402447166
  0.4463451450396649  0.1313868794001086  0.3557405677374383
  0.4103791711155875  0.7460034800154987  0.1440838160406704
  0.5781346403483818  0.2213941841023410  0.1286313696655647
  0.8078909144649270  0.8261621673116866  0.3015930785063179
  0.7149415062348041  0.8408787251807215  0.7859637295804857
  0.7028210464556752  0.6105439503647883  0.5111913504937163
  0.6615442412783316  0.4349617015419651  0.0800881436543865
  0.6465245342389990  0.7322968229223079  0.7808966094794700
  0.4726446771425060  0.5923357154783082  0.7472874299543473
  0.0071164239520781  0.2591851570332639  0.3463056339428124
  0.4034537115669846  0.5534811329563701  0.5628145630408999
  0.0380993881145702  0.9294244505759220  0.4313372826579214
  0.0841462745451841  0.8380113354945452  0.2529733051319762
  0.7779236911747064 -0.0013618481197442  0.0954464139968419
  0.5680604216222833  0.7791653285033330  0.4421661619843374
  0.7700344689371880  0.3610238585555728  0.5729720006739156
  0.8175729538158005  0.0606067581355485  0.0161406487095262
  0.7619226318602355  0.8218059702799719  0.3985730102351603
  0.4885193702871529  0.4022786420496307  0.0826545199868492
  0.6714313984197634 -0.0419939824831174  0.1296881333640270
  0.6192990374710927  0.2438018321650290  0.7433944803158239
  0.8489073882363863  0.4635786107637980  0.4214799902625900
  0.7174495664525404  0.3376119044516921  0.3995600356063879
  0.1567864880494971  0.7600949289876192  0.2325420927125847
  0.1094254936153706  0.6696023922882151  0.5986556520172769
  0.9152958231622181  0.7003976169785450  0.9012248390764226
  0.9149873886043806  0.5044805404786082  0.9261562983009711
  0.0031522918387391  0.3395227986029355  0.8528185173405362
  0.2523286472451098  0.5680977436724253  0.7061620986343919
 -0.0036328560766569  0.8261868383705067  0.0959732999917124
 -0.0604935246734377  0.4076524937197553  0.8347022868238313
 -0.0186821557636468  0.5379821759763771  0.0911520539531068
  0.2111218708994106  0.9359225712926813  0.7397819625305484
  0.0897946106567687  0.7991179944796956  0.9562310924010465
  0.9323076207524771  0.7641711371309342  0.1888227444752622
  0.1342562387683649  0.6333466791576899  0.0583538656075975
  0.2858727321510548  0.5923875317065777  0.8239633734161701
 -0.0566423676796182  0.4600084023345353  0.1508384050523943
  0.8630383647937805  0.0967841465658056  0.5913396393079777
  0.8229733858820215  0.4599603369250545  0.9253089795911497
  0.4296267354636486  0.1821649831857619  0.7340362785859106
  0.2693853991458388  0.8761643245898122  0.4767658387826533
  0.1871113792448680  0.2106860197565641  0.6228299527657217
  0.0871414204366795 -0.0173440968764904  0.0653098783202476
  0.6113493964615873  0.8381969449284409  0.3507085102726226
  0.6641146599101545  0.7435737987931386  0.3843354482726241
  0.9110570625897811  0.2277891582128784  0.3118288311390565
  0.7145719768112379  0.2993380672360362  0.2255669503636260
  0.7643490121625818  0.7155953804740668  0.4465372193097513
  0.7035299009093406  0.6016535415378025  0.1411871750063112
  0.4212553388920234  0.2305699743578558  0.0005899643063920
  0.7449192657188625  0.8013524915602415  0.2223320535603906
  0.6389025284720716  0.6880024244771932  0.4878030351033546
  0.3417814419550473  0.5305330833896218  0.6548306782312731
  0.4073351924612977  0.4911774103181956  0.9262645504921452
  0.5530533417073875  0.9463231117229428  0.8120222347765148
  0.5542010294924734  0.9089275971569719  0.4143937878305496
  0.5144026499263530  0.6012056985325408  0.5903058210659816
  0.1217924238657343  0.5655382942005485  0.2578508461193482
  0.1630561120878823  0.9118172102941512  0.2367748744399687
  0.0708864550641128  0.6342619853412278  0.4910820958288402
  0.8560762355391199  0.8962552396446600  0.4493173365345646
  0.2768951890446742  0.8453222458527175  0.9023995697057318
  0.8897050652238405  0.8482590232307725  0.3642901532286092
  0.9383610486108758  0.8893195998640469  0.1494769908891530
  0.1329609131851302  0.6579531028164202  0.4070704325926029
  0.1696310141156568  0.5728761841226988  0.3594146112418112
  0.8410731374557485  0.9235261831034448  0.2800975302414477
  0.7602904822291107  0.8085695959380513  0.0872213605438478
  0.2299609198268305  0.5083506888798334  0.7993007432227051
  0.1243917838268083  0.9198093378694252  0.8052136433135633
 -0.0236115909164814  0.6323596709264722  0.4584885656624413
 -0.0109424946400065  0.4851986224368445  0.3428758572675674
  0.0641171469702011  0.6599916504859309  0.7267212966157388
  0.2720279745391013  0.7642313325580961  0.4813799837697083
  0.4176438015014772  0.4882894439720838  0.0869254690252482
  0.4068400927902075  0.7466451994627072  0.3185151642331932
  0.9002936388150345  0.6063531666756624  0.8464859509372510
  0.0147659021289078  0.5885347863958714  0.2694232690918233
  0.1575391017061112  0.2567187332239430  0.9598159149837558
  0.2107118862564314  0.9314610663515793  0.5535920176312711
 -0.0165987540144042  0.6649302154402287  0.1882435109118835
  0.2442541581227790  0.5687799894454427  0.4413519294786721
  0.2395896219602135  0.0698117109599069  0.1520399990742546
  0.4160964398271722  0.2596641806294305  0.6427630483041146
  0.3187424222359860  0.2464693059639765  0.2433139124019219
  0.4033254267511819  0.0571950339973838  0.7423855784845066
  0.0019385622512600  0.0117586040252260  0.8852756337281932
  0.1040807575763701  0.1770451114174068  0.6974603241117727
  0.1153260558154211  0.9359082181121653  0.4913686251140352
  0.0793381907564100  0.2008358627686814  0.5995131312381966
  0.1224664466916763  0.2672816055083111  0.3462704095440252
  0.3364265771914602  0.2436588014490048  0.0899792725768563
  0.3178787647270886  0.1625229164714383  0.1650751427835083
  0.0605479259273611  0.0887113702510830  0.3412322596973756
  0.0646062813211483  0.7717488409514339  0.1582246712095973
  0.1718266190669366  0.1666610044807291  0.3330223289883061
  0.0655691900172479  0.8989610419874597  0.1397853746923540
  0.9332866016948852  0.8949144848075333  0.6341677908620278
  0.4205694168419148  0.3158540827836813  0.0819315613608133
  0.0829653350188319  0.6765880847122894  0.2286038559094629
  0.9370882812467680  0.0817205353042253  0.6664199533285416
  0.1326145006056742  0.3775897532277974  0.3645754140165117
  0.4241012214575942  0.0201907393789471  0.0782840440117181
  0.8778548176235657  0.6789361317933166  0.7790992663211002
  0.1076663619262817  0.1350505396659679  0.2551041990383640
  0.2248282380897884  0.3009850794918973  0.3580850133947060
  0.0241139458303829  0.4291597327671643  0.0604552362068677
  0.0703463114100569  0.4470758712848690  0.4250517454600621
 -0.0473038026578335  0.3496256371924214  0.0341591017471953
  0.5089908552302439 -0.0088898170401587  0.3256373074516190
  0.3605520974421676  0.8492212629952851  0.8271920850437758
  0.8836563312238354  0.3208233613038689  0.2304921906619154
  0.4381033980376437  0.8683140032596273  0.2809086062989912
  0.3103135612810106  0.6578448683409475  0.4753475129080735
  0.2729069301918415  0.7684186822951007  0.8360555237798426
  0.5721670498508161  0.5757000862679602  0.0066914589906313
  0.1559086690616313  0.7210175523031206  0.1323191042950626
  0.4537469744339681  0.9194497726807642  0.3855522726419353
  0.4363926001818779  0.6866952913790735  0.7481554842454603
  0.7929961922352582 -0.0646497099693968  0.3836583966560856
  0.3331737620164620  0.8201322479605797  0.3015626166041151
  0.5105611195642593  0.9392420080059586  0.2225427411622777
  0.9308977461724174  0.3215554875921140  0.4025201430035957
  0.5697646220192873  0.5729113970184425  0.6833032769120815
  0.5706596836429748  0.2433971922390936  0.8311909616678467
  0.4038630727042767  0.4781071245276011  0.3662056414655964
  0.2530518384657501  0.1350543196089070  0.8271320946562890
  0.9377847456971031  0.9043903448758180  0.8476737241088717
  0.7494618960700523  0.7222500563783045  0.3264304816462160
  0.0429849165387578  0.2736262606880811  0.6697709526043378
 -0.0675146164597031  0.2711021927746966  0.6815642473656994
  0.2403955626206415  0.3985285050216859  0.3299449843527404
 -0.0040251369677995  0.6857383668074739  0.8281784055730487
  0.0016960428256012  0.1902697836445649  0.8536553846899985
  0.0317015164636837  0.9279527312690030  0.2395606195934016
 -0.0213359309333737  0.2414006565237401  0.5718509785806964
  0.3006691977778653  0.5706540761589536  0.3583143988731197
  0.2332233704605409  0.7049303011272950  0.5659362394465762
  0.3367186847506303  0.0477884087563510  0.6482672666384945
  0.7431017703004793  0.6109902702148383  0.2976255579604499
  0.6576686830703720  0.5472992820846659  0.5941512039492716
  0.5936211777207977  0.8373664509316811  0.7802245242636224
  0.7392541313506424  0.2609664380843191 -0.0524442399206989
  0.6512490136631522  0.7616273642885236  0.5900654277759624
  0.6855657256272587  0.7925536315958408  0.4828614738128685
  0.7470235690598721  0.4208924797225001  0.4766115704580834
  0.7528578591687105  0.6734853622354027  0.7649577226517499
  0.9842882930057221  0.5547724058305643  0.5485586999164750
  0.3356938195903262 -0.0099861366894249  0.1546434054998418
  0.6842481537387283  0.5170940891213893  0.4459578637100797
  0.5599205345355079  0.7384312385766783  0.3296056193244992
  0.8241279380414451  0.7719415545122745  0.7556736766109882
  0.6879589967922071  0.6957942472349933  0.6740120628035343
  0.7825754454747461  0.5300402008914752  0.4894157322445293
  0.7895436744945050  0.6226754456216246  0.0670174680173246
  0.6916200438106979  0.2582776269636736  0.6491602079178810
  0.6597579605453155  0.7000257521822255  0.8950925014004685
  0.3375780381328337  0.6543922448329936  0.1558708872633187
  0.6742408478481111  0.5153072936138364  0.6987067090098840
  0.7059938014264981  0.6310599125174003  0.3985896537627375
  0.6460078679501399  0.8031008879224961  0.8754013850897430
  0.3555572419828189  0.9180294579049444  0.3441557966536659
  0.6676280404073722  0.3445314930234663  0.7194650319895552
  0.6623923116966018  0.3648629129119321  0.6078526521416262
  0.6769024391914644  0.3372148503655280  0.5013712890794020
  0.5787571597316432  0.5065981558192376  0.2438340269740874
  0.7721524262990384  0.3552470090609080  0.3079095644491006
  0.7244809228438198  0.2330206991626002  0.1274253851275326
  0.6347884609351372  0.4168148724373059  0.9134476504252744
  0.7456243853009384  0.4422204757777091  0.0059067495149489
  0.8234659812759998  0.2530208002762533  0.3899670672234988
  0.8125093890708650  0.2246966085134297  0.8732992741251803
  0.8058799143313686  0.1742929563263179  0.9763971622526225
  0.6885728911290863  0.2278226642731521  0.8512376447661608
  0.8468131668476947  0.5675886343416080  0.2773463427420966
  0.6981327276836079  0.4439752758599210  0.2672004668590591
  0.7804339359095637  0.5415978217994944  0.3753587757586591
  0.1519392865164051  0.1877736492703917  0.8657057355122521
  0.7243895643537589  0.6860144453647734  0.2208125896094254
  0.6487612439114931  0.6643632636821621  0.3127138718227283
  0.6293294214436936  0.8640312762882222 -0.0365187182904714
  0.6310339598485636  0.6739865782336893 -0.0033819373431078
  0.7155620464689623  0.6093568868671431  0.8557888596663163
  0.7249886409441743  0.5242180676663183  0.9354198414384569
  0.7912380580254126  0.5211770820809205  0.6843554040643558
  0.6540158183542649  0.4350202664585058  0.7747091213927552
  0.7458272395081342  0.5338456177438857  0.2273549929662422
  0.7458168614600118  0.6125917279656929  0.6184925729917122
  0.6742004675829378  0.3538428612096041 -0.0010028887177759
  0.7142529521054463  0.2359710384539940  0.4371439129503258
  0.4747889645718554  0.6615265397454406  0.8455132507289549
  0.7314644815500331  0.2609676044421361  0.7542002860100900
  0.5952568844221234  0.4426228912669848  0.3315253221567639
  0.9649403907013123  0.5209423046275397  0.4392894186477874