B  Cr Ni
 1.0000000000000000
    21.9950594461179953    0.0000000000000000    0.0000000000000000
     0.0000000000000000   21.9950594461179953    0.0000000000000000
     0.0000000000000000    0.0000000000000000   21.9950594461179953
 B   Cr  Ni 
 173 259 605
Direct
  0.5036026804490676  0.3069984240249048  0.8061834813009079
  0.3130017949676680  0.6593440450097606  0.3012013690459154
  0.2029134846255419  0.7923525378897810  0.5924163132847233
  0.3719907053562739  0.6452864317960185  0.6674659604476122
  0.7634364296519807  0.9252501602643710  0.3661658346322627
  0.2805389487600182  0.3936373581077583 -0.0064748182758496
  0.2678397780771434  0.3532909915295656  0.2584013575043255
  0.5641416472332590  0.3263817901237502  0.1712441080815841
  0.5074156452685947  0.8873212406815781  0.6244047713586206
  0.3852655583494958  0.3275240888295762  0.9209155345676522
  0.4603337048289776  0.8898901642227864  0.5546691848596151
  0.3857290499559300  0.2303017586156767  0.0910287141530053
 -0.1253745894662089 -0.0042559738137616  0.8420492375504918
  0.4523698610028075  0.8202898354527174  0.0706673998383811
 -0.1019639529017732  0.0175754133822261  0.4074098459804629
  0.3421397333484907 -0.0805755145278091  0.6348198891479363
  0.9504301554555935  0.7287551206802059 -0.0056784404823658
  0.7289386095807925  0.1423746648587285  0.0053401135569681
  0.8983581512726763  0.6903267677888828  0.5470952726877892
  0.3458759381066029  0.0833031507389978 -0.0553605528741683
  0.7477580170993033  0.6253295832401874  0.3060813719815692
  1.0266414257568015  0.0065061704973723  0.2907744612964282
  0.6636815250910244  0.6996664140293475  0.4745844225675945
  1.0025481655665893  0.1267231831661852  0.2189903325837853
  0.2063196355106051  0.6566372501938874  0.5220137521755930
  0.5239766354292843  0.6055354507606695  0.6719161577459892
  0.4334095891019311  0.7320081068551612  0.4688258097009527
 -0.0757623144365123  1.0100352173758467  0.1580623759599599
  0.6567599315262393  0.4826106214614263  0.2712600168256306
  0.0356145970960378  0.2609086948305877 -0.0436895053670070
 -0.0071523748096187  0.2276631257369414  0.6123407630563870
  0.1958096466043615  0.2824363394054196  0.7583349469319288
  0.6451469949649944  0.7656334948582493  0.0542209553827401
  0.1410099175781394  0.1315846158885349  0.8134697746070467
  0.6877959115957964  0.2616558631335443  0.0858080829676112
  0.2313766789711773  0.0206951188604950  0.5624398133361233
  1.0187895802882361  0.5576445147644706  0.6552371177944872
  0.5408187083742747  0.4384616102883863  0.8768243501823214
 -0.0031446986803922  0.6135478298011972  0.5962595214764818
 -0.1182898111238233  0.2415672261124360  0.9578080391997716
  0.7202568708887581  0.0491451669495820  0.4414108884855091
  0.9623329207664221  0.8438979311606255  0.5609253730280849
 -0.0751266589608880  0.4696633878975148  0.6261648923551945
  0.4890066953179826  0.8746418250254069  0.3259478869769495
  0.4117508756210767  0.0394151786438736  0.9173370427472608
  0.4244627810607331  1.0505084218323506  0.5500344418188252
  0.2867461081866761  0.5560130704504159 -0.0324306438850166
  0.9716077847853026  0.2644531826532680  0.4344369029246279
  0.5560083809998657 -0.0202647488774499  0.7174984390798202
  0.4957292141361250  0.8545683609868128  0.1360436914622773
  0.2119404371130703  0.0205928769125182  0.2859897920374669
  0.6847570757039041  0.2785920511207892  0.3709685019019439
  0.0563432858687033  0.9754628320741204  0.6477277715680957
  0.1962728938358054  0.6493627555565061 -0.0562963436910239
  0.2636804077975137  0.2550170556231569  0.8876995819229561
  0.5939237854972584  0.4642361173663226  0.7408700089263205
  0.1472283613472752  0.1824780748210144  0.9556896279905228
  0.9947579204600234  0.6737950476659507  0.2190601362804389
  0.3457026172870555  0.4921322211087308  0.2999452010051616
  0.6682544298519543  0.9231865690441885  0.1068807616357012
  0.6010720076001990  0.5481858768411345  0.3976004648796650
  0.8210920224013150  0.6508319295960420  0.5537632467615871
  0.0466187597003550  0.0554485310567018  0.5177159038072404
  0.4883548656513228  0.2813625194147227  0.3465020966785592
  0.1456109461853145  0.4190126115811489  0.6798094146969713
  0.8819658111229786  0.7654173050051615  0.0227598356700168
 -0.1135434671966280  0.7369388571924751  0.6844424454881333
  0.4589318972385930  0.7453140057598611  0.6500047523000114
  0.8261485020829481  0.1824241811143091  0.4472885801882305
  0.3223139778672012  0.2061842200130720  0.7314506033358288
  0.4211997015787498  0.7560176174036517  0.2878478912358569
  0.3534346280890977  0.8018877921470049  0.5605515523937901
  0.7118829336388689  0.3237225979502540  0.2127291406546551
  0.5965195888965299 -0.1891256256492679  0.3216315609184658
  0.5947238998267967  0.7509205268904324  0.6732135797293752
  0.0272490633323931  0.8516801826050828 -0.0160805324897990
  0.1678408145515104  0.6036738799455525  0.5640795901466443
  0.2317457960601008  0.1680785800363808  0.6402742329610461
  0.3625765337898808  0.4823210309757033  0.3751014742413369
  0.7385061932023038  0.6020295369709864  0.4515257123174382
  0.6478994008827419  0.3953585508794689  0.0266805374054629
  0.6018741271888728  0.4180664159824832  0.8141971339195859
  0.5692775675326066  0.1154861464297615  0.7648555987896225
  0.4270406884204608  0.1274914399215389  0.8008745699414371
  0.4435109686793955  0.5974828620083161  0.3867059138593304
  0.1988962946923941  0.5194455144275569  0.2971479314431562
  0.6414557331731665  0.8284700381341351  0.3962932698027393
  0.7926436156047824  0.7331887421692109  0.4092601642348500
  0.4397075187625319  0.9367790705968900  0.7872333863003395
  0.0468073862344480  0.7727802687158393  0.0970082608143574
  0.7776052290322963  0.5389107329325568  0.4249097179721216
 -0.1860456349144211  0.3147683841873472  0.7708977558355894
  0.2224961917939692  0.4180543967663418  0.5409480937681151
  0.7900844295614089  0.8267315431389165  0.5692279708597509
  0.0009771549987086  0.2851570458162443  0.2535439759422246
  0.7160238551451170  0.2906099175069355  0.4618816704152954
  0.7225093188194058  0.4088615717860157  0.7217936825041972
  0.9261456392564510  0.4301763392293859  0.2379629155915502
  0.8180621312321301  0.9415060572583003  0.5463390254482068
  0.4315361676821244  0.4272471085040452  0.7677011451663966
  0.1687536106072729  0.9730846327461540  0.1003984181139033
  0.5230839041502917 -0.0354441428474799  0.6486766851675779
  0.6225867805093425  0.9333455851731015  0.4086962270302985
  0.0852055004664269  0.0093110104917813  0.4664354783510418
  0.7176324162995671  0.0533200031320470  0.5895131163858908
  0.6298117327413421  0.2352799050243452 -0.0311021702268310
  0.2354716341283719  0.5833927930706386  0.7262670884584912
  0.8675469381381012  0.7469052877913773  0.0993561956954050
  0.8858013338996401  0.1228484144650679  0.3074897805427057
  0.0630147150547941  0.7349378480526920  0.3641169724465241
  0.5836707962392186  0.3970709871505391  0.5870999031278439
  0.6353368730722775 -0.0037732428619603  0.9183563821010410
  0.8157902842265430  0.6966255109137564  0.8742196471767025
  0.1755477167698395  0.3689780601832497  0.4968069406041597
  0.1038517601844087  0.6434517911333457  0.6760959142945410
  0.0031910625019565  0.7732596842673468  0.3251097323622115
  0.2303584783703356  0.3431762172201893  0.1249650522710158
  0.8231707562192623  0.3895891684614767  0.4489071290492232
  0.8129844181982108  0.8740127541812921  0.8303686388347852
  0.5482323026613508  0.3095845261129807  0.0920552754514784
  0.3237400209632366  0.0738828764698554  0.6334519065866094
  0.7021843955223602 -0.1231452730857140  0.9734243564776509
 -0.2114878427967938  0.2175525000012329  0.6351811799095937
  0.4919589389913199  0.3649389054994173  0.4751463915980135
  0.5761619891519653  0.1985841129463956  0.3920606092870190
  0.6578265903485201  0.4323962101089432  0.4627181354340031
  0.2073427410785402  0.8319375093093928  0.4277251732373760
  0.1896713261595152 -0.0985614469182622  0.4624065192476445
  0.4897438861947615  0.4327170038472096  0.3137782013632956
  0.5802516130106720  0.0290713090740237  0.5191764393048993
  0.9343977415086150  0.3258115180124884  0.8198423343790358
  0.4220152112856354  0.7410692957250468  0.0608468097473998
  0.1656463850037358  0.4613236993118129  0.3615061971674889
  0.3154538279989207  0.8454729692947495  0.3504041831606848
  0.2524703441595935 -0.0901048319805853  0.1935461990947649
  0.2258755173929240  0.4099405490198864  0.3805125956967989
  0.4205592912561644  0.1695304775679090  0.6242899715369036
  0.2468257400639474 -0.0204771789126541 -0.0283171190949253
  0.4272727689275660  0.6931885850409052  0.7024633040609437
  0.9327587982007669  0.2021240307044119  0.5640277701172679
  0.1039526909307323  0.4188668546500356  0.3281842653206179
  0.5860931326987133  0.0808949115819146  0.0751231155932462
  0.7122442218018908  0.0486715851710410  0.2415678325197766
  0.5037177293189358  0.8832920032038357  0.4825575892957938
  0.9996141810858260 -0.0871612745650633  0.3946877656691378
  0.7158344042062249  0.4021379474688123  0.8893497238448046
  0.5768177585311713  0.4865872129666959  0.1176233474350760
  0.7184377757332766  0.1872466584511450  0.8534465739713012
  0.6189899731472234  0.7410684808855642  0.1285959380334399
 -0.0532360353498027  0.5190822377110387  0.1313413189564382
  0.6530954874864238 -0.0832991932060393  0.5757358172435973
  0.2580719951808649  0.1034404060550550  0.3905045599799482
  1.0167947753763571  0.7599150839658080  0.5564093719428315
 -0.0297889179467818  0.8415067802555084  0.7040786559395532
  0.7326307877912734  0.0319774298999677  0.7745980147730706
  0.1114269540344497  0.7043112464791482  0.4248981761740708
  0.3171600452299700  0.2960256870422042  0.5930789341451248
  0.7392158701150856  0.1545662462608178  0.3289085204042588
  0.0603696626882958  0.9942089166086617  0.8084636864405079
  0.8248744261631913  0.6388402733711763  0.2837636681731462
  0.4226153243757076  0.7196458895767971  0.9040875873173548
  0.3579523570175559  0.3645038367977237  0.4245118417116652
  0.0942626236572537  0.4740173234226563  0.1483360368988430
  0.8883576791163945  0.3573772630453307  0.4842462278693123
  0.4876055415952590  0.5696522322224093  0.8170427531118079
  0.0517981584560987  0.4499438155228040 -0.0128348330073000
  0.8908649827174826  0.5143930935846598  0.5711766952231707
  0.3291425926559072  0.9164835018979660  0.1699730472738133
  0.3432715830844973  0.9169894150099911  0.0844293537307378
  0.5633204921190959  0.8318650820175238 -0.0157169137657003
  0.6037342481561587  0.8504412187651950  0.8156891894543448
  0.1089928700318194  0.6196077732720965  0.4232486259194987
  0.5254564337130875  0.0456868315365876  0.3873695353298029
  0.7432719732577850  0.4821266090304962  0.1803035848425242
  0.6510790393684011  0.6679019854658711  0.5693851960924250
  0.0417214751491503  0.7551530309161970 -0.0059199390673728
  0.0250643850724977  0.3672641215015184  0.8315269099804981
  0.8536897816017142  0.8462257490928636  0.0753832463384708
 -0.0071192546789638  0.5128382802355328  0.5753627892551649
 -0.0167912837980070  0.6607773872705436  0.3248597799313696
  0.1437596327381264  0.8938999712364333  0.3708637433876178
  0.8690612623691465  0.8118073773711443  0.4083836193035090
  0.5522157357178291 -0.0617823147409364  0.5564205361110032
  0.0833219593273784  0.9388410017163147  0.1204013411880273
  0.7743217118822557  0.8228436799810736  0.3649430657466588
  0.1600713401576094  0.9745937575799533  0.5166978835545430
  0.6251722194666861  0.1708764530574040  0.0390122366667191
  0.5381136651688100  0.2256335374678682  0.0289256529299350
  0.5723302970193762  0.1646812555400214  0.9286294573840439
  0.8000007946606237  0.0953390850570085  0.2557808056812820
  0.4434909893638203  0.0313242041892995  0.8244494809807643
  0.3232915902980281  0.9122208543304372  0.8956091439434992
  0.4340396042871101  0.2423951402961469  0.2623693391715397
  0.7976741071827032  0.0900794555892499  0.0614215740845692
  0.4193658287548733 -0.0559130630560496  0.8826836178985139
  0.6536516735311436 -0.0288701858456657  0.4935301538288105
  0.5115704904839902  0.0411761443896638  0.5876961695158025
  0.4418695761854865 -0.0313348284058540  0.5012605261558828
  0.9008840216586217  0.9126361699684508  0.7000035153942252
 -0.0014101565494911  0.9334591722280622  0.7414979813075721
  0.5395616777714174 -0.0322516934330702  0.4487081642841129
  0.1105947112707628  0.6686672115041449  0.5125924081263046
  0.2571044290728876  0.5748799153080495  0.1786606362925371
  0.6321756509101752 -0.1040068172452306  0.8973520462213140
  0.5154310042550114  0.7778813101880632  0.4518726755475505
  0.6518191701662879  0.0142323190847066  0.1682661974524648
  0.9494281893945228  0.0563855440461570  0.2522901321163341
  0.8132769991555672  0.0447476507678817  0.5942455931546432
  0.3810943518013202  0.3814518237760562  0.0054834379674900
  0.8213969846323284  0.3084475236462335  0.6438974989647797
  0.9094148080294733  0.3789126813924748  0.6473637786720530
  0.4726991113698515  0.2523614093079279  0.6352896435694776
  0.2436734615027883  0.2526361828040301  0.4630410945103608
  0.3396559214066961  0.2950161362853666  0.4975441793523149
  0.3143251370785543  0.3987863928358246  0.3456009663120568
  0.8965497205660085  0.5680595976663024 -0.0296757025156786
  0.1960811448706085  0.4163154216660426  0.2862392974230591
  0.7052445665572237  0.6729725893653807  0.3866578571607105
  0.7307658783172450 -0.0457290701693356  0.9165465375502033
  0.3846909516135442  0.0769249696629655  0.4647430783717548
  0.6383958031000884  0.2627023904593425  0.7575373787279130
  0.9236770170906015  0.8827181575106936  0.2453983639149152
  0.7941398111063738  0.7836264677014386  0.6579134958833617
  0.0756901835359289  0.9326677590048839 -0.0258680327954390
  0.1663442402910567 -0.0140610024432322  0.4114289670682961
  0.2530115780975832  0.0667080009984049  0.1485495171992912
  0.2638555980390767 -0.0372596472380466  0.1150424936245790
  0.1044256013344253  0.6588175363506312 -0.0211114516936336
 -0.0420965117392642  0.9188298333600505  0.9231303892170337
  0.1223629358905995  0.8372715118950946 -0.0506336104127857
  0.1785005454055395 -0.0287077077716337  0.1964279342546075
  0.1007726261956635  0.9025121603144274  0.2161200102302543
  0.1985948756424784  0.6536988829641006  0.0478228635176793
  0.1466167114217577  0.3626353418107845  0.3946529896560141
  0.8288626887617593  0.4846380140618916  0.1379900743894200
  0.0944403578704916  0.0120449677245074  0.0414875132060996
  0.8955263267333659  0.6663426218782166  0.0373188483940184
  0.7066550375007550  0.1509968363274329  0.2380196338871261
 -0.1094079223993750  0.2182277696359431  0.6501466111827852
  0.3392437157043751  0.1434295950282242  0.1101141886478759
 -0.0130779866317962  0.1283668779336894  0.5127217249808820
  0.9028712636372858  0.7303511107909988  0.8169404013860631
  0.2920114924320800  0.1552846424657909  0.8972095161395544
 -0.0235841632596679  0.5590199940351954  0.8826831723828927
 -0.0286486793103694  0.3822613088610868  0.7412462926954463
  0.0525385761476251  0.2981095247229121  0.0450175833221913
  0.1931073847352133  0.8390791569431943  0.7612171023293064
 -0.0241145950244935  0.0972017578906586  0.9121562490435111
  0.3598028964653791  0.1277607465787960  0.5471956946819819
  0.0545291196448995  0.0377435622291326  0.2015514123781335
  0.8996001679392401  0.5894324842683825  0.3305981113118187
  0.6201700104137253  0.8292869303820272  0.6049626965219272
  0.0454834655005436  0.3593451011743504 -0.0585316456254318
  0.6425759346916713  0.3086954649262346  0.5302077536662257
  0.5705144441281690  0.6747145334466289  0.4812591565555997
  0.7758543660300171  0.7201176866055325  0.3131254010521621
  0.4318192235569679  0.4916594610402499 -0.0330504196141613
  0.8192132414724405  0.4954957873735365 -0.0257506117298666
  0.6110613000874374 -0.1275679215079185  0.4922027744392107
  0.7281307080852308  0.7018475038207594  0.8184132341462271
  0.5213368197806515  0.6976724916283177  0.7107340319312573
  0.5488253208016166  0.3119096971282265  0.7019478668861705
  0.6417314145864523  0.5502183959779114  0.5731748041973225
  0.4612959869094587  0.4005565027968504  0.9301080743016421
  0.8066764237474693  0.6312326445016088  0.3850949700947842
  0.6388891189841803  0.5572965857646659  0.0786231082050135
  0.4483174001577854  0.6745003374862771  0.8063422944569216
  0.6137850522378923  0.1921913413719669  0.2383541656591838
  0.1749049435488672  0.3224128842756965  0.6692557855113858
  0.5153181507022300  0.1560568572089088  0.6440193759574356
  0.6154361558328668  0.6463703717768129  0.6675595515691410
  0.7375037491073084  0.2843544478055728  0.5676039187974956
  0.9188969873052817  0.5615930309488512  0.6582677285844049
  0.4525012329743865  0.4793884941014356  0.8516824201014118
  0.5529047082600747  0.7967188455374901  0.0818009691267707
  0.5772243320001108  0.1177616251903017  0.5695965700743967
  0.3798963391075085  0.4932808017907765  0.7154224968331735
  0.6304510432992287  0.6133626161347193 -0.0293271967517934
  0.3899691650002972  0.8302793355262700  0.9208400758024387
  0.4401861267125803  0.6000592535615740  0.7239718975220087
  0.5181769358223818  0.5158000113258863  0.2444161200932183
  0.5357706967243706  0.3717042470726320  0.3787390584977924
  0.5876702979089697  0.2887886431170931  0.3429488524583870
  0.6127276909881231  0.0767315454707390  0.2483978821671010
  0.5846707004399398  0.5346140095834513  0.6660805012176498
  0.7366110203888787  0.3799951831799316  0.4982804418944362
  0.6163540048202668  0.0446033047657849  0.4285686022847982
  0.5805763317483249  0.8968092942209438  0.1579687008597257
  0.6533603882124991  0.5528233148872173  0.7389364923780704
  0.6079886113212244 -0.0796107025977796  0.6606662639154500
  0.6808475482303330 -0.0330495717778616  0.0020852227610902
  0.5041773763511350  0.8989539384666352  0.7214224452482759
  0.7053661296646433  0.5735057385226563  0.6520405211225773
  0.4566375124002389 -0.0016788920675256  0.7155700125679849
  0.6473034928061131  0.6300621771214768  0.1687731255164839
  0.8077253940350795  0.1598471868575975  0.8222801049808094
  0.5448991046937429  0.5876669762836885  0.1299697429133991
  0.8202519035468219  0.3120460643223382 -0.0039047352836207
  0.4323591621594314  0.7810632959110989  0.7400516467830643
  0.7994403001306506  0.5411067406062451  0.3190322667390811
  0.4570996517227878  0.6481064579444675  0.6209799528003687
  0.4213708114708835  0.1890292899078254  0.7201686868514101
  0.4701408698009832  0.7817689123915267 -0.0162471669135825
  0.1027525035988256  0.4079310215547882  0.2241876082066585
  0.2640342140534928  0.4932833941266459  0.3642777257937916
  0.4918812787290618  0.6896582013283802  0.3963131790188856
  0.7025297706969439  0.5637257639259221  0.3686535620142923
 -0.0142568454872971  0.6385715755049425 -0.0326720571928624
  0.8322248004994498  0.9630106895255049  0.1088098944494336
  0.5609989796738233  0.8002463302119601  0.1953215759354133
  0.6311140041583786  0.4951903487061260  0.0034419861087178
  0.7009637203913738 -0.0494623072428498  0.7236194998600031
  0.7258530520398206  0.1562956631290740  0.7516411797655880
  0.5510758499752091  0.6034814246482157  0.5754082082774433
  0.5119271274902010  0.8962657662362267  0.0493229982280421
  0.4508006700702639  0.3079169333291481  0.7269947582914925
  0.8337184272253506  0.4515041060459267  0.6203073066575970
  0.4627090879461291  0.1464746950632258  0.5402265477052617
  0.8917771342843620  0.4789556963427778  0.7212756911243664
  0.9160471135133744  0.4257514160786522  0.4205818771505507
  0.2742661333264581  0.6539949714865817  0.6608727698680227
  0.9198226774116562  0.3029103965384286  0.5672206382174567
  0.8150716947776807  0.2904227572309674  0.4642985962929977
  0.2714794264832049  0.7271441668549827  0.5715378847814747
  0.4065239570992571  0.6644393194288968  0.3250362603011613
  0.7044013292586575  0.8836629138953368  0.8021853061027425
  0.3699952616773960  0.6912082297072678  0.2243409566276698
  0.3572353983500756  0.8162138363896507  0.0364746010496708
  0.3904636075609442  0.5656161756035016  0.8101492084897141
  0.7928514476624459  0.2684438711705973  0.0975716153304455
  0.2672667171218180  0.5219376699198490  0.8036596018954393
  0.8730440027931810  0.3510017219243052  0.0922412647013676
  0.8884851267218367  0.2049597058723098  0.3650058617142741
  0.1356540109784639  0.2831899131600740 -0.0440201600368092
  0.5395937418626729  0.6129501553963527 -0.0077358744573546
  0.5949875783009387  0.7446780040649388  0.4004831267169346
 -0.0522938317312737 -0.0350339040445425  0.3252340715795127
  0.5171943099679586  0.3391622084252329  0.2684597032370581
  0.4288005520040510  0.3502569886834556  0.3122441325105202
  0.4514472246615985  0.5910072411837585  0.2231605105147761
  0.3304306989487124  0.8039445635360098  0.7342796420874531
  0.3580173476660028  0.7404204283339839  0.6510242352498115
  0.8337898770282657  0.2318276296219910  0.5530196136606010
  0.4080679846988952  0.8907636143437306  0.0027661797814550
  0.2839315085441502  0.8434814623008198  0.1229525805373514
  0.3257947548208600  0.7583329827157678  0.3041992033634035
  0.3505457760371850  0.6899064377766080  0.7551536942469830
  0.1393060892530529  0.5695971178647543  0.9024188614655374
  0.3522394089922081 -0.0594489233280129  0.3415136406290750
  0.2669862376648898  0.7123366430926499  0.8924681169703346
  0.3962317218089838  0.7626565968466290  0.3857144110522113
  0.1886528192003971 -0.0357018792862202  0.7126942981896988
  0.3429860072764589  0.1673108038180046 -0.0081425867230170
  0.1670724204447589  0.2272274303015753  0.0491302632904476
  0.1393783879075864  0.4641659482339806 -0.0537134363263384
  0.0917981815338335  0.1872066763381739  0.4735251518348197
  0.0777167998634199  0.4482784660716034  0.7660083003865445
 -0.0034787327568203  0.4648939275856315  0.6860391246689155
  0.1447636937820207  0.0733336647039157  0.5223884475984496
  0.1869048688957410  0.5627564736287657 -0.0079759385823537
  0.1688304611206941  0.4201728713129194  0.1194835930342496
  0.1186834843872842  0.3794661732438649  0.0190034939066005
  0.1150969519392062  0.4894794646576008  0.0527542285546358
  0.1971095301797234  0.8361120387053439  0.2185297508652467
  0.1800816680150852  0.8776248817843677  0.1261732287315897
  0.1023845166643173  0.5064103831484710  0.2849349318135420
  0.9177744345981766  0.4242458234936896  0.5426914038223879
  0.5293297128907878  0.2171242427324765  0.7445377137130904
 -0.0257303158403540  0.1673211964056718  0.3014807752999761
  0.1889263906869911  0.4609420351441922  0.4580520016156421
  0.8123333300773387  0.4864920937369509  0.7996574926967136
  0.0790407785934031  0.2445979058434982  0.6804436691588863
  0.3364965708719411  0.0536666939983905  0.8517129201164801
  0.1645067337263100  0.1955600359950072  0.7239543537733468
  0.0583996511707593  0.1803934303173491  0.8993512437845498
  0.0124484843921115  0.6816024126399216  0.0657379847672973
  0.2540885512473570  0.1588205407848739  0.1995456309985310
  0.7952702435622304  0.7241755870331654  0.0340200192286200
  0.8747189296781052  0.7059037056320072  0.3432049747172786
  0.4341842199146837 -0.0391611778262274  0.6126921135457318
 -0.0060553374375028  0.9538023341925782  0.2128299188180497
  0.4305610579455775  0.1749810137123251  0.1720056262159176
 -0.0301874231574897  0.0742915740590339  0.3578808977758899
 -0.0479446459013184  0.3109401680954714 -0.0168794987702477
  0.5523886856656721  0.6995980057423552  0.8159911342503999
  0.8104297398539245  0.6666823198291459  0.1225434598371039
  0.2626091433317341  0.5994853235254709  0.5737473562383442
  0.1980683339468677  0.6604060001637228  0.4194151920072212
  0.1906722571362899  0.7449919614135042  0.4915331778548421
  0.2235333400077334  0.7141029617796305  0.3195984374717462
  0.2353840584931412  0.2428543370819331  0.1350148144130439
  0.0297588833277505  0.5693324487808819  0.4821204107277549
  0.1855089025278144  0.6757536787400382  0.7256474510436965
  0.1621704091435417  0.2407133415342624  0.6143066498424133
  0.1279505160706292  0.6649447780515787  0.3341258495366646
  0.2388789140144732  0.3182606174174584  0.3478787159179895
  0.3427694133370663  0.4156278535832196  0.9173859364288169
  0.3461768667614869  0.2279310485326814  0.1837606197790117
  0.1749857494291094  0.6925825627063420  0.6097329567327651
 -0.0442484000700936  0.0437985526719542  0.5590627663959482
 -0.0182249176310596  0.0150428218366090  0.4565008207050407
 -0.0325283433089416  0.2669229748057556  0.8876548519512892
 -0.0226275919292707  0.0880852964265166  0.7438808622956127
  0.3430788538823008  0.5766809875384630  0.3748291805507517
  0.3913201154756681  0.5089615785767514  0.0799690737057351
  0.3476189759734707  0.4448211440655259  0.6385137679190265
  0.8165349874023466  0.1940827290479925  0.2813414770744213
  0.4460607844423761  0.0401448838910856  0.2143298581603048
  0.4984679226569760  0.0664502373926612  0.4803311927012451
  0.0560557401479050  0.3905361621776662  0.1218451762838557
  0.4738002229601854  0.5231234519050221  0.6349796650632052
  0.4901237305221848  0.5044511282471974  0.7385571007666185
  0.5653745186707358  0.7953619374695033  0.8901209745396348
  0.7575489674015492  0.3419525555652664  0.3860441331809285
  0.8666959232399665  0.3197648852413840  0.8972778684023143
  0.8249722394967799  0.3607178499095812  0.5529943588759996
  0.7129583271215177  0.8559076609079195  0.6463165295871968
  0.2537792185533528  0.1442364340364543  0.0602760389031358
  0.4561725282301790  0.5613971093723904  0.5396223257736031
  0.1698292249418059  0.9241471220092526  0.0210428766423263
  0.0141723066131331  0.4468935983373897  0.3018876611195101
  0.0586721448245266  0.5520730708429912 -0.0277977300607681
  0.0195106522729666  0.4888798601887986  0.0757759773293517
  0.0856550039408416  0.4768845254122654  0.4112723866483466
  0.3482875180932858  0.0990428168461706  0.2107935206468790
  0.8816566578674501  0.1486689877565159  0.0902131490354586
  0.0790447886130335  0.2771009638569193  0.8671527586047231
 -0.0136514869450705  0.3944068273787268  0.0380646933674827
  0.4480603033372235  0.2242339141845913  0.8193453647349520
  0.0623945346378460  0.0956495155863937  0.2963800130343572
 -0.0510217892853588  0.3904667168699528  0.8954447169702915
  0.3586838625053958  0.0096892010577532  0.1481292426340666
  0.7232480089797966  0.6351434037211668  0.8976391906424136
  0.6589678477192207  0.2539621651882631  0.8842321134227265
  0.7294803271389843  0.8097560035509451  0.0376165911322705
  0.6876921195251346  0.9107362058900252  0.1928713846326779
  0.5951078990069584  0.6359305846440896  0.3737647336504867
  0.7327054095646146  0.0545819895406685  0.6820217051630302
  0.7409121476276315  0.3871222688139553  0.6258162033686856
  0.5920513625139435  0.2356700798767013  0.6396566525523667
  0.7643410264473303  0.3813436697746028  0.8099940667947274
  0.6344527451943595  0.4462656501313537  0.8948329972194407
  0.6648289220357355  0.3492864834740192  0.8344700447103809
  0.6337937697871953  0.7250075474877203  0.7525294621740288
  0.7529525196946006  0.6749702826555699  0.6165774918548567
  0.7258003136194058  0.5506297650538201 -0.0336154580092696
  0.6305193919422009  0.3769618004905204  0.7371844771730723
  0.7399284854689595  0.5055591643199895  0.0638737586162050
  0.6628626066710986  0.4579919389404336  0.6664418755864121
  0.7120192062456494  0.7096479902389611  0.1127563837464981
  0.6811153811882960  0.7450172839261624  0.6554781425046138
  0.7076442804720260  0.5590166748056666  0.2508548085453732
  0.7622692291520803  0.4895733663861840  0.7017444024158332
  0.7200634192278575  0.2627236619348037  0.2852488244365839
  0.9038020280020764  0.3149846280785389  0.4044988449690048
  0.8139285344445654  0.5648182179568692  0.8878791079886310
  0.6446711924713168  0.4614266452244341  0.3780891178767339
  0.6833130868605801  0.4613936825567106  0.7886807685090790
  0.7157398370549046  0.2448037758892692 -0.0019065978647610
  0.7912340003141197  0.7807740852996026  0.1384360052058059
  0.8765391261028733  0.3949457948463006  0.8079888845022658
 -0.0217310952632976  0.6468058907276893  0.8101869321203506
  0.9788335846759765  0.3438140484143083  0.4837480270895751
  0.8291981581396646  0.4521797953062056  0.2441226144406146
  0.9113273196432817  0.5175229164256552  0.2128520259941585
  0.8716539022647219  0.7307947284640074 -0.0616156330412445
  0.7255052104047319  0.6242178046156265  0.0455942369857102
  0.6433257865922611  0.3387044550405010  0.6349583375699526
  0.6303484885437215  0.1649720755016835  0.8208957682344631
  0.7389454733152349  0.4879124537387129  0.8798886476796147
  0.7072746846171880  0.5091083447592352  0.4807778317957186
  0.6521409267197800  0.3494671904840204 -0.0529342790783729
  0.6559669619054924  0.7310393503883060  0.2102816793894996
  0.6626439123271257  0.4456153494285506  0.1078214479707688
  0.6877468290694793  0.7079341306843419 -0.0035370909770415
  0.7236778195024464  0.3454292219475051  0.0489721236486442
  0.7486461090127762  0.3229820969531723  0.9133404324968604
  0.6539468830239838  0.3390128944842309  0.1362127365475136
  0.7398457929971598  0.4909620153672948  0.5867119272345142
  0.6571537952974018  0.4337484480042605  0.5549534667890130
  0.7333452840780562  0.4570889774571394  0.3040128054449409
  0.7391638460344452  0.5817388066093775  0.1414805499355015
  0.7023125672846785  0.2272190730576473  0.6623010158624490
  0.8166499304864777  0.5724996430307461  0.2171817800762446
  0.7865742995920367  0.1267030126563345  0.9320112814490409
  0.6514463448299436  0.5517071546909130  0.8826604881519624
  0.6308185737311871  0.7001468555305553  0.8971524501068786