Cr  H Ni 
 1.0000000000000000
    21.1200000000000010    0.0000000000000000    0.0000000000000000
     0.0000000000000000   21.1200000000000010    0.0000000000000000
     0.0000000000000000    0.0000000000000000   21.1200000000000010
 Cr  H   Ni 
 259 173 605
Direct
  0.8291903574297873  0.6666409728657581  0.8310030451215593
  0.2455814830997975  0.5018979671991787  0.0838442637745554
  0.4109718193625582  0.2499343867331535  0.8366722837281058
  0.3288190272980921  0.5031551115607011  0.9973051430105054
  0.3338938349541119  0.3308338434961315  0.8340127724722290
  0.8244770855168024  0.5012606608883698  0.1702701692073215
  0.8289890307351548  0.5846829743902697  0.2473166439132897
  0.8268616497976712  0.4981265416933479  0.3331004385656277
  0.3277085135411517  0.4137413229702167  0.5838460132047805
  0.4158382003938986  0.2504534714126910  0.5001846742769758
  0.4100367175689654  0.4177608309277471  0.3325377490752278
  0.8310947704668787  0.6671508741264061  0.5004616387893448
  0.4145877824700390  0.4139234824037392  0.1680260100746805
  0.6639065850172444  0.3323539203133065  0.0017575997054887
  0.9127524655312457  0.5865667901259765  0.9958212265810206
  0.4111380905496893  0.3357281675938448  0.2469924791348513
  0.3291620503020701  0.3292131978559441  0.1663071127202604
  0.3295000223754512  0.8359299426930330  0.1652657061311249
  0.9091257820951836  0.5845406084277440  0.6672047921145672
  0.3287858560779514  0.9179289203465152  0.0835632416330516
  0.3320737305881801  0.0828252417010074  0.7482745282308940
  0.4124934232555801  0.6695559460951818  0.5840450043908884
  0.3327386319065493  0.4965354986489453  0.3343726639235317
  0.4140317474711905  0.1579609955036894  0.2514739586636924
  0.3298508465143507  0.6713364743442597  0.3330387629720296
  0.9141588684034797  0.7507890565678347  0.3378762105889991
  0.9172626495960160  0.3309481845558825  0.4136289741670017
  0.4132155252614180  0.3322287037428021  0.0865379555861652
  0.3289659417795894  0.5843150168420823  0.9172853754523882
  0.3253362785893579  0.5017841575957380  0.1708908403324640
  0.8290395181142747  0.1653627300938207  0.8351431606830296
  0.8278678820302153  0.3305071086873484  0.6692403047641239
  0.9110663158483807  0.3322430457096371  0.7497689400521682
  0.2474151623074522  0.7499682846860903  0.6667432363203584
  0.4983044606194750  0.0017810326741739  0.6665200610245618
  0.2483249284355706  0.7552449618799787  0.3339248373754887
  0.1633672050420175  0.7522720326226180  0.5821254549127470
  0.1630636503592786  0.7546576613441155  0.2473310673880657
  0.1586751963517704  0.6682008064454242  0.3360083480789477
  0.1605801986042599  0.5012585935032164  0.8296776543816341
  0.2472835767564522  0.8334030145486773  0.9163771407036457
  0.1612319782537232  0.4981943126749361  0.3348076436211269
  0.1604816996193486  0.5839285860060219  0.4196302959804891
  0.2459026822721678  0.5004798703431402  0.2461410218450607
  0.1622378205360024  0.6677403408528472  0.8328321727597470
  0.2478244974391665  0.4163117688826214  0.6672925981780715
  0.1641502124966786  0.5024119742287425  0.9971138497804546
  0.3290541028552824  0.6689093153274089  0.1669938794284443
  0.1657912743080767  0.4122653435882271  0.7444438859602739
  0.4114807842631967  0.6671425311475460  0.4157086421413324
  0.3336906460900766  0.2530832414617913  0.5828472631610089
  0.9114880232020134  0.3330214611043203  0.0869628196194266
  0.3298043510761179  0.2500953956376204  0.0839875326793376
  0.4095847854530135  0.5033371384394989  0.9163210455493868
  0.8271793294041652  0.4164979759952179  0.9136580014710881
  0.9133005627337655  0.4181600555423349  0.3306412925849036
  0.9128937683367500  0.2449796024048135  0.5005666186239679
  0.3275956450443310  0.5879627906211291  0.5839375453065093
  0.3283760251174921  0.7509109939878645  0.9169905181186329
  0.3302258890520067  0.7556017359877232  0.4164727945828994
  0.9111223261963880  0.1635526739272506  0.9143690089791123
  0.4126801749606441  0.0846473943013536  0.6657381089660316
  0.3270827375290746  0.6679399790739444  0.5042675942580908
  0.3282402664595180  0.0872559314953210  0.9169158047566064
  0.1651930003452741  0.3303716860405957  0.6654170404986826
  0.5808614640849391  0.8320819557912966  0.2494074439453562
  0.6640843621990484  0.4997706246071878  0.3355609048378690
  0.4127816515145692  0.0807518744164812  0.5002562765614350
  0.3294323544982726  0.0791433217829027  0.5836192824580709
  0.4110682874259757  0.0821070698853321  0.3334534741923046
  0.2448078551645289  0.3351119071349637  0.2488791406125747
  0.1658633793823124  0.3298749124337068  0.1673675358635328
  0.2462818825022053  0.5826607972821746  0.9964509657750058
  0.4154309444560863  0.9977157832292582  0.5800414726609853
  0.9121261190532447  0.8358474904469599  0.9167682231951189
  0.3297766756589504  0.9984346943721989  0.5004415740802529
  0.1626136278322665  0.9162794436216727  0.0791877801165122
  0.3296784407570827  0.0013407891105353  0.3357892400908807
  0.9121533976644509  0.8337060592526905  0.7491820192822243
  0.6630179264872292  0.1669989074747802  0.5031275344981814
  0.3270220991333397  0.9988051410611899  0.6668751179006847
  0.3260895022309147  0.0821694900450116  0.0831266666631542
  0.8307732760181279  0.2448654624435099  0.5828725228449719
  0.8305815124336448  0.8349795458290474  0.6677528000485710
  0.1613467697354448  0.8366867243633817  0.3345512628989306
  0.8276739787335704  0.8319857813550138  0.5028163775145643
  0.2458638554184728  0.8313448345699228  0.4171868521172886
  0.9156974400578445  0.8336920700858742  0.4179125942603832
  0.1647430632679221  0.8347719204049514  0.6665461782587100
  0.8286387343167461  0.9196507385145942  0.4156831675029743
  0.2445113938758405  0.8310815269208549  0.7482811429468593
  0.8261417918975481  0.8336233671353983  0.1649518583129917
  0.2450091524478674  0.9139743817961099  0.8357805132012978
  0.3258110078389201  0.0001445876630826  0.1608472757083596
  0.4121950082694893  0.9987854137506302  0.0802560379326282
  0.2468785635905425  0.4187330582752208  0.9977220144685662
  0.5790947243049223  0.6689470393092636  0.9191522654718546
  0.8296494859132535  0.1661042416624583  0.5002351602120645
  0.5794173077529919  0.5862795625306004  0.8334133952574890
  0.4960882652677224  0.9170375613607467  0.0828292752656371
  0.5803790382068161  0.5871873938225325  0.6678894783668855
  0.4110816847231640  0.8327218126767482  0.9195875447176437
  0.5803207914850093  0.5837734266486175  0.4994569994334181
  0.5823673556938102  0.7515579952849528  0.4993682070166950
  0.5811697838377194  0.7522139787063626  0.9982695960419403
  0.7485960418615107  0.5002971885334593  0.9183170274214901
  0.7414744725701564  0.5026609416841900  0.0813386547805132
  0.4992977543946141  0.6646536409993894  0.1655732740563790
  0.7463513471328521  0.2493892918253177  0.5015996628442759
  0.4999584078528009  0.6673452124243572  0.0003303613402172
  0.7459669686942659  0.1668578581273303  0.7505005879599612
  0.7456394661647886  0.6655149331473162  0.0824773294308384
  0.2425220671733281  0.4145852016715288  0.1700535039248842
  0.7471669743989067  0.7497811404331237  0.1669719987461848
  0.4148361069296130  0.0037939932157886  0.2529796836643551
  0.6631377605526367  0.7488831949225244  0.4154400867463104
  0.7458341059020183  0.6675310783738898  0.4148608332990953
  0.7456324312301644  0.4991902522635955  0.4155428819810515
  0.7468273772421079  0.5863342449343472  0.6675671115820071
  0.7484198682753058  0.5842223248317352  0.9999470794167683
  0.4981850195763497  0.7511960328524118  0.5835604104052143
  0.7452795615064238  0.1671685220399154  0.2473550806859828
  0.6610698286408424  0.1669377244620630  0.3299641677433138
  0.5792688317474882  0.9153696493946569  0.1644378394857133
  0.6636189903326374  0.2502328779696894  0.0851927997901390
  0.6625290443772486  0.1680229021887718  0.0040838711039604
  0.5788356617990409  0.6669074112883046  0.0828390822093738
  0.2458196973117892  0.3328703528509979  0.4177679695355034
  0.7470950483209770  0.2509444784970392  0.6657069550641462
  0.8276826163396879  0.8337343970274352  0.9995684862296983
  0.6655985322680571  0.9964083677969124  0.6667560665017424
  0.5765653134772922  0.4129384027738378  0.8341993492430156
  0.5009553382160913  0.0042747752631120  0.8329456911629980
  0.4993434708824325  0.0851862744183535  0.9164047854317436
  0.6641329581835461  0.9985556564045739  0.5035573760312548
  0.8287596049196782  0.0843282092393085  0.4166507189453334
  0.4961227751326306  0.9993636240014312  0.5013432905840227
  0.9130982002518766  0.0843751914144956  0.6698056239322209
  0.4982715345253200  0.9997663846980930  0.1637680473845814
  0.9127415057956221  0.0854094644202924  0.5002987695390598
  0.9135058479709416  0.9982364396116047  0.9179379589122576
  0.5856629898082222  0.2509542283092247  0.0065862833149032
  0.8280405567388531  0.2493247125028328  0.0859354718353497
  0.4958229463958684  0.9975896978649744  0.0054862156195659
  0.9106045506019589  0.2463055952894667  0.9997168750435323
  0.9114470109512320  0.1706302690811472  0.0824542423927634
  0.7459630438621743  0.0006438808649424  0.5833320154622802
  0.0792449415969039  0.4139078656383954  0.6722152914301850
  0.7461149218318521  0.0828277549902032  0.1672849199470119
  0.2454708866419951  0.0825656978606441  0.5007865893581527
  0.7435397625673782  0.3340397985181124  0.4157529553673788
  0.5798620882854164  0.2490416706517278  0.5001844676909678
  0.7433735886033217  0.3315744965756294  0.5832738602660906
  0.4952410649221211  0.2475414635236279  0.5798011047336059
  0.6639704719809676  0.4969528188060741  0.0021810274979484
  0.4124971325198782  0.9176386102893299  0.5019624020458706
  0.7465042892077935  0.0816091725024919  0.3326651121775875
  0.7451483407961738  0.2536530723634929  0.3336992866501145
  0.5003848653508028  0.4992352517694226  0.1674678977201620
  0.3312750769364594  0.9177038465477222  0.7481083744729670
  0.5801265540858731  0.0820871968721591  0.8340391920781087
  0.4952531455911484  0.4996414930601148  0.0017501379280425
  0.6616785906476861  0.5837070108497739  0.0834449476688415
  0.9082922229886864  0.2495356635933294  0.1620293238617153
  0.4992333733679652  0.3321963741804603  0.6652258591641315
  0.7460610530713377  0.9131405307131268  0.9982752095823291
  0.8301373775315590  0.1652303498606718  0.3338887864506053
  0.4114396977630383  0.8380024538512914  0.2483061542175118
  0.9120737771527579  0.0837016367876245  0.8345176771118549
  0.4986201983139776  0.0797561416076650  0.2483478693528046
  0.9959001423733751  0.9992869129261741  0.9978786383959330
  0.5810388115101884  0.2503691920521387  0.1652034400402717
  0.7421587380767424  0.8327203589386823  0.4204033468337598
  0.6658579715499957  0.6683692898977930  0.8335367192496644
  0.7443815259725097  0.9173455208494781  0.6661666415222667
  0.6626747201539074  0.7515096326668593  0.9154867234542748
  0.7440836037452067  0.9173527038482957  0.5028620371297895
  0.7426096769449059  0.6676198549903226  0.9159613418042899
  0.4965436587965599  0.4133864850614852  0.9176940048470622
  0.6627603054808628  0.8324578473456252  0.0000371002455542
  0.6589749976180554  0.0000422576557901  0.8330437488548575
  0.5781691666169476  0.3294698420001042  0.5824242647827742
  0.5783257846054065  0.1658045143259812  0.4202618828423248
  0.4970960278329291  0.4206817222267257  0.4193327031599220
  0.1593335149312376  0.4145726335372674  0.0862985873784780
  0.7452723109152551  0.8336041650637050  0.2449682753340365
  0.7467671086823392  0.9141531708812290  0.1664916712031803
  0.7443883719194589  0.3333821801374631  0.2509811234456527
  0.6634888697606800  0.8343206463381231  0.5011231561687365
  0.6662382250683603  0.3338427361693369  0.3333644993323536
  0.5788199151016699  0.2496837198741470  0.8301356591250247
  0.7458521533815994  0.4171151212402268  0.3333859118471010
  0.5809745141084637  0.2524236613641615  0.6648495104155165
  0.7472296904128128  0.3309850784972587  0.7489155264706255
  0.4121600042111014  0.9174705684353488  0.6658715453093542
  0.5856798126544603  0.8326516277418863  0.4189880628721438
  0.9992971237331552  0.5003697388182999  0.1681685347782715
  0.1599166757966473  0.0837342365746503  0.7498519870319504
  0.9946222554333661  0.3351238777008240  0.1663978086365605
  0.0786547938595296  0.4161659636788100  0.8245755629911488
  0.0766307590753252  0.4158462126378008  0.0027942230300303
  0.2469483587040454  0.1655173999136244  0.9171364764689031
  0.0803828589451847  0.3298285401916253  0.5887470683610747
  0.0769405907741727  0.5850693564895268  0.1693456279369913
  0.1616448667597259  0.0817290139527699  0.2523168435927183
  0.0790309562938944  0.3331173669712055  0.4149190025185633
  0.9927225237559495  0.8312949695538725  0.6668654444106942
  0.0794527872346272  0.4195988024485481  0.1681787274679093
  0.0822143324594496  0.6663833355637825  0.7546114990174531
  0.9969538886612316  0.4165517064298109  0.2502107625764285
  0.1628946191543863  0.0007021388446188  0.6677726413450569
  0.1598259866515009  0.2501735491970307  0.2507747952235422
  0.9909992010343529  0.7513169607618249  0.4182105205903558
  0.9966957890642590  0.3335989946359916  0.0020751053784453
  0.9966338486532522  0.5046997771356115  0.5021620403257472
  0.0802296556700865  0.1660176168842238  0.9135969218694470
  0.9941447300018603  0.4951937996655857  0.3335593160471598
  0.9938748438948215  0.4164203551700256  0.7470831860383934
  0.9959031229975465  0.8342259623691343  0.5004059105545132
  0.9949876340134736  0.9153233968379045  0.5817525954432909
  0.0822216874552535  0.4187900773993811  0.4978406021480455
  0.9951307475872740  0.8380881072531337  0.9957051712015333
  0.0799245351067832  0.6688174784064265  0.9151445824762415
  0.9965654022439073  0.3337820771486186  0.3328493702110559
  0.0786069274509937  0.8337272385030694  0.7523253382336664
  0.0792300762723600  0.6636025215144735  0.4186652112517292
  0.0803742602951535  0.3319737342094279  0.2545548543896594
  0.0798841538624041  0.5837945140615490  0.5013075517220691
  0.0761682618745346  0.3300878556602340  0.7506042564705514
  0.9946038298630633  0.7509987924535494  0.5825023148682775
  0.9956757991209522  0.5835368255489097  0.5794565961044825
  0.2453070830201456  0.0008665495944860  0.7472809304741421
  0.0790547877220081  0.2527727947345332  0.6691542973024397
  0.2472999374944363  0.1701461785390543  0.7491581419581618
  0.9955430688800448  0.9164375692175153  0.9159269407966810
  0.0814549239951246  0.2507638452284149  0.9991245298355391
  0.0757982147116775  0.6676081302600243  0.2500974264270311
  0.9988082989180113  0.6654817848752022  0.1700928232005949
  0.0796219266248531  0.8357719823331428  0.4181349014315016
  0.1623776159400805  0.9998231246246573  0.3297233775491145
  0.0828040266669948  0.0011937770297102  0.2484389272151603
  0.0795548249133989  0.4999594785958539  0.7524080257124166
  0.0789363076354424  0.0806094283621530  0.1657456973458051
  0.1635889560309871  0.0856770582302794  0.4173362087063421
  0.0768033079692624  0.7518998905520489  0.3324350216841584
  0.9959186630039157  0.1655073880878379  0.5012767801457625
  0.9985371612217052  0.2526508409014405  0.2529365798130404
  0.9983394114317179  0.0009139401768372  0.1619627429932253
  0.1656916878580728  0.1673403833520658  0.6712926348260682
  0.9969944754504921  0.1701787746118005  0.3348816160514759
  0.0815940494733994  0.0017632002110348  0.5838937248763791
  0.9952430014598589  0.0862110562776586  0.7503635474620315
  0.0798747284170441  0.9988218460883489  0.0828627245748168
  0.9922378495231828  0.1651031653111704  0.6692529533016556
  0.9965958401293747  0.0008036388022204  0.4994014599263807
  0.0778863217003470  0.0824706281162856  0.5005225992070554
  0.2449243762101223  0.1630574637749581  0.4188479512852459
  0.9953321093786298  0.2465552488802596  0.0823218866059921
  0.1639379151493431  0.2493280912208102  0.7505279909627670
  0.9913425922680724  0.6674802697709736  0.7510260503099400
  0.1621415307188707  0.4153004134942566  0.0001034075872772
  0.3270232573244442  0.2505747956913885  0.4961349896104154
  0.4976968726818037  0.7547231463658562  0.1666620494651063
  0.6635636568929225  0.1656010387659785  0.9129683413594394
  0.8273550979452697  0.5011251969189270  0.5821830725843068
  0.4964084127502157  0.1669236488040707  0.0832459262748208
  0.0805926059958292  0.4171355427157450  0.5848892632886242
  0.4149763791142053  0.0857712436991483  0.0828053455579218
  0.4126618109524964  0.0010329415383212  0.6656554656160558
  0.4092203733626145  0.3347880025957621  0.6661617023046611
  0.9123462249466141  0.7502068009262906  0.0821560456546353
  0.1632914537620620  0.1653795396630637  0.0833757051825850
  0.2445475694478807  0.3315894732143222  0.8346216547609482
  0.5013313468650576  0.1677139343899954  0.2498107841734709
  0.7437201963917892  0.6666828104577611  0.5033959248084366
  0.5787618280016900  0.1627431898731503  0.6669867485752621
  0.6614756874628437  0.5001814846140025  0.9141631309337330
  0.4991063494101445  0.4186838169797821  0.3312409536258598
  0.3265506288977987  0.6684283626538949  0.4180527392317924
  0.3292250342845788  0.2491832780489995  0.3344641659308137
  0.1626960106191223  0.6695698948485407  0.0821845588651104
  0.1632548858253010  0.3303733190646744  0.9171959818468516
  0.7466665851163196  0.8339933650128560  0.3329443931970121
  0.1659269673430495  0.4143245321756931  0.8326990393488292
  0.3277046989504385  0.7512055635721994  0.0061966212823658
  0.8290942852596289  0.4155917384821308  0.0045554254351882
  0.1633427429664851  0.6673400145010213  0.2486553402146294
  0.4936677798994760  0.4222842138840481  0.6659699613260549
  0.9130749586854883  0.7497470561900409  0.2468332678720089
  0.4966029592868045  0.9170466433561998  0.3346086723687033
  0.4142268903641139  0.8332792095417086  0.8295776386182433
  0.4960332584824436  0.5003415372327796  0.9147783772069978
  0.2457230810392756  0.5898445840501503  0.0855913312642515
  0.3288539932652130  0.4156529171481712  0.1673468350558527
  0.9937157482043628  0.3327982305671054  0.9131196765378595
  0.6694437392087608  0.5810069379618369  0.5002981518571865
  0.2468973291264003  0.4989693776544468  0.3338136211923964
  0.4121751900291216  0.0004067312996064  0.1660898912295969
  0.8307188128870795  0.5003317227030192  0.0821812812378226
  0.9102752705419885  0.2494800598302055  0.2510858564806723
  0.0808174134140915  0.3316777014339927  0.5016796813230785
  0.8239918041303729  0.2494929555074472  0.9972384388160336
  0.5772964275350164  0.3343973720157833  0.3329539723124684
  0.6636962525255687  0.6678067415912962  0.5853162951558593
  0.8274185183295786  0.0826687667269901  0.0003827684785426
  0.3304708191479660  0.5840548456909006  0.3333292721693928
  0.2465608417477874  0.4993348813409453  0.5005304643565299
  0.8302314872691678  0.3333387736337979  0.4168395230844266
  0.4911980720676037  0.5824584983412420  0.4983080034341390
  0.5843168472110564  0.4141789440050760  0.9223700078891355
  0.4128951385889529  0.1676636769686438  0.9998626500480400
  0.9150845124940368  0.4966233756761297  0.9983500930604285
  0.2507434850031179  0.5007163240630778  0.8311827595567589
  0.9098610082099393  0.3336680910904913  0.9986527330668882
  0.9964036304712475  0.0802211019113720  0.3342041581180017
  0.8287584870353412  0.5871070925189082  0.3359971320501289
  0.4116816122695671  0.6665794228256917  0.8342891136304176
  0.5787264249541993  0.6728985851174206  0.8316405201396181
  0.3296893753420354  0.1662143263029621  0.5825998744110682
  0.2453119739248698  0.0851850419392491  0.7513590021159684
  0.9115189379447076  0.0817719722779705  0.2488358946841499
  0.6638715097212240  0.1662169838431376  0.4166346695014576
  0.8310091294680202  0.9188250532971510  0.5022155932207837
  0.1624640934717020  0.7519788154904550  0.3320092389001243
  0.5003987490038364  0.9131890906786690  0.6668233829365576
  0.9120437962955049  0.4195804800220825  0.4182304020696142
  0.5857303560831582  0.0028756461819838  0.1659205505005820
  0.3273965955152511  0.9999640200274946  0.2487045798061842
  0.5814614072264001  0.9198411278023361  0.2521934657534464
  0.0790390225513924  0.6668727915862560  0.6629974667532216
  0.6629931685696220  0.6663641740316069  0.2504364666531165
  0.1617909188161152  0.7487687442858147  0.6696853566297294
  0.5796562640838135  0.4160837464399735  0.7450901453312857
  0.4157019241578457  0.5812493653220776  0.5852409596561806
  0.4942588735673453  0.2463919328334770  0.6678057043875465
  0.5807459942186041  0.4199484376395924  0.5810978274533677
  0.9123426804918828  0.0792222423256685  0.0829571893916451
  0.9960951877282315  0.2484121035360075  0.9967845845375305
  0.9959630560241207  0.9971443593495523  0.7519779973288426
  0.9964885708148176  0.7469232608389258  0.9972581715016928
  0.4133241769881655  0.5013798485766472  0.1667538615161615
  0.7446319335267758  0.0037836736753946  0.9992109696011776
  0.6637828261539342  0.0009663210799632  0.4127314561559274
  0.9939075199954654  0.5858622508749202  0.3345880838274808
  0.4930489955497017  0.7549687193349424  0.0008905029762074
  0.5795037975561069  0.4989250306598136  0.8317908608389115
  0.0771207224365888  0.7502147731240664  0.4181440164753062
  0.9954296418341169  0.4149044150874925  0.5019585806617717
  0.1622245434504403  0.5833116022989230  0.3328275376005401
  0.2431580011953316  0.0028939515049068  0.8356598362588492
  0.7453804837622204  0.1670926751639528  0.3333365274248760
  0.0780719825071268  0.4162934660698384  0.9141413536223606
  0.4947972953055037  0.3304471452353968  0.4175797434611139
  0.7439619537581985  0.8352047739746656  0.8320801154916566
  0.9144375757429474  0.3342663095125666  0.5026239128846312
  0.2481769002902520  0.9204294308354425  0.4174906089658323
  0.7490329511662981  0.0007184097343484  0.8338873095168297
  0.8309873495136449  0.7566574872125297  0.8334149557831660
  0.7454477917435464  0.4965025393220981  0.6666895794770656
  0.9943202606903444  0.0018731036896779  0.5853245920493704
  0.1587886300129109  0.5020136740908326  0.0844283902260439
  0.4975760392629052  0.9980105389283348  0.9185363029141397
  0.4127691286815420  0.6660371803307317  0.6719464007674425
  0.9185804780239113  0.8342664284873428  0.1665368978543556
  0.6622312787453180  0.5834279901484062  0.9982959451166955
  0.5005870831175019  0.0829417335948358  0.3373144598480803
  0.8301815520764573  0.5777786773300008  0.8328125488224725
  0.0791965140416951  0.1660141172138471  0.6676698484025911
  0.3334501956899657  0.4137725329436172  0.9991569445548886
  0.4948340774285421  0.6687985474962178  0.7506354814319613
  0.9120157421102938  0.4174968829355665  0.5844707409663431
  0.2437223204127044  0.2511961101502087  0.5817511624009625
  0.9115359980403843  0.5001109939095193  0.1669180914300830
  0.7447796009658195  0.7510041802544170  0.7484057954169491
  0.1616668612602702  0.1656588878336470  0.5807698595229097
  0.4976999883634453  0.7504473113603154  0.3325691149258655
  0.9955135851805229  0.9188627850089497  0.6700404591979623
  0.9948448637913021  0.2488177821773432  0.1678064093706932
  0.9134510784619668  0.5835692449854283  0.0868008114396145
  0.0785450270119166  0.8343770951679211  0.6656095603125902
  0.2451703309598328  0.9161680391823367  0.7502926395915989
  0.3287817272291318  0.5004988804123587  0.5838670732472709
  0.9979093601326086  0.5842102422677699  0.6693217713020625
  0.8328543920148597  0.8335713092301766  0.2525597497161344
  0.4139296557557425  0.2470796378331886  0.2505730454168545
  0.4144640673093816  0.8287720899515412  0.6653098666653945
  0.4090405452490501  0.6680438673617428  0.0014694172375329
  0.0789626915865732  0.5795958862404881  0.9167621383271756
  0.0804926397164114  0.5017204908498762  0.6647362269822777
  0.3319299858347646  0.5020868053633992  0.0842246001540230
  0.5013930856620672  0.3331251802448215  0.2494600495175291
  0.3291355276796312  0.7494792049237664  0.8280569031366805
  0.8319303780187947  0.6680680074427926  0.9186707634853396
  0.4139270391821604  0.6681274023312297  0.5001061846713193
  0.9901270322235521  0.4174711011534501  0.8347332312626151
  0.8300533611757605  0.3324453493631073  0.5824674902873257
  0.2451227754405823  0.4155912900251488  0.0835459733248696
  0.5802652320922848  0.2494979383519432  0.9189391303934509
  0.8292404834065915  0.9999100157444071  0.7503946280447765
  0.8291267942888494  0.8330010061152298  0.4171761202176081
  0.9964165293892641  0.6673772111805349  0.0781986973840411
  0.6673953960837745  0.4147335349440632  0.8316120694954512
  0.5799740943053801  0.4975783093649608  0.6660977866679603
  0.4969282351349075  0.5006248946723907  0.5843290273414440
  0.1620386643189847  0.9987775876526018  0.4190157860802742
  0.5018608978620325  0.6661243632082237  0.4149863627701369
  0.9965406167266929  0.1644411448740653  0.2469649368557463
  0.8284338895052462  0.9997741463421757  0.0833695257669810
  0.1619337622717884  0.9163178715570753  0.1689238730750390
  0.2473292424202121  0.2467590403787926  0.2506726042440927
  0.4937516326474777  0.8347224493964209  0.4179801858395578
  0.9958755832491026  0.9175895061869287  0.3325377530386339
  0.8284382671858421  0.4199878719934969  0.6673021846703070
  0.6642213748949439  0.0860905074843898  0.6671353412960103
  0.4972193493447785  0.9134129745373104  0.8346631690203750
  0.4962017635007094  0.2485698682184921  0.3342352739320720
  0.0801874891426359  0.3339562004647894  0.1686853929456114
  0.4930596154005261  0.2503503730373522  0.0001805997645116
  0.6623069600062138  0.5828329247332262  0.1721900285938729
  0.3278385766246451  0.9960371769379854  0.9180164379506042
  0.0807022746071074  0.1622817981654185  0.0018973778437593
  0.4095871998365492  0.4143347357523366  0.9160971977320466
  0.4111911508079555  0.0006044058267934  0.8347748404925608
  0.4127188361477556  0.7472364386378916  0.2486177797131635
  0.2445728245213283  0.6682655299990925  0.3334939552937090
  0.9123598124834980  0.9991095450485340  0.3328504133868582
  0.3244196366224950  0.1652931711259667  0.2501072009419846
  0.0799995980078032  0.7522638344012530  0.0822171090980695
  0.4127730588953670  0.2495939179398140  0.7476002436878365
  0.9932556124750250  0.9988554098582791  0.2513527434318387
  0.1627132215316439  0.7508374906120050  0.9997358654961398
  0.4183745050830174  0.6662614403562096  0.3281504518484775
  0.6638556618573299  0.2506424809140660  0.9164819741553725
  0.7453292140003028  0.5000117205306268  0.2511417840804323
  0.6629991960232468  0.4163282191086449  0.0842558228830148
  0.7486789615874975  0.4154000216918655  0.8330692219223818
  0.6628079402807497  0.2496117929439936  0.5835118568041161
  0.6615943737691926  0.6682195162321989  0.4998058094709825
  0.7464657730569620  0.2493854669029077  0.8315261473847717
  0.7474323921383715  0.7520449966103759  0.6659195036132696
  0.7458344423358190  0.7515090147135290  0.5015512269389606
  0.6628365960942372  0.6670556949877479  0.6685335021510334
  0.7482602370720148  0.6679104062418286  0.5861576302322526
  0.6617956932792589  0.7510794876488156  0.7501244512938985
  0.7461866473381356  0.6660603566212793  0.7498532810407686
  0.7458601735004557  0.1666825914361452  0.9156644114153293
  0.6621870028658131  0.1675905700780417  0.8302590958072090
  0.7453496684630760  0.4164896806031273  0.0014370317840908
  0.9123820542082599  0.3345595221628713  0.2496326333379099
  0.6639333841423215  0.5836900634284792  0.4153792505925273
  0.7447968633561194  0.5013876920530314  0.5826844142698508
  0.9123864003193365  0.4161325058231939  0.1685843986974832
  0.6635370011821058  0.5016975235179255  0.6670160444413614
  0.6632141762873544  0.3315966179463591  0.6664263520102041
  0.6648031503673406  0.4158309172829104  0.5823565731515535
  0.6637130516368775  0.4993349537684312  0.4995964374486824
  0.7490210015000143  0.5831168241239264  0.4987950802533173
  0.7461099648437467  0.1659375196572664  0.5847157798034681
  0.7458483374635736  0.5848018297882625  0.1669048313601831
  0.6631205895730125  0.2502483245145774  0.7494142754555012
  0.7462676340640686  0.7507157964709790  0.8333409542809853
  0.8283278507130575  0.4170308443869123  0.2499470230240118
  0.6641026528557757  0.1689692512341711  0.6673714809539109
  0.6627646580815432  0.5817468936422564  0.2531263661544872
  0.8274655517772018  0.3340386373129385  0.1677731011645997
  0.7456745952792965  0.7492584741399367  0.3330906280886722
  0.6645978410421924  0.4147565041424258  0.7487296128273773
  0.3295327013155521  0.8339679121603634  0.5011836147921793
  0.9139955795999838  0.3296817252043787  0.5859301496246286
  0.7476606463549056  0.6671987256084357  0.2499438683381240
  0.6650474513102765  0.9157451769448234  0.2486450660493753
  0.6627141675986314  0.7515300023097174  0.2488621719284272
  0.8287761786422086  0.3312772679914205  0.4994752899186610
  0.6629998421618830  0.7528162517862371  0.5844536591612918
  0.8288139121421231  0.7485943361531707  0.2500824752927343
  0.6637706225511012  0.3333037033109787  0.1667962851970684
  0.9136592817730068  0.6659515770181565  0.2501089238105378
  0.6631231104603392  0.6668556596897305  0.3340891455660497
  0.9127035050753832  0.7494999387257394  0.1656799120021462
  0.6657091267282107  0.4141852326286938  0.9176467459826346
  0.8284273781730924  0.4170768042275354  0.4167421857765311
  0.6623848320279875  0.4168782842354919  0.4183046575744071
  0.8287544829916312  0.3339405509973143  0.3320885300426867
  0.7452254252600663  0.3333135846879629  0.0847593114415597
  0.8297347164622548  0.5030387942003042  0.6680812200617159
  0.3301937588048940  0.8355426424196831  0.3326322275764240
  0.3290982143469132  0.9168988996386531  0.2492155851251755