Cr  H Ni 
 1.0000000000000000
    21.1200000000000010    0.0000000000000000    0.0000000000000000
     0.0000000000000000   21.1200000000000010    0.0000000000000000
     0.0000000000000000    0.0000000000000000   21.1200000000000010
 Cr  H   Ni 
 259 173 605
Direct
  0.9099188581865018  0.7493848116297925  0.8340031011570216
  0.9068025160349296  0.0023216253385939  0.9153144377649479
  0.6578113424949878  0.4131824551005847  0.2501483715983717
  0.6585054919728545  0.7497633886304482  0.7503534967807171
  0.6615318920368093  0.7531475670001829  0.9170701362690538
  0.8275130419647572  0.6656905995943136  0.9981897804112445
  0.4118070900595944  0.1685857319383868  0.7481632327431794
  0.7432506067057849  0.8322044981606593  0.9172455080516504
  0.7459542104963875  0.2481165084220600  0.3315378825251121
  0.7453221397468069  0.9181207032197362  0.9996368697374511
  0.4125737394391401  0.8337179465443195  0.2488245399880192
  0.7434269651491444  0.3363846452614893  0.5867142430164418
  0.8267511708545460  0.2502418881235674  0.7531604303359254
  0.5729329429104449  0.3336991702412626  0.4173997259333419
  0.5819014924673889  0.2516244428432932  0.1652934674725095
  0.8263725398324203  0.9121127118838240  0.2476597242494367
  0.6598350476888136  0.8368422078987384  0.3335850370918416
  0.7445808105838105  0.9156875189003088  0.1659343206561259
  0.7449157733580984  0.9970390357033785  0.7547853607212029
  0.7432306742170556  0.6684461003126464  0.5888753277400625
  0.7427918071733893  0.9925959721080784  0.4168312461584195
  0.5775753264874260  0.2447248805240254  0.8316672377037028
  0.7442471360619134  0.3336639569588853  0.7499724654814720
  0.5768626189574919  0.2499419015489157  0.6657796139523238
  0.5832482050132535  0.4991468064954637  0.0810639983375770
  0.5790780084298290  0.9168444538666045  0.8336739264007164
  0.4118242252899965  0.5008986136025333  0.0844531956238488
  0.5783948844408241  0.0803668688535678  0.3326599204182019
  0.5718764141621970  0.4199417147242979  0.8336986980651909
  0.2473214539341961  0.3302596252392656  0.0859614391480697
  0.9095346284717304  0.2485506813717805  0.1659663970096445
  0.4977942879200988  0.9220280456684814  0.9148868589716420
  0.8301512668889237  0.0856287766974941  0.2494221313247754
  0.4160319845430711  0.9155247281280843  0.6681161068989643
  0.6577665732236905  0.0835628060480926  0.7511748682323035
  0.6600857873998331  0.9142772774022228  0.5847827702783862
  0.4917263802771233  0.1641713638347364  0.1677047602853452
  0.4939448810403362  0.0809648268271210  0.5836700939084243
  0.6616102266463029  0.9985732499991501  0.9996391289149884
  0.5786600933822975  0.9957799444533956  0.0835601079198839
  0.9961578379970719  0.0802877804915187  0.0823596127026701
  0.8273864709529184  0.9992745027077806  0.8329194768537531
  0.1639154676514536  0.4994227569002442  0.6662338784487835
  0.7442715742069657  0.2493997666085214  0.1656699612240962
  0.0810203345085389  0.1637022000289430  0.4193310937261214
  0.0774704091844245  0.1642473723064130  0.0853261664148554
  0.6577237285181388  0.1622910399806522  0.5016148855383160
  0.7419894873672923  0.9967024747335057  0.5816925159643963
  0.4969263950776198  0.2490233631502489  0.5848675074418610
  0.6583030742362871  0.0830880892925562  0.2525378281933636
  0.4116251344126220  0.8337273309811001  0.4176474204264153
  0.7437305280466171  0.3332435718623420  0.4130754915449384
  0.7450944497043126  0.1640925025366305  0.4118293316715037
  0.9952802098147810  0.5046107363219178  0.6651908974738605
  0.2471631307703836  0.9166294325062362  0.8312456007405283
  0.6601401606397133  0.4980396726526053  0.0001335402173881
  0.6614817528686480  0.9165674105927530  0.7509297597124410
  0.6595184732506353  0.9153386948991356  0.2510110202732487
  0.5769593645695116  0.8354895508467679  0.4175555687719789
  0.4942272773163717  0.5855734655371424  0.2496699787428845
  0.8326768859338677  0.4126834410201666  0.2507086090040995
  0.5804521757667709  0.0839143546268507  0.8312409397228324
  0.6593388970147684  0.3354640025936810  0.3305723520311537
  0.9089987541882949  0.0823133744422446  0.6693245003938143
  0.4958799944262994  0.5887696729312399  0.4176440318056252
  0.9073360619340465  0.6676614221504245  0.2520559657652202
  0.9958234196990189  0.3365320313428664  0.9969049049802855
  0.1632737414794229  0.8374891014775920  0.3332119427756786
  0.1616790431545460  0.9174329571101725  0.4138252261435846
  0.1635819321595612  0.9150656515993348  0.2500650069897764
  0.1620575760723081  0.1626761117468931  0.1689470207166953
  0.9945432891835487  0.5847961253429954  0.5835390171784740
  0.9951497235313689  0.1670770652313737  0.6669279941795123
  0.0781644698865993  0.8327011645773095  0.0840257086009557
  0.4087785269905220  0.2485665941728611  0.8286389239364609
  0.1629595700255364  0.9981315307101185  0.3325987169214821
  0.9934434790204189  0.9159647926827683  0.9165998861986825
  0.9957626520273750  0.4170362092915110  0.7514897164438370
  0.1601528348618750  0.3351155922417134  0.9968554482610904
  0.1639418963190264  0.0800842784107216  0.4164921202649697
  0.1638356455571356  0.7543388164035991  0.2485259489972434
  0.0767087417597465  0.2501391927983639  0.3347374829125970
  0.8302484489731794  0.3338103417787134  0.5043293957265778
  0.1607951969740326  0.1628332669593532  0.6628195214595249
  0.0796741436115877  0.2430670231809182  0.1672117037565636
  0.2463012642522780  0.1591560598726015  0.4207403628457365
  0.9928720610476878  0.9951634041189604  0.3335533547181387
  0.1597012785526956  0.7510412801084424  0.0852829936064446
  0.0777009941418471  0.1633468010032693  0.5829622204561788
  0.9969610575135045  0.0834114614572483  0.5815431794818047
  0.9905875974599633  0.0833632142652344  0.7529069088366783
  0.0788282781462374  0.9991680679550798  0.5802798989984508
  0.9989345710073081  0.1640867507986670  0.5037882617536743
  0.1614740460830251  0.3299037417226895  0.8316677102837138
  0.9917318200911488  0.0811197521245931  0.2479264886759315
  0.9095211861373552  0.7524509631283280  0.5019952877834780
  0.0812807220367261  0.1669661633463531  0.9145306670614920
  0.9946200274544114  0.6676621360530439  0.3348631894739486
  0.1627493362758623  0.0026191339065836  0.8335181851790081
  0.2469728960727554  0.5853879881043144  0.5014859712657826
  0.0758092447292300  0.4170528680927764  0.8276732422419495
  0.9887301085100353  0.5043236070726197  0.3365005516908972
  0.7473414570322446  0.4163405113335278  0.8318258896088075
  0.0778038556638679  0.8338891795476729  0.5821733747680456
  0.2492730850268918  0.3319557531525871  0.5829110856624018
  0.9994025966323369  0.5840678493795838  0.9189876155583453
  0.9119259817359739  0.2487496528053609  0.3320560700134221
  0.1610302230466304  0.7526939825492756  0.5805127959050774
  0.1575529104732888  0.3312383580522092  0.3370482131938332
  0.3266394085295587  0.0820544046665019  0.7494711729573679
  0.0795315633683053  0.5034068112721493  0.0833666859446274
  0.0821801343465234  0.2490995058055614  0.8325084524261610
  0.9124292328176785  0.4145371005728601  0.8320071518982607
  0.2451349717781624  0.1649064523191194  0.9176057873434663
  0.0780585394776353  0.3305446760948261  0.5881291279421411
  0.0820440289336531  0.5822390519274517  0.1655884898662153
  0.1628987001400793  0.0804984485334639  0.2496091658024411
  0.9933557621889202  0.8351822900447079  0.3342148264058627
  0.0786263154572157  0.3312736375376017  0.4117125040635797
  0.9099792557542021  0.7508386395750819  0.6655271375956452
  0.0809786532297906  0.8296625706064598  0.9200925486262609
  0.9114028423681276  0.4185882545743229  0.9984595231130475
  0.9962172461637785  0.6699370311875179  0.8343125292412685
  0.0762725858982707  0.8339099577790862  0.7467784937391808
  0.9910091617273210  0.4166764335506686  0.2525772681169113
  0.1616148601195963  0.0841619219015108  0.5832341402956090
  0.0824544289860458  0.4224818214622801  0.1677973167399116
  0.2452166833509525  0.1582741267838547  0.2458783723807542
  0.5788596206862987  0.9153579256921504  0.6674235220470062
  0.4959220819829604  0.4160416405019706  0.9137242283677202
  0.7421043372841123  0.2518706827900691  0.6697930870140524
  0.4164208835685922  0.7510375014091544  0.9985723799171204
  0.2491908506656836  0.6699049472404299  0.2513174652344652
  0.3292748268016465  0.6678230782481525  0.5022718457003880
  0.0795015508320606  0.8370364775709090  0.2505367746929290
  0.1622785253265484  0.7515706108381871  0.9166158369233350
  0.2467879989029500  0.5001609507286335  0.7486648711771068
  0.1577867201702499  0.5025812398293606  0.1663166459945620
  0.3290964092510646  0.5011334488850120  0.3363124195561550
  0.2486142563330671  0.4167379055179569  0.8301297107401089
  0.3293925070452778  0.3338541820206192  0.3349244687360566
  0.3246647747649938  0.3288883396088249  0.6625874578320290
  0.3275075755221578  0.4966093166359983  0.8296592123807676
  0.3285167233286336  0.2486706830358913  0.0868587704928279
  0.2420752152548372  0.6703535303351037  0.0838439418399616
  0.6602406643608059  0.3321244573867535  0.0012778167828757
  0.3297067974922825  0.6696349325202631  0.3347503352525787
  0.9146242979001998  0.2462711160918452  0.6661825736401640
  0.9103616072637142  0.4141052240990551  0.1672438067450676
  0.3280754082828254  0.6719222115345618  0.8343137850427806
  0.4911452713974838  0.5838874534317371  0.9157316421547939
  0.9040701999305299  0.1673909190669296  0.9159302600041344
  0.9118512813719324  0.5063407429755732  0.4173282564145389
  0.3282335735435292  0.5863971622304425  0.5822990343596046
  0.4948913352127954  0.4174879912577266  0.5804543070199324
  0.1616899542103407  0.3320986242182606  0.6662495770592874
  0.2474842646175633  0.8328813300185827  0.4148197593253741
  0.4127521769261447  0.4200118502552633  0.5057093788574850
  0.5775116969936426  0.1659778225157311  0.7511405947252612
  0.4135962578050462  0.7518112965203486  0.1683473812196170
  0.2474685813686933  0.7508699394018279  0.6636834133194445
  0.1659151062302562  0.7550645921836051  0.4193712554919076
  0.0783917864646337  0.6629356061953587  0.7498884842159779
  0.8267961858539495  0.1667487707021854  0.8348381208733614
  0.8266324794001298  0.5883613153140190  0.2538392073188092
  0.9123712338437607  0.4214004670784429  0.6657532942387706
  0.3290435236294859  0.5041956619475216  0.6662526255296315
  0.4955151401355946  0.5855445436561719  0.5839117201152816
  0.4138375559933516  0.4177607444318234  0.1670111166338349
  0.9942256107046645  0.7512186440924079  0.0806372423705475
  0.2424531009156624  0.5029873435225383  0.0797639038736853
  0.4984489382372353  0.3288360546055945  0.6660616256697620
  0.4985826692091746  0.4169284945370573  0.2491232865818414
  0.3248669637226075  0.4982956217134395  0.9964055281545247
  0.4082604435249291  0.2508820864459033  0.1625181920907323
  0.3288688745912783  0.3313704849191417  0.8291415239648171
  0.9956621033273259  0.5824823125307641  0.7446951040619151
  0.9091644871779552  0.5838644215765529  0.3358702286907816
  0.4125584858182722  0.9956059982066018  0.7487446343653827
  0.8262527716417455  0.8344541131836039  0.9997786727195165
  0.4151966431395487  0.6727649410373900  0.7492789731280232
  0.4134894960557950  0.2446685269474109  0.5059766362914642
  0.4147538506953455  0.2459994185571956  0.3342272718870007
  0.7464207822287492  0.5843470318178520  0.3329185937484279
  0.9105588091739705  0.7554639885559712  0.3352227456035363
  0.6618000877195710  0.1674587492435223  0.9986743099256253
  0.4118432435296374  0.3290720839821899  0.0859466765075760
  0.8312293916074106  0.5037726621424212  0.6667640226908914
  0.4125495852670740  0.5841440860626669  0.1683155600095771
  0.8269408817660086  0.2500471508070436  0.9161294571698759
  0.1605428209606161  0.8338269953262544  0.1679342717602998
  0.4146288386698861  0.0016186236462340  0.9158730851572630
  0.3299355546805304  0.9163209884834577  0.0836985342051410
  0.5792495005345221  0.8343510473992054  0.5851549226325867
  0.9140532919864655  0.3322243385639727  0.4169153836951963
  0.4102793814321814  0.4975037823191201  0.7483907745749645
  0.7438043067167258  0.7538523544682224  0.1664956672312365
  0.4964287740771167  0.9976160439477134  0.1643529402086274
  0.8306580959748384  0.6698050466879393  0.8325967120680848
  0.7429168697968421  0.6717963872954051  0.4159678865033380
  0.6590337226892911  0.5021383503523180  0.5017969674661260
  0.8265460219975606  0.5839741162576418  0.9190052450976077
  0.4957660201286944  0.7529556436823857  0.5841694725048150
  0.6585762892620363  0.9143528854905932  0.4173966732090735
  0.4937210293846107  0.9996234216251892  0.3302468227787093
  0.5803322675931423  0.2501737619976293  0.9993395349390696
  0.5782135787159550  0.6691457320097334  0.0821550863970618
  0.5791462615812445  0.8348429709816095  0.2515969839868993
  0.5763350214060606  0.5835483984645029  0.8294851512688988
  0.4958071543428988  0.9174184814127926  0.0840113510507806
  0.5760197400087026  0.5852577704453870  0.6649727245469585
  0.4941285479997600  0.7472714700134652  0.9167988480930567
  0.5779081973099700  0.5866555413753635  0.5024692964766465
  0.4952864313255754  0.7527441203676190  0.4172582756361082
  0.6650364814248929  0.8347289231770005  0.9973318749333728
  0.7423071054568184  0.5814348574551582  0.8304762785425103
  0.7392355926946235  0.4981338552293373  0.0798984895374406
  0.6589801309102803  0.1618074147020683  0.3299455229315299
  0.5780549434684586  0.8354258455053022  0.0850660603871139
  0.7435679644341663  0.1642735219175856  0.5866931032462714
  0.8270968458261510  0.1668113367220818  0.9986948904058509
  0.4151381223294001  0.5861259856964789  0.9945684027002276
  0.7460694749982548  0.1717930471312637  0.7507221835242646
  0.2458373261404430  0.4182195057524986  0.5003951243263782
  0.6581430696060427  0.6681232766925661  0.0030477931506668
  0.3323087007383595  0.5038651880146577  0.1673921648565460
  0.6603604375206077  0.4988933324377627  0.3355551298419960
  0.7432383117038693  0.0813909912750995  0.3325492183130216
  0.6566081084335994  0.5015866420658466  0.6668464560706315
  0.2448900843884626  0.4191016567059635  0.9963088161541519
  0.2423757101192689  0.9163535270231326  0.6664456659890238
  0.6657361781227830  0.5869117546984784  0.2519023212199486
  0.5784658785542044  0.0826750289526743  0.6691844941087659
  0.3317770433545282  0.0005953588775785  0.5032738968614279
  0.3326492884400147  0.0010497492364858  0.3322868761454070
  0.4948916058120710  0.9996963456163341  0.5060080373196086
  0.4120894122724547  0.0809562230512216  0.5024736784178280
  0.3307013347783445  0.0800383340918605  0.5835008928505341
  0.9100039850273232  0.9972863022850678  0.0832349275643270
  0.4130985828186619  0.0800016842746433  0.3330322539937844
  0.0786440363379880  0.0011602995208235  0.0815262066265065
  0.1646897780959511  0.5052547696063292  0.3368253498956025
  0.9063220530418744  0.9163904627360507  0.6677294478743255
  0.2443615763693387  0.3355618925227063  0.2502870885216498
  0.1622817335422909  0.5837329350488331  0.9121356851744876
  0.3297707808895337  0.0830089730552482  0.0830533287800726
  0.1595254028419855  0.0789506735440355  0.0820183377436021
  0.8302194150660075  0.2522061245456599  0.5813966031803565
  0.1585084301640529  0.0014870528103356  0.0009913438479481
  0.2471842650150066  0.9194031784196460  0.1657928664250140
  0.8262911831534698  0.8335252142800852  0.5024899833171212
  0.3330074210639187  0.8336550868709952  0.5011998319460846
  0.2435025573152246  0.6668393701117150  0.7494665707544901
  0.8263912882285340  0.9149377040720461  0.4172122491651463
  0.9930301069617281  0.9154053512032445  0.4162617266705499
  0.3251278808838793  0.8349443726614729  0.8329334939756240
  0.9102673350870306  0.8332694448039942  0.0823289566350549
  0.2454222626686522  0.9140325486805513  0.0061536487575962
  0.8278460006110776  0.8324113526187420  0.8333614595446116
  0.9920739282868551  0.2504839944608385  0.8323096877961652
  0.1610988926761294  0.5846576568801687  0.0020629555214848
  0.2455341604290021  0.1648291788055579  0.8269382431102962
  0.0794177578795641  0.9983906509088386  0.6699571556373107
  0.0821112995865910  0.0836997425443826  0.7523171298259438
  0.6599143024944413  0.4168702320648052  0.8319762258821318
  0.7442967793124400  0.4220548366044332  0.4174075228132644
  0.9114546004080124  0.5844410378871209  0.0811652777497299
  0.3289470693823586  0.4166113066407527  0.6642733701794247
  0.2440402534620169  0.4171638566025960  0.0830683011954047
  0.2486655856895025  0.8317589980137459  0.1673869562543479
  0.8276217468738934  0.9987669578463398  0.2493117886194644
  0.6583653845569094  0.2491475210431178  0.3308454460373754
  0.3251542191672213  0.0013906780755604  0.9168357865141281
  0.0769664072366102  0.8333537006471103  0.8338381671212125
  0.7448433790428234  0.7516212177075222  0.2558390172049447
  0.9964587903604951  0.4167203071386871  0.1663179277069618
  0.7437654911539826  0.5011834930960192  0.6672930879427741
  0.4950722762853309  0.2507725391496649  0.1670307718388461
  0.9983239765652170  0.4162221798725839  0.6648617007469002
  0.8275203698468984  0.0793230799613700  0.5000312670390468
  0.2502601177288654  0.9200843514365107  0.4167462900636566
  0.4946474966448761  0.4190744852998150  0.6691107793970253
  0.9902597092638812  0.9950134254926932  0.5822614916927918
  0.8248010600636285  0.4164671159157521  0.6664705897398314
  0.7450195535902168  0.0841777548578464  0.7508788923492969
  0.4953871206915203  0.1664824002379064  0.0786716835313407
  0.2470053114866078  0.1626833542381021  0.3333741282273354
  0.1595575287116263  0.9140474795103725  0.8326154106690961
  0.1634060257280608  0.3323445434003935  0.5797245416916672
  0.4125017882638399  0.5850012455442548  0.7489411890238369
  0.9967409356331990  0.9145957124291534  0.6674499222132356
  0.3290071228896341  0.2461931313540024  0.9968015417324468
  0.1603944455410943  0.6653719402718533  0.2511624137835766
  0.3295515072903013  0.9163763474210309  0.6664653516375525
  0.4970975291839378  0.4998218567059636  0.0824203091063312
  0.4146049975065303  0.3311337057750412  0.9955493600764175
  0.5766467514487186  0.8347640644244204  0.9970929859266541
  0.8311333589971864  0.1627985468252965  0.5841379163775249
  0.4102254156832233  0.4172470765476163  0.2535609180240129
  0.3251956106286530  0.7521769583832975  0.9988253560465565
  0.9943834603877589  0.6686935178352633  0.4244025341559656
  0.8258498116942982  0.5845716809130894  0.1616206184701967
  0.5806752903829933  0.1633610822295460  0.1667031089090898
  0.9960567169392375  0.0031308102383338  0.9165612904267592
  0.2450083763209955  0.9164929290653598  0.9184336550228823
  0.9129952027649135  0.5830517426312071  0.9167347144603907
  0.3280624069160775  0.5844434139194271  0.8326384591605223
  0.9069713466944055  0.0855620888554954  0.0829718981677258
  0.0756581508332941  0.9983719846221635  0.1704123836709714
  0.5786511307198277  0.5825903787365652  0.9186563157964422
  0.4130442628681918  0.2481259448657686  0.4198122419243495
  0.7441865930918866  0.0810422534761623  0.2463754924864925
  0.9064761828425100  0.9138590550641359  0.9167491191276371
  0.4115099528157677  0.3323758852387422  0.5000379672019958
  0.8263806430011534  0.5006775245492504  0.2499554494006996
  0.1594574842745023  0.7518733672383727  0.6679666515771230
  0.9923296027123314  0.0826865661926980  0.3365115478520706
  0.6588401295404045  0.3352730103602024  0.4176254140853167
  0.4114905995961470  0.2469025647356352  0.9190468272687763
  0.0773963847645805  0.1618417164282052  0.3312812123400217
  0.1644900426413662  0.1660343729018739  0.0821230843424876
  0.2460635036606569  0.2512708051366395  0.4215503295673949
  0.0812020076778421  0.9194831853905588  0.9190575506527945
  0.3256284544898551  0.5872060983490467  0.9962489512633729
  0.9092339693675436  0.1641449343609154  0.4987007461758051
  0.9912943277299048  0.8284764741921502  0.9173555374765099
  0.0782923693246601  0.4170005055042377  0.9173538417332128
  0.2449771542379751  0.7543393285726609  0.7523006394039937
  0.6606758549418339  0.5006445897556888  0.2487361385892940
  0.4083896468259265  0.5873156250185859  0.2556340127298537
  0.4153878088547997  0.8344836786049538  0.8314404120744915
  0.6598430937369684  0.6651755322143791  0.9141760221325068
  0.1598121997847922  0.3318542707431382  0.0853601982420698
  0.4133926878444549  0.0819977623296805  0.7498060259075319
  0.9925668209943104  0.7527473935683623  0.1697922518224690
  0.9109727634645201  0.4195998569919290  0.4180228702994775
  0.3284066550763639  0.2450581777117232  0.3351807074733329
  0.9953455873490632  0.4175309885091387  0.4995537239534339
  0.4120457106598341  0.3337034590878625  0.6662299687975595
  0.0774367738171743  0.4149932152765812  0.0803465621429776
  0.0773160739817363  0.3327363245868822  0.1685709419645015
  0.2451621263761365  0.2470402726468158  0.2495356401948665
  0.5802605400052742  0.5851584288940695  0.2494376201071338
  0.4952418063340615  0.0828439212728191  0.9978883789348398
  0.1663113042652804  0.9956976447460764  0.5837473004267993
  0.4944598000261000  0.8346767227709230  0.9153951811417557
  0.8290059420348694  0.3345758092660507  0.4163828202025712
  0.7439220761696393  0.1636481661597393  0.4997958605460734
  0.0764040587847267  0.5016095964617074  0.3356409771574265
  0.1629208448249798  0.2444781091749522  0.3345851883482033
  0.4143339597700248  0.5865644969376674  0.0816155633820986
  0.8224914807869511  0.4138552939360375  0.1626575496747060
  0.8305488584605917  0.4991113051127647  0.0793956442867437
  0.4140898764621496  0.4154926416006556  0.0805489692764989
  0.2441682629746712  0.2479034699835370  0.7473435981915471
  0.6637298256851771  0.0820692618988052  0.1622224811506854
  0.1619629719401953  0.4179116751310190  0.8309158715568924
  0.9106676533353506  0.5027809751715399  0.1660847173951238
  0.9949664414035455  0.0813599776946418  0.6672459649645845
  0.3260911992880137  0.4153378519342117  0.1702361077892861
  0.0792216760453088  0.5026991466190482  0.5002429677628559
  0.4174174811174162  0.3342341035222409  0.3346289630562382
  0.1633297437007556  0.7499513733375899  0.3341579369992011
  0.6599090714617799  0.7485336794529143  0.3346874281912134
  0.0765622472686769  0.7488285900610727  0.2503328313682612
  0.4949337969297474  0.4992536527893786  0.4174065915834225
  0.0758355267636592  0.7481051810366692  0.7500826794721029
  0.9890782418940161  0.1677050244906473  0.0841267630700707
  0.9092673468592513  0.6698678962429779  0.3373327788469813
  0.4958635262754020  0.9985008370831299  0.4178617404267608
  0.9122170603994689  0.2449285090445558  0.4203345164591831
  0.0753268848328361  0.7500941540961121  0.4182787341500164
  0.6571955029218886  0.2523963473180605  0.5017055866687891
  0.4119804748750702  0.2472475759785811  0.2486287739074586
  0.1627559836349743  0.5884241414396720  0.6660588228145015
  0.2438483550167663  0.8347114207759605  0.5026087834937327
  0.8276180911505703  0.2497651163104476  0.6674539607357476
  0.6590496749959418  0.5863237261918409  0.3377628947223819
  0.4944089316454034  0.1655466531958275  0.9159667609230230
  0.4096997661089175  0.9145793706729930  0.9171712659303549
  0.2448827239812275  0.5018068878291448  0.1672236409143013
  0.0798080767254822  0.3333049321541536  0.4998308841615725
  0.9918379468885453  0.3327223670792154  0.0868184460491214
  0.9117822761678956  0.5031689446236720  0.8324909384722478
  0.2461623120209810  0.3308787875004333  0.9985665900257431
  0.1617550585837973  0.2451582667327752  0.9993396927838928
  0.7402154089637005  0.5802367483430314  0.9187942615647929
  0.9931047585157926  0.1660265193241247  0.9151687218700358
  0.0760475654030062  0.9221791007473283  0.7508268375864267
  0.6566063907868394  0.1653343433514391  0.5884191917680097
  0.9963486450792707  0.5836364112725205  0.8319004734960109
  0.6620016168447500  0.3320116798970536  0.9124957000715342
  0.9101075509495542  0.6695343152272751  0.1605936495408868
  0.4130290563857992  0.4991164842526249  0.9964912047768312
  0.9937438580570981  0.2468599329789372  0.9997854058655181
  0.7446612871434521  0.4159437307608742  0.2482494799226334
  0.7442572809759157  0.2498890543004016  0.5842448955042693
  0.7439803879571891  0.2489062196701379  0.4176368238850030
  0.1621578571948664  0.4182268615644201  0.3359890827983494
  0.3290769684779976  0.3324526362076807  0.9177854000516726
  0.7428768627599858  0.0790017532257179  0.4187817753712458
  0.7430297073713297  0.6686485224413908  0.5025827167107788
  0.2470005524207101  0.0023802829550615  0.0002087708270740
  0.7434453978909958  0.5833622466757437  0.4214397483162700
  0.9955897947968783  0.6671342554718870  0.2470678977658237
  0.7429708812386666  0.3360754965525602  0.4998624410650837
  0.7428901877166019  0.6649043637975341  0.1674137911393236
  0.2439309931670328  0.3345295969401891  0.3371434507390109
  0.7447511972617669  0.7487689387701135  0.0787635536310607
  0.7413737056428822  0.6690665428651497  0.8313021476812595
  0.9107301518260043  0.9977065957358585  0.4998095284349056
  0.0806260079562719  0.4213561799735134  0.5820799913406779
  0.9072711422728135  0.3301240825780984  0.9989207121268006
  0.9131395247620342  0.3337563833197860  0.6669649481610803
  0.5777113742115034  0.3328770392148191  0.8318445280915487
  0.2450389541493406  0.5808319215258627  0.2526213827685040
  0.4120328807695980  0.4181263312033728  0.4159471129512812
  0.8290981610472201  0.5821784779447138  0.8317198452592385
  0.9927818631989604  0.1632255154583389  0.4147403839519870
  0.6602993469723715  0.5840619092619170  0.1621560498203563
  0.9919863260456634  0.6699721536074301  0.7458835624831519
  0.7451343037647620  0.9991242599162936  0.6683920494363607
  0.9923521083898664  0.5839515539088037  0.1645482836312199
  0.7481485185151531  0.7505067657054801  0.7479870581111209
  0.3292409229588668  0.6682702117986270  0.7477105163164388
  0.3277359076409502  0.5015839124945355  0.0819152227514028
  0.0790838978620113  0.4165729329754538  0.2545616091819827
  0.1624829199137303  0.6645825648786849  0.4180965387329634
  0.5795340042857751  0.0854980274618425  0.0814594862000795
  0.3332256608484689  0.6702844061963985  0.0836472618979430
  0.6586241736074769  0.1640565483705003  0.4155541053985025
  0.8280550622418954  0.5842975410332933  0.5030571498030281
  0.4961943023316819  0.5008887591195184  0.1679063272332433
  0.4960336887221453  0.7517009327813891  0.0838353150991762
  0.5774311208274312  0.6687934015886152  0.2504590778750173
  0.6590500077955924  0.4189876054948231  0.4173741926921681
  0.5758440533144801  0.5854229919790088  0.3357276779329287
  0.3291435501220406  0.5027199212872078  0.5016842284616048
  0.4119858089599270  0.5034258244497031  0.5833369208917702
  0.4948951745676613  0.7519818688507389  0.2500196810267695
  0.4958509071595135  0.6690266079832921  0.1671538250686800
  0.4118532897297046  0.5858973841271504  0.3369422028335738
  0.4946499407309604  0.5026069245961859  0.6656584432318239
  0.5759466678252568  0.5012356674971739  0.7491845761197362
  0.4957503231469357  0.5843512532383680  0.7490523412755528
  0.4115116948749302  0.4985599807139858  0.9124339889838546
  0.5767348591522140  0.4991670904945656  0.9153428508424782
  0.5767619981477461  0.5000109254569377  0.2507056495981894
  0.1641409494523061  0.5848327907457531  0.5815568024945478
  0.4956689703019797  0.5021558513623535  0.3328629640525569
  0.5784029052106389  0.5018557960762967  0.4183989021140760
  0.2482435334936393  0.5851455266020387  0.3368165725322066
  0.0780975173899018  0.7530984100029827  0.5019865269564781
  0.9917859645816510  0.7534549117293241  0.4177531937245823
  0.9950723006413446  0.6673499597792522  0.6626964946126829
  0.9934029735350135  0.7521495668256674  0.5835816901130049
  0.0763390475916307  0.7510714310498799  0.6639385052546647
  0.9918965203664123  0.7519202450059026  0.7482915065739294
  0.9946397604575301  0.7482290389831524  0.9174874133062361
  0.1616607483047449  0.6690233903974403  0.6649676556839889
  0.0778328875094013  0.9163080637359714  0.0027454681344409
  0.0789841457197685  0.5862098557765815  0.5020383107606636
  0.0786726269415250  0.7487644736276052  0.8341849924623109
  0.3295749501721610  0.2473194094165685  0.4202286462134658
  0.1631389875161985  0.5840937730791471  0.7498757983967586
  0.8281617076923902  0.1655830098815292  0.3313921326885945
  0.2468635552769129  0.5855185990202081  0.6656998695245815
  0.5785902518866971  0.4160408183635645  0.1664884757562746
  0.0789579057059524  0.6679288115938419  0.0829712844281595
  0.5773035496751071  0.7520371958015301  0.5008985764925488
  0.9935476782114454  0.1642386373575805  0.9990391879673828
  0.9936307608345450  0.9165691854583311  0.0824153526065984
  0.1621822365283839  0.2489168175914981  0.0847404164174580
  0.3273856109190129  0.3326093606919086  0.1688974921351125
  0.0772935587684676  0.1633623563641908  0.2485264391070402
  0.5777292240188676  0.5845335043744592  0.1648049760215820
  0.1628524227621452  0.4183142180864700  0.4187504448134934
  0.5766822249843152  0.6688137981537350  0.4182183857576486
  0.2453777595399678  0.2472998595745722  0.3341010391961992
  0.0783693882922782  0.5031574962847436  0.4174244012674367
  0.1630538363876662  0.5859984711064434  0.0837607302867263
  0.0777582763600892  0.0016883369964893  0.7534166027816093
  0.0794858326274487  0.4165309467206371  0.4986628346853416
  0.9919654323369237  0.0002229042738008  0.8328214485302743
  0.0800178400321652  0.0017044893349796  0.9162964647525045
  0.5762596651747371  0.1656464864559209  0.2498424437716317
  0.4128801032940342  0.3329151518884337  0.2494998107478162