Cr  H Ni 
 1.0000000000000000
    21.1200000000000010    0.0000000000000000    0.0000000000000000
     0.0000000000000000   21.1200000000000010    0.0000000000000000
     0.0000000000000000    0.0000000000000000   21.1200000000000010
 Cr  H   Ni 
 259 173 605
Direct
  0.8263184654378393  0.6700266358096100  0.8348555715392457
  0.4953909484805952  0.8319472955817623  0.8296355671653475
  0.8250634764925364  0.6666970221404970  0.9953936183664110
  0.4111478077569420  0.1667697781129349  0.7477940351632359
  0.7396152519352100  0.8356953919083621  0.9152175067099158
  0.6619527286289359  0.1637385925928173  0.3354565607568872
  0.4121602261668428  0.8359660229213918  0.2498544179724206
  0.8255283490629721  0.2484979033690761  0.7513834357898069
  0.5807272615703963  0.2442565194296418  0.1665364563658993
  0.7431963563472100  0.9968533493049577  0.4192163542680574
  0.9094689211225403  0.9162866485208002  0.8296409769480677
  0.4122733149764960  0.3318769547311597  0.9162210760333744
  0.7441617224076288  0.3316179972255582  0.2499389591224328
  0.7429512607547024  0.9204322953604529  0.0020059744415479
  0.6569019580339137  0.7495950963938803  0.7448964328667531
  0.7470352168494123  0.3322358085975197  0.5866794220213569
  0.5722402477345743  0.3332494151285977  0.4163360513654399
  0.7448070805917688  0.6670742166325495  0.5849054107842053
  0.9070067509727499  0.9994310999722824  0.2518964910013905
  0.5745123143229692  0.2484764347260577  0.8328546662491420
  0.8236119733798402  0.6702101000759183  0.1711218812194233
  0.5754343733895577  0.2497569475623130  0.6639452354403682
  0.8245568515078301  0.0843202038651245  0.7474290812919662
  0.5801701596425924  0.9168363834219478  0.8318756567478739
  0.6550213722662014  0.0841471697068081  0.7475542917814650
  0.5742493795819191  0.0787613859600246  0.3349240586474405
  0.4953715807168023  0.1616307272094581  0.1671934913442817
  0.3326798987147366  0.4173301792749002  0.0838175718048469
  0.6618316800579311  0.9994159263510113  0.9995475693980881
  0.7439008823707627  0.9171048107699250  0.1679323140967574
  0.9087261764165731  0.2476315252535984  0.1641252027020530
  0.9958875290701757  0.0829951517395957  0.0806768070045018
  0.1637045781550674  0.5003017954513962  0.6669703739786382
  0.9950544717619407  0.5013765145852442  0.6645722799757633
  0.6612456881966228  0.1632839421701742  0.5010350300526131
  0.6561359845641858  0.5021553818514380  0.0026163159177803
  0.4954456411777300  0.2503348722677454  0.5844010959168288
  0.6609689780412926  0.9172112676804782  0.2513195615587664
  0.4129587851032184  0.9163616974029032  0.3346397200163481
  0.4946941117465200  0.5871542487887437  0.2498953882467815
  0.8258584364813329  0.0806985537121554  0.4217889605923195
  0.5811793459831236  0.0845398194071788  0.8307255000303706
  0.2416500000234920  0.9191491721736667  0.8287611834718653
  0.4142699460187470  0.9155780804566472  0.6662046988597641
  0.6592578442423188  0.9165803252236671  0.7463549026602444
  0.6614530577282641  0.9160451836816053  0.5841747437100436
  0.5779675405406995  0.8338477069474758  0.4185036692576682
  0.4938862857706722  0.0828878394854735  0.5840926824334685
  0.8280106972914467  0.4148250282419167  0.2509026704604044
  0.4946717527638216  0.0808311520318419  0.0847993502658855
  0.4977788100756331  0.3305921312082264  0.3376464819233395
  0.7422210258730124  0.9966443427429930  0.9146947873571052
  0.4953682364811372  0.5887762796975797  0.4169902278322902
  0.7439782633147741  0.2490963564183822  0.1676669138211870
  0.8281404139941058  0.4167536116601916  0.7481378894052902
  0.0784917892159130  0.1661994746349388  0.0868477064639042
  0.5764714022640270  0.4979183342705344  0.0837302934314668
  0.7419883239669607  0.9165143117739021  0.6650505667443513
  0.4118801951635171  0.5008920025379003  0.0833910521111946
  0.5771747157576076  0.0840441708087299  0.1676107278562708
  0.5782953879175765  0.4121689180475646  0.8332438170137614
  0.7471822435623885  0.3318726134349391  0.4125675496935129
  0.4959649577445460  0.9208279403372345  0.9169728536704045
  0.0753864157186730  0.0821424117320471  0.3361215323867791
  0.8305013687362224  0.0812803506809695  0.2476670857658595
  0.1569090044915777  0.3311688099002670  0.3388768612959139
  0.2482869289815154  0.1695038020967332  0.7505183993512516
  0.1624587010114668  0.3379537643869910  0.9963215478549164
  0.2458785752890414  0.8351769838041730  0.2529259421038028
  0.0757187932560365  0.8332703908572573  0.0841530380106707
  0.1589233217581885  0.9969343829033740  0.3342223636705591
  0.9942805436797287  0.4176492486814274  0.7456371330334095
  0.1612635753820461  0.0820281751185282  0.4197766356344496
  0.9948917506982631  0.5830433288234765  0.5830256903007255
  0.1609881228946383  0.8368498672872383  0.3347491468392201
  0.9154669752030266  0.2533537483282825  0.6640518498566946
  0.1620744212243941  0.9156918697297309  0.4154096440163214
  0.4103563412976703  0.2497323801377154  0.8340135041042011
  0.1618946126592800  0.9164975708910463  0.2513416320629280
  0.9950905889946725  0.9151054978712975  0.9149163573588999
  0.1630892703689475  0.1645621757964669  0.1707377377363489
  0.1610730023781216  0.3307740143669012  0.8313193644071998
  0.9135433106920864  0.3299613334423809  0.5837624337902411
  0.0785190163488802  0.2497844930740560  0.3393202592325026
  0.0783517232365763  0.2437376662875031  0.1637029568432041
  0.2453906159471502  0.2498708771735349  0.5006070250887082
  0.9916521097501995  0.9164687275519128  0.4191738847762524
  0.0777817140003647  0.1694862128873363  0.5819168460187273
  0.9982415670906891  0.1669625827592524  0.5004470165040965
  0.0765182010468749  0.6692461518434782  0.0833956423651295
  0.9952251489058628  0.0826810796780666  0.7521949273211802
  0.0754887551298624  0.9961668228360075  0.5823824500374521
  0.9940262657502870  0.0821745310350496  0.4184396507977999
  0.1593479463774339  0.1663512918333132  0.6599339971111675
  0.9929477796113391  0.0862485629233875  0.2557550809990141
  0.9107510194693659  0.7501404413220508  0.4995381411571066
  0.0790183434677342  0.2475481211408466  0.8292357018077378
  0.9907000591905302  0.7516422661849540  0.4191962336736110
  0.9932149801632297  0.4145328794050528  0.2475647121097687
  0.0781233262702725  0.4992749987099813  0.0840620399076463
  0.2444204413244931  0.1649690550589599  0.2519553577014788
  0.9077004347714955  0.4169959375311352  0.8305498604372180
  0.9943867945795232  0.3334219646143540  0.0035677096729521
  0.0800809655342630  0.3334634133981131  0.5842281320931310
  0.9935752583295419  0.0800985782128474  0.9151456233804273
  0.1622699483712751  0.0839356380570565  0.2493170077471610
  0.9935641465341996  0.7497576157291427  0.2513712688088087
  0.9138422169869389  0.7503022898191358  0.6627647430185125
  0.0779294583523438  0.8311646244603353  0.9151060949144465
  0.9067754149223146  0.7511362843158007  0.8331673562050298
  0.0767066624061356  0.8333472984795032  0.7487547876509306
  0.1640424313495196  0.0865093570333833  0.5824727794080784
  0.0753177046782900  0.4210110539331288  0.1671457321620570
  0.9105710934519738  0.6657539693944123  0.2521378364500720
  0.1627828495274927  0.9993095574984215  0.8347231121907505
  0.2459549227799710  0.5820673615088890  0.5018223075589687
  0.1634469702211840  0.4175944140352256  0.7447118195294444
  0.2452662449080761  0.1628534902807786  0.9148199562803797
  0.9938411431605412  0.5042202209797709  0.3381887713603691
  0.6597023464496252  0.3352072369697812  0.8313295006272611
  0.9945478746713601  0.5879672447765444  0.2532213238122544
  0.0773750668919686  0.8325958022106362  0.5825159792510428
  0.2454535012014878  0.5006445898701473  0.7483260852893585
  0.0801733436918008  0.3304227617852759  0.4161002103520295
  0.9979017074334928  0.5845821403287508  0.9187063850395404
  0.9102828220602374  0.2500881823364433  0.3400723431138837
  0.9107520236195181  0.4179911860446356  0.9977265197312862
  0.1600730433557227  0.7547681591109987  0.5810388032473940
  0.5787882131401809  0.9156594122234992  0.6655487443879419
  0.8234316285707215  0.9203247926068646  0.9162823826346557
  0.7426256068590489  0.2494768362842716  0.6649951844260396
  0.3274887246674705  0.2529226358203563  0.0837853010837388
  0.9952399669904309  0.5838972338827023  0.4188629950803388
  0.6612972819282218  0.3279045449407182  0.0048221922487349
  0.4953169178903411  0.4177939848805260  0.5829170224885767
  0.9960204173412296  0.2506486554162316  0.5810321398798851
  0.2455154021993782  0.8356398628410230  0.4173835576137314
  0.3278041883101359  0.6663116128775823  0.8345800365830113
  0.5771793526650254  0.1670238231004467  0.7489144359333872
  0.9092820765270032  0.1663023094513240  0.9155948208597632
  0.3279492410404442  0.8298925703281824  0.6652373123224425
  0.3293085760190911  0.5832315081265924  0.5831402518385891
  0.2441822355417793  0.6680280803043083  0.2530563958166454
  0.1622239345402454  0.3337758442197578  0.6656618160358806
  0.9908713561359780  0.9132969583360425  0.2513535270212268
  0.4120504155267545  0.4202174162334949  0.4990707193078726
  0.1659608129591781  0.5823636948969112  0.7491858642178899
  0.4132118105205465  0.7512055849843093  0.1666743560592417
  0.3292878214695343  0.5025692765392458  0.3306747698853638
  0.9110770449288172  0.3323327041639262  0.4160986019898492
  0.3280579341048624  0.3346288259889269  0.3359648878211247
  0.4098735438436613  0.5000833498383193  0.7496721937325539
  0.3302525722571751  0.5008596380717371  0.8323935031499420
  0.8297774673625529  0.4971829416061538  0.6681454504130702
  0.2457206615700361  0.6703521561206552  0.0803348692209041
  0.8267770220906913  0.2481786236487159  0.9168721543883933
  0.3315601951278805  0.6693194729910295  0.3353901757506683
  0.4135855538224846  0.9986201980528118  0.9169001001483796
  0.9111794196586244  0.4172470038609643  0.1719543071062862
  0.5762870371588946  0.7495836805806593  0.6643344376940518
  0.4949446146335538  0.5844880103001443  0.9184954281456182
  0.3295440072347193  0.3325538601810100  0.6654032329959607
  0.1649033569649841  0.4164545021566828  0.9215418343108099
  0.8279020247847562  0.0779825363852820  0.9164805082122323
  0.4929749826353431  0.5832514602519993  0.5826997689051301
  0.4118982483382975  0.4159831192378803  0.1668869647404980
  0.9941970056679524  0.7513992805589663  0.0841257975376238
  0.2462078347990606  0.4995682928767953  0.0815564242715811
  0.5718474496079455  0.3341547211118833  0.5833630369709917
  0.3338742348105839  0.5844242678086532  0.0831149706177075
  0.3348143053477017  0.3327530934729099  0.8313505517753013
  0.8229260892025444  0.6689304685377222  0.3351771299085734
  0.8233891609480679  0.5002240068444381  0.3339802604510801
  0.9097488408984535  0.5844576383609799  0.1713467953885808
  0.6622212734758557  0.1657061803991797  0.9996529590696054
  0.8265915108367504  0.4147797018251790  0.5825020609240149
  0.4926805889383425  0.4181351641303758  0.2467402008884201
  0.4117478184608838  0.5020633030676914  0.5824362159755533
  0.4136346172653660  0.3357573774673783  0.2489923470451462
  0.9101556725193681  0.5848891490178577  0.8305317205633704
  0.4914700815659760  0.1624846654908493  0.3345110089516249
  0.4120436088138900  0.9989028813986108  0.7464827517831686
  0.8259004049686481  0.8346335741364919  0.3356924545821814
  0.8224758323584727  0.8395169337616604  0.0017171197864315
  0.4937750268550349  0.4169941362817298  0.0841957881002884
  0.4113622292643793  0.2464615366796170  0.5014943099201545
  0.4128027356149317  0.5885768248343813  0.1679511019047340
  0.4133968312177396  0.7471266879242761  0.9975141290485003
  0.0774367273927242  0.6653666142536901  0.2529817337285253
  0.3285956032018448  0.7518596410879232  0.5837628366691614
  0.3287953929697929  0.9181455848212864  0.0840053237986214
  0.1611780158049877  0.7560016628841190  0.9138325153816814
  0.4141229459587773  0.6682093267396447  0.7493282765465004
  0.1573358303853426  0.5032126496791361  0.1653539769910818
  0.0822717574876919  0.5854305931200762  0.8359113672737657
  0.1595046350087317  0.6692544968634818  0.3319708408697170
  0.5797396397793110  0.8341515675366876  0.2547526916726061
  0.5794334499249302  0.5837216516648168  0.8335811564318634
  0.6599672979302581  0.6679094661080782  0.0007073519057742
  0.5752410160697758  0.5829734570212236  0.6648788675109797
  0.7436362349650965  0.7511792720190088  0.1685635440986248
  0.5774594508317266  0.5852238607277118  0.4980496018945923
  0.6601203821007333  0.5864198395368397  0.2516563215000753
  0.6625341989568133  0.8364755491532836  0.9998245679423184
  0.6542033821732384  0.5021363906548620  0.6655765044381581
  0.7425779433046922  0.4993911269882314  0.0837918361997789
  0.7449349342813791  0.1626865714866877  0.4214397397612364
  0.8232476910793600  0.1652825771107227  0.4975191117907702
  0.9064719148879319  0.1691826161351950  0.0831505859160732
  0.7443853306384101  0.1699082455111239  0.7470638818536309
  0.2445676258791850  0.4171882697456918  0.5040307589939513
  0.2477426459226075  0.4157170903491614  0.1700803530541409
  0.6622849272986804  0.5020006165673243  0.3324418093475913
  0.4098178804064336  0.9148753487994131  0.1696672319231745
  0.7425207108618317  0.6701419146931058  0.9167365957037402
  0.7438956500954453  0.6682058896842367  0.4126777566528568
  0.6577649821625862  0.5021076932095248  0.4989898982519467
  0.4961504109711404  0.7532584004808391  0.4174515666249556
  0.8265269003845659  0.5858169532990015  0.9160104376109740
  0.4953413135312565  0.7507814555957880  0.5844278113102838
  0.7391858746157991  0.5843830269793507  0.8298960648852766
  0.6612208535095957  0.9164576976034997  0.4187830697260513
  0.4939688825336072  0.9979974007135547  0.3328832929376603
  0.5808240139464448  0.8349387609341697  0.0792170005560234
  0.4955972386276801  0.2471402909028854  0.9146730477556079
  0.5801117330841562  0.6715608367829171  0.0836443516884224
  0.4131852289036977  0.5863807393762466  0.9991118481420241
  0.7421663198446400  0.9936982646125153  0.2490476182190512
  0.4944411668361708  0.7484740177407879  0.9149487328310019
  0.2455761347247076  0.4166306057492052  0.9968894226075770
  0.1652334326925032  0.5016042289162209  0.3334526447322618
  0.4138531639360675  0.9219395597922799  0.9950850538162483
  0.2446632605533542  0.3328043927340026  0.2490623605327093
  0.1582974675169752  0.5816610740352031  0.9164567706961865
  0.9084132326012612  0.9966811397395086  0.0834580113245920
  0.1626008274368123  0.9996468444948369  0.1723045384068527
  0.9097043961305624  0.9141046687138799  0.6651924556647192
  0.2431177901098763  0.9119727740046445  0.6649155842808627
  0.4111025896657822  0.0826325741379577  0.5067546846061671
  0.5768001775483733  0.0846183906692737  0.6660785680292270
  0.3311815775595622  0.0813549244925884  0.5808715003252788
  0.3293370017416285  0.9990501329623369  0.5024891830516575
  0.4124608879060573  0.0811854779296632  0.3323792203573335
  0.3349165030359212  0.9995352212743970  0.3351475650332581
  0.5784116112550826  0.0816785962573516  0.5015434586213868
  0.3288388497396263  0.0783686915753373  0.0836567911677011
  0.8277406704422262  0.8350868596502988  0.8289217886584116
  0.7412451804129905  0.1650892635958593  0.5827479089890637
  0.1613703286551497  0.0827580276425458  0.0870530686353996
  0.2429615984199761  0.9160940741902392  0.1730925896926357
  0.8264199784303859  0.8338011643071724  0.5010495165596216
  0.3288626625286646  0.7531699234622374  0.4161716598387776
  0.9097435259294867  0.9978093033415583  0.4186175966436296
  0.0771738278455940  0.8367744708388075  0.4173399373888217
  0.2424201966607732  0.6660256357735627  0.7492671357914761
  0.3312504054471174  0.8310372707372897  0.8313904716373787
  0.9105681354237247  0.8333182582626513  0.0862401183799693
  0.2437324059593691  0.9168963430606691  0.0006632440732858
  0.1620878096462192  0.9959977649554106  0.9975741764406122
  0.9102349895664589  0.2488379243461032  0.2522644657318650
  0.1612834266019036  0.7512642459282035  0.0041043066030194
  0.0810364109089474  0.7531287937466611  0.2508672252164692
  0.2447493427092685  0.4176429837366058  0.4136698081807160
  0.4999180643443911  0.7516045892907488  0.0032866201615360
  0.6627941434624178  0.2479065929484250  0.8335638227306001
  0.1638280682388595  0.4171099033410421  0.8330073347170469
  0.4127243581237510  0.7483499439418088  0.2546156769813455
  0.0757710283023653  0.9213231094861339  0.7475432077350893
  0.4115870844198686  0.2443324305407795  0.2502517327162412
  0.3292994491605369  0.1653918664427698  0.0830148324837364
  0.0785912656776690  0.5014195608101127  0.3352643539140940
  0.8286655350117053  0.2496378463130716  0.6651896068054965
  0.6582348578878101  0.2523201267414200  0.4995852151981401
  0.5758123640032587  0.4982079810274216  0.8333985660678419
  0.9118996527172247  0.6691741361245883  0.3394358883135519
  0.4966011998731056  0.8344728659542227  0.9159552708952536
  0.8281661234218151  0.4962284009838604  0.9155571510633516
  0.0788385610272579  0.1656064767591429  0.9961432399576522
  0.5793689545185705  0.3350734550596753  0.1662740451130912
  0.2459243894665956  0.4152408990669817  0.0837789107771161
  0.1621813842488274  0.0833089515117901  0.3347450985962027
  0.3287861723498888  0.9167405865547528  0.6649630375149571
  0.1639306876141610  0.9960346590537325  0.5808451153136380
  0.5735505960192154  0.5020714320424378  0.3318815909904405
  0.0790035823889363  0.4212499071907886  0.4193494367429055
  0.6611103483883959  0.2533950685885535  0.3320497357886248
  0.8260982444276367  0.8348849982358212  0.9157073855583574
  0.4982802356673124  0.3354990495902576  0.9184262561218364
  0.3270702694472356  0.8299898397492211  0.0836524062236527
  0.9117930680834806  0.8332303105028086  0.9981501801776685
  0.5793172367007551  0.8335523274840257  0.1670686462353622
  0.0755756991923079  0.3328295461854746  0.1681021000460044
  0.3289820296224593  0.3313740257720470  0.2500762119157707
  0.8219375095215088  0.5815359436384400  0.1686179985729995
  0.9924113215848183  0.1685605706019574  0.0827566509029750
  0.4122792681934939  0.1658725144008200  0.9979741819910380
  0.9114801249648333  0.6709148187592988  0.1648969366622630
  0.6614572339357774  0.7514348470199838  0.8358673101832226
  0.8263311323373922  0.5035365061509314  0.5793283528978883
  0.4990996822924494  0.9173245524602632  0.1655959591471765
  0.0774860911526440  0.7444424603794850  0.7483811209876958
  0.1596663295702435  0.1674471501472777  0.7502646223076460
  0.9103025736840799  0.5012236232855349  0.4999411038995625
  0.0818384439682563  0.9195806877622582  0.9165602677315214
  0.0741887959437170  0.9969515627715985  0.1672462033551452
  0.1614840611105890  0.6682983189029956  0.9174403555450569
  0.6606950472264891  0.3340504455649554  0.7442518578513362
  0.6597976482199702  0.3354317986152380  0.4158564945846558
  0.2467404023114868  0.9162067847608512  0.9143387748991192
  0.1602974737100562  0.9964341020744995  0.0845289246979388
  0.9960644857205675  0.5836619213105109  0.8318838966139298
  0.0746706095298825  0.4170383438118810  0.9191268276167190
  0.3284289086141918  0.5016718018970520  0.4206009290051147
  0.1614121112677737  0.7485750864868848  0.6703215519837777
  0.9942874420823102  0.5012012822290184  0.2518036096504453
  0.3298409712526593  0.0829660307996356  0.1726855055168963
  0.4114743546330341  0.0825581429267855  0.4187440572918610
  0.3279822456111006  0.2444866208887406  0.3354706224357345
  0.4085666014007134  0.4148802068298839  0.5857782365095047
  0.4101867269498676  0.3334004225171163  0.5004317449935204
  0.9957038196069879  0.4174051921364345  0.5004971551477553
  0.5779388582438190  0.5847749729582901  0.0854209613422287
  0.9974187714920077  0.7508769475817337  0.8339601173281882
  0.1616906375628974  0.4170830268516374  0.1675969197812568
  0.9092267914496250  0.9177816914300324  0.9159687065360117
  0.8238470855876991  0.1629620157366192  0.9157978614596570
  0.2420994631637210  0.8305385129415409  0.8319616761660416
  0.5764639252931382  0.6722068384496007  0.8328938210313461
  0.2432235596882046  0.3325356564494359  0.3357432375345241
  0.9109561837715683  0.1655269418282763  0.5000422173907013
  0.4119686135133874  0.5023283267859683  0.1696743686245288
  0.9092629267127718  0.0829177184588798  0.0828824389737359
  0.6605400408760784  0.3323945063008795  0.9177374896091773
  0.7418089469458570  0.0832777089806154  0.2480625597427762
  0.4115565640023479  0.8345081753395022  0.9998944284291322
  0.2486890042880933  0.1684980781720286  0.6618448169534751
  0.2463004740118234  0.6722597191754677  0.5014756578421565
  0.2450872483498346  0.6690904819376474  0.1663998754552148
  0.9953640322925950  0.4168404754117804  0.8342329644396987
  0.2470235736381538  0.0804129554955182  0.7490725625173845
  0.0780812516433930  0.4982471484858036  0.8335278661816191
  0.4153814915226010  0.9165724546822338  0.0827169014881880
  0.4937777093943757  0.3349370814461490  0.7488878647745103
  0.2489666572799473  0.5850304960883558  0.9168104238864832
  0.2461749390893161  0.2522132986325943  0.9166354395744036
  0.1599295792945794  0.6629843075465690  0.5837175975727965
  0.9938549382534509  0.0000734176839617  0.2520841653249946
  0.4935418931314757  0.9185325477963605  0.8301964090942676
  0.4955783447767581  0.9972760474665281  0.4226147624876531
  0.7384351625677752  0.4206654496254256  0.5828104776000659
  0.2458913627146751  0.6683563819590916  0.3374384986329858
  0.7429265009767784  0.5001535318882137  0.1727906985117951
  0.2450291715681961  0.5027593245910187  0.1684022702665594
  0.9921066585460335  0.3332929034853222  0.9125430612340086
  0.6620292099407600  0.0771711168028132  0.3342327017266420
  0.7405585763316020  0.0849034792523802  0.9159659459529610
  0.1629972501909336  0.2468542159729613  0.0002185573633905
  0.1575879504749521  0.3335708584326914  0.2510955356630655
  0.9944005378453750  0.0815889454821078  0.6621804865906007
  0.4992198802380119  0.3304930196934495  0.2495252292453753
  0.1614741373503855  0.9991062540920971  0.7449374191580581
  0.9120211433876764  0.5832601324620309  0.9169210629094375
  0.7486567395275201  0.1669335601668279  0.3317602791443965
  0.9049951357077242  0.7535760312503980  0.2524657372223696
  0.3299194204846967  0.9200574193012561  0.8321690524056549
  0.4934681028647418  0.4990846388094787  0.4165140163669754
  0.0740042111163255  0.3348871110539965  0.8304927852468403
  0.9970440795596118  0.1685220030659902  0.9138532870662189
  0.1652373356936217  0.1686536973188454  0.0827236003882230
  0.4925187334937781  0.2502472793190801  0.1642917330076123
  0.9935261306043621  0.4145405430546413  0.3365290094709671
  0.0791528925100722  0.7484222910474446  0.4182372466067321
  0.9099202205234748  0.0823347931398905  0.7485366267613048
  0.8268073330426370  0.5790758458836465  0.0034956709697507
  0.2427948582897577  0.9143097613603568  0.0864405654234387
  0.8231140081587742  0.7513387632331276  0.6635205624112372
  0.4963426791266509  0.1685721024598819  0.0792413034767559
  0.8297978947015421  0.1622550525776247  0.5839377130256784
  0.4125415636336263  0.3326129356840528  0.3355922892678577
  0.0774167421623099  0.0831920001635600  0.5812309506892429
  0.0832615998959738  0.0837812842138353  0.7489921013113559
  0.6594270333387275  0.3358806622071004  0.5824237165647727
  0.9119538170692711  0.5835996239113171  0.0815948851179918
  0.9927452686293692  0.0821745611309487  0.1673532736411369
  0.0766880664848038  0.5831527641385096  0.7454851624246281
  0.7425896133271005  0.5011871325272251  0.6669883860773924
  0.7404619107182364  0.5830574299320860  0.9171727008128837
  0.2478062800628170  0.3336934461888103  0.8313131083906776
  0.2463775267969460  0.0026450322752894  0.6639850281160258
  0.3236220246566351  0.7507722383588887  0.9985250950777697
  0.8279332904535769  0.0808897369350038  0.3348446572624429
  0.9089390442330533  0.4160639682089251  0.0845363474388136
  0.8256694376781625  0.6680479006379260  0.0840072732583306
  0.7448735207115380  0.4977427264170130  0.9964852110697642
  0.8267005860024693  0.3371479694138629  0.9164419933747318
  0.3260561525778535  0.3333352179232889  0.9191657373371948
  0.1618452658601909  0.3327113070432133  0.0858516948540405
  0.6600918702137951  0.4154455649616637  0.0000307020716710
  0.5769699048699702  0.1656329984108048  0.3342641248660473
  0.8269768513640918  0.5869720981773837  0.6636480142074531
  0.9942416101809646  0.6671966052569585  0.7475141006362195
  0.3287755041034008  0.0833205931112465  0.9929897313456416
  0.7402870645172541  0.0821986706101797  0.7484218694477595
  0.6552661200816110  0.6676131202668146  0.5813024213995850
  0.9092783099251058  0.4993071809128716  0.3355470354884815
  0.6607404092698437  0.4165587083626526  0.1687824524407418
  0.9064107162210367  0.3295380377697977  0.0019780533426288
  0.8278852248457262  0.7532352248755003  0.0012107543005239
  0.7432211511591956  0.3343304931703133  0.4997427092901863
  0.2461749187719046  0.0008713836434317  0.3364612449454586
  0.7467171742341449  0.7508787209991704  0.7479387944202847
  0.9123326697585902  0.1642825420903574  0.6664254068526748
  0.0765749833480073  0.2491720916629814  0.2515104422979696
  0.4126222765823333  0.4983334591514372  0.9953571712453294
  0.9091416849707256  0.0022998068236593  0.6634134017377376
  0.1623637511341927  0.0840545781243974  0.9968037645673823
  0.0777028245376566  0.2494095907522709  0.9195590774701704
  0.9973532170589410  0.5855932218848221  0.1643121964349464
  0.4917232754959199  0.5839273083250625  0.8296915301657164
  0.4946234318648681  0.4190880991388941  0.3354276397505970
  0.9961105914077109  0.9950687657575346  0.0819312847723873
  0.2454351397828099  0.5848949900980874  0.0839616949710990
  0.8246312205917932  0.5827479657500912  0.8310361768496628
  0.7432162044188771  0.6676282834910405  0.4988752696990504
  0.5824949088452760  0.0820500893543478  0.0789755595139004
  0.1613211166927226  0.6656226204774633  0.4212845642724130
  0.4909713557505421  0.0831053845178701  0.8331789593935016
  0.8266580835475039  0.6672160316108923  0.7450285655383502
  0.9150769039808702  0.4193789063384799  0.5831220098024266
  0.7427250877227930  0.4224102707668101  0.4157818907755712
  0.3282923728846427  0.6671091235890522  0.7476189806953678
  0.7430661778921156  0.4151596463250647  0.9146367622117464
  0.4961872649675542  0.7510778265678931  0.0849600156716332
  0.5778502777818227  0.6681951645978762  0.2508698505096582
  0.6588690331559044  0.4188707325651965  0.4157782075443159
  0.5774121068122242  0.5870780427947602  0.3337483458252781
  0.3281077456050001  0.5011350764035639  0.5021675612225116
  0.3289753185211583  0.5011496394192071  0.6667058447339417
  0.4938164988468408  0.5009604365601709  0.6661685910170861
  0.4124173647185404  0.5003802339714253  0.9141116885619788
  0.5772470265680020  0.5001816021673200  0.9176944455873314
  0.4968692796630897  0.7522396691925171  0.2507388549759754
  0.4936759203364377  0.5831598199274359  0.7477225761212511
  0.4958449008999620  0.6693010312589720  0.1669102738228999
  0.4960206449585171  0.5025790403756061  0.1676301280658632
  0.4115933822416067  0.5867846012316139  0.3334536938720206
  0.5767618246119651  0.5004225963913705  0.7485158269937019
  0.9955608401594641  0.6673558325063972  0.3363132076462741
  0.5765039931117615  0.3323791896703911  0.7481168123798151
  0.4924548678604890  0.5046603384257318  0.3315731078044376
  0.0768425559892756  0.7517747310685540  0.5011355644922567
  0.5757276857153450  0.4179370145969626  0.4993488018256197
  0.9937315369489849  0.7510696281897012  0.5821498860920150
  0.9942379187326074  0.6667254943801841  0.6625545666647031
  0.9918550493329462  0.7514892027692395  0.7473691730626196
  0.0769606689924219  0.7505226542552418  0.6638734030974983
  0.1625898410442256  0.6648831926138884  0.6660068150987960
  0.9943901939242713  0.7517615013240353  0.9170934359156191
  0.0796698119022945  0.7505597790928425  0.8333209673693377
  0.0771899362897201  0.9158299645452133  0.0009667670081552
  0.8297118689401864  0.1661985010124443  0.3350506862247423
  0.4947203582914839  0.4178402109804792  0.9154236836117795
  0.3281291492809543  0.2487095942886339  0.4198909002216105
  0.5773092729147963  0.5030761920524764  0.2497880891709762
  0.4940315432792723  0.6685123474958925  0.5001840159378659
  0.5781901339064855  0.5021102021482067  0.4171932813459038
  0.5742276107183497  0.6665352766242886  0.5825329066969683
  0.7434656389317196  0.5005964826202939  0.2533201124770192
  0.4932394657561270  0.5851933466789411  0.0838043605260256
  0.5774707254795548  0.5845851663287581  0.0000317467803468
  0.5758450402271910  0.4154418469624458  0.0010421748547427
  0.6609110527549132  0.5849145597502040  0.0846130836593845
  0.4948917986855202  0.3337361732440209  0.1642769658148101
  0.4935429025609481  0.1666949622033043  0.6661146961380364
  0.4096836761241110  0.2490949960690887  0.1655860909496001
  0.4940702858140046  0.1666762609737726  0.8312693235479363
  0.5773819634198348  0.1637118194184244  0.2497870238095271
  0.5781517740336461  0.3317624804664109  0.9176863966784731
  0.5759855550619590  0.4185957935424773  0.1675601635638111
  0.5784551448748272  0.1657615120399461  0.9153637612288872
  0.5792067432245274  0.3318399933176107  0.2513908378441254
  0.4945048144469193  0.3323176720776271  0.0019532117253579
  0.4927790072050814  0.4996470218232992  0.8324563764729130
  0.4117410854047577  0.3327918793087187  0.0833938665992330
  0.5783496691161202  0.3311034209744800  0.0823731757905657
  0.9092033773961655  0.4152400050080514  0.3338757295425796
  0.2451545901823382  0.5017596306425607  0.2519630510824274