Cr  H Ni 
 1.0000000000000000
    21.1200000000000010    0.0000000000000000    0.0000000000000000
     0.0000000000000000   21.1200000000000010    0.0000000000000000
     0.0000000000000000    0.0000000000000000   21.1200000000000010
 Cr  H   Ni 
 259 173 605
Direct
  0.9092858637184326  0.7495864702274856  0.8339051941028918
  0.9944086816066576  0.7512694567216893  0.0805181245669313
  0.2427645378988002  0.5034080376926175  0.0798958509840119
  0.4962594118025135  0.3287841157495358  0.6662113887538965
  0.3252657665665778  0.4986571103767989  0.9969821218799231
  0.3320902759189018  0.3312039632371729  0.8292965092795331
  0.9092146546075264  0.5834627009999456  0.3355161972101572
  0.8267155563525331  0.5857101683397971  0.2544766612178541
  0.8261775356429367  0.4134122137682986  0.5793978943764692
  0.4951561369743268  0.4170876701777323  0.2487846845628872
  0.3296270675073779  0.5038286898634353  0.6662431508723964
  0.4076455664327531  0.2506685513694983  0.1623548174537731
  0.4956506840718288  0.5853018043784121  0.5837789763651919
  0.9949767103349119  0.5813947778953651  0.7446521449835296
  0.4139310277521345  0.4182900109018878  0.1696980487279872
  0.4144526029209130  0.9946804849195092  0.7476099744534538
  0.8265576916317547  0.8342626021903694  0.9994602862977647
  0.9106302909723625  0.7550939537732094  0.3350589597155614
  0.4141979567248000  0.2445228334583529  0.5050139013876157
  0.4114223811471642  0.3292994277878607  0.0861787415419573
  0.7434919080264392  0.5836151746768851  0.3311655302774973
  0.4122475545982793  0.5835848790932708  0.1647288148114098
  0.3290895153211116  0.6716832880376821  0.8346620951656875
  0.1621522647771066  0.8342060939714868  0.1674930873646847
  0.9040813945976791  0.1673979716900366  0.9161982785847915
  0.3292970623491455  0.9165452744300072  0.0835450872010974
  0.3287107824567799  0.5859394846098660  0.5826644271707057
  0.4163356260701959  0.6725149427368160  0.7494370461181239
  0.1611757306818240  0.3324706059264582  0.6644829470124920
  0.4145421871899037  0.2460783096230010  0.3335036308596604
  0.8266269651128556  0.1669419089424088  0.8350983559499298
  0.4138563579725731  0.4206221466385401  0.5046319698875272
  0.4159892891686491  0.7518761693959046  0.1655379395305706
  0.2481875853109071  0.6701588713230928  0.2513473042730026
  0.4111982383017963  0.4972832100895311  0.7486458502708703
  0.0800507882920653  0.8345121321320491  0.2504495044269084
  0.8302092368775545  0.5040080405049110  0.6693824277023764
  0.2470951861128302  0.4999698469734817  0.7489897386079034
  0.8267316115341621  0.2500304491020747  0.9164324217546694
  0.3294872133222829  0.5007413733588298  0.3350928412050315
  0.4142654570653705  0.0011707077464700  0.9161984063766613
  0.3296566825074457  0.3342497300323972  0.3338276503596479
  0.5792684286305522  0.8345022839483414  0.5853944623319103
  0.3283177455523549  0.4967249517567200  0.8304831884045151
  0.0746386289104105  0.6623574795425592  0.7503588777880792
  0.2413173360247483  0.6706771427412642  0.0835778608534792
  0.1659969781325105  0.7549874019779671  0.4195178989989890
  0.3291327694436010  0.6687883638330181  0.3349271187656000
  0.4164725176941801  0.7510440785928172  0.9983991609916835
  0.9096652432318070  0.4147709997378042  0.1672007325434818
  0.3293117506022776  0.6677272949047618  0.5021825634562835
  0.4911979033988285  0.5835295393545954  0.9163431408910448
  0.1617875054005382  0.7513803335289180  0.9162523195092505
  0.9143964567928360  0.5029857912934663  0.4160179153508197
  0.1576908977138155  0.5027519380073088  0.1653930639259373
  0.4948173337078163  0.4173953534458577  0.5805198267616685
  0.2490445113038702  0.4192428915889165  0.8304087059567155
  0.2475160214346795  0.8326830084190313  0.4152223858228541
  0.3296883207674735  0.3287948254619633  0.6670279900971977
  0.5779994454642445  0.1666748340484349  0.7509234894094231
  0.3274261147605143  0.2489776986513380  0.0867896288396976
  0.2481404913522483  0.7508907780319365  0.6639827353306170
  0.6600857498249506  0.3321628504061896  0.0017011973823897
  0.9140764526989615  0.3354668747643616  0.4162559185685464
  0.9146621484075759  0.2470409220135809  0.6660811956343666
  0.6558646000134032  0.5010696514684746  0.6671590411220946
  0.7394357882287124  0.4978854536945019  0.0837808298778746
  0.3315234045857794  0.0007358152491131  0.5030200712153626
  0.3319997448501548  0.0012044346274834  0.3327366875003309
  0.4948950546682955  0.9996739902421863  0.5060241626831512
  0.4124901023141526  0.0808702007677489  0.5022039284126543
  0.3309415587506321  0.0799407030288772  0.5821906920208831
  0.4128657934599508  0.0797938316040814  0.3330214897216487
  0.0790759100789812  0.0010176977854045  0.0812091829076512
  0.1612974339510567  0.5051315692244278  0.3361297896612552
  0.9062624307340620  0.9199351127847500  0.6678887554803140
  0.2444820353557139  0.3356550612952142  0.2499890080961390
  0.2455291346845480  0.9156698507123409  0.6662997767047133
  0.1622404827411188  0.5838607617116303  0.9121317062172956
  0.5786180675708877  0.0828755413896527  0.6688022013583530
  0.9100215171783568  0.9971986412634836  0.0830906895597711
  0.1600401182893883  0.0784562977980481  0.0819900946885187
  0.3282033962296225  0.0820292305736818  0.0835995308739108
  0.1609137917062961  0.0009956718565833  0.0005283807612154
  0.2448349673603975  0.9162541629876702  0.0058311975434304
  0.9107310112930149  0.8335420949738287  0.0818882881117289
  0.3312607055070593  0.8342005141157033  0.8329629751051046
  0.2473133566648860  0.6668221647148471  0.7497351647376610
  0.8259409701364661  0.9147963674043257  0.4175075120174269
  0.9928296797723429  0.9143598088504022  0.4170747259939360
  0.3331140699473579  0.8335370820763547  0.5014252342643389
  0.8256606616783079  0.8334820496722527  0.5022216747361432
  0.2465441071654805  0.9171566715076179  0.1661508286039103
  0.8275454232140689  0.8327661827434136  0.8333376326286619
  0.8299475474560833  0.2531296489544481  0.5816819466341808
  0.2471191262239331  0.4166238704461546  0.9967761904384900
  0.7435720011858679  0.1648534303857001  0.5864719115012504
  0.7431247372948138  0.0816196304635285  0.3348621895247177
  0.8255938313623858  0.5851171167453999  0.9191567953108015
  0.6588849126756706  0.1614486893312895  0.3300997701119651
  0.6598980161250650  0.9159935449560339  0.4186931998158716
  0.8269143381735701  0.1668584710344186  0.9988370156796447
  0.5804759441384042  0.2504487214002894  0.9997609197212484
  0.2459600855537081  0.4180744125265456  0.5008699301212465
  0.5790413977347104  0.8342658718831379  0.2504635758210058
  0.6599208803097846  0.5018665848207329  0.3347149348781508
  0.4956538205916766  0.9177004596759223  0.0837012905368664
  0.7426569283182329  0.6694779813939336  0.9185401068043298
  0.4940501422498769  0.7474775359209216  0.9168376084480875
  0.6580900860747230  0.5022325942469470  0.5011637441671013
  0.4949895405654420  0.7530077037545142  0.4180198120803587
  0.4957830300930955  0.7528600331625253  0.5842742895669309
  0.7411021262861118  0.5813228224244898  0.8304349935193971
  0.4948489362500964  0.9987016047212796  0.3303675490752836
  0.5779586888580904  0.8358485631290448  0.0841777333177619
  0.5783465528493117  0.6687187906478860  0.0820156926765352
  0.4154565036339827  0.5858171177037631  0.9981229747180030
  0.7458029879940000  0.1723261917135642  0.7505854751858387
  0.5765312783516416  0.5840229810122166  0.8303432824239489
  0.6598979278193167  0.6681188664841691  0.9992774485417582
  0.3318720907638173  0.5042415762572162  0.1673574432701292
  0.5760549277136410  0.5848867564729082  0.6652356292593338
  0.7404151454128214  0.7534311195357170  0.1676104487448625
  0.4961088739550386  0.9975426904048111  0.1644975564667715
  0.5781051597701363  0.5865201918452112  0.5019538689113568
  0.6656716703645428  0.5863159688560996  0.2548199131833083
  0.7424506249676324  0.6716911699963236  0.4154482268924185
  0.6648358024485710  0.8348551871759905  0.9974308133721531
  0.7422386306914889  0.2523389909227761  0.6695952645648007
  0.6616419119828814  0.1676907778141453  0.9988988828819886
  0.5791170355230744  0.9152079217420139  0.6671908862187651
  0.4957125477385592  0.5887679759713934  0.4172022317464519
  0.6602116927328140  0.9144675606897873  0.5848931758676088
  0.7439927633031680  0.3334939748650442  0.7503316224751573
  0.4939878492383685  0.0810395409881112  0.5835811920029107
  0.5832759332378646  0.4990022368238411  0.0814764508305164
  0.5786790983854821  0.9958235529584972  0.0834760244151160
  0.4119725112008640  0.5024934587774010  0.0851164213238338
  0.8270746825981419  0.9996430144871893  0.8330324774794458
  0.5717469702276432  0.4168412819703487  0.8339081674078553
  0.7441423115174989  0.2493511852674899  0.1659888019429085
  0.4977266605286125  0.9214191766411571  0.9147043676662665
  0.0779472929222269  0.1641403366453509  0.0850160451984653
  0.8303242078153175  0.0853970426483534  0.2494325905271532
  0.7420162958592763  0.9973187628615861  0.5815047348903533
  0.9090919053296842  0.0826792023559517  0.6693703839459839
  0.6581296193017160  0.0830815231114590  0.2525617496972383
  0.6576872807036008  0.0839594526156944  0.7508168932939868
  0.7428682874452802  0.3327305019744716  0.4117389708070165
  0.4913725682965325  0.1637209017271855  0.1679144892595899
  0.9946353384792916  0.5049360885022706  0.6646412189580153
  0.6616290584426766  0.9986857930814281  0.9995106269956598
  0.6568239712197258  0.4978915114203268  0.0003037929953172
  0.9964920168589709  0.0801328573198094  0.0820886885111749
  0.6602009044697411  0.9153198367250794  0.2502047970098891
  0.1641799762395672  0.4991351068131056  0.6670460646892122
  0.4938890765990710  0.5849562986260213  0.2494892653349368
  0.0813918275339917  0.0767166823492411  0.3350827510809707
  0.5831673728706591  0.0841314117014503  0.8310128503311250
  0.6577602569734754  0.1621173453367653  0.5012972863861592
  0.4133741543327982  0.9154560192284436  0.6679181527443857
  0.6586469126213762  0.3351915661081157  0.3301166423071110
  0.8326513707625349  0.4156995405862627  0.2510781625980519
  0.9089841581944853  0.2481863717931501  0.1654679770796983
  0.8261741115644078  0.6653181395894185  0.9981417432860645
  0.4122195826413850  0.1686366628302026  0.7481995787376285
  0.7423186499173321  0.8321033832185192  0.9175896805922794
  0.7459055953613649  0.2475316402033032  0.3314084068365212
  0.4125301855058774  0.8367791048360887  0.2490550255274217
  0.8266531797448596  0.2496925505378571  0.7538441499947739
  0.5815676950367139  0.2515480133842102  0.1655748573630867
  0.9066777751017718  0.0025165039136102  0.9152640871823956
  0.4961436520069751  0.4155919254771951  0.9140833459895333
  0.6573994949596317  0.4129443855793458  0.2500627892055051
  0.7453496900867529  0.9179722340566602  0.9995782928999791
  0.6583655467506856  0.7496524808135873  0.7505281644223265
  0.7431935239561820  0.3375803401566110  0.5859594108760623
  0.6616208066989963  0.7488826119131567  0.9171960652454884
  0.5726082738673863  0.3336839505130488  0.4164892128853683
  0.8265333423012695  0.9123543227238958  0.2482088721285866
  0.7426881487410502  0.6679650958984672  0.5886488083595875
  0.6574057588808514  0.7520469244302479  0.2475474049337177
  0.5776929171743629  0.2486480926196310  0.8317890983406196
  0.7447017544709482  0.9974272517620218  0.7547943194186276
  0.5766891515129370  0.2506101160966562  0.6656067333969389
  0.7422418090940587  0.9965887108239072  0.4165637699876513
  0.5788872403248065  0.9162491677470291  0.8336308154170753
  0.7450227507413573  0.1615722851092754  0.4116069132096414
  0.5780887727198301  0.0802616201178070  0.3325731470776660
  0.2462318484489631  0.9191329074903100  0.8314090923054811
  0.2474991426274384  0.3304433717938793  0.0837639782962009
  0.6613953391537293  0.9162817344178472  0.7509967159873772
  0.7443839355168070  0.9160328559375397  0.1661903769582930
  0.5766090785221571  0.8348832475436964  0.4185604371311424
  0.4967409341409811  0.2491873565978888  0.5845460274643681
  0.4116106616216085  0.8338466339526409  0.4179329009361562
  0.1625897001143438  0.0799047841563425  0.2512192672075276
  0.9934949896534572  0.8342885494210907  0.3344894343138823
  0.0778601205863617  0.8332903618848795  0.5828985822514001
  0.0806914000434168  0.8298495379795056  0.9170504947121698
  0.9987729450402697  0.5839034596621615  0.9193568516542768
  0.0759753225162682  0.8337719637084107  0.7503427517377035
  0.1611121498383279  0.7524457205859860  0.5811088415648655
  0.0826443138578706  0.4228646905512707  0.1646333181853238
  0.3264360246421477  0.0853321654012893  0.7498504761701914
  0.1627963354874045  0.0026173271875444  0.8335275173565209
  0.0819568882357590  0.2488501925115489  0.8328728353374425
  0.0755648443096787  0.4169369952461160  0.8281650379993200
  0.2450456212878803  0.1646127140779467  0.9150891135490643
  0.7473996862386241  0.4161066604194176  0.8315348203190880
  0.0820733466642459  0.5841911803455105  0.1656992837243253
  0.2440483114676792  0.3323599995723110  0.5828394676550384
  0.0771146169718299  0.3313648259033208  0.4113150849004938
  0.9111520186408553  0.2487926311100855  0.3317202828620339
  0.9113354530611475  0.4184984100231479  0.9986629043327945
  0.1584288419550790  0.3314402273639742  0.3330546338056905
  0.9915975779013515  0.4175204492282698  0.2519986227769183
  0.1617763603818714  0.0841350882431133  0.5823433138331257
  0.0789487498347177  0.5012553148580450  0.0836818761006108
  0.2448856719263694  0.1582577058785084  0.2496002402229375
  0.9105567713819229  0.6670583362202223  0.2532297925171009
  0.9123341383149566  0.4143220202051563  0.8327673810186682
  0.9958049437721982  0.3366378278020177  0.9973594580749952
  0.2500137783812363  0.5854548449863413  0.5013810252342438
  0.0818041992663268  0.3307737206004150  0.5888011609861815
  0.0813782886266870  0.1666538936897462  0.9148960673496533
  0.9922119179963776  0.5042025224000275  0.3381310375476448
  0.9948498491812755  0.6687145639652757  0.3321602278959214
  0.9956595006960931  0.6696142788666823  0.8348517713670717
  0.9092124894622123  0.7520820896696407  0.5019167828079615
  0.1617534095123054  0.9161446837788879  0.4148052912100580
  0.9093955025766433  0.7469940035290712  0.6658103241645953
  0.1636800535515813  0.9144284192933551  0.2498801950246075
  0.1621966971162339  0.1627876949570651  0.1690870661877400
  0.9942649939406630  0.5845602553950169  0.5837766706765697
  0.9951934076083435  0.1670859308786903  0.6668618406723664
  0.4093210895519471  0.2482837257772658  0.8288857206527869
  0.9937223062203643  0.9160052190284939  0.9161825139907872
  0.9961137513331464  0.4164897531877628  0.7525060039358799
  0.1633788245806990  0.3332416778941066  0.9975677761207423
  0.1633552630114490  0.0797299421114042  0.4148254575076194
  0.1612288098161728  0.7553278170587890  0.2486394637078076
  0.1632496369646730  0.8370998385850266  0.3336651060383468
  0.0782620188123906  0.8324890849174506  0.0833585633779955
  0.1628259648782913  0.9983606666697115  0.3332337026410225
  0.9928705303245680  0.0833516628114803  0.2486587978470448
  0.1581244473302318  0.3294889989877572  0.8320987085945448
  0.8298386684238273  0.3344996140870212  0.5032606590503508
  0.0767404292097098  0.2520432601349149  0.3345071653357077
  0.0804014095753093  0.2426276121017547  0.1658947070002755
  0.2452041738532567  0.2483908604977862  0.5047053847941503
  0.9927179535569959  0.9942670876017399  0.3357440616415592
  0.0791955605628757  0.1629620783962389  0.5826183518167485
  0.9968147921353934  0.0835746859520444  0.5815506847360000
  0.1595069014572214  0.7516629924170306  0.0846569432870003
  0.9907405051617593  0.0835868254250990  0.7530109894647646
  0.0792551225537409  0.9992464932683187  0.5796577744115615
  0.9993074024789187  0.1614426705251636  0.5044411506668881
  0.1586560787382538  0.1629884258075677  0.6634389164033929
  0.4132273617692734  0.5847491113844371  0.7491289356032653
  0.0753656089246310  0.7500818218028347  0.4182015173416745
  0.4959087071792090  0.9982673883704765  0.4179000567657065
  0.4940872612029072  0.8344863740136291  0.9146227884392391
  0.3250400400244376  0.7525003922354419  0.9985897073880238
  0.2439793775169037  0.8342723077860463  0.5030539830225204
  0.4115408125331594  0.1642035030011303  0.9985457863657895
  0.8269528656639112  0.0801362347621770  0.4992107397813802
  0.4954141849443880  0.1664921165196624  0.0791570222881273
  0.9905049588572298  0.9952055501818399  0.5823207800509529
  0.9943204160567086  0.6687486842834410  0.4225213244242870
  0.7432005347323717  0.4211239067902603  0.4166115438820617
  0.2453649678821269  0.3311087116987262  0.8312725605214817
  0.0801735376144980  0.9979489638651989  0.6695290439250634
  0.7449461447073059  0.0846549091210686  0.7509146804931111
  0.0823903077792281  0.0838319635662372  0.7520957589299851
  0.8276669504872298  0.4164507351599885  0.6686684381429996
  0.7399859558920872  0.5817281053267851  0.9173333025950967
  0.2491473261035259  0.1644304710208796  0.6656651638690785
  0.1590789066452614  0.9141395491720513  0.8320766821167203
  0.4952368641664856  0.1661842023011918  0.9160833433785766
  0.6637669661524700  0.0819993726599492  0.1622457379071134
  0.7438420751968354  0.1641174635331743  0.4996442209877463
  0.0799531413308041  0.3340711001416330  0.4999212622745742
  0.2446362410012428  0.5018069737034359  0.1673330132859978
  0.4097945496718113  0.9141064738751504  0.9160449501074923
  0.9931561242124357  0.1659208483929951  0.9154037835290531
  0.1622609128864649  0.2440623993757303  0.9994781114933496
  0.9111766412276098  0.5031783302931524  0.8319685266402659
  0.2439307166041947  0.2479113525964744  0.7481780193882873
  0.9090915078409730  0.6694437675445071  0.3381566858197577
  0.4949436446845820  0.4992527176336063  0.4166401312661804
  0.9100504244478290  0.5032822844887449  0.1663399731976211
  0.9952023030080086  0.0813945092029023  0.6672660451283813
  0.3259383031428071  0.4157548830279212  0.1702876721015149
  0.0787168587020231  0.5025100688154547  0.4995370817207840
  0.4172986032251015  0.3350254580733770  0.3327654858683208
  0.1627163557246440  0.7499537055699332  0.3343039699125523
  0.6602108668007282  0.7515617508228872  0.3386065376630729
  0.3263716575784454  0.7518754959749452  0.1680791338699639
  0.3260047725891815  0.9967361753913306  0.7490762858378067
  0.9923736229063064  0.3325889197487415  0.0857216317929401
  0.7445801907242517  0.9996872507399811  0.6683428848611671
  0.3337890855572870  0.6695912346135462  0.0827334687913919
  0.4118312373297636  0.4183891210810980  0.4138449287651094
  0.9926182493288142  0.5855591652860170  0.1648663021899587
  0.9096475881089283  0.8334989200641407  0.6670850681433058
  0.2440344322528634  0.5808433291013491  0.2524683472751337
  0.7425991041036406  0.3351779556627735  0.4989065105737814
  0.8290317335416408  0.5841666481255661  0.8305024614347228
  0.2442278370569280  0.3347944709560586  0.3368070243728719
  0.6604116390182663  0.5830351670085770  0.1633894944721599
  0.7478415438895892  0.7502630480605109  0.7482490469864657
  0.9894800048299317  0.6690385558311517  0.7466542126831422
  0.3315388949992740  0.6681569707083406  0.7480851040053491
  0.9139251728986526  0.3365132762844955  0.6680416866251306
  0.5795083229079121  0.0855050590474557  0.0815828167056110
  0.1622642800253636  0.6648016055785531  0.4172083366730995
  0.9950073719032481  0.5831215195750735  0.8322840788920797
  0.8281865740944028  0.5853812510564127  0.5021053046668514
  0.6582160858293206  0.1637388170384805  0.4154639299300541
  0.6611591614933651  0.3323675474502190  0.9126455850471240
  0.3279135500771355  0.5011766114489460  0.0822511345292484
  0.0794092901484666  0.4165446631279381  0.2531767704351475
  0.0796780203006634  0.4215868193042489  0.5825541018240189
  0.7443286336808569  0.2476642769297689  0.4172786526989991
  0.8283562190927808  0.3340661298775490  0.4156025033364020
  0.7428136161883774  0.6686383532645834  0.5021574892679527
  0.4922916866067449  0.0823372488256847  0.8333837607612657
  0.7425379238985662  0.5837874658001072  0.4200695074162801
  0.9931841191075133  0.9951503403453178  0.2478884272196222
  0.7425083062727313  0.6649904184225676  0.1674780675711117
  0.7450705762587992  0.7492243471014558  0.0804058128601076
  0.7437615089819047  0.6687773124787324  0.8300372088919575
  0.9103836151771764  0.9979740198366390  0.4998720144945055
  0.3284481367198225  0.3324640600250350  0.9181660054186570
  0.4133581187227749  0.4989325846231417  0.9970749153996833
  0.9938536304670526  0.2468961077596152  0.9999124125501149
  0.7445528614751186  0.4156831792667188  0.2485157460831673
  0.9072686637394065  0.3299793946093434  0.9991240268177107
  0.7440935293511879  0.2505730136383440  0.5839506435963764
  0.9946778980150228  0.1635972983717340  0.4135261341087452
  0.8246463991678186  0.5011368018252116  0.4171988477203433
  0.1629644178841451  0.4180191891538588  0.3353449993587628
  0.9107675144846326  0.6687759695401743  0.1608523160705322
  0.9920852438169533  0.2504213380794504  0.8326333461662940
  0.8277410429959717  0.2500682346451770  0.6679804408458041
  0.9917012839810485  0.8291839686766435  0.9174151646587247
  0.4946180302425793  0.4184823169997674  0.6690079863496466
  0.8272125445621565  0.9987886456495279  0.2495976510249021
  0.1592113823158423  0.5841153251126264  0.5006809939436179
  0.2441986174358264  0.4175452896929450  0.0832991404545921
  0.9960583351836146  0.4166603184449840  0.1659902281881488
  0.1613958167760728  0.6679726005147638  0.7511408898424039
  0.3290202379363907  0.4164444644906389  0.6644118749615560
  0.3311918705392560  0.3326596205519458  0.5801182322879671
  0.9967282103529583  0.9146400585127298  0.6677455492399237
  0.9953694739667064  0.4152915936080705  0.6642460153710190
  0.3281860130206030  0.2474688482923446  0.9968739158076295
  0.1586316048049295  0.6657355905113149  0.2507233388904171
  0.8302504716466055  0.7514778097956391  0.1671397387808904
  0.4971976818170362  0.4995008171966258  0.0825188585301587
  0.4140016925066992  0.3319205178391720  0.9960963480119526
  0.5764663764951424  0.8344047028089669  0.9962273470601390
  0.8309172876867587  0.1639632262826844  0.5833811279120806
  0.8266848053375905  0.5032334759806029  0.5812818663019373
  0.2502199693997483  0.9198829023544884  0.4169456988297977
  0.9115169817514123  0.5845162083856685  0.0812823453328241
  0.4945832598384301  0.2504847576277797  0.1670009073333110
  0.8306926479714143  0.4991170072627392  0.0802052477338419
  0.9113812518967153  0.2465162583694479  0.4199334149277545
  0.1620404476477033  0.4175729180602245  0.8310500551909085
  0.1611427296148116  0.5858394519674227  0.0019738951206300
  0.7463437944581850  0.7521498764399168  0.2548642238511479
  0.1667058662625049  0.9954471055142389  0.5833551293582704
  0.0756403889742987  0.7477189352161794  0.7498867873827447
  0.6598967445125741  0.4170237111420780  0.8322511256973786
  0.9893884438137710  0.1676533165670830  0.0839355109644313
  0.4141953672808957  0.4163587730884160  0.0824388587702622
  0.8221958780341014  0.4143021538227332  0.1632197669246431
  0.0762853938011544  0.9223481617493808  0.7503959453125366
  0.6566511882642146  0.1658499428808868  0.5880857656884342
  0.6570429086002290  0.2520778169733101  0.5013461892289556
  0.4110832665629394  0.2483711036874426  0.2483674649720226
  0.4134854185868332  0.7489620236180978  0.2535301259980359
  0.1629075885171057  0.5878741982542788  0.6657566466562641
  0.1637068930569250  0.2443107432982252  0.3347092657350311
  0.7432026710191448  0.5009050277611883  0.6672220178909201
  0.1649512854255798  0.3340538381203530  0.4203286719441792
  0.6583242655749481  0.2487099495663302  0.3308653874794266
  0.3247957657246627  0.0012211980486744  0.9180990440290399
  0.6582943407331584  0.3350322796973866  0.4170805475584331
  0.1646738666059659  0.1655762648741514  0.0819879268902299
  0.4951972657415893  0.0821796928030751  0.9985115125349598
  0.9944747908753252  0.5040260253296649  0.2503025269744236
  0.3278168122726975  0.2445598847200119  0.3347495169918307
  0.9955747724760342  0.4182782967833871  0.4993272430823806
  0.1594599322175611  0.4212719687393717  0.9984707389154899
  0.2450979938622509  0.2470548659587006  0.2491688864034291
  0.5799839952852964  0.5852490378195064  0.2493904093920836
  0.9943160785847005  0.7522937129377569  0.1704656876749026
  0.9094125880312935  0.1647621289079568  0.4985983546656414
  0.0776289613338375  0.4170834753409166  0.9181806747421358
  0.2455540580212340  0.7536660411359051  0.7521723705155396
  0.6607109630814111  0.5002889128128444  0.2483807222719601
  0.4076503899637491  0.5860784662094205  0.2531040956202306
  0.9071503717010085  0.0854712694888533  0.0829289461194907
  0.2424870372023779  0.8314770124905715  0.8339140967791104
  0.5789070246652656  0.5826712860532277  0.9189742000122083
  0.7454324312003753  0.4972785292605970  0.9964935839497728
  0.1596557732905229  0.3325806530473855  0.0850748307792650
  0.4126436204222217  0.0816202749820207  0.7490335508593531
  0.3261882391189143  0.5870858103422013  0.9966298605162928
  0.9963719069135504  0.2521089098711669  0.4999964182910029
  0.9940324172496051  0.3273501116493355  0.2503333338644241
  0.9961062146029384  0.0031579496731539  0.9165868031894088
  0.2452414385853127  0.9162224370893747  0.9183301294361835
  0.9123677080889557  0.5834667551579948  0.9162304846803353
  0.3289051780799606  0.5844049984354868  0.8331554480468474
  0.0780438725739360  0.3326738571679707  0.1674085629370407
  0.0772768311152670  0.9978284478960484  0.1695068214273383
  0.9065305421207834  0.9139996153364383  0.9164919923582224
  0.8259282285702910  0.5841937599272663  0.1626290285702766
  0.4128001598520999  0.2482520036736611  0.4188365113672981
  0.7442012277938373  0.0807892208048643  0.2477594507231186
  0.9928724206409730  0.0813780375125445  0.3358506315630183
  0.1597676830707072  0.7523458498459741  0.6682979913256825
  0.0811752836577825  0.9196209787861072  0.9188957866206091
  0.0777208610897318  0.1637749400080526  0.3337687460649059
  0.4119090283891871  0.2477170882923278  0.9189677665202062
  0.5804583726743885  0.1632297730870883  0.1668781245213396
  0.2459869923636729  0.2444219545893500  0.4157631971203858
  0.4125598356959470  0.3326628970252122  0.4995190856426280
  0.6573083104423718  0.3353484573000413  0.5012554044064118
  0.6584965166498224  0.6692394124238197  0.5018440976154263
  0.7438873194964909  0.2516690879714081  0.8340084006547902
  0.6603509671192647  0.7512847509976681  0.5847616580372876
  0.7424659432824132  0.6657278323882437  0.7477450078332344
  0.7434548686139411  0.2492139738230670  0.9995914464573751
  0.7456908168103632  0.4996811926197184  0.2498876184264383
  0.7429674908144042  0.7530083391502919  0.5018307199478407
  0.6583958968387782  0.6675504059593866  0.6669854073683538
  0.5780943388178179  0.7512249226713875  0.6668591030786379
  0.6599853777462873  0.4143763861286517  0.0831242936897542
  0.7446849694745545  0.1672120580689654  0.9172908344652976
  0.8268018507599509  0.4988206374049032  0.8325678110661123
  0.6625439636408185  0.1688527794874456  0.8327721426389176
  0.7427570487269031  0.7508737503653632  0.6659975373753059
  0.6605049515703257  0.2505238403545746  0.7501208485132663
  0.9959763212243554  0.6681629239559965  0.1669483839635183
  0.6587931836345977  0.5855495893866201  0.4177213110294107
  0.7429698913940250  0.5824828418304629  0.1661638737988350
  0.0784580899703931  0.7502972709519053  0.9995591865424155
  0.6606610438176188  0.1676029298387244  0.6694983384415663
  0.7440692604114060  0.7518255891974088  0.8341903096418278
  0.7436478654070980  0.8352231088075018  0.4177290546443260
  0.6598162564633220  0.6678293077931321  0.3345774207683232
  0.8279294821840052  0.4994339526803295  0.9968802054128372
  0.7414020023498195  0.5003234280755120  0.5835408214668042
  0.7417598155559981  0.5844802109423860  0.6669622931167741
  0.6590616885827785  0.3342853451637745  0.6682825882054764
  0.5770486147440458  0.3352693529815821  0.5829478059381591
  0.5750835214151481  0.2491019729293530  0.5012827175432719
  0.7402253013456589  0.5017989945728366  0.4167112974987072
  0.7406690477425255  0.5846976482286360  0.5031991345234302
  0.8265540814714054  0.6673838537587736  0.6667850667563514
  0.7438087338368976  0.2502340523924468  0.5004435273385304
  0.9125629803068701  0.3342125904886791  0.5827601547605872
  0.7413097702392587  0.4154319206539272  0.1653321979058891
  0.4132775250828194  0.8340959618245312  0.0832182375273494
  0.3300899477312431  0.9170003219439962  0.2498772094245717
  0.9969461732877628  0.3314202368409324  0.6672793991734325
  0.3308039740848046  0.8341000867501709  0.3340037151969890
  0.9952579541074565  0.0792387953540939  0.4179844248767309
  0.3301369189695391  0.7511769263493173  0.4175660085486844
  0.9071481573107940  0.1677650599088400  0.0832651351971136
  0.4957757497236522  0.9153566789969585  0.5852938231110408
  0.9928223589514715  0.9986340633739322  0.1643585696695812
  0.3297926142850484  0.8344785082840868  0.6663008332165816
  0.9932580203333297  0.1658247701624968  0.3309625873992110
  0.3289583371802707  0.9147137490625926  0.7492030603140267
  0.9952380198465145  0.9973116246794396  0.4984133240885590
  0.9977766214824472  0.5841149526213464  0.0808701159132763
  0.0799282365091905  0.1642043988139807  0.4177773327734827
  0.0783532657031478  0.5853856782091016  0.9991787575605808
  0.0793999610769980  0.5033153916753617  0.2517668031578897
  0.6597808734750937  0.3327230980667797  0.8305062283738905
  0.6588427762668606  0.5842755790999772  0.5847693069662704