Cr  H Ni 
 1.0000000000000000
    21.1200000000000010    0.0000000000000000    0.0000000000000000
     0.0000000000000000   21.1200000000000010    0.0000000000000000
     0.0000000000000000    0.0000000000000000   21.1200000000000010
 Cr  H   Ni 
 259 173 605
Direct
  0.9138657724140732  0.7473976773293622  0.8337000429313415
  0.4117223088254940  0.8382995111503018  0.2481954718251405
  0.9108309798601852  0.1676146549548570  0.7540564143655377
  0.5796081669454617  0.2498801572088270  0.1659349339189368
  0.9945418619507442  0.0882038210339400  0.9182585372940703
  0.6612111028928079  0.4161479021489158  0.2493121293173432
  0.5780111761191091  0.7499239645291709  0.6661097635862161
  0.6607073206446585  0.7514624558327260  0.9152731986531109
  0.8319553393982836  0.6646157720381395  0.8298026502952675
  0.6615991086981857  0.4174684346848692  0.5841137755278204
  0.4106975617666653  0.1685236754786610  0.7485627418162147
  0.4921840727897884  0.4154441676730052  0.4189659543046122
  0.6627726784233215  0.9160374902778947  0.9160419844686639
  0.8272481603552850  0.9170664338162932  0.2487521516657654
  0.8280060701617206  0.1663247410268899  0.3324041950929282
  0.7441500039928496  0.7519344287496760  0.3355159766844488
  0.7476659452532893  0.9169749074987225  0.6667577352676172
  0.6615604988817687  0.7523163340208135  0.5869338389286438
  0.7448477194809835  0.9944365826305060  0.4184647841663532
  0.5784876262004397  0.2458906154317428  0.8315749454407518
  0.4964953642931604  0.4162588416971328  0.9166085506541646
  0.5774040765379211  0.2501899759496242  0.6694768521627651
  0.7459200469698539  0.0840611420294743  0.6671588586246616
  0.5784265807519852  0.9164875756418582  0.8342514499405451
  0.5804038207798498  0.1694566216784332  0.0864663663912098
  0.5776645103764568  0.0816438134419835  0.5013684224852785
  0.6634746095216802  0.0821122356986557  0.9194432405145467
  0.2417504465110588  0.3334826038111698  0.0822209998453945
  0.9955687266010746  0.0837158412364591  0.0836059037593715
  0.7481531353370172  0.9180127392877756  0.1683299903830885
  0.9086939623413443  0.2484115566649215  0.1655050868567953
  0.1613296208912930  0.4992043628377078  0.6667328319338771
  0.1619150459125606  0.1634409550832023  0.4953703210524332
  0.4955121230142144  0.0827632804995228  0.5833101666947957
  0.4922305754541538  0.2498378516338415  0.5828795828649798
  0.5775403401196487  0.9949099748339515  0.0824082546385808
  0.4090092125784831  0.8344361856345214  0.4201611413561286
  0.8275116824647104  0.9997873598190168  0.8346754663199014
  0.7459259360178437  0.1672956506418021  0.4133189187762212
  0.7435701163890659  0.2518364940258032  0.1661763933630128
  0.2446325621224044  0.9156225247958397  0.8364334635312854
  0.0786410944158382  0.1674979239971232  0.0856452465941124
  0.5803964546649288  0.0008052254978415  0.7527701056714601
  0.8265425249599072  0.9980882811290709  0.4990272001479071
  0.5818239124336014  0.8354684812071663  0.4186118022553996
  0.6591256959101921  0.0814483957316291  0.2472120690914524
  0.8274226604136854  0.4155752837824774  0.2470256794104601
  0.7387527567076579  0.3323657700897366  0.4179282397060726
  0.6649579560075662  0.3337120472411738  0.3335819212363715
  0.9108018509203865  0.4179235347079335  0.6700714018964169
  0.5801675529985973  0.5024314526034570  0.4176560676905284
  0.6610419373562225  0.4989908447655888  0.9998247330013584
  0.7447864942028433  0.3311212396117755  0.7494161471843221
  0.7458963050877473  0.9960292299903711  0.2502745326649005
  0.5794240868344547  0.4986049697560296  0.0826679482500210
  0.4942257000021575  0.4960863769185498  0.1645591829534634
  0.4130377481159813  0.5000796246723530  0.0829924358691745
  0.5768021119053029  0.0833348746522682  0.8312651448424090
  0.5777656504370512  0.4190844341371960  0.8368958346204974
  0.4133232675926274  0.9150190115362732  0.6654678708635049
  0.4949889480073275  0.9153065061702665  0.9148567221379184
  0.6616509098793554  0.9168198393126323  0.5839277759400775
  0.7473068856110784  0.0810622604862901  0.3330471377858418
  0.6619659273506607  0.3324713575855376  0.5017230187673145
  0.9102937490844830  0.0796501742896623  0.6653389018658249
  0.2455227246243957  0.1664535247418663  0.9224284365833146
  0.8276798160437506  0.5015488551347919  0.8350540346224886
  0.1585864523516895  0.9176762438077041  0.4151696768439762
  0.0779103928232140  0.0009949001398658  0.2505368405695462
  0.1626616271351602  0.1638772229122565  0.1672030955998987
  0.9947787541312709  0.5865926075037714  0.5857514386591290
  0.0787263163588797  0.2502347024460386  0.6666128525008120
  0.2490319277863681  0.1706600714711657  0.7460352661374419
  0.1617740789619043  0.0035765920869061  0.3310353490956848
  0.9971131809548535  0.9118948920099783  0.9204875031038121
  0.0788543012919802  0.4980357579485404  0.7484377645348643
  0.1672968828502067  0.3304769940982586  0.0021247441797282
  0.1622114184561074  0.0812110135693892  0.4157124631682344
  0.0778680166579535  0.6684191353607803  0.2478521379394357
  0.1593522801353427  0.8316538898237615  0.3325388876657975
  0.0794094806465233  0.7516827829608023  0.1697184651516339
  0.1636326950632834  0.1687026352625557  0.6672493721584029
  0.9939163334857406  0.0794371331895811  0.2486112706916914
  0.1621781505237048  0.2542636167665860  0.7519684596117654
  0.9960689536670936  0.0783142167784671  0.4173318908210196
  0.0794030069879270  0.0002334094137343  0.5831048364444672
  0.9930043614513708  0.0859270245068766  0.7517246040027811
  0.9957650858723991  0.9996595029673686  0.4985499273454845
  0.1656350115763685  0.7500141672272084  0.0850955387834235
  0.0800438254488904  0.1672723938708007  0.5842746281622517
  0.0784322717448127  0.9997742650191755  0.4155174513059525
  0.2440288163189481  0.1639436084785200  0.4134625304951094
  0.0802339864682996  0.2460807761464099  0.1647969529251294
  0.0795942188028625  0.2477968744996323  0.3308450022760361
  0.9982572648306050  0.1652070583101254  0.4994945806965155
  0.9974194870226321  0.6702402827893270  0.5011703818768832
  0.2419220115138163  0.4171128839043403  0.6663270921650715
  0.1649731698375397  0.6699555364913180  0.3283715153844733
  0.0776979096313309  0.3324376598432447  0.5885126651136942
  0.0796389481202272  0.5895347178077703  0.1712431705116022
  0.1623371541755635  0.0825906318970543  0.2493721859027497
  0.0815018914040565  0.3354964992789040  0.4124774138527214
  0.9112888029840767  0.7496637803498836  0.6655780463003290
  0.9105780741135905  0.4186104930962491  0.9963396282370700
  0.9946397569733282  0.6679069318886804  0.8364564302836389
  0.9953165159666884  0.4158578378706629  0.2499207506864749
  0.1625844504578871  0.9991764682053517  0.6675424026938515
  0.2456041026058045  0.1646835587972102  0.2510333197973204
  0.9100332736614349  0.6705751456671989  0.2518811589900046
  0.9929290200075804  0.3327085545701055  0.9965689371985103
  0.1649505470755006  0.4991081654201851  0.4998106687372968
  0.0779670258874340  0.1662818246451138  0.9197343614291241
  0.9931354878944195  0.5007553301353164  0.3365091003026105
  0.0791182420759093  0.8338409919323563  0.4157703693340582
  0.0775501536160887  0.8356779213980173  0.5831801592781025
  0.0796301970657130  0.8332941200308354  0.9179591828500158
  0.9910544430875230  0.5838227837650959  0.9152261009740841
  0.9089839471849205  0.2487768261468784  0.3341845249947725
  0.0832501419208866  0.8306654337071994  0.7504029678693473
  0.1619649527187912  0.6684118918501034  0.4989300427878274
  0.2438813149999345  0.2487969896704103  0.3329575825843499
  0.9091044104546852  0.4982965386075645  0.0793084826957095
  0.1631230004263164  0.0821460872379671  0.7471514760179595
  0.0757039052916885  0.4134322449333862  0.1719498467967547
  0.2433508074999754  0.9994084445537024  0.7457697048321098
  0.1630830605763510  0.3325094250373569  0.8334499463873134
  0.9940533434121621  0.4139516098285609  0.9179537612659970
  0.0795777938812311  0.3343662339256896  0.7496617546256852
  0.5756739399534386  0.9142397545874089  0.6683562609787594
  0.7434121897245751  0.9162247936486083  0.9980916334762607
  0.7456947050058755  0.2498856545535300  0.6656934014940682
  0.7431180440015669  0.4181457222791537  0.9979856242285055
  0.1663118198361245  0.4989835189165430  0.8348118649898797
  0.9116257971785554  0.2540357736937113  0.6701352797704866
  0.3287062137007118  0.4973556028610793  0.3323892484367000
  0.3300193963620731  0.7538905439013184  0.9184364769425448
  0.2487917884334158  0.5020538769291120  0.2537374488582177
  0.9101955187495425  0.1666766523587390  0.9161091611581440
  0.3269213805351091  0.4982415277013435  0.8355515420259062
  0.3279389937907263  0.5823281499487739  0.5828297751885637
  0.2456823401854189  0.6692570362522602  0.0831435384022209
  0.1624893907498589  0.3329211039334149  0.6680729260414455
  0.4129266866997295  0.5810883931854030  0.3308877129731905
  0.3301806835967399  0.5000375353777384  0.5013544038246536
  0.9080291927875890  0.3285749436765235  0.0865630640454457
  0.4087173049984488  0.7519078966152448  0.1635224386500607
  0.4961378646636658  0.5837930788099959  0.9141007828183554
  0.9110741579885540  0.3273183938773649  0.4151027514596858
  0.9114767207082424  0.5034543857581866  0.4166116727284980
  0.4115153431265450  0.4980553841922495  0.7481414982627527
  0.4950439116518560  0.4183224449826642  0.5828109302439767
  0.8330718913543538  0.4991291653102401  0.6662065872105423
  0.3296777905490990  0.7517550334964448  0.4215977447307294
  0.8264956594044905  0.3335168665128651  0.8295949919479912
  0.5765944994767999  0.1658686889377267  0.7500704817110145
  0.4101189302724320  0.9956860616201294  0.9168421629862491
  0.3302310238876013  0.6670913459614832  0.6659874023070838
  0.4950096095237049  0.9158219006924625  0.5865173820586632
  0.2464988161061214  0.6667685899860055  0.2498376214137484
  0.1636372499596089  0.6649293349463408  0.6712443085855058
  0.0807191297101950  0.8345660780503926  0.2482741200852251
  0.3288109118690010  0.2457410836065510  0.0824306323525898
  0.3299554565631743  0.2545553260883400  0.5810412614464301
  0.8309793617654853  0.1669903773791760  0.8342130114628653
  0.3308868477826965  0.5003781319379228  0.0023238228839745
  0.3301370521994893  0.3322952939730328  0.8311928073974769
  0.9113418313488356  0.5811735044871783  0.3379929953546200
  0.8254683205204367  0.5865473677278994  0.2535876379455847
  0.8281767075234628  0.5003686796396549  0.4995134145834544
  0.3285335798522400  0.4200515863074463  0.5794499673735941
  0.4116974349262429  0.5010721688360564  0.5828509054935056
  0.4162444336813506  0.4141394698924568  0.1679977177028693
  0.4154425855841934  0.2504066933087507  0.1628950688356589
  0.9116089831307611  0.6718875174963077  0.0783091644049580
  0.9934006735262901  0.5806529123335543  0.7482802232003459
  0.2493311815932713  0.5002871115320072  0.0790634991120905
  0.3329505943676777  0.0865785635918011  0.7476275490363199
  0.4097780050156389  0.2512078134527403  0.8335229236017304
  0.8283982264733117  0.8341446552209739  0.0002398078302130
  0.4137744870061280  0.2516204330382081  0.5004769331877981
  0.4941408803265332  0.2492208464476548  0.4183510135738704
  0.8240424167609728  0.6699989249437703  0.5005063294603042
  0.9112624691593035  0.7546762163491079  0.3347545621890707
  0.7425087969036506  0.2529659594006525  0.9976705048988314
  0.4163606446983177  0.3283708792039116  0.0860800122098240
  0.4970306952844236  0.3324944886946796  0.1636200918083919
  0.3292252862125119  0.5830523043373679  0.2479971953635826
  0.3300604899759330  0.6685081880797845  0.5011518807561238
  0.2462402940650132  0.7476598515212108  0.1651570923447841
  0.1619593074660539  0.7510022843959843  0.9178256328385602
  0.3292665800139216  0.9188171651852527  0.0832765919284932
  0.1638705241416221  0.5041750214029475  0.9971933287467427
  0.4122504893691419  0.7484937822171569  0.6634437661687935
  0.2455971990442625  0.4162365726523821  0.8338945514382181
  0.1619062078707642  0.7554782074738636  0.4162452084550606
  0.3289350213910779  0.8344056394149695  0.0012193923164827
  0.7459602381065848  0.4977274993528835  0.4214089038239598
  0.4958057495787677  0.7499001429490828  0.4205405666858560
  0.6639787367246460  0.8356166513394701  0.9984112167975917
  0.7418186041830215  0.4971898519018579  0.9167696253711607
  0.7416674706210263  0.5007421064888629  0.0808051507891654
  0.5811917881583044  0.7542089997706627  0.1660206585368554
  0.7450446487094368  0.1667974316801232  0.5895177257434834
  0.4101275643743295  0.5836245265602027  0.9981333106933913
  0.7458478814118845  0.1673239968781240  0.7454549731076520
  0.7392745884969633  0.6668148824427867  0.0856881097554116
  0.3321534520274846  0.5012542693408651  0.1667468224894137
  0.7436872337207527  0.7508984502191595  0.1689474230909784
  0.4127872920879628  0.0824617968681182  0.1653466417381280
  0.6614336996515978  0.7541288620120752  0.4169049405438160
  0.7464510516697502  0.6741097717560288  0.4172001625959642
  0.6577668412252233  0.4976139021922178  0.6652465518967798
  0.8290194040214093  0.5795210198936079  0.9150386386091764
  0.6648621963168065  0.1667725815660519  0.3302801949990078
  0.6606992543325594  0.9161274107319295  0.4177985416887665
  0.7437628996096646  0.0791843582212507  0.9984994165723731
  0.6629985638165313  0.2506618614991951  0.9164176504789702
  0.5793450926603121  0.6698837985375712  0.0805044577033733
  0.2471671066094862  0.3319499324563228  0.4154502070939478
  0.5784630703340005  0.8336385412069375  0.2497126999381526
  0.5755073902467931  0.5840890580179499  0.8343426835234172
  0.6596515905932192  0.4974623363054292  0.3328244339219738
  0.4954926833603623  0.9177545199064751  0.0838690536025813
  0.5766252459640018  0.5831645284963014  0.6663122717991772
  0.6562745571896754  0.6711261558511041  0.8322371654927015
  0.4938366121362249  0.7502039016123762  0.9161233621222434
  0.5758570522765483  0.5821478202814461  0.5002432734870699
  0.9075127119054999  0.1677992570570249  0.4114270064718559
  0.4954367644752067  0.9994781241208770  0.3329779066459978
  0.2478734358686079  0.4177408442473682  0.0009506024499381
  0.5771206725789267  0.0871606349266896  0.6680515348593827
  0.4965010657044212  0.7498847696316493  0.5858845948445731
  0.3317454142203968  0.0006052564700512  0.5051039519584133
  0.3317622614288788  0.0014759473740612  0.3292028270077132
  0.6569903137010906  0.1653915162513523  0.5038449391284108
  0.4150015250951489  0.0815210113575531  0.5016521779155075
  0.3310450321585541  0.0781524426393006  0.5813138125443821
  0.4134259948657949  0.0790581085689692  0.3322829996378696
  0.0803507034060190  0.9170405418318056  0.1667228366418417
  0.1636457802630004  0.5024706370788390  0.3312522791970421
  0.9116227112285155  0.9163878996359183  0.6656424661507890
  0.2462653962886725  0.3294239659161665  0.2522721670468087
  0.2448620687340229  0.9162781908900282  0.6639519591682566
  0.1673331760919747  0.5816878305817672  0.9166633131734875
  0.9137605617513755  0.9981598119576356  0.0821320513516933
  0.8251304619479450  0.2507806958148577  0.5851168950964528
  0.2462217643119693  0.0825039938967733  0.0035344115233610
  0.3297013013102378  0.0829095240493779  0.0828382627641988
  0.8292200615155216  0.8364200438382779  0.8327449714706546
  0.2469753465899195  0.9172831166214211  0.0016899460594716
  0.9092529813316352  0.8344594902516504  0.0818893317650872
  0.2438372128914041  0.8297999183852741  0.7482946582975661
  0.9970622871709967  0.9171725328760200  0.4171117884648636
  0.1617268783478915  0.7508497693970382  0.7514959692968103
  0.8281469239216904  0.9169059720831342  0.4150875216491369
  0.3313935023098469  0.8330717844978601  0.5004253357193422
  0.8274200138665628  0.8299378262511083  0.5010414404072073
  0.2458429297626553  0.9223693532516380  0.1639030155849978
  0.2458211175547156  0.9997564816884519  0.0836386899704473
  0.7394298375664190  0.8343343318123858  0.8305245366588071
  0.1606645574681647  0.0834617475470238  0.8383084900247143
  0.3334649349675000  0.8319345817893845  0.7505452038232848
  0.9078643920598026  0.0808410657387285  0.7532261222432614
  0.4149623626195258  0.5004284535586987  0.8360035205774161
  0.7440414870263707  0.0813888164565840  0.4188340903620799
  0.0791736037902862  0.5008199927389445  0.1672732874161983
  0.9938309860032266  0.3272995244732450  0.2500838542892440
  0.8232509078983319  0.0010799537526100  0.0830858729163248
  0.9103326079648308  0.6689580539570310  0.1650658506051937
  0.1662214379051425  0.1657446429795980  0.5813927187201690
  0.9114954259710213  0.4162788607244789  0.5804793233933758
  0.5783381037970234  0.4162597539338784  0.7461106994459079
  0.3301929913243288  0.9994900125331323  0.4170460446458051
  0.3294471784278685  0.3320480687228923  0.0838038489310180
  0.4139862013587465  0.4144095821512035  0.0822475107882132
  0.9097973630584116  0.4988946386500499  0.1691753439644955
  0.4124426700824648  0.5890241300637736  0.0858083783114498
  0.0798998871645235  0.6680973713885561  0.9991032917726927
  0.0793837530098735  0.5845609774209619  0.0793184270818720
  0.0765524711207253  0.7522350429957044  0.0810522611090879
  0.6603293058373884  0.0800237335531517  0.3342960726143184
  0.7452742981781150  0.5013375644126014  0.6665497918415428
  0.0784178804586990  0.0830527516680969  0.7522382118716688
  0.7433640241151054  0.1669772557317784  0.8346792272353785
  0.2458419055784031  0.1691364498877520  0.8337189186736153
  0.6584959528036634  0.6660798555744105  0.4169263674756615
  0.4952521949339664  0.7523341531351866  0.1652141342195311
  0.4120729380172946  0.3337569158033631  0.6674098876239762
  0.1657109056202757  0.3354915838292391  0.5806288279176340
  0.5789319036560060  0.0003837027831366  0.6663167919250442
  0.2491295844538393  0.9178536862518850  0.4176171083116337
  0.8267923047039196  0.7504756705442290  0.8314580111177344
  0.3271690376064426  0.5848720819605873  0.3351452062378866
  0.2488774816950273  0.1651687031938071  0.5009931280675683
  0.1614923110334021  0.5022992621498907  0.0857817497714622
  0.4148989982698937  0.3311545602057395  0.9962044475307638
  0.5741582897636427  0.8335659854685621  0.9998512208864637
  0.9971276443511465  0.5014208761756576  0.0815469984549703
  0.0748999414226517  0.4988850392702177  0.4992503237995329
  0.4958637537959346  0.1643814640929381  0.2496276502944358
  0.9954244654271727  0.2520651637899048  0.8341860227255249
  0.9897715186935671  0.8344856579924954  0.2494140471663437
  0.2474194946368250  0.0849785020337716  0.7497481823064091
  0.9167498184003172  0.8357519447452878  0.8346384616322526
  0.8267539659908762  0.3335431992603676  0.9194804989342887
  0.9941754917971600  0.0002057167904960  0.9174496748016946
  0.0800256546286062  0.3321866609007835  0.9994350271213543
  0.7447532546490301  0.5858010631640148  0.4173993298670172
  0.2465231509073093  0.6662743403665387  0.8333810704301624
  0.0785771140034207  0.4159777480520819  0.0805082049217270
  0.0795083055270672  0.5842867936894043  0.9161354968595182
  0.5795051089854295  0.5827660446199602  0.2499275759349107
  0.8246664156269369  0.5833599544850553  0.1630307564949917
  0.4127424772591132  0.6701299914756117  0.3341966363310581
  0.6634472825595404  0.6634336977617021  0.5850132340649581
  0.3346172221999285  0.1653850325366956  0.4165166194180305
  0.1650039255010495  0.2533838480889338  0.4983605231193217
  0.9100128874814433  0.1657564670900926  0.5006659307212271
  0.3303409344813630  0.0835023055581881  0.8378403406306935
  0.9985394359891314  0.9170259401638127  0.8305562189181969
  0.2462447027477320  0.8350409815391715  0.1665567576738912
  0.1609505648709606  0.4170811075762876  0.9999210348185116
  0.4969925194115786  0.7528969562464705  0.3308030518275639
  0.8281850899848551  0.6686498323106707  0.9169922312191604
  0.4131202556143046  0.7493815060883948  0.7541510873898881
  0.1621771135387975  0.1679336971423315  0.7530681926711128
  0.9997219949209842  0.6683393874372652  0.0823722143603999
  0.9906607621525950  0.9167422410496813  0.1652961496172590
  0.7471118556867998  0.0837838113209101  0.2462434775567214
  0.9928610183255060  0.8319504361079099  0.7483763017832974
  0.0765996166526428  0.6679989641268327  0.3354085840875833
  0.9107632648957019  0.9159955208745453  0.7556936109623090
  0.4965937131609761  0.3322853454899956  0.2533363793575449
  0.9925192676694979  0.1668344087704848  0.5859770270604686
  0.9116507259489205  0.4156801077077598  0.4169797084150190
  0.4952726415879070  0.8365875156593016  0.4183100068455969
  0.6646452039572680  0.0820858245042002  0.8303116061000636
  0.4982983546127527  0.5855859688867431  0.0020345609858023
  0.3297550029348328  0.6633093907857603  0.9168224551347184
  0.4998217557761585  0.5011873779698387  0.7501469074384914
  0.3305138728841688  0.1664760477545688  0.5831892823460545
  0.9929706317415146  0.1682662414901722  0.2490908709206623
  0.4952371139021106  0.0838664752397977  0.0006339882779416
  0.9072657707065991  0.0866226241229214  0.0831816413950610
  0.9115261287373660  0.5851683591896998  0.0818190994374183
  0.8251503058450735  0.6672088013411503  0.0833175515202988
  0.7424135008282898  0.4132095095793779  0.0861082536172784
  0.7438393976260045  0.1660667871447250  0.5018338092165743
  0.3244619186121916  0.5020404995408191  0.7476092707127324
  0.4133503631493535  0.2478031871792155  0.2543601626507499
  0.4923295474427784  0.0003822970270483  0.7506906135930652
  0.0794321890719071  0.5831500115258249  0.4162478990168538
  0.2455363356968717  0.9149128068967450  0.7504528071425315
  0.3311437351753747  0.9971030717644410  0.7499544060589191
  0.5780460339105684  0.6675170913164720  0.3340289044428900
  0.6580658745407749  0.9171238317327675  0.1669257445318648
  0.4118184405828601  0.7493586686090434  0.2510454961243419
  0.7430839960286330  0.6682904272155421  0.9962586347143192
  0.9979699532873385  0.0812421290958886  0.6645204569651545
  0.3282607057973261  0.4136708037794536  0.1690693792417265
  0.9109040676347501  0.6682935604908365  0.5020409047671799
  0.3266622671661023  0.2463140084390630  0.1699033450244709
  0.4973576737881714  0.5863130709603823  0.1670970043060790
  0.5803002101715071  0.2510689545136491  0.5809596191814232
  0.9947207483941926  0.5038085779312995  0.2493318931775330
  0.2452871950700455  0.0027099916784934  0.8355181804751270
  0.0790494879017464  0.2474737062291597  0.4189029004626599
  0.9953916366418867  0.4962894686554887  0.5831118189362027
  0.2460666575236819  0.8284953797267892  0.8364864807985540
  0.4946894108013200  0.4173627879372470  0.3304231035503752
  0.0770765435935571  0.7461437531319413  0.5831705486929015
  0.0769337921131507  0.4980250280505898  0.8355621181738023
  0.6610018534530817  0.5877573075664096  0.3316289794187683
  0.9101745497106262  0.6680489443205762  0.3369587871824352
  0.4943321470723580  0.1682434961178955  0.9170096365918159
  0.6654929759993280  0.5825575461302049  0.5014655062696162
  0.9962852206007107  0.3337068646447789  0.4174960026970895
  0.4117323413326304  0.5847668042951929  0.4203542440457012
  0.2457081150870555  0.5014196120828724  0.1664956995541384
  0.8270865723644040  0.4148616641945549  0.3370835229050893
  0.4982412467613939  0.0028898377065373  0.9159902666958982
  0.9961978528751603  0.6686212086660313  0.7480630959593536
  0.4117481694403828  0.5871202016890765  0.7509074804533599
  0.0785863120633180  0.3346722226318171  0.5002788128563472
  0.8278961119863945  0.0864906096488234  0.5012696160656477
  0.9962261010818511  0.3309118078191398  0.0848666968777384
  0.7414214611139796  0.5854106226467286  0.9152043886903898
  0.3307554239319637  0.4162934254828770  0.6679305011234016
  0.1643127584719793  0.9168886760502472  0.5041050489563033
  0.7460188983797604  0.1661480295793620  0.0009870518635405
  0.3288250157680858  0.7521632061056462  0.3305738419231852
  0.3334360240256191  0.2491558971915573  0.3340610657074660
  0.9133190298198397  0.2523843815938078  0.5816131969615622
  0.4924114408781826  0.5037609104586166  0.4158514781517040
  0.9961927309052105  0.9970115395284683  0.7501665544425136
  0.9114943794320400  0.1670444976077666  0.6675527348355431
  0.1628500393743422  0.6669755674230328  0.5852485184434401
  0.9071673014723629  0.3305006041094611  0.9983117172924756
  0.8277534239480688  0.9142676746931288  0.5014738076147390
  0.2491012278362328  0.8355824352299294  0.3321970312770557
  0.0781339073113784  0.9987656811079264  0.0016246525500562
  0.9948173818681079  0.1651546763319862  0.4131675161077932
  0.1643853914998324  0.9171537212688381  0.3297967419463016
  0.5800823977817675  0.4144296525477905  0.4182291504624339
  0.5791303228681599  0.0822395849707737  0.0831748727043461
  0.6629474467434671  0.5819744094534575  0.8324197879462099
  0.5791815362706728  0.6653599084009124  0.1694461416949504
  0.9105236982813537  0.4138280651530928  0.0840746815430430
  0.8254244453755272  0.3335442067942475  0.4174627534282173
  0.6658523400974007  0.5859175607888488  0.6673607259931059
  0.1622372384666544  0.6678471675419180  0.4136942654520914
  0.9119168406889481  0.5836073448357552  0.2505693991776499
  0.5750828041241983  0.3316692557212015  0.3336104798404083
  0.7441269422726894  0.6670497773949629  0.8298276086605457
  0.1658916908130438  0.4137579314006213  0.1685529206032981
  0.7442263002937118  0.4208156950789387  0.7500029279330291
  0.5785148338124336  0.3327001930404085  0.8322764308415843
  0.7472243833549786  0.5018235619262753  0.3311305854873475
  0.9133795677803490  0.9151548073986235  0.5777745867153751
  0.4119495890060943  0.0872955574652132  0.9172149728813770
  0.7444673954416466  0.7546380579566109  0.0800887606696218
  0.9939758260621209  0.5809613351394118  0.4982783939784668
  0.7454001510480033  0.1615904538037003  0.1648252780414524
  0.1624265360590138  0.4132622161127857  0.3334021990824743
  0.1620172393831736  0.9998176660271177  0.9187629756204061
  0.6586418717223159  0.1650904703199636  0.4167411007802915
  0.3296139451903563  0.3326168995437613  0.9195970127062051
  0.5783876452050150  0.1667203207399606  0.9964154397181471
  0.5748264873679031  0.1647489716808325  0.3327070708470108
  0.1635563117265842  0.7530087103436220  0.6642386396104329
  0.0820072307611818  0.5857319786321459  0.7503331305740911
  0.6617630331450131  0.9164910372284615  0.6703013929954468
  0.5786070073542234  0.6701677757266529  0.2498616235137157
  0.6632991803801627  0.4170374029630294  0.4180345136158126
  0.5778744922257277  0.5821135993164691  0.3345721391407419
  0.4122563169410421  0.4162465263766720  0.4996565011523345
  0.4952707537356952  0.5832608533743725  0.5839306262945116
  0.4958080275790520  0.4999596675954048  0.6647376069994116
  0.4968737466886475  0.5846643877909924  0.7497003521494915
  0.5781477023583819  0.5000629797122637  0.9170875962707302
  0.4956161524679238  0.7534436733688527  0.2483694602756238
  0.4944059537147923  0.6695020054775354  0.1654056831822123
  0.4941476902772361  0.5825515514631842  0.2505840977628603
  0.4127275263264839  0.6692335212005651  0.4197111386061758
  0.4956779748010927  0.7515290338227969  0.0817987078905311
  0.5795449709635163  0.5011715098955200  0.7498510922833561
  0.4128119746839202  0.4992965224426947  0.9182036036986432
  0.0786897956204990  0.7518100735358820  0.4993266900156493
  0.2444365726160272  0.5848209510085440  0.3347693412208023
  0.4954382111833688  0.5008390189140211  0.3328768894983385
  0.9952198194419909  0.7525535590067464  0.4169452295867760
  0.0797311754693899  0.4169856878367323  0.4993498763902433
  0.9948927542463691  0.6667553224361679  0.6649937597299860
  0.9939892608688794  0.7507206883538454  0.5833126728091887
  0.0784456724666026  0.7500565659714270  0.6674007439804059
  0.9950880678198022  0.7502870738316477  0.7491785068872524
  0.9952300846784048  0.7514106667611645  0.9170370863518756
  0.0798083496246442  0.6679844838132737  0.7508185371068411
  0.0785213950101721  0.9141765344498023  0.0014084254909406
  0.0795931597434684  0.7498936779912179  0.8347716081334108
  0.3298252761952594  0.2500130862808830  0.4175279832233236
  0.1630857388810588  0.5818330391558167  0.5833090360671865
  0.7441615533431324  0.2493815785658390  0.3325236757414133
  0.4963741679500641  0.5852586915537513  0.4177572966043610
  0.0806719387176163  0.5843408404033942  0.5008304757686874
  0.5786280942195589  0.4978306975346821  0.2492233207628055
  0.1642228950816474  0.5816974979669801  0.7502509044111603
  0.5800969471523333  0.1660523094664390  0.2479803197387881
  0.6608296467879403  0.9991827770840992  0.1659111939843131
  0.0816892036743126  0.6683717545065490  0.0850774578564894
  0.0773571334488396  0.9999613251777213  0.9175784802798704
  0.5791098301366507  0.7515738396692917  0.5020627675599002
  0.9946500561980272  0.1671146582648817  0.0012591030301625
  0.9939424085180745  0.9159175227693622  0.0819216893843170
  0.1636899144935828  0.2481336985767560  0.0838742575982978
  0.3284271809211497  0.3308046731051279  0.1683065768025375
  0.0792812463235038  0.1641496227673780  0.2487346123905645
  0.5800817433818150  0.5812400980881625  0.1643056838914187
  0.1639447412401936  0.4172324526466358  0.4158667738763950
  0.5766358519900786  0.6685151487926941  0.4198033673921921
  0.1626284651465266  0.3300639979471161  0.3320435622006116
  0.0798120536091497  0.4993516515331035  0.4144206749280731
  0.1626596800415564  0.5018321482004485  0.1699239838866582
  0.0807253713141694  0.9989715231770404  0.7492847271432251
  0.9958505625923888  0.0015184813459253  0.8348543832446432
  0.4129310038329920  0.3330752753259623  0.2501472473010343
  0.4964536615935304  0.4172497162274559  0.2481873740116045