 B Cr Ni 
 1.0000000000000000
    21.1200000000000010    0.0000000000000000    0.0000000000000000
     0.0000000000000000   21.1200000000000010    0.0000000000000000
     0.0000000000000000    0.0000000000000000   21.1200000000000010
 B   Cr  Ni 
  17 259 605
Direct
  0.1121157877617564  0.1638011639875052  0.1675041593664977
  0.5050056147659173  0.0639118137560076  0.1642820532148715
  0.5854911708397972  0.3356416601751424  0.9994428630603542
  0.7451434409865353  0.0801590714427974  0.0853176497367425
  0.3173572373575117  0.1777271003269517  0.9243024553565091
  0.2495367798289119  0.3050827876744656  0.1605403099201942
  0.2436441288734758  0.0255597212085326  0.1697826673153454
  0.1622423353925904  0.1711520921116609  0.2365024046751993
  0.3721316658336399  0.1632864733655210  0.1957778439492465
  0.2533174418117753  0.2547794888878832  0.2293960385730692
  0.3326268724162280  0.0135132757187309  0.2356011753009538
  0.2569763161962036  0.0761968093531736  0.2367893481564461
  0.4175899870661204  0.2360759885010060  0.0756223414590779
  0.4308286034114539  0.9187556434340820  0.2387760233580677
  0.2452114916435721  0.2499246937157279  0.0874695797602415
  0.2678425000258859  0.1536652261622174  0.9855044939836273
  0.3984834673258146  0.9799256408161917  0.1925491644040236
  0.4230422167635419  0.2534528100762393  0.3434124831968411
  0.3273890624242061  0.0801649843062631  0.9203617235402476
  0.5002842815480369  0.9969021546571739  0.9967027212775632
  0.5862426334364558  0.2525797791183854  0.3357187524134425
  0.5001669530896388  0.3362286552311445  0.1720033693441341
  0.4176963643957888  0.8324211498585868  0.4203690122621632
  0.4988563501608220  0.0830004203283978  0.7495083299974460
  0.6651236212772493  0.9995134526828012  0.8334033636694075
  0.8339248020474069  0.1662525009505756  0.0004583915920589
  0.6674822584453606  0.0002821970669895  0.5016014242209706
  0.3310237224252399  0.9122830608675908  0.9128234871978124
  0.2369072369483219  0.9930406464987349  0.0738917528990779
  0.5800693887643857  0.1688156175646942  0.9155286320552729
  0.4165192595343582  0.9177821858555966  0.4996936789454795
  0.5002155593901167  0.8328978878288282  0.4993372999742315
  0.4161239591881568  0.9168609708233868  0.6662900785707903
  0.5042071501541959  0.2530235583633223  0.4190202917654997
  0.4173658585155738  0.9982767542363492  0.4155980096285943
  0.3312588035199964  0.9143710054146583  0.2466591644711603
  0.5000754930292340  0.8332548778020643  0.9959368677169593
  0.4178524899439157  0.3353853317934973  0.4189386552852639
  0.5836235312289539  0.1658074815598554  0.7487551305735344
  0.5005944820301839  0.5043744297304040  0.9991929996032474
  0.2466595329949050  0.6660997925072081  0.4167238483656869
  0.5842887159892304  0.8307144100073011  0.4204065233115901
  0.4159346668437337  0.6681799080064723  0.2494631380978657
  0.5809822129847820  0.8348717758254119  0.7475922737560962
  0.7479870287690168  0.5850839393499702  0.6682973075050426
  0.5817388545123053  0.5847541611420719  0.9988106980930370
  0.4992696943587372  0.5015261112501833  0.8314059749590009
  0.3310360674265193  0.2509294999848565  0.5813887883016926
  0.5819286474500462  0.5010274893823510  0.5845153075806890
  0.1615232697129614  0.8300135987067960  0.9959114127183013
  0.6681246444342355  0.3328835608327954  0.8337850623406317
  0.5000528232183793  0.5012088475905319  0.4991704975151482
  0.5003662539727171  0.3335554357362834  0.6681283280961294
  0.5013457892316986  0.4194789758619887  0.4188543380224917
  0.5005371785950062  0.5024431754447204  0.1661951049457729
  0.4167453543957574  0.1703176398059124  0.9148251191615164
  0.4984316590442929  0.9139417371737868  0.9147937560833640
  0.7509012376623316  0.4199936273973606  0.3335425410840551
  0.5823324772534022  0.5856568856782954  0.3331390814438762
  0.4190542442996177  0.5004623376428848  0.4197272422836418
  0.4160661347694783  0.5019053392513476  0.0806481721967325
  0.6699690689489652  0.3352067002597960  0.1668455049560564
  0.4166379611523661  0.4207554163017884  0.8277626634836708
  0.5808584565359223  0.5847014815089312  0.1657352337528419
  0.0792263402269652  0.2518679139511968  0.8305749729976135
  0.1630992370776994  0.8324856787462137  0.8286702071396824
  0.2477170443277437  0.8320909840237691  0.7461890781348759
  0.2481931083366429  0.9174156879272859  0.5002244476929157
  0.1649453025469316  0.7507226991938590  0.5845088982219496
  0.2472204546796050  0.7492397574110990  0.6655692120033062
  0.2466992118136246  0.6653371635092982  0.7491626463073485
  0.4151998848658803  0.2497313955776970  0.6663320692549157
  0.4194912986014613  0.1713303820798706  0.4223434757864615
  0.5750412035525265  0.9997875654508943  0.0887473372577916
  0.3299407517267585  0.3476041861438445  0.9891289703297691
  0.2453958754569577  0.0809253753889428  0.3417378318738044
  0.9962037116229887  0.4191279067212654  0.2511991777805967
  0.4993641948982933  0.5003467639930147  0.6647456232733823
  0.5006290408265850  0.0826941448613853  0.5838050869084335
  0.1651896144456136  0.7492299479714812  0.4156580807479330
  0.7507128969017137  0.2519742366266902  0.1685955425931104
  0.2481063680077341  0.5838232963167477  0.9971559665847334
  0.9154440701709020  0.6660342096029690  0.7486429746012462
  0.3323675952659002  0.5843044474345577  0.5826772919526511
  0.2475569511056483  0.3366115442521993  0.4180581514202142
  0.2481827599857577  0.5033021779368415  0.4169660618739473
  0.3586898989212180  0.1768225348691488  0.0094502060424160
  0.3320519471240767  0.6668474554463258  0.8313405722079245
  0.4201695556111623  0.3362943309352840  0.2522891606279938
  0.4155467913436055  0.3356991503300645  0.7470009142049634
  0.4978171559547706  0.6684431991829147  0.4995987545450196
  0.5004800877831824  0.7468381614263426  0.4182020043284986
  0.3307001256565072  0.6668918659701680  0.5000257568385088
  0.3297029755625623  0.7471243564529829  0.0798328948013258
  0.2469300187119338  0.6665683069745724  0.9131233090639584
  0.4991153230942125  0.6689237305035901  0.6659381313903217
  0.2454690311450680  0.5848308368508437  0.8312876822594539
  0.3318195047999007  0.5038671674254942  0.8295646590533213
  0.4175336189838113  0.5009945264704939  0.5844574874160186
  0.2492809114941365  0.5828029692326337  0.3328388304429829
  0.1645334519756383  0.5828864786315983  0.5829363374507696
  0.4159066676341922  0.5011663153419099  0.2495679199674800
  0.4960049425588565  0.6678750043255454  0.1679000081580956
  0.4999411701457134  0.6672822161303288  0.9984952213824949
  0.4168602361779833  0.5030189876030109  0.7472276295688496
  0.4170343775695595  0.5026348393069570  0.9142464779780565
  0.3330821956028459  0.4225655212062712  0.9103245911883391
  0.4162141630373830  0.2536862053134809  0.8276043795789634
  0.3334512699508502  0.5850960760569038  0.7488765026448834
  0.2470350230441199  0.1662349702518790  0.7485681596196103
  0.4156584130973715  0.4168284075970315  0.6651882779726449
  0.3357871323167511  0.4207871510496920  0.2507953046016419
  0.4990257647361886  0.6689981937078217  0.8307579262417496
  0.5796558905794437  0.8331442500429038  0.9167697787658557
  0.5007319654019722  0.8334230989285299  0.1693386442138761
  0.9134975382712336  0.2514349788644853  0.6666472132115854
  0.9150591805913566  0.3372458508093025  0.4189295525225347
  0.9151772470702679  0.3368988715537890  0.2495084795299955
  0.6658908759860611  0.1696405494589426  0.9973174504435601
  0.9979656721494122  0.1693623441407459  0.5016896565193907
  0.9157171200575269  0.8292047694413479  0.2486272791523530
  0.6641386711668839  0.1665539239810518  0.8341794972957294
  0.8308424941451241  0.9987891679099434  0.8323311398593122
  0.9149929441806812  0.9998654619398678  0.4173603272590884
  0.9176235028061118  0.0839534616511013  0.3343376677745998
  0.9151531368764819  0.0828490415129288  0.9994705058880011
  0.5818597643370375  0.5032398323835009  0.0852258070851625
  0.9146542326325640  0.9144784090592893  0.9982511018374943
  0.8342423927860514  0.2508260502326248  0.0830408815787167
  0.9155850935924225  0.8345692445926433  0.7489850867573851
  0.9141633847385040  0.0825625897996257  0.6651105629414950
  0.1647102775455728  0.7493163728687495  0.2511636841036941
  0.8335574351288566  0.9988131876374149  0.5002185843427334
  0.8318959567370091  0.2522150156098797  0.5844188719482533
  0.8328775645422677  0.1684182857736744  0.5001343633457367
  0.9133083428595354  0.1686829085429065  0.4195545594459612
  0.8309975724477501  0.3347521184636035  0.8335134706151193
  0.9137811259177583  0.3337957171524976  0.9141935762026063
  0.9142065800280273  0.6661379858125689  0.0830778392625972
  0.6686040964714502  0.0832887079589970  0.2545930381519418
  0.9125785412415069  0.9987330711823790  0.5816610926418202
  0.0036755532391904  0.1708365492108661  0.1662301508293823
  0.9124262056897366  0.0819737083596006  0.8321563079941706
  0.9146920144373774  0.8323025328751570  0.5828421195988140
  0.9151591235428208  0.4169542084024472  0.6670067287173534
  0.8305357693903318  0.6662243634784619  0.9988491368039200
  0.0818327348256762  0.5841677222056344  0.5001711173366893
  0.9953054528487043  0.4174963907964387  0.7467301260141846
  0.9954765041333022  0.8314207543030635  0.9979203158953007
  0.1611845194484641  0.7462582936198867  0.0816738271668827
  0.7485567811225562  0.5836966314177039  0.9989617712919691
  0.9136198581993863  0.5006446771019243  0.9145706901394421
  0.7488791078500887  0.4169697972470979  0.6678707923627443
  0.9156547676662121  0.5850030478673715  0.5002075461896046
  0.8347129740676235  0.9981561518619614  0.3330635016742783
  0.9159298300925585  0.9973908625484043  0.2490143398334247
  0.9156732188450766  0.5853697730296382  0.6684019659616467
  0.8318435494714868  0.7509727490488337  0.5842763200576794
  0.5882778213752200  0.0019377458836655  0.4212107929424840
  0.9972396259326951  0.7480094346752449  0.4158243906913103
  0.7481868785450972  0.8305503561091899  0.4179032815271219
  0.6672741084550697  0.6647849882366179  0.3323140814083460
  0.8338183645372029  0.9987111849957999  0.1692656579658253
  0.5807916335672404  0.9994247235999274  0.9183569566841521
  0.5063469705049159  0.0842231472723666  0.4222561043748477
  0.7477831253118566  0.9157137835458151  0.6674612781252429
  0.7501751417342087  0.2526377237604246  0.3335265951432103
  0.6681989719592194  0.1685216057739801  0.5021185866480186
  0.8371223967904906  0.0839911464052786  0.2528508437916971
  0.7489719472809757  0.9998636848441098  0.9153170821474635
  0.5838598379805494  0.3341487239935841  0.7477274657483114
  0.7479238747007098  0.0827771970033086  0.6666705439856164
  0.4999177461251308  0.2519655140780298  0.5860503567318225
  0.6682600573599712  0.2521205166667642  0.2505935625165769
  0.8325414998215379  0.3337188670998355  0.6667485958258528
  0.6657184758162850  0.9133814354532983  0.0833068226440488
  0.6666918909687720  0.2525709362885108  0.0847806226408020
  0.8412801358894505  0.0852428830689440  0.0816390477900830
  0.7503998870134033  0.2512250750954713  0.6665855861062305
  0.0816773247150322  0.5001796447325276  0.0826332170870817
  0.4147479897793274  0.8334483769342578  0.7469848426331105
  0.6657010214703661  0.7491960895105799  0.0823057150920628
  0.6661406726216952  0.8329748320230013  0.5015503470159028
  0.8316212384986120  0.9149624377470406  0.5825187403221352
  0.5020674740975806  0.1672532217763524  0.1719411991257129
  0.7499020187182001  0.3334260410726423  0.9145174377911209
  0.7479312095842032  0.8325698136295259  0.9154367777247989
  0.4155694372404153  0.7508249922044903  0.6657757594322617
  0.6674447762366148  0.3354144184061885  0.5000046776577060
  0.7481477450471559  0.8328401755371513  0.7497209972688358
  0.5813655625675014  0.0024181209707022  0.7494468813226389
  0.6664471644791466  0.9149941903474218  0.2521321265334971
  0.6674084359031017  0.4188421713838252  0.2504145811804757
  0.5835976752929299  0.8328008957350278  0.5810505148468549
  0.7479450864513068  0.8332982541427408  0.0831097465738591
  0.6669106865413211  0.6684988835672301  0.8302906078739873
  0.6680438993162853  0.6669891353283633  0.6692911445013189
  0.6682276422034958  0.6649153012052477  0.5016770694030651
  0.8305741573287244  0.6644506962988073  0.3319588178493328
  0.7477373450439440  0.8315170066645522  0.2500824696144860
  0.3301025380989658  0.7463453029553409  0.9112099948443796
  0.7476601867505096  0.5011705075258893  0.9152932089667661
  0.7478727788235234  0.5857233622086094  0.5014277497067753
  0.6655786459563205  0.5004752078758749  0.5018301434838701
  0.7481577800021748  0.5840449117470409  0.3329765420393715
  0.8330456871646905  0.4191814614251659  0.0815581794088245
  0.6668852539313134  0.6665661600198685  0.9986809988671558
  0.7479866992581532  0.6676902163406030  0.7487908560064563
  0.5823953721667019  0.4171019542989529  0.6664174016800825
  0.6649768648966826  0.2495740343442842  0.9162363542300105
  0.8307544776907408  0.4205084259636885  0.2505258581957223
  0.1629054732252146  0.4212160122169918  0.9117770477303124
  0.4222994331228087  0.9996850988983639  0.0798444024700065
  0.1645031111676699  0.3354399928837122  0.6660670865992431
  0.2508687125965695  0.2557410423991359  0.3393134100079363
  0.2445281164868656  0.9138820217890626  0.1613362370898757
  0.0814789352185733  0.6654718822403890  0.0829350476504118
  0.9950901778942318  0.8282704288577010  0.1655972770776110
  0.7480007462641413  0.7506140015606798  0.8315569468696118
  0.1637375012200560  0.2509401418677930  0.7472077412784994
  0.0760869304248610  0.0827627351712432  0.3379114383930797
  0.2488487602441759  0.5830386178026563  0.1651082822339062
  0.9140005296430145  0.6663218006153654  0.9167357884486609
  0.9963435817940494  0.3364974241567983  0.9960091300714545
  0.9970395994264560  0.3339208536206575  0.6647033582986085
  0.9953448205712903  0.2502744344204992  0.7477408992031199
  0.9970181147565476  0.4197809864849323  0.4190000122065670
  0.0804347279280144  0.6667507034156352  0.9144636552362049
  0.9961062096686252  0.9152198588981988  0.7485716105948919
  0.0783600573873114  0.2569370363350679  0.3396544214678309
  0.1562340667031896  0.0754135374260710  0.2667892727958356
  0.2488156822748885  0.7493619525331052  0.3337325083581840
  0.3295914495495508  0.6668766704923739  0.1656537256839414
  0.1593323839110527  0.4229619256395059  0.0801301754283425
  0.0776582584939969  0.2562552442571379  0.1648342716966993
  0.3308971017900865  0.0826504054609817  0.7482700600771037
  0.7494288143400653  0.5842374909221052  0.1646363448068431
  0.1646760895628307  0.5009816262772521  0.6641902160183547
  0.9161349749396497  0.4176056638746745  0.4981879000466118
  0.3342692903575236  0.4169687203389830  0.0807224335625627
  0.1547027351301547  0.0776104881018348  0.9095145797371381
  0.9940318530425212  0.9135246385586310  0.9150347987697446
  0.9968552743488307  0.2508170892531189  0.5840663128338713
  0.8308280831249447  0.5006492650988368  0.3325237789178193
  0.0758742379558407  0.9951302393534208  0.0811120332556656
  0.9978292458662248  0.4200924341042619  0.0808184090241971
  0.1622367775892052  0.0837669812286042  0.4156209975825916
  0.9144341173608882  0.8289670594307477  0.4167093704437119
  0.1649068581248483  0.8305458785022084  0.3351681623611844
  0.3318376367671205  0.3356503534882068  0.5020874782285141
  0.1651951561383338  0.2511300746867785  0.5833808595390297
  0.9150802372597773  0.7488349401395594  0.1672078761900669
  0.1649353155257941  0.8333670936949676  0.6656858429389749
  0.2466303599711966  0.9973484113239816  0.4184357132823711
  0.1643412365611994  0.4193417497527475  0.2510044144547294
  0.2479634463932208  0.9995469721739842  0.5797919241201247
  0.9928817271290828  0.9973605259873937  0.3356317548428591
  0.9979619825719076  0.6666335627442744  0.5004113831992544
  0.1640147734900561  0.4179597012203734  0.7462025568840446
  0.0785947539714931  0.9984098171511897  0.7478677565497687
  0.9974365116204388  0.9984585022227276  0.4999043281450664
  0.0812548158459931  0.0818698546965234  0.6644232459650216
  0.2464582657491360  0.3342703024610827  0.7466546194864702
  0.9959705471905657  0.1668587647590547  0.9964792543488421
  0.9976318241976561  0.6678551966395639  0.6648953196433749
  0.9961436158536831  0.9965771278900472  0.1675590173823520
  0.0797181424575517  0.9137326716669119  0.5004924102073640
  0.1581021277202618  0.2517723386988627  0.9104562171204547
  0.1587277375680878  0.9091554475569212  0.2520969503424417
  0.9980550595504895  0.6640635419384873  0.3332925094151511
  0.9978691044329938  0.5853770618618140  0.2504301697104799
  0.0776151181614142  0.6645708571630869  0.7465223764759964
  0.0788889539237548  0.0809446344099170  0.8290944847773208
  0.9969356673780206  0.5829158145088600  0.7499906100684546
  0.2477699849265111  0.9999049792889788  0.7469995893089475
  0.0815519846282820  0.3359560864076123  0.4187011939079476
  0.6646893425930477  0.7501992275630143  0.9150600541760864
  0.7479872257543233  0.5027999344526761  0.2481857250028290
  0.7485309974824014  0.5025661202412307  0.4176091917110233
  0.6659250290469682  0.5840281412228671  0.4175670135090725
  0.6667283476271995  0.5026837863489028  0.3329837539387763
  0.8322885439697545  0.5010028709745641  0.1655843235229628
  0.6653782655131339  0.5843338773451527  0.2487474759327075
  0.8315121492985291  0.5838559270258910  0.0817220220544577
  0.0800690921070147  0.5003359527150446  0.7472442761428175
  0.8313821447392788  0.7493920517801929  0.0821839100616644
  0.9976191380976368  0.5844154924586195  0.4170787059624150
  0.0812940036764800  0.5828886619921722  0.1660950121662770
  0.6666777119971870  0.7478297800839255  0.4183264899698277
  0.6635969615262481  0.7521059395814652  0.7488977635014213
  0.8320543367346790  0.6661233593813752  0.5011078138838576
  0.6665022137359012  0.7490157271330348  0.5842914591043981
  0.6640062065073353  0.0839911435771330  0.9163586470748588
  0.9973290213888725  0.7471415313415316  0.0813630188992469
  0.1646521029322585  0.6657514322634214  0.3325179744794254
  0.7480279266347769  0.0001788830548032  0.7502419723736216
  0.6643123481698064  0.9164082505209905  0.9162252451431404
  0.8322517771426736  0.2497540724027845  0.9153998393812793
  0.5007147240626347  0.4213949168506202  0.9126243279658539
  0.7488888774248073  0.6655985902278939  0.4169405176791547
  0.0810407094109631  0.5009215339316824  0.2497732907408041
  0.7487456630363462  0.5015698528239204  0.5838605919929404
  0.6666241968012871  0.4181060290787709  0.7498627566918588
  0.9147403137622219  0.5004184378234090  0.0824582413336912
  0.7488302587385579  0.6652327583865860  0.2486440302319982
  0.7477141119623151  0.6671780240209474  0.9152187839899706
  0.7479467157275769  0.7502095832692828  0.9982654746230663
  0.8318422963536616  0.6664989818036217  0.1648908005947564
  0.5837347258765796  0.9156767757032725  0.0011480545811247
  0.9972774812750650  0.5012591270520964  0.9980212291375367
  0.6653890369075270  0.5856469910919084  0.0826232290460718
  0.0785597060702388  0.3365809683562889  0.9118680824968982
  0.9968937994674260  0.6654521725249152  0.9984298076099554
  0.6652064371674383  0.8324927287446481  0.9989279554704326
  0.6666863846707191  0.5013598081237329  0.8324911945479434
  0.6652236753835387  0.5849789729991920  0.9145901537539796
  0.0812446702989825  0.5831322924170068  0.3329380605167466
  0.8316216419578177  0.5841766127534660  0.7497163807974617
  0.6676666810853241  0.7474889940067253  0.2499102125387414
  0.6572006254443286  0.0835477049710948  0.0803628003699663
  0.6692218541326126  0.1695751088359475  0.1683968746950132
  0.8325300589803268  0.1652770141047110  0.8319248735672302
  0.8317699696826307  0.7503558412528943  0.7493716683254125
  0.7502276194823290  0.9999696447485917  0.5837384088235974
  0.8325903112965980  0.0841755790965454  0.4172103027677209
  0.6657689269007617  0.0003102869963979  0.6672573103885089
  0.6651826320572710  0.0831247642560255  0.7507069623908755
  0.9981739043906415  0.6654109617707972  0.1660274816244567
  0.7479349185535732  0.0830227063272548  0.8341263946480019
  0.7498155816414289  0.1671695080647177  0.5840817764745673
  0.7489392874784487  0.3354606806326295  0.5835785512657843
  0.8313258255927207  0.7479082734748227  0.4165468808925171
  0.6694346246485910  0.0840891944500528  0.4196014982820765
  0.7506638825388162  0.0834817751930301  0.1741904215496759
  0.7483710923757834  0.5849166759109804  0.8323434978268580
  0.5000393204326473  0.9168755304518247  0.5829214761797060
  0.6673772712004857  0.3343971695635010  0.6673810671323889
  0.6643364238046749  0.5831767420140628  0.7499623348930267
  0.7507079732857179  0.2505299811695456  0.0003222367324041
  0.9953826501494116  0.4183845349298616  0.9145532885535436
  0.8342080817994992  0.1676747503140093  0.1670573851635224
  0.5840403669190638  0.9167045284034983  0.5004668417880526
  0.8316605309802549  0.5019267811690193  0.9983303257006327
  0.2416966191862413  0.3424653544806550  0.0740456307988154
  0.0752498854677621  0.9959212501596995  0.9118692157454074
  0.5853156946068064  0.2518401770500758  0.5019338344461804
  0.2468257434942522  0.6657668453354408  0.0808726885849469
  0.4162635927090198  0.0002438788086338  0.5830107904096151
  0.4162586015394089  0.8339217681037087  0.5828671222650499
  0.2458790905869275  0.2526748813152771  0.8309449380813200
  0.0799981728809000  0.9992649389674182  0.5821169488281124
  0.5820849025159858  0.2503677157558223  0.8304493410429874
  0.6646985229985458  0.9167480424955544  0.7500732604453579
  0.1625294985645007  0.6667239914676358  0.8308424928549679
  0.0798639356807164  0.7475698541064691  0.1661795855788276
  0.7487369438587628  0.5014684579541890  0.0834616931480436
  0.6679348323490243  0.9984980604263241  0.1666274071173899
  0.7523585305921169  0.3349028899255031  0.0834296402722185
  0.0822770070348545  0.6654460903251386  0.2497759882859796
  0.4988693806330243  0.0004268640528514  0.6662519077074927
  0.7520398215498332  0.0831937603101047  0.3343701221661089
  0.4160904604421764  0.7507390037765803  0.8306547188737284
  0.7509251407512388  0.1680870171066172  0.2519968568185846
  0.9136090937420791  0.7476016228697039  0.3325681852304928
  0.4989077093803326  0.8339294272525979  0.8307563983393391
  0.5910654448340993  0.0866172078723610  0.1695502235815019
  0.0816312814143830  0.6659485948698464  0.4163753653300892
  0.5883992585454488  0.0841960062924506  0.3372180191981819
  0.7482524533925086  0.0841165484054398  0.9956652618858126
  0.4159377533076274  0.6668775322347789  0.9137327592790986
  0.6668654457336843  0.8317686014440101  0.1666823549317927
  0.5813496476508933  0.5858512879585032  0.8317988744213989
  0.6668189069349026  0.4177287727513387  0.5841035932808409
  0.6653750302580330  0.5843022152238817  0.5846740875368033
  0.7483311288652686  0.7514502008754597  0.6676233909515756
  0.1663253887556655  0.5826000799955473  0.2495481160053359
  0.7489892784699829  0.7479806127590750  0.3338233019614671
  0.7478236648465362  0.9152897527682705  0.9983952945566091
  0.0796661388427950  0.5841338603186689  0.9981418037471866
  0.5840278256584263  0.4254126003983569  0.9980779658505984
  0.7490593596108033  0.6662893092807940  0.5851913854329744
  0.0774391607659491  0.9117885254293938  0.3350808545043303
  0.9966989929543992  0.5009965699202457  0.6657413551532032
  0.4147222390713753  0.8283218334275885  0.2497033211418684
  0.7486801712960069  0.5013101661388528  0.7487494185154462
  0.4074908043174395  0.9008860975350604  0.1499608092999143
  0.3315270192817057  0.8324152564764914  0.3338178225319050
  0.5063737822211715  0.0840168241883885  0.2568853130598209
  0.9170849018715928  0.2520460844509458  0.1656316783384258
  0.7491588538161347  0.2491733982613582  0.8329993111649997
  0.7497064107981323  0.2512293593373875  0.5008633205715420
  0.2490796691473609  0.4187083990560230  0.6646694383263014
  0.9969159606687333  0.5008432565000639  0.8319540245655749
  0.1640525423277225  0.1673031437967096  0.5002888801349070
  0.0802531812382196  0.5829685571327259  0.6646623588731896
  0.7490074968031878  0.4175876395781378  0.8332636846760548
  0.6739272408490680  0.3347350141593383  0.0006586738272794
  0.8337541141339528  0.1688496165211079  0.3341350634303007
  0.7489091869408548  0.7499015127609191  0.1654214263327292
  0.0804231326106537  0.5004869104819393  0.9135861143675986
  0.6681314988290702  0.8307211322170837  0.3354270005234216
  0.9967637462714583  0.5845243540497442  0.9149669315260293
  0.6685429514528977  0.2523287967786549  0.4173298369790189
  0.6668375085182159  0.1664573021804898  0.6673423249615408
  0.6680709243490172  0.2515405225691746  0.5843338507895153
  0.0797778317480087  0.4182149086497968  0.8298840983599347
  0.7488314495747448  0.1660382460302791  0.7494982770797142
  0.0744929021096482  0.1693094596591315  0.2571496708811951
  0.9976027180216409  0.7457142848247484  0.2509579006378811
  0.9140667739909889  0.5007995363417490  0.7488389619259921
  0.9139855832404323  0.6652094438987033  0.2492963777444173
  0.9965406898911469  0.2533199823890160  0.4195237128248847
  0.1612536806671067  0.2613471798172838  0.2604972987712866
  0.8308301007473233  0.5842990120408573  0.9147363872361259
  0.9145870541181764  0.6653568767221818  0.4162039282766942
  0.7505168715638689  0.1683579815061714  0.4179357882490908
  0.8316337881744622  0.5007364101994082  0.6666289877058831
  0.9959108984434000  0.1697482164386889  0.3376279241032186
  0.8315381896917731  0.5014474716720572  0.8330412573149865
  0.9977412301196581  0.2541034330591551  0.2520322601710013
  0.9144889459947142  0.5843529114363524  0.8329020963014399
  0.8307962855216949  0.7483915729088698  0.2496599428494320
  0.9155237527688291  0.5836219686668758  0.1657389970844066
  0.9139415223062954  0.7482938885586226  0.9989967105710668
  0.4187233622082338  0.9109916209381252  0.3371973910581799
  0.0817877781571889  0.2519671371560846  0.5010996052673707
  0.4992093584945748  0.0884482381328127  0.0775817173880293
  0.4993357926900289  0.9171508922343434  0.7488039700754808
  0.3307760002025741  0.9166779681451386  0.7473614527877405
  0.5816942765668072  0.9171381687667124  0.8325405637487209
  0.5828861252377840  0.0837824274835767  0.6663395157047139
  0.4893715756673237  0.1726456013239138  0.0029488883392308
  0.5840494506679129  0.1696412053857962  0.0854604324219084
  0.5857147472141664  0.2518128310287621  0.1699778551478019
  0.3322813443357789  0.1672153523061557  0.5000421150588376
  0.4978758440423358  0.3404881768449212  0.9970267982518142
  0.0787029780400738  0.8311647895189718  0.9140944337025525
  0.5089533329488580  0.1683999287468356  0.3402968381755083
  0.1624218738272272  0.9971113867781336  0.8291418664701306
  0.5880078020873513  0.1682886696977739  0.4209834332141862
  0.0802988711287536  0.1692805884408580  0.4180936792483364
  0.0766607292116849  0.9953240311670613  0.2530884521820704
  0.9977975845779664  0.0834313298296887  0.2508229079948075
  0.2345723792193639  0.0700621900793537  0.9919021781496170
  0.9958073096186858  0.9974039651621692  0.9977499148709493
  0.9981572514440494  0.0830417609705756  0.0825194930275824
  0.9135596361283975  0.9156646872628830  0.6653282144714849
  0.9137911506848244  0.4179908560327588  0.8325044412456629
  0.8323334766421148  0.9144674275034492  0.4172080144943469
  0.9968567763204089  0.0831103219130184  0.5823797890259426
  0.7487287887290859  0.6671375748362638  0.0823323658486784
  0.9970539967377594  0.6665269749366999  0.8314305031866560
  0.9143905433674706  0.7493582952370499  0.8319386285022999
  0.8308947348178340  0.8323587551944868  0.9985912097185961
  0.9139777643000394  0.9137302020452125  0.3339350353450535
  0.8332874591479930  0.9140407019730297  0.0831963811137614
  0.9131842047851169  0.8317562296985995  0.9151497633347275
  0.9953998165000586  0.0818889836727971  0.9126674840629591
  0.8314352091593235  0.8315261998593034  0.1671263651870784
  0.8312378639790798  0.8307361182584497  0.3334744055594959
  0.9145366661815894  0.9130266177953030  0.1663841107065687
  0.8325251252915959  0.9137708216103299  0.2507598985125259
  0.6693285986500761  0.9157054398982419  0.4198758669699921
  0.3312853541850474  0.1659584130247342  0.6650022959860598
  0.1628311071954734  0.5840340033087164  0.7472930108365713
  0.6663958229394278  0.4191250949239745  0.0835220062142837
  0.5838366167101248  0.3365626834345871  0.0896309262971055
  0.0795058945037190  0.7477221185092473  0.9974596376317861
  0.9959472212744710  0.9132334843931026  0.4172830767615219
  0.9136783593470160  0.9996490787458944  0.7481549752048325
  0.7507082456804324  0.9918921981389210  0.0836281348759113
  0.9136681794991929  0.1655873082139652  0.7479968588980844
  0.0820120143029198  0.1669432221255884  0.0781006571358768
  0.7507665107709418  0.9999206775442412  0.4180610974892327
  0.5879310410844150  0.8282244576909019  0.2515400044308769
  0.9971544883613864  0.7492333758506322  0.7490699706662491
  0.5018277570281252  0.8291031245725238  0.3388468490746079
  0.5041428179221158  0.2531395573716720  0.2539919438587679
  0.1574767628058374  0.1656280370787927  0.8249999123226075
  0.2314999263094379  0.1631652247898450  0.9022757379074020
  0.4163951059020686  0.1671986404025642  0.5827011107319156
  0.2475966113834130  0.2518773868893380  0.5003697725102016
  0.9967161219363728  0.3371721475128673  0.3355505142246719
  0.9134169512941649  0.9156652009444071  0.8322331169471332
  0.8322123129400080  0.0832921245002897  0.9159320322915525
  0.0797936192534874  0.4190859732092548  0.1663557443889043
  0.9991340109401938  0.2521069625573880  0.0800305023942924