 B Cr Ni 
 1.0000000000000000
    21.1200000000000010    0.0000000000000000    0.0000000000000000
     0.0000000000000000   21.1200000000000010    0.0000000000000000
     0.0000000000000000    0.0000000000000000   21.1200000000000010
 B   Cr  Ni 
  17 259 605
Direct
  0.7515881724307700  0.4174712983312910  0.4182135359851430
  0.8982387904116962  0.9305525013793777  0.0977950174237574
  0.2558666853546505  0.6658220914868952  0.1622656244928293
  0.9998571010923032  0.2497478097934223  0.0010759200204152
  0.0769489690371614  0.6675118071995960  0.1688716573814576
  0.4235220626482961  0.3273582673194436  0.8267198102088523
  0.4815208189848412  0.1647635386771930  0.0777078290024913
  0.2435205363146999  0.0846817432545259  0.0849179229837120
  0.8376580936002905  0.9003289231765198  0.1488699632817471
  0.6724265874701655  0.0858886337909004  0.3321116506014701
  0.4184120630408907  0.1585886739088006  0.0159849293588351
  0.3396423363925495  0.2388422983744094  0.1635179625078733
  0.9313780296076138  0.9867017761840944  0.1493932339501346
  0.9071564978552860  0.9855660110837050  0.3494840978551186
  0.4230695144857252  0.0973594615334309  0.0800353071636141
  0.2484210787222738  0.5849371759203340  0.7501621236451794
  0.8450191248618912  0.0156453677067836  0.3935577758987623
  0.7484657621213447  0.9160148493239608  0.6663331096566143
  0.7485146456763796  0.8308003686686676  0.9130417361854585
  0.6649807064945454  0.3347496577101591  0.1663514017411719
  0.7498295066944756  0.9157881924992931  0.8322819525593007
  0.6656488910881684  0.3349972069887334  0.5030809044986574
  0.6656748090319573  0.9141668446566985  0.2488985008439444
  0.5009973237683533  0.9173122823072509  0.0802669328131891
  0.6674385718838627  0.3351453129945947  0.9995702465824965
  0.5832802627344051  0.9162786584755606  0.3331593218179638
  0.5815392626914690  0.8320678991921805  0.5837946454496994
  0.4991055402630817  0.8337808989978150  0.6663040359121892
  0.6672774497269782  0.9150528237262302  0.7477913931441905
  0.8373263124942670  0.9162284440737664  0.4117868837068530
  0.5825926234341466  0.8309524964161815  0.0810902316870676
  0.6652153191810031  0.6668776486427072  0.8317050150288698
  0.6666651015918589  0.6677834654654378  0.6651933476534881
  0.6655937280611821  0.6648946221615259  0.5019159921896144
  0.7494361769531269  0.7455496543240741  0.3361489470121184
  0.7420055603404998  0.7441709540476404  0.1666864586202356
  0.6633181987760673  0.7463379219547055  0.2499706761377587
  0.6661592320154028  0.5018927721287867  0.8311852148460775
  0.6660645794373686  0.5832482936103061  0.5829972212570059
  0.6633975718962770  0.5011921524692389  0.5015816081738877
  0.7490038975846890  0.5838580490949994  0.3328551968339650
  0.7484055407596276  0.5007605058406243  0.0840098816867236
  0.6643463634256096  0.5812963812857131  0.0836514015339794
  0.8327671930646966  0.5018865125492522  0.8332321429342306
  0.7496614432736859  0.4142726100668113  0.5123303404746333
  0.1640805516148159  0.4190751564091246  0.9160869666582981
  0.1648361991172222  0.4997466493554401  0.1685534793915247
  0.7429683252808182  0.9983352874003899  0.2412962733592016
  0.7471847541640904  0.0041978895038454  0.0806924760649873
  0.8335808373514993  0.7505192165494468  0.7479232246099268
  0.8344027685161992  0.7508348334682927  0.5842486500470504
  0.8330613400812232  0.6660727288725267  0.5007663085033608
  0.9144556551666375  0.7447359773997578  0.3357606451590263
  0.8314429830460356  0.7466358504560066  0.4201065544219885
  0.8317505750426241  0.6627914949262147  0.3342081903285943
  0.9162035221612150  0.7510859718739830  0.0005928793811467
  0.8321430920429284  0.7447725170137540  0.0750826902850603
  0.8319660428895113  0.6644254079631687  0.9987748778229334
  0.8318503314467076  0.5815984459044720  0.9147149686217829
  0.8361779219480197  0.5008427483146205  0.6680505747104503
  0.9179352997756111  0.5820077958328622  0.5020762638319147
  0.8232734580767630  0.9879712867720707  0.3039827799356578
  0.9224368914004394  0.0017410770099375  0.2498215483482492
  0.8335288128844072  0.9973183769495011  0.1640756859362129
  0.6661078326100699  0.2511237241906753  0.2479921509751348
  0.7490157086110607  0.3336797098369534  0.5864755985922362
  0.5841188557214249  0.9916635880459810  0.0801002998892536
  0.7486564595915861  0.1690390165792022  0.0810482349319433
  0.5827943177018408  0.9988495647273123  0.9138594112672228
  0.5831097241849206  0.0007153875864749  0.5834400608518090
  0.6665231647615927  0.9986812118465285  0.5019328518509240
  0.7695219179764509  0.0804326797027776  0.3421040197895203
  0.7488611332996895  0.0007266749244023  0.9108351738262792
  0.6669480048232602  0.1664634937560711  0.8294580377408352
  0.7490609557265888  0.2515928413319160  0.6676836204521253
  0.6647611222591691  0.2509815526125755  0.7486672039515158
  0.7505536636555347  0.0846432682884679  0.6646408004472927
  0.6646521991501340  0.1686743084881334  0.5036853519051571
  0.7514566207196024  0.9974370667048351  0.4185797996762613
  0.7505237907622793  0.4159112065776393  0.3245151641461850
  0.1660155570244443  0.9993061729122442  0.3373912730877281
  0.1663327381850637  0.9149915760354214  0.7508000788694442
  0.9172733051707375  0.8295325892412683  0.4171233453023586
  0.0029198082940482  0.8257449825952228  0.3304474368160166
  0.2490790815143602  0.4173635802780954  0.5001997490153881
  0.0869350435043006  0.9986801494223512  0.5860766947613306
  0.0018271216361517  0.7410634183858051  0.2491990249498388
  0.9987406571765981  0.0844422234280260  0.7484272549534652
  0.2484788644318258  0.0833937239268159  0.5009291273556775
  0.1655566295510448  0.4162680868965059  0.2514881773854121
  0.2506531867820529  0.3334857703796262  0.7493871601892061
  0.0817095304626118  0.0864462918287921  0.3382903706799854
  0.0007207089519425  0.6653146633165390  0.5021757167825742
  0.1631617603136470  0.4160464798920558  0.7504603891641094
  0.1685873841571167  0.1674704278038318  0.5000937000248563
  0.0044421943846854  0.0870976396079087  0.4197543716639370
  0.1675251063124951  0.9976713093957206  0.6679753013053087
  0.0878225483212944  0.9998910917128457  0.2567591888285845
  0.3330090798327309  0.0823867182056875  0.7497382280803188
  0.0818636202039923  0.4177646862433996  0.8343248262236581
  0.9971227042743251  0.9985379169088840  0.8347366852186703
  0.0820200028113894  0.6683658839212304  0.7521437772052507
  0.0844474613421586  0.7476919745418774  0.3355708388435878
  0.1660761424045438  0.3333173527275830  0.5002009468967284
  0.0045221565324317  0.9998362505333692  0.3354646802855227
  0.9981719425585488  0.6669064930900090  0.3344062783676845
  0.0835476876263286  0.3359590002085292  0.9166260260027227
  0.0836046860265970  0.7492451613847174  0.5011830569720499
  0.0189690971224938  0.0055331038764841  0.1736974205754653
  0.0003733098221489  0.7494529629980996  0.5854760438218263
  0.9973313355302623  0.4181050562124319  0.0835345850848581
  0.0852228897038407  0.1669169108182740  0.5862492301321360
  0.9165674848458748  0.5829976135581647  0.3347326131594295
  0.0029272819011512  0.1682204597268191  0.6688884637333246
  0.0855318066167045  0.3351009771688858  0.7517239764318057
  0.2500779232147665  0.3353817158907137  0.2515390079917662
  0.0855809788502561  0.8315303678386905  0.2521809998972870
  0.9961797500394279  0.6661335066757630  0.9987700393315470
  0.9978687804998456  0.9229898278910875  0.0876195269931209
  0.7495745499350713  0.6663065693664373  0.7477457333057557
  0.1660781646133997  0.1663671905571116  0.6681001870773278
  0.9172490926312296  0.5017488542517332  0.5863918614350068
  0.1670203716573027  0.7535243145658987  0.0794694470902115
  0.1658550416005493  0.2535103512062596  0.2518185188364955
  0.9167262237007126  0.7458039933606884  0.1635074812042149
  0.9995843525129671  0.3350246850680095  0.5012539528405273
  0.0828521094161685  0.9990326619796626  0.9155239229973421
  0.1658613809550723  0.0832756567929263  0.4190904507483545
  0.0015674678601713  0.0031570944661636  0.9939667194371814
  0.9961748098010698  0.4993482952179040  0.1664606569530396
  0.1644843997883849  0.6673991537150585  0.8346855812521500
  0.9991477618489759  0.6681011187326364  0.8335929041609769
  0.9999360728244738  0.2545105051783493  0.4199814338085794
  0.1654868946837925  0.3364574187007602  0.1682943185709747
  0.1658588717606186  0.9144277611604250  0.0821027920232507
  0.0834605893556913  0.1676144400518174  0.7485593095422785
  0.1638061009254594  0.3363233867917446  0.0005587432150129
  0.9994412551087675  0.2512495275185639  0.7503031809036285
  0.1661342509251443  0.1661886357887106  0.8321039739502143
  0.0828190582678155  0.4993378206663999  0.4167188773250795
  0.0838905240159962  0.5003580844279570  0.5838528338816850
  0.9970603127727238  0.8343162026672438  0.8341741908843067
  0.2456943798963678  0.3384012507147326  0.0849425236799078
  0.9979689868056634  0.9168272396084449  0.9172340182233021
  0.0941402802044263  0.2516724191341212  0.9991257859898180
  0.5000956246480509  0.9155952330407998  0.9150597539710200
  0.8331452199917756  0.7477215151037430  0.9157422041625537
  0.8334997800350443  0.3360415451115316  0.6671059992817514
  0.5799900980422512  0.5839711082763115  0.3355862209799947
  0.5000729423431166  0.5841269006550363  0.4167661460776591
  0.4999768695440729  0.5013000637418935  0.0003793571475982
  0.5861583593572965  0.3360970177208426  0.9178639411303490
  0.5006768690947622  0.4206779498455840  0.9177033484664180
  0.1659026428428356  0.8332977749549565  0.0011207457413199
  0.6673620033056287  0.4180841402956215  0.7484896772368724
  0.4974411427792529  0.4152340946392015  0.5819032630016797
  0.4991507362145517  0.3323694441495700  0.5006796277247810
  0.5825118405378511  0.4158526710189950  0.3326966001212061
  0.5821213599036364  0.4155661853252193  0.1661849828037671
  0.5005611952880430  0.1654787324302315  0.8332209130687191
  0.3327017100852390  0.7495187486579020  0.9152536735363357
  0.5809391145778595  0.4167849512433873  0.5023460227883155
  0.4178220084191470  0.7535403445411613  0.1669419174591235
  0.3314201118698791  0.0838645672292272  0.4179041232075161
  0.2503134258252868  0.6659782209714225  0.4162659793977085
  0.4980796367853326  0.5861325996699488  0.7492845057652809
  0.3311110425789396  0.9955372876784664  0.9965662265525592
  0.1653607531694466  0.8340633072454676  0.8335492454917957
  0.1657355604784451  0.8340782551822069  0.6676956412260100
  0.3301101594356035  0.8313178864081895  0.5014744310134586
  0.4147033647900807  0.7496606715365054  0.6671701061337676
  0.4144727645688588  0.2478638818115009  0.6664503500586366
  0.4161306043294600  0.2496711647326620  0.4994337664980741
  0.3321868366703508  0.1648365700087794  0.4994803640348330
  0.4990554706481937  0.1666241644843767  0.3327602478833305
  0.3315859619308764  0.0787881492169543  0.2556785534692910
  0.4137781066280877  0.2556960924182760  0.9990233193626832
  0.5828566725407326  0.5838433032676291  0.5016822102539882
  0.2487993642354719  0.6681129602183959  0.5831722421725953
  0.5029195477067123  0.5035516592100554  0.8304728537241745
  0.5813351633703815  0.2506818161826355  0.6690919442726968
  0.5808906713693376  0.0822763659775100  0.6668597054253714
  0.5815497515051644  0.0825621613147614  0.8318835451224698
  0.5035623976214016  0.2484083715694820  0.2563722920094483
  0.5820772558348954  0.1687474110527405  0.2511660640344633
  0.5033093708270601  0.3394993430322151  0.1682152305539013
  0.4142622131711891  0.9996889115841183  0.7497049525085749
  0.3327121717277966  0.9165143543564883  0.7485160205489753
  0.5811472531367198  0.0012522830334600  0.7470626039177438
  0.5828143163092112  0.9965684772506279  0.2517837811548635
  0.5845739571138165  0.1687201782170579  0.0825571596581377
  0.4162213354889955  0.8337939086713623  0.4178220191502115
  0.5019963373926486  0.9950441650730165  0.9951833932004785
  0.5837270081358799  0.0002129683283545  0.4193348738182535
  0.4183004023824439  0.9178109640561698  0.5012205462183081
  0.5000160156744142  0.5826817808564156  0.9156975170664508
  0.3343072904768272  0.9144482504803809  0.5804197418220026
  0.4996324262811679  0.2502246497166717  0.4174630040846908
  0.3350601841776750  0.9149764537729523  0.4226183971899823
  0.3331713984811754  0.9157643254714525  0.2514064449919632
  0.5858239374448343  0.0808144081306824  0.9925556590362125
  0.4972795797878048  0.1682424868692712  0.4994424967699170
  0.4166816259428176  0.8328718184691078  0.5827806818271332
  0.5844915944228550  0.4180426209296873  0.9999248189537540
  0.4994301300135918  0.7503816014743819  0.5829943594801873
  0.5836814607392733  0.8315178772615577  0.4168264785539639
  0.4974088376766317  0.7508710339723146  0.2491033314951618
  0.5823296655810930  0.7500533699370350  0.9980925017586070
  0.5830313222041343  0.5842814176299577  0.8306221957478678
  0.1659770903875186  0.8312499329798986  0.5014789788434985
  0.1654423880075445  0.7502922520707658  0.4195212188730540
  0.5002283867062238  0.6648885027150784  0.8329988306937967
  0.9171077391769275  0.7500008046854921  0.6675967426341386
  0.2473863227228438  0.5820505703416060  0.9991862091081664
  0.9168010076778451  0.3348824230463811  0.5851388934985605
  0.9172191480888209  0.3321236928560754  0.4180140464250709
  0.9165660490993949  0.3336638676014747  0.2502298060985138
  0.7474949200056946  0.3355190094275891  0.9142254436318048
  0.8269517211614296  0.9024216676677026  0.2476487173825660
  0.8307381369816366  0.1682300337139401  0.8317077906764836
  0.7487331090118491  0.1688221862333622  0.5867588471087730
  0.8348468975983105  0.2515874433798908  0.4204780205991168
  0.9161151417604939  0.4174307856076598  0.8333079435341775
  0.8349743207335601  0.1707778347431765  0.3334999890504136
  0.8322520785087271  0.2513990696016506  0.2490274938566886
  0.8332323937236260  0.1675268440927871  0.1644843641420061
  0.9162421074011697  0.0020413378460114  0.9149592773350459
  0.9056956831362999  0.2519000553131537  0.9972899494102118
  0.0009438625543517  0.0849089316790611  0.5895133631538486
  0.9168376182252247  0.0830489079935162  0.6669935568351075
  0.9088854841325689  0.0840663405152401  0.3383416892576713
  0.8317437926082495  0.0010046756699624  0.4985865267562284
  0.9192990279268451  0.0856157694142106  0.1645594244778594
  0.8324733042273524  0.1004037450769680  0.4315179664595554
  0.7471529351841246  0.5810845638434657  0.1624795718897958
  0.9140534847892813  0.3349515980905799  0.9159177178601682
  0.9154320882711510  0.8333103595004329  0.9163093436292749
  0.9146613008229965  0.5770114413375426  0.1654827269843702
  0.9142147388909881  0.8333830201818915  0.7477621245082460
  0.9172173049646797  0.9163920383939037  0.6659070898499178
  0.2529055393903762  0.6662547769722441  0.2589092175000827
  0.7486307710339027  0.8344083221261083  0.7494251190699011
  0.9162312538437255  0.8321844305144233  0.5840516827557832
  0.5011488403837415  0.9166265402752194  0.2497564111597036
  0.8356964037491105  0.3334284280961664  0.5015223898944132
  0.5815169420041991  0.8298760628115256  0.9146693376035644
  0.3324816222108431  0.4171611067064031  0.2516869407604964
  0.4161392114575296  0.8336622144114090  0.2506498056362328
  0.3347709865227634  0.6676246128639511  0.3328250610509926
  0.3359894484403271  0.7519220652555169  0.2501298222528721
  0.1665081612583178  0.4992170900426911  0.3344481181258918
  0.3335775746035406  0.4174104523285773  0.5814664466314217
  0.4976908889532902  0.6698832954594653  0.6661217671051817
  0.3336612667455304  0.3389421151116219  0.1698743648660486
  0.3311137442929867  0.2510239285580532  0.9191677012696219
  0.4143289719093136  0.7528034153795876  0.5004986963012282
  0.3326466968614860  0.4171591768216021  0.4186082019916388
  0.2507380792416907  0.4991107731488232  0.5811409855288386
  0.1630986430849966  0.5005759860765508  0.6644037983156795
  0.4164505213094612  0.7507446128051065  0.9994106438891871
  0.3324025481784234  0.6687907466990161  0.8359320237901937
  0.4144441278909017  0.5007091530429827  0.9182089456630150
  0.3332245075765349  0.4972730673300971  0.8333374977086293
  0.4981390555338225  0.5843951040405951  0.5826556062038076
  0.4174191901947233  0.5842240837130169  0.4992387731554071
  0.4155996729178918  0.5019102305322563  0.5826346941189304
  0.4172630845188964  0.5832144965787931  0.3346028672524167
  0.4178681536654668  0.5810374743586607  0.1672860855616246
  0.4160146377027962  0.5817984232485862  0.0000673339006927
  0.4191317441257477  0.4232066235490411  0.8317277975198326
  0.4174344161854473  0.3357621856830505  0.9208945987800700
  0.3313751323410272  0.4186108315217446  0.9169938813288216
  0.3286575837272159  0.3362768985588919  0.8329138694768482
  0.3312954737886737  0.4159209973799766  0.7481879377339491
  0.3323326260462466  0.2496880472721661  0.7501971975509800
  0.4153009856001681  0.4169232839897950  0.5003863484273580
  0.2506815738066032  0.5818942601303606  0.3347969581710494
  0.2501336517952671  0.5771129411413503  0.1690162611370307
  0.1658941601883366  0.5004344894637387  0.5007187689813201
  0.1654432645702712  0.5837028936153464  0.5825375944762176
  0.2498058887544803  0.3333792862394502  0.4181796916148821
  0.2488213922137620  0.5840423501207063  0.5005222046040878
  0.2491114468408404  0.1735192155153017  0.0848220433624329
  0.1671677332214009  0.3348224298149222  0.6667415569524949
  0.2484066905684836  0.6736285051120050  0.7516440910677284
  0.0825044984464647  0.9991632631292642  0.7507050424504623
  0.2489567889359259  0.8328971492105424  0.7503564118800080
  0.1660406465558987  0.4173253217457223  0.4179534798781849
  0.2497017781875134  0.9156309330283284  0.6669664267756672
  0.2493163459578643  0.4168158214150691  0.3352667764794109
  0.2487336325661094  0.4191269375563666  0.1673387988021387
  0.2484295875528152  0.9152851888296153  0.9983311565380217
  0.0836128445526702  0.2515523755740552  0.5023474042395476
  0.9977407797045191  0.9143795802775299  0.4158470165566893
  0.1593884651303398  0.5834364304660886  0.7503483378923695
  0.7509544725924523  0.9152195981722093  0.5000747317578121
  0.9968327728744816  0.8357279215904029  0.0024481286666241
  0.1654306742698313  0.7496970441350208  0.5842261870589944
  0.1657179688480171  0.6667430265650321  0.6675187813542994
  0.1669528568232277  0.6673679567904215  0.1658682139807209
  0.2482569973915633  0.7491579978336214  0.5007957255271822
  0.2474579878602685  0.4950088336771226  0.7491031160909564
  0.2499657367556120  0.3334427118275767  0.5817121806976603
  0.2474513678626756  0.3356275989190034  0.9165830465280638
  0.2472766493640137  0.4183788006368457  0.8337662059987375
  0.1651519218485131  0.5011059377757482  0.0000737182935904
  0.1661886988872913  0.5836304990462968  0.0831612498567400
  0.2486166109309123  0.5006436225628546  0.0836982248948193
  0.2495099505807749  0.6681244776535190  0.0741194057236063
  0.1672354543694317  0.5804188454086263  0.2524799436507065
  0.2502330160054753  0.4982634852439241  0.2524448824318185
  0.8309925431140176  0.2507927796397650  0.0831491270878539
  0.9133618734754424  0.9181982004465533  0.9996956515566646
  0.3331553908906957  0.0796279035732444  0.0817114638941916
  0.1687345121278600  0.8339219431094783  0.1657500888526902
  0.1662244526270446  0.9153449562156736  0.2524491724672287
  0.2513081811749181  0.8339300122925439  0.2514063412068705
  0.2491656814744068  0.9169331079588973  0.1680453625491641
  0.1667669988704773  0.8321935073516669  0.3351873403304256
  0.1658518750733786  0.9149677701271482  0.4190402832185671
  0.9160536215988702  0.1679227229677505  0.7497566772863952
  0.9138717127970382  0.0901799463937636  0.9903627187888273
  0.4159490313386272  0.5833241989623377  0.8334707096379735
  0.0004235117986231  0.0837764350325820  0.9121182901683329
  0.8278812645417006  0.8141843536093831  0.1677890012751571
  0.9146764366690372  0.8168289155449852  0.2504659078446845
  0.9226925184411052  0.9037563768953446  0.1847700382884474
  0.8304324982297903  0.8271177896852121  0.3331857714894165
  0.9158319066997727  0.0850606854536739  0.8317749960995794
  0.0849297111590902  0.1673147942935347  0.9141430033709684
  0.8150634355956089  0.9180961934731930  0.0649721152343093
  0.8337463507574518  0.1732405152854143  0.5081265003330555
  0.5819954567830669  0.7497739247755263  0.3336631572410644
  0.9990035620741587  0.7509906942273428  0.7508613234165205
  0.4999685364064417  0.8335162982298122  0.3339621977649584
  0.4154012839053362  0.1658736957584647  0.4158689832954817
  0.2495992970497936  0.2496470266561622  0.8328774964694465
  0.2486920135743016  0.1660463779793504  0.9152823475033819
  0.4155880896324649  0.1662474014427418  0.5828895720657604
  0.3326218904856383  0.2487248226674648  0.5832102927642581
  0.3325526640068477  0.1662040013452578  0.6673524451229410
  0.4148027975507282  0.3355394715026783  0.7401844415072379
  0.1668406972716083  0.2503843238866362  0.9137585450686122
  0.4150076585559840  0.1653603410394976  0.7501994863219893
  0.3307180672505083  0.1646451995852833  0.8333595347825146
  0.4141569314321835  0.1641501750787611  0.9192016545537004
  0.4127404175397232  0.2408686414198623  0.8366450263768791
  0.8401085047437169  0.4183357572963353  0.4180276742164332
  0.1684760639110256  0.6653660914925414  0.3365335684177050
  0.9141584043555679  0.1707595502598534  0.9122489171720526
  0.0827255087902715  0.3351536104778919  0.0837503183278936
  0.3311507153805894  0.0805034939621495  0.9154163886037286
  0.2456606510487973  0.1669981365886932  0.2562065110532830
  0.2492672025012323  0.1659495657636656  0.7501449095023103
  0.3327456702211000  0.2511450278014149  0.2538720655898478
  0.3348485148910823  0.5826092701426444  0.2514597059937586
  0.2494306348491846  0.2498296162381713  0.6673787122408293
  0.1647566546908072  0.1680144751716270  0.3371793181747626
  0.4171537725826199  0.3369661448003609  0.2540744279722268
  0.3339262345903547  0.5839783538269914  0.4169432811682527
  0.4172463308518994  0.4997728394089175  0.2513277212457056
  0.2480078524966783  0.2521519408997728  0.1694098869380951
  0.3341744067003298  0.5002715583474384  0.3354776742260188
  0.3333782608288392  0.5019957897378170  0.4985531025923142
  0.4175737493110436  0.5001808713308405  0.4177275847778946
  0.3313599175595336  0.5008005633331648  0.6649545027262732
  0.3344287714995399  0.4997767576725032  0.1678375705075282
  0.3372380561956376  0.5845910398732530  0.7504192655621017
  0.3214716773923955  0.1515568445130309  0.1766361077265332
  0.9984213054250445  0.3354855126950266  0.1670996608373031
  0.9182447000503768  0.9016445858765462  0.3229547092646910
  0.0004884002930394  0.0868452628710967  0.2545639444993367
  0.0840476162178850  0.0835967972864171  0.9964102511820355
  0.0828535575172380  0.9986167942180396  0.0808586797662827
  0.0046018725913504  0.0853674299184254  0.0835444429351593
  0.9166878602185421  0.0001184460095651  0.5835858108542328
  0.8313460628877634  0.4185271935579150  0.9151907816750268
  0.8340120222842327  0.8329408556126925  0.4994183570212941
  0.9201627790075264  0.0894989117592665  0.5068236300473873
  0.8313208801907038  0.5819504863060735  0.0826178674096500
  0.9152818249780947  0.6659344797219430  0.9154746468794912
  0.9998124176002769  0.2512814967649018  0.9114848551249715
  0.9149079025545717  0.7490630239963920  0.8327167272464915
  0.0824244539226596  0.3346199769665905  0.2507733042480753
  0.8292561140002940  0.8311645462899401  0.9965083450893760
  0.9983611954815494  0.4180857873993755  0.2499382110104343
  0.9147915453519830  0.2505639322046534  0.1670112484268377
  0.4161857032544778  0.5017663479803832  0.7480744287812156
  0.2444145990671691  0.2532500921364302  0.9978989075836445
  0.2494292535654035  0.1676227808585940  0.4163347563046256
  0.2483592488221053  0.5831665442029575  0.6608057188337280
  0.2497330887664373  0.2496022833652470  0.5002559668709096
  0.2488709097260842  0.2514946218182165  0.3345481081387336
  0.4156047331753861  0.0004432588216707  0.4179142919337131
  0.3320357346275863  0.5014122958457871  0.0011085558062342
  0.1645989048494683  0.5005309001899525  0.8334924084138747
  0.4161142896789451  0.0822953227694543  0.3334187617952876
  0.2488960844285360  0.5006343223199570  0.9167222216225936
  0.2467884434581159  0.4190835559691792  0.0007420983547190
  0.1644485635442380  0.6679829070275870  0.9990949833003968
  0.1644984525484251  0.5841669067466654  0.9173749470749508
  0.1659024170356914  0.4171273590793287  0.5830106185638720
  0.2486746836662133  0.5845534512795559  0.8391623456379994
  0.2499641509613680  0.7521431407433306  0.9978999030250284
  0.0809871955070882  0.8342262224462977  0.0824908490776756
  0.1668643619238974  0.1698215603318824  0.1704158251545059
  0.1674075006256158  0.2501400034331222  0.5837669113186205
  0.3312210232431856  0.3334389651367525  0.6646987260343200
  0.4164682788399551  0.5006511494092855  0.0838813845862012
  0.3326044037081282  0.5844512643547133  0.5817819213546247
  0.2493514678561091  0.1668354294588196  0.5838416192537660
  0.1659626150908190  0.2517350778015928  0.4186566682059087
  0.3326511105855812  0.5841174658197440  0.9171541178527769
  0.4173011602193887  0.4170076755414593  0.1677281324693826
  0.3326057453009267  0.0004006564303866  0.5005282277169886
  0.2497603887676510  0.4999366811542322  0.4174478806276826
  0.3327970118432605  0.5837697808032477  0.0837439352293236
  0.4154877198267131  0.4171458423496232  0.3355106313406108
  0.3327968386195866  0.3349696849617584  0.3348246713990571
  0.1665614706815338  0.2509013933376907  0.7500088855366525
  0.4159891096988750  0.3332691133401273  0.4170080307945490
  0.4151026843296369  0.3322857926992983  0.5840434927607616
  0.3333855891539583  0.3336415857903172  0.5000298174886583
  0.4150600783000293  0.4194214647573968  0.6643853020311767
  0.0824446286876582  0.4183169355530710  0.0004583800004625
  0.5016351296908609  0.3348869253520189  0.9997969866679185
  0.7491647264692669  0.9993555696850847  0.7481185917100101
  0.6627920663738711  0.9156579571015511  0.9106993954120153
  0.6671162988550623  0.0831194727011806  0.9129171343869092
  0.9970037650884663  0.7491861794583122  0.0834328573339096
  0.7490655192606207  0.0841689537832494  0.8303438172880188
  0.6652851351589618  0.1676659047960559  0.9983916393963653
  0.6658371604837512  0.2515683753877607  0.0825991238355293
  0.8336460717702240  0.2532280758217764  0.5867728715183510
  0.6654356632748002  0.9153266872842161  0.4183370811159893
  0.6676693903131210  0.0838375388326533  0.4222717973671983
  0.7489588984726890  0.0845166510294063  0.1628061418110318
  0.7495728486568308  0.7495984229233239  0.8313114062497805
  0.5005118598820727  0.9162014100179394  0.5833143602902814
  0.5830350884830103  0.3351150580147824  0.7480240593647047
  0.5813792705413365  0.7494482129232788  0.1666561434039291
  0.4996116967508640  0.7507184171303000  0.4181971586499322
  0.4986725413641718  0.6660677085336948  0.9993817173526154
  0.5011451716974215  0.9163077134181734  0.4173462636275190
  0.4980579622574309  0.1670721827538059  0.6677142920850222
  0.5812593628432934  0.1676711398862126  0.5845519188952518
  0.5818529974081597  0.5848915024920227  0.6657314507716324
  0.5828466186045224  0.7497905010603592  0.6670848422543885
  0.1674888808900514  0.3334404431541171  0.8337437432691490
  0.0831040643345434  0.8330760586792832  0.5846306200395218
  0.4999338081393144  0.4173131263185207  0.0824461326712538
  0.9993844800644796  0.8335147617582361  0.6680460080849636
  0.4276506228016944  0.2592368749155776  0.1748128489199224
  0.5005390504632395  0.4176146777602056  0.2516111692462434
  0.5832986467515654  0.3331531502617621  0.2516248027412834
  0.0832617614952012  0.9146314143893945  0.5013241824835463
  0.4998136744475545  0.3338019872168985  0.3351441739702606
  0.5001101978768614  0.4163798541679092  0.4180842000921998
  0.5840103763511550  0.3348919993613653  0.0827106032090126
  0.4973209076653807  0.2507197207166976  0.7512548572286627
  0.5821231819484124  0.4998709830558271  0.4166892022253768
  0.4149442731016130  0.6678692264100976  0.5817717093139128
  0.5820188891812544  0.6676654369004601  0.5842455576992277
  0.5831895584051692  0.3342797790150767  0.4177560626502876
  0.0849237810816503  0.0846880587288504  0.5025893196457193
  0.0050843415212802  0.0009214558690362  0.5083107744224268
  0.0829108376631690  0.9987129726975401  0.4206542502104441
  0.0857564771426354  0.0893491990734976  0.1710488613086227
  0.4995693980135478  0.7491853058508401  0.7488020304816880
  0.5845175763779208  0.2498568252316819  0.8316165000589609
  0.5007739832298854  0.2525795152124986  0.9153001163953224
  0.5853372461045123  0.4209332029848998  0.8320125564306166
  0.4992019176759344  0.5831651831460493  0.0831473850701862
  0.5824404825224506  0.5000299397608799  0.0838314391001881
  0.5825014632874623  0.5831263734944573  0.9989389114045033
  0.5000659790487131  0.4998755102558284  0.1672258771888012
  0.4987895041950994  0.5827298883193772  0.2513523916221093
  0.5819937341733115  0.5000455537872746  0.2515951232076294
  0.5819539675202748  0.5822685081149773  0.1663423347128941
  0.0844017855456555  0.9134213867484657  0.1664504202915086
  0.4995983429788270  0.4997003345387859  0.3344310047630433
  0.0004260360407083  0.9152499422225535  0.5848858446153914
  0.4152684880017614  0.0827329443586691  0.8335090374960343
  0.3949857971936007  0.1833641971453085  0.1033449019983094
  0.3242032797901347  0.2614224508708347  0.0764305816540307
  0.2512048311542528  0.7550312599545713  0.1669885920477245
  0.1670426862839549  0.7490098595083495  0.2518076006802222