 B Cr Ni 
 1.0000000000000000
    21.1200000000000010    0.0000000000000000    0.0000000000000000
     0.0000000000000000   21.1200000000000010    0.0000000000000000
     0.0000000000000000    0.0000000000000000   21.1200000000000010
 B   Cr  Ni 
  17 259 605
Direct
  0.1578239036564636  0.1698551556479963  0.0887442477804954
  0.4007125059140998  0.9777470804247937  0.1876384064633832
  0.3371348757167862  0.7509137855965810  0.3356629816924664
  0.4292048780976059  0.9191361081140548  0.2391822678565561
  0.4336108062182356  0.2042477208350980  0.0775770818024780
  0.4272809685480419  0.1211776856608844  0.0747328314031590
  0.3430720698170546  0.0211373812164323  0.2283931244561077
  0.2441482795443179  0.2553738861336418  0.2360878000243527
  0.3254569684229319  0.3268533748732310  0.0856247233492058
  0.1044017317473845  0.1728388126227735  0.1586853722388812
  0.2483289480693632  0.0792891382126677  0.0955715296880663
  0.2448475753855833  0.3107916898991508  0.1655941893689454
  0.2569927802036259  0.2616039222049911  0.0897140671473916
  0.2344928811271588  0.0276595340593493  0.1560771233699307
  0.0914515484578960  0.2396355203716921  0.0949991675511368
  0.3336762862765827  0.1672452776824958  0.2331200682443677
  0.5105680524810333  0.0634722472063365  0.1746536790849027
  0.6661423899832392  0.9154625715681320  0.2524622564279251
  0.5825754718007805  0.0018469601215444  0.7491970124067042
  0.4154025281124223  0.7503418288656873  0.6657398631253651
  0.4974657957197682  0.1667259484181354  0.1617144348098970
  0.7474099039889477  0.3342239613023975  0.9160328038742861
  0.5836096445699062  0.8327362425738678  0.5808424439252469
  0.7489011710672828  0.8299113731734868  0.9139431403147802
  0.6668332672634796  0.3349328011124157  0.5000213850394246
  0.7488502068327768  0.8317262391938774  0.7484321455808051
  0.8306186263490924  0.9160105340945681  0.5829584872411144
  0.6661181119469414  0.8332109647559797  0.5012403373328903
  0.6670838355422879  0.7488895937269711  0.0820829132930959
  0.6671389718724385  0.4188270748126078  0.2499851153819314
  0.7485386955024416  0.8315901143022936  0.0831230662803084
  0.4171682239237633  0.5006268410445873  0.5853168656868245
  0.6675373274755675  0.6661653102127201  0.6686261286554795
  0.6678771133343463  0.6647046031512138  0.5015114354086970
  0.8302115660193338  0.6653087217443792  0.3327500946850099
  0.7481643100502141  0.8320084736825822  0.2504755267419989
  0.3303119832329531  0.7449619589614771  0.9108249756862625
  0.7481501783644267  0.5019662088681858  0.9157344541852255
  0.3325754696248361  0.5024552017844572  0.8304195660905419
  0.6647553624213787  0.4998206947808982  0.5021697431479309
  0.7473383899011528  0.5842835357377790  0.3337505514593413
  0.8319028079649143  0.4191611431413759  0.0808821914719158
  0.5811209440193760  0.7497389798311280  0.9972156329389246
  0.7478096097176589  0.6655304376926451  0.7481195521261966
  0.6652576209972312  0.4173397084546888  0.7506174905145671
  0.1644857114102973  0.0817919994832270  0.7491861577481591
  0.0790761661986947  0.5017627274987753  0.0833861817154923
  0.7480897227006374  0.9155448730547325  0.6662583724191163
  0.8313658975893136  0.0826691084763005  0.0835267374325271
  0.9975796532060868  0.7487843051139484  0.4156846388717261
  0.7484637021135907  0.8310428078993084  0.4183572492654961
  0.6673604388916150  0.6649306984740587  0.3324058236549863
  0.9945779704497391  0.8317734881067800  0.9972663659789162
  0.1610632759595587  0.7471463677804756  0.0814146675258861
  0.7488487915139868  0.5845461208026425  0.9971677312618182
  0.9143609061444767  0.5001976698644018  0.9149861375349961
  0.7477271529736143  0.4163755866764400  0.6684202333107592
  0.9146740325667720  0.5847236486145673  0.5006506736851314
  0.8345664778829339  0.9998965365572415  0.3328257872412956
  0.9144682107137719  0.9994087329600488  0.2505325242297188
  0.9155489717387193  0.5850891725089677  0.6685355795419977
  0.8310843519194732  0.7497553614178671  0.5836990321264245
  0.5882485461989968  0.0019971086044460  0.4213194989558249
  0.8301931046521993  0.9988849459560950  0.1666282887850622
  0.5858223832444144  0.3323557878179494  0.7515796259013081
  0.7476515772560551  0.0829908654710129  0.6661266464152487
  0.4998643207691111  0.2513585661485072  0.5852878948530824
  0.6672526027869151  0.2521504186801444  0.2495024781866775
  0.8319426577238785  0.3330557709391577  0.6672013244122967
  0.6680115430268329  0.9124833358706502  0.0822966099577276
  0.6662146906199694  0.2526840292040761  0.0827453225092559
  0.5833553507766246  0.9973286789281166  0.9163763884726192
  0.7497723180899218  0.2532461171667575  0.3336451482925885
  0.6670157232198609  0.1684646806267205  0.5012736381468704
  0.7499157329089980  0.0831223716136443  0.1647478736226820
  0.7486428124579050  0.9992243954147855  0.9141430857507791
  0.6655707908942996  0.2507507819170344  0.9162149626062432
  0.7497836918904326  0.2515298608672271  0.6666347395578174
  0.5877745682958250  0.0855320992786587  0.3350260038390199
  0.8296496867762120  0.4207673035385969  0.2514041229905486
  0.7491884214044271  0.5846436128226803  0.1641213521475639
  0.1643402087909933  0.5815287545077876  0.5827797832686431
  0.1644088810303819  0.4172546715113579  0.7475123317595195
  0.9983286732823164  0.6684397742533080  0.5001771012872489
  0.9941434116795284  0.0000411020134390  0.3351275131828763
  0.3335314881603415  0.4205590758347478  0.9126881886042830
  0.1625965256381866  0.4231565136680083  0.2551424287894740
  0.9976811379621726  0.9990467319061528  0.5006095857236248
  0.2462276755658564  0.9989852062984519  0.4182632774027445
  0.9151163890394380  0.7495741895973682  0.1671152890463898
  0.4979276647836237  0.6671116160102454  0.1665712493341641
  0.3341042708919184  0.4204922459185825  0.4196032151539190
  0.0780676330852908  0.9152395978481521  0.3329593075290989
  0.9983019081406266  0.8306585707198634  0.5003442990424911
  0.4180847772551625  0.2509905025703693  0.8294481696051326
  0.0804825941629486  0.8337184717908654  0.7475198208292890
  0.0829751324318756  0.0829284665541222  0.6668997337950431
  0.4185100607559389  0.4182344455889730  0.9978577427084253
  0.4174595265134075  0.5006905492801249  0.7477787569222769
  0.4154176905043509  0.4153389019799753  0.6672389364271463
  0.9136196606750491  0.9151127616288821  0.5002956714819440
  0.9145771831006085  0.9999902640178681  0.5828112332738398
  0.8303671869693686  0.3344227566939120  0.8344012654855599
  0.9147811277495477  0.0828593083871944  0.6660437014563796
  0.8326052988004295  0.9999880037348409  0.4995374876485758
  0.8327526086835951  0.1683445902138937  0.5006216111325122
  0.9149435583912480  0.5845689117350094  0.1659077043713719
  0.9118365108553576  0.0813486125183586  0.8315044637871912
  0.5802974803896321  0.8310357182821628  0.9145640669361208
  0.4995522249346586  0.6673427663051893  0.9979996681735410
  0.8319860412672634  0.2512236875165266  0.0829428928898249
  0.4159253461008612  0.5018486528043707  0.2500931282000249
  0.1645309434664406  0.5013511431863427  0.3343735196184371
  0.0827048398779306  0.5831372502108166  0.5007175815321960
  0.3335241004630198  0.5833848856307310  0.7492837705713524
  0.2475877827546311  0.2570865791136318  0.3415442031301618
  0.2390617678017593  0.9173582654900625  0.1627897610305284
  0.0796780567829905  0.6652670214851043  0.0823146161383901
  0.9945946909062403  0.8292368829282458  0.1661248898743940
  0.2472132058471151  0.2500129822213753  0.8341837317863920
  0.9957765957609934  0.4162948879894576  0.7471784063527475
  0.0727518623161475  0.9959945882831833  0.0787340210416162
  0.9142676946969842  0.4175820302013434  0.4994984116394071
  0.1626871688116146  0.0801266661541167  0.9118375272487718
  0.0771673455049921  0.0843087540841904  0.3368101846054828
  0.2476816995810782  0.5822846922245865  0.1651380706454197
  0.9147673672253770  0.7481820330258496  0.8301009524302444
  0.0751328465282132  0.2512795890213216  0.9913912379924712
  0.1653486445993794  0.2519084453001977  0.5842029127268581
  0.9970121213174727  0.3333801279124841  0.6660750850509624
  0.1611949886038001  0.0846474042037226  0.4195842276949032
  0.9958421457940726  0.2501386834805352  0.7498234946415617
  0.0814919635973135  0.0000709418458149  0.7493832507683444
  0.0812357593924193  0.4182086958923336  0.5008747563933414
  0.1649736866616767  0.3343347832802873  0.6683589226016742
  0.9967920022626749  0.9157165693279372  0.7483996867298738
  0.8300116035958706  0.5013297187941473  0.3332415083870672
  0.2457335426179172  0.0031145451743271  0.2510841577839454
  0.1630149224387607  0.4217183836342329  0.9106543802457113
  0.2441740236876719  0.7483333398263068  0.1662787941985979
  0.7476981731433722  0.6652127699218842  0.9150661923501012
  0.9938065054114853  0.3385999509668764  0.1689849247929268
  0.7474735440971643  0.5854142267169438  0.5015413909372812
  0.4145890853598780  0.8330751509639791  0.7462026824442551
  0.7486082904991044  0.7499033123479691  0.8308977656942039
  0.4978479896023992  0.6682244701325588  0.4998202069772599
  0.2484387821578124  0.0006268242485081  0.5809576491765671
  0.9975478675153050  0.1696431906374862  0.5030235500132081
  0.6680595865479054  0.3350603555253338  0.1654191972085526
  0.4184409672559129  0.4186476924618966  0.8304743679642100
  0.1612829072479671  0.8299122075758479  0.9953892382786051
  0.6661993296201908  0.3325903641716962  0.8345439547789527
  0.4995556061059981  0.5004015867150136  0.4997991454877396
  0.5003236359365921  0.3322204001265309  0.6667865748422319
  0.5006127108171406  0.4193391009692795  0.4190358956559920
  0.5007699324512760  0.5024401031818826  0.1656239795492711
  0.4191420543156353  0.1660178571664573  0.9132520455269735
  0.4998806017984414  0.9118020026163625  0.9129333978146859
  0.7501704555692423  0.4196552250834295  0.3334148706714543
  0.5826725571970408  0.5852817628034008  0.3331220075472182
  0.4180126109415439  0.5014159009073602  0.4197785410659507
  0.4165312535752421  0.5022584914852724  0.0808278002997690
  0.5811607779814183  0.5840096105339175  0.1656024635275196
  0.4183831834396030  0.1725433329366452  0.4213501705100359
  0.5876719798216931  0.9929585329066047  0.0855129621295058
  0.3340632008205761  0.3409556704631946  0.9893094248979403
  0.2409005062132647  0.0824283762963958  0.3454376799638496
  0.9936211382750477  0.4191252164118658  0.2524054068298954
  0.4990055204263270  0.4982816022394967  0.6661817134588578
  0.0814866800094503  0.2509099246844874  0.8326961443685261
  0.2479452574046740  0.9180675166020441  0.5013291858393177
  0.1650376408575051  0.7504820692517290  0.5836158563772788
  0.3317523579926764  0.7511639871147499  0.5835864476281940
  0.2479064956578235  0.6642157347603690  0.7491187453842403
  0.4160023313978237  0.2499019077341173  0.6675679266386150
  0.4996465059194942  0.0831478340620411  0.5842381852569060
  0.3304481092167121  0.2500036430135564  0.5847941374125142
  0.5824445488941816  0.5006589829312281  0.5834547543440030
  0.2473646088446194  0.8327761122287077  0.7482227489407004
  0.4988106863617170  0.4997040268437746  0.8315185384700963
  0.2477513396141730  0.3336171219403671  0.7498998411589483
  0.3328056149010330  0.0798264741367136  0.9149797166704137
  0.5035372560019052  0.9923937582407673  0.9929271649872242
  0.4186024536112696  0.8327768348578684  0.4198238793634873
  0.9135348598096609  0.1669559235361084  0.9145092807014367
  0.6663437474913542  0.9988788425493419  0.8327483500190873
  0.2392849588034077  0.9854480375160363  0.0664377825884322
  0.4965382694500067  0.1637549265379042  0.0051524811811814
  0.5028535948181821  0.3378049294684313  0.1695691332139817
  0.5849169744576896  0.2521061512049877  0.3341666696708296
  0.5002311512877419  0.0823442302171860  0.7488315427047147
  0.6669515029167529  0.0009126059192257  0.5007213662018815
  0.3323886735930949  0.9127395238003591  0.9114029468741325
  0.4215847192485925  0.2544162875755407  0.3405944269912769
  0.4164268436525438  0.9175952980805685  0.4991031357174338
  0.2478631287187553  0.0004297703178984  0.7481447115399454
  0.4158764676147063  0.9160881193574043  0.6662238208440839
  0.5022878483311786  0.2541598443164132  0.4189739128853382
  0.4183348750674611  0.0007436059560580  0.4162699687057140
  0.3285875398517873  0.9208472673095767  0.2447757242308554
  0.5009458227626525  0.8299753420499477  0.9951126831433699
  0.4172755570085648  0.3360664685486719  0.4195403907064532
  0.9883872924542645  0.1634241917745138  0.9912889452301418
  0.5006533276235878  0.5018904772248277  0.9990228749075766
  0.2460788749285762  0.6662710968072496  0.4166386796833208
  0.5844876730455977  0.8313239322120126  0.4200871120935887
  0.3274791446831221  0.7488565542001135  0.2405672976409749
  0.5816007937773081  0.8336243681765495  0.7467397503091463
  0.7470772013863237  0.5842844648743359  0.6684352793154666
  0.1633534563708324  0.8318273210249473  0.8289861478790530
  0.1665977413591957  0.7488995762179671  0.4149284485924585
  0.9977782986497620  0.7497383994992354  0.5810583606178867
  0.1641396195070266  0.5021010827876137  0.5019126575066180
  0.9945495276617257  0.9977320189411737  0.1675149018844753
  0.9138193459033152  0.2512834384480808  0.6677382398941270
  0.9130531081365122  0.3365919973163261  0.4195578838841567
  0.9140770905373830  0.3366223521702698  0.2500999115743404
  0.6679349107378999  0.0810048818370192  0.0800750960972130
  0.6650375994624018  0.1660715660877408  0.8332268083790788
  0.9139957389366156  0.4163642810646325  0.6681995516962439
  0.6691204229431834  0.0844827950773167  0.2529160117474073
  0.9971551874523894  0.1696851466042149  0.1670846349728168
  0.7500067769470070  0.2523075764224594  0.1666299358039751
  0.8302041441917841  0.9983232695456652  0.8317500316878239
  0.9150295019684557  0.0005413230290883  0.4188810091385930
  0.9157002884388724  0.0828409445257932  0.3337338937192906
  0.9117972768463242  0.0809166695950663  0.9983929656816577
  0.3352517547318370  0.4237205010491152  0.2529815975257901
  0.5813037832976731  0.5017450021420163  0.0832257489356955
  0.2476343952393621  0.6657557380448139  0.9138714227104621
  0.9130409682208149  0.9137976847482321  0.9978946641968943
  0.2471622539316244  0.5835835730139830  0.9969135469780537
  0.9158238652355063  0.8328443585855484  0.7481140766519591
  0.5020003340974583  0.8320381150731390  0.1684827072491298
  0.1642343973685683  0.7490495484594429  0.2481487757270508
  0.4993648952545194  0.6673991899378806  0.8305030833991497
  0.8316226183032149  0.2519576131608292  0.5848263328236757
  0.5810787547491001  0.5844318293143443  0.9989654271447155
  0.9133766610165576  0.1679427310232691  0.4188592958627123
  0.5000577035415916  0.8329884623244151  0.4991244752437145
  0.9133173748064936  0.3339470276172332  0.9144230229400240
  0.5843037075714383  0.1658584884061890  0.7483197411975491
  0.8308399049665238  0.6655276237690673  0.9977349664201608
  0.9963448585066782  0.5831347679257640  0.7491091149182830
  0.9155274641213714  0.8304328148355992  0.2493349419657013
  0.4176456646964257  0.9902319604674519  0.0760221317706868
  0.0802077615537573  0.9148858004377457  0.5006882767802026
  0.9155445326577681  0.6651565642324367  0.7463677358411300
  0.3323228571139780  0.5849056568362984  0.5842383126207987
  0.2477894997510691  0.3375188891259998  0.4195070385809104
  0.0795498180919035  0.6647686531428817  0.7475963374146442
  0.3406020387578027  0.1614396031517408  0.9862357930828246
  0.3322380400141541  0.6660774146018714  0.8307084400769954
  0.4224558073242246  0.3381667013644170  0.2548922478685358
  0.4159598497044590  0.3340744861974841  0.7481903866303407
  0.1627568516388287  0.2509655664668791  0.9183908266960286
  0.5023897274747205  0.7473162666799198  0.4191104602345673
  0.3310945450774872  0.6665355060692703  0.5014321369254190
  0.3287063428385134  0.7477605557084047  0.0806569059608768
  0.0807056327913753  0.0804967914486398  0.8301290637410902
  0.5000705731864029  0.6676198302437065  0.6664750616256233
  0.2457189471262391  0.5841935894993563  0.8313211971797786
  0.9964224643522331  0.5856047161238624  0.2517377820385777
  0.9977678289124583  0.6672247480904790  0.3351428706417433
  0.0807730465664179  0.3371641683348894  0.4197215087072897
  0.9972774756745615  0.2515062267962871  0.5854309163504007
  0.3346409074126978  0.4237947381373394  0.0808073160442307
  0.4156624051424658  0.0833652249897738  0.6652432683014141
  0.0763904913954748  0.2552090070316516  0.3403857303531163
  0.2413185127692569  0.7503148127376754  0.3320577049080115
  0.1548729920582639  0.4269428275099913  0.0816224431785215
  0.1641183610568624  0.5007944490587795  0.6650787039826122
  0.9938773775743779  0.9134219412382660  0.9139998955307146
  0.9976810983355527  0.4189677407968381  0.0817761149832061
  0.1614683348087482  0.9182042552606755  0.2482897799682442
  0.0799030141253745  0.6659629359713334  0.9155467318767315
  0.3309530348269552  0.7517163270712874  0.4240527569204362
  0.1645747588547331  0.5834075182655813  0.4179407079812280
  0.1636611952230023  0.5010839284008478  0.1675672901808039
  0.2488972389404318  0.5021597909945207  0.4195343175110978
  0.2483823306807299  0.5839418660031380  0.6661552345800336
  0.3322821227719814  0.3358577343789281  0.5026354321772499
  0.2515556670297838  0.1684310001778949  0.0710889112663307
  0.0812853052425216  0.1661441601977409  0.7496935175141625
  0.3325765671598473  0.5009397568706970  0.6671488252655006
  0.9956787418509306  0.2506856627457628  0.9120682421468920
  0.2454761934076320  0.9088974387432401  0.9900763153707761
  0.2480177811581081  0.4197650975811164  0.1680171952247927
  0.2496474636513037  0.4221899676295005  0.3376112046922539
  0.2478279778928632  0.9174665613588844  0.6654917445057308
  0.1646644828259723  0.4206828580866694  0.4193277708553543
  0.0810345681860717  0.9161121940306147  0.6661675376691215
  0.7479684434537661  0.9141181036229566  0.8316026783565849
  0.8304665611272352  0.9142054131836485  0.9141169938543542
  0.0791960417957591  0.4994700544741236  0.5843097781798727
  0.8319893728341610  0.8320388329550654  0.6662392829359741
  0.2478803811777796  0.1665582304392734  0.7507425645645422
  0.0820147031156042  0.7490634911055948  0.4994946902354834
  0.1641234803890609  0.6663335543924708  0.6650510139115369
  0.1635600773427473  0.6642285908367688  0.1655399619036970
  0.2465271352703519  0.7501948250623636  0.5008308679593213
  0.2479038723982902  0.5010653134061283  0.7481133333262757
  0.2475259730895474  0.3343250206380867  0.5851296944099889
  0.2472571217506418  0.3366238373014540  0.9123073491316632
  0.2476974851771885  0.4190961551079169  0.8307867813242801
  0.1623810516312925  0.5021534883118766  0.9963746266879592
  0.1632158837631950  0.5829125587279512  0.0816495819289084
  0.2470183151383087  0.4999498622460717  0.0816670660209607
  0.0780489483861893  0.8300825965780186  0.0808711253918665
  0.3336558328610314  0.5026990497021280  0.3354279700895745
  0.2487183934858752  0.5014688273436907  0.2502890380216446
  0.9132201595595191  0.8307111338818918  0.9134793250679887
  0.6654634700813479  0.5002882678872789  0.6666571685757755
  0.3386250394456766  0.0813435714148438  0.0702918729025394
  0.1613047299165864  0.8317030282240973  0.1652712218184294
  0.0796707306502317  0.8315648308217333  0.2498547712050158
  0.2449544249827356  0.8349954380470576  0.2477573772042410
  0.1566240977831935  0.9126304808772242  0.0788844953120941
  0.0815574186243572  0.8320957619085833  0.4166888825864724
  0.1628695096338094  0.9168011141701291  0.4182142007971101
  0.6663840344663030  0.9171966394178714  0.5830649840845130
  0.9978603541888810  0.9998172681906049  0.6659438011911977
  0.4171691172544660  0.5839225424144887  0.8315576447092586
  0.9136154224751855  0.5850275748372529  0.3336552000792498
  0.9152059379956997  0.7496156974663858  0.6660525842021546
  0.9142855415500565  0.7495835949704490  0.4996636343867920
  0.8312065709641542  0.6667484801868281  0.6665499622818406
  0.8311254993087021  0.8322485369385486  0.5002010100723618
  0.9114655673304818  0.9983003439461582  0.9141884378545815
  0.0800955830919981  0.0848100139512003  0.5022247343812859
  0.4150572225626280  0.6680999128427338  0.2481608696061315
  0.9975192298530670  0.0851150481937536  0.4195751084477192
  0.0787814395712613  0.1693291978158469  0.4199901170931561
  0.0762650266041074  0.9995624569071768  0.2518101179040458
  0.9970415980910089  0.0852198453277032  0.2501280231549114
  0.2479695200151714  0.0787598506782010  0.9948543846604267
  0.9930408527011347  0.9964081699521282  0.9959351805533136
  0.9904943277644188  0.0781408665834361  0.0815424524514033
  0.9140243962853717  0.9156718279305182  0.6643985031444350
  0.9134388947436691  0.4175724616758073  0.8326429778286575
  0.8313109107009952  0.9158205369505643  0.4166269678653385
  0.9973948411847469  0.0840489127081067  0.5839471764816739
  0.7488253707515153  0.6664171867839732  0.0813650519930648
  0.9977913372292353  0.6662929173415865  0.8308871970285958
  0.9142336355085722  0.6669410099003702  0.9149702684058314
  0.8307794275194883  0.8311276070311666  0.9977388151599083
  0.9142979972591376  0.9158234246849338  0.3341020465717106
  0.8307903682860973  0.9140839186911502  0.0827484671713248
  0.0824363447293435  0.7492660093458269  0.3335439022880610
  0.9937944369930288  0.0796751050054991  0.9112370840496682
  0.8311446891793094  0.7485715838754313  0.9142064339269553
  0.3318727065622865  0.2498549208162153  0.7506071580642625
  0.3325095327815534  0.5841644820319717  0.4192539350777645
  0.3326126209968240  0.5831010125533815  0.2489543746892195
  0.4998810489300158  0.5849349738035059  0.4185187666325102
  0.1610647440592762  0.1695517203783140  0.3393577446923093
  0.3323801035866220  0.5013440339470747  0.1658156305760407
  0.4997443408888825  0.5837112345252540  0.5836151792109887
  0.2423457207695854  0.1655444815935031  0.2590982362446930
  0.1832272733847787  0.2318800812546203  0.1595858814102339
  0.3380434554797011  0.2576747131202922  0.2611139146765731
  0.3335394136417773  0.5017380508918713  0.5027269961910555
  0.2480505272613078  0.2502589990340177  0.6671813638549734
  0.3320310304353732  0.4173645468677605  0.7494651570202042
  0.3353851642513000  0.3388571009490940  0.1761264266010238
  0.2933552702405253  0.2216715671965339  0.1659996414173838
  0.4167648387557493  0.5840963927386691  0.3344763026925876
  0.2481069818794904  0.9964742077922059  0.9134166478404584
  0.4171118262040702  0.5847508509528985  0.6657398372777944
  0.8320512947582309  0.9145317001844119  0.2507567635861750
  0.3235036417963383  0.8314856996280720  0.1632342889921334
  0.2480468998155570  0.6669184489091500  0.5831440631952760
  0.0801898580032691  0.5837702509011603  0.8310716337619447
  0.1624957472526312  0.7475884660827270  0.9136967962557823
  0.3295044374079342  0.8270283588829583  0.9932021143426895
  0.2460184450849552  0.7478969848084873  0.8290665303500099
  0.2477976108369035  0.9146929057253258  0.8305022967419933
  0.2474507420163976  0.8334319356208484  0.5825361119735281
  0.3319251399723591  0.0823737793619283  0.7486606133720040
  0.3319889032988389  0.9978993132219022  0.8304477855933167
  0.5003101437685852  0.9980103798627418  0.8316490729644013
  0.8314244351638438  0.8317871888639825  0.1673037831604585
  0.4187271623724522  0.0667093248605999  0.1698272215663396
  0.8305926477919178  0.8316829878167818  0.3332551993339002
  0.3463004698245716  0.2406926373554613  0.0683567237827637
  0.9135594728131887  0.9139199685258782  0.1666379252380237
  0.6688760545559653  0.9163529065888227  0.4191426187685351
  0.5022113390019656  0.4155210164747266  0.7490466212727784
  0.4164403500285481  0.5847620310232436  0.5012956676229608
  0.2488049547428368  0.4191075683752691  0.5022669988882768
  0.1629099017983886  0.5844664454535414  0.9145118974016078
  0.3327478610661123  0.9164330654176706  0.4190068720237645
  0.3329502887883275  0.5838907805783381  0.9135791113418188
  0.1630434652100766  0.5014556311154452  0.8299387814147479
  0.9939239185074517  0.9132715243278855  0.0816370149008286
  0.2475251108924121  0.5031273321875266  0.9130255810397896
  0.2486864530737996  0.5011460707169502  0.5842671644087131
  0.1630423683963609  0.6651521490801766  0.9987041069627934
  0.2478809994503542  0.3438241484114671  0.2566958985032403
  0.1645327208969305  0.4184051865242553  0.5846984038583741
  0.3319585237238322  0.5017235440469675  0.9964859729628416
  0.2454750730477285  0.7479042756631785  0.9974004921110715
  0.4234249719498180  0.0913954925359114  0.3464092954511745
  0.0813750777140013  0.1685029477544281  0.5849666177218870
  0.2481150835549629  0.4234620623894724  0.9932333992391975
  0.2468778155608516  0.1704177292875120  0.4196163536117782
  0.1870823532363147  0.1188781553412827  0.1648415801501083
  0.2585802672928704  0.2524084151429585  0.9892784581406323
  0.3340187336393887  0.3396313065501240  0.3381940195721915
  0.1647292035936812  0.3358825165135965  0.5017660748373050
  0.4166825378103989  0.2524508487701885  0.5030462542413345
  0.4176621806575151  0.4198300493696300  0.1664589296604315
  0.5006928544948617  0.1686709658621967  0.5018890624896544
  0.2485473862925678  0.5837738356000050  0.5013793623939075
  0.5817724343760273  0.5016007016033494  0.9156875081480933
  0.4178232765608347  0.4201279269968424  0.3360734299995504
  0.2478227611294112  0.1675951677772212  0.5836127199780994
  0.1652924000164513  0.1672110137160766  0.6670468461159725
  0.4173866605210627  0.5023613981180343  0.9147430643204894
  0.4158791223128915  0.4174207159644856  0.5031402920277989
  0.3326464817859510  0.0014544758631423  0.4992000321203578
  0.4151606600621435  0.3335749438799068  0.5850384804736745
  0.3312522928267949  0.5831168006851116  0.0811268645332673
  0.3326183006215693  0.4180669368847472  0.5850058278769595
  0.0808936388007156  0.2527792222756670  0.5020357433814456
  0.9970973072786030  0.7484995735982479  0.9145557523942283
  0.6662360201523696  0.4191099737162952  0.4170602603676436
  0.7483616389031515  0.3353181127263158  0.4172614687842124
  0.9971838154662412  0.5837151953962857  0.5823842992190271
  0.7470452723371488  0.4181350652962043  0.5007995439243055
  0.9140825275361322  0.6665042462213460  0.5831815704692754
  0.9972136942161083  0.3348379981742348  0.5016156886522216
  0.6669350649170512  0.2495555658695834  0.7511166845865681
  0.1633017303812682  0.5837947936784574  0.7475720211698762
  0.6663461060916860  0.4194261065818615  0.0824355823467214
  0.5852030693411571  0.3371346625845005  0.0829287277152622
  0.0795073461572557  0.7480653009014215  0.9975335790264171
  0.5807830316853173  0.5836631360945943  0.8314784559386067
  0.6660819410479568  0.4171436144933955  0.5844761481721643
  0.6650423207382561  0.5839934306508773  0.5844263487254959
  0.3307640828345721  0.8314218900811657  0.8294922011288790
  0.4145314186662202  0.8236429943125005  0.0734109111200624
  0.4982214092767130  0.7481868073616034  0.9120051718197117
  0.5815261907490201  0.5001621168933845  0.7489628573114051
  0.0759753780103989  0.9124674500721746  0.9958481303500646
  0.6650398175624340  0.6668856935833344  0.9982973290480185
  0.1649926066703000  0.8332510967690274  0.6662966351618870
  0.5813504432307400  0.6667099521157975  0.9146349767718210
  0.4151265829342652  0.8299983030945380  0.9125744821216074
  0.9986167666700231  0.6676110939217338  0.6644947470707447
  0.4941367571850636  0.9752909319878438  0.1689005437605278
  0.5839735260027805  0.0813461019623517  0.9990707899652232
  0.5012136986062341  0.7490543407388739  0.2485181995163817
  0.5150959113610950  0.9122213836421974  0.2599114906498042
  0.5874219841122478  0.9116093150088659  0.1670470951152542
  0.5818947319898167  0.7502273791635801  0.8304624936863241
  0.9961378325538095  0.9149281807773844  0.2500260813469095
  0.4159767991833558  0.7496982690647052  0.5023027865571583
  0.5843712604079171  0.6656272849836760  0.4180412834111531
  0.5826576479523372  0.5842125393219073  0.5008292520051623
  0.4995126260515815  0.5839212355840211  0.7484284561882629
  0.5818164308555421  0.6664873656882130  0.7484069997515422
  0.9133565858211931  0.8307382097583680  0.0823350359369748
  0.1635018746507149  0.3346459050260442  0.8319140654248276
  0.4218591146324835  0.0748239254243786  0.9937517084281985
  0.1636343599566599  0.7491590088754229  0.7479420442815755
  0.1646063986486426  0.9170955985642382  0.5827332529044814
  0.2451611693894462  0.9178266089099567  0.3315632261861572
  0.0801728351713031  0.7486704941348217  0.8306505050657635
  0.4143909975125414  0.7509761247086556  0.1640112595036724
  0.4998572738820026  0.7485106714027049  0.0823731618546775
  0.5829639731173986  0.6663770640348217  0.2488188680296020
  0.4249437915954928  0.7498969888152174  0.3331518060283490
  0.6663548069574680  0.6661092474600869  0.1653383949700800
  0.5834852951151067  0.7490935189734473  0.1656748039798389
  0.5845640528332348  0.7478518765924665  0.3345499280782027
  0.4165917726669567  0.5846069755970312  0.9979801877300041
  0.5022477132696407  0.9168703408428481  0.4179863794109380
  0.4989006174117345  0.1665527409497749  0.6661925965137566
  0.7495337921262083  0.0846623056203710  0.5005905509924263
  0.5820565981004499  0.5837789741990548  0.6665835799498250
  0.5824430490292033  0.7498446982394531  0.6653636066299754
  0.5008321185045199  0.4163453892345581  0.5837357091700358
  0.5846750962830406  0.3333051984806237  0.5841440003941485
  0.2467477046320681  0.6650253352879280  0.2489698508771333
  0.1650688434138356  0.6666104449243886  0.5009202701831659
  0.2470090624966370  0.8284350516987437  0.9112589649573576