 B Cr Ni 
 1.0000000000000000
    21.1200000000000010    0.0000000000000000    0.0000000000000000
     0.0000000000000000   21.1200000000000010    0.0000000000000000
     0.0000000000000000    0.0000000000000000   21.1200000000000010
 B   Cr  Ni 
  17 259 605
Direct
  0.4120782230117924  0.1525169549284770  0.0408092263575230
  0.3218380798998776  0.3120652030808485  0.0953217772443295
  0.7480678926944045  0.0839490119817481  0.0823453984597840
  0.1151694446006839  0.1703255981603208  0.1672400108264894
  0.2500439620885674  0.2615881854930285  0.2346941486507887
  0.5549966842526659  0.2547289692793137  0.0971902826614882
  0.3335949955760890  0.9690131556649064  0.1949182820417337
  0.2456126103949809  0.0780130689204736  0.2320262711288616
  0.5031036143023262  0.3074160175661803  0.0656404084574639
  0.1634818940071366  0.1673362099294585  0.2372978809692676
  0.3484372609659800  0.1740037266283359  0.2239915081941634
  0.2487279127023943  0.3167634293177329  0.1658851605032478
  0.2580919471849249  0.2540824615178506  0.0827795181387070
  0.1616912052080896  0.1664817992326374  0.0906861481817869
  0.0808741809903042  0.1650524596943006  0.9964953165652068
  0.4750301025937584  0.0874937314899955  0.1688727731470932
  0.4224643775195771  0.0809874015156841  0.2347117579830745
  0.8321255735817888  0.9169317973857015  0.5835838943956231
  0.7465435539376279  0.8331143338608846  0.9169062802979741
  0.6633765132508700  0.5016378552146332  0.1657854158951583
  0.7477400984022827  0.8325656386313773  0.7493811971103475
  0.6667424425413114  0.3352557714036196  0.5013112041274507
  0.6656358825123088  0.9144905801757660  0.2497425899454950
  0.6651653790027796  0.6655065308968614  0.1663586263451949
  0.7493481438204783  0.3342821936015997  0.9139541073580768
  0.5969468957778760  0.2531745201704517  0.1816096424189571
  0.5839866494167857  0.9156192176495555  0.6654903563082725
  0.4158070854125327  0.7485422178023009  0.6655582729698255
  0.5001484482703695  0.9955808732398314  0.8312519952538977
  0.6681700059620769  0.8336500154837578  0.5001928988993315
  0.7472584523928294  0.8327410002484171  0.0809747958479782
  0.9954804196831262  0.7473461477972639  0.5817690542446881
  0.6665568124257634  0.6667754049393433  0.6678027603623824
  0.6668063529847224  0.6669706602900428  0.5008083787247580
  0.8306681576217572  0.7483821844164569  0.4161970302171428
  0.7474867901488024  0.8323624271773663  0.2492947232345161
  0.3303442188115674  0.7498384788094001  0.9149619842991995
  0.8318187962976186  0.5016598066520952  0.8314093502458904
  0.2469680499114882  0.9976653051912702  0.7473467417262400
  0.6654432409682696  0.5007904206933201  0.5023948556448327
  0.7457825065359429  0.5857234802036168  0.3344578943682524
  0.6648120008599427  0.5021072456824377  0.9954391784896514
  0.5812266197244795  0.8315928282040456  0.0822386604860067
  0.7469199731638602  0.6666494838925024  0.7487101079371188
  0.6669081324515779  0.4193835110955588  0.7485210370891388
  0.0820014823396465  0.5848360279539140  0.8328546969851052
  0.0793892870361834  0.5015763586181000  0.0824323517128917
  0.4988430965331231  0.2513476734004392  0.5861177332747327
  0.8326063829925833  0.9988015528545139  0.1684648155729381
  0.8336677139083237  0.5015182621206750  0.5011373767571844
  0.9134659832323999  0.5826161454700025  0.5002247512557805
  0.8335555899213153  0.9985641538597229  0.3316486692591820
  0.9143153083966907  0.9988004005803575  0.2500334928986999
  0.9146048245188444  0.5846763112594789  0.6683301844583510
  0.8318624943770281  0.7491938057744776  0.5833266680291457
  0.5023723797129792  0.0818125437950320  0.4191932206675820
  0.9947300986722213  0.7477660056962345  0.4170814483892037
  0.7488491748786534  0.8323281146964701  0.4173338207344823
  0.6662091098936627  0.6667017569196436  0.3325841078591719
  0.0801687893149477  0.8317167097296254  0.0837452256937436
  0.1632246150878638  0.7495826460440049  0.0830491103533448
  0.8307940562523960  0.5028576544052730  0.9965374849314711
  0.9971668745023869  0.5004090240401873  0.9988726401332804
  0.8339682477608357  0.9988152157611687  0.9978371437101815
  0.6658558593948619  0.9981577334851121  0.6655768894527596
  0.6669364320066449  0.3359787102089322  0.3375548675472763
  0.6675309171453996  0.1660863620421156  0.5012316055664848
  0.6634043067648745  0.0010989082400743  0.1660903752113362
  0.6648765749142617  0.9160589935911502  0.9154192791147434
  0.6640442727056559  0.2495646317238527  0.9163031168163032
  0.7476200515116109  0.2506632814067979  0.6659792770421468
  0.4985163679574457  0.2510280847329154  0.7462404188046878
  0.6718742607835440  0.2521730986743659  0.2577161621875866
  0.7476035801834513  0.4170789264050273  0.6675032733712952
  0.6656237515544888  0.8325372401540374  0.9978465098334486
  0.7456304113792648  0.3350170598867688  0.0821747884333487
  0.5843811475319214  0.9992939489216286  0.9123159428446386
  0.5872776203251177  0.0804180858949677  0.3409958094078693
  0.7468602530515203  0.0818917725951763  0.6660902711904485
  0.8302747808613534  0.5028205236867033  0.1661342289048441
  0.0808492924093565  0.3345510103354046  0.5835299720630679
  0.0803293746161095  0.9156589625398602  0.5000866039514067
  0.9141554622357811  0.7487511899437828  0.5000914631026204
  0.0777136977813102  0.9142673243427768  0.3355240820100464
  0.4176388906858843  0.5029433455582316  0.4181209833833260
  0.9955932575741246  0.5840958431732991  0.2502346300316073
  0.9151018539254273  0.7493389744035130  0.1673785420443134
  0.0793789587217433  0.9152261202415934  0.6631558160167124
  0.3376421765113039  0.1657202390531338  0.3405175567505046
  0.0793462389689999  0.7477233173004775  0.1649204892345985
  0.9965723094112657  0.6667195464593689  0.3333085977084358
  0.9956524546721194  0.9993372037680409  0.3353058982597957
  0.9962279643259184  0.6653471755464121  0.4998157253127552
  0.0796687788854448  0.4180189116987442  0.8321320161222550
  0.0812889861903747  0.7484789760682236  0.8332463904353716
  0.9982650010085173  0.9995158695953689  0.5006458077576064
  0.1647845244902862  0.9151408699963181  0.5821187883925228
  0.1628545733200815  0.9151206146908988  0.2505636202803397
  0.0794842042178824  0.3355764026177933  0.4187150727289393
  0.9982076595191142  0.2504593427284967  0.5838829841211852
  0.3326499027234051  0.4166905456872734  0.0820710804726044
  0.4158593964412228  0.0815659539912247  0.6640631473894200
  0.1639288577537301  0.6659540131617619  0.3314454782555313
  0.4146307961056119  0.9144571586273663  0.1655757610044972
  0.0803980276504501  0.6671261361690120  0.9160573033523575
  0.0765983313788970  0.2556783815917649  0.3388311011354074
  0.1561165697006843  0.4235047405791867  0.0814230226871622
  0.1637821983715083  0.5013200528741043  0.6651074076720507
  0.9954856538314049  0.8316678375492933  0.9979922876783875
  0.9960047571074307  0.4202551265836649  0.0809507006489600
  0.8297021134214855  0.7493364545732030  0.0810890193744679
  0.1636033167382497  0.2528111305906358  0.9112481776174024
  0.9966899557431135  0.9977688332308456  0.1680969587458475
  0.5828304718731224  0.0812376882739266  0.6646410552776367
  0.0808965129856872  0.0824871195960477  0.8295067334223256
  0.2470624046702269  0.2581972681772881  0.3416048198186235
  0.2461617421819872  0.9142462891018043  0.1683611672809055
  0.0803016798729736  0.6672417367193891  0.0832442605809804
  0.9965887449589447  0.8307651966118800  0.1651240087370192
  0.9971531466056857  0.4182849882373599  0.7477948620857465
  0.0772075485315851  0.9968083779981942  0.0821187997551501
  0.7480970070933393  0.7498552063109546  0.8321531284459159
  0.9983932646747864  0.2499710410420925  0.7464143736979485
  0.9955535103423530  0.5011672132892965  0.5012252704111444
  0.0806647298034200  0.9142039130621342  0.8292948285907333
  0.1638555933584657  0.9976232161630445  0.1655263696429047
  0.3303295060827662  0.9248641672844398  0.0897369877892508
  0.9111999097163951  0.3361506240686628  0.2495286979894885
  0.4991357688460886  0.6676591180519108  0.5003358024361088
  0.7479695995992063  0.5836792711654011  0.1652901131607270
  0.2465159815759967  0.5049316699451061  0.4187257442012208
  0.9145239450019342  0.4187397548603081  0.5007891071173232
  0.3369473911153950  0.4254091254760669  0.2591615784177170
  0.1627175461197560  0.0804122229429325  0.9110390859888595
  0.3314615583616640  0.5841654087154600  0.9126002439039415
  0.0753517349358928  0.0823902053326148  0.3372797655727262
  0.2473145357136424  0.4997333150438016  0.0810171477509800
  0.2495142026782400  0.5807438982258232  0.1660166424941601
  0.4988285732598620  0.8310714039575230  0.1654941256344098
  0.9134466733214337  0.7489631134214665  0.8310874437002813
  0.4994393498669811  0.6676447053769787  0.8317072994491349
  0.9945567968151476  0.3355550339685429  0.9963271969136990
  0.5807170934751833  0.5835868962565589  0.9964886313593516
  0.4991457470768723  0.8326975476329043  0.4992311155700888
  0.3307599894671490  0.1650210282308248  0.8282100407171631
  0.9852062151805595  0.1667697910427021  0.9957913832731359
  0.3299613148204789  0.5027696000976069  0.8304011050541091
  0.9151739611932233  0.8305957537516157  0.2487170100109628
  0.5006463733073583  0.5007236180819966  0.1657676614699861
  0.3318532931785224  0.0772967214144434  0.9066031556359372
  0.5006166600796050  0.9145866643349960  0.9121314032550444
  0.6664721644506405  0.4215496944902829  0.2524679454351073
  0.5831571504485854  0.5852861643890731  0.3357102101595370
  0.3337645606944744  0.5017936985630920  0.3341893391978765
  0.3297020626257171  0.5811518055949689  0.0837998447553822
  0.5920763093184642  0.3443205561095776  0.0821405035588787
  0.3293502661797471  0.3349755121368895  0.8286788936064012
  0.2475608528007722  0.7497278605725114  0.9980582357131340
  0.7484588488196796  0.3334336779103563  0.7485976172862564
  0.4981561556219306  0.4189971849405280  0.5843264964761683
  0.4992691673248196  0.3349361859250143  0.6670777238863063
  0.5815018457905889  0.4190942149281719  0.1670734617767004
  0.5818826410888279  0.5832041548955103  0.1644962234322416
  0.2469240503020554  0.9144833684248941  0.5000907668061436
  0.1643994520489596  0.7486456107791356  0.5834254291943357
  0.0829967991520567  0.5835940028224811  0.6647586230944019
  0.2484994798759410  0.6662843936014505  0.7481410700435652
  0.4144548940907887  0.2496125551187477  0.6644284503780052
  0.4988875214798581  0.0808132540952702  0.5830975214941256
  0.2499639472556265  0.1650607818118804  0.5811518806159234
  0.3309448014863389  0.3370358507430566  0.9948183619821191
  0.1640136650174712  0.0845036927713826  0.4161676021372935
  0.9943236384088411  0.4187926930541688  0.2505764267080212
  0.4999690363515972  0.4182322505086608  0.7476936785944461
  0.0800261778284798  0.1675527194887035  0.7474147669254376
  0.2472507060717471  0.8305403030714810  0.7470966346650895
  0.1621554684476380  0.7488585566867577  0.9153621442479982
  0.6658135929113485  0.3342481745463265  0.6667655428198725
  0.5790855025252566  0.0007915071077089  0.0813017517186488
  0.4979902298474559  0.5005105359202516  0.8271456207385286
  0.4155860894308591  0.5033100728639461  0.5838811095931813
  0.3295624555155728  0.9967495881875573  0.8285593143957575
  0.4996056015134459  0.1658106811208837  0.8263148404872375
  0.4241572710354822  0.2564645654927891  0.3459206494597606
  0.5883507620109218  0.2529487941182384  0.3384507375006712
  0.5043622668883802  0.3288118744097445  0.1659785796804702
  0.2471825998469561  0.0770804854203996  0.9851020285757681
  0.3315277868678446  0.9135581796043738  0.9108253276356657
  0.6653086338925138  0.9983742342001186  0.8319410916795977
  0.9921377139958792  0.2520142401616054  0.9130211069591786
  0.2453926783384316  0.9956328702608914  0.9115235760578022
  0.5023183511152213  0.8292598114676971  0.3341628442193293
  0.5832669117316626  0.0796293041286919  0.1661255745414103
  0.6665676812206115  0.9977776817784125  0.5006447039660167
  0.3300011761931811  0.8312954421195297  0.5017277933298153
  0.1637682006711441  0.5018598746263389  0.3340449356044917
  0.4150424436572747  0.9140770788672210  0.6651581915989006
  0.5028773824866223  0.2508559938256937  0.4207397572053952
  0.4158205923054892  0.9960436908831521  0.4172739618829668
  0.3337474471390693  0.9943010976726985  0.3412648376942680
  0.4990881442254290  0.8318455834942872  0.9997814639468956
  0.4183414421590746  0.3353021182147952  0.4203353168236746
  0.1619859174553946  0.0836432408413669  0.7470226215280251
  0.4976778577803463  0.4985849230563170  0.9979229938385792
  0.3324084858880071  0.6671037428672875  0.3313534965830389
  0.5825796857344687  0.7502129697740867  0.3338596817185067
  0.3332230124186348  0.7480283363932537  0.2508085318281742
  0.4988672770024614  0.8327483656875768  0.8316083860417319
  0.6657334770870839  0.5857066618338674  0.7483921570800033
  0.3312709357300774  0.1666742519550976  0.5009273171016024
  0.1640363009904958  0.7454613123218647  0.4152187192184121
  0.3317820747436911  0.5851791516499363  0.7500876115162961
  0.2474010203986119  0.2510549477728536  0.6644633984131753
  0.5006905338618614  0.2497368733102837  0.9078665212884229
  0.9137670134613085  0.3346837847589264  0.7477981378512090
  0.9125133859033927  0.3352685312975783  0.4178013471327235
  0.8306975403907365  0.2510189362643263  0.2501307285181822
  0.6615091673221465  0.1720292440535708  0.9971689249689507
  0.9151639959392043  0.4168836254913611  0.6688766416302052
  0.0831476866400261  0.0852092881150617  0.4986572816219937
  0.4997337383133706  0.4143900925897226  0.0796344861655903
  0.9121524594289822  0.9165622644633948  0.9991965658211480
  0.9152011582943981  0.8323548193765694  0.7488932360042857
  0.1647224178032457  0.7483206092871848  0.2502625774843237
  0.8310410336929455  0.2507054178032352  0.5837899025527304
  0.9125335494906843  0.1664897085468784  0.4197184962298794
  0.9135129383268538  0.3341565590275227  0.9148146514438993
  0.2467309941505086  0.9983798553564310  0.5813959695782610
  0.7505929808914640  0.0804850694284688  0.3343319569152678
  0.0817115492487003  0.2505268894683610  0.6641409243223437
  0.9936571860911962  0.2540970393285874  0.2509421511326637
  0.1631514732530508  0.1667162074291436  0.4991723968587082
  0.7483021021183390  0.2526613975378026  0.1682633329370896
  0.9985270481216734  0.9998304822415806  0.6643590720250944
  0.8318242493075517  0.9989985979064505  0.8318647558663977
  0.2484949454708040  0.4188532276092047  0.6643152976476953
  0.9969693936643016  0.9153075875060319  0.4167709892153774
  0.8302290831701273  0.5027110427691489  0.3339254698358282
  0.9131948379898975  0.0826082852306200  0.3325055670738110
  0.1620626731381645  0.4196262580180418  0.9097826193545779
  0.9136817939546908  0.0812792591666888  0.9979148554681903
  0.7472125858366350  0.6674050876895513  0.9143572215418266
  0.7483333893240395  0.6662457243705308  0.4189813146613409
  0.1626972170637109  0.5824624577427605  0.5842367553982808
  0.6661713626236386  0.1673386549766922  0.8323151843103979
  0.5743968753170645  0.2524519927597595  0.9977279745963228
  0.3301269171108520  0.4194091650195770  0.9131676673328439
  0.3306860532695111  0.7491145044030355  0.0818832299978447
  0.3311407739136077  0.6658064050794154  0.5015690704402133
  0.5002232607626445  0.7490299417172682  0.4183138278179758
  0.5806500673426359  0.7496981570368948  0.1649803489125405
  0.4138848633643120  0.3352911415039003  0.7483473589271090
  0.4991897148945196  0.6681492230464786  0.6655804569748560
  0.4193313997557312  0.2563609263115811  0.1794990676335138
  0.4235811159364363  0.2522490433031716  0.9818362373761632
  0.4122577217862463  0.4179336401768042  0.9954161499891192
  0.2477207761245358  0.3361934228581631  0.4177706017882328
  0.3331227105955538  0.5838920834321185  0.5832896385456535
  0.9150166782013675  0.6657369936099277  0.7477948658593492
  0.4182611174975163  0.5015711953662164  0.2511924314132210
  0.3291570199331180  0.6663925042005131  0.8316337415154202
  0.1596414258122732  0.5859550748899754  0.9129446064185178
  0.4147180189365375  0.5021344138666645  0.7484536833203681
  0.4977827585295855  0.6648326650082241  0.9981534152219239
  0.3295418113198439  0.8314083016340118  0.8299601551440585
  0.9131108832037620  0.0830821587680523  0.8297662762965893
  0.9115022762463832  0.5834106191992425  0.1646800039206980
  0.8330265454568612  0.1657234511101154  0.5004306420755092
  0.8295174562232663  0.3344244416307576  0.1656284817756799
  0.9133840031835720  0.0820721814733295  0.6663415210982516
  0.9134448542997518  0.0839862432508733  0.5004331389312596
  0.8301312830107436  0.2507440877671904  0.9146860428029852
  0.9980804470502441  0.9166333173610640  0.5829516809728369
  0.9160215599162146  0.9154677014930143  0.4996662836772592
  0.3305304978263978  0.4179653224360328  0.5825231217805652
  0.1650642824372686  0.5818968125790438  0.4154478694688670
  0.3323003470461637  0.7470350065354897  0.4182570136908237
  0.0800064912275225  0.6652981588973410  0.4162184732197182
  0.1614539774047664  0.4202788149454109  0.2523714703890053
  0.1637803218069978  0.5017048748783689  0.5010990585443394
  0.2477143340836345  0.5837333447230456  0.6650246797986590
  0.3320746282689471  0.3351555362578936  0.5003136921078701
  0.2517277611476484  0.1619666029326226  0.0691851623560270
  0.9112782554096007  0.1668753442783011  0.9123794772151521
  0.3310856264530639  0.5019707695499920  0.6658247701890144
  0.0793184672473672  0.2515897590988561  0.8295102816141010
  0.0799277721026681  0.8322528423262646  0.7478806933222036
  0.1633361470520701  0.4204793482175654  0.4191513782613072
  0.2472390869410147  0.9152626405597252  0.6643147784561716
  0.2477618766186894  0.4227487420248397  0.3399124773941287
  0.2469396958890075  0.4190572763661348  0.1661467850955166
  0.2471409090707485  0.9119577000389917  0.9943938570117040
  0.9140383426354854  0.5014144833869838  0.4169141367656305
  0.9145687861528496  0.3348976879651625  0.5844369537219127
  0.0796124563771587  0.5002950719783816  0.5831961277956541
  0.8327110930980869  0.3348500751602743  0.5018635195313265
  0.7486157913695780  0.5006666368194017  0.5837935170795547
  0.0799665770822658  0.7473736897478973  0.4992188996359775
  0.2481662646251158  0.7485917834709329  0.6653429626376365
  0.1632319371949111  0.5004018003052871  0.1669049199907293
  0.2474747680970044  0.7472825936040773  0.5000200519324366
  0.2469222116490311  0.5018445224993948  0.7481480798203077
  0.2477041045271782  0.3340929650713456  0.5831815489740153
  0.2472020020338649  0.3358166168056526  0.9113757169900165
  0.2467383828576359  0.4188954478730982  0.8302758066879330
  0.1624664039404850  0.5019945219090076  0.9968708175748542
  0.1641907367700339  0.5826096932238233  0.0830627674024059
  0.2473104347810707  0.5832743301333188  0.9984590912222355
  0.9955238058884026  0.9149142462074316  0.9134643064241500
  0.3328786969988729  0.4210925770140149  0.4195528985521668
  0.2484316411097261  0.5002361641675791  0.2510438603230764
  0.5113021892100982  0.1754580057544707  0.1769373941231524
  0.8300535074720369  0.2525550933844451  0.0834611135398590
  0.3358798796515968  0.0803381166129327  0.0662934736810871
  0.1643683929710995  0.8317277831864954  0.1670618189277753
  0.0800271819639949  0.8308154630909167  0.2500358855030158
  0.2465898095821255  0.8298151132484407  0.2513145172532615
  0.1618372845782983  0.9150353021344781  0.0824164553337095
  0.0803045986178291  0.8298997425496017  0.4173137711412830
  0.1627048432585457  0.9136739045829149  0.4188039834245204
  0.9136640609402447  0.5011481112957940  0.9148824808976751
  0.9960910953654903  0.5836985328230853  0.0821866129508610
  0.4157187866554395  0.5856077629225834  0.8321076977288144
  0.7510531882239586  0.2520801956745773  0.3366963886243240
  0.9124803230988828  0.4195660940839537  0.1654739465758859
  0.9128759164084909  0.2509792457171665  0.8304888355660471
  0.8320318409958156  0.3352300985281563  0.3344884343168013
  0.9127051653940040  0.4185708356856442  0.3339517042826693
  0.6667725316560432  0.3336663198473582  0.8305298607511887
  0.1650022331707436  0.2505803120881538  0.5818192717012561
  0.9123228889888617  0.4186263843202285  0.9980878777112868
  0.8302774136025500  0.5844602013242369  0.2495335459631482
  0.9128962493133512  0.5017244057040343  0.2496724937149332
  0.0788923843846924  0.0803919721982171  0.1662607266967671
  0.9143564612346347  0.1660058997610441  0.5832993467456892
  0.8304875693525193  0.5834171131621606  0.4170071384843902
  0.9960616647982770  0.5010357459243848  0.3324914456877838
  0.0798276484430268  0.5023058649646284  0.4167137909856379
  0.8308132689898394  0.3343604023555311  0.6661994723769752
  0.8317510072045839  0.5830762026018165  0.5846250227931949
  0.0798330389265571  0.4185891407283764  0.5001117868062602
  0.9142104035927305  0.2512498995419550  0.5013171504148767
  0.5008651049990749  0.9977621437258901  0.9929349105079832
  0.5823124735890750  0.9984630272856817  0.7481222446443139
  0.4154193674493374  0.8315004366353462  0.7483531300662203
  0.5832175588522901  0.9136314167725662  0.8301712091536994
  0.5828526274921290  0.1658947334628924  0.7471679154374304
  0.4999310930918511  0.0801902868528530  0.9079928387517937
  0.0805464202963280  0.7478812529722092  0.3332480072452303
  0.5789193052480602  0.1652304200908253  0.0824460510584026
  0.5867048329273604  0.1665563445705844  0.4211197250363862
  0.3326046863962031  0.5022768996077235  0.5007057876088911
  0.5000245919705125  0.5855469676353672  0.4181059646098890
  0.3306629619703652  0.4186953186769779  0.7481660790329246
  0.3335158255732859  0.4975009139834047  0.1674436992024389
  0.3077853170291737  0.2376097513078888  0.1635206605770108
  0.2554183712862690  0.1712511584968288  0.2579897434382094
  0.4158240048995273  0.5854272897882382  0.6663859653189362
  0.3399677023453253  0.2569647505302581  0.2680507761600932
  0.2406170273795792  0.9963418645708917  0.0636473299258411
  0.1642337307084114  0.2500103776962217  0.7461975417415406
  0.3311931166548049  0.2498104006677442  0.7464437975937744
  0.3390965910020073  0.3444134183325341  0.1809931615488251
  0.3332067045088031  0.5828881654106730  0.2500456249655908
  0.4162775608036747  0.5848037982176799  0.3345770947050034
  0.1624169342135786  0.1698405945606519  0.3352520103129953
  0.3323577274244745  0.5847195450488405  0.4169724449407969
  0.1974629253524547  0.2246895690808821  0.1632261530897039
  0.4988125974878513  0.5850122185771472  0.5831808596614354
  0.5064844437425867  0.1674414316683681  0.3408349389622417
  0.9126649792243228  0.3367882948475354  0.0819930088723729
  0.5825767738048633  0.8325741788802430  0.5826839764868345
  0.6657363237659912  0.8324526182617016  0.8325771274510700
  0.8320084970936229  0.9150034181783079  0.0833296790631700
  0.0808454119006022  0.6661692331841956  0.5820291299894819
  0.8313975018984863  0.4176941353453713  0.7489093644638829
  0.9144457469709038  0.9982543294037518  0.0843089703157907
  0.0809302838222622  0.4175606207366487  0.6656711425678798
  0.7477497991266151  0.9150185343324980  0.1663238915404394
  0.7475256377170040  0.1735240320141613  0.0816970478076881
  0.9139474659672516  0.1680809373577013  0.0840038656644184
  0.4189026599396889  0.1660241470018556  0.4200078769005439
  0.8297418808729897  0.3345279964739744  0.9977663651830491
  0.4973573342488712  0.3420070836415983  0.9839088937412651
  0.8305286876540209  0.4195895651601515  0.2499696605110387
  0.0792802440760093  0.8314663563992987  0.9144327463350000
  0.1633267238344798  0.9974352312014284  0.8288381140363421
  0.4981111649635981  0.5007593424947925  0.6666056803703708
  0.1652878777019542  0.1667539297297474  0.6634227206366936
  0.1648137678018233  0.4180766917115734  0.5829701143815909
  0.2463827726817818  0.6663798380348549  0.9153696164283818
  0.1632375285916495  0.8319257726881207  0.9985541158285205
  0.9955651313300579  0.9146690999395739  0.0832520759001115
  0.0807016636237243  0.1668233869957196  0.5831317263638817
  0.2485372146076530  0.5021201243510375  0.5822124022084822
  0.1921677204097330  0.1109283072220155  0.1626999627867201
  0.2480653818679737  0.3473494227377383  0.2585591673714663
  0.2487956620429150  0.1679536908132044  0.4162711588700997
  0.3305850663067503  0.5008974424319871  0.9973380879252502
  0.2482543507753572  0.4192052192360500  0.5002916287686721
  0.4194636749349354  0.0815049014705958  0.3376005310747212
  0.3316456707671612  0.9119266813423668  0.4190847398355704
  0.2463211564636862  0.4213164944295254  0.9938751813531057
  0.1630819254938541  0.5016514428288734  0.8305274373890027
  0.2460268385287822  0.5840812803060558  0.8324897835167091
  0.1644673036405568  0.6658846213052501  0.0000033523567142
  0.2461899113234223  0.5025131205694385  0.9137149184394701
  0.4196235955780537  0.4199364886454548  0.3392534452543675
  0.4169208972449692  0.2509226183931527  0.5014068515764645
  0.4988137210145069  0.5016801124018980  0.5014788008904010
  0.5003048086304449  0.1661801129406488  0.5022350456825974
  0.4149912416455881  0.3353006388018580  0.5835459632801984
  0.5817414722387412  0.5020781280083578  0.9129703985545999
  0.4136000509551611  0.4187956523890621  0.6655532871191912
  0.3308307644674687  0.2509365563729450  0.5823371645155374
  0.2509314113216637  0.2513455601189006  0.9888748912454939
  0.4143975680294163  0.5024278247536954  0.9128980632033769
  0.4155703796517603  0.5850269478414831  0.4998136891477550
  0.3315536318748665  0.9976593647620736  0.5000257868311854
  0.1641314868574046  0.3349469152791316  0.4999697962554751
  0.4148935564862582  0.4999087227059724  0.0819109242303706
  0.4210962950699205  0.4182606157337573  0.1660919943099877
  0.3344744572478114  0.3399605448095806  0.3408696653024091
  0.2481740297535297  0.5849883826691080  0.5005917747006577
  0.6687060074803979  0.1657393144546463  0.3378754196472640
  0.7482910266614438  0.7503787825536522  0.6665445031530844
  0.5820033588991333  0.9155726868012852  0.1651184564404773
  0.5810037312861732  0.7502533857347309  0.8323621923243916
  0.9969635785494519  0.9145382440914588  0.2501787281920234
  0.4156868828087806  0.7488097627297547  0.5009056565147788
  0.5842979649430466  0.6670766225756407  0.4182510794569271
  0.5826095998010776  0.5845511464000024  0.5016533046311457
  0.4986826511612826  0.5855504537171842  0.7488938242960758
  0.5816684144686811  0.6677488469481464  0.7485303292444608
  0.9137471878850906  0.8315977821768091  0.0823366964962019
  0.6685643398084680  0.4222773650904105  0.0808633348382825
  0.9971766780837094  0.7493040427518887  0.9146515604517529
  0.0808437119495248  0.6662798936990942  0.7491718828754602
  0.4149360209007518  0.7494285709600558  0.1649492012149343
  0.4973279562235505  0.7483346876209828  0.0812963368943239
  0.9132543977805033  0.9151603240482583  0.8306482231036327
  0.8318800783998169  0.0821777575176201  0.9138141989549059
  0.0771425731391700  0.4194223914151211  0.1666994921649822
  0.9940195343690921  0.2540134607825991  0.0800805652051845
  0.1693379984198227  0.1668736502290435  0.9900030548883211
  0.9962898344100850  0.9989684881310742  0.8290769225495347
  0.8308969117638108  0.6673394334337194  0.8315386477478827
  0.7500291843862991  0.3374974948143835  0.2526982410418033
  0.7490332992303106  0.4204669093090596  0.1663716617353320
  0.5850569810244239  0.3357122735891828  0.4213627337821261
  0.6668407134330856  0.4197957433947850  0.4193825640952702
  0.7490439164095789  0.3356375713553927  0.4197393149484855
  0.9970445491084277  0.5835503043718943  0.5840149142659427
  0.7487998707516795  0.4188043249122583  0.5013273609279948
  0.9137337697693411  0.6649939563774814  0.5843275344186486
  0.9966877874311295  0.3350989195216489  0.5010340174160232
  0.6658972442434460  0.2489374454346997  0.7485356930270274
  0.1638711934296815  0.5842732619682220  0.7480625019241881
  0.7487409681218669  0.4191401549255765  0.9968852648207307
  0.6693122425354244  0.3387236008844998  0.1705074728998008
  0.0809877384944413  0.7492363403362605  0.9999068055113057
  0.5812602062514016  0.5845907464144511  0.8307692700227688
  0.6661743612575887  0.4174591570620047  0.5838405104739488
  0.6653992045374408  0.0819498260667102  0.7485841972283945
  0.9963716134263801  0.3337457502795411  0.8297625425692221
  0.0802092368921868  0.3340654374366543  0.7473252929623753
  0.6659825382061334  0.8334010029055068  0.6662197755244530
  0.8308424722659736  0.8322276078065934  0.8314022781974517
  0.1643091914698605  0.5830974611097126  0.2503971853659209
  0.7474178285531844  0.7495331765734282  0.3337689500104745
  0.7488489221836070  0.9167540667074670  0.9989110337972549
  0.0800832758664372  0.5838601312531210  0.9989754964501153
  0.5839158864068437  0.4200819374014357  0.9943848696900436
  0.7484045679410427  0.6666679134788911  0.5834615583589133
  0.9979869695620512  0.5014176035575659  0.6666620896052645
  0.7486287465574365  0.5017074140988941  0.7489777777348804
  0.6647781740267854  0.8321981221995708  0.1646475237453509
  0.7487728487563414  0.3349809099143625  0.5841349687275241
  0.9974341188825917  0.6668302452982595  0.9990381504217484
  0.7489514583229342  0.9994997987468731  0.5828638523586905
  0.8308745191750263  0.0816177246857869  0.4166067607502287
  0.7489294805512479  0.9156952913391350  0.6661525672500382
  0.1587288735332025  0.3385079619374619  0.1662315654588528
  0.0791102167316352  0.4183857692768018  0.9952515519023525
  0.8317839136769350  0.2509679008015498  0.4193514327362228
  0.9955753230634207  0.1674618180045214  0.8299246894044625
  0.9130054453596715  0.2519640240903722  0.3343484266550165