 B Cr Ni 
 1.0000000000000000
    21.1200000000000010    0.0000000000000000    0.0000000000000000
     0.0000000000000000   21.1200000000000010    0.0000000000000000
     0.0000000000000000    0.0000000000000000   21.1200000000000010
 B   Cr  Ni 
  17 259 605
Direct
  0.4200355763276007  0.1533218994251420  0.0382137575766480
  0.4773994234431912  0.0877333612702011  0.1686195353740169
  0.0947674876553491  0.2507304263757371  0.0887559974624877
  0.3465374128881729  0.1847547782785391  0.2131117994522644
  0.2753303754396300  0.2616946713028051  0.0565596007801625
  0.2332975647839926  0.3046870319605874  0.1869339649008784
  0.2500197552064413  0.0805666663939170  0.0870730878628658
  0.1625377430145639  0.1734702165309454  0.2323461656726460
  0.3376818536986786  0.0038808424418556  0.2342195234578943
  0.2460467309319783  0.0904473616185969  0.2325993054812820
  0.3336182432651804  0.0019436368348172  0.0942942169333098
  0.5080526546115006  0.3090853406775481  0.0663598742714695
  0.2360856201193029  0.3179102801624526  0.0042766191050470
  0.1059999261881397  0.1692819316231822  0.1672039920527395
  0.3326965180826177  0.9542797368439834  0.1654961248435778
  0.5610816605101774  0.2571960202344135  0.0983531295252134
  0.3332796885414329  0.3100221238951003  0.0971368678746343
  0.4203877778368700  0.2553441542525902  0.3416385414730432
  0.3325768514228195  0.9938288347427597  0.9890905955688070
  0.5034989098789922  0.9952556780653694  0.9898481049423166
  0.5859886095050553  0.2516418083455849  0.3372915687459820
  0.5032215328146032  0.3259360214635987  0.1670538264479528
  0.5014230150433120  0.8309098409764538  0.3354409177748122
  0.5002218861258555  0.0801318939216507  0.7467064698605359
  0.6672248681453502  0.9978273730337234  0.8317773022290776
  0.9147547604601468  0.1659798284409368  0.9171272494571591
  0.6666435080537590  0.9992466868201011  0.5011010127514437
  0.3314054066405771  0.9125921006219223  0.9120516424448777
  0.2478497783365791  0.9932685996632580  0.9112623723299975
  0.5037605389069040  0.1645067861299995  0.8251505843322041
  0.3306161684973440  0.8336366664509963  0.4997929195044127
  0.5843609606830625  0.1664384274384213  0.7475401570294202
  0.4155182803425271  0.9145465875866491  0.6643592880088813
  0.5020936505692982  0.2510839220326715  0.4190293852327779
  0.4171928096502740  0.9992180906845410  0.4179429101314319
  0.3328384004919004  0.9106504258189465  0.2554718532943471
  0.5007851881452906  0.8305802031979557  0.9975453028222007
  0.4188296823376612  0.3338871902838302  0.4208807140920215
  0.8308503486376956  0.6680004714750195  0.9991340741742621
  0.4991980215087153  0.4999962781776862  0.9992021742771658
  0.3303766058293908  0.6669800141468483  0.3324247871203350
  0.5823828810482549  0.7500881889279208  0.3344788024599221
  0.3307880642518241  0.7487621292203306  0.2500449587950420
  0.5812286494009463  0.8322641414472995  0.7462211754488052
  0.6659756797349018  0.5844393631596121  0.7485601581202618
  0.4993988511359476  0.8334394887826537  0.4996154333480000
  0.4983562863719170  0.5007065931222138  0.8296369513876581
  0.1641550704868520  0.8304685664868040  0.8298914975654199
  0.6672978238365744  0.3353342486214538  0.6675812809217271
  0.4992345550037048  0.4182337791662443  0.5851126583047725
  0.4996241932346322  0.3348991866295022  0.6666449512975267
  0.5001938424057093  0.5006476451423236  0.3352503993383756
  0.5008727300556972  0.5000942988891912  0.1652181348204201
  0.4205222693831555  0.1648905074419638  0.9016337524519290
  0.5004171500423280  0.9140402298151715  0.9113696021739283
  0.6660434137701772  0.4190177910892931  0.2513869124555235
  0.5816498870169519  0.5838233999182767  0.3345296027149697
  0.3343936262871752  0.5028228360773185  0.3348936118495999
  0.4164889142202103  0.4984363617323533  0.0829808951804244
  0.6700485520237364  0.3372612408857699  0.1689523579895826
  0.4139098854614913  0.4210532977692665  0.8309439158923242
  0.1628888152872159  0.8297437725123202  0.9978883464956401
  0.6688981366095246  0.3328399169431929  0.8343453771458872
  0.5817067204494428  0.5829570296877853  0.1651567765331397
  0.4996021048844811  0.0812628390215694  0.5838758527534291
  0.3296110074889576  0.2493631478402875  0.5840972063735465
  0.3317650013231395  0.1674141050831864  0.5017904002375804
  0.5819699274058131  0.9992759809913282  0.0806717586804937
  0.3332948485192276  0.3286696585459494  0.9953202794099553
  0.2472972648975276  0.0846205047728553  0.3375473172909033
  0.9942346350948705  0.4210460180193722  0.2523555364399375
  0.5002053340280602  0.4164514147853089  0.7481993196966229
  0.2480270548062133  0.8300793933964148  0.7458183179458028
  0.2476485922912391  0.9175272494784148  0.4996229525881037
  0.1647242394226073  0.7490377373132003  0.5824229214562708
  0.0815828957150936  0.5832012916989695  0.6657197731332406
  0.2493992922096279  0.6646897597655254  0.7484650332475591
  0.4152955549938553  0.2493367221701684  0.6670461201602538
  0.0804358447762865  0.2510820621558820  0.8314367171422784
  0.1646217128334713  0.7490220323975698  0.4159846292191480
  0.9146675215335915  0.9997308043740886  0.4170988715603355
  0.4986990611021980  0.8324397033569555  0.1672967437289083
  0.9141230838820442  0.6655375233607362  0.7467508344704576
  0.3323521698220863  0.5843204875458224  0.5831522919822039
  0.2475212259744568  0.3356477061397594  0.4192561374352768
  0.3356719428762611  0.4263037172245416  0.2591648577533670
  0.4240323222275761  0.2496504551277298  0.9813918331842177
  0.3319114384283167  0.6652952084923172  0.8327431255918909
  0.4125533334077917  0.2602933022508771  0.1737123257750118
  0.4124428631203330  0.3362475181573161  0.7483334888165047
  0.1628250965825717  0.5024817292299554  0.5019997615157089
  0.4996791599897392  0.7492814443428004  0.4177612267603642
  0.3313546188980976  0.6665820588262262  0.5001898135656451
  0.3311754552590388  0.7494076811532496  0.0837584229826564
  0.2485880944063865  0.5840664448565535  0.9999704585271424
  0.4990396874293396  0.6666370849326854  0.6650157253764754
  0.2478919952674682  0.5847298939847616  0.8342235779941695
  0.4985249025812913  0.6672306235844861  0.5002230292283567
  0.3302891851410524  0.5025983731640782  0.8322665608167318
  0.1618115577386749  0.0804992489388564  0.7464617834985929
  0.3334509470833487  0.5845964970836803  0.7488453275110984
  0.4175899513681827  0.2520457315112269  0.8232787797067876
  0.3301273578750086  0.4172577081630204  0.9167350523614772
  0.4144289909991021  0.5019721827112956  0.7477794896162024
  0.4132070967629654  0.4183619309852656  0.9956181913010859
  0.4988062950613185  0.6665108822561658  0.1659408721487136
  0.4175860118846630  0.5010044620582565  0.2488569239148763
  0.1629946713382222  0.5835802464927422  0.5830234705628841
  0.1633512030699350  0.5017399571294080  0.3343221512469380
  0.4152518916933366  0.5025524231020256  0.5834229975840826
  0.4988719534746121  0.6668583863779345  0.9988378655959561
  0.2483441338595724  0.6665809705559659  0.9159667427961498
  0.5798227230505699  0.5847222576315254  0.9987489096158689
  0.3306185342176828  0.4173561860181531  0.5826923699974758
  0.4989717881236280  0.6669692422922731  0.8312623119871598
  0.9146865573878948  0.2510242122580476  0.6671039424568826
  0.9129756013794170  0.3357672561383240  0.4192126513006459
  0.8306633347115201  0.2506476319738206  0.2511744567311171
  0.6647141748178024  0.1686314162905899  0.0012710032237652
  0.9976943043759943  0.1682433013898356  0.5014855182353254
  0.9152751614320681  0.8308398326433600  0.2483835594209792
  0.6669153123707667  0.1658354425213590  0.8319244746339135
  0.9154515049612389  0.0808510111123926  0.3336646515501901
  0.9136328065786731  0.0820273716467520  0.9991955097637055
  0.5806720509845290  0.4994628275342565  0.0820438134470938
  0.9133462536134286  0.9148933976836188  0.9986215769949880
  0.9149778295913222  0.8314697343049319  0.7485054904116230
  0.1658290859197166  0.7487448941456790  0.2490719144423816
  0.9159650315537388  0.0823074135138740  0.6679403477941962
  0.8321704156762951  0.2520493979572952  0.5847858956234876
  0.8340778093816584  0.9976819561613056  0.4998202801314720
  0.9123706494496593  0.1665420987592629  0.4196183862083614
  0.8325962286948347  0.1673797953545002  0.5012127101192390
  0.9145757531559731  0.3335356176165414  0.9159346046069239
  0.8321960451678578  0.3341921610958304  0.8348141019591501
  0.6653570899422105  0.0809961853059599  0.2532930777799668
  0.9127341493675036  0.5860325589712635  0.1660743985748273
  0.9967536342210115  0.1658712813273735  0.1649867666734386
  0.9971584759809262  0.9154046496201740  0.5817272195154520
  0.7471920465893950  0.2503759746121606  0.1692953672653520
  0.9128941176830881  0.0807064504933456  0.8317620036425826
  0.8318334656214503  0.9983549495082746  0.8321865164457614
  0.9127704262799006  0.9140869931305509  0.4997193461507440
  0.4992321219910416  0.8326909891581070  0.8298614750632443
  0.9131346225500139  0.4165272686253186  0.6672512390806312
  0.4229421236322964  0.9143207352250826  0.1661152780702188
  0.8306027407332440  0.2503611964685901  0.0841462062630662
  0.9962116404808411  0.4171965034838139  0.7476370799924348
  0.8308974869541024  0.5858250558660394  0.9154911038644125
  0.9129017280469576  0.5019089208728558  0.9149722144696197
  0.8321277581689147  0.4185606829467056  0.5829767958497879
  0.9141685895347810  0.5856660290885985  0.4997758044932127
  0.8335618565500351  0.9987118726836288  0.3325618129834251
  0.9141310724248010  0.9988342825186209  0.2496600191858433
  0.9138551194888751  0.5849865447655695  0.6670838932244377
  0.8302144454621362  0.7487544743100616  0.5839631231447067
  0.5012655414045606  0.0836317494556036  0.4197458824006912
  0.9979704273707668  0.7497499771712448  0.4161730939265605
  0.7474996923819082  0.8315075543754306  0.4177921922048032
  0.6664730346303656  0.6661209870077737  0.3336015273172336
  0.9953761721195551  0.8317692381556111  0.9981575503188466
  0.1632485976119869  0.7482304329957912  0.0826050131923571
  0.8310556690481252  0.9149339836311486  0.0826852911547167
  0.7497339189708988  0.2510417821003466  0.6664810960647966
  0.5002213067995183  0.2510303531407597  0.7468480115031638
  0.7483755679718449  0.0823049147289052  0.6656236166950072
  0.4994950393346195  0.2519460946769214  0.5867877745550518
  0.6731664723116207  0.2496301056195856  0.2570318560624732
  0.8323586289091042  0.3334722438662009  0.6664124358679275
  0.6651767298557947  0.9148085866326651  0.0827926113990308
  0.5859439333589481  0.0811995112691762  0.3373944007336590
  0.7486368904028111  0.9152363079834414  0.6658988241754251
  0.7509366602710303  0.2521296816633540  0.3353140389020812
  0.6668183927260130  0.1665516451011819  0.5011388146579173
  0.7491035987294541  0.0814378066110571  0.1654940952135214
  0.6652187547281351  0.9149494120018455  0.9139340257055752
  0.5853570822817556  0.1654074402210521  0.9117070263459087
  0.8317057167320605  0.0818545470337044  0.0825097481824875
  0.5874899100012815  0.9970222057422246  0.9137664485350319
  0.0789905143244864  0.5028657007001248  0.0843536719783925
  0.0817069666910959  0.5837590818965495  0.5000559014732784
  0.6651991102073417  0.6652110428991223  0.1664171724028618
  0.6658985298468451  0.8337835715036517  0.5017573089707738
  0.8320345328028500  0.9157961755613790  0.5840778978565142
  0.5845549081720836  0.1630078217591059  0.0827779387813195
  0.7496463228043790  0.3341525796964915  0.9160603541625555
  0.7478515668783779  0.8316956116754611  0.9153744598360496
  0.4159340526266597  0.7485674055501675  0.6646398024619091
  0.6661837563870273  0.3354670034949820  0.5000349113846279
  0.7477220306948489  0.8319737894462168  0.7489225933715027
  0.5009987253464110  0.9954176251113683  0.8287299443751673
  0.6647852005202737  0.9156406486963862  0.2506968618716319
  0.6653576943014765  0.5025674151621944  0.1638982319679041
  0.5822589613662139  0.8329184065802635  0.5817812557943380
  0.7469582803808609  0.8335266616530280  0.0825294627245244
  0.7476066666010731  0.6662647107451266  0.4187974144714718
  0.6665651730589323  0.6652501209695587  0.6676919091923473
  0.6663529668889910  0.6656136144258546  0.5003843870838015
  0.8301620930454067  0.7497449343108297  0.4159877866392552
  0.7464845868222438  0.8332632075546691  0.2496441572719019
  0.3311953146401032  0.7466089519754557  0.9132191890673180
  0.8324912838419505  0.5023344431765813  0.8336326517829180
  0.5763382941925498  0.2519205864414017  0.9995104449092864
  0.6659316251780950  0.4999460115625802  0.5019018333117388
  0.7452958130957406  0.5857266337458681  0.3345626801257314
  0.7503677189901343  0.4191025591111849  0.9981420939217356
  0.5806483766287762  0.7497605557395879  0.9984666357599099
  0.7469721978204339  0.6655326096136780  0.7477814972936743
  0.6674797387662963  0.4183985125367628  0.7505331849585737
  0.6650311188252193  0.2514246107908414  0.0835698583204142
  0.8300853376210107  0.4216914912864649  0.2523532877309279
  0.7462685884284943  0.6678628092077298  0.9147060276186065
  0.0805130561831587  0.6672346669426859  0.9157547549691306
  0.8309482414251123  0.5018543232547841  0.3337884462687595
  0.2481980710507189  0.2568648146794822  0.3431838366270212
  0.2403704742468623  0.9140677988558836  0.1663566366130858
  0.0799595476828239  0.6657081174964390  0.0832230850636675
  0.9958315980455816  0.8307486071254444  0.1662128556777364
  0.7479940943698745  0.7499816520501842  0.8310621494702837
  0.2448640308595610  0.2476154359528726  0.8327422948793231
  0.9130275776760197  0.7482168817458228  0.8302745291601195
  0.9949286877857534  0.3358709115593331  0.9972159189158164
  0.9974202555125036  0.3342552840607833  0.6650387108012948
  0.9959540703249001  0.2504092373898387  0.7486506435433083
  0.0800247983373542  0.4181857261122942  0.4982223213156425
  0.0813160949149422  0.9108319941635716  0.8292895199769514
  0.2389186917187698  0.9942428794760154  0.2651601486342849
  0.0779207729939455  0.2552820684257831  0.3364842497655189
  0.2478483376058396  0.7495360676114009  0.1683248600656561
  0.2494246349465775  0.7481315066446695  0.3333683671425163
  0.9920874123326603  0.2527745154901785  0.2565407786773043
  0.1586492897218857  0.4248471957823117  0.0834762974432729
  0.7472962210372797  0.5851295538128969  0.1659746056957431
  0.4154390324124441  0.0813323872447514  0.6634633249022991
  0.9134677755342168  0.4186532652447796  0.5000994567441170
  0.1632274832178750  0.5029208392118992  0.6644464363797694
  0.1606522674775590  0.0772874994722100  0.9084165005493827
  0.2484498339990185  0.4187143929159339  0.9996120626827552
  0.0745300910627301  0.0826780225202430  0.3377040691054295
  0.9937543161659610  0.9123942084931381  0.9164314943134722
  0.2487151460415522  0.5824526086587946  0.1664277872934919
  0.9980697987079735  0.2517988701033717  0.5844755971001229
  0.9944018729548061  0.4222337570340426  0.0828682737180933
  0.1629902005477648  0.4219548069011773  0.9126996440437656
  0.0770838736551271  0.9957185227167301  0.0800791612304641
  0.0795669352459797  0.3366300865061496  0.4190393962623484
  0.9976967998855413  0.0818866761988101  0.7483420831841430
  0.9969060896354278  0.8311621689398385  0.5005285794875983
  0.0784930549201835  0.9148871392640258  0.3328699442526635
  0.3331821737900000  0.4215395036706820  0.4196619166663472
  0.1638035546837484  0.1674506109382858  0.5010376501855596
  0.9143639570761461  0.7506410959743850  0.1678481364814304
  0.0808353751469008  0.8315463614496409  0.7482783949285006
  0.2475217034290250  0.0016844638094043  0.4151164880364496
  0.1623753417780610  0.4229811310681523  0.2561628561122911
  0.0790892791893384  0.2512092035480192  0.6661690531465836
  0.9957067747583618  0.9990361331734356  0.3345475876145566
  0.9974647960134622  0.6682179114209523  0.4993453355123900
  0.1644338647512139  0.4191328706273653  0.7466423302361633
  0.2460520487375721  0.4185394668383393  0.6664127876114080
  0.9962782881929095  0.9971737015609328  0.5014080603883935
  0.0807876930447400  0.0820879205347535  0.6663102960527321
  0.2471242563850330  0.9992268591918300  0.5811510554658623
  0.1631485340664893  0.2501864699714534  0.7493275184251458
  0.2485215498290023  0.9958514573860499  0.7449100644248579
  0.0806548452980115  0.5854969489226632  0.8327975604664878
  0.0787083459879097  0.0789619713638613  0.8293447109448256
  0.0804685931179826  0.7500917095565561  0.8313502473492077
  0.9972183662129499  0.6675025954160256  0.3339668565521621
  0.9961865293663883  0.5870441321819698  0.2524790472429450
  0.1584650733036143  0.2496274886462117  0.9123274672818795
  0.0794854080685905  0.9136763762530181  0.5009456614126246
  0.9958353545522048  0.9977247711109900  0.1663726848385371
  0.0797524002947039  0.7484875656917368  0.4987622694479453
  0.9939830563773968  0.1642377188532698  0.9958086692778205
  0.1623467091074804  0.9169047410026665  0.2496514551277650
  0.6646251662960496  0.7498336042451040  0.9143817746535567
  0.6651046648503777  0.5026961216008985  0.3341151558689596
  0.8308382730793253  0.5026054515810007  0.1668428690226825
  0.7472102090113897  0.5027002836446194  0.2502347758302586
  0.7480364962695332  0.5022345763953896  0.4174832181457936
  0.6641694207378377  0.5832800575194093  0.4186639314032225
  0.6638619030191821  0.5836517246360841  0.2492433374729055
  0.8303547425630462  0.5858415268040926  0.0821541954743111
  0.0803835382757584  0.5015093425999767  0.7489920276963125
  0.8298462178899833  0.7503264092075598  0.0829032632132046
  0.9967894467292895  0.5852459752854271  0.4169985881685653
  0.0795989943183809  0.5846472192089928  0.1677216199420759
  0.6650798078135766  0.7492387838817588  0.4181434327456095
  0.6641626453964903  0.7492612101599736  0.7480815093479731
  0.8314247512830256  0.6673461458428694  0.5006281342793106
  0.6651045290254178  0.7492231638723733  0.5829634408396339
  0.5824502967296664  0.9152875401750592  0.1659490208800759
  0.5813709744020183  0.7496661391654129  0.8305578016907773
  0.1652090650358109  0.6670664687922161  0.3327955715330929
  0.4993418544367880  0.7490988567337267  0.2505767384046835
  0.5017643077768851  0.9132425950574637  0.2519059625557009
  0.8317546174053875  0.2500826149077881  0.9168895159708627
  0.4985306310156433  0.4220565479368711  0.9105670584832327
  0.7476713882069360  0.5835382978179570  0.5010855296042052
  0.0786137027307156  0.5025411865272694  0.2515747298860206
  0.7486307571024626  0.5004085099831053  0.5838056630024322
  0.5828300024903967  0.5003275807736427  0.5839700360824878
  0.9127136294123728  0.5026169445947070  0.0838082249616584
  0.7470211152024437  0.6662599638726887  0.2497118994288821
  0.6649249461645172  0.6668260242868097  0.8312265063300942
  0.7472063000072580  0.7496573790413676  0.9981750480412395
  0.8300641181002008  0.6677024915232256  0.1659102360772975
  0.5842085388219066  0.9129100520163994  0.9978833692255185
  0.9949810869756355  0.5040023391778827  0.9994453049446224
  0.6648000271891155  0.5853253523855356  0.0806236484216796
  0.5819429886175560  0.5832663417249415  0.6659997519222147
  0.1651583680569802  0.8316047410210806  0.6649054222617270
  0.6655925243890805  0.8320850300967820  0.9985920260913905
  0.6665982594768296  0.5016921173635175  0.8327103794702578
  0.6645368587627716  0.5847132818157856  0.9156695287207754
  0.0802781659438441  0.5845476632812827  0.3333487090537003
  0.8310689457811856  0.5847647989439356  0.7495802336891849
  0.6647770316625681  0.7491961287994030  0.2497411775295052
  0.6652088151357807  0.0817967735641722  0.0831211460882554
  0.5834314706037248  0.6661435939579889  0.4180712731180087
  0.4156155950379016  0.7492887670320398  0.5000091032300631
  0.8308505595628751  0.7490042099666456  0.7482718659089610
  0.5805617705222763  0.6668791124106814  0.9148065403053097
  0.4160867538808027  0.8299106877537136  0.9132777724498378
  0.9979763415671763  0.6662430090331054  0.6660879194947114
  0.5010316302449076  0.9977907171189747  0.1653973204596092
  0.5833715858285913  0.0813603350530044  0.9969644811206686
  0.9967474373797737  0.9150593080140631  0.2492908155379918
  0.5822755150928974  0.5834135459495792  0.5013804477353180
  0.6640493403422759  0.6676200558129033  0.9981054748619026
  0.4985775126204855  0.5843352146378636  0.7490821143432596
  0.5815265403702999  0.6662866177256249  0.7480938643177693
  0.9132664500508526  0.8315031603943106  0.0828368385973277
  0.6653140257726069  0.5020008958794413  0.9986869452348832
  0.9965663086505950  0.7489191746773245  0.9151214250257056
  0.0809196346839159  0.6659211829557089  0.7493079190933734
  0.4150680653733015  0.7501180993890788  0.1665219107140221
  0.4986630003628926  0.7489815617019823  0.0829404010919736
  0.5819234777198785  0.6664094393416873  0.2499675786805308
  0.4157424776275793  0.7493487005678809  0.3340787682575956
  0.6644346003913738  0.7489228007633179  0.0824732069076434
  0.5817959223283676  0.7489934581812876  0.1664605164692248
  0.5837910400025600  0.8330520692940814  0.4193608044770403
  0.4162773949442357  0.5833760762523552  0.0000112335133040
  0.5000001233719612  0.9146072478823967  0.4187334568610334
  0.4995017641517346  0.1658244059972108  0.6656116919121173
  0.7497250017508386  0.0827148915112907  0.5008808028698076
  0.4157513048274801  0.8319511710641028  0.5813558530609713
  0.5819348249112162  0.7484573174105299  0.6647372912984195
  0.5011699352695341  0.4183183318120964  0.2503531137821390
  0.7494585118579410  0.5031277955943269  0.0826125265707975
  0.6663409633075974  0.9152798485705685  0.7481919577071012
  0.7492870738042353  0.3349075668953687  0.0831379521987976
  0.0805342297957839  0.7482536042178424  0.1660397101442975
  0.4992768441648763  0.9982863926102256  0.6646084230033054
  0.6649307075192167  0.9992421082044156  0.1667648590797840
  0.4159681079316916  0.7485327838836524  0.8306497649529501
  0.0817013430053719  0.6668279259584597  0.2504433007954910
  0.9132540680823050  0.7497834050896933  0.3326396865311242
  0.7498970350854737  0.0812374107973208  0.3341636572878404
  0.5814953983705269  0.0818374032810948  0.1674102521483019
  0.7497433634788879  0.1648626261452498  0.2514013875318580
  0.7482273239427903  0.0828347065109060  0.0003634867169478
  0.5821488477759978  0.8319336002491352  0.9133363214536436
  0.5843419481871516  0.9994191945625002  0.4194810357286713
  0.0818425741666673  0.6658020904163757  0.4155730898282794
  0.1643184504968725  0.6669114358394612  0.8319275036893883
  0.5861809218228885  0.2508454595448573  0.8296750626408455
  0.0818342722617714  0.7492986634096024  0.6652556157127171
  0.0780040778120192  0.9122203326256191  0.9969117380333871
  0.4154592705469475  0.9966226311935500  0.7455876412978018
  0.5828845520163973  0.9983900264160317  0.2516555783694895
  0.5833418112174549  0.9994577535319754  0.5825791511892090
  0.2996667445184437  0.1328535715121281  0.1565772928344173
  0.6670342552662144  0.0828389242498026  0.5827644822851882
  0.5835986870739910  0.0832787627031070  0.5011332553346024
  0.4151122230587432  0.6674769245966884  0.0832066681348032
  0.3312488271964557  0.9130445763746035  0.7455526056446655
  0.3307108627639701  0.8300246373901500  0.8293767416231694
  0.4167241549708290  0.8315145749492890  0.0821555986544302
  0.1626388752143837  0.3352814773541318  0.8312937630393072
  0.4987144691919011  0.7491959525887300  0.9139493304435988
  0.0816145069548934  0.8311003633306167  0.5826047269539751
  0.5822697953694711  0.5009616187453252  0.7487456149723256
  0.5001475868160443  0.4142530433403456  0.0814903219009828
  0.4197846662269475  0.3383531246321992  0.2563549204785820
  0.5010203000997179  0.0829663369407978  0.2577121790112685
  0.9964327897632443  0.2518061495577896  0.4187448232172293
  0.1624030408229539  0.0849359482355692  0.4171518388776901
  0.7490859207590815  0.2507978656409693  0.5013351704891927
  0.7498768964152873  0.4183583785522655  0.8338955569488287
  0.9965705977515563  0.5023212015164557  0.8321343983451203
  0.8319383247583317  0.1660613291198031  0.3340524331201986
  0.1639561397303109  0.6658586399379345  0.6654315222128888
  0.0794917006219633  0.5029793461178642  0.9141537387217478
  0.6674144581140078  0.3337660741411889  0.9978412536872446
  0.9964821925745695  0.5858743407899070  0.9150546246863488
  0.7469348441182149  0.7505506063983475  0.1661220408322062
  0.6671875848307657  0.1662447855335924  0.6658889729551547
  0.6655927361424746  0.8321925064561123  0.3337332198577591
  0.7493741845692717  0.1655577878194100  0.7490425354853272
  0.6672984454990345  0.2511330233854216  0.4186267553814687
  0.0792337007596063  0.4190787942222427  0.8315327932227821
  0.6675835605900223  0.2508410992143699  0.5834011737690116
  0.1631330787072071  0.3339541909111250  0.6658600718165796
  0.7496750834858911  0.2494497472138902  0.8331885095867902
  0.9144712735394839  0.5015957414121787  0.7493790806302637
  0.9980313557602607  0.7479725254666223  0.2507404400201246
  0.7491735774127271  0.5016861494099334  0.9163462036087768
  0.9124445721117167  0.6672711703301816  0.2497695549357171
  0.7495935811199502  0.1664052795693307  0.4189214272949325
  0.1664592826306819  0.2631056702506790  0.2577332345190969
  0.9940304703125393  0.1680178888518578  0.3369558083432520
  0.9134466704952248  0.6672242027101265  0.4163490019049615
  0.9943556519532275  0.3390416222813448  0.1690988231319944
  0.8328130923481170  0.5009462720434827  0.6665358395479238
  0.8293582797506885  0.7499007609358476  0.2497937712786230
  0.8317678474027610  0.5026411095495286  0.9980506765166356
  0.9134387201051990  0.7497222110618588  0.9993969677028803
  0.9138074201228915  0.5853767299337949  0.8325248119151082
  0.0732400698799205  0.1680025993112731  0.2560741635121493
  0.9135582870243683  0.6680829647998213  0.0835912681409054
  0.9149464714586050  0.2515878786581702  0.1668186042416735
  0.5855592976497277  0.3363448443838912  0.2536727756733825
  0.8313432384368139  0.3347173690599266  0.5012816347722837
  0.3906201513666323  0.0400380562753091  0.1638258846191037
  0.3612202209119474  0.2232343888581668  0.0680227438806499
  0.3308990453882051  0.8345845259284143  0.1673820443019252
  0.4158506154584425  0.6670403238181160  0.2502939151795750
  0.6662631116786966  0.5005645505429471  0.6674917062349319
  0.9129473438154754  0.5854733696769291  0.3337156597752131
  0.9140592629059585  0.7490315987946516  0.6667951684106067
  0.9140843606173317  0.7494641170979783  0.4995872977526195
  0.8306864741603947  0.6668149296508482  0.6661690616667227
  0.8308385644741947  0.8314290864906071  0.5002958583456902
  0.8313048256399421  0.8314434589757858  0.6665491489742239
  0.2460583276885276  0.1657354372248932  0.7481696233198828
  0.7485932290652556  0.9142564410190193  0.8314453804204734
  0.8309679726237633  0.9145695076143134  0.9149773820849106
  0.9964530417251277  0.3346186140484659  0.8310194222030295
  0.0810333539633112  0.3350734099859550  0.7493280923666952
  0.6656344415657431  0.8323840543545579  0.6654304634163928
  0.8310162088415047  0.8319568764729801  0.8308115782819422
  0.5830239288255962  0.9153462029132110  0.6648993147020416
  0.6652067920459569  0.8322563838647429  0.8305379365009097
  0.8305339657529685  0.9981597722616338  0.9995294936558221
  0.0807973940906903  0.6664488883853699  0.5826471473272631
  0.8319535724003693  0.4177083375145501  0.7504965001524116
  0.9143633061439521  0.9984687772002974  0.0828531691335575
  0.0809552449201412  0.4178029861595507  0.6666655571012632
  0.7476973908150942  0.9163899294690417  0.1668794575889476
  0.7482872434179324  0.1667092276106260  0.0841255140497061
  0.9145103736764258  0.1669427452361356  0.0831311460563595
  0.8324966915493283  0.3343098088271005  0.9993401105996604
  0.8312322378630312  0.4188921229749922  0.0819190924770396
  0.9147569137221802  0.3347809050920947  0.0838086557668643
  0.9135525401115832  0.4185683661801665  0.9990605899294047
  0.8308604869559748  0.3344313158091685  0.1670420432697565
  0.6675663553189529  0.3354751239356972  0.3356593705430176
  0.9127566220083370  0.4198248032531606  0.1681134803574762
  0.9137214702418838  0.2500397380861777  0.8329858519495702
  0.8317160641114975  0.3363200408919975  0.3345774870608823
  0.8322077511917374  0.5019035401857459  0.5006019271849609
  0.5033185474785891  0.9986986776281149  0.3390912830083495
  0.1587465365068619  0.0731428075608143  0.0656772932786457
  0.3343312325389200  0.1720119655769442  0.3391538974751136
  0.4993089062482287  0.9998630608484939  0.5004407815077114
  0.7495468862358369  0.4170883613062775  0.6671370527271654
  0.9139204912394934  0.5026417017837275  0.4176484562765433
  0.9146997172661062  0.3351396885097542  0.5820216792502075
  0.7501259264240857  0.3345054956570124  0.7508919181916628
  0.9956154950512024  0.5853025116810310  0.0834135114496447
  0.9132897733270071  0.5853974178941470  0.9988494712728937
  0.1630899274017839  0.2504414007402564  0.5827407690784363
  0.8297057745611681  0.5849905665084910  0.2501243195186523
  0.9128314729077420  0.5035591670845164  0.2503496657205298
  0.0783073209808752  0.0795141598594572  0.1643137960204485
  0.9151353334167556  0.1662320375484486  0.5838226137674908
  0.8301299734788626  0.5845971961534525  0.4172473259030469
  0.9953547208993518  0.5026922490536665  0.3335435363580596
  0.0794884991182252  0.5027632015951661  0.4175454550985687
  0.4158094292828872  0.6666019209899445  0.9155059369431382
  0.3310641593329776  0.8303901953682848  0.3352809705834415
  0.0806828022897171  0.9995440093350396  0.5826997802279715
  0.4173512788454999  0.9129125442915126  0.3371219964615510
  0.2473114517227126  0.8314351410592727  0.4181553221430157