 B Cr Ni 
 1.0000000000000000
    21.1200000000000010    0.0000000000000000    0.0000000000000000
     0.0000000000000000   21.1200000000000010    0.0000000000000000
     0.0000000000000000    0.0000000000000000   21.1200000000000010
 B   Cr  Ni 
  17 259 605
Direct
  0.1626537570267156  0.1710905542155954  0.2367469349886532
  0.3326309240303283  0.0023144980758554  0.4189351830557105
  0.2502436661319063  0.3073251283376286  0.1579741953611416
  0.1107912278311312  0.1707409014830651  0.1669229915598379
  0.9142156570390170  0.0008091319095600  0.1648960724309737
  0.4160952914843476  0.7500885251914338  0.0841023775450191
  0.4085647770728076  0.2355288815546197  0.0883050917680789
  0.2455159561700333  0.0274499619495384  0.1694841550116020
  0.3388076039783424  0.1738905422583912  0.0842124590632562
  0.4727082237404456  0.0024992118492292  0.0700991607194478
  0.3420617677131283  0.1712046488102379  0.2287371182626080
  0.2418313501589087  0.2563018632472254  0.0900147170458494
  0.3461606171669742  0.9989794860936727  0.0744250015040205
  0.4333486558287273  0.0810562365151207  0.2053156153227098
  0.2544927876941823  0.0807886964233869  0.2350623504032772
  0.1581605367240189  0.1681360374642505  0.0970438405284003
  0.4134949219495589  0.9534483926751409  0.0978868854726926
  0.6665608120362926  0.9132630505565124  0.2520027599059477
  0.6653750653767357  0.9155509831579158  0.7489803459024289
  0.4161336026387292  0.8315165207147720  0.7496599039128561
  0.5039754929540347  0.9968011343461030  0.3364052051020056
  0.6677124598435096  0.3347170000667554  0.9993744089255698
  0.5868823393369412  0.8322196506539797  0.5824474243706611
  0.7505623653787512  0.8312214966219279  0.9145766645158331
  0.6671390925904432  0.3350194772944056  0.5020636853872178
  0.8321157066536007  0.8322139032562084  0.8332462316046138
  0.8324347505056712  0.9169850485610603  0.5819092599275987
  0.6661919010979305  0.8318517913832267  0.5011630088199687
  0.5059558387625390  0.9113238084681714  0.0836014026534668
  0.6667489769607148  0.3351295761011818  0.1685008367763672
  0.7505987230899350  0.8308282674258748  0.0829211316214387
  0.0816401014805387  0.5003114037832834  0.7480781598966451
  0.6681883380506038  0.6669956340746220  0.6673664857019840
  0.6665941498891563  0.6650021389394507  0.4999900199559803
  0.7498517121066179  0.7496775166461871  0.3350884375894610
  0.7480846419215692  0.8305009141299857  0.2514177465717827
  0.3325887919821414  0.8322901641017998  0.9956411093444748
  0.7482680988618969  0.4998001047272008  0.9155900913457412
  0.9983789728293145  0.6658386643058192  0.6662927760182962
  0.6673268511395785  0.4991537331040816  0.5008646853813843
  0.7481905250810340  0.5825487905472269  0.3342520284450561
  0.8313733463737499  0.4176603163368579  0.0833703255600999
  0.6661507097501401  0.6660621878499607  0.0009432948750791
  0.8321103783061289  0.5841975685627014  0.7492759493690249
  0.6654546839971061  0.4173869435315702  0.5842369679015390
  0.0071009563873275  0.9963831224061653  0.1678699292455704
  0.0791450938815110  0.5012515359938435  0.0822718002445419
  0.5787232372335746  0.0002795246573634  0.0840579339787184
  0.7492117239014993  0.0005342323005748  0.0822993505974495
  0.6667128288040840  0.6663126462120030  0.1669523270260278
  0.9965760160680666  0.8303315873259685  0.9997394982564246
  0.9146830876814296  0.8314317929517466  0.0823831066927886
  0.7487952424370075  0.5826784632940873  0.0003175246989846
  0.9121482064930452  0.4997291043178502  0.9157506986282534
  0.7476806257301495  0.4164966956345503  0.6676310965001478
  0.9138267402896342  0.4992125969359461  0.5821653443386633
  0.8300560543758870  0.9983089169383703  0.3335586606175208
  0.9136813798595534  0.0003621122195807  0.2595175670100462
  0.8329693510091869  0.7486849265712948  0.7491614210562377
  0.8331557829162738  0.7492725184455451  0.5811081376363640
  0.7506990345101257  0.8304017507112298  0.4179308501181834
  0.9159050017328642  0.7486206060993943  0.3339883908724392
  0.8312853265261919  0.7489724494760578  0.4182339115535877
  0.8209730988668487  0.9994748393270646  0.1658896636568037
  0.8323778027562201  0.0849592518883576  0.2518495820616139
  0.7503900692227798  0.0003874763116871  0.9137434148457495
  0.6670696574932691  0.1659974499932348  0.8314081988722374
  0.7476492713912835  0.2516135126696184  0.6658345200734535
  0.6649137796866468  0.3329619469249844  0.6680909077299372
  0.7495569876756293  0.0826043542480247  0.6660173855897187
  0.6670702602518888  0.1674011056330550  0.5025079762130699
  0.6662089093110350  0.2519794982866533  0.2515124541846779
  0.7497830034173850  0.1684884425589422  0.0841452368824250
  0.5876314313989230  0.0005885332531732  0.9102041162049231
  0.4990523883184749  0.9983941879417074  0.5044488425469830
  0.6648777917693413  0.9161186242762390  0.5823472072207717
  0.7489012187370201  0.2508489339893577  0.3342051593852337
  0.7514335226703331  0.0013182507468522  0.4181161759822044
  0.7482712150332463  0.3329432861595765  0.5834266200343010
  0.8322970185993418  0.4183191839356163  0.2507397988724546
  0.0795775375122134  0.9981140562598156  0.9133251583334943
  0.0793175950515731  0.6662799374301731  0.7476879960900641
  0.1637199591294523  0.4178549956227725  0.7470055835476089
  0.9977805105215528  0.6637702138864361  0.5005725106492639
  0.0764022158547093  0.0828827137443199  0.3393305805099546
  0.9975081045130307  0.6650814978570616  0.3335763564014099
  0.1664121470320642  0.4173500447151747  0.2523539860711852
  0.9990701870735608  0.0837201660281884  0.4191630988701137
  0.2468624435227488  0.0840941659641091  0.5005751223646272
  0.9971273062387073  0.7475197064246665  0.2501433026722830
  0.0818352632496105  0.9980763790933075  0.4181025645091103
  0.3339696619431438  0.3351934033792205  0.5015987567416105
  0.0825591299737359  0.8299805924583227  0.4187364150199022
  0.8333821472291001  0.8336934831235748  0.5011855752240499
  0.1582370821640277  0.2516278803256799  0.9113969609666233
  0.0788972892915694  0.9150313826583966  0.6652182498767936
  0.1638374637269628  0.0813751053598323  0.7497213304280478
  0.0813101329033597  0.3357634187174318  0.4190865714645667
  0.9969238537243529  0.4192646619160341  0.0817906944772371
  0.9962352414666501  0.9142324775510408  0.9156116061340317
  0.0820019783719346  0.5010643141801253  0.5825425277069196
  0.1585117016703292  0.4225735337045943  0.0803205196436947
  0.0789265640354286  0.2563474472934623  0.3382841066268569
  0.8306853433367449  0.7488913620755331  0.0824486405934570
  0.1638962964149748  0.9962034330967099  0.9922413600358467
  0.1635264564010701  0.6661024975561045  0.8316862381312324
  0.2440801362390872  0.9128513498350448  0.1674941665913334
  0.2487879222608713  0.0824866689514901  0.6658735276242620
  0.3343650551969984  0.4179834389930643  0.0810268042864402
  0.9987630552795083  0.2502838225396690  0.5836634629627832
  0.5825518880264077  0.2509709159154119  0.6668165207624819
  0.1647542238699007  0.6653870702599769  0.3318338591744578
  0.0781334175680786  0.0823966442340103  0.8291065843313207
  0.4165366932633812  0.8318363170960739  0.5837194678372863
  0.9987715364177644  0.8324268858384801  0.4996789684429701
  0.2501698031347063  0.3352205978249016  0.2543969302395925
  0.1641587654312078  0.9122223491145312  0.2495637711940279
  0.0817555109098049  0.6634282822471329  0.0837019649172224
  0.9981362769082340  0.8293025066442011  0.1667565122212728
  0.1637576256858785  0.2513517105559100  0.7496856215338561
  0.9149818395892174  0.4180613946641417  0.6651039745333336
  0.0770930697040616  0.0791989883691062  0.9928354402549381
  0.1638694826553139  0.0842254790423236  0.4157844629749580
  0.0800586048261419  0.5809390469552500  0.1670593314593527
  0.9151881335356921  0.6642929135219688  0.9164393113337937
  0.0766453115812780  0.3421355510250524  0.0796926507882578
  0.0792308485130295  0.2516849509398646  0.8298772000980863
  0.9964788384568742  0.2504119392218803  0.7492701090044795
  0.3295469904099508  0.5046709239017416  0.8308052691971405
  0.0821867462390603  0.5022353731899114  0.4177999669478549
  0.4985868569501349  0.6649196110670961  0.5005711565288081
  0.0785128035168220  0.7491818207325246  0.6669844289496756
  0.2488915261773873  0.5837540969792585  0.5008152003234589
  0.1589987615062417  0.0761876239797383  0.2684518969127767
  0.3329326040249833  0.4190203477904783  0.2509048181043693
  0.2473229920993535  0.6649013685392094  0.0825622137808203
  0.3304657028659727  0.7507813960755868  0.9157687831852839
  0.1597465410560686  0.2666271214706586  0.2642005474349318
  0.2487229206534909  0.5843626001053805  0.9992473437118036
  0.7485175929246362  0.5827782513691904  0.1659989003751789
  0.5042374378993608  0.9121355960378057  0.2527897376925146
  0.9147625617354744  0.4172248954132256  0.5012791422286019
  0.5007727243886799  0.6667590408211259  0.8335834874029707
  0.5018520399282251  0.5837988068494351  0.9180472722823548
  0.7503170566881890  0.7506606693487362  0.8327646485443867
  0.3321913229577894  0.0819512056332866  0.7492101727342363
  0.5001458161311623  0.5838056812604300  0.5836740120882781
  0.9995113343674309  0.1695054755950962  0.5032719532874893
  0.1626715773882124  0.8307559671031453  0.9989101068705623
  0.6661909323464363  0.3346409052035084  0.8317051453872339
  0.5004501823181398  0.4197090383384128  0.5862040907822901
  0.5836007516002226  0.3340035992040907  0.5844332261088594
  0.5005439613662953  0.4183280892915082  0.4183734188335570
  0.5000453126026905  0.5007754164613468  0.1669502358272542
  0.4981939655758437  0.1663351488205531  0.8338730893343931
  0.4158129366647262  0.8352678884628161  0.9161355937741814
  0.6677369080763700  0.3345636333619119  0.3331752582634015
  0.5826296028731353  0.5821271765328763  0.3342373546830121
  0.5007829672558315  0.5835416771743368  0.4165574381768031
  0.4163495805426662  0.4996033693099827  0.0813202230806246
  0.5872646558927731  0.2552825808862915  0.9987803540630016
  0.5016433442573766  0.4188047261698217  0.9135899499735174
  0.5834171042812311  0.6646939048154989  0.0832285171020976
  0.3314642589492283  0.5867477531737744  0.7495357414619230
  0.4157286925066317  0.2515206842311923  0.6656842717875209
  0.3324758066500354  0.1699973802782452  0.5030411172027393
  0.3322376289666981  0.2511708574973254  0.5846915767421287
  0.4204257773183659  0.1689129330561737  0.4186135350918261
  0.5115864338238678  0.0933103487750480  0.0764596871031246
  0.3310764420772064  0.3463065841019862  0.9867898696599512
  0.4989047685179204  0.5012325715852370  0.6659267000698599
  0.2392161000408425  0.0803025330880070  0.9862491386417055
  0.1623255059850356  0.8313753596349853  0.8290845586500331
  0.2470156085312306  0.8312557604923113  0.7475722223342416
  0.2463236200138579  0.8312255350834584  0.5855650455073648
  0.1631914888455630  0.8318164288185159  0.5011664614434889
  0.2477834017276129  0.7505400000175836  0.6659749262983454
  0.5843650880457957  0.5005991726972057  0.5846119057261570
  0.9974484824766715  0.5002155455108257  0.1671071695946613
  0.4171696063089265  0.4202094638660931  0.8310082355060602
  0.2450895260595662  0.2529272478521391  0.8304749039689435
  0.5016207532376689  0.0007519107903049  0.8319374763999692
  0.5012136512777865  0.9985678282000693  0.1692133520842019
  0.4162085911951875  0.8299124346804625  0.4178911009925466
  0.6663952449963038  0.0838611568408937  0.2519631039077841
  0.4992950144864595  0.9989889598826946  0.6659700652742659
  0.5872025111662722  0.1696336307515111  0.0853021821899737
  0.5829176949108833  0.0811988999653903  0.8329199502364487
  0.5015464187529595  0.3365146622201525  0.1683282780016674
  0.5862606429194895  0.2526034831595269  0.3354222648959785
  0.5819091448543329  0.0827315246699212  0.6666369588336862
  0.5845092656828637  0.0001990919145638  0.4189675735740061
  0.3311803392835944  0.9085160657909394  0.9124046989902352
  0.5048286866515045  0.1693184308016385  0.3421299085173454
  0.4168396882042414  0.9126661418887507  0.5022002379312784
  0.3310558778190958  0.5031913784164744  0.6678090561435929
  0.4183230574146972  0.9998858936686835  0.5843288103058288
  0.5025829872187263  0.2525842412329621  0.4189318611505293
  0.3344796035869489  0.9056933086770531  0.4197385910376971
  0.3325317756724407  0.9094272994289939  0.2538506217366684
  0.5867214457058191  0.0842181348784927  0.9958142644923653
  0.4994142172870862  0.1675317449689832  0.4993984720556654
  0.3337820670028858  0.5006770456748644  0.3330111132727414
  0.5839986314771395  0.4145328995843632  0.9993776212369528
  0.3320697701853727  0.6653187074017032  0.5022351202049355
  0.5838937780329754  0.8305490554322369  0.4195062187931713
  0.5848119909592912  0.8312328113617417  0.2518062963742546
  0.5848997690673881  0.8326025231757572  0.7477636456970684
  0.5833390623182290  0.5860259171838812  0.8318816331810969
  0.2486836345835050  0.0820742304790830  0.3386321876379695
  0.1642864125768441  0.7470102033940971  0.4187355466309307
  0.2492417070226528  0.5832813095159113  0.6667566183193545
  0.0663679066577505  0.1684715133656051  0.0766929469777299
  0.4144664704195242  0.4994262775379031  0.2515346662233878
  0.9135400171528250  0.3342197999592864  0.5840033775122285
  0.9143220393688566  0.3350453332421071  0.4182929713959465
  0.9130810354024985  0.3363043095119119  0.2509503956906650
  0.7488121152566708  0.2528561125538634  0.9993144320020869
  0.8317322664480415  0.1666602333129603  0.8313376356849073
  0.8306643581346715  0.4180648779944424  0.7486994076281566
  0.8322859497902279  0.1687031355868638  0.1669712924916043
  0.8315631960228566  0.9985573043391898  0.8324932011698772
  0.9152218537378498  0.0010466312152581  0.4154417647322872
  0.9180918262503789  0.0867185171419521  0.3344037946290300
  0.9133749499397238  0.0833521605594072  0.9979211204666798
  0.5828812590670989  0.5001020521666575  0.0854333681875215
  0.9175289596773492  0.8319708388313563  0.9173639827612478
  0.2478830631662549  0.3357736952016456  0.7502177998108905
  0.9119851377897303  0.8329982354911153  0.7504605602955227
  0.2474805613867369  0.0000230533745800  0.5854906636090521
  0.1629542249278565  0.7464040194688173  0.2507494998636012
  0.1656817017199919  0.2512512186393469  0.5836093295757093
  0.7491214586405427  0.2496319087248624  0.5006305832182831
  0.1656376912343650  0.1663615998192020  0.5004304996622808
  0.8312234665921630  0.2493497384219839  0.4168960047301278
  0.1618362245924419  0.9986398228305428  0.8280444910121185
  0.9125637735727457  0.3360462245991138  0.9133260412386914
  0.1641772054193631  0.3346909326093029  0.6672003948042573
  0.8332416526023361  0.1660783843975036  0.3327090043858714
  0.9148045197118796  0.5830216009288416  0.3342195945899214
  0.0008025958219889  0.1705979451393637  0.1649976456794191
  0.1613526105465835  0.4223126761611037  0.9121033275237519
  0.6664305282992199  0.6663162607964358  0.8337591496410749
  0.4142652778546969  0.2495471648422370  0.8341516885988234
  0.9162218449333632  0.8294858481880405  0.2494367986242744
  0.7470057715077741  0.5004270677881404  0.5829048663359837
  0.5010284068755382  0.6658712239556437  0.1677633092509825
  0.9144359773439996  0.6667117019851525  0.7495019962453912
  0.3315655439455002  0.5851621298313304  0.5841257547737373
  0.2499998815947011  0.3366114823763764  0.4219702568964309
  0.4178327730525421  0.5037612353760289  0.9162279973360201
  0.3306925852157988  0.2557866623267299  0.9124530345164568
  0.3315935672537834  0.6660561719538354  0.8320561642858407
  0.4194266786320952  0.3409074536994302  0.2559250496183468
  0.3330598142415721  0.3330130728794959  0.6652523759002873
  0.4991882349419209  0.4176257793201452  0.7490846920145582
  0.4162851505605226  0.7475723011271724  0.3361471140957746
  0.3315212859548558  0.7481603826239775  0.4193063120135538
  0.2474473772074355  0.7478111533088281  0.1671314114175658
  0.3344519706732316  0.4235223492328898  0.9102036517549004
  0.5004256053799555  0.6663778429043800  0.6658747970929111
  0.2465102504689877  0.5847872151340961  0.8312765670877674
  0.4166911124638788  0.5835745525741793  0.9981946648193541
  0.4165026095373722  0.4196304866514266  0.6678807451438453
  0.9147156284565505  0.8329945567670815  0.5817515387836482
  0.9142812649014078  0.9998411938459060  0.5816367862131903
  0.8306225070775756  0.4175063170896877  0.9150571337189560
  0.8322526791973576  0.9999367420209169  0.4995000738697487
  0.0828056294234487  0.5835498512139546  0.4997694919756087
  0.9130782033503652  0.2526422071811212  0.9980105453529055
  0.9142915387682233  0.0833088876279176  0.6648712792650369
  0.8328873616570953  0.0853816645319875  0.4185773344114332
  0.9155897958051620  0.5826886925760419  0.1660866096512363
  0.8318454935090644  0.9159755775605010  0.7485663491839977
  0.5835089042126075  0.8319041104563938  0.9147784777121030
  0.4158867005840330  0.9130997825486318  0.8281627529130189
  0.2486444079822840  0.6656022348118159  0.4171192624688809
  0.1654498475241306  0.5835576765559656  0.4168510830781450
  0.2487057803586635  0.5826130779795972  0.1655694739701208
  0.1648578758344380  0.5013004579887218  0.5013364554353233
  0.1651314369751079  0.5836759466709900  0.5838214648014196
  0.3325843774003139  0.4199783935494438  0.4197851219582284
  0.2456961808815287  0.1651623987687776  0.0702147161031414
  0.0799324122761124  0.1671751294855520  0.7478694899784104
  0.2461878488135063  0.6679660326412016  0.7486214780091172
  0.0805390037506949  0.3349229075191948  0.7482281769600708
  0.2442403043924638  0.9114354163827710  0.9961845384181774
  0.2491387223242344  0.4155867296246878  0.1657129049348977
  0.2496825435912504  0.4193135583609547  0.3358421051966525
  0.2476701134390488  0.9150738337457828  0.6661604492953419
  0.1653502929001605  0.4203564931809569  0.4204099326259827
  0.1634221330353877  0.8322711471733752  0.6659940720690944
  0.8324843635824948  0.8325554224906867  0.3333187370904900
  0.9140801466960586  0.9106365355862629  0.1668998887413510
  0.1645872395778508  0.5003547695426916  0.6655372288818899
  0.9948723794887527  0.0823627630330155  0.9132039780129960
  0.8313201445570743  0.8312876729185021  0.1672195525794323
  0.1628682242470620  0.7489428381409988  0.5837048309058569
  0.1630362485093134  0.6667923106157747  0.6663098281690376
  0.1650375537146827  0.6642805216004865  0.1666829791094847
  0.2480609744071319  0.7486862462412794  0.5018510357713618
  0.2467874860549422  0.5002989977334125  0.7486250039659756
  0.2495616320809393  0.3343390556725309  0.5842422778454566
  0.2449884515414778  0.3384879304927308  0.9105314033288269
  0.2464880118494880  0.4200213527165419  0.8312696246522354
  0.1629080422100977  0.5027097069445889  0.9975618869349226
  0.1641763515046063  0.5824329681449545  0.0829976162610972
  0.2483459017113125  0.4992071232324911  0.0813227438389902
  0.1639100724423241  0.7470825047580504  0.0828493361466350
  0.2493393551696781  0.5825092509935954  0.3334894898740604
  0.2492208397988334  0.4993411815823192  0.2499123813181670
  0.4152693031232547  0.1669675762201085  0.7503183085401104
  0.9968628912887422  0.6654690185071551  0.8313552027480422
  0.3262349544116145  0.0854110238510002  0.0496326470624446
  0.1641638024141178  0.8295336269092169  0.1670238807761681
  0.0812076244348588  0.8294778708421556  0.2504919048969673
  0.2471753620914970  0.8299715356762609  0.2511558115078934
  0.1635767748407082  0.9150555862552840  0.0809059106750744
  0.1647115001907493  0.8295050867160657  0.3345878095932325
  0.1633323275115042  0.9123771974221324  0.4204271458136757
  0.8325975877637161  0.7479014914047336  0.9171796164283637
  0.6667040643649045  0.9994085964534007  0.5012839982824214
  0.4168020858723920  0.5851274254800722  0.8328050522058089
  0.9148352748991955  0.7482218094751568  0.8339568562540223
  0.8320520856610990  0.8317695386218539  0.9986564309302288
  0.9154064869560460  0.9136403028080812  0.3342424785195498
  0.8300927270737991  0.9142208570736182  0.0826053286275383
  0.9131996913789813  0.9148791396391952  0.9989912479418296
  0.8305818636457764  0.9147568106162469  0.2504606741741037
  0.0822821929985701  0.2517302212597610  0.5011885015154600
  0.7482895236946752  0.6656588242730396  0.0836125632229737
  0.9987440558805383  0.9152960646311045  0.4175023183916310
  0.9122882278064377  0.0827259548193248  0.8313110527173928
  0.8320125138771874  0.0848683598557990  0.0835514836240126
  0.9138864430367027  0.1662666826903775  0.7485400177026794
  0.0773856360485995  0.1656618398699669  0.9116270153850927
  0.8319600846178414  0.1675107192108385  0.5010369992342493
  0.5836431745390417  0.7488185246452818  0.3355123857042644
  0.9961063486922977  0.7497368203278751  0.7500434757010800
  0.5014630200872690  0.8311031065022169  0.3358986694129027
  0.5045172328916875  0.2533630254313153  0.2554168499066369
  0.1617840320685713  0.1670185850719836  0.8292788548181284
  0.2422950671187660  0.1683846651905412  0.9102181813069017
  0.4163349175079193  0.1672024905659204  0.5836117461482230
  0.2489746545790543  0.2513284735768609  0.5014141836722514
  0.3318777465270505  0.1674125203761854  0.6674524022055915
  0.4149269969915122  0.3336548277894437  0.7498255834033561
  0.1512469950908946  0.2587212678621506  0.0693033117638432
  0.0810488445800299  0.7476632978833549  0.3337886021111022
  0.3315218904767110  0.1675146869604603  0.8338347787365851
  0.9937659101028720  0.2513443697427012  0.9119752463878855
  0.3322637411891933  0.2503613088914253  0.7504341133017076
  0.3380978164420484  0.2593447158143892  0.2609705527813594
  0.3328613615568695  0.5824099765562236  0.2497951599415159
  0.2484544956377747  0.2506668932875066  0.6669974991408177
  0.1628037799552315  0.1708079648452625  0.3353724569616817
  0.3374825621189496  0.3372891142770129  0.1675430604504845
  0.4160186721868905  0.5837629995199310  0.5008182777877074
  0.4161687245279865  0.5834094694880850  0.3341503181680726
  0.1943363787987170  0.2266280112554902  0.1670547343012502
  0.3320946477533296  0.5844866774958913  0.4180552151466048
  0.3321064661572988  0.5024873562492578  0.5015731547140859
  0.4166930447947555  0.5021746218779195  0.4185551015057218
  0.3325789757564241  0.4192992825865508  0.7493525852288898
  0.3322224819061950  0.4991765776226288  0.1655607682359655
  0.3059475268111314  0.2236272321954443  0.1599602388226855
  0.2525053770440810  0.1722363775760427  0.2573794501089197
  0.3236634553296141  0.9922383257429886  0.9852413314223956
  0.4155987212580772  0.5845218765695279  0.6665025162211481
  0.8324184953391750  0.2509755832001286  0.0826577982812484
  0.9984548448563088  0.0837069897067601  0.5832561165329444
  0.7489140789190761  0.9158498797500891  0.6653990148925938
  0.0822385350537875  0.0837210568930782  0.5008088901113603
  0.9984359834140105  0.0000616549445529  0.5003959512589666
  0.9989604599036385  0.9965389044316069  0.3346174581818031
  0.0810279710454790  0.9958907657030499  0.2531858220640210
  0.9987260068423948  0.0828675442892836  0.2512985768022148
  0.1574453652305165  0.1663601106081525  0.9945523256063695
  0.9966214736488126  0.9981938685266700  0.9966048682070351
  0.9967096414101020  0.0810009404614267  0.0810937633258235
  0.9146420592545779  0.9161305310432273  0.6652880943035555
  0.4166111691516645  0.1656621328889585  0.9180861087357982
  0.9134287776050586  0.4188250886238294  0.8307013159783588
  0.3320891011800530  0.3364681841188679  0.8315416938427526
  0.8323708111940847  0.9159570067463181  0.4173144740347985
  0.8319272237162828  0.4169954155449203  0.4177680407746864
  0.9123299054865962  0.1676027833342763  0.9136590687041146
  0.4159105237183044  0.5039300495268536  0.7502748332335887
  0.4154288658642294  0.5022497209907436  0.5833580520568253
  0.2493238866710956  0.4176612322157777  0.5018877048476181
  0.2498620739685051  0.2562682297165547  0.3390065183487319
  0.4226535056049490  0.9976227127764062  0.4191432316151417
  0.3321352913408518  0.5007135542880295  0.9980543521052174
  0.1633937735982872  0.5024699057254478  0.8309055029431957
  0.4225656570978912  0.0816416617839667  0.3394871036124548
  0.2472588635359196  0.5038512053087290  0.9140208732420523
  0.2459709518703704  0.4231033293043836  0.9927834430062209
  0.1643562904399018  0.6648898983773996  0.0000356682512259
  0.1637110069556544  0.5849730298746466  0.9152405909730070
  0.1650261448478051  0.4173845060121729  0.5839295422813341
  0.3316819651132902  0.5851869965793411  0.9153267121646244
  0.2460688164063429  0.7493207240695278  0.9981948288085596
  0.0809687329085368  0.8308797444960188  0.0821709299901532
  0.0829402752996271  0.1676152292435776  0.5844023233414724
  0.2489276247739724  0.5009369243153609  0.5838140835478585
  0.2489781004899230  0.1693600146813246  0.4172408680706864
  0.1928439535782507  0.1121663115730079  0.1678331541885767
  0.2398219175637371  0.2565074034984227  0.9901090912704829
  0.2481335287367710  0.1671738806862743  0.5843869164467630
  0.1650528279215862  0.3349877255440115  0.5014125865531608
  0.4188508199500107  0.4189916929044387  0.9971495654861681
  0.4177760446980369  0.4185229506157607  0.1666221979069909
  0.3323448565511553  0.9984262458187471  0.5077302808609357
  0.2497246337777942  0.5021138740027263  0.4181976723550008
  0.3319562999867741  0.5824277753482008  0.0824437960246891
  0.4171625288275651  0.4192798246511906  0.3374751015413379
  0.3334378087895343  0.3392119467687907  0.3390539026793712
  0.1649590483595625  0.1675170085467312  0.6674241208396292
  0.4177946479320072  0.3363418773989144  0.4203254311313236
  0.4176916102884765  0.4193109601312391  0.5014887024527649
  0.4169611176563734  0.2523695735859542  0.5022170664220464
  0.4178658110726013  0.3355033847955152  0.5838247125184307
  0.5015297073627677  0.4997422497914941  0.0004362444811167
  0.3332137625835069  0.4179456540934783  0.5843565084949708
  0.0785554614433820  0.3396854671118550  0.2523000080139564
  0.4988379996696539  0.2495727425931155  0.7502822970945230
  0.7490978057699549  0.0000605358070169  0.5834314086541109
  0.7485413191399720  0.0838644287845243  0.5014983002835083
  0.6659877042197732  0.9997875735749405  0.6664095331487103
  0.6658864099475368  0.0836404837780703  0.7489197523179527
  0.9972293462560509  0.6646654176605190  0.1666126265355403
  0.7493668421926136  0.9995773158158036  0.7483590879216463
  0.6679163755999458  0.9155493959055757  0.9148642844735195
  0.6693620335686469  0.0839693925611193  0.9152380920108273
  0.9975720817330105  0.7474888294604141  0.0831489509397173
  0.7500043332732730  0.0833472687152333  0.8313182899174993
  0.6671836485312438  0.1687055970537261  0.9994367903799253
  0.6674440699718814  0.2524578812873344  0.0846606197054980
  0.7487821259501090  0.1672643427573877  0.5847591594507389
  0.6664778111507690  0.9149825779417936  0.4189600015783913
  0.4171169034789349  0.7492877064907432  0.1732920419604772
  0.5056244366316769  0.7507550664991736  0.0834517642617359
  0.5835325086321096  0.6653570689840714  0.2505525933671229
  0.5003330029301511  0.6654083180439450  0.3348925536461886
  0.6665170910319677  0.7487596790265277  0.2515486701473318
  0.5845053474530096  0.7482401095220992  0.1670130009338134
  0.5002581615667202  0.7477757078347798  0.4185376215637017
  0.5008773534886595  0.6663209715985161  0.9997641056737731
  0.5013868322974794  0.9140134262527643  0.4188411215216900
  0.4992126229287325  0.1668546663305089  0.6672007827968977
  0.5824735424023348  0.1674981775063522  0.5844392130647502
  0.5838092012337127  0.5848241065340389  0.6672576564238111
  0.5840060751886171  0.7490183139432388  0.6656164255292589
  0.1612761915908763  0.3369218492140817  0.8307969124869128
  0.0799318485358566  0.8316540959025757  0.5823975371236667
  0.5007395348692552  0.4171998300752595  0.0833094852135575
  0.9965483928160752  0.8323808692043239  0.6659605466380191
  0.4222032432607445  0.2594247551918785  0.1776583542032520
  0.5006207758679549  0.4192313329610283  0.2512325833463522
  0.5838226104544302  0.3368616001667134  0.2513812085804865
  0.0804005215758008  0.9156675109732169  0.5016940413305134
  0.5021443831467088  0.3366079875594563  0.3369280164370262
  0.5835264681513789  0.4182723789415573  0.3353467143668882
  0.5834440578356656  0.5007747231319487  0.2507299855065540
  0.7493499029686582  0.9151971295859311  0.8322724610611979
  0.8319134307699408  0.9156426426023030  0.9160782365002813
  0.9138092109649024  0.9996487213211396  0.9150492356666902
  0.9966265819936989  0.9997323363930282  0.6654988382590628
  0.5831757072354335  0.5007555747795175  0.4176103726640706
  0.5005733642261818  0.7487075259302941  0.5837948982926370
  0.5836190274182316  0.6654685727354541  0.5835041962981060
  0.5834221829427022  0.7476397508358527  0.5013239599104986
  0.6658233089862280  0.4169958756552177  0.9154493712677240
  0.5008616710190462  0.7496591689943788  0.7492231459578250
  0.5840738213671869  0.2494482252846225  0.8315275178209938
  0.5014063404935735  0.2518755009081837  0.9121338786549550
  0.5829120623564753  0.4181646053109430  0.8319324247684353
  0.5004745342333319  0.5827451576394903  0.0833549169702273
  0.6667559772918158  0.5007513733226143  0.1669891515722279
  0.5837591471131484  0.5825862740142294  0.0006617361392306
  0.5831904024569043  0.4175634012707641  0.1671863156742782
  0.4996488594526425  0.5831475092061675  0.2504697908940659
  0.2466398588984747  0.7491480284972319  0.8314479897832415
  0.2471106287840590  0.9127120886224853  0.8298631835719654
  0.2485420024373510  0.9136975140004752  0.5021256875455568
  0.4157013636665304  0.0832130489841023  0.6666854087471432
  0.3313391044801200  0.9979114011797392  0.8309253011003936