B  Cr Ni
 1.0000000000000000
    21.0519239149505069    0.0000000000000000    0.0000000000000000
     0.0000000000000000   21.0519239149505069    0.0000000000000000
     0.0000000000000000    0.0000000000000000   21.0519239149505069
 B   Cr  Ni 
  17 259 605
Direct
  0.5827235650306389  0.8271159203575761  1.0097555099302316
  0.5248685005352094  0.6459522349214404  0.0566115701608646
  0.7583750107913901  0.8373100448149945  0.1539194789240284
  0.7251304282157316  0.7733965688988406  0.1113215587726156
  0.6396364372240960  0.8592704673586415  0.0591507245529601
  0.6658402496424479  0.7387149093276483  0.1532374901192154
  0.8187305413861889  0.6854956058264885  0.0705692054764228
  0.4881416984353735  0.5882496122731339  1.0113378676253311
  0.6703547531128544  0.5943790715263018  0.1595856338703498
  0.5852083546953227  0.6814922673129288  0.0143511196955506
  0.8527065834491051  0.7480841462642430  0.0232083918858407
  0.4827359964207784  0.7742998685920749  0.1458742114154779
  1.0854987055647130  0.6691730844066729  0.1662483787193976
  0.9082739137607555  0.8387775515272392  0.1524718583615672
  0.4287168271124467  0.7385150982711691  0.0990217395017413
  0.7629790446171855  0.6479414279994004  0.0238892115465355
  0.3471841835837084  0.6826547985425400  0.2445097628277253
  0.4983818276522267  0.8404054589308971  0.8290440517750628
  0.6662115033709765  0.4950992600934635  0.8314332580081497
  0.4161343167413799  0.5027651977674343  0.5806166050614207
  0.7500477867777505  0.6692274660707206  0.4132413608041731
  0.7302608101233810  0.6746014833634770  0.1121078619820462
  0.0861656037899659  0.4187397945665573  0.1678438034633270
  0.3330426228165861  0.2524537133247686  0.4208985319245286
  0.7364915813508687  0.8487001941697740  0.2573007098504796
  0.8240082291430112  0.7734456231502198  0.1116325009300659
  0.8361691479272325  0.6655613000600751  0.3386925843046732
  0.8341396096167362  0.7511891395828258  0.5845953850014450
  0.1676315354148092  0.9192369114940451  0.7469660119696683
  0.9214389702724367  0.5810522722437553  0.8315049146486350
  0.5850944182562512  0.5810446545541613  0.0012838408970489
  0.8362088254815173  0.0882145813522154  0.0844585304858282
  0.6066388700425757  0.6626376297365537  0.1085883468400929
  0.0869355749507250  0.2499052395180579  0.1673936739824784
  0.7510138223449473  0.1686790580720705  0.2519595857519966
  0.0826885312116316  0.2517918521387368  0.8327589231273205
  0.4995846535501751  0.4160436766931984  0.4188649661354032
  0.7528685879705478  0.6672380570157452  0.7478515661044962
  0.1682920630154963  0.9211414965859431  0.9150432512418466
  0.5821307089574269  0.4132366279297337  1.0025225267888616
  0.0016346829898982  0.1687016582532103  0.8336018509911964
  0.0845469309608457  0.1676621552116197  0.0840654641615706
  0.1648240600873811  0.0034016588950689  0.5046752063945319
  0.7495714883368666  0.0068119066926135  0.2531822390347540
  0.5855295979481345  0.7507283886890822  0.6702048531313791
  0.4961455087829976  0.6742791579009380  0.9663470705564219
  0.5840851908060906  0.3337414570138943  0.0840540119609112
  1.0004320845977313  0.5822227683270632  0.2521771811510446
  0.8344025443286555  0.2522957761742980  0.4180340727970797
  0.9180321768775463  0.2517504591584779  1.0010346079178529
  0.5778098141262519  0.7560838293262818  0.3380153287961677
  0.8368537737681095  0.8350354266325807  0.8302240487437715
  0.0023989173545499  0.8367057894526885  0.8319079907132851
  0.6678482025575596  0.2512869726225536  0.4197607331549619
  0.5001177533484874  0.0853273850852235  0.5856505548198571
  0.1668182812592459  0.0873214001993981  0.7499665190230477
  0.9203106059606211  0.4987901445745678  0.0834450899137585
  0.2500910048896885  0.2516021963820958  0.6663003058383986
  0.4994931518024057  0.0049027805634092  0.8308473774704170
  0.4157910054857292  0.4165689514353650  0.1675836421943558
  0.9992636540634836  0.8347073856074432  0.4993744713409328
  0.2510975033687186  0.6656551499556832  0.0804722158340672
  0.3323627372108066  0.4986864094457016  0.8294888086135136
  0.5840584272889248  0.0882140329606973  0.8314782012109901
  1.0003306886045960  0.4174400657279190  0.5828302906555498
  0.0845254047671078  0.0841416732342955  1.0004251601255996
  0.0047115450219029  0.7519862759539916  0.2556167962192509
  0.7519208019482944  0.1694277838095086  0.9185406834578570
  0.1679143434694413  0.0025454864214936  0.9999675066789805
  0.0021654040285662  0.7532069912044016  0.4201066989768334
  0.6687697553395425  0.3345082012383284  0.6638426364780733
  0.8358691572728149  0.6682959899172884  0.1710724794120758
  0.1660810842163116  0.1703501288927894  0.1662017365038246
  0.7533651799473811  0.7470348297031584  0.0108851819478785
  0.9240964784460378  0.6623464091552578  0.9052350877583988
  0.5847921455841359  0.4159745682755638  0.8305302786137956
  0.9189213104450542  0.7517926229655552  0.6656857101010440
  0.7536075747793821  0.4960505732783150  0.2536642944425056
  1.0008601706696179  0.4179562031865315  0.4196470115337220
  0.5798414819871257  0.9291776651429871  0.1708801546434804
  0.8356549674827073  0.0017974671163327  1.0035416667831152
  0.4154365513059819  0.7528603963430071  0.5039513475691434
  0.3324893088526791  0.0044912022033418  0.5041954283919218
  0.4148998469005382  0.1708162183308055  0.0836413805352446
  0.6697007748996296  0.8362535984019139  0.8379321748060704
  0.5545755369385953  0.8407783815869203  0.1013284601254701
  0.9189392691786149  0.0044852365630781  0.4202416334665962
  0.9185262267180759  0.0876891030766974  0.3364893304331258
  0.1667119307083876  0.0026958179793240  0.1677638371833830
  0.5821721428154301  0.2519992729859358  1.0021123393918212
  0.1665085547388091  0.3333778330330740  0.8324265079634776
  0.8360361311216583  0.4167748136260540  0.4190239954816964
  0.5003578021591022  0.2523505696271513  0.0838639237765059
  0.4988968394410738  0.4903098270544223  0.1745588320760825
  0.2494741208654028  0.1698332490588769  0.2520256114007585
  0.5005409300211324  0.0030720430387813  0.6668946132092635
  0.5810982965432627  0.9275168315684760  1.0034306144722631
  0.6417066004217916  0.7588240999808653  0.0611225570824473
  0.4167331346216966  0.5843971193316561  0.5010853427118586
  0.6678511966343832  0.0065667095416052  0.8316782394174635
  0.1664152893624315  0.0060419066956510  0.3359045912281282
  0.7467997824117644  0.9317433022038605  0.1723190128210557
  0.4179594219941078  0.6687120296893807  0.5846867034193680
  0.5013743879997975  0.3330410256770047  0.8326493164951043
  0.0827174980574592  0.6682753121409732  0.5836532661300140
  0.1656850312481567  0.3337350164782886  0.6667755937522516
  0.2484002450563685  0.9217862135059457  0.9985048356193702
  0.9193450527569044  0.4990802485374719  0.7490912444862921
  0.9175576649517874  0.0031997857905308  0.7497740356333735
  0.4231192722213768  0.6490912202880452  0.0697494996384830
  0.5818206999852994  0.1695827298375684  0.2551824214404897
  0.7565090272549120  0.6599898544389488  0.9129276201874226
  0.8342194613803146  0.6687018268733185  0.4993576618213476
  0.9210147295027917  0.4162831903351860  0.1670909262670256
  0.6681962974122698  0.3336510335170011  0.8329451196418888
  0.4963159067447260  0.6728844234919442  0.1547874228618712
  0.7535546164315072  0.4161707511332934  1.0001031928019235
  0.6584275442532086  0.8398263204468739  0.1620301144772761
  0.3317312108115262  0.5018548785631263  0.5024179246642959
  0.7527759624165630  0.9202795190935790  0.8321887854832746
  0.8340564557110254  0.0878960517842401  0.7507641031724921
  0.1681600917558634  0.5010451369956502  0.3360912350985372
  0.2490703110392422  0.6677511923921189  0.2517908598501216
  0.7516319585736339  0.7513664210193810  0.2039703739849255
  0.0822862234899763  0.2519074740877195  0.6666687246436696
  0.7525325526513581  0.9306301288182031  0.9931962705881696
  0.6681605737941857  0.7517009837306287  0.5831497558415983
  1.0021123141501800  0.5852679854525654  0.4182248096029008
  0.5806703534584596  0.9259506780101506  0.3413195958607106
  1.0000296287106221  0.0848591739355801  0.5824958846545183
  0.5837534578947199  0.3331337297946671  0.2522850838303884
  0.2490350759089815  0.9222314786460177  0.1693639482577102
  0.9159678924525777  0.7522746662754473  0.5001665481149956
  0.0056410585951750  0.9198560675744601  0.2543207631467944
  0.8366360159718400  0.6653465188902608  0.8319452782427447
  0.1682202257275230  0.5001939544668056  0.1670522724621140
  0.0080471559957238  0.8356225665519789  0.9951181486422073
  0.9186835061070029  0.6739244513361256  0.0812712656113511
  0.0864543555137815  0.6678422754076445  0.7480416877687248
  0.4156326399158259  0.3337088113371378  0.4204987780715587
  0.8362953931451849  0.9079972759944850  0.0952908781428143
  0.4952540109177698  0.7598157078691552  0.2565967808583934
  0.1653139392533880  0.1719494223791012  0.3367482992594421
  0.7523615487448500  0.2486657439385127  1.0011569042709079
  0.6682606968553398  0.0032305080055449  0.5024212263143937
  0.2493532163469764  0.9196853817419515  0.6681057422387136
  0.5863629903053394  0.7523874337446476  0.5022910042594609
  0.9190472855887578  0.3344935869918746  0.0852720568005569
  0.0848937759437921  0.8358103365272170  0.5831020326365202
  0.0870861551628855  0.6670809921512909  0.9135028952186836
  0.5782628405681458  0.0096016947764219  0.0837397946150455
  0.4162170965970681  0.5004265750128164  0.4214307216447811
  0.3339168266933551  0.5830200033359161  0.2525305475294382
  0.3331908270772931  0.8346874518722097  0.5029349761390346
  0.1677327772312264  0.2518268435453780  0.4200261112063318
  0.0038117659652123  0.8371840627945604  0.3382751590465756
  0.3311025978139189  0.0061923492860806  0.9980357995618865
  0.6658350616681192  0.0863952639554817  0.0851313081850244
  0.9205158162395708  0.3340618299502136  0.2508319863406754
  0.2499854008160360  0.2530231796490309  0.8337064803000853
  0.1728059619697805  0.7509119635300471  0.0807647701197224
  0.7505918689348298  0.0887744877304327  0.3368773233941720
  0.0834865997551188  0.2509190135946691  0.5003358623012278
  0.3325029324882693  0.0043450349828259  0.8313334402926329
  0.4897709405128045  0.7633515499658721  0.9041978894618737
  0.2485661274553435  0.6690298739795599  0.4188828317899741
  0.0005442543148112  0.9187541378433770  0.9156040335074622
  0.2514216118569110  0.4175000611193593  0.1675087525858907
  0.9190332988191288  0.1687331807297185  0.2531711419328839
  0.0018821770662824  0.4164323332975655  0.0833387521769922
  0.9214767388992127  0.4988834679616662  0.2519910365289692
  0.3306771203829268  0.6672652905277207  0.9975301020196853
  0.0032730392756021  0.0871333498363259  0.0846864191014276
  0.6684315026688245  0.6689120991464310  0.5008314451636039
  0.1669673433784258  0.4993899337580670  0.9993193242498906
  0.8374119686647894  0.0845387825308230  0.9171909208363258
  0.4179587171038345  0.3332382422732632  0.7464908998588083
  0.2492081208845531  0.4157471274656514  0.8317686971528125
  0.7507631369254254  0.9197657537904975  0.6672663323528839
  0.2496786958359415  0.4177485395038201  0.6671633281250335
  0.7513534380202376  0.4126932255639501  0.8300051972965156
  0.5818444630614658  0.0902881392202155  0.3376340172155624
  0.5844115918146966  0.2508477478562481  0.8317127959618408
  0.3293472937104481  0.8419949079606294  0.1693899950774217
  0.4163303941626192  0.5813109519247764  0.3389718067629295
  0.0857960933956700  0.2519733835755898  0.3359683957563019
  0.9175023560107290  0.0026647910486367  0.5839105494435834
  0.1670952451324527  0.0868888333624480  0.9165909484338534
  0.9182273590579731  0.4183820098973523  0.5010680731473705
  0.0832558402807794  0.2509415959641146  1.0009756240900498
  0.4183683819539857  0.7505281814649343  0.6674572799909902
  0.3308626311097088  0.8367927335500523  0.8297918237452040
  0.2496073714905221  0.0861644725468693  0.6679506380633868
  0.4152447742690043  0.1707361495721720  0.4204426691375878
  0.4992569551071181  0.1701745969810371  0.5020433481048182
 -0.0002811724411724  0.9175400947336821  0.0834856267563646
  0.4124581262611747  0.7511516486208576  0.9980087971085836
  0.7513059803767878  0.1689655827051918  0.5830501357474123
  0.4186954115362275  0.8364636898039092  0.0890301170033982
  0.9175564435003785  0.0041597818496456  0.9171170394927396
  0.7511023434638233  0.5845499594211477  0.6674340301520310
  0.4165413653165991  0.1698170109378629  0.9153666868721888
  0.7525146127606126  0.1687187355015658  0.7500684967740696
  0.5908959394009142  0.6536343434175035  0.9112074369930833
  0.4172776771876067  0.4179302826153457  0.5009179760186517
  0.8304845279305432  0.9363594442713259  0.2589716152012310
  0.8349828252224442  0.2508518403412455  0.7493234358482699
  0.0841698954417572  0.4993244738797014  0.7484393611920911
  0.8342022490277046  0.9186728292052316  0.5850564242648346
  0.0842636381645147  0.0021453894023800  0.5842374924326493
  0.0013137876208308  0.9203164550530804  0.4176248746172623
  0.1672702660983487  0.5024200911772329  0.5018897821929393
  0.5848709834515983  0.1685353342496793  0.7487965395094868
  0.5844743407913089  0.4179369894253457  0.5016238979339128
  0.7516282990440643  0.3355646499591754  0.5841362251644517
  0.5184445497934512  0.7455319581467764  0.0575666474579712
  0.3321090859276416  0.0059521391943943  0.3379591639827448
  0.9997474746051367  0.0853406571529102  0.4193404364976467
  0.7546781893890472  0.5809985860320416  0.8302325580007528
  0.2494339531682977  0.5000436074378372  0.7492844234221118
  0.4156314410245947  0.7530265310633303  0.3340825390160954
  0.5743480195716770  0.7569888720966004  0.1748335751674137
  0.4113956737266907  0.0081408029858073  0.0850083885383947
  0.7507892747099036  0.2488683518680596  0.1710636558870367
  0.5002660190064451  0.9210416189711237  0.7478667876583177
  0.7520088145539655  0.8372339339380708  0.4175561716315421
  0.3287990650660978  0.6675887929180652  0.8282291847466650
  0.5846572920217619  0.4979878921620416  0.7476428277359698
  0.2492648331735573  0.7513243787756950  0.6664662538841712
  0.5861457643912331  0.5842772026961928  0.5006212061576556
  0.2483509308100274  0.5827829111024373  0.6680810329158278
  0.2489620041234799  0.5012231268129215  0.4184422371581732
  0.1659028075242517  0.8351925566936655  0.5047793212825600
  0.5852456317624108  0.6686211482876231  0.7523366158939417
  0.1669079038968475  0.9191362958881880  0.5851209488728022
  0.1664987322615926  0.3329443356235766  0.3364253798543675
  0.8349934417457591  0.3347992164926024  0.8331217085435544
  0.6697215604705977  0.0018673771053429  0.6665848917042937
  0.0827623843106141  0.4185840697823582  0.5010821364029941
  0.3331169526110725  0.2502713819178080  0.0826889649488752
  0.2510029833963276  0.7541752421580683  0.9980424333654839
  0.3315309474094738  0.2511234926025908  0.2515793653754494
  0.4979855117027332  0.1715693696022227  0.3367782021533438
  0.4172880739917066  0.3361403294237330  0.5845545887711142
  0.3315653775536962  0.0873568883620169  0.2532846350086481
  0.0842268947695480  0.4997844501631938  0.5801765986159655
  0.2490084530291188  0.1695055920804946  0.9153373094360659
  0.4158811479529158  0.5002865891998920  0.7502346512140008
  0.5820372212211870  0.0048900311510931  0.4225386294735178
  0.4996829136180708  0.9204736215666952  0.5867206238097860
  0.9996814231858853  0.0021436516627266  0.5020860163117512
  0.3319923845986968  0.4178372401099230  0.2516908812854597
  0.4991784970066650  0.4165557449678630  0.0845827072603112
  0.2477973655937687  0.3326177408854943  0.9155146376143780
  0.1664788681942120  0.5829974324069962  0.7472561874103067
  0.2485137408308182  0.8373262096592176  0.4212426791579713
  0.3309381025314949  0.7536540313957808  0.0825661155516505
  0.7609757314626260  0.6588608611494435  0.2619322951381760
  0.1685892534703999  0.7517834267060812  0.9156815285286606
  0.8355832752270123  0.3344044526130861  0.6657085746101781
  0.6692023607352036  0.3344018287340633  0.5019942092468460
  0.7530512428230272  0.4160575450624746  0.1701464989452127
  0.8325131164146770  0.9202552495422923  0.4182739132620711
  0.6656904279801581  0.6683750326336484  0.6672797623104074
  0.4993343248229149  0.3348305983119275  0.6662165897806562
  0.4163682225034156  0.4164324826495890  0.3379991261022108
  0.6686012520929558  0.1696618462526460  0.5018363322873010
  0.4168892760795893  0.1690668317533120  0.7491369255743878
  0.3329399190401477  0.4175268665592229  0.0824242277039097
  0.6706657919265373  0.5700399961102117  0.2610318393449833
  0.4999199024645062  0.2512938235432188  0.4210638526726624
  0.2489188848228391  0.0865879392823017  0.9987410728178189
  0.3284329876715859  0.8402208269429118  0.3436587495507867
  0.7517169742407128  0.5019310855918221  0.5832394637889120
  0.4133748736364269  0.4947399421698885  0.9113104194293896
  0.0022378109098990  0.4163928985541588  0.9163343519428799
  0.0843312547839086  0.9192969056365675  0.1679901710094150
  0.0082551234896287  0.7514381491171066  0.9086615676036557
  0.1664688710919086  0.1693555432961135  1.0011352082872471
  0.2488155454014703  0.0869979654297321  0.1680275207217117
  0.1671499850971400  0.9214797419932467  0.4213995521331934
  0.9179552811992370  0.9192417856534298  0.8324428727015306
  0.7510196306536963  0.6677615198917135  0.5840198443173363
  0.0854128475089751  0.8372492852892338  0.2526020042299987
  0.7506796083773821  0.5856316890095350  0.4999180110810121
  0.9181253659903275  0.0861120441169145  0.8326156230296842
  0.8351280881430729  0.4183040369000987  0.5838245360586217
  0.9199239060993796  0.7514401351320913  0.8321543511387799
  0.0865548181120487  0.5816466381567607  0.9982433933666127
  0.0847281509819531  0.4996284772766534  0.0828690364107401
  0.0840563394695790  0.3336189631651983  0.9167721432915749
  0.0020967175799863  0.5003651215039526  0.3357355063659855
  0.1655272709988001  0.4994711847987579  0.6652033235670942
  0.2500110715710012  0.0043246077053765  0.9136309179485571
  0.0876277040475127  0.7519864398979462  0.8302171240462929
  0.1660512267555091  0.4990526332933370  0.8313332908881985
  0.5000504494716806  0.5018531516253383  0.6662221548180293
  0.1670305071087799  0.5850059286573500  0.5842010343087861
  0.9178612337577754  0.3341451476019339  0.7497341008412891
  0.2493509975556247  0.0872421557332878  0.8325302209832307
  0.9963531226319018  0.6658904730549551  0.1680193742277502
  0.0850901581164795  0.6680908688236361  0.2562268079754859
  0.4991637723574335  0.8357868255711823  0.5044614339254397
  0.1699326048771085  0.7531643537018728  0.2518997400683845
  0.1674750865161641  0.5847382696467480  0.4185251331203200
  1.0003068005553419  0.6686488176357526  0.5010200691292981
  0.7512068537713185  0.1702199182151030  0.4193070626763633
  0.0853937362860717  0.8365314386100197  0.4202516180539775
  0.7512706171920248  0.0867247532536452  0.5024323902613659
  0.4981523149846002  0.9214941905317745  0.4218393923777511
  0.5830581792934567  0.2513650045652503  0.1684233714212941
  0.0060117602901355  0.6635885047485807  0.9964694496718214
  0.3329836394339705  0.5852836169668025  0.5850742255854280
  0.0832125069058092  0.7513667007430447  0.6658888900230620
  0.5814969575521006  0.0877544543311659  0.9999684150353081
  0.6609949210291782  0.9276319296808041  0.2545283490299192
  0.4967866635640000  0.0884465594444022  0.2542404813059161
  0.4981614497848554  0.1707948937055518  0.1689682375280069
  0.8362600161239456  0.4150218651304907  0.9160238210377624
  0.4165341824577618  0.0871429141639761  0.8316258363787916
  0.1670756106152916  0.8366879421896219  0.3379122642302428
  0.3321163334981930  0.3342477998501283  0.3353162009053257
  0.0831326046451003  0.0857638157169130  0.8333979211904775
  0.2492012077440771  0.9203455048788293  0.8314708206355702
  1.0004845053036362  0.5023710278348205  0.5000694962833754
  0.0020435648497552  0.6679527964885056  0.3362496565217222
  0.5882254482581644  0.4938193336115587  0.0845314043375807
  0.3327812942360856  0.4181640955318679  0.5850535598168893
  1.0003421506160071  0.9189631723599422  0.7499756834925340
  0.9165731246645280  0.2516967024432337  0.5007870387042571
  1.0003814218954030  0.0858131057516209  0.7498163226182507
  0.6737393517099070  0.6592050247191883  0.9995023925178969
  0.2497460619104500  0.4173006437467485  0.3352582139662608
  0.9169283482194227  0.5833740780963487  0.1650904264984905
  0.6626770962755166  0.6687852113012696  0.2118739451429632
  0.5839487901027656  0.5830572948627172  0.3346242809401958
  0.8328620069638607  0.7534025653896556  0.4152583161838765
  0.7493417239393565  0.7542816979179533  0.3303615204387849
  0.6671076330264120  0.7529217652415813  0.4163631409279712
  0.5847209554955968  0.7521680824347780  0.9570276353095709
  0.7516530057956684  0.7517309921237375  0.4997210331420496
  0.5807129567146982  0.8375919535702726  0.4217371544013355
  0.6718809133282899  0.6632562571283165  0.8302551445194000
  0.4985765273882418  0.6695427312824238  0.3435488351910427
  0.3332322699684197  0.7510562605750385  0.5852430270688659
  0.6667566161984060  0.2512515393762820  0.2523981698848614
  0.5856091314376528  0.8360972263527634  0.7520821291334453
  0.9183044991162176  0.6667731104775074  0.7499104988033077
  0.1664809344350123  0.0033159836171243  0.6678045427882877
  0.0020887233513850  0.2516111947347420  0.4181609043058353
  0.7591945924243249  0.5775941331679348  0.1725457614314034
  0.3337268563314485  0.6679692383757819  0.6672206786521586
  0.0849162140409133  0.5014059840213951  0.4185677365000369
  0.2506726424850195  0.2509424574030428  0.9986007571916911
  0.1748436981888385  0.6682014855500964  0.1667025631016633
  0.2475302171212903  0.5829241108359232  0.8295786819755140
  0.2478565131019302  0.9233717554759384  0.3382092054882496
  1.0000766803558372  0.7518160563392219  0.5833291884696024
  0.2496822446103601  0.6684274927497155  0.9139893964069006
  0.2490479522630809  0.1692899989936228  0.5854137473501105
  0.3321092100853418  0.9194260274091443  0.5850095937385147
  0.4988412680398448  0.0888478090083946  0.4220312215796207
  0.0841277973148311  0.5851473803194420  0.5007577535808361
  0.0021423991505228  0.0033198479994727  0.1684781180253299
  0.2494992150904445  0.5009319029188491  0.5846760622736001
  0.2510649020659966  0.5824782044434923  0.1672416410445219
  0.8302687091198768  0.5879982925562568  0.0800130856703397
  0.6680516050167105  0.5018592660404491  0.6661660078105495
  0.5840485135020693  0.0865145330194328  0.5033770565320199
  0.9196903388859975  0.5830201820418892  0.3368849118991520
  0.0832264062927779  0.3334829356316719  0.7493334089563759
  0.4153264986708730  0.0028399523250917  0.5859528421984592
  0.6553139776686859  0.7653149718719088  0.2605106704889528
  0.9184316887547184  0.6684058383462890  0.4184232921030193
  1.0017649918645579  0.4170283512947885  0.7487052386299207
  0.1660026388749007  0.4168980075181797  0.7486497650969801
  0.0840129643998890  0.5838589730807727  0.6656504687982240
  0.0029007123333775  0.5833213641570359  0.7480240455984745
  0.0043809044154255  0.5817787661213502  0.9141913438553516
  0.0853183374960769  0.4985527751085622  0.9158692160244859
  0.1685573990139801  0.5825212862474963  0.0820641300573821
  0.8360458570967219  0.1681095833652158  1.0017229387400501
  0.2500740824417718  0.8375728023795888  0.9148305954645580
  0.7522483301586207  0.4920495867547466  0.9103138864833099
  0.1660990302951829  0.9230048417539641  0.2527520010340991
  0.8339876415703151  0.2520533004800284  0.5844425346379436
  0.5817779346487121  0.5789632595731778  0.1817574871467510
  0.1668923232634150  0.7517285977272489  0.4210182887193015
  0.0844676328216036  0.8358727595044153  0.7494143973547929
  1.0012793519435539  0.2513228523223519  0.5840379315705749
  0.2496142156271213  0.0859349351852950  0.5022817888859422
  0.0845029300327372  0.0028525134073264  0.7502535286469968
  0.0857800636938879  0.1692947497715814  0.2514048047395299
  0.0833731413046092  0.3341104869466560  0.5826307157306807
  0.5839429396628066  0.4132405460526272  0.3372118580403353
  0.5824488349554333  0.1694816361377043  0.0841883465809637
  0.0013512067527560  0.2515057614297646  0.9169416667716630
  0.1655992414816204  0.2502734525665305  0.9170162797873350
  0.0847693091597620  0.0039439543242017  0.2522884428286863
  0.0834240454162027  0.0017264317599315  0.0844568635713212
  0.0837197785682599  0.0039131183324537  0.4193791803537933
  0.1670875901296109  0.0851722021866689  0.0835571746989214
  0.0018146899891068  0.1698334050000267  0.1680090554910098
  0.0836197160459316  0.0863720605965695  0.5013780564424349
  0.0830419746395921  0.0853130933583034  0.6674707322679309
  0.0828543564262993  0.9193787483141895  0.5004868758883600
  0.4141985360537255  0.1707024433780134  0.2529426386384752
  0.0018902402550137  0.3331889379233562  1.0008681025619648
  0.0859806562465477  0.7582217541582195  0.1679528306606266
  0.1679601180703933  0.8366085882419223  0.8309546277045722
  1.0003559058235201  0.3345152094125927  0.5007389544490415
  0.1674502826514437  0.7513501201474870  0.7474925102991894
  0.4170818868842024  0.4150858926121623  0.8301123815168948
  0.0832478466353602  0.4174646397097601  0.6651712416180143
  0.8346881425507694  0.4160761020400525  0.7479732692023586
  0.6677015196379644  0.4189950064943396  0.5842300552707297
  0.7526828244792420  0.4155038817599890  0.3360302923901874
  0.9176593374960846  0.1688474820222927  0.7502017248292212
  0.6690350582470150  0.7519585231203353  0.7534416180650587
  0.0871510578298238  0.7510756341575689  0.9971733264404370
  0.0850109623246897  0.3341739772448421  0.0842921326874009
  0.8344184443983725  0.8353959742215602  0.6668601746937954
  0.0850850753083557  0.5004213271720741  0.2525755112578733
  0.2494270934891201  0.4185563541551345  0.5013963712907824
  0.6681832899960477  0.4950751855767236  0.3388769621241718
  0.5839998387247900  0.3333588628936737  0.4199083980767822
  0.3327302408553903  0.9198552459887943  0.7492874664905835
  0.9183876358513431  0.1696401870247572  0.4178690785789785
  0.9185520314323187  0.2517811447963156  0.3345007283142584
  0.7519511911286023  0.2523033759575772  0.5018964088589789
  0.8352181335701020  0.3348661119868103  0.5010576869006392
  0.6771464607394347  0.5723712995741186  0.0743437732502420
  0.7537002043005855  0.5667012948865688  0.9905090331193676
  0.1662270354887376  0.3343329344069262  0.5016305255932442
  0.3336358111253529  0.3331287136638386  1.0001607352944442
  0.8364964764711353  0.5816248379942517  0.7486752244747854
  1.0017597238112375  0.5013320745423514  0.6655306642740675
  1.0006127391002453  0.2515231277550642  0.7500857713392975
  0.8352856311823763  0.5010742433678893  0.6655068943214328
  0.7518707334092357  0.2517781713926612  0.8330370314592512
  0.3327928041643546  0.3353406949036576  0.5030179740649310
  0.0860844762781180  0.8371931669273833  0.0824072942604625
  0.0846021698603366  0.4167542667746624  0.9996431826189260
  0.1665224866666459  0.2514254235972321  0.7493577887482512
  0.4170917854564217  0.4184964260169120  0.6657309618588674
  0.3325008382986642  0.4143738596421717  0.9142301906894298
  0.8311293439952459  0.8389274812141018  0.9995719205287315
  0.2497358396543973  0.5818428615611385  0.9963842263823773
  0.2489788397101347  0.1697945345561126  0.7496077342237238
  0.8347350379711476  0.2514024803329075  0.9174733547963311
  0.5013319148220091  0.4193397635126153  0.5839143603825695
  0.1667030710369605  0.3332931404003366  0.9995034931735124
  0.5000456481846000  0.2522595249401684  0.2523000820738195
  0.3319226222210954  0.1700205295580672  0.1678028996935360
  0.5014202543203271  0.5853763872569824  0.5840554685710845
  0.9162641733946962  0.0871313994894564  0.5018733613212485
  0.5781670318766546  0.8496744518084540  0.9101380831851081
  0.5839323892040145  0.4998988409226220  0.4192415326654617
  0.5829291285460382  0.1695430112448472  0.4203167883119584
  0.5841163257839125  0.4937150096413041  0.2565323200615559
  0.6679139300327166  0.0856575825980807  0.5847069040814045
  0.4173036024953113  0.2511759800266067  0.6664285072618626
  0.5008380314503311  0.2513345415993768  0.5851616259665104
  0.3327911247285887  0.0872591859751932  0.7501562102543368
  0.5850972567719176  0.0042790820111120  0.7485541730950185
  0.6668388233081423  0.0879087694174289  0.4204252078541691
  0.4147145709600000  0.0884463273502991  0.9985741327324607
  0.4963616096150317  0.0069831835240681  0.9998135726260042
  0.5001450620582418  0.1684095727795186  0.6669491528189910
  0.5008847468564462  0.2512914319783053  0.7487878300648746
  0.5840022440263056  0.5784499069408746  0.8297090971880201
  0.5844451914921270  0.3338017466993658  0.7490458014329598
  0.5004278144469798  0.1696944902404803  0.8321356624331624
  0.5008482339360597  0.2513083478024242  0.9158807602180186
  0.4981773335065242  0.3334962421415407  0.9993298785169248
  0.3332647154662503  0.1699823754499455  0.8320231785804528
  0.4994476546978637  0.5753017452414635  0.9126348223886909
  0.5837550379705989  0.2516510718191687  0.3364132851844032
  0.4918737941249446  0.8430537346513493  0.9958639425238288
  0.4034819654196312  0.5765456864720392  0.9856979767285968
  0.3316570490425211  0.9218836977067915  0.4225587100087446
  0.4324404333440243  0.6614148246883058  0.2541860317000481
  0.6682215680718989  0.8341485018153303  0.6675819924285595
  0.0852390460497887  0.5829132086613595  0.8309375797578344
  0.1679925687068981  0.9205292017203219  0.0842013718483484
  0.2498202741698597  0.7519416059733744  0.5022437478082877
  0.0881496406136909  0.6668592054128822  0.0770365144444400