 B Cr Ni 
 1.0000000000000000
    21.1200000000000010    0.0000000000000000    0.0000000000000000
     0.0000000000000000   21.1200000000000010    0.0000000000000000
     0.0000000000000000    0.0000000000000000   21.1200000000000010
 B   Cr  Ni 
  17 259 605
Direct
  0.1150117726948487  0.1672415585226949  0.1676936152925684
  0.5888338734884151  0.1499330091583887  0.9959825286069931
  0.2499262379408025  0.3075591758729636  0.1658703839499628
  0.6497958947327863  0.0879498881899060  0.9950820506193025
  0.3267584714484178  0.0194512258870736  0.0939053977536781
  0.2534385813079494  0.0275367100994676  0.1626987407932405
  0.3968427423465450  0.0776017148642236  0.1012726456230694
  0.2517685172776620  0.0773942630601917  0.0893156119711823
  0.5000853898299150  0.6717633933822716  0.0786843946226061
  0.4138441108747515  0.1620019956260022  0.8275141246304678
  0.4754094294387374  0.1648081693978354  0.2576223867609215
  0.2508241374911007  0.2580380324756280  0.0956632815854985
  0.2552154107588410  0.0784986983468475  0.2330808469478939
  0.3589313029147291  0.0772454703268960  0.3550326409472734
  0.1616080988969534  0.1691791950789198  0.0965095248336859
  0.5880258563498597  0.0910267140368242  0.9349993067810941
  0.1663271158570783  0.1716863214604443  0.2383870967006533
  0.6710048306896336  0.9106273275453577  0.2529493469065012
  0.6657658028054162  0.9150728684548712  0.7488615691427944
  0.4164107299380045  0.7514698732540984  0.6659727216177375
  0.8312578283615033  0.8316919380715744  0.8327294968798284
  0.6665998528862120  0.3340406602778893  0.5002164445535441
  0.5850947108971123  0.8342605465782353  0.5822166164360607
  0.7512073784527288  0.8311990786315449  0.9145196067274499
  0.7499786661861351  0.3365110522300835  0.9143884882977781
  0.5212520831629124  0.0745923977337542  0.2459822233700307
  0.8331722501960391  0.9166763373929512  0.5836570843326293
  0.6663618247014820  0.8330554459033576  0.5018922901142923
  0.5843505677379178  0.8318589567999154  0.0844407668594267
  0.6677618380876661  0.4185213040439617  0.2513501395339701
  0.7513685651527225  0.8297032664680580  0.0829733906740346
  0.0786167637471150  0.9986201581436198  0.4189835424779845
  0.6677281242491664  0.6659367695039204  0.6686771812576794
  0.6671134315358489  0.6660257320840230  0.5013812635759144
  0.7497823964264959  0.7500603448163113  0.3359602020054056
  0.7497034395453110  0.8301535194415429  0.2518566371178368
  0.3302476822817351  0.7496535859410977  0.9148007351704324
  0.7469818979282613  0.5020166545457380  0.9164385201571511
  0.9984077514231928  0.6648235818656445  0.3333775491394522
  0.6662823986124152  0.4990228636483097  0.5002911697159785
  0.7494308818006652  0.5834607708061194  0.3350542758820073
  0.8306522065060336  0.4188364545353591  0.0825459252691141
  0.6667063482773387  0.6656290035713076  0.9985218638396468
  0.8322263281365944  0.5835765752449299  0.7501187031642773
  0.6651868799727416  0.4167452986139655  0.5843505321206744
  0.0812440133871400  0.3346617623394769  0.4170368131220973
  0.9965523700224890  0.5020270371456340  0.9993142210101408
  0.7487956979485576  0.3348096211391591  0.5832315874284457
  0.7517516376173798  0.9996195751734576  0.0853222621558593
  0.8345812202734011  0.9995171365241732  0.3338337223697326
  0.9153459526127617  0.9985676788773082  0.2500628926515210
  0.7484981368033093  0.5833016966225899  0.6665795084991323
  0.8322502360347271  0.7492071327622304  0.5843231902101348
  0.7503625149379251  0.8312315904744284  0.4175225359910348
  0.9978041142860998  0.7487635952850153  0.4168834266459120
  0.8316667325206087  0.7485038507616542  0.4176756329092409
  0.6680516907351142  0.7495014399072923  0.2525664242827721
  0.9960460787499997  0.8323420429731850  0.0008451712166193
  0.9976240394673864  0.9155358804246839  0.0825726739275978
  0.7475057839871578  0.5832916012699939  0.9987872569576028
  0.9146978013856903  0.5017016993277005  0.9175639989175320
  0.7474517191147764  0.4179625082169543  0.6664329095127650
  0.9157539946485781  0.5831157362627225  0.5006554158597798
  0.8319265385081147  0.9994699209206985  0.1674387158400529
  0.7512503641602204  0.0012452414175471  0.4185743166529486
  0.8344316571776876  0.0840525902610252  0.2506462819467452
  0.7529922758451790  0.9979593917067261  0.9128865078928193
  0.6680577699540508  0.1694206598293088  0.8287160061658401
  0.7500193087302152  0.2526814529773789  0.6659414897701258
  0.5836883247066225  0.3342067447948400  0.7492741127592589
  0.7496662106663819  0.0833165198872398  0.6668359867491984
  0.6673223327518752  0.1677471339442898  0.5022172242328976
  0.5812024764368263  0.9869633429284861  0.0894274063920999
  0.7516238421535660  0.1698694810009808  0.0865999398676121
  0.5832697230445044  0.9952447126146526  0.9141422259155416
  0.4991527314320051  0.0007812926980108  0.4994430101412120
  0.6658597403934849  0.9169311151823358  0.5834078621003732
  0.7494690369426720  0.2505044704377998  0.3328180107898053
  0.6655437505311111  0.2521575979185095  0.2499830891680848
  0.8303182529806804  0.4193134356042678  0.2514026546347850
  0.0816613535819501  0.5024216072187412  0.4182431599903317
  0.9956939698807579  0.9146530293965074  0.9156162184675001
  0.9163669470307426  0.8293796552883321  0.4187843846665966
  0.0801916752164335  0.8297444853467160  0.4183888918231879
  0.3348682321872105  0.3336296480544401  0.5002378980073934
  0.2472950846478123  0.0828712627010048  0.6650791083592571
  0.9984270439971834  0.7491267979557409  0.2490799159911330
  0.1630124931227901  0.8350762260124104  0.6691207790910160
  0.2451636299512901  0.9967259063198994  0.4207206044985593
  0.1644146435350969  0.4196627972441463  0.2509510081600754
  0.1620753856932981  0.4228660221159034  0.0828797799957048
  0.9948464016021701  0.9989040182504219  0.3347814378725177
  0.9975241455102950  0.6654363619366588  0.5007223484044375
  0.1650665952865685  0.4178464525947489  0.7470542698149563
  0.3356200459567402  0.4209841872937035  0.0811834892009117
  0.9972143897300847  0.9996938528897518  0.4994439278911082
  0.0801959565648008  0.0827350101924744  0.6677210804917854
  0.3306791000636744  0.7472992035307663  0.2499852681215095
  0.0790753347302466  0.2562202414162413  0.3385857857905166
  0.4231969992150080  0.9847235623034586  0.0863580826495146
  0.5845517917046814  0.1663026473366811  0.7508685606824229
  0.5849778102741819  0.5849079436575028  0.9980328951283075
  0.5013128581066265  0.9116119916515746  0.2559146282899734
  0.3339480108658101  0.4187974968138120  0.2511590449470286
  0.2479923827146670  0.6673882992874305  0.9144882381133137
  0.2481530009527784  0.5846383452643532  0.9989386877901051
  0.4982975188259249  0.6687178669766400  0.8323100790840346
  0.4157508171544811  0.8330599357027507  0.5831063024106968
  0.8307207083579868  0.7489908159549123  0.0819249587411540
  0.0810725402255161  0.6667840920558774  0.9170150733498914
  0.2494699687117974  0.5023747236737741  0.4178651720963873
  0.0816756151227659  0.5005176816196120  0.5829924929335870
  0.9962504051812182  0.4204358424970305  0.0821189484859415
  0.4970647059434016  0.6655542395876601  0.4993728899481861
  0.9979961051359134  0.2512228269750316  0.5834401428153075
  0.2483151248631198  0.2559161501948880  0.3402005673972688
  0.2457566884467093  0.9131740164719296  0.1675698188360810
  0.0819768620420986  0.6659834890659621  0.0842734494531755
  0.9972570086672506  0.8287094682971845  0.1679880216137526
  0.7502665147543894  0.7513912403622826  0.8326938355160008
  0.1650029666764881  0.2500053819387041  0.7509103653537861
  0.9974652138136295  0.4190610474621762  0.7493071878328755
  0.9965334205857357  0.8331821887392579  0.6675452894227712
  0.1586410235909831  0.0748475047262109  0.2636230649050987
  0.3303548364662441  0.6676450535562940  0.1678751827498518
  0.9956788515606303  0.3364722048073820  0.1668330564982209
  0.7494407124023691  0.5846056438212375  0.1662078064311356
  0.9152429384503470  0.4164544420751717  0.5003395861386305
  0.3337344838065445  0.4208914137281567  0.9128359078995608
  0.0777107453098099  0.9977138618359269  0.9135694130400016
  0.4157843144192143  0.5004940957316151  0.2501827442830499
  0.0812229247730048  0.1682390089241769  0.4183731706614056
  0.4153675685409813  0.2576289593978309  0.8319504608175217
  0.1655289856665137  0.5002154352975434  0.1670218229876856
  0.2486567934046255  0.5830833491956444  0.6669507553734494
  0.9149068513353996  0.6662226579970242  0.9174956686510458
  0.3337499970590802  0.5006126945474145  0.6661142611288843
  0.9952460410291248  0.3369581823134776  0.9975379906101298
  0.2486748756093201  0.5826698790524641  0.3332085986645653
  0.0809109835069904  0.2517245263588147  0.8342478356039430
  0.2442357458404869  0.2536904693456092  0.8320549655919304
  0.9978383202427489  0.2502647524698574  0.7505828774015429
  0.4168638735153220  0.5010532293425507  0.5831126908556246
  0.3328629357577600  0.5010998483632934  0.8315536135272262
  0.0766628575087797  0.9938874725184947  0.0823594270005192
  0.9976691399507983  0.5852583435870669  0.2519364600068692
  0.4989966072366189  0.6669749774367082  0.1744363280735279
  0.8324187770456818  0.4180826175749252  0.7493692188834734
  0.4127597465553007  0.8306469509368560  0.9139677015819453
  0.7501051773050484  0.4179642815440904  0.3330296569924610
  0.5806024782150030  0.5849130796706579  0.3357514009376864
  0.5001048100014458  0.5838740386719560  0.4163728941361488
  0.4159749814851433  0.5022947502708137  0.0807430616965114
  0.5834712740826369  0.2550473880793367  0.0002951141500205
  0.5018239506740010  0.4197739749899472  0.9133684159386015
  0.1633868317159293  0.8309907181861783  0.9980358561661932
  0.6677224825410171  0.3354925730802055  0.8311258347590657
  0.5015289408585298  0.4183281199317846  0.5838519842753449
  0.5842552570331340  0.3344422634743734  0.5832531254616734
  0.4997602197936252  0.4182562952096361  0.4176612251966245
  0.5027027868693948  0.5011370462023995  0.1669579796444761
  0.4167055233678855  0.1669342045715162  0.9234745435859162
  0.5828641622793512  0.5828871722147404  0.1678634931832104
  0.2482299208346457  0.7478039692797518  0.6670042758153587
  0.2473116787731507  0.6667931271442331  0.7498622648018279
  0.4158174062680147  0.2535742009304238  0.6631269672289263
  0.3320360875611759  0.1716656654825684  0.5041031234291335
  0.3318770689858501  0.2504646543659179  0.5833202590509322
  0.4181532383641107  0.1621437096302186  0.4164001280774672
  0.5852580495947656  0.0792361408795071  0.1663851394970786
  0.9960637619536754  0.4179854967716369  0.2503771612713811
  0.4982060771820990  0.4987282140308645  0.6667195712938239
  0.0784729659718303  0.1668228309991858  0.9138189937844889
  0.1632919744773839  0.8324953893183166  0.8302532323714839
  0.2458920073916912  0.8319319619931259  0.7461498980314416
  0.2457988899591406  0.8308206794825539  0.5885083566151000
  0.1630683533386933  0.7497010789491122  0.5867225718846818
  0.5833479104025703  0.5011980999945977  0.5830581680474870
  0.2481658382330935  0.0795991971046600  0.3389096937730251
  0.4988062840762183  0.4995574876123985  0.8318259926818571
  0.4168532033314932  0.5015901756818795  0.9140360292887800
  0.3322353052782521  0.0809137992074330  0.9209177362280728
  0.5009979418075293  0.9058398783083493  0.0841907826652692
  0.4149749465408148  0.8311256752061099  0.4199785842521492
  0.5858424155489292  0.2538868295732904  0.3341086322324401
  0.5017149754497159  0.3373266002549596  0.1660721618769325
  0.3186200364742745  0.1114557509395419  0.1579686544601623
  0.5838588207310861  0.0815454183746334  0.8312505828746607
  0.4987329630499245  0.0001036804170616  0.6672785309036515
  0.6654373313577349  0.0825690959921083  0.2501023836002069
  0.5821471394622005  0.0816723222375004  0.6680064748229846
  0.6687174121331416  0.0001406906014375  0.4997820857337347
  0.3302195217810717  0.9119607965883619  0.9129608008715229
  0.4193297821108460  0.2477875810037688  0.3361272982864090
  0.4148694648615774  0.9170139866282276  0.5001957970509249
  0.4155223319649884  0.5837063093239204  0.9980830146992771
  0.4165744634472083  0.9157233074546203  0.6655200634330120
  0.5005218955816058  0.2515729187803584  0.4191765870319479
  0.4144448625286670  0.0059074202413464  0.4133253812125943
  0.3334869876976224  0.9092259764138436  0.2564141650225037
  0.5576312373088903  0.0622613442483034  0.0224336022683084
  0.4188392125546534  0.2484325623412097  0.5000634582294586
  0.4167024450493237  0.5017355504314820  0.7491780623772887
  0.6663486589420385  0.5023394975133707  0.0004293953071930
  0.3309276404274368  0.6663902514295867  0.5016011391894774
  0.5827317785855211  0.8317179656340977  0.4198414272970150
  0.5833556684317383  0.7494489775684501  0.3372144741098878
  0.5840395691705594  0.8335330481220901  0.7475061250921233
  0.6655583853092136  0.5856708582159351  0.7494911961151569
  0.3328937032897232  0.3432234603023104  0.9924303673566044
  0.1633730998115915  0.7484838052138848  0.4192431271766728
  0.4169670069636159  0.4177215042697908  0.6666796897826288
  0.1602901640750056  0.2522409613441593  0.9145289489683132
  0.9164815340481745  0.8326120573181485  0.5843855238057686
  0.9145783545861480  0.3339135093562591  0.5834973119414831
  0.9139492408804959  0.3354252940135216  0.4172596680114975
  0.9150160345508582  0.3350708223176153  0.2492122854243811
  0.7532375152272336  0.1697933783291114  0.9115850626732233
  0.9157841523655422  0.8300909739470412  0.2485890444614197
  0.8322405752805812  0.1677605746805170  0.8323682914260973
  0.9146761720995192  0.8327809941272283  0.7489867178972117
  0.1641276742036023  0.7485209842059277  0.2502038262867050
  0.7481269320249920  0.2491184142635536  0.5015538889337888
  0.8310568960415144  0.2491291663642181  0.4158579752835205
  0.9151004260940578  0.3363469325615361  0.9157936299760855
  0.7503060471924469  0.0835211697457712  0.3328940171024971
  0.0018692665849522  0.1684688716781541  0.1643486910516984
  0.0789359935433605  0.6644198936774426  0.7486311473524075
  0.7515764646959957  0.2509306837389346  0.1665550763459251
  0.9984349276417782  0.8303176661121798  0.5003675171343247
  0.8317951920213463  0.9984357917161902  0.8325637385553623
  0.0790568196497992  0.0827460494290965  0.8307144249960577
  0.9146575275342160  0.0007500767315398  0.4167924664288313
  0.9970916791313733  0.9970733297777633  0.1666792119930731
  0.9179516627884553  0.0863608645029321  0.3342250968083794
  0.9977051788694663  0.5845918215332940  0.7486486655444735
  0.9131914823789005  0.0831235319974598  0.9994147707952608
  0.9975538708528624  0.6639507684939030  0.6675603646370096
  0.5846233806379211  0.5013431847724691  0.0838078365479373
  0.2485719815352342  0.0013657960178316  0.7493979623081007
  0.9151342339985220  0.9144104203009090  0.9995117583627968
  0.0684794674573173  0.1682094078689137  0.0779999247581780
  0.2465439235564880  0.3350433524605951  0.7494918274956521
  0.5824718494833504  0.8309348820732599  0.9141047982525816
  0.9990746043915997  0.1697325709278103  0.5020757311518342
  0.2470029173717659  0.0009294466156724  0.5850140753243439
  0.9136809620133406  0.0002219328504171  0.5820879415823442
  0.3300826651128258  0.7485593924159565  0.0834895557936123
  0.3310156649735734  0.7484379761984268  0.4199052475515456
  0.4992824939683709  0.6659252832009547  0.3358157948939116
  0.9152556476606144  0.5845108518885552  0.1667651368186286
  0.3326626426922956  0.3330421488956500  0.6637613304306665
  0.4994738655023859  0.6689685414687897  0.6657428731580000
  0.4171951461094002  0.3382682008659537  0.2530289600639806
  0.3348068635142679  0.1827966636346728  0.9834945581224533
  0.8328491996881529  0.3362137524591575  0.8321632128442946
  0.2491114826489316  0.3362354346584025  0.4193289131303633
  0.3332425652078057  0.5845566638042589  0.5827482515749003
  0.9152919139508146  0.6658905248483908  0.7491312880071753
  0.9131303441033906  0.0004007889647113  0.7491667642993893
  0.3311646298113524  0.6671224638071361  0.8326011102393361
  0.2473911507082021  0.5860586399138121  0.8305567617894605
  0.7500174066531167  0.0836414866836389  0.5001744584725877
  0.8323866029389008  0.0002727090505717  0.5003157006084188
  0.8313381719483135  0.2502195453235558  0.0830959041597854
  0.4134620581170635  0.9142889097951674  0.8321368687461002
  0.6676156665128828  0.6685666177045003  0.8312820658180358
  0.9166448194886158  0.5845611673184389  0.3323860532721820
  0.1629200441635754  0.1683352039306582  0.5014301604613349
  0.0797645399585793  0.0023415765776317  0.7516156475752370
  0.1642525004857112  0.3353006178453602  0.6675185732781477
  0.1633666793351061  0.4222634561167762  0.9139981163586650
  0.7474450982864033  0.4994261300489212  0.5824565200768840
  0.0821780819034725  0.5834320265179771  0.5010382569273459
  0.9152312433420512  0.0838572265949561  0.6658920752691397
  0.1649074736123887  0.2515463725422701  0.5834438896924350
  0.2478343360990884  0.6659997601427307  0.4175754716844031
  0.1649937770960262  0.5008720306726092  0.5007170639598050
  0.1654439242654185  0.5826645188273438  0.5835130007913006
  0.3325629628337310  0.4193155465100839  0.4192816834676615
  0.1656463522140810  0.5828107198438672  0.4175388846846141
  0.2487423244655943  0.5833264142261979  0.1666696832650766
  0.2518371785345810  0.1700112433491891  0.0715009375496138
  0.0811928374976360  0.3348625736897353  0.7495993792988673
  0.3336093566497256  0.5844969667843437  0.7483189173319743
  0.0803729537415920  0.1669935793544852  0.7498049578493130
  0.0792779462636005  0.9175907192109211  0.6675194261052105
  0.1648861595664419  0.4204279243257906  0.4194020170013932
  0.2472301792581308  0.9178730445587542  0.6669666776340450
  0.2490001216122298  0.4205388178495257  0.3363054595171664
  0.2494877591128511  0.4173887454570204  0.1663720311850698
  0.2447524954585192  0.9106206000797391  0.9956597708442473
  0.0804488799149755  0.4175512635850515  0.6664937672334730
  0.7505489637582312  0.9143886950413640  0.1673588800681607
  0.1651513438265080  0.5001206568839657  0.6662881335700277
  0.9155712228813725  0.4173938200097391  0.6666525100213897
  0.9142895718866781  0.9990228819567777  0.0837104745910166
  0.0812569071560925  0.7473765434519405  0.5021578209650917
  0.1634835934968120  0.6652574771791530  0.6665708785305313
  0.1652862220627057  0.6658405150521590  0.1668751904481802
  0.2466780137548801  0.7495219953113049  0.5026027504402527
  0.2491169585243038  0.5011463883207967  0.7486310481897450
  0.2491966640658139  0.3343677209407658  0.5836528222683380
  0.2460018654278704  0.3391590450265858  0.9127253528349398
  0.2468113685399911  0.4200015276744296  0.8314342599633673
  0.1639435052709510  0.5025478793689047  0.9988448108700010
  0.1650352743059912  0.5837247834613810  0.0829854665501652
  0.2490338172259695  0.5002606834788983  0.0826491497009268
  0.1638977360782643  0.7491238116712001  0.0822310917413909
  0.3325518309659266  0.5010154600912019  0.3347467084848318
  0.2495065605643398  0.5000806098630426  0.2498300348107377
  0.9144532932841476  0.5011508569434707  0.2496309109122086
  0.6661742366004931  0.8332760974549593  0.6653610039978807
  0.3311709208753196  0.0971945329075503  0.0422926712182170
  0.1644336014579689  0.8312497397286912  0.1677375581393182
  0.0810214881668452  0.8302600420801713  0.2508946553961934
  0.2476899295897408  0.8311133129159158  0.2517779592980909
  0.1588262427333992  0.9109508643283233  0.0818108798370577
  0.1641784759750178  0.8301344951357227  0.3354705890934934
  0.1619978263451942  0.9139696907294926  0.4207434489797828
  0.8327297390145217  0.3367339167911781  0.9988696234928843
  0.9157340315530955  0.1673917725391207  0.0833031223681797
  0.4159064168531847  0.5846469997467768  0.8319798840662744
  0.7490119915567096  0.8323696951829712  0.7489974383767017
  0.5826614730590596  0.9169765828089113  0.6658794382966604
  0.6665207894774984  0.8328088486909720  0.8328488455540409
  0.8307256986715564  0.9996719958407857  0.0000766167397024
  0.0806612112952290  0.6648550510561295  0.5842340712335121
  0.8310799970137531  0.1671895995374823  0.9992226029144732
  0.7492286318886405  0.4188446595766906  0.9988088019503620
  0.9984863274793881  0.3348592688544877  0.6671607630448568
  0.9141738914307036  0.3365370286036095  0.0832258219305451
  0.9132036382138325  0.4190777141201197  0.9996601354812876
  0.8323688454260216  0.3355452927022688  0.1671139872811403
  0.6677083259768545  0.3354184663686837  0.3336362915425050
  0.9135002284973383  0.4196400828331956  0.1659850766989338
  0.9146036780925469  0.2523092878254699  0.8321579201853421
  0.8319972889352503  0.3337825731536342  0.3332015514486446
  0.9142297933538700  0.4176699539049574  0.3333514839018072
  0.8315167295252299  0.3338027632021531  0.5002698655121199
  0.8309269135429891  0.4172427436997208  0.5830387101224854
  0.9146694241262541  0.5013238917374487  0.4171135382978179
  0.9160526315174990  0.2517657192330826  0.6668544772466636
  0.7497435980108232  0.3351040140895214  0.7490883979660379
  0.9973858652116923  0.5845182024802942  0.0829836167086485
  0.9144056477202194  0.5842093398024775  0.9995418870360011
  0.0810874634809395  0.2514528281115561  0.6674498113807230
  0.8322535943623497  0.5837867831570516  0.2505015690680242
  0.0813026953206921  0.7482911616145261  0.3337834361496481
  0.0804368162845160  0.0790188380437251  0.1665450503150566
  0.8312699901612588  0.5825791960766468  0.5830887693917411
  0.4993495839752093  0.5842833797545313  0.5837614140367489
  0.2576688361677373  0.1695297898499631  0.2543848892656377
  0.1977747223713059  0.2254549667018851  0.1671002106372912
  0.3314002398480104  0.2629823769364133  0.2608971635172777
  0.3331238609860898  0.5018871866335496  0.5009112119224156
  0.2477460369558643  0.2508813651311374  0.6662660010532802
  0.3312123162688366  0.4179931472639964  0.7481474604663236
  0.3366172155643690  0.3386448485201560  0.1655411742008857
  0.3103316437629973  0.2197695705995669  0.1635762768586249
  0.4153446565072156  0.5837852278263069  0.3345886284131382
  0.4170168935451734  0.5839189254731579  0.6658072940693037
  0.3322625038226354  0.5843349580636107  0.4180515649212281
  0.2473915253664034  0.9957995624807968  0.9148332556253538
  0.4167376831511451  0.5013691766667344  0.4176202883968418
  0.3314743574052842  0.2511681913653194  0.7490552515774925
  0.3330137657938712  0.5006718254092590  0.1663317719761690
  0.1654568888570697  0.1682964349051906  0.3357776196332712
  0.3325400858910167  0.5833781781419274  0.2500115541554156
  0.9982977815973088  0.4183473711545221  0.4180050038448568
  0.9974258347074364  0.3357498228561633  0.8320116093054383
  0.9984080905198593  0.1676601874783206  0.6669154654915769
  0.9959535422702093  0.0839364253998247  0.7494207233853692
  0.8322243882720456  0.1677127145427616  0.6659112134389048
  0.8322781280260326  0.2515416805852474  0.7492648484581527
  0.9156198480179111  0.3352739884528101  0.7494576687362817
  0.9169166967929070  0.0834768937232663  0.1660364014591772
  0.6690349383715445  0.9977039771778549  0.3348181205582438
  0.7495946470354996  0.7498675776387635  0.5015591113415531
  0.7511821126999774  0.9148592423146353  0.3355600171417948
  0.7506199366166447  0.9159718313511959  0.5007691321236871
  0.9154794688713106  0.1680708688595872  0.5838214953479638
  0.9158799564023663  0.9148707302375613  0.4997136682309312
  0.8318955915014636  0.5832897999280791  0.4175379002618571
  0.7493542555977750  0.8329819804407538  0.5835357234269019
  0.9972936993872263  0.5010731155811547  0.3338328040586535
  0.8319870820713916  0.5000122955991075  0.5000125219127886
  0.5003313003607163  0.4165502969095734  0.7494512559454674
  0.2490810662302140  0.5835691774146072  0.5008749273572963
  0.2482226846832640  0.5035032077876335  0.9141948206081471
  0.2497710943983057  0.5009621456180576  0.5835970173645834
  0.1643996995738058  0.6666447187769068  0.9992054812056425
  0.2475450281587500  0.3382198530525087  0.2537306669778089
  0.1651718118818747  0.4176899891668759  0.5837061318891066
  0.3320541348431580  0.5017371371877578  0.9973527615727720
  0.2468776630476822  0.7492144075806269  0.9988636793449753
  0.4381550304363375  0.0928878857063787  0.3172548004107238
  0.0812241596384192  0.1686839227121945  0.5843225740900102
  0.2479664087790455  0.4229981512131589  0.9954943794400339
  0.2001708221234480  0.1119121360365680  0.1655446530159887
  0.1644728632098166  0.5850813918980414  0.9159062324341655
  0.2469128889833626  0.1681486839683067  0.4194352905531650
  0.3324095379853585  0.5843763611536719  0.9149367953749400
  0.2489651776726164  0.4176102024481311  0.5013064425403880
  0.0792216955151579  0.8305778014670859  0.0830442787104749
  0.1638290804519868  0.5021449139843659  0.8316337913682474
  0.3323433765785678  0.9129928896977848  0.4228953830547031
  0.4181279808274552  0.4197470508192551  0.1664660705364435
  0.5012890283885524  0.5021757678952897  0.9985128294932055
  0.4168559717770261  0.4190570127426484  0.3348050489974518
  0.2462923178541090  0.1678833530335628  0.5841819530458993
  0.1635724774982315  0.1675888626397808  0.6673886957260949
  0.4184509687070092  0.4209010410772328  0.9972501238974905
  0.4173881917032308  0.4183202541721542  0.5000379635799360
  0.3304931138340531  0.9972909746364222  0.5031945515504631
  0.4184146113919787  0.3349672245619583  0.5816751873705445
  0.3318850307948907  0.5835718923137416  0.0825370521409510
  0.3337744280577256  0.4176066020675203  0.5828721319514905
  0.3332066879685175  0.3390874214173681  0.3395031728520654
  0.2470075912282709  0.2584222632534430  0.9943297887089864
  0.4176645614227393  0.3334668394560092  0.4174266072752133
  0.4172061053663694  0.5842397964609189  0.4997676844787722
  0.5009921658233496  0.1661761203875952  0.5005648303279571
  0.1643672318591689  0.3352690989156748  0.5007980894866142
  0.9984663929487450  0.5008012701804563  0.4999453594337613
  0.7496149092096193  0.4177665973927114  0.1678100317503681
  0.4104955744020037  0.6668151822289530  0.0837208036630647
  0.4147654781623611  0.9981895104879777  0.7487304712795267
  0.3296350452161172  0.8313541808333733  0.8297797282643722
  0.4113733443289636  0.8321638200670970  0.0852318140110583
  0.4992998097752643  0.7507485634075288  0.9134053942872562
  0.5815892882174133  0.5016593441892145  0.7491950019072070
  0.0783376911457176  0.9129142032848829  0.9974566699112805
  0.5827072075022971  0.7501792334670464  0.9989343660075130
  0.0802681648540490  0.8331395109064675  0.7497509280372761
  0.5837570896302819  0.6673606944384604  0.9134323229240441
  0.4990880603172094  0.8324413358198551  0.9964025802978276
  0.9981838873822451  0.7485943302320426  0.5844070179782394
  0.5013678226589777  0.9897882866325638  0.1711537682385008
  0.5849707305872124  0.9115137346261378  0.9987875340816958
  0.4163039424214482  0.6669872079988362  0.7484151523820761
  0.8317429504171669  0.4191547626622776  0.9159255025983438
  0.9144599231898162  0.4998821819104836  0.5825120148702312
  0.7504964367524918  0.9996952843998896  0.2510735271461585
  0.0809897830546330  0.3337252389181427  0.5844405196566449
  0.9176508266516846  0.1680298805167933  0.2490908910313792
  0.9976258623995630  0.4173757786675503  0.5820843966108143
  0.9150593980329805  0.0842872486694996  0.5005804959190264
  0.0808292612432129  0.4191667390699210  0.3349890369996812
  0.1643758970607632  0.2521360670361525  0.4189835461004497
  0.0816533540905564  0.4183294926078501  0.5009221546113963
  0.8318749251641866  0.0844203077017406  0.5839062627067957
  0.8321602834100215  0.0000665256783461  0.6661716514970678
  0.8324613750874719  0.0841541873181703  0.7478103200099203
  0.8323000420830772  0.9159330612502065  0.7493465246978476
  0.9968403290331936  0.3367015616467122  0.3348059485747726
  0.9140408129539283  0.9154426217395895  0.8325633624483291
  0.8313579323036600  0.0830744524071379  0.9162018055835490
  0.0796760460706084  0.4197174743815631  0.1665758056972623
  0.9956567509628073  0.2542105854519630  0.0815112051057800
  0.1587647848341934  0.1669489445316717  0.9959254257532651
  0.9954592960918232  0.9999968374369630  0.8320341477338762
  0.8327791598958385  0.6666163572938641  0.8332545426360209
  0.6650134168540798  0.5838341080875374  0.5838914957313708
  0.9148689807169031  0.1685095460287435  0.4186250623538568
  0.9966164859115775  0.1667252346509468  0.8317367255235751
  0.9154153324690125  0.2511714184844692  0.3337276521975679
  0.0786206217461045  0.3391684411231353  0.0811187364822147
  0.5842052749548581  0.3348924776189603  0.4169942343458056
  0.6673225299630955  0.4178942336345116  0.4170416919785274
  0.7496064489645732  0.3329744474115594  0.4166286228521897
  0.9977278503813420  0.5822184585055474  0.5829287741514617
  0.7491949286599043  0.4165806805823794  0.4996545481892295
  0.9146914903090144  0.6654278794240316  0.5840546588417692
  0.9981628336238518  0.3347409416016868  0.5004753073317363
  0.6678284101357632  0.2514317273478266  0.7482326017170580
  0.1639013508310939  0.5835247694553753  0.7488360926494606
  0.6667173611038241  0.4186674385936307  0.0830717229957418
  0.6673918021463339  0.3350161965756939  0.1677792228142177
  0.0806955944003852  0.7487134852531022  0.9992323120594178
  0.5819858920190691  0.5851920222717156  0.8313792186812431
  0.6650278363361054  0.5015303063456230  0.6669490937176609
  0.2483052527761692  0.2521855578563190  0.5006848378911617
  0.3305382444490730  0.1673866018292951  0.6649319499864310
  0.4150867523515918  0.3344371964843361  0.7475021956538982
  0.1580564282140197  0.2592101114326670  0.0696993007378329
  0.4151491781294414  0.1680198012367226  0.7397630475018980