 B Cr Ni 
 1.0000000000000000
    21.1200000000000010    0.0000000000000000    0.0000000000000000
     0.0000000000000000   21.1200000000000010    0.0000000000000000
     0.0000000000000000    0.0000000000000000   21.1200000000000010
 B   Cr  Ni 
  17 259 605
Direct
  0.4134257533262071  0.1595347190792085  0.0061522308570210
  0.5844670042696615  0.7465229413475308  0.0831799820102986
  0.3075511920061321  0.0064385452334465  0.2788661523797888
  0.0817612454037524  0.9154419651001626  0.4169963882295412
  0.2465718630131565  0.0040039172005666  0.0073309279683901
  0.3191921014223212  0.0823795950736821  0.1479862732573441
  0.4870456312484848  0.0095640929198414  0.2409086284263446
  0.3399259425509214  0.0697519356924609  0.3277792481250388
  0.4281433646632676  0.9835006074720755  0.1886267106818484
  0.2657000272998591  0.0749788258566852  0.0808291536700705
  0.4300532277313106  0.1858361869527363  0.1860658849190063
  0.9114426773273350  0.9218847620978685  0.9190954235922791
  0.9988403622452101  0.1720889860072072  0.2484559167032558
  0.1653999837929417  0.1573574447963301  0.0927592653809427
  0.5035659446911799  0.9223187870216735  0.6636856671314966
  0.4893860198278349  0.2380646343404260  0.1547627544896568
  0.3299170724437142  0.0137023890723268  0.0885657651908068
  0.5853980888128592  0.0001287423549980  0.4172180905676389
  0.5842495202170074  0.0845945172009213  0.6653330422585353
  0.5847075869470256  0.0844377223756006  0.8324635018437312
  0.6667675322493205  0.0832525000045006  0.2504718604445091
  0.5000086847874622  0.9159255353497575  0.7568254891723672
  0.4943945913846280  0.2488276128222310  0.2529436672390427
  0.5849329605035060  0.1669952794719282  0.0795171203686470
  0.5002662723660298  0.3377607654025121  0.1672513648707086
  0.6686631806275092  0.1694974474724460  0.3352566414486799
  0.4185992963970468  0.8273917674186487  0.4171535235277656
  0.5040858513429405  0.9942308047950902  0.9992937216040694
  0.4143498054721340  0.0000404955708035  0.7504349298032968
  0.3332596917283441  0.8311031743276187  0.8343116095914201
  0.4180632964361071  0.9140057777731606  0.5019601042917411
  0.1638454639779130  0.5840966089529118  0.4166797419591129
  0.4145315010240984  0.0012837585124544  0.5832408947504593
  0.5001792283891424  0.2521797603854727  0.4190729590918444
  0.3353271240113635  0.9018875164639526  0.4323656555614498
  0.3325527245742507  0.9071784932651971  0.2571465756602714
  0.5860485246880413  0.0831746454040923  0.9968004581278145
  0.4991066926217996  0.1705040444229228  0.5018604687608076
  0.3314344317819120  0.4185118022955372  0.2510899055315038
  0.5868572553947478  0.4185206356767623  0.9995468457597595
  0.4138853823987629  0.6674008646257678  0.5841750082504982
  0.5847640571889077  0.8307064626083059  0.4167617352674325
  0.5013713340338211  0.8313919465720776  0.1670399510843341
  0.4142017782041604  0.7504722396539820  0.8344565973319654
  0.5828854858692890  0.5838661629999723  0.8302767703227550
  0.4153798185076032  0.7521838212633333  0.4996282566917241
  0.5011627697943790  0.5025036307777035  0.8298959328195401
  0.4141704955423258  0.5832857731937510  0.6680266507700373
  0.5830072510830430  0.5836816799262317  0.5016659088468831
  0.4989952636188347  0.3330185910303234  0.5009601572183882
  0.5829921742892070  0.4159535705352322  0.3332257382423899
  0.4984498377123870  0.5008297747414190  0.1671152063877309
  0.5022457126542713  0.1685025170126926  0.8323540941455458
  0.3309306272844819  0.7479162891121822  0.9149504677135938
  0.5808373347400184  0.4180988367046555  0.5010330688641166
  0.5811921803264736  0.5836337933715076  0.3348937317140989
  0.5004202439625554  0.5850525068899038  0.4163663159680913
  0.5006312993706670  0.4995487005370406  0.9996170447651659
  0.5843941912765956  0.3372975834890578  0.9132393138082608
  0.4999758166330774  0.4227970372908618  0.9131656735780894
  0.1631306066503204  0.8313090299649586  0.9997831537832018
  0.6680392579571743  0.4158497357341698  0.7480285668865461
  0.4985907627342301  0.4141380872513680  0.5810741980640998
  0.4147214199399507  0.7488511749466230  0.1666181490175364
  0.3253695176395894  0.1707206142439596  0.3370920715114282
  0.1655852458091855  0.5824588467350194  0.2514235729612209
  0.4981356919817022  0.5851741431114786  0.7480663801197651
  0.3349465660356873  0.0851130658060712  0.9122763620819342
  0.1653761692853406  0.8326850608012275  0.8335481681896872
  0.1646548414795629  0.8320474392789150  0.6672730799096191
  0.3292502961923038  0.8281288528508790  0.5041821466374692
  0.1645357587156231  0.8282874235202575  0.5014000010194518
  0.4149866689698989  0.2496907138861857  0.6685182453838889
  0.4152150565516343  0.2515303999370558  0.5018433842416908
  0.3315756013486617  0.1687755015741140  0.5026262269962016
  0.5026723806112481  0.1736376764520873  0.3419187394537742
  0.4205934666027674  0.0828937403689917  0.1727148797217208
  0.4164689426361898  0.2596849004550038  0.9963784021635229
  0.2500203980028335  0.6655272738784244  0.5845167870253987
  0.2474573352821177  0.7475022240416400  0.3352779504462834
  0.9186709526299357  0.0850183337477622  0.3343494322849179
  0.3312938732114102  0.2508344856677994  0.7509994685179879
  0.3295723109936107  0.8251950828879473  0.1679156753350078
  0.3324730380010147  0.6656442810937009  0.3344407200835282
  0.3318215970098822  0.7460890951013535  0.2515089358020617
  0.3338626548889496  0.5854676934617032  0.5845298317455409
  0.3317848942123967  0.4177937360114481  0.5818904228700612
  0.4982652972624005  0.6675759742713228  0.6667984213713428
  0.4139008812220575  0.3389576592948885  0.2551877917446602
  0.3328857292402916  0.2575357020332207  0.9081829470023879
  0.3329951043667549  0.3382541394755401  0.8306626046122625
  0.3328321391664104  0.4180072435093746  0.4196530584947767
  0.2504713259474236  0.5019966846436176  0.5824267479651939
  0.9999653263194510  0.5813525045538346  0.7500241588076382
  0.3349997879200393  0.5856230342820798  0.4155862120378293
  0.3313249001514519  0.6669613086669778  0.8339492839872510
  0.4141745141604841  0.4999334886642355  0.9147259710290391
  0.4154793840003934  0.5839007755971870  0.3333205889931589
  0.3319148840348938  0.4180188197560309  0.9156803230161616
  0.4172899843436064  0.3363375373473342  0.9140098351377005
  0.4154165315189742  0.5813139202996451  0.9999846409356661
  0.5841136917649449  0.8316627919481002  0.9145171024640953
  0.8300492456480605  0.9180445137342502  0.7487679281264885
  0.9152820801700000  0.3349078854719654  0.9159262557660446
  0.9150406647290796  0.5814519874839518  0.1652734594064406
  0.9152241024893115  0.9162331257467456  0.6704727042435744
  0.9148964474639116  0.8313116585564757  0.5856433978839759
  0.4144412727512671  0.4170836406669278  0.5003300231040839
  0.5006016545020964  0.4182229692612740  0.7495440885642227
  0.4160129150263290  0.5829875106549557  0.1663010026456066
  0.8338766815526093  0.0825623694784188  0.4167938384155472
  0.3305135686846179  0.4157149150579050  0.7491107338852218
  0.3318695844537409  0.4980474159133119  0.8327726917748877
  0.8334894207862665  0.9991888481363458  0.5015625742216888
  0.4986153131036497  0.5857975939640140  0.5849687848854935
  0.9153017710252322  0.3350117064402756  0.5843283499482125
  0.9145900331240066  0.3348198509156426  0.4181981380517209
  0.9135573173147635  0.3353604799090013  0.2497005744103575
  0.7492252296585076  0.2538818252517061  0.9989535518638221
  0.8318965784077619  0.8330273656877571  0.3332656431267897
  0.8327900516469183  0.1680846956793571  0.8329308492794132
  0.8329990877781720  0.3341670793749334  0.6657078775780716
  0.9156996830839392  0.0853553959419075  0.0000859290058275
  0.7492827019447481  0.5815895988379800  0.1657355591892658
  0.9150321511490821  0.8262851019079506  0.9146498096150516
  0.9163506255428873  0.8316802203125488  0.7487820868332755
  0.2474405385565079  0.6648545474009462  0.2499925513159784
  0.7504209294952003  0.1685243359523646  0.5828314664403179
  0.1654551702460781  0.3360069323227892  0.6673507445555638
  0.8335335558548423  0.2518681772645340  0.4181089939982435
  0.9983212735931786  0.4986513796259137  0.3332026582248341
  0.9159232740482206  0.4170853034925638  0.8337633739808651
  0.1630151316667103  0.4181549633363066  0.9166682458616464
  0.8313743024048258  0.1668523261420226  0.3357810156960117
  0.6660835258340687  0.6650864859919022  0.8320754056508523
  0.8316574106144056  0.2535410540841291  0.2496691674615882
  0.6650763296661465  0.5829110861881928  0.5810368832765823
  0.8321059067927354  0.1677137486878273  0.1640181932811380
  0.5017124544709125  0.9147193495434668  0.9159633513381129
  0.9140938034193827  0.9154215728850225  0.8236542471488774
  0.9155540115635342  0.7497821241133853  0.6692756570400630
  0.9980159340389843  0.0832148879016751  0.5859816936685823
  0.9151008532884893  0.2523750557216961  0.9986479409338826
  0.9176274617202105  0.0856097533994607  0.6661607698503423
  0.8343689315977251  0.3348503951493967  0.4994382997355197
  0.4156154021242523  0.7470662562754166  0.9969271542329664
  0.1639700990324859  0.0006185750331298  0.8337699695881176
  0.1642322202978671  0.1715550699791459  0.9945006798354502
  0.8323592187176337  0.5828603106949780  0.9169443847292938
  0.7507809269366521  0.4178011661978961  0.6654333422967890
  0.9175259793189163  0.5834744026387562  0.5013369149134411
  0.8335253292591078  0.9989787805696470  0.3319956412732261
  0.9179683780713492  0.9995418746037642  0.2481370376540364
  0.8329502983037058  0.7489039973097051  0.7482609645994998
  0.8334753717433572  0.7498843132040716  0.5842539381601989
  0.8330902007027864  0.6650678513063791  0.5003944374802534
  0.9118218971984207  0.7473832524371425  0.3318087098868741
  0.8319171392426642  0.7491914769893966  0.4195704605211428
  0.8317148327997681  0.6654343147387098  0.3325391464552761
  0.0797440653700709  0.8279675066086348  0.0821891301696241
  0.8318846347837531  0.7479585789873647  0.0810038118930375
  0.8328733702566697  0.6646463177253304  0.0010135215144698
  0.8340491264116000  0.0024600157141589  0.1669844787053868
  0.7521083257861554  0.3337517888073631  0.5834530069474567
  0.5888964465584516  0.0005681462892493  0.0755871418155752
  0.7506728556322871  0.1691026132405013  0.0834493832130838
  0.5850047464639203  0.9989671414522369  0.9176467779798185
  0.5840951239035442  0.0018083205617264  0.5859848378440337
  0.7507695776523347  0.9174015015618366  0.4995513122567452
  0.7503835360445956  0.1675582217205999  0.4167408851295988
  0.7506967954402572  0.0024085979654885  0.9141325791299519
  0.6668532069849786  0.1670439424293064  0.8322893259313661
  0.7504598991684872  0.2527762375942311  0.6663182347469102
  0.6677982305638775  0.3352195744181037  0.6663151507055535
  0.7511647720389278  0.0866562412795188  0.6654515455840309
  0.6681736697841568  0.1674193214921360  0.5014581358955270
  0.6669121314153749  0.2538006722781828  0.2484537246224382
  0.7528172436456556  0.0001430352813350  0.0828345306210846
  0.8329939016938502  0.0840331614309848  0.2513139061424942
  0.0814458869899746  0.5002165318408995  0.0829482218828642
  0.1647176778775893  0.1680132423991003  0.5018610633942435
  0.6692652690219203  0.9172628997853274  0.7504934185392856
  0.5005015384232854  0.8274789586024679  0.6670244027712674
  0.5869109992885224  0.8307713351908873  0.5839728901129817
  0.7489828261466067  0.9153468181665126  0.8294306726425815
  0.6672905905809405  0.3374995305051123  0.5033459835723543
  0.5004937262381235  0.9109500301725592  0.0800221357444543
  0.6660817191349445  0.3349827708905808  0.1675731555215745
  0.6682954088717623  0.3364154765291414  0.9991948988936941
  0.5027728902037578  0.9975024706947411  0.3406986099207560
  0.7493349465631232  0.8273881008209371  0.9159672723853319
  0.7488560555825647  0.9170087331511946  0.6672459258749567
  0.8338674178943847  0.9154640352999470  0.4162128704340123
  0.6673076944521553  0.9146735694809750  0.2487065744609040
  0.6683956239926540  0.8337528947894288  0.1690111492314834
  0.0825424153242551  0.0002294354899187  0.5856469047253441
  0.6673878292222775  0.6652838776440161  0.6647129082855332
  0.6662403016544026  0.6645900262611706  0.5009287709113291
  0.7524999867607032  0.7484949748548985  0.3346232732420921
  0.7504169589096222  0.8313556745010334  0.2474336860715448
  0.4153747716718096  0.6637236302193315  0.0821440261892937
  0.6671898444262476  0.5010543879293126  0.8306845168217903
  0.0822585457177043  0.1680421858394233  0.5855778502294630
  0.6646425796449242  0.5001423142440639  0.5003993246447865
  0.7491826037194884  0.5838794485148586  0.3330776652508597
  0.7494501652266777  0.5003061445624872  0.0833122370054441
  0.6671439591745648  0.5799550574681863  0.0843342278953742
  0.8339897044816319  0.5822255509582647  0.7500432359650734
  0.6656489249720221  0.4185965389520069  0.5828582707403472
  0.7512781942603181  0.0014476093426629  0.4147384464407507
  0.7502658327703785  0.4172029675181602  0.3340242290768405
  0.2474364861634459  0.3358613289914694  0.7494843374097888
  0.2471893721187672  0.5825917506505986  0.9990954558458022
  0.3317103504242682  0.0832464467799618  0.7501405105327319
  0.2481977268892570  0.3377977600113748  0.2521825119730706
  0.1597074200197775  0.9098493782550976  0.2499964271579445
  0.9984572880962114  0.6634442606261032  0.9980425620797742
  0.9974205401897867  0.8283009315119448  0.1660990932112777
  0.1645248759858710  0.1684345538939763  0.6667451623139478
  0.9154668026269976  0.4165190459475166  0.6666189681969232
  0.1645327992765782  0.3368350354508288  0.1666914340077277
  0.0826179205679485  0.1682735444309849  0.7509904322998805
  0.9984288637508261  0.2520599115599198  0.7507606939048593
  0.0816477928809434  0.5011150621262833  0.4169149377367767
  0.0827701184310097  0.7477317414228907  0.6678308601862221
  0.1567895639596689  0.9973447859038407  0.3346296083781793
  0.1638630949865329  0.7486133012429101  0.0803655054980836
  0.4958197168673506  0.9134958240685680  0.2469257650706748
  0.2454053673018234  0.1742030704708168  0.2538884664686475
  0.5003367942678126  0.6640127926245110  0.8335265875256247
  0.8311380856086831  0.6622804906566718  0.1655908156746213
  0.4996624637402210  0.5803127029522812  0.9151688868992532
  0.9158900520907787  0.5014627558767353  0.4158783688008195
  0.4089086069309793  0.9170426677754639  0.6665144954392384
  0.0800447331039384  0.0011196045194994  0.9131700393792024
  0.5836494856511014  0.2513958877118138  0.6674877522146991
  0.1655482756506861  0.0846517211882854  0.4184754885476283
  0.8317793103477529  0.7481723537150480  0.9162914178222548
  0.0803103178767495  0.5824401204755398  0.1665670276749224
  0.0759186438510317  0.9975727459014234  0.0816821684716977
  0.0000798868880937  0.6639611177956385  0.8308946817578798
  0.1648424708037705  0.6641253838799340  0.8329318479422871
  0.9988333487582842  0.2555123936775696  0.4190584720058613
  0.0803408683318843  0.9974203498624127  0.2501128048296182
  0.7491521034711819  0.7474048766739795  0.8328188444114880
  0.1596387568367072  0.9047709210607540  0.0829654381315211
  0.0820101540970805  0.4998883918072063  0.7503149210488410
  0.1649003781127077  0.4179066601221100  0.7489678136832804
  0.9984222643150178  0.6648855949208348  0.5034284269410833
  0.0789312885783010  0.0853369165349745  0.3375981159252230
  0.0002277157032493  0.9991449711380189  0.1638825762983726
  0.1658214326002486  0.4175446288807977  0.2499900794910985
  0.9981099112470628  0.0834494692945965  0.4181764801248082
  0.2456877640649895  0.0835033160981033  0.5020392293426491
  0.9950068621088898  0.7450326919349051  0.2494394384170975
  0.0826404667463493  0.0847167867396075  0.8326914476084466
  0.2497249731245810  0.4190959771918010  0.5019582293312145
  0.9913728021349875  0.8255352059238255  0.3310676953703892
  0.9147642680070424  0.8304018326763836  0.4191622233629654
  0.0020938440199508  0.6646727306515335  0.6695344159435854
  0.0008104449577265  0.0862443765759481  0.7505434445000314
  0.1657912728900822  0.9998746137115577  0.6675701007717001
  0.0821316152230032  0.7482902431646808  0.5020138374618869
  0.0829366106879971  0.6642873835446568  0.7513776780179294
  0.1661567150507934  0.6643469168528272  0.3325746692313424
  0.9996108960563218  0.0001460684500110  0.3326284600655117
  0.9961175878685590  0.4188507568389353  0.0825505440979104
  0.0051191895514977  0.9149097281858986  0.9143929086111727
  0.2475876529796683  0.2533620435323947  0.8301765628812547
  0.0830765595143262  0.4999659838983113  0.5834083579727056
  0.3315733620743306  0.4197603011368178  0.0828879675112512
  0.9183972928956899  0.1655679320895813  0.5848537737008377
  0.1646213367637054  0.2523562078069508  0.4199573477741102
  0.9977296983423298  0.6673854229698387  0.3322343118789937
  0.1639241339925744  0.2554432073688961  0.0830604114925627
  0.1631574424999883  0.3363559610377453  0.9993194874686774
  0.6666691375434218  0.7473635079216804  0.9151635563697708
  0.7490063195331412  0.5013374458760775  0.4161599019170937
  0.6650555998754656  0.5827136667149660  0.4169579131903983
  0.6653405145620193  0.5000289937276606  0.3339729362615865
  0.8320317835226178  0.5002243028212927  0.1666603613829592
  0.7484060528388832  0.5002195842724716  0.2512862424613871
  0.6662279887988415  0.5826818307938489  0.2510629897922245
  0.7490612941207319  0.5821987563124917  0.9995597819058984
  0.9161862276508376  0.6649700487676923  0.7504725854027425
  0.6662575576089813  0.4997462664780283  0.1683260454450378
  0.6675146955697082  0.7478427095207565  0.5832876939161040
  0.7496614396354125  0.7488604975292296  0.5008873921738443
  0.6669402330481388  0.7477278441603402  0.7496151322033927
  0.6675042008032058  0.7490314783752950  0.4166431010922310
  0.1644616936024888  0.5010002301777711  0.1667456081816208
  0.9990158455188382  0.5831639301115159  0.4167310263029408
  0.5828208718614328  0.4173957445665490  0.1674700606893882
  0.4989104001639421  0.5829894007839093  0.2506543978568407
  0.0812040895305135  0.5827304926085241  0.3329749223808933
  0.5834022058054772  0.4997983779368204  0.0842088850791359
  0.5833944240150492  0.5804362851905063  0.9981623680922210
  0.8326718503759402  0.2517839400222368  0.9164320189737863
  0.6675628717490609  0.4178300044235188  0.9140121552574909
  0.7487878753005448  0.6645254956736403  0.4176460872294762
  0.9982983824903745  0.4997572135811069  0.1666067502392454
  0.7499958131238009  0.5010101407863845  0.5831945427745949
  0.6669085485221034  0.3351281544135102  0.8310346610875051
  0.9150304145466294  0.5002161700085850  0.0825068823381156
  0.6667365010775134  0.6637497103984079  0.1665629803507772
  0.7495040487747240  0.6645850046751085  0.9164472747663707
  0.7497989208214505  0.7472219699098328  0.9991656100221082
  0.7495870649948237  0.6633950398629614  0.0826998125867300
  0.6729180793027907  0.7484205457933499  0.0834156710238661
  0.0817545652073622  0.5826669964985983  0.9993246891679468
  0.6663201524924838  0.6640580115016856  0.0002302593620457
  0.1658913882088746  0.9159473421633725  0.7504427508992675
  0.5024435401879650  0.3409813029282633  0.9949264492065915
  0.6681054984201336  0.8316622964408337  0.9978650637852700
  0.7493852399998401  0.5011603636192026  0.9151063542176698
  0.6661164409597251  0.5827639669875885  0.9148683810063472
  0.9979305360000654  0.5830012909125200  0.2502773621663601
  0.7495509571636574  0.5830762446254322  0.6657835441097133
  0.6669199651497749  0.6654100884196154  0.3337787517915402
  0.6692623918478851  0.9167561797967178  0.0823279184206430
  0.0783155173408376  0.9098312358747039  0.1667965105051463
  0.5825177647733384  0.5810619769223559  0.1677939925076199
  0.6666916713027731  0.5839324967185969  0.7484682938409966
  0.4994683286849954  0.7483652686648744  0.7507872153954482
  0.5839430383260418  0.2512064192642300  0.8317356172705453
  0.5019332257243188  0.2538770412512368  0.9155743795012896
  0.5842747290425980  0.4187939819155887  0.8305814961341424
  0.4989675666572281  0.5814005662961694  0.0831363199334664
  0.5822698755990993  0.5001164209845412  0.2519726973430801
  0.4991265366074348  0.5003863501233949  0.3340546632681982
  0.5847729806016517  0.7487488034122646  0.5009167941581633
  0.9985371563830163  0.9155417617324419  0.5866904983558500
  0.5842859349873315  0.3350516010193605  0.4174568566024127
  0.0002554573467635  0.9161401566168750  0.7492939593232840
  0.5001103849436870  0.3355474049750332  0.8310401183519860
  0.5843748766411081  0.1678564260885823  0.7493325619158270
  0.5855337040192341  0.1686654699904602  0.9145438421652654
  0.3318227017234107  0.9136621363217660  0.0833426134057386
  0.9983970121662719  0.8313204613738594  0.5025966751806213
  0.4161471665032659  0.6654140369371857  0.2492035941196117
  0.3317107985229227  0.7464707144888035  0.0817623979231181
  0.2491631705463357  0.9999503851027037  0.9143848938195498
  0.3313867589718621  0.7483731427123093  0.4172901114851847
  0.2486578083785362  0.0000816616839185  0.7508467660468108
  0.4172078432949086  0.6679279150576611  0.4178921573406643
  0.3326041064156990  0.6666553910002629  0.4999582966350199
  0.3311717665273164  0.7482804991520027  0.5862437364367449
  0.3311419415852578  0.6665567141082656  0.6682991115556193
  0.5017188840493588  0.8306162246245890  0.4999918464480402
  0.4151288205990188  0.7492253507946496  0.6675798533705394
  0.0826933799616266  0.3349903495971558  0.5844760909423583
  0.5868222396342613  0.0852235932443475  0.3378141139160611
  0.7493385570532504  0.1684764036625298  0.2499796001407681
  0.6681501291055341  0.2518323099242262  0.9143333921529966
  0.5837542289588539  0.8314695391056297  0.7503007272880354
  0.0828870198162368  0.5813480433770520  0.8341510004743551
  0.0808880322139045  0.6654362573474081  0.4166159331724038
  0.7489358794445634  0.4176086249245551  0.9990250265421161
  0.5852870520240120  0.9163034087660893  0.8333230302108479
  0.7490606746712107  0.3347675938899388  0.0833326273458158
  0.0811796370320572  0.7457310009898707  0.1661655306177105
  0.5837921159895556  0.0012400558673998  0.7490068826011085
  0.6693536509924448  0.9980423692899411  0.1656270268320130
  0.5003016544811391  0.8315054696054716  0.8336954206933370
  0.0817240500991119  0.6646946635703724  0.2499485140008428
  0.9970174847508901  0.7461374700765276  0.4181464268395609
  0.6671897836171347  0.1682931815316154  0.1661133127495196
  0.7515056282479811  0.0840031904719557  0.9996771318112634
  0.6699213465205437  0.0841482556995713  0.0802141087795712
  0.9160857971881061  0.5009266229580586  0.5844322456453337
  0.5824111452592728  0.6676387704769930  0.5847141290844466
  0.5001987665893293  0.4183424664327011  0.0829343291500393
  0.9992135782595786  0.8318725003000472  0.6675415508220509
  0.4047398092645200  0.2707147528397091  0.1676793710323150
  0.4988475340586479  0.4175887622234394  0.2507254184896981
  0.5809011830789980  0.3334711298196593  0.2504547787585469
  0.0813982318152174  0.9141668143807082  0.5067376151374245
  0.4985177425474196  0.3341187795854016  0.3343939157888082
  0.4994663988930183  0.4167253724075128  0.4178013601326531
  0.5865465009413812  0.3379341733909217  0.0822593915436637
  0.5004826479818042  0.2500177159987956  0.7484937004779831
  0.3311009472136602  0.7501426076615204  0.7515170106004533
  0.5817916238791918  0.5001073006542108  0.4166161960262255
  0.4143901666102678  0.6678912116407266  0.7509344976459879
  0.4995879588463620  0.7498550096777243  0.5831261455102561
  0.8339107870989887  0.3347019490778235  0.8328622721796357
  0.7502329888803810  0.9998674273441875  0.2497035200348205
  0.5879184301875516  0.1696101355567199  0.2535968187775094
  0.9984507655764853  0.2609130871569476  0.2509176920943841
  0.0814333457945268  0.4178921047559997  0.8330092219828249
  0.6682984926458689  0.8328568613693427  0.3329756610414867
  0.7503230296269986  0.2504694355965836  0.8322817072556056
  0.7496639011754155  0.2527358432059331  0.3334990998077055
  0.2488574561391677  0.4184744817568073  0.6651797905860350
  0.6664313689453210  0.2511377342450472  0.5829058897975138
  0.0819882273250899  0.1693118806615916  0.4194855246959366
  0.7504627114617854  0.2509588943056214  0.5007465738452678
  0.7494684610433699  0.4182906584003869  0.8312885781187734
  0.9986669595932682  0.4995591996154551  0.8330773932792752
  0.7487898686269737  0.0836812361549862  0.3319073421070365
  0.0842560714920283  0.5816685824196773  0.6670992781045263
  0.0817889544044459  0.4996426439555030  0.9170955179371110
  0.7494665795002438  0.3348997820188511  0.9147040983440308
  0.9989810380335695  0.5833283147661206  0.9156455232399754
  0.7502566356496104  0.7473094026792573  0.1660393300949870
  0.7500118872481540  0.1681352707719276  0.7488610592242843
  0.6673284241221566  0.1683836971183594  0.6660552878938104
  0.9158902030197813  0.8286437887908208  0.0838350998644727
  0.8323903780498380  0.5005115942854877  0.8325496318182417
  0.9983413474579431  0.1692496478606964  0.1601135606009522
  0.9156067432281044  0.5827499624330963  0.8332735893493739
  0.9156510064088330  0.4999963168574076  0.7504826864869973
  0.9152778934569414  0.6643749661228866  0.0825922402468387
  0.0826950264201548  0.2546698373566558  0.3370830595539535
  0.9134481859515022  0.7465139676595582  0.1654936244840967
  0.9149973829988428  0.5002258946246753  0.9154483499588764
  0.9136136614800139  0.6630672911586906  0.2483318043116447
  0.6676952467027797  0.2524135910604284  0.4186230370266528
  0.0862378249421167  0.1722007682797532  0.2559055237547198
  0.9986833351156384  0.1707238640373101  0.3393296333222650
  0.9153143166842387  0.6650324699648460  0.4177777828419610
  0.0805892306679034  0.2561216978270968  0.1667409396798430
  0.9164673034704107  0.5833539080965179  0.6675651222944616
  0.8320766809341884  0.7468278936159064  0.2487519493741606
  0.9098959008225862  0.1693007788582316  0.2495248048215577
  0.2486345818381944  0.0842041829840038  0.8331622444950112
  0.8336958588488854  0.1668450676570236  0.4999940318490850
  0.5847037655712184  0.7503006816619215  0.3329666289306671
  0.0002845831870717  0.7488698059038466  0.7507125272714831
  0.5018923056681306  0.8321395271626022  0.3335012571080569
  0.4145436567709013  0.1701426898697830  0.4207223770618104
  0.1640703318276507  0.1677092960809778  0.8322954511121233
  0.2477850253613930  0.1719735884262575  0.9101110816993582
  0.4153338122675492  0.1676831125528286  0.5842457132521093
  0.3319131330738295  0.2500971618392456  0.5855867679877895
  0.3316788696912575  0.1671796383713115  0.6683051783994135
  0.4161521970598374  0.3348755513232250  0.7482356843130722
  0.1637050146338150  0.2533900813001388  0.9152546816010744
  0.4162652090825622  0.1668695197515583  0.7504250019686053
  0.3339760384214686  0.1682933168098971  0.8317434450595489
  0.5081516556152347  0.2612074016103995  0.0705198266729895
  0.5834800466237329  0.2506524104492070  0.1662256008692285
  0.5000463894742365  0.0853673357671563  0.5827297338258012
  0.5887321063584886  0.2546050476749459  0.9953629954258322
  0.0819704942696489  0.8305858654731578  0.9151876822072130
  0.4135606840112768  0.2522184581569877  0.3369038216191320
  0.0838410808663438  0.9162987248736938  0.6677804821379441
  0.5862783072242963  0.1695598563329173  0.4193930044212126
  0.5844175275177117  0.2527770056289422  0.3343014960335815
  0.9984538731807135  0.8316853362062603  0.8322551456682298
  0.4994149459275276  0.2502933749337666  0.5844397941848448
  0.0827822429903638  0.9159554949857905  0.8314634305394324
  0.1570641561344352  0.9918709051126220  0.9964230575938557
  0.5047748682134809  0.0842538763139929  0.9125937074752357
  0.2282314291415842  0.0861658564417136  0.1680884827569654
  0.4997615120016886  0.0848131081339473  0.0769259761934143
  0.3307525128294671  0.2513922419284346  0.4195868240721483
  0.1640350098340865  0.4173956950012735  0.0828374933249317
  0.5147025821236184  0.1526438929570606  0.1695770237604186
  0.4107537404938866  0.1604988319931035  0.2684889128289576
  0.3312225787846994  0.0842538374404046  0.5828639018584711
  0.3311331822896863  0.9155229760370891  0.5824872844954044
  0.4161052770182155  0.0852987571028424  0.5005034017368249
  0.1652999430843500  0.5008063506264182  0.3348402619442286
  0.5820000664283667  0.5837584315791021  0.6657762702230614
  0.5843658931634192  0.7492609980217285  0.6666584853799865
  0.1639138719702298  0.3360178123625991  0.8324856748356662
  0.0825912903226533  0.8312461982465446  0.5856242963369491
  0.4155089222439250  0.9143747654041282  0.8318065759481689
  0.4157897332260981  0.4188218928932263  0.9984468198396160
  0.4183280048487363  0.9945511536413735  0.9105728450543666
  0.3272026079069927  0.1796142196941096  0.9894140221940015
  0.0758895742793544  0.9092482124861340  0.3278494999382360
  0.1530140173455540  0.9942008348265204  0.1634199886724700
  0.3316301929262451  0.6646481094124906  0.9990963956767509
  0.0813953009127551  0.2535301297978160  0.9988893359135123
  0.5828908088945568  0.3326517934193700  0.5845989636039157
  0.4984835790064794  0.5008910070408876  0.5005744996590582
  0.4990902106993675  0.3339698006732720  0.6667073406304529
  0.1633732988178405  0.7477957348964849  0.4199751849179980
  0.1646846744046365  0.6651177575116822  0.5003792386169204
  0.2477768929351511  0.8317689724059891  0.9153826233684930
  0.5802997329431662  0.5003201542750885  0.5853767697864038
  0.4980926757481718  0.5001539159062182  0.6662363706702675
  0.5838245811857402  0.6667497929783796  0.7481027747582696
  0.9983071548723071  0.9134738826486450  0.0835657017616391
  0.5848316300700312  0.4999408821281634  0.9143135972396563