 B Cr Ni 
 1.0000000000000000
    21.1200000000000010    0.0000000000000000    0.0000000000000000
     0.0000000000000000   21.1200000000000010    0.0000000000000000
     0.0000000000000000    0.0000000000000000   21.1200000000000010
 B   Cr  Ni 
  17 259 605
Direct
  0.1517740235046665  0.3162170005906444  0.0945444924865029
  0.4957640426958758  0.0891519164480314  0.1593725649120296
  0.0947856853010350  0.2531982154816539  0.0847385818224654
  0.3344612878339744  0.1758684346537970  0.2221556158792027
  0.2776464150644591  0.2582571910966501  0.0537853989751256
  0.2408474299108557  0.2871085612416754  0.1992699183839151
  0.2542438115910818  0.0777581161415170  0.0897880285169328
  0.1040770794256586  0.1723087129763766  0.1660763664674311
  0.3434892574727407  0.0205700704167561  0.2357080825073516
  0.4082501828701604  0.1578484680691471  0.3297652396000710
  0.2370381501631307  0.0292511759985309  0.1542340392635599
  0.4161949231693274  0.1638869983314772  0.0125350314716011
  0.2370642449237098  0.3187718966300168  0.0066090238488391
  0.1599126533809847  0.1733787662178010  0.2304761408130576
  0.5814342506665984  0.5814431463870290  0.5843232636026464
  0.3696123597722153  0.1602463236888769  0.1479598797298593
  0.3380985911430716  0.3008209826261570  0.0974951704583919
  0.3329896645526076  0.0737175417425980  0.9093670397530318
  0.5027737895532455  0.9896278688623480  0.9884251061364838
  0.4165324937834576  0.8334656766960288  0.4164188451240509
  0.5837720574589816  0.2517119475751212  0.3356877854758680
  0.5012093422681796  0.3337297818447206  0.1694678320526049
  0.2476543816513670  0.9930908003120990  0.9114495771649718
  0.5118469733743041  0.1625096697089209  0.9956674511146745
  0.6676474343388918  0.9982511639296999  0.8311572652510280
  0.9143343200203746  0.1656588432100264  0.9165430870259399
  0.5012474592486597  0.0818245579472667  0.7474881144540607
  0.6663878599365392  0.9992143713133524  0.5006519921068103
  0.3313911050854854  0.9144345584897391  0.9129075015896565
  0.4175608236673737  0.2579752397331175  0.3383604894433715
  0.3313994210135550  0.8339934997556337  0.4991518705160845
  0.4167637262461752  0.4155122471955845  0.9996752172511533
  0.4155802920346274  0.9156957008656152  0.6646841159758372
  0.5015380338998612  0.2521989254644819  0.4173096470213736
  0.4174672081415809  0.9966500294891654  0.4199916286864076
  0.3311263418075540  0.9190230002662605  0.2480079415577376
  0.4993562918665574  0.8325835563075845  0.9985787089618254
  0.4165993446806970  0.3362076399583963  0.4215056670028769
  0.4974098450224200  0.6676330216876269  0.1669236881336350
  0.5004015131656077  0.5009552519199373  0.0002923808017541
  0.2477017673516685  0.6663150881120610  0.4163750837121080
  0.5829347384535596  0.7495324650306825  0.3332999411837955
  0.3305024371464861  0.7501458922315842  0.2489709378366836
  0.5804408502291855  0.8326375032386962  0.7470505240941229
  0.6667467714468095  0.5850244868556024  0.7503109934777605
  0.4151925668061336  0.5016607212739348  0.7491571261399645
  0.4979750299344979  0.4996876533735083  0.8333757212569534
  0.2431748476109450  0.0851686242222045  0.3415248148919481
  0.5822883411992728  0.4157645269694655  0.6696629001900900
  0.3341280297352283  0.5028303088763240  0.3344217771197130
  0.4154817632700051  0.4999721271850422  0.0820479590836396
  0.6686521551212812  0.3363042531120934  0.1661272895242303
  0.4171021230728580  0.4179920110704673  0.8329422803750998
  0.1632743102726987  0.8311415292155462  0.9979070415364824
  0.6670691631042114  0.3317500379077889  0.8346277975343609
  0.4162131716818143  0.4171065724888011  0.4999298192400736
  0.4999125861679288  0.3320079088873565  0.6658847914557787
  0.5001744799668111  0.4191838425374254  0.4191793497592611
  0.4998076208127727  0.5013222134585428  0.1657593480649905
  0.4213935995532588  0.1638236531491171  0.9115004782680182
  0.5004869333551951  0.9126192012852902  0.9133268192178791
  0.7490412525519032  0.4198259713433335  0.3330969826484396
  0.5808178037050653  0.5860379030097385  0.3331887598176851
  0.5808828477851085  0.5832623015588527  0.1651188422430440
  0.1656698941726704  0.7492545431342442  0.5829836677885416
  0.1644304634873833  0.6652792445322547  0.6655981907169850
  0.2494706114425529  0.6650565536357959  0.7507675175391904
  0.4165525280528385  0.2491940779438897  0.6675436892679765
  0.4994641728857361  0.0823744769538569  0.5838080332079447
  0.3296754944115468  0.2500147464407843  0.5843196536985976
  0.3305963906771295  0.1682344140441338  0.5008211949116806
  0.5912814325229258  0.9927353604674917  0.0815869410876580
  0.9939268871151992  0.4219881120091811  0.2540759161030562
  0.5009153896871691  0.4180320757121312  0.7506499815681983
  0.0798253440023309  0.2507611107939755  0.8312910373782385
  0.1636939906143337  0.8316588992164142  0.8305523802624075
  0.2481885519379045  0.8312465258518800  0.7469951608356474
  0.2476896908308588  0.9178849826692645  0.4999726838341627
  0.3352302314276537  0.3289351638727906  0.9985038846803678
  0.1681302139801558  0.7494432688105259  0.4137619819015482
  0.9122241389480414  0.1675842252734029  0.4192950623368932
  0.4982912907935680  0.8328972157085728  0.8309509692078387
  0.9154213099682057  0.6655971234805459  0.7468864140235792
  0.3323202724899821  0.5839599441329699  0.5845954342211964
  0.2460363790758548  0.3372033355670314  0.4212118793526547
  0.9984093429107490  0.9138453377706161  0.5818296928463900
  0.3295496145829680  0.1545290696611054  0.9706808837410452
  0.3306851579135985  0.6650791507308336  0.8338348184998552
  0.4117218532977975  0.2545895678127327  0.1651141491781281
  0.4147125476387801  0.3344891528010055  0.7490041950703722
  0.9130423136539406  0.5864850664699962  0.1663927801345608
  0.4983015387274767  0.7496648592629200  0.4175974149577694
  0.3314894080147140  0.6679691509421755  0.4983684586512056
  0.3302563755846471  0.7496347488288023  0.0832874368511013
  0.9136678633300062  0.9145951273219041  0.4996248040925316
  0.4964577224773701  0.6684435507221111  0.6670589832605466
  0.2465080113662285  0.5826440379469392  0.8358416948765987
  0.8304661782746003  0.3341582914381149  0.8346868528966407
  0.8324593395667164  0.1673194086042144  0.5003386288964393
  0.9157579602904282  0.0817128223618634  0.6664559716896011
  0.0819411216136422  0.5843827393241392  0.5005245815222049
  0.7474982482591831  0.5860195704510605  0.5003651891472867
  0.1612910680974541  0.4206161774157450  0.9137648169530627
  0.9976351827988164  0.0812564715768133  0.7470733766227264
  0.2467136071316106  0.4175786812443071  0.6684850989483937
  0.8295416823612898  0.5027356631207869  0.3330368388898179
  0.7465540194950460  0.6681865689947476  0.9152834340763831
  0.3312328839308313  0.9134357823097508  0.7451480284984008
  0.8307955490796385  0.2506165931564970  0.0840052758687634
  0.8325145185093632  0.9987411644815836  0.4992306046503075
  0.1620145756903782  0.1681234064417016  0.5023850003453111
  0.9131946424694952  0.0800026911970876  0.8310678375519951
  0.4984405981954582  0.6674372028708776  0.9994275983941027
  0.0788823418354607  0.2514464582425373  0.6669567980370187
  0.4149366420372368  0.4153106927418547  0.6676322599979824
  0.9137917787545923  0.2509987819935861  0.6669678853681011
  0.9119441048130221  0.3369909781200691  0.4197558607766794
  0.8304575538774639  0.2506205362263945  0.2515617158098604
  0.6660205460274436  0.1670545555821517  0.0004362596826852
  0.9973288675907473  0.1689412663604664  0.5018514007640659
  0.9159003412976209  0.8311868253459499  0.2488138978728537
  0.6676791951491395  0.1652981386941046  0.8306536161542356
  0.9138908979299782  0.3335476366184468  0.9157160171080810
  0.6665429828164182  0.0816459791457570  0.2531591130363133
  0.9961503511796421  0.1674052868038940  0.1647624020324266
  0.7479864802098718  0.2505913865216854  0.1675345377831519
  0.8324031658160783  0.9979592335523362  0.8314254900410484
  0.9152408045755052  0.9996902749079786  0.4185524613509161
  0.0811924857899508  0.9143204296911688  0.4994320011472383
  0.9154934229034762  0.0815628682089763  0.3339772727202208
  0.0782291731828532  0.0787523245633093  0.8286867308145084
  0.9134247736498917  0.0818594773264675  0.9990230717489506
  0.9963027226589378  0.9984697696545863  0.1667362303498348
  0.5811805207513852  0.5012642682644560  0.0833822428730069
  0.9959014388005457  0.5837969287012363  0.7501942375853164
  0.9133641857827423  0.9146797212725212  0.9985286426805371
  0.9983401695887411  0.7495015346565026  0.5810399390969371
  0.9161292587413982  0.8323212251636130  0.7485195300999269
  0.2487349549811290  0.9958470092942791  0.7448149474655061
  0.1663620806412807  0.7499059406165650  0.2488343512136357
  0.9935761149505105  0.1639304508958193  0.9954877562745059
  0.8315209127226638  0.2515450911156388  0.5840666038327913
  0.2470623589210465  0.3329109392834934  0.7500932260491243
  0.2473109111602480  0.0003145233718383  0.5813792985477835
  0.9134838921731337  0.4170042049907423  0.6683184821580127
  0.3327276141804033  0.4163445131032733  0.9180794110455334
  0.0812450809629986  0.7485130288744648  0.8319913798471539
  0.9956086303860301  0.4173304149074749  0.7482287125887626
  0.5035086887919907  0.0819025011553024  0.4197042587193951
  0.9977055192023243  0.7496938010292501  0.4151091905678884
  0.7476440568474492  0.8316165195208565  0.4173987964235688
  0.6653969913305556  0.6668160493195725  0.3320879974482873
  0.9959034081380034  0.8317813357104801  0.9982796667238829
  0.1632769135814895  0.7488050277877670  0.0831245821394549
  0.7486345696637050  0.5018679146411629  0.9164611793287728
  0.9120757149602983  0.5018483785129622  0.9153384503850327
  0.8307327250092070  0.4181415531669947  0.5835067108569786
  0.9135499037548802  0.5854850218757689  0.5006313466334512
  0.8341419722214446  0.9991327646085693  0.3328070601765046
  0.9141594399245363  0.9994577614092354  0.2499125262131185
  0.9151899287965073  0.5855379288089891  0.6685297282599861
  0.8307461612083997  0.7501647493388353  0.5837910495018305
  0.8318761731448890  0.9147241176012056  0.0827460366753959
  0.6663235509403568  0.1670047857943194  0.5002901320609832
  0.7491594925111080  0.0821525257661301  0.1654961925053470
  0.6658904446569004  0.9143720743660025  0.9134454938767721
  0.6667846266159698  0.2512157550960451  0.9161216216686817
  0.7506979707328715  0.2506624744867454  0.6655920346700283
  0.5850780434394672  0.3325737867593582  0.7495010707627504
  0.7482549871675734  0.0820281481518626  0.6651996641045583
  0.8320138700961393  0.3328649039077542  0.6664688697571701
  0.6679659406964316  0.9129031869927542  0.0825675527083136
  0.6655000074174852  0.2507706436628510  0.0811994489068830
  0.5882695557318530  0.9959291129261685  0.9122638540089092
  0.5851756361235880  0.0812572978193991  0.3348811655555913
  0.7481242756171723  0.9147065394821597  0.6660425920387296
  0.7497708073012551  0.2522137895388002  0.3333876486317313
  0.8319250305732143  0.0817350142703662  0.0826060665306139
  0.6684780122916284  0.2509567314150305  0.2504309295110697
  0.0790779555232438  0.5011414926045491  0.0854218896611122
  0.1575290149705495  0.2486593449828543  0.9120451749112350
  0.6647677191928135  0.8334398709822146  0.5005608482244321
  0.8303966514925200  0.9158070977053241  0.5828780160783796
  0.7486205354709415  0.8312838972172057  0.9149440862665706
  0.5832073074011865  0.1650167455720917  0.0824292476306814
  0.7485157687361798  0.3337352643766804  0.9164087779797541
  0.6658343447233603  0.4195092842218598  0.2504178625812432
  0.5818527799727344  0.8324016309948772  0.5814415456207171
  0.6659357835591984  0.3349380272820535  0.4994763601848924
  0.7485391034148563  0.8318545668680681  0.7492833247892362
  0.4152668447007359  0.7486835108316733  0.6656805208189879
  0.4991187138749035  0.9152223526101363  0.7471068916428872
  0.6663962171570401  0.9144606750062247  0.2509044354376890
  0.6650804640112172  0.6665877340878011  0.1662387996680831
  0.7485554157649403  0.8327379963785161  0.0825137636021230
  0.9976447283346936  0.6683623784142572  0.3349124636194285
  0.6672854217162711  0.6665530354040551  0.6698013450529112
  0.6677851360375036  0.6654438640787531  0.5000347960710502
  0.8296487516331473  0.7502425925723736  0.4151937040128508
  0.7475972923373296  0.8325624282377463  0.2500320117439342
  0.3305270293662013  0.7465535528826681  0.9144517750387395
  0.8313504289922198  0.5021625070691771  0.8345045626710961
  0.9960760601584975  0.5878289806516840  0.2528257395498183
  0.6663850540921121  0.4999202218814325  0.5006997859926586
  0.7466976737264530  0.5852014503649726  0.3335310548696085
  0.8313308249702095  0.4197364158176033  0.0818142369070649
  0.5804915439578731  0.7502356881413258  0.9989916956921432
  0.7478506064293974  0.6666651672090356  0.7484524451876117
  0.6655682749204137  0.4178270687029820  0.7513260523651215
  0.4993086297699384  0.2509210378070758  0.5849288676680574
  0.8272693429491433  0.4219850335318117  0.2533368733325053
  0.1639853393784609  0.9189144075232127  0.2487544877500563
  0.4166093555513615  0.5013927624623231  0.2499668026349470
  0.9915752810978261  0.4267806537253847  0.0841207972153671
  0.2440569847243747  0.2615970639407867  0.3430215333218700
  0.2438309923535809  0.9182605548874725  0.1657925784681034
  0.0805823001922070  0.6659687612720165  0.0836218922447861
  0.9953485613227515  0.8303887755628886  0.1665634008636858
  0.7483781314544061  0.7503564913674957  0.8314659731428623
  0.2467753956585041  0.2479393809599082  0.8366517008132571
  0.9917264778292357  0.2546589100177427  0.2564664354738866
  0.7469452839777831  0.5863023889585199  0.1646662583218087
  0.9134369583240233  0.4183934829074631  0.4993569077480191
  0.1591849709553458  0.0742663699945852  0.9074933711430638
  0.0768240122575055  0.0839934081264957  0.3364587948509700
  0.2485181725054272  0.5827371488255352  0.1660113673952039
  0.9149495705093870  0.7481541205178787  0.8311295374302167
  0.4199974594797530  0.2508403278752551  0.8269807300838626
  0.9927701094905083  0.3350925055667461  0.9945007932082214
  0.1651149340553705  0.5830634412866857  0.5825986149129760
  0.9965548352343310  0.3348417062663813  0.6656765253877981
  0.3327387205115564  0.5832463296817704  0.7508776688498831
  0.9953446977170857  0.2504708827648395  0.7485341642042774
  0.1636231592810540  0.5035703179736446  0.3357480333674693
  0.0796367330333764  0.4198284260959478  0.5000242787030663
  0.1618688144212491  0.0810500645643911  0.7460690769834344
  0.9969191541193604  0.9131556623653948  0.7484500947373792
  0.4149631267743319  0.4995544089283065  0.5846435944528158
  0.2462523326784737  0.0051016405086448  0.2500020374486853
  0.3316395755701695  0.5001552585144550  0.8344924580950018
  0.2478056118688321  0.7500391774644449  0.1682503446575349
  0.4962241973377114  0.6681823592658843  0.4979911238120514
  0.1632375721400885  0.5032468482851102  0.5030602203734160
  0.0786825149417120  0.3380542955723451  0.4202470992334947
  0.0749513614121732  0.9959534064141211  0.0799658424158955
  0.3338261573296243  0.4262587149287337  0.2564217930957164
  0.9945213543751908  0.9119529916471388  0.9161628292595912
  0.9984949038459796  0.8299848830709918  0.4994359360591072
  0.0796521821663318  0.9155192692881902  0.3323363485488695
  0.3339357473010288  0.4212279698481190  0.4205135996381117
  0.3335157602784313  0.4136695858492281  0.0841208307424110
  0.9151193380151518  0.7504000637457812  0.1677568698119628
  0.0805949223851627  0.8322183631354801  0.7476800432586470
  0.2473239523006538  0.0020066993881099  0.4154174191889330
  0.1620044097649227  0.4278621218584690  0.2591296113066450
  0.1636571064816876  0.5018711917208636  0.6662188507236585
  0.9950314503130667  0.9996472426038819  0.3349787322614896
  0.9972280184523228  0.6694043674285515  0.4988843026232574
  0.1645819300730195  0.4188618733724694  0.7472626404236361
  0.9966669381934049  0.2529295030443318  0.5850507631012565
  0.9981530814930885  0.9981117402080167  0.5000228007411165
  0.0810316293550639  0.0818778763146045  0.6663168403944872
  0.4157644562886815  0.0825972457981472  0.6640715980612841
  0.1590466962902631  0.4217640994830989  0.0860735129265003
  0.0763155858361552  0.2567492018915580  0.3385250170031613
  0.4164214001282111  0.9166636080896887  0.1641037983402784
  0.5855148202066028  0.1657082042632649  0.7471825259527288
  0.5805325579513034  0.5846289131333418  0.9996523481787916
  0.2476604071720820  0.5829728614661331  0.9995927157522595
  0.4978231052054653  0.8334929882784794  0.1666558568036444
  0.4981808805359426  0.6673670852455591  0.8327499404105679
  0.4979991739895309  0.8331618608193651  0.4985906290551830
  0.8310313688255986  0.6678675065224486  0.9992331094994122
  0.0809672467890591  0.6659658958372994  0.9173104716058321
  0.2490054860056441  0.7505858592668088  0.3325649927517745
  0.2482830355347938  0.6661335542816778  0.9162793454155108
  0.6647546410915439  0.7499867809079396  0.9147241471112874
  0.6655699588892012  0.5033122872901573  0.3331701583329861
  0.8299052334361074  0.5028794055048269  0.1669379860821437
  0.7462376593549790  0.5043213094771971  0.2486209730443967
  0.7473664659340460  0.5027693938269293  0.4171979486111216
  0.6653972270087140  0.5847348517752953  0.4164660083354748
  0.6636898661643214  0.5848693859211439  0.2490217535304269
  0.8311768496679770  0.6675923357797972  0.5006000673443711
  0.0797277462782866  0.5010994134555200  0.7489223513209261
  0.0798128745931723  0.5845717818955659  0.1677939072032564
  0.8296410245908264  0.5861654480171239  0.0823135135100533
  0.6652941028382484  0.7496411275766742  0.5832241102054927
  0.6650578821428651  0.7490618238217133  0.4174180130192707
  0.6640682762716487  0.7499560412781207  0.7489757897988216
  0.9965455590195144  0.5858028169212776  0.4179356531270482
  0.8308665810957045  0.7499785899254418  0.0827455109978226
  0.5832928099641794  0.9996877284967127  0.5823365348608023
  0.2954388302422208  0.1027443288459232  0.1750692298883254
  0.1650273648062697  0.6668489213805560  0.3321368886714699
  0.4178747854521304  0.0798594655216112  0.8305594756695195
  0.5851139951865123  0.9974695782256365  0.2501089246942059
  0.8315556050642535  0.2499232712326214  0.9163281023326169
  0.5003612825694845  0.4184455273260930  0.9154856536991662
  0.7480838781871481  0.6673609113742696  0.4169159227516804
  0.0777723670980308  0.5039364026080863  0.2523957419620063
  0.7488339981824776  0.5000368416744881  0.5837418327171520
  0.5829721443781131  0.4930456878853280  0.5836114974703762
  0.9110941054260550  0.5038351731820943  0.0838600484702847
  0.7474449162386014  0.6666025367701410  0.2490848389422350
  0.6650763631318881  0.6673914452119583  0.8319735035074703
  0.7478390559808664  0.7496073831225070  0.9981266577741399
  0.8302565249488306  0.6677107231037211  0.1656266705585374
  0.5856552596060578  0.9118558185969202  0.9980230953045897
  0.9946514345254108  0.5039131593501217  0.9995949586622601
  0.6643216720951592  0.5856858864394161  0.0816815660064732
  0.4142281316158535  0.7501870256812591  0.5001066751207676
  0.1592545443782054  0.0820571980532741  0.2585837863596256
  0.6665755443009529  0.8316195214295956  0.9984233222257042
  0.6665021700594136  0.5018776875203999  0.8338346513837979
  0.6645603586591273  0.5851081214718827  0.9162479135608641
  0.0802150180813205  0.5857050627727250  0.3345357566188364
  0.8315417049207535  0.5847348921445150  0.7501657314021497
  0.6651454994783994  0.7492451747451129  0.2491524400639632
  0.6667933020938679  0.0819202335287316  0.0822876955037153
  0.4144772349697847  0.6677901327030437  0.0831618736885641
  0.5840445566923017  0.0833701455906428  0.5006344254394611
  0.8317169028463205  0.7494311740372456  0.7487500527196724
  0.5014236547004015  0.9151906872106189  0.0805070194069344
  0.5066160109506128  0.9948575555369145  0.3360183803280833
  0.1593104968333330  0.0711794202018605  0.0680380937965499
  0.3221462392096140  0.1815314811749782  0.3468416350225209
  0.4998239014777400  0.9997133596370952  0.5006940590568800
  0.6668581251926051  0.0827853885596462  0.5825504458115889
  0.4160341251892246  0.9981792321550945  0.7463204392312834
  0.6687894549780078  0.9962821812715128  0.9978691895514192
  0.3310042491201821  0.8315473181191488  0.8308422094027876
  0.4157890542125172  0.8319535517579530  0.0825107167670436
  0.4980043742529683  0.7499897806049343  0.9151824439240375
  0.5823492188711370  0.5005958694758456  0.7512528148199318
  0.0777461427042105  0.9124677327123253  0.9974279506908000
  0.6639583047818305  0.6680286968061195  0.9987405269949516
  0.1650666029169084  0.8314104521823779  0.6650576538089108
  0.5803539037861618  0.6674766795174326  0.9157428958220928
  0.4151191539699858  0.8312790424336061  0.9148107631645432
  0.9986258294413768  0.6676587061511632  0.6650712718637501
  0.5026193742452720  0.9958947432928055  0.1653340252015560
  0.5890374405405955  0.0786778791861160  0.9941694213961741
  0.4983619835371170  0.7503533960439577  0.2496371388350455
  0.5025359822821082  0.9120030364620129  0.2492860443805061
  0.5843813608901199  0.9140946891693816  0.1660546483837451
  0.5809006549119270  0.7502605648064599  0.8316275285736912
  0.9969581511236822  0.9158601456470042  0.2498067946956538
  0.4152718575459601  0.8323819113609531  0.5817938868979504
  0.5826669088364652  0.6672464105339663  0.4164091289172237
  0.9979302428443592  0.7484455198556805  0.9159570058715581
  0.7481114838614770  0.5017888051906264  0.0833983501421996
  0.7498017950286955  0.0820030804359960  0.3338025545022101
  0.7500047374902931  0.3349521652230645  0.0828262449848542
  0.7488515099472746  0.1662108671172406  0.2503953478717634
  0.4993841692837683  0.9992375681765192  0.6648004295179486
  0.5820304183388119  0.8318205413490684  0.9140319894424157
  0.4149422552322484  0.7491604975318046  0.8321343054305751
  0.0823029930962601  0.6677042405060932  0.4166097457193823
  0.9136033616870850  0.7501700513614905  0.3329562210801980
  0.6655214926756801  0.9153515681567604  0.7484109198073486
  0.5883388285221478  0.0804897870078630  0.1659683006793211
  0.0811030891145457  0.7490290928904660  0.1662913249946295
  0.7490826529703855  0.0824295633879508  0.9997963049040082
  0.6683615712260486  0.9976890663722247  0.1673000009303376
  0.5851433134742197  0.9993718946493542  0.4188364287982434
  0.0817083676210433  0.6671245394585650  0.2502511978246466
  0.1642193058731994  0.6659482214395805  0.8325441780303748
  0.5852961917785175  0.2481714257420886  0.8311916274931971
  0.9137775476411771  0.8312395709443737  0.0827042939248574
  0.9982235341719430  0.8318299727723054  0.3326804943300575
  0.0804223171005377  0.9987871703196408  0.5821654501635649
  0.4167184342410468  0.9152266799556471  0.3352379810163058
  0.2481926020041669  0.8344545922684697  0.4158378539242217
  0.1637500897108900  0.0001120968163081  0.4995986927942804
  0.1616788664535246  0.9990071226176195  0.3349298919499847
  0.2473020351281164  0.0832685688077131  0.4988910165740237
  0.3315936982753975  0.8323386038547547  0.6638897873662374
  0.1636012687616057  0.0827098721677726  0.5831389608003171
  0.4981615778496950  0.8325612568926830  0.6652794749398079
  0.1638493138543196  0.9974905847191213  0.6647349619102519
  0.5821963309759486  0.5846645389070065  0.4952955794360516
  0.4156974778868903  0.5837934160484963  0.1662103367893386
  0.4973320752159828  0.5840226499958672  0.7515350641479550
  0.5820658448009640  0.8318868294960434  0.0828767617941571
  0.5808222427728814  0.6675427748385100  0.7501689165633889
  0.6650908144296916  0.5018064821346350  0.9997155876439636
  0.5034200798089993  0.0819889957076171  0.2529061392914817
  0.9953168372036769  0.2531084522557491  0.4196304069586291
  0.1613614696404931  0.0855443130952228  0.4181616744556866
  0.7478305483037332  0.7505475176008571  0.1659689927885753
  0.7486659186615690  0.4179169616970387  0.8340898455056736
  0.6662575210531931  0.8316443448708241  0.3335925769468921
  0.8315437079691438  0.1667644993244267  0.3337691962787354
  0.6666979470987917  0.2511120053089951  0.4171249727702917
  0.0795485048785595  0.5012429000121519  0.9154413957702250
  0.6674077484766168  0.2503633518763946  0.5829283027887030
  0.9968684923186721  0.5852981300690111  0.9157018248366289
  0.7485525073804549  0.2502644260434859  0.5005464440423260
  0.6669470081300508  0.1658583760489074  0.6657537675281314
  0.9961536181873804  0.5017511171353193  0.8328528790863655
  0.7497865895901766  0.1652200045321023  0.7482819603247771
  0.0799620699671662  0.5840911948756300  0.6659025939801502
  0.0792043339644816  0.4189730786650053  0.8317536521545984
  0.6669294154384007  0.3337662255595519  0.9995276802220782
  0.1631470795195275  0.3339789846851714  0.6672873544477989
  0.7497914945138443  0.2489145641784159  0.8331335886591863
  0.9133677841662228  0.5010075996227036  0.7503895252998403
  0.8319343470407399  0.5002446915681681  0.6673336514960655
  0.8305804963607030  0.5858976782558852  0.9158960060700762
  0.8303524702766705  0.5025868506900506  0.9987251776531846
  0.7490257449043132  0.1667389940535567  0.4178187252208443
  0.9140944005194608  0.5855204689828294  0.8332200939985793
  0.9941730192550853  0.1689801197397478  0.3374919516410445
  0.9141262876795214  0.6676972659936621  0.0834893013212373
  0.9915188208718748  0.3408655097162088  0.1717573011118715
  0.9985678386223330  0.7482516165797584  0.2510114138870162
  0.8302917532290311  0.7499103369406861  0.2496989028724760
  0.9128479286067243  0.6677679277514390  0.2500384847641069
  0.9144941995184093  0.7492842085167770  0.9991416809714553
  0.1635622263945786  0.2611682954276621  0.2601315159194401
  0.0717620396339972  0.1709408191139924  0.2556675575790847
  0.9131571062266535  0.6673990062276773  0.4168657805722119
  0.9144862943782420  0.2524898520068314  0.1667691513910408
  0.0802779570200088  0.6649838265772298  0.7487709088581119
  0.5825146045856715  0.9157090136123830  0.6653358349954961
  0.5034874463672130  0.2509578283973209  0.0835823441354158
  0.3272562909359909  0.9956175069744777  0.1500160809234481
  0.3327701321664494  0.0842235723803343  0.4154901613495214
  0.4269490347102672  0.9928352844390610  0.2543151554038208
  0.3393160610593707  0.0996605452468930  0.2784458734911341
  0.3328718362787004  0.9992976718746791  0.3340286709856535
  0.4224767369095501  0.0743831561317500  0.9911566423565874
  0.1642295909037416  0.7480005201644728  0.7484672230928391
  0.1647185927894261  0.9158078836523267  0.5814406600998270
  0.2478275310394733  0.9190534840653506  0.3315741702229873
  0.2488044847072925  0.6668460184242728  0.5827234572105836
  0.0807459693342281  0.5840501990371801  0.8327579235597616
  0.1636367212470001  0.7479985572028275  0.9156925041114617
  0.3306992538574663  0.8299469820262712  0.9972579353308890
  0.0714948343733121  0.2615763307459662  0.1755718803660436
  0.9104836032254886  0.3373621534651840  0.2517039416173241
  0.1623469749782414  0.3450918436760803  0.1813920693324413
  0.0734853017907994  0.4231865356035809  0.9991639813601415
  0.8302967160193050  0.2515335771884412  0.4186053146834958
  0.9961208701204627  0.1649914748518303  0.8303697693314966
  0.9116341803437669  0.2522465692330768  0.3360517751927039
  0.0656943334614333  0.3443089786585868  0.0850030381727260
  0.9972017316295062  0.1676358968395989  0.6661423497657940
  0.0796100258562042  0.9968585482771896  0.7471656270221456
  0.8318197867579117  0.1662111605793374  0.6656314372239406
  0.8311115342484430  0.2494142439047340  0.7494446683048278
  0.9124557343449707  0.3341781403113103  0.7507996287056047
  0.9143145584017182  0.0831862841342834  0.1656289024698358
  0.6667105934910819  0.9982153345703525  0.3334984468041567
  0.7477203689012444  0.7494105028956692  0.5007192582081350
  0.7489300572028216  0.9149817353971288  0.3333504782360346
  0.7489404267973223  0.9158870379993468  0.5000066320548747
  0.9138760522420011  0.8318646748479528  0.5822773903133852
  0.7480785709112870  0.8326621820466744  0.5824141051922639
  0.9958159830682006  0.3346459714977815  0.8309928554345284
  0.0807394827002886  0.3350804386379275  0.7498473177361991
  0.6649147924012092  0.8325551436671329  0.6658717563944705
  0.6666271308182358  0.3351871305734263  0.3335998954589803
  0.4144988971125169  0.8341426733103576  0.2489973243394026
  0.4183236105267786  0.9965842997830436  0.0786948767929215
  0.4151889471202879  0.6667647965819168  0.9163541388009293
  0.3308164403634792  0.8353814063683437  0.3319895143050560
  0.6649438538866969  0.8326362363534960  0.8307080816540484
  0.8311851720520369  0.9978779219142008  0.9992844306347073
  0.0816083017635436  0.6669270115775656  0.5825562949275008
  0.8304851665992248  0.4172301644624561  0.7505534779578426
  0.9145340602824913  0.9986266802357490  0.0831756748278921
  0.0803497603258985  0.4179000715066706  0.6674210841707705
  0.7494465492173495  0.9154766297560157  0.1672290688364951
  0.7490511184930669  0.1667583796879923  0.0835390100482059
  0.9140387636513667  0.1671002171308334  0.0829197090495237
  0.8324195949238183  0.3343973124603576  0.9995986306047716
  0.7488796259342237  0.4179841069401897  0.9995948014927847
  0.9150123999139383  0.3356899168862615  0.0838808377956926
  0.9126063447386874  0.4192998745140575  0.9992742104030852
  0.8309055797352991  0.3353448027839406  0.1667868481885218
  0.8316466676199413  0.0835989354938321  0.2495337065265501
  0.7483252544956689  0.5851672968908338  0.8339504682483189
  0.4991978577433874  0.9155841641057915  0.5824941985876763
  0.6673142155131180  0.3332567770242274  0.6669637645607028
  0.7498143255654113  0.5831773369204545  0.6676314754217689