B  Cr Ni
 1.0000000000000000
    21.0519239149505069    0.0000000000000000    0.0000000000000000
     0.0000000000000000   21.0519239149505069    0.0000000000000000
     0.0000000000000000    0.0000000000000000   21.0519239149505069
 B   Cr  Ni 
  17 259 605
Direct
  0.5830783853235417  0.8274164801558156  1.0099885775503805
  0.3458861332212445  0.6796868975157405  0.2443888744432911
  0.4281556141721320  0.7381468954612727  0.0993641435182941
  0.9076392281429739  0.8386001641278308  0.1530429592644180
  1.0861684327950554  0.6698092263348211  0.1664812069833778
  0.4822930105289083  0.7732787382049535  0.1459765523687748
  0.8526152158840734  0.7477742619306459  0.0241667227004134
  0.5846086684997663  0.6811444928239538  0.0149631654435188
  0.7630782448779937  0.6480209944215363  0.0242453983276398
  0.4873499195359260  0.5873857674444544  1.0110264490789940
  0.8187615099142319  0.6851636990135802  0.0726246444929513
  0.6661183438532059  0.7390329261924476  0.1554717948235191
  0.6396706444291528  0.8596948831715496  0.0600534853667172
  0.7251208374413924  0.7733995221239702  0.1118978240769631
  0.7582567019252486  0.8375059639729303  0.1542166195325707
  0.5254674985266875  0.6459850286089309  0.0566842131431471
  0.6687941846144950  0.5924985567303813  0.1577953533506460
  0.4182253662423276  0.7511369673270147  0.6678895271691874
  0.1676992832820013  0.0869510835488841  0.9172625850331542
  0.4141890152129143  0.1707399803644665  0.4212008876990802
  0.0825373656418930  0.2503083711279874  1.0017881123031684
  0.9183412115651071  0.4180297708117378  0.5008091642876097
  0.5815356151872649  0.0895464459879029  0.3377141613243634
  0.2492780627801508  0.0859863835628093  0.6679923800048695
  0.0856285625507517  0.2514987921714267  0.3354631137212871
  0.4164190208249939  0.5797498227750338  0.3399608515144912
  0.9175759596957445  0.0027332514481841  0.5837051543930792
  0.3296200411198032  0.8417122326964350  0.1700255606462047
  0.5835937660468637  0.2498696533739183  0.8309706521012070
  0.3306773117236224  0.8376176725778341  0.8296550291132251
  0.4991885915798223  0.1710106787093121  0.5032129161900597
  0.5006664914847944  0.3324248306364100  0.8321219590118862
  0.4124618727583902  0.7513764995347506  0.9981346459477904
  0.7518199186677683  0.1680039858445682  0.5826058671423807
  0.4185879777405046  0.8359385619911759  0.0887109772068961
  0.9176407470402749  0.0041213589002847  0.9173132378849778
  0.7510306001269347  0.5848724694492357  0.6676937377196333
  0.4153923627631554  0.1697195218284673  0.9161617045444835
  0.0830699056488797  0.6689726526000637  0.5838925846832286
  0.5902281838527522  0.6543354310879720  0.9111831552083366
  0.4166521736506256  0.4186003294501440  0.5015663447987121
  0.8299881567760367  0.9348714946871046  0.2593237295394141
  0.8349773016773817  0.2505066351003601  0.7491310525753896
  0.0842036414335198  0.4992575674039921  0.7482581095314493
  0.8336939804741371  0.9183925453742264  0.5846632374208039
  0.5820108996223103  0.1703744946771517  0.2534305594292972
  0.2494098239310668  0.4181401754214104  0.6671216924997897
  0.0841653040622404  0.0023077848133429  0.5841688516227509
  0.2486399555967748  0.4145493014104876  0.8322743734846778
  0.0843113384822501  0.8359060492554014  0.5832318578409401
  0.0875988149088628  0.6673902332400503  0.9132446084969745
  0.5791282531877565  0.0109091057802787  0.0833583127257031
  0.4166575172741284  0.4996775023289041  0.4198866855358004
  0.4149656482790203  0.4992340929412297  0.0825736523896442
  0.3337898216218474  0.8347887942988340  0.5025848523553162
  0.1684274235399492  0.2521728912133214  0.4191819358607544
  0.7493986672892461  0.7538498054203779  0.3300061772525541
  0.3310462602775056  0.0057097564339942  0.9989076000481418
  0.6667157496069984  0.0861702120262504  0.0852201083955905
  0.9198124425907219  0.3345672660371015  0.2508153918591265
  0.2503015400366588  0.2527036589545191  0.8344384809405728
  0.1736140945262571  0.7514941635829344  0.0807162120995465
  0.7509491251860190  0.0891503347244638  0.3366281112024546
  0.0838838696690898  0.2510993457709580  0.4998889971976885
  0.8373276910162780  0.0853079060133534  0.9171868651134906
  0.4177514726530652  0.3328942089910856  0.7461077791330865
  0.3320195713434182  0.0037290371238162  0.8313161993494489
  0.4902797953976537  0.7634352175800166  0.9037447942390761
  0.2494172648818868  0.6689665614754665  0.4189196785816735
  0.0003119340756482  0.9189553026879898  0.9159951898727214
  0.2509645740619095  0.4176016223720427  0.1674723983363781
  0.6562876808555534  0.7644953568408589  0.2602851641408435
  0.7509438153329026  0.9200798084578383  0.6679246029199374
  0.9209938958135754  0.4991973486348942  0.2519963745554887
  0.3340886160235342  0.2514292687908397  0.9152602572919342
  0.0013833678823941  0.0863539458678142  0.0861327538171937
  0.6682805118844016  0.6687439656031480  0.5004893167531473
  0.1681206785940673  0.4996787044658411  0.9994772605720873
  0.0017398117435607  0.4166281084916683  0.0837146064262140
  0.0010491312363008  0.9197745450279381  0.4174051315287774
  0.4155520715503788  0.7524915548033421  0.3341839951535859
  0.1654992628666869  0.1714135248055980  0.3364797198529095
  0.4155938769294434  0.5006982036838141  0.7506049873950634
  0.5629372925260170  0.6706133188200988  0.2561339788693906
  0.5004256140071979  0.9205912387287263  0.5847659399893658
  0.0075645857268327  0.8358600325527662  0.9952533374031595
  0.3317245506266935  0.4177412342508489  0.2513361582449130
  0.4990060792305926  0.4167776095081552  0.0851783827171208
  0.2484705812918876  0.3307622090935267  0.9161807819417115
  0.1664419865713351  0.5827547391169550  0.7474972690544588
  0.5859136600189477  0.3350320545932080  0.5837257863368094
  0.3303426600007762  0.7527150357422747  0.0820161524252692
  0.7618742626167909  0.6616002829064492  0.2665462814181950
  0.1690026331906808  0.7521570887481325  0.9156542001925487
  0.8362075181804917  0.9077589954953149  0.0957553714436647
  0.6688425096205325  0.3349269580018262  0.5034256169779475
  0.7532636685860503  0.4156075669972791  0.1694674574522707
  0.9170915193978203  0.7527839980676664  0.5012678938536964
  0.5839192137341047  0.3342616297548609  0.2522049760179931
  0.5853956812062486  0.7522764812928525  0.5020104171939247
  0.7522228573483281  0.1685056125612972  0.7507028948435397
  0.1668338122224522  0.5022080311512408  0.5012479032922135
  0.5854056733411224  0.4172480070129397  0.5028583393659719
  0.9992504809952458  0.0030681586469591  0.5019543695257622
  0.2495633194291199  0.1696202718216110  0.9162749353426303
  0.8343569173189368  0.3341248652182134  0.6652952192176955
  0.4170915277777355  0.3369235610784172  0.5845109227444025
 -0.0006172102243110  0.9177674804451532  0.0833045642446243
  0.7514733500455294  0.4137771084526197  0.8307916982710845
  0.5801210296573889  0.9264157992547033  0.3404745637742773
  0.2489941040579431  0.8376884061673046  0.4209222059488691
  0.0863568519960617  0.6679170971440765  0.7481468906959533
  0.9202993538815364  0.4166510918066653  0.1669917207577596
  0.8325843153690733  0.9189024792302293  0.4179125544546102
  0.7527340841507900  0.2491312256710289  1.0009841963848034
  0.7512910387312032  0.3357282853487206  0.5843374357686993
  0.5181107816459792  0.7448317646933951  0.0578731114209954
  0.3339047585982006  0.0067409568547669  0.3370075723641473
  1.0005363103870273  0.0865653968179034  0.4186777367080499
  0.9187750094384167  0.3341196840736520  0.0860116824783170
  0.3315085770122899  0.0868227161494250  0.2521160351047434
  0.7523722329795641  0.4896618698129654  0.9095293316609918
  0.5747210105547821  0.7570014249466402  0.1739143804649119
  0.4114507214145167  0.0075314465386159  0.0853506291909199
  0.7507891756864928  0.2492462442864441  0.1711424624903505
  0.5004390077877223  0.9211780229514401  0.7479414991094832
  0.7508206045615785  0.8362652239050589  0.4173220032403828
  0.0021751295371141  0.5000867009360221  0.9989687872362675
  0.4165292104702270  0.1681965896946077  0.7491716766354692
  0.2490303146062828  0.7515478683025500  0.6667198773671679
  0.2494348839279325  0.0869060004224645  0.9993362853214794
  0.2482621727139930  0.5828179029158564  0.6679725086295504
  0.6679831268997001  0.1694827132745667  0.5007813908625097
  0.1652841395469087  0.8352024963126575  0.5045890718803443
  0.3281870218153538  0.8405897020033110  0.3429004492570050
  0.1667491650793352  0.9188048684986460  0.5852189454589796
  0.4150739637439023  0.4164520204484983  0.3359240799311665
  0.8355985026781074  0.3339619822564560  0.8328057127886938
  0.7522993790939552  0.5026121697658991  0.5832971096274548
  0.0828754959070836  0.4179139816879456  0.5007703619280932
  0.5014299475747617  0.3336989854363778  0.6649528788790793
  0.2510001684106893  0.7537976578331911  0.9981281042471747
  0.4132241322871746  0.4948808722846936  0.9111271116126256
  0.6676760356633472  0.6685050439449474  0.6668465450455588
  0.2489403342976472  0.5002109171639015  0.7492705540368220
  0.1661684112612460  0.3335332619555870  0.6661670125726828
  0.4995042585450821  0.2510919939122079  0.4214487822134085
  0.8348528492594236  0.0885749423557388  0.7508097440857223
  0.5795932812439027  0.7555645295978676  0.3372389913999549
  0.8367997593384416  0.8350071026785996  0.8305269792869073
  0.0018661079648743  0.8365208178754593  0.8320693397991618
  0.6678468470154129  0.2513194070605558  0.4188667355693698
  0.5001879611310256  0.0851269449254970  0.5854202231578797
  0.1661744316424928  0.0878318481061516  0.7500814914852787
  0.3335613473812192  0.1710454714111054  0.5029678860524823
  0.2499109700998401  0.2516300041218495  0.6661818012199751
  0.4997168967291767  0.0049846720828157  0.8313134043052522
  0.4148899538588341  0.4162065693139752  0.1677272832573817
  0.9997150547776017  0.8356328767027139  0.5001222585965237
  0.2501196517958289  0.6670561417727354  0.0804377358538573
  0.3320995338897593  0.4987279557508131  0.8296969327555083
  0.9183425808700233  0.2514225432396858  1.0015732699231932
  0.5840309064151493  0.0879546626384884  0.8319784086624756
  0.3327985633816287  0.9199835884626594  0.7493148355182220
  1.0003724645410650  0.4172218334110626  0.5826220617121645
  0.0011562204797274  0.5820660455581508  0.0813652855722269
  0.0047889280821950  0.7520826246207549  0.2550908476085604
  0.7518926294885622  0.1697709420022996  0.9189383425366351
  0.1674477271934832  0.0037152020538782  0.9998380859457999
  0.8352869084272238  0.5829871370551815  0.4194837487692778
  1.0016886865271040  0.4173811037307807  0.4195307542823318
  1.0011778695127826  0.5828906612129512  0.2517762353452916
  0.1653215359692146  0.1704969078496640  0.1667184970316082
  0.7533433257456823  0.7470335690201385  0.0110373645270107
  0.9256125529397922  0.6625842712845269  0.9065853982866020
  0.5844553161164376  0.4153812486706775  0.8300012224087343
  0.9186389439556870  0.7525761742380546  0.6662598078671647
  0.8343089366187255  0.2522347351806762  0.4176255052964113
  0.5812906813000553  0.0864489502328616  1.0012392640223491
  0.5839505787804182  0.3346625178072721  0.0840935927094732
  0.6683571023814060  0.5676589314890520  0.2605911367205727
  0.4170220415464074  0.5032998933662108  0.5821312054890070
  0.0854764443679806  0.4188437988750808  0.1684471565451583
  0.1672478744490278  0.9200995770944734  0.7477225311323344
  0.7511905029449892  0.6705879926383879  0.4119088685586361
  0.7281635115221110  0.6743038911780832  0.1114725895533309
  0.8342413102206055  0.7519231275437579  0.5852195155119673
  0.4982996478759353  0.8405804571142689  0.8296641313096748
  0.6687988857627204  0.5018707557551869  0.5000982564272826
  0.8240245335586908  0.7748338040812871  0.1113867444288988
  0.9213113986471922  0.5820698538371660  0.8311895742637729
  0.3317779868863687  0.2525375094037945  0.4203564591281544
  0.8387664096359227  0.6652708548035244  0.3403634748758879
  0.6675115856395210  0.4966633305514095  0.8315178287748827
  0.5854836593700468  0.5812410565720402 -0.0000440589895548
  0.0019750602255376  0.4161622457336368  0.9166025933991161
  0.6067062783433759  0.6630986212976643  0.1088976986245298
  0.0862139768973024  0.2500294998775702  0.1677280802063379
  0.7511008260804696  0.1686068429456540  0.2522423544938099
  0.0831452056865872  0.2512254507634102  0.8336443009555711
  0.0039420764341409  0.8370170274314570  0.3383131602014733
  0.7516707328585055  0.6673654188361391  0.7461347928639157
  0.3350236471680166  0.4185156244896284  0.0843339889164035
  0.5818926454189010  0.4129150698602607  1.0018818359928159
  0.0016941265305752  0.1686867358627107  0.8337720378437276
  0.0841013404487734  0.1671326253532071  0.0848497831784494
  0.1643873627749766  0.0028478056603989  0.5047129782077174
  0.7499062487158470  0.0074973212757992  0.2543433758667440
  0.5845731687242463  0.7510650827129300  0.6704805413488670
  0.6685095240676295  0.3340335052058799  0.6641336332698277
  0.5807592904734938  0.9285599272914389  0.1699879298970188
  0.0840204502752261  0.4998415485838106  0.5799480454014028
  0.4174008473797237  0.6677468903687825  0.5833809511558246
  0.3316149479181918  0.2508684081852701  0.2513255253626753
  0.4943249375295669  0.6713738721893011  0.1548136122061220
  0.7537675156170655  0.4168298518173467  0.9985267577390556
  0.6591852694635566  0.8407005489751572  0.1622132461634353
  0.2495782378448529  0.4156208831248032  0.9978429942383844
  0.6688390336948095  0.0032979687801943  0.5025820492961016
  0.7520496245011855  0.9211471721976102  0.8311499056093276
  0.2471312360419504  0.6687724851850754  0.2527060848628600
  0.7518412005612474  0.7499839859618571  0.2037227520210246
  0.0823506640199802  0.2517037315854889  0.6664571157268639
  0.7526237381208876  0.9289426309815366  0.9928459876299860
  0.1671545739491133  0.7518272907422477  0.5832319354741869
  1.0016923415186325  0.5855928413272630  0.4188350431407696
  1.0004400465067143  0.0844599496808458  0.5822284213629063
  0.5006275947125022  0.2516915699524346  0.5866308386314597
  0.2491916224227257  0.9221792407601854  0.1691254803935579
  0.7476680313700345  0.9325076385909046  0.1720476374016508
  0.0055039613846970  0.9200206652957554  0.2542711842762354
  0.9196120776386459  0.4994076718032201  0.7486124303578364
  0.1693334641085565  0.4999356100344628  0.1682127737524900
  0.1663706933800266  0.0057659911919902  0.3357868251147147
  0.9197125982049350  0.6740469065336450  0.0803773983432272
  0.9174675495271443  0.0029519376579032  0.7503620629505243
  0.4156453754969658  0.3342177492057458  0.4198426309228770
  0.6693769408873551  0.0056775149195387  0.8316470140291605
  0.4970719340732800  0.7583200264009029  0.2553487388588215
  0.4233628456779040  0.6488834089743751  0.0684593484477961
  0.4977934464628698  0.0085326169671539  0.3393614046301809
  0.4166880433303389  0.5833649983432974  0.5016929518775615
  0.6416382109688749  0.7590586845131873  0.0623085317888876
  0.4144067770965067  0.0881990849233395  0.3370398755074963
  0.1680606701461581  0.5010496036723948  0.3358969713965889
  0.1657212630047024  0.3329294895257462  0.8324754535989456
  0.6702535815998309  0.0008461600525276  0.6677155033643779
  0.9177545182617082  0.5855571071217484  0.4995194221470837
  0.5011133089517943  0.2523899658842375  0.0837906214498218
  0.8361504599948248  0.4166588302736172  0.4188743517178793
  0.6690567956133199  0.9189566821800186  0.7509708074504009
  0.5816638280154287  0.2520399995948038  1.0027069724115958
  0.5007222193418177  0.0028732140890144  0.6668518247787701
  0.1664727724964068  0.0027198951489802  0.1675883355091698
  0.5021067611194001  0.7501435979360519  0.7543178071641009
  0.5849865327606950  0.6692144688401231  0.7519616347880538
  0.6705060846386431  0.8369041202947555  0.8369897760076391
  0.0013525013916633  0.3336165786158798  0.8341101163356633
  0.3320510615680249  0.0039941554948382  0.5046758361723318
  0.3322972850957913  0.2508931803912894  0.0829515702998429
  0.9189862116976049  0.0876260406953217  0.3369802436385679
  0.5815316929494324  0.9276764479320033  1.0038047593893558
  0.2478705278019859  0.5012277798797760  0.4179221751162670
  0.5864946852859244  0.5838340138315156  0.5006789739277426
  0.5853643731489981  0.1673218066908010  0.7498311805007851
  0.1670484144371490  0.9215912127744232  0.9160272923629906
  0.4953136866798006  0.6739903250556739  0.9666097198648974
  0.9185979865351257  0.1680371814420946  0.5829423379296603
  0.7559835129597070  0.6608976065192159  0.9140446284843049
  0.2498164175002498  0.1698159379851999  0.2514642525744354
  0.4158400446847857  0.7532995659109133  0.5032166663275250
  0.2502128878774006  0.1696589043116752  0.4193958877489948
  0.8362218853878155  0.0884946413624867  0.0851379444814875
  0.2489723326309860  0.9198466472587217  0.6679949809304180
  0.5852894936323005  0.4986150127615102  0.7491486029307709
  0.5541732486134217  0.8405233552326674  0.1011302506997705
  0.7587660086023804  0.8359428413947292  0.9116732343013054
  0.5845937402490246  0.2516039173763941  0.5028484462690652
  0.9185876788738128  0.5003209443007957  0.0837170114512556
  0.4897247487373451  0.8539920712715700  0.1857415380220658
  0.6690409802200518  0.4965585620771085  0.1674048514858198
  0.7518150657239872  0.3336593513469148  0.2516866207923235
  0.5844690074516206  0.8357498983097854  0.5854470151626575
  0.6623255423514983  0.8425513755076832  0.3404979197540734
  0.5836468659950361  0.9209862455915625  0.5034181252067764
  0.8345838418706898  0.1692782156201122  0.5012881580062049
  0.5006740940899878  0.3348023844961310  0.5032496196864914
  0.6685158841873733  0.3331206700722009  0.1685672867396911
  0.8350416768903418  0.3334350510789790  0.1685575662523065
  0.5010962108387830  0.6677190872814316  0.6672287476431276
  0.6686786805605212  0.2508763216817240  0.5838905457132132
  0.6689991641080837  0.4151817045048430  0.2519367879658018
  0.4162962382205583  0.2542629474728390  0.5043722212476458
  0.9331666894110449  0.7456982066108399  0.9861566752938170
  0.1697691919145053  0.8374140390388992  0.1669326162907601
  0.0841782075628835  0.9207082200534781  0.9996093272721477
  0.4164801661949725  0.1685268376475627  0.5846993639598352
  0.5822195441392271  0.0060183614615238  0.4217928947747058
  0.7518085104228841  0.9191754759875349  0.5013149883566675
  0.6657816394858787  0.9402312408674645  0.0882260620068263
  1.0009402233801910  0.3337200750768421  0.6654956497055370
  0.5858849970287149  0.2499896851889309  0.6667692325202069
  0.4126313757100051  0.9237534992056767  1.0004846952133764
  0.7522043206982549  0.4176272055378148  0.5019207765522823
  0.6680515011721488  0.0078281979420140  0.9980131175536249
  0.4931911545515202  0.9301220687224460  0.0851788749317766
  0.7522797933786127  0.4990072538323073  0.4202010003025847
  0.4151586701946978  0.9201044759261734  0.5035726052269228
  0.1662680816716578  0.8350636892458310  0.6666304706939901
  0.4162795133966219  0.3338940023774239  0.0842383576871554
  0.6693196055028008  0.0861016243765893  0.7493706411397656
  0.3324624852546323  0.4137575292087969  0.9140482239776704
  0.2486075931827413  0.7530854627391540  0.8315704014569574
  0.5835980448527712  0.1695459371871419  0.9167767801153124
  0.0849452977428552  0.4183615392527702  0.3357339823903111
  0.7513367956992110  0.1692386245983771  0.0849160682022760
  0.6639834645118573  0.6673852118004274  0.3302159627533337
  0.7519584483871665  0.3338494848272688  0.4190146784875823
  0.6669610999644234  0.1705431542226878  0.3358360518975481
  0.6667766102106142  0.1690749542136497  1.0016965882177720
  0.4138219064546643  0.0057999791596683  0.2537110500031632
  0.4154751843360572  0.0864358823334102  0.5033524997163605
  0.8342245857555466  0.8354702521033496  0.5013957103956762
  0.4145573577922755  0.4981190580788312  0.2538097983606319
  0.3300007270640812  0.4955604732166405  0.9963529555971605
  0.7523162809585041  0.0857840642312930  0.6662219795120596
  0.9204746954320612  0.4976597561941007  0.9144438602414071
  0.1666530642787978  0.1693808065505861  0.5016508679391538
  0.3331804703089539  0.2526265747750931  0.5852485883261304
  0.2458339499841762  0.8428979517025748  0.2542074674795013
  0.4157992113815305  0.6684852007828397  0.4212071882209840
  0.2482930476863105  0.0053817590657448  0.2531830290363433
  0.2500415451564879  0.8357173022400832  0.5845164691985362
  0.0841939263283032  0.3341898806974326  0.4181896008499968
  0.5002010169681892  0.4975539709867134  0.8300540751804337
  0.4965958241406975  0.0886048099801663  0.0844246022034785
  0.1674246203564071  0.8366155386369469  0.9985912828339442
  0.0844070656494151  0.0862349275605705  0.3357757113856277
  0.9179297723404825  0.0026351816838112  0.4185719242738709
  0.3330200791382439  0.3340932969243428  0.1669968821949868
  0.0832425347126258  0.9196421663100035  0.6671992468917687
  0.4988350002975827  0.3328498480578490  0.3368798065411473
  0.3321763327679983  0.0863329327359831  0.5851268260845017
  0.3325558415346911  0.3358724453616262  0.5024427536553897
  0.0861915630981892  0.8374858018186908  0.0822869635511217
  0.0845798129360259  0.4174319267462943  1.0002927580128422
  0.1663985970590764  0.2512581030346491  0.7491719376600273
  0.4170499292213965  0.4186584145807224  0.6662202217733008
  0.7516025572122936  0.4988195257112262  0.7491156138510167
  0.8313464835432071  0.8383048731129150  0.9994428831602744
  0.5003120326225542  0.2524002308616486  0.2525868624977732
  0.6637597202438178  0.0115846871620634  0.1731092108634272
  0.8372632945098312  0.4986352414153526  0.1673940834632917
  0.1680818660723482  0.5829182621123237  0.9138864063530924
  0.7519220323228962  0.0021724591699904  0.5835888869837784
  0.6652198610336677  0.0068040302100724  0.3376810182184767
  0.0024919881185115  0.4170939698003075  0.2509148409929262
  0.9193412891442752  0.0858772448493053  0.1680565260895826
  0.6674885246470109  0.2512853681311744  0.0846429061551605
  0.9220078733273445  0.5815531503246691  0.9975844342704485
  0.5001805376230196  0.0860967849773639  0.7493699976044714
  1.0016369739842934  0.5007059833631682  0.1668453600550328
  0.5847345229814309  0.4960291801136987  0.9153105964623991
  0.0021001935265098  0.7533607543135193  0.4194352425457663
  0.9192473121208499  0.3330249027389737  0.9173782835436047
  0.8355830624033416  0.5011129229670829  0.5011524904058217
  0.8466508231069095  0.6615882850983398  0.9856534105545455
  0.1670186842179898  0.3340237038132871  0.3353143726515563
  0.8370332157725184  0.4985129989159157  0.3363597988251411
  0.5010436109466796  0.4193486048436087  0.5845125858909395
  0.3329428070831883  0.4181600726037342  0.4189660085303050
  0.6652966648661637  0.0896800975807413  0.2542665959280591
  0.6676322367941421  0.2513472286148729  0.9175808231978555
  0.7520404692236556  0.3329203728439317  0.0850644230763475
  0.7524510094194534  0.0876482717467428  0.8333605691850260
  0.9185271270033547  0.2512730302618982  0.8337980574437553
  0.8366291850506798  0.4143246951214484  0.0848813429180699
  0.9201012298562475  0.4154771684858407  1.0007545159744629
  0.4992718121495269  0.1694552838408132  1.0004001890654712
  0.7553154178701191  0.4936495452463255  0.0839823763970773
  0.3334910420368106  0.8378350984713834  0.0008286444249932
  0.2496554543127004  0.5817895668184389  0.9965955520708716
  0.9221601871342445  0.7489589628658330  0.1712680503907580
  0.2487480416625291  0.1695111843835478  0.7498709400058829
  0.1682596741843840  0.6683961354908622  0.3362791867066469
  0.8350977726658383  0.2514546890305766  0.9176166076809238
  0.1671035225385994  0.3335337343446068  1.0002989131595752
  0.8372456169653990  0.4156409195623663  0.2510943060666231
  0.9178098973711034  0.9198282343998150  0.6664008242780859
  0.4975040139381799  0.9297568249384740  0.2606925139451211
  0.9160871484159491  0.8370170392803440  0.4167401458611433
  0.7521780645847588  0.5781915889671601  0.3381592839948839
  0.9194039656545943  0.9259313027210134  0.1754636177431811
  0.9193415182559915  0.4162198453412808  0.8314994798205602
  0.8347874375243587  0.0072749506706288  0.3396585085388534
  0.8383398281485664  0.5780680863869458  0.9107811652506139
  0.9193381193254828  0.4169912805084281  0.3350593108369784
  0.9217233850001910  0.8227742675984943  0.0662960997608157
  0.4139424626514915  0.0050231418151766  0.9147415417857054
  0.9272613020561409  0.8365500767443454  0.2558431471209739
  0.9178722211595036  0.3338741491999017  0.5833731452645325
  0.9184443402434371  0.9210688848289401  0.3352914228988338
  0.8361852300115440  0.4973747090258145  0.8299605069710039
  0.1669914682423146  0.2525421658237589  0.0829853399113473
  1.0016030443891832  0.1702093182570660  0.3351670862625594
  0.0855695077823916  0.3347770120634868  0.2515640263176142
  0.8331827434828328  0.8385155518265773  0.3301545949423052
  0.6680307295744621  0.3333067135134339  0.3357578073202829
  0.1693283812312684  0.6666344126300469  0.9965963724881171
  0.9180823244493669  0.8359526824475972  0.7494333210561618
  0.0026936479740089  0.4993666762508507  0.8314258473338340
  0.8365155936559242  0.9212368319525767  0.9151164258478323
  0.7360466234210937  0.8520130489368739  0.0656686664952427
  0.4169899108395143  0.8352554487467844  0.5865173053941188
  0.5851968076715834  0.9194689969618443  0.6675945245212263
  0.8330142059436149  0.8446231124014156  0.2030748472526714
  0.0001028978540509  0.0028334014332881  0.8332029654092422
  0.8367047499930722  0.7505046925165541  0.9162239843051614
  0.7559534638258725  0.7501055113020544  0.8305584396690345
  0.4997046932363604  0.0038878669540441  0.5049887144939497
  0.9192539028734429  0.8362598293363961  0.9158234484272256
  0.3286373009612346  0.6682742627240129  0.8280256244678784
  0.9175764430649536  0.9183705108348006  1.0008702519700725
  0.9173666129994091  0.8356040471542177  0.5840018890613565
  0.3322709890380275  0.1702720214644076  0.1678517344157077
  0.4056547649493277  0.6693865732933578  0.9084355032644321
  0.6682088502639815  0.8350976823995302  0.6680615772214609
  0.0852957391693721  0.5828252721278626  0.8309514435984731
  0.1681510477788676  0.9212959768054043  0.0839059696948539
  0.2506655364845229  0.7521909989779711  0.5018179601242235
  0.0878848842590162  0.6663340824271105  0.0771111818389720
  0.1661170185276825  0.4159707254904569  0.9159935490679336
  0.2494277632132073  0.5854574503170729  0.5010515816068252
  0.4109995259423825  0.8404710080884131  0.9138500297286460
  0.4963073309066476  0.9260877900482033  0.9147868761345845
  0.4990978928959615  0.0870132038577689  0.9156448569724923
  0.5806215267566407  0.0090810839118972  0.2560141457733929
  0.5850368160087430  0.0858300907670857  0.6664120491786674
  0.9223529384313750  0.7530240662252002  0.3377483892772553
  0.7383529302949802  0.8489716002639871  0.2577965773968339
  0.2493373828803513  0.0042513876557771  0.4202915109612715
  0.3319419623927862  0.1705279154024776  0.3359871405714396
  0.6670436907703986  0.3326365972612144  0.8322474157680002
  0.2491067577224647  0.0031640971227905  0.5853019534558880
  0.4984341591666753  0.4133517308550652  0.2549778545778593
  0.2482903344294624  0.0035638471921417  0.7502474823021569
  0.1663023313475228  0.0035750762944982  0.8330221606220284
  0.1656910909282412  0.1697868198489849  0.8332882053906310
  0.2490365351193430  0.8362184399613530  0.7489270969112160
  0.1672584911996845  0.0867716675732473  0.4188020578908947
  1.0010974817687659  0.8357500589412550  0.6666033633208596
  0.3328845358207841  0.3349910030026362  0.6662986323233032
  0.0837979563088183  0.4158787896859638  0.8325805919916133
  0.0068426670803367  0.7488843129161981  0.0812644561471641
  0.2526154104025924  0.7533738604491361  0.1676753055696285
  0.2466165062839741  0.7530930757676761  0.3401832182842525
  0.9173704865846046  0.2510806836594627  0.6666267294901699
  0.2500428544078295  0.5853665249121198  0.3356443904608483
  0.1675187791314983  0.4169986813584159  0.0838396682201436
  0.2500436740077461  0.2517104321605785  0.1670578042224169
  0.1670858705872235  0.3350456823200858  0.1671870800165728
  0.1665428998568668  0.4180674815290471  0.4185682133160817
  0.4999489151420973  0.6668708478566208  0.8370919857328082
  0.8363739850823521  0.0059154043053050  0.1680701552298969
  0.9172473732740638  0.0008584675145981  0.0854494428438049
  0.3328639176179616  0.2520478625392744  0.7493240914826542
  0.7511412822494021  0.7510658843015959  0.6674203484962578
  1.0028366475730675  0.2519149304995286  0.2512726852207983
  0.0021392961384020  0.2516724281188357  0.0851574873644344
  0.9182112154342279  0.1687581317523423  0.9179217780082070
  0.0000335062241865  0.0855739713894724  0.9173286301300996
  0.0871814641004607  0.8372476502946008  0.9141733996182255
  0.3350017645711334  0.6683701288878560  0.3372108334176789
  1.0000914625142610  0.1688611809345787  0.5006900642034080
  0.2498837068979566  0.0035114521513702  0.0832888568628387
  0.0012600278040211  0.7516536684312548  0.7492920057195052
  0.1674548402982561  0.0873654275691070  0.2518723629727004
  0.3317503168540180  0.0868157484108481  0.4208195255025515
  0.4981861548658525  0.1709185769119329  0.3365613429308524
  1.0000767189113646  0.0027472157973612  0.6664840490761541
  0.8349231799051536  0.0020719916979070  0.5007954674047718
  0.4147854329043226  0.1707010356862058  0.0838939075249637
  0.6683937776455966  0.4152235417265242  0.7473912319844154
  0.0006881887984991  0.1683216554600846  1.0014580441499945
  0.7519632543609616  0.4183071084649712  0.6659865001992819
  0.5843106714260545  0.6689938079656819  0.5837635194374792
  0.5792413781112085  0.8456062200482112  0.2557110013291929