B  Cr Ni
 1.0000000000000000
    21.0519239149505069    0.0000000000000000    0.0000000000000000
     0.0000000000000000   21.0519239149505069    0.0000000000000000
     0.0000000000000000    0.0000000000000000   21.0519239149505069
 B   Cr  Ni 
  17 259 605
Direct
  0.5820882905314558  0.8280149005645330  1.0086315183712802
  0.7628876979231363  0.6486525310410279  0.0228752400460571
  0.4290350102320161  0.7381488758187085  0.0993755365469772
  0.9068192001297440  0.8373880387675510  0.1535818051360286
  1.0861366553711946  0.6694038593615169  0.1676370631014196
  0.4826503362030919  0.7741591710689096  0.1465769887548276
  0.8522181014399554  0.7480489905689193  0.0221086672159111
  0.5849521621970755  0.6812618738720349  0.0145770812081195
  0.3459846122945902  0.6788415631163451  0.2448429369499414
  0.4883112096410745  0.5878216658745692  1.0104937487536163
  0.8184072949079393  0.6862092253887578  0.0700081692370647
  0.6665513150283753  0.7384812231521605  0.1529591708749445
  0.6395115988708885  0.8604468543479942  0.0577872765455308
  0.7252401434589069  0.7735874283590825  0.1106949788616038
  0.7580342409166604  0.8375617895823391  0.1535007788117340
  0.6701777085127931  0.5934901430446834  0.1620665728239249
  0.5260304866760529  0.6460586074290702  0.0565727567952930
  0.3303687648515873  0.8366563227046292  0.8306726165704239
  0.4179232338760602  0.7503200399447600  0.6678114061278966
  0.1684019224791683  0.0875793817842150  0.9165755469472978
  0.4175220354579596  0.5810597172232692  0.3381990163616567
  0.0844907439253378  0.2510451688822632  0.3350473830848348
  0.9210772150923439  0.4968427944141994  0.9148276831164759
  0.9179408665366338  0.0028941222298666  0.5836468830651605
  0.4132062592190866  0.0037597866875673  0.9140942673293322
  0.0816729169041636  0.2492639112072538  1.0007210096503971
  0.8349368974673149  0.2514220377252946  0.9156156660344477
  0.9173225968931196  0.0858402837345340  0.5011235703821645
  0.5822010377788448  0.0888635516346700  0.3385748197185874
  0.2497463526314307  0.0857399698177593  0.6680699086526113
  0.5002792892581177  0.1692283986034967  0.5025582462961606
  0.5842950509819048  0.6696481015274486  0.7524166504225855
  0.4134938886989969  0.7511380960775010  0.9984443153606638
  0.7507531196599445  0.1689096854009270  0.5839294090946660
  0.4195322155622729  0.8364509311566199  0.0889083884128951
  0.9200454691152625  0.0027090289875050  0.9157535425806469
  0.7508886630789565  0.5842155500941060  0.6675030731230081
  0.4160894094108674  0.1700942378338922  0.9152844697146799
  0.1667872987190832  0.3340855408495095  0.3349843325756411
  0.5909844530458416  0.6535987000255682  0.9105636064075491
  0.4172029646878199  0.4176864488352549  0.5010802867851586
  0.8305022844138643  0.9358830444596540  0.2596496553609215
  0.8350101125753226  0.2516762837198662  0.7500294590886840
  0.0848873640339153  0.4995744990724033  0.7484424438900865
  0.8329744889810573  0.9187839211154720  0.5858195924977312
  0.2505787589183615  0.5019229638743657  0.4185662103071861
  0.2503084927988913  0.4197940311980031  0.6687892100668615
  0.5850574878631485  0.4942124601048727  0.2567175101267788
  0.2503096250211990  0.4170702807405445  0.8316062368571517
  0.7499245028548115  0.0887561906059641  0.3364684366441678
  0.0837842845129917  0.8354645452700220  0.5832447346875929
  0.0870903751736347  0.6667301525203732  0.9150071352356856
  0.5776597119614419  0.0104453058351727  0.0855438810011526
  0.4162559160459888  0.4997757105012920  0.4211028309883067
  0.0016425329848573  0.0029786061694862  0.1685896843923651
  0.3337318742953328  0.8343494450426722  0.5036162381035160
  0.1679962458250505  0.2540583162954042  0.4204651033445053
  0.2497715247253852  0.0881389407845165  0.1678555839551670
  0.2499755223173957  0.8353874628117722  0.7491299442564657
  0.6651633699453342  0.0857856518013304  0.0837294782295191
  0.9199131889414595  0.3337407918407410  0.2507162515219418
  0.4981088359649857  0.0879225721861324  0.0838743702302118
  0.2488637175420822  0.4154318047254602  0.9975203175223974
  0.0841761479603789  0.2536458788848183  0.5015321811531002
  0.0036781549012623  0.9180495423061150  0.9136321185440974
  0.2519643423072379  0.4181681985590184  0.1679467706171590
  0.9185689051679062  0.1675194867967323  0.2527582323334626
  0.0014456927537113  0.4165889198894817  0.0842204716106444
  0.9184392027415856  0.1681914414373698  0.5842847102306800
  0.7507893921683769  0.9191024289249659  0.6680140742310789
  0.9204154808773469  0.5003883918366574  0.2515913813667263
  0.3315542125326014  0.6660159316155622  0.9967723933182402
  0.1672932442650045  0.4988692681331672  0.9989718644484771
  0.1672060427673758  0.0863143828911795  0.5865167551836948
  0.4976069746009344  0.8401385893526926  0.3371480946920581
  0.3330287476210220  0.0044787422926913  0.8322658428817122
  0.4896913600035229  0.7630164399493935  0.9043476723529807
  0.2489448699654259  0.6686784270156733  0.4190398821235016
  0.0011475452764686  0.0855240747101552  0.0845937618207114
  0.0014235230468101  0.9218382668520966  0.4202596686795850
  0.2513317431524722  0.7518344055600195  0.9992597984268249
  0.5843018714061298  0.1676356555382764  0.7506919813185936
  0.6621263811290817  0.9258307542110875  0.2538907904626721
  0.0825567882157309  0.3348931430943748  0.4191673305839383
  0.3315667796094708  0.7526792582662298  0.0827873312528258
  0.8354002083241572  0.0876284286201935  0.0840260499785755
  0.1667706396681679  0.5837292892336448  0.7479615078270050
  0.6694293382588201  0.0873918763887233  0.7500517324454663
  0.2488435957679392  0.3342409376201121  0.9150187974048056
  0.3320911562716909  0.4185801077610803  0.2511657105748035
  0.4965876963030122  0.6739965179209001  0.9667118862607679
  0.5001598139692155  0.9190752919692419  0.5873395676390049
  0.5812884866493784  0.0061725560175950  0.4225084890092252
  0.4174496696191362  0.5010987889660716  0.7489127453413926
  0.2488166872012430  0.9184506133129273  0.6685915674801568
  0.5013240213126638  0.4163405104063470  0.0841067163955220
  0.7530430815608750  0.4162652227416181  0.1699999794710465
  0.8333301368432295  0.6698679939046686  0.4995321775548536
  0.0840786407398762  0.0855164937446134  0.3363497545189862
  0.2503516922246029  0.1698673604871220  0.2518726800900962
  0.5554288964089026  0.8400705890590454  0.1016467256755962
  0.6417496085380093  0.7591088071997804  0.0607505289633824
  0.4235362208326153  0.6490892515830269  0.0691277866349187
  0.1668569803080401  0.0046873551952468  0.3365032372734728
  0.9180555292387043  0.0027951790563217  0.7498437216238739
  0.6674065164236649  0.0069996906064955  0.8306813307191376
  0.4165464130124078  0.3351824812295405  0.9151116743946307
  0.0019002930244037  0.1684562639167553  1.0001217496417696
  0.7562351359824285  0.6608535854489389  0.9124357604499603
  0.4160457619158457  0.7534922986427058  0.5026758641739545
  0.9194094309881513  0.4992044251797862  0.7497109032873869
  0.1687008724126132  0.9198185435655700  0.9162439840971716
  0.5859679490103077  0.5852738735061010  0.5001107013952755
  0.0846938929305515  0.9198085360143062  0.8306002626932792
  0.7461658270047602  0.9320874397969180  0.1713557566170427
  0.7498486570627817  0.3354159165169052  0.5850574942555382
  0.5189104212101193  0.7451976040611793  0.0579187852822033
  0.3319048697251457  0.0053601135908418  0.3373770047139096
  1.0007847591473369  0.0864926974485060  0.4203365278348211
  0.3314843444012844  0.0863163222136533  0.5864988365154863
  0.7536538484253987  0.5795607879570489  0.8294069140732629
  0.2491890133513799  0.5008702860675189  0.7483451828940083
  0.4154963623190179  0.7527172798965942  0.3339560094174366
  0.5748096954580809  0.7566837535197893  0.1742193804663204
  0.4120461209020559  0.0077240432100680  0.0856620565364254
  0.7503432635125121  0.2487801070117950  0.1706039755002330
  0.4991575290161990  0.9205257824143397  0.7485388964628246
  0.7511046741733179  0.8364963562254542  0.4169099789175363
  0.1659769897147237  0.1721713324804456  0.3360492584116154
  0.3290209210646672  0.6666272886296392  0.8289224787551747
  0.7526148608991357  0.2486261374501423  0.9994939585962711
  0.2496974922647127  0.7512484053329176  0.6659333715175397
  0.9204218536493846  0.4165179723652760  0.1668430029459962
  0.2496587396979488  0.5825164873547884  0.6671579445149890
  0.5814351417054818  0.1706458550608964  0.2543764807103635
  0.1664991908788481  0.8344871660312789  0.5032343123479378
  0.5005841471491762  0.3342591557763498  0.8326749988034630
  0.7508801303638413  0.0856250087470023  0.6680255171955050
  0.0832402643586348  0.6677203923129400  0.5826217814501936
  0.8354662904739423  0.3349708950011365  0.8327659984309256
  1.0026984002513504  0.3338664380548751  0.3341153981104485
  0.0842169826265147  0.4172964824766469  0.5010967690569880
  0.4181017877428385  0.6699520342998958  0.5846280254729285
  0.2484489742681049  0.9211798175003720  0.9978262184488841
  0.9184831525070889  0.3338324593492693  0.0853900305134650
  0.6678884712687776  0.0025186347312446  0.6674515410575123
  0.8355927191307396  0.9077072639675827  0.0947702151052305
  0.1693308284498973  0.5015934049027108  0.3358934909669031
  0.9179447380297026  0.2504018556943756  1.0004908084762996
  0.4140071515935183  0.0879661340501873  0.1679666197311110
  0.8382613481002100  0.8346771379792186  0.8307932482011714
  0.0041774494393820  0.8363310146074563  0.8314068839124736
  0.6685469597034985  0.2528127425295121  0.4190458598726378
  0.4995445612524839  0.0865235702179590  0.5837319341087942
  0.1673698143519223  0.0866762313612610  0.7487179841740386
  0.9192253070800714  0.4993664415679839  0.0832089796902422
  0.2508172960718879  0.2528145591235224  0.6671006056749692
  0.2492684687882726  0.1702110993921898  0.4194301290746717
  0.2478461659821762  0.9220885347269221  0.3379536897416632
  0.9994641803697452  0.8353387307096455  0.5021849268730264
  0.2515446096842469  0.6661474512607362  0.0802203213917779
  0.5834674444148537  0.0864998164983981  0.5020708492977450
  0.5830271585299975  0.0867660358984300  0.8322675977968883
  0.1671647448483067  0.0026851023473291  0.9993903839283306
  0.0005067051177575  0.5820848159075854  0.0819976975254838
  0.6677135709861884  0.3336203273736273  0.6644328377532891
  0.8353957792168513  0.6691008565752757  0.1704471292481075
  1.0005197856801820  0.4161052139864190  0.4184685128444851
  1.0008384237460859  0.5822051944635297  0.2525178340646520
  0.1687494969291921  0.1700443761600892  0.1672424538222685
  0.5840309916954544  0.4155348417631454  0.8304168068473499
  0.9184583537334954  0.7513041191597415  0.6656850414131044
  0.7536550509151061  0.4953109864701981  0.2538136773653034
  1.0008419435702811  0.4177228699016106  0.5843508555883812
  0.0837978116795938  0.0863764726913470  1.0004663794164796
  0.0041408721694960  0.7516922212565120  0.2555734428163388
  0.7523266610406436  0.1706416247380749  0.9184962042166100
  0.8347420340611645  0.2537502673526543  0.4184386254521649
  0.9239808085066753  0.6626177652606877  0.9056162118469894
  0.5843379561835962  0.3337578297907114  0.0837575401886653
  0.0869698963301501  0.6676943562005723  0.7484787352792210
  0.6674244976960226  0.4970151635547331  0.8308637130533107
  0.4171576784334928  0.5011252384434514  0.5819339999573950
  0.0847112804900440  0.4185196719841790  0.1678466025618100
  0.8245894551216317  0.7748296898974956  0.1105059216075038
  0.7343838799278132  0.8495283548061939  0.2573445997547560
  0.1667326011585964  0.9181913814187967  0.7497824210373122
  0.9215394427038334  0.5814852550911701  0.8312570287479116
  0.7303142353249429  0.6746699747989126  0.1111898915940588
  0.7495798727679686  0.6690084060611238  0.4147009275084000
  0.3316398927678356  0.2529636293940404  0.4196928784471946
  0.8365443463024871  0.6642623099882886  0.3402202388435679
  0.9177102870739234  0.5846753532875852  0.5011386184348722
  0.4977151741651796  0.8399582506919419  0.8289193830068428
  0.5858449045099373  0.5809904658999904  0.0007905670246377
  0.8370100745386996  0.6655645458478877  0.8326652435168098
  0.6073141754772028  0.6634458324464224  0.1083322094732260
  0.0867431634248708  0.2495827255062809  0.1670242218432520
  0.7506965255298286  0.1685054075897400  0.2520201218566280
  0.0821994004914000  0.2509152919640304  0.8313604310786346
  0.4990043181492405  0.4161499108966227  0.4186648098312155
  0.7520126796568372  0.6665514088934734  0.7483571169073142
  0.7505227103975618  0.0882365840054944  0.5041311192672508
  0.5825332624866791  0.4130540798647150  1.0016263846398121
  0.0019701903380278  0.1684295482087569  0.8326538827770307
  0.0857714933123711  0.1684348667069062  0.0850299819853256
  0.1655498568859092  0.0048458430233556  0.5055488072387989
  0.7497911474353948  0.0068656905895965  0.2530605082958782
  0.5850679844059651  0.7507210090612384  0.6705713061083443
  0.7532905991467574  0.7477308999544685  0.0100634257438589
  0.5843293583732394  0.1704167136753259  0.9167100191311202
  0.9158850515645666  0.7517220374281649  0.5007152190286147
  0.3325863735484291  0.2525747547577302  0.0828340142559693
  0.3332899357863355  0.0868617259278299  0.0824854458601540
  0.4960994963071276  0.6727616714548403  0.1546321705242626
  0.7530515763702860  0.4158655333132536  0.9996569580495234
  0.6582152557675502  0.8387317608370634  0.1598605480496371
  0.3329172229187186  0.5018570131501218  0.5023834860193659
  0.7529324003588626  0.9193820135873539  0.8330476750388718
  0.1685214390315825  0.8372930217224976  0.3375605774756399
  0.8342401444779503  0.0008735745655678  1.0011765629881146
  0.2469707381356209  0.6682575959929552  0.2519616398564798
  0.7518728690204711  0.7512486061516038  0.2029647310795075
  0.0824721443646576  0.2521823394226497  0.6675061469327859
  0.7522702061576048  0.9307247900932449  0.9924733589541722
  0.6680387098598061  0.7519339149693745  0.5836219102358154
  1.0016999243745632  0.5841997990132153  0.4189600074965194
  0.3328136563475281  0.2520642842338238  0.2517409637455162
  0.0857327663856260  0.7499500207269344  0.9983915551376261
  0.6684726879765073  0.6689145523708683  0.5012119438430933
  0.2473139159512087  0.9218471707961852  0.1683795995562956
  0.0844920541375386  0.4992430894654897  0.5801135555755832
  0.0052781774536403  0.9219383025185224  0.2518064316786282
  0.7511830382259556  0.5858034975488913  0.5002454256484680
  0.4984691278594137  0.0884723056572684  0.4215164155771714
  0.3336274014006200  0.4182683772357924  0.0845687283183597
  0.9174931674491136  0.6752573565268611  0.0820565053781454
  0.9244390140763981  0.7538478277391092  0.3363706642021506
  0.4160372703829016  0.3346375412436265  0.4204482930926634
  0.5000734090446752  0.2517298558763633  0.4205816068946127
  0.4946639921395676  0.7588436956167356  0.2574357110857077
  0.4165814646165736  0.1701448772020387  0.7473535241378912
  0.2491733072231426  0.0872404291001364  0.9980829403130437
  0.5833170378704129  0.3329491587551420  0.2516263217033307
  0.0854676831875680  0.4179650667373378  0.9996824660865870
  0.4180481298164114  0.2524299357008165  0.6666179328441910
  0.7502980782157849  0.4146094123836196  0.8288436203315169
  0.3327879729975390  0.0046099575567173  0.5052594876335933
  0.0854763106224485  0.8349491166129048  0.7488522830108545
  0.6691151582494973  0.8365454382308464  0.8375913659897085
  0.7503046429472595  0.1694865103719895  0.7502165285426249
  0.9180022666721060  0.0027485406180894  0.4205185770400617
  0.9192397189856801  0.0875816938742033  0.3372800542933478
  0.1679627938142483  0.0036036262783907  0.1659579721010288
  0.5823569403901875  0.2517482444923032  1.0009500871759391
  0.0009565896647457  0.9190758634891063  0.0829980116185068
  0.8352474995101267  0.4161630948113337  0.4184669307352512
  0.5015222281180639  0.2536103125767674  0.0829381470730254
  0.9164322462028514  0.6689212683657795  0.5812124702637540
  0.5856692221780034  0.7519439062295276  0.5017205210206745
  0.5008698464966120  0.0030579078138565  0.6666919929432817
  0.7512851620560647  0.4997020013506572  0.7484426992863569
  0.1676662548204639  0.5015416811454372  0.5018107215631068
  0.4176738746640495  0.3342632283955546  0.5852930998039181
  0.9191553295072393  0.3346802682102021  0.4185137918963692
  1.0005515414625328  0.0013893005058240  0.5046204180914221
  0.8329769701893913  0.9187711427160726  0.4190802036334216
  0.4152206283639090  0.4949329893682671  0.9117055880130883
  0.4167702856263343  0.4170055366378327  0.3371546132920838
  0.7501523897209386  0.5013556760174492  0.5841554872023738
  0.5006744721171902  0.3346229761742509  0.6661874032637185
  0.6649437119600047  0.6694797923497956  0.6670236466342228
  0.2485723198941805  0.8366987298712364  0.4221145501517478
  0.2485405449067296  0.1697763706712359  0.9158321636420186
  0.5836551049699891  0.4178499831190410  0.5014338207214056
  0.3259798146860630  0.8418912955520809  0.3421649836680760
  0.7592502891505506  0.8353418633939902  0.9116921417186521
  0.6687902002604215  0.4964558155920065  0.1682652827548801
  0.7515339946116730  0.3333046528977585  0.2508174414609929
  0.5846369606670166  0.2519519214087729  0.5018389318306942
  0.3325741068901183  0.1700450305940359  0.5035767673310964
  0.4913590307589389  0.8540927897703040  0.1861867141298068
  0.5843277334167121  0.8352145294614706  0.5857734881510394
  0.6683686715416415  0.4152398841256766  0.2520600284806277
  0.5821314179492355  0.9203783434989752  0.5032294566517732
  0.5010512936687660  0.3337989157237707  0.5028762766090764
  0.6683506626680845  0.3329539413587386  0.1682977564976322
  0.6623315035720279  0.8419387974545233  0.3424862209666845
  0.5013806931077959  0.6688428710836579  0.6683670628318273
  0.8347594225856568  0.3330325796479789  0.1682477525916108
  0.6682876013871044  0.3348099255697999  0.5019349862853498
  0.6678777230713339  0.2519523565881108  0.5843496813592660
  0.1665543725209976  0.3340345204847086  0.8321219488023495
  0.7511660260626918  0.4175107432962043  0.6664478825767106
  0.1691487863330302  0.8364577701346472  0.1664127725868189
  0.7508120526557289  0.3332180619164233  0.7485832474612659
  0.6668941220916949  0.4155338326231237  0.7471968796692136
  0.5650105086893540  0.6695152230047710  0.2548435435375784
  0.7512747202191933  0.9186337997060752  0.5015579608927182
  0.6637348153789945  0.9400207302056386  0.0897227039151573
  1.0009458180832054  0.3346759518410084  0.6664236126959591
  0.5837786116867352  0.2516539027131350  0.6671712765107025
  0.4136046020854163  0.9234991668089071  1.0003920938860085
  0.7512657555809401  0.4172156198956513  0.5023457190534719
  0.6660674625540780  0.0077220339042783  0.9979840337667513
  0.4935903870133174  0.9296750266600080  0.0856427780756639
  0.7515524067708560  0.4994157516251623  0.4205721056626375
  0.4156966268641903  0.9196776400242076  0.5039840339548134
  0.1665431151921934  0.8339883306852047  0.6653734182550034
  0.4167650854745201  0.3344901423132284  0.0841185477977941
  0.3322439381428528  0.9189877957981361  0.7493378097038682
  0.7521128003672348  0.3327223599029020  0.0841564787998960
  0.6701699866886025  0.4139305421281005  0.0841196977212420
  0.5801506995242532  0.9288682708661775  0.1718296809917433
  0.0854346489254747  0.4177978197017596  0.3350611458410439
  0.7506504895060767  0.1685344872205139  0.0841064117540250
  0.6649730289341463  0.6686206880147653  0.3310693817871430
  0.7522145224076229  0.3343229227894659  0.4191707426815671
  0.6670810179105360  0.1709565936903534  0.3366623293509990
  0.6665544573436258  0.1688508429742704  1.0007817680769726
  0.5008249298120789  0.8350914686316228  0.6689609223134796
  0.5799479023539615  0.8461060960042985  0.2553566745100887
  0.8336970931216492  0.8350979813457838  0.5008344695355474
  0.4172384542487651  0.5845981585838663  0.5018112220519195
  0.3323587786771144  0.8345561017938574  0.6665992409782674
  0.7515796634431332  0.2520527599341719  0.3350641532606004
  0.8345896057464106  0.0884136729241587  0.4205357975498855
  0.8345640385491300  0.1696766624567900  0.3359547910039691
  0.5830694180588635  0.6685421926229469  0.5839440191694836
  0.5015451118568814  0.7521323482445952  0.5852503592791783
  0.7505193581850890  0.0055171026757556  0.4213459965044912
  0.6661803766552667  0.9225805087958602  0.4218244421062498
  0.7507822361680989  0.0026313696520723  0.5848570803418487
  0.5849635170324595  0.4143016653805073  0.1695227814116529
  0.6677972038027706  0.1695941904672101  0.6667606108056495
  0.6657661056657286  0.1687305467661116  0.1683184390791410
  0.5839447185680491  0.3339513384182490  0.9170467259651712
  0.8351579610285103  0.6673049319908081  0.6666769027052035
  0.9159799350518751  0.9181476470256399  0.5024685193339521
  0.6682110654190366  0.1697628178283920  0.8342756007021642
  0.6681668957153543  0.9186441951630062  0.5851921644070573
  0.0834385162381040  0.6678907038382630  0.4181451558019884
  0.9167237573749583  0.0007268816711639  0.0838886302867247
  0.3338105957989498  0.2528641875424821  0.7496063294666901
  0.7502433900241366  0.7513125081382626  0.6682281091919274
  1.0022122010129038  0.2505662926633794  0.2505096205602834
  0.6653982598187610  0.0902289819442939  0.2546614901687915
  0.6679084745741652  0.2516476428043811  0.9170883866705526
  0.5821983504709949  0.9238727429379968  1.0037172453037277
  0.7523045378583875  0.0878234687665827  0.8324435470102733
  0.3335629827041424  0.8373793172242849  0.0013587034626422
  0.8348198726279095  0.5005738261316809  0.5021596791008619
  0.5848789813929806  0.4964284712869886  0.9161026729605140
  0.8360803576754141  0.4979993138647158  0.3361819732143737
  0.9189423232985207  0.3331477551465777  0.9168079766402838
  0.6682985524089201  0.9192167834576337  0.7518323151470372
  0.8473038111349548  0.6610060299647955  0.9847615457805184
  0.6625847278476947  0.0126656819940267  0.1734439720962696
  0.8378077722239001  0.4980622627253197  0.1669336060223400
  0.1680215169648999  0.5831092638373504  0.9145672265132875
  0.3303720207587805  0.8401252168718536  0.1676740924488149
  0.6662409617751578  0.0069401022936510  0.3383628514399714
  0.0027935408773341  0.4172757641001558  0.2507966691986140
  0.9184428056621520  0.0855847517571065  0.1681310936819438
  0.6674618169153523  0.2511177350052469  0.0842096263109237
  0.9216840876022309  0.5804435705808740  0.9980912178083852
  0.4998255353669479  0.0868794366582427  0.7496987480840615
  0.8353560306129991  0.5826504591100747  0.4196776368735270
  1.0016751069107959  0.5012451657307038  0.1677028223263847
  0.4984937832311294  0.1697170780719602  0.9995347704106473
  0.9185042884505760  0.5014606446054223  0.5834152965504839
  0.3335337426683259  0.3347056239149689  0.9996636082924754
  0.8367732698456444  0.5825018470892184  0.7483871279226975
  1.0014511857095156  0.5018082879816924  0.6658161967648004
  1.0006700670408426  0.2512964548547189  0.7496985365578641
  0.8352309612912928  0.5010574652491193  0.6659682521300024
  0.7514697751472559  0.2518556138810674  0.8330682469093120
  1.0013972975585557  0.5850676315777087  0.5829369538407135
  0.8340280940709661  0.0026921922339653  0.6672236865690694
  0.5001252556122225  0.5844185559400764  0.7505365389347400
  0.8359595729998009  0.0856310098302204  0.9170326025380948
  0.9180086396783251  0.2511283623828726  0.8332564216000896
  0.8350450938069492  0.3332911136034432  1.0001893786160871
  0.8368266959884959  0.4143365547279376  0.0842867590183325
  0.8389422992470508  0.4962201409975933  0.9994081875109163
  0.9202120086881359  0.4151497719753859  1.0009951716112748
  0.7552564800892497  0.4935223606983652  0.0840948383376434
  0.8365846796415232  0.4158875580644090  0.2510166364697234
  0.0028243702466499  0.4990606029569521  0.9993367122868093
  0.1677390371963031  0.2531229086020162  0.0827669065566075
  0.9176553326558260  0.3349235545097679  0.5848590654051794
  0.8330331592483164  0.8396309828982378  0.3302362654501919
  0.8361521735809706  0.4971698144578827  0.8299254615388744
  0.0856608346403624  0.3347537079347248  0.2515734348324752
  1.0021202339276178  0.1696544744652459  0.3357255546714339
  0.4964653003548036  0.9295082915894786  0.2612876065647670
  0.9170562781771344  0.8378026419103600  0.4168869498882396
  0.7525116129519019  0.5789880700478933  0.3386135862784011
  0.9176237186375649  0.9259923090788282  0.1745169456949080
  0.9196239732106265  0.4171565240849271  0.8317044858618980
  0.8339500838983728  0.0077913659397433  0.3405296358083867
  0.8383278754238480  0.5752234787310631  0.9123219516973405
  0.9185508654533241  0.4168963078509071  0.3336567066000497
  0.9234231376733352  0.8257961819313387  0.0671894311417486
  0.9177247577771731  0.4177688527127133  0.5016847867669338
  0.9186637601859063  0.9212368181763357  0.3357008340176008
  0.9270705970219395  0.8375552565561240  0.2551570531717164
  0.6708545593775485  0.5726346452143236  0.2582942609605821
  0.7567109086339492  0.7500534941120792  0.8310121676632266
  0.9164822847784442  0.8343978501759360  0.5843460185851501
  0.9202221496657904  0.8369388207608354  0.9153892638142552
  0.6678615073453065  0.3335912532137657  0.3358926481847215
  0.9182087599337304  0.9194393981316812  0.9995899979740759
  0.9175308389080855  0.9191820157852499  0.6668376895516720
  0.1687639322847247  0.6665107559262798  0.9985371899798792
  0.9187617574188444  0.8352583623177117  0.7494795387279908
  0.0030009987048783  0.4993772447565410  0.8316518195066673
  0.8371519908980982  0.9206998671899503  0.9141993367664523
  0.7351972516843192  0.8525858143467584  0.0648405806305583
  0.4172248982922582  0.8344367724895709  0.5865909613694402
  0.5841530404286241  0.9187920585668431  0.6684391177979764
  0.8321294161882955  0.8443016495189817  0.2039380026286330
  0.0016450042177478  0.0030723993209087  0.8319824740773146
  0.8378065012839785  0.7514016425269712  0.9167254207323771
  0.9218416668372853  0.7485334078580601  0.1735839765750763
  0.9196584472289129  0.5824825275785530  0.3375070789346453
  0.8438239848345769  0.7464108047714862  0.2607090819702738
  0.9212704462278184  0.6641499366518607  0.2545007959794555
  0.4157289185084604  0.4995102184372182  0.0821935342905987
  0.3334164513392952  0.3345043277709306  0.8320430960093906
  0.4139891913182644  0.9206926304657262  0.8308621870477657
  0.8328208333621281  0.7522070943881154  0.5849703220626031
  0.8341973886916750  0.1682732500421367  0.6669136623265073
  0.0016488532597694  0.7529938001009905  0.4197368510486720
  0.9180931598317120  0.4177651438050627  0.6668638246126239
  0.9185346148833813  0.4995849233690348  0.4185821205361750
  1.0014754892717126  0.6674001096614550  0.6658520782585640
  0.3342128475545795  0.2525322114043922  0.9150290220658510
  0.8391598947217304  0.5792314942225821  0.2533817877580140
  0.1677239527990124  0.4178374553161853  0.5847583316931356
  0.8343601569698843  0.0862950834388112  0.7498625195430269
  0.9167327590605786  0.2522060137141348  0.5024771771362772
  0.7606827820502015  0.6587581610166281  0.2613387026024435
  0.2506353791739188  0.4176005285564969  0.3348733607898123
  0.9166759671544165  0.5837235173980668  0.1648484066163522
  0.6636693834362307  0.6692309133661699  0.2110319141037128
  0.5836313924987060  0.5824475436988069  0.3341133382919611
  0.8338441004672167  0.7535888011883501  0.4143349492508532
  0.7495295559167161  0.7540712192933107  0.3305336359125358
  0.6667045357752911  0.7524507545540609  0.4165454400806476
  0.5845819575794037  0.7523303204736191  0.9572105108795840
  0.7507416489217873  0.7521540991173594  0.4992106806438751
  0.5802508958795264  0.8378315814738576  0.4216264062062112
  0.6716167733224080  0.6635103631836701  0.8300042660159271
  0.4983803509917802  0.6687422464709983  0.3427443444051003
  0.3308292384458931  0.0876077490228681  0.2523229225360774
  0.6667026688213997  0.2513097941464723  0.2521996165649340
  0.5851495432845985  0.8357197577115685  0.7523308152723578
  0.9185392688991458  0.6673423626324430  0.7496469980480164
  0.0044698611722859  0.6632114914288820  0.9970961288904876
  0.0007544661869232  0.2512420241582937  0.4192551745331723
  0.8360784064910252  0.1678096129530639  1.0014451485606979
  0.7521232830224579  0.4919501497300219  0.9099622210329273
  0.6688429493773375  0.3328548966304276  1.0003711913955196
  0.8348543783651249  0.3349893763927616  0.5020640331691241
  0.6771771140085920  0.5725945920678609  0.0748403172509033
  0.7536502182193816  0.5671127923547086  0.9904077380136801
  0.1676322383552487  0.3357649003225059  0.5027310169078169
  0.5814220092547433  0.5778891788742935  0.1801586587060919
  0.7593083559170797  0.5783971347668264  0.1724810903600032
  0.6677977756825091  0.4950347353997670  0.3382910453826158
  0.5861772054272221  0.7514710651619627  0.8378454767236597
  0.3355225262287625  0.6616546248798298  0.1558856227172053
  0.2490410606480913  0.9204087540095975  0.5036040821585938
  0.6676081289785415  0.5020797994068182  0.5009377446693212
  0.6672052206271247  0.0873678006289012  0.9154595147909628
  0.5838057044209478  0.5861504946474837  0.6684369333382659
  0.4167619930548742  0.9195641185430004  0.6672045427735815
  0.8350400620995893  0.4164280484393087  0.7482671851483663
  0.8340057702731578  0.5845923022283852  0.5840208383821357
  0.0854034714268311  0.7535287391834417  0.3364500603571308
  0.6672136473223911  0.4162741321348524  0.4206994079785239
  0.7514779200010766  0.3336561485220104  0.9168726764911493
  0.6709095464464458  0.8340532102559642  0.9739407802887727
  0.7539149847126198  0.0058449266635891  0.0839517529329278
  0.7512027898781370  0.2509147087320851  0.6669250731313661
  0.1681961867733582  0.4179894915381558  0.2512818200015395