Cr N  Ni
 1.0000000000000000
    22.0068915994824366    0.0000000000000000    0.0000000000000000
     0.0000000000000000   22.0068915994824366    0.0000000000000000
     0.0000000000000000    0.0000000000000000   22.0068915994824366
 Cr  N   Ni 
 259 173 605
Direct
  0.3061327647702821 -0.0292218454778516  0.4829213280374792
  0.7283949940852307  0.0798136420442380  0.4782685134878424
  0.3884460093344213  0.8911279540561574  0.4912658082377103
  0.8873758141428513  0.8995584022340867  0.4898938143414991
  0.8859226616811952  0.0696561327911474  0.6451361290709171
  0.3036569653234105  0.8865193480913159  0.4051550297920925
  0.8048822257807803  0.1358495574309416  0.1427128242955638
  0.3144955404596562  0.5607549411010017  0.8861617631234597
  0.4766146735531325  0.0626587891873210  0.8972754118709018
  0.4722623607941233  0.4760102072333018  0.4916758327964681
  0.6390718667669472  0.0632796423309489  0.7337837367398734
  0.5483017412843341  0.4769776122253119  0.5683458462015134
  0.7182678484298909  0.5607542534147008  0.1406120255543815
  0.4035431331165417  0.3072419855817474  0.2260753593035227
  0.6339340726490984  0.7255291994387618  0.4076226032158869
  0.3898770042033786  0.4756309182399658  0.0602272116287869
  0.7118316201578579  0.8239589271358917  0.2287975341843604
  0.6359179371291906  0.3129456636925661  0.4860334074142935
  0.7217178339320306  0.7300539797946792 -0.0187104171497421
  0.8082749814036491 -0.0222734473963925 -0.0277193216979653
  0.4764597070111122  0.3915974294490571  0.7339528394263528
  0.7161099039803789  0.7335186253768932  0.3176592250140693
  0.6440971955607607  0.8960204001598953  0.8983080665698686
  0.3869615062436207  0.4708844979913447  0.2286915695216939
  0.8950499828472374  0.0567370920014340  0.1290454756049159
  0.6425738526855800  0.3181572815665387  0.3126343105799065
  0.8731477741337292 -0.0012839709796869  0.2315811273002177
  0.5584511806272869  0.1516674852788087  0.8991806162392756
  0.7211292013211070  0.9051333225972146  0.1347357802929198
  0.8070686524801214  0.6454162557520261  0.8100982952163980
  0.8613462573690231 -0.0051514513161860  0.4047955630346537
  0.5451302468555531 -0.1117545466159313  0.4873099601693223
  0.3132791620075309  0.3081191803298274  0.8143640020191225
  0.7242600911060965  0.8143098043342648  0.7314600692119392
  0.8050947044106763  0.8170357154657165 -0.0230843258661002
  0.3899642112395876  0.0610375477810916  0.6552566877640913
  0.4922031594350579  0.1393614155820392  0.3139178756876853
  0.7274797827299768  0.8179078548153254  0.8970712030561173
  0.8866001704249235  0.2312824332921569  0.2772141516725922
  0.3099038241534361  0.8914206558052857 -0.1062947572463430
  0.4698178230115894  0.8947787830223730  0.8951757725181285
  0.5558783392454245 -0.0185171750958872  0.8960688531519998
  0.6354463762828068 -0.0219586590942236  0.6483820023241066
  0.5586614174108353  0.1495802627748936  0.5592853583570397
  0.7365021546182994  0.0690715015852771  0.3615937834160140
  0.7988360485524693 -0.0229715677743388  0.4955663019719568
  0.7428170342504444  0.1757729549520296  0.4155725842237085
  0.6752223214371595 -0.0421810592786465  0.2402603365305669
  0.8926211578880430  0.9013687248310660 -0.0265264826725218
  0.7943000356840835  0.3177397070277863  0.6593298257558913
  0.7264563799437406  0.0645355457735185  0.8259570613578006
  0.4794422052453067  0.0653460920391935  0.0601461481369063
  0.6380395368085493  0.4778717777750283 -0.0216799816760993
  0.8005771214092421  0.2290924466500559  0.0546988901386246
  0.6392047044076291  0.8893769959148919  0.7331297390863576
  0.5491634691225629 -0.0260687256747897  0.5621946115516959
  0.5447632966163298  0.7310420706131812  0.3205405170245190
  0.8076102015631051  0.3807796791257326  0.4006827686152861
  0.1437290164454455  0.3024829178252101  0.3165740120880398
  0.7182486938893391  0.3903010075730954  0.8171945964860691
  0.4790423551722086  0.3905217222141883  0.9022898490670319
  0.6383228212549890  0.8905727910108999  0.5712001252237952
  0.5520271840905295 -0.0233285614171684  0.7331749581118348
  0.5559048287072856  0.1488386526118821  0.7313592627766519
  0.6324704607490901 -0.0199065995648097  0.4757112916262154
  0.0578267420595952  0.3897367496248640  0.3097244840298512
 -0.0289560356024308  0.4825227210422920  0.8131820698682234
  0.2330303906898316  0.2276698334613501  0.4931301476225600
  0.3956479788843122  0.1503852087321651  0.8977444362340912
  0.1415272129396834  0.3047847957373545 -0.0276734973118558
  0.1580521108046308  0.2175842549159842  0.7328513991095617
 -0.0309986400014836 -0.0038281383914620  0.4914093023645206
  0.1456843265971564 -0.0217963867514891  0.8124866975370395
 -0.0200223559332460  0.4734245396165245  0.6530723359683838
 -0.0212200125238209  0.0601430452983734  0.7385165846696826
  0.8891961142347212  0.3253116032153248  0.5738223667014608
  0.0533031903438414  0.1201001206643095  0.4007721565413210
  0.3124677121569486  0.1367120067798106 -0.0213852254376019
  0.7260254319885896 -0.0238735353433707  0.7329292542224726
  0.0620642744860925  0.2309742333104290  0.4958765943594681
  0.8925915054030572  0.9072085368044072  0.1409853590038915
  0.1461966186519104  0.0622793562212888  0.0522563350089258
 -0.0208401317095510  0.6490785169642195  0.6458343492558107
 -0.0233394915850659 -0.0225652555678998  0.8062394643729978
  0.1462892467004023 -0.0181618179344610  0.9741910990964043
 -0.0250602102322713  0.3039155444868217  0.1496092029182114
  0.8952643652811314  0.5641922019006607  0.3114157246951808
 -0.0215783123335447  0.8190490052736294  0.1452184229290105
 -0.0104007327207628  0.6525434619565462  0.4831814995774581
  0.1499555911481819 -0.0268304158600904  0.1352524575018921
  0.9751401847917841 -0.0199007190192019 -0.0261063701277131
  0.8086033644425572  0.0695710817432950  0.7329811169225693
  0.2251446190814231  0.3926855807009027 -0.0224322030817956
  0.0599905340115756  0.8160241325116091  0.0487916491572255
  0.1398388988700115  0.7367600916106190  0.7312953237981545
 -0.0231468613592779  0.3839775136855356  0.5772126421454018
  0.2309214180201156  0.0479760241692620  0.3075464280532260
  0.0271440349642083  0.3205552837949390  0.7097717313665222
 -0.0143827526105351  0.5672915329696236  0.3926139308976604
  0.0674789769699558  0.5622234381132944  0.3090228931103546
  0.0585097751012081  0.6476053047614241  0.0537118147953994
  0.1463500940423604  0.4817997217567074  0.8084375095118488
 -0.0299928246502789  0.3049209294313749 -0.0191005296619522
  0.6323722442676749  0.8048977676052350  0.4870722042052030
  0.2340965891124633  0.3007780831990450  0.2253903610501694
  0.0632589538213495  0.0609600877711315  0.6575246553519439
  0.0757364291380859  0.8090564066181538  0.2205636638564825
  0.2272255956996053  0.2189803388739943 -0.0203529761136999
  0.0664873071579196  0.2941842945744927  0.2270058398147338
  0.0604667398502011  0.3101277999149581  0.3998870911924657
  0.1399429422148250  0.3941354274041646  0.8911119729144670
  0.0573846880925246  0.4730948206985957  0.3942429903203643
 -0.0222798529935030  0.5684858461818822  0.9036736462812059
 -0.0183602185078857  0.5592982204788904  0.5656443037128014
 -0.0224479550126021  0.6535989498357230  0.8156740091975430
 -0.0252631924573624  0.2219943826456426  0.8893134439386124
  0.2266512211356583 -0.1135567309067219  0.3094910795748711
  0.3159972570101942 -0.0450401001329699  0.3128430974888515
  0.5631393912211491  0.2234868976702178  0.3070628327710225
  0.0636271327131126  0.2253961809494391  0.6665434799412303
  0.1496784481687170  0.8180875134382523  0.3959218469004455
  0.1451245537007963  0.1321531584638342  0.3179317532266556
  0.8949735026195825  0.7374662663588107  0.1428596270041810
 -0.0196904527160144  0.2477474300092617  0.5801012184371176
  0.1482403972252998  0.1420232940070310  0.1437582379209292
  0.9704757617162652  0.3065583687571361  0.2874166132238047
 -0.0211879349086612  0.8270661642108095  0.3125310312507015
  0.8832842807253375  0.3938906432603392 -0.0186138312485993
  0.5542908516932612  0.0655680155135747  0.6486509587848819
  0.4768099297496707  0.3898547819911204  0.5646380206138328
  0.8098343717084976  0.0580427311550767  0.0470927959786172
  0.2896815331440771  0.5939250578902843  0.4823326873360110
  0.8901366986166062  0.8153786517266398  0.7342062005077276
  0.4670579352330496  0.7211069516026190  0.4070005730644209
  0.2258406771070723  0.7354972640674690 -0.0279882686547911
  0.8896036819549109  0.2350604764712776  0.4867368286511140
  0.1478502182665199  0.4843248790051181  0.6522021977418485
  0.4088142789377806  0.8792685748171059  0.2814417569443677
  0.2333220657762459  0.5645956234954428  0.6473096291333228
  0.2306961818908471  0.5660935009280758  0.1416428204168479
  0.3828026047987551  0.8064430551967179  0.2005768547554134
  0.6400239336885307  0.1526524085998551  0.6541421782797826
  0.7147067261648944  0.2337420762432899  0.1394578370059513
  0.3798569063725353  0.4786008360597083  0.3994700801096575
  0.9047537689732617  0.3051448871294365  0.3986437065054871
  0.4781301878317700  0.5628465504820802  0.0560584354870712
  0.8912083909982974  0.3931770366375917  0.3103559027874304
  0.9803174304101099  0.4792026137388211  0.4811584541621172
  0.3112015642274898  0.6506031349035718 -0.0249997021615078
  0.3110532085194526  0.4782661507057912 -0.0204676154748674
  0.4751605786136102  0.3058462728760122  0.8147320466034285
  0.3118794946860427  0.3925056598964501  0.8889458096865102
  0.3186342063758386  0.4745877530172690  0.6560174992593313
  0.8851138277128286  0.4802830407709340  0.8980079622231162
 -0.0183524315319499  0.5660812346588315  0.7337398504147461
  0.4806820743894927  0.2272781174006570  0.0630285017816411
  0.1465735073993705  0.3005862468226888  0.1396561184974506
  0.2315038904067832  0.6432249348319435  0.7353641976467011
  0.0565009058823765  0.9012188256620216  0.6591519219807948
  0.8903734561193398  0.7410571732391178  0.8123208105074369
  0.2273505558228846  0.6538339860388250  0.5626728668129746
  0.4033660155291335  0.1457512548740467  0.3966552994335182
 -0.0271409553709590  0.3921584415427128  0.8966439318060814
  0.8961234354830493  0.2376573260952303  0.6581281302781639
  0.8055031963721574  0.4820647745284302  0.4861222994767256
 -0.0299325036250908  0.4793830325873929 -0.0128960189738847
  0.3149861580264770  0.3012128009816182  0.3102028990823702
  0.2313884953829267  0.3946304573545561  0.3223146952801494
  0.8045124304468212  0.6440087755199816 -0.0191429647382668
  0.7237172048849176  0.5630866542402574  0.3122477081428538
  0.4792421790724743  0.3881277045858191  0.0592052863845211
  0.9766721723058871  0.4772115159861715  0.3078100288401578
  0.8892832046976584  0.6493923257400965  0.7278690813884935
  0.8917878102189767  0.6477809782531424  0.0541696387659501
  0.2310850372484436  0.1384181810509624  0.4017397943640018
  0.7978968685614968  0.4795713970958450 -0.0197247352462280
  0.4009311231103542  0.1407830249504448  0.2181439674670596
  0.3133687693985301  0.3054625830804051 -0.0211744277452980
  0.7251704908572987  0.0661031052687090  0.6539658717059751
  0.8056365316170585  0.4794901449155685  0.3112761602879567
  0.3188095093799977  0.7277601737648398  0.5775135960752544
  0.3933592526225238  0.2272726997820327  0.8140693088948951
  0.8053397668425542  0.1517280757530864  0.5161381814558057
  0.8998842945567346  0.4777674939309907  0.3957273339026737
  0.3767666027087059  0.6952376178702324  0.4900231993997147
  0.8134828758214404  0.6543267724946372  0.4881300647498053
  0.7197566296337777  0.5596124490767004  0.8134868348698957
  0.3115763266523744  0.7307616406235840  0.0562732402104038
  0.3173689987009061  0.1311120018219720  0.3141429301430315
  0.2312734160496002  0.4814359590663215  0.5620967210731030
  0.8086553137708198  0.5608771118537454  0.3958050719078057
  0.2511832091999256  0.4836462507482304  0.4154515245522888
  0.8817090782073898  0.3134745086539856  0.7437848809802364
  0.1457450960007226  0.4718683320889526  0.2897432252170706
  0.8896943353726413 -0.0225021062208509  0.7365966770021043
  0.2259100958484350  0.7336319750627101  0.1445956166549839
  0.4630591495862114  0.6487477118065879  0.3171919428438097
  0.5197286636223952  0.8346052650793825  0.2897944906408992
  0.4772542691253520  0.4784756193941579  0.1456711534216018
  0.4124798116134178  0.8305762861889003  0.3939692967752975
  0.7584057295584409  0.0425619032426322  0.2240970882922349
  0.5823149373011767  0.1154852410927849  0.3925077906020351
  0.1441744712598245  0.4759892520020814  0.1484692439356861
  0.2267500304318704  0.5656885775289937 -0.0199738721822464
  0.2275105700216738  0.7325264040688553  0.8189305857771002
 -0.0200542359693300  0.8206735525628168  0.4912713011180383
  0.7210990434237401  0.6439116759025715  0.9024410285709924
  0.6349702419647397  0.4782851458813646  0.6584835188713319
  0.6366501862414810  0.6440930134497995  0.8130916022725304
  0.4683982354129354  0.4786251022450435  0.3179067366885205
  0.7212854331048193  0.2312554124755390  0.8176264214632600
  0.5557845955990648  0.9683909069483915  0.2104572506719686
  0.2177562730323245  0.5667644848128882  0.2987859776900382
  0.6460803157303321  0.0751612725017584  0.2527856650535609
  0.3105890841138991  0.8995267069675001  0.0494839983205414
  0.8918786579908825  0.1255033339639284  0.2219775445650631
  0.6294414758564344  0.6493632465480687  0.3094682825894320
  0.7220574542992998  0.4769737742953852  0.3988185824838975
  0.5569087854294748  0.8110121755198284  0.0498675658063722
  0.7200272950978781  0.4797012772909183  0.5716261070782562
  0.4779201611402538  0.4780478851453964  0.6535316251474443
  0.8009472507049176  0.1511492172506080  0.6489109452106052
  0.5517627747625418  0.7270676164399431  0.8155086740588128
  0.8057836522028886  0.5646475424058656  0.5715665329028331
  0.5555152902329298  0.5552143253208948  0.8167095144627244
  0.5532432249079614  0.5648055079370795  0.3106100712360011
  0.5517850450334867  0.4719214983143903  0.3996813119734253
  0.8859553810066534  0.2223442156643391  0.1579067747966705
  0.6379621416465781  0.4789710799091335  0.3135964651528397
  0.9016354432568496  0.7253006297955843  0.4829343602521923
  0.2304727812434750  0.7385792998611093  0.6472107391954727
  0.7179653540545861  0.7329973169008360  0.1436529723272356
  0.8900143469622271  0.1833865814083611  0.3799407295460392
  0.8846318533029471  0.9071726792482653  0.3082999100666482
  0.3073405054711362  0.0640757171023322  0.8926721623128604
  0.8942712552018092  0.7300298096001716 -0.0215640695427807
  0.8933672437065118  0.6512060579337292  0.2257757416529927
  0.8066955768282510  0.8088160220816867  0.4903559089956196
  0.1364600597502665  0.4791670478773023 -0.0198346806539861
  0.3965313650279559 -0.0229166848717307  0.8957022238195167
  0.1410087319926614  0.3107014319616012  0.8005992745504926
  0.3930268500508313  0.0630270704451375  0.8049214160615510
  0.1443544821245472  0.1423340829263755  0.4903152147773425
  0.8869703355100274  0.7386001777980397  0.3086228675951198
  0.3133242895546616  0.3913308321493531  0.0637110305092653
  0.8033277723185918  0.8259588283281247  0.3127109706264979
  0.4027638577505026  0.0490550109753394  0.3035380683895051
  0.1506791854479579  0.8226958591481058  0.1331945659003536
  0.0596552951705437  0.0446732218563973  0.3019415102709839
  0.4015265759709802 -0.0254051579905733  0.2117501282352678
  0.1373677894032017 -0.0167362580383145  0.4961906823832253
  0.3030972012983617  0.8811296500630756  0.5794279194827876
  0.2131449516888452  0.8877045470514526  0.4793842770922052
  0.7233230736617992  0.7330224467638016  0.8089034914879265
  0.3122016159915071 -0.0195643779708319 -0.0172755889628826
  0.8069788966512077  0.6494823144342778  0.6585414425283562
  0.8965589258723342  0.6524780328737375  0.3994272587297409
  0.4749229406104262 -0.0296151300425551  0.4831657368192984
  0.6477110606113852  0.1476756572482011  0.1415161707048176
  0.8851852254211965  0.4790027810414950  0.8117549357469142
  0.3168605183594320  0.2193244908098953 -0.0200517430562807
  0.6804865352775898  0.1179854078117483  0.4124237406633831
  0.3194070792887438  0.1399184752469357  0.4023099538506427
  0.7969107221213046  0.3931882061317948 -0.0197035060279598
  0.7246620840494347  0.0662256877158910  0.7412498218735549
  0.9747268777045384  0.4813485977692017  0.9005118201173605
  0.7447431135828666 -0.0358339680254667  0.1886104132928037
  0.9841055851661789  0.5662191505135264  0.4805818852995870
  0.3007063184517935  0.8799139670562804  0.4931584965361080
  0.8013212492969767  0.2288106887682191  0.1424071684819470
  0.6192209687813111  1.0166989683376570  0.1966812782923517
  1.0530132655304194  0.2987107045756692  0.3144690381248747
  0.8833918020840157  0.9903333479703909  0.4921966478204977
  0.7210332908381691  0.8214645844449606  0.1409850937708906
  0.7193413691926110  0.7304782546753970  0.4074318422037921
  0.2309690461804690  0.1373426258358065  0.3083821836223536
  0.3542531748727200 -0.1295273636152632  0.3431530215788541
  0.4746723713023729  0.3912194266485578  0.6486471952187227
  0.9801356343218106  0.6559829184905571  0.7297005234632151
  0.8951025647864750  0.7368019496427145  0.2256206168388537
  0.0537734381917306  0.1297965890030159  0.3117247958010253
  1.0620215356952580 -0.0204942583438898 -0.0255732591372937
  0.1407648885299995  0.2178878408038112 -0.0224759079524720
  0.6028196359160116  0.0373195739771314  0.4223194271872282
  0.2193626228483926  0.9746283880021401  0.4883223764091611
  0.8978971176363060  0.5663094559720904  0.4009344138160106
  0.7988886006910628 -0.1071711274594461  0.4935118185605167
  0.2201203182952865  0.8675608983893168  0.3940648885192440
  0.3156887017291575  0.3918248209591703 -0.0238579159504270
  0.8868194596476953  0.9145062763231003  0.2241143101435992
  0.5461828217133881 -0.0213544414487048  0.6476616723113795
  0.3165743815263445  0.0433591803452623  0.3063808987902616
  0.1487823112139986  0.2298280695003640  0.4951609802116785
  0.7126586357026655  0.7380493972301541  0.2287941640797923
  0.2171025493954807  0.4898909557516707  0.3347935101189821
  0.5592750089965961  0.3095698674643036  0.3109896718224280
  0.6330117406763783  0.4793339822543482  0.5738521758782266
 -0.0166808488714824  0.2618136274745180  0.6673993475711890
  0.8082102579427350  0.4772073863943723  0.5748477468825948
 -0.0238303244807685  0.5621617668349942  0.6497122686850588
  0.8891500662406084  0.6473706443980342  0.1385135087569731
  0.0600484746947095  0.6444067268658085  0.1382093679026921
  0.5453823742663311  0.6505278302936314  0.2941382355007320
  0.1404967372190332  0.3048747076565849  0.8850209509905855
  0.5520702811374204  0.4747695618326790  0.3065030122179152
  0.4769187884699594  0.3931167549156588  0.8192620690240265
  0.4674116354663582  0.5648971162229901  0.3131857093487068
  0.3149417975855368  0.7358495032452869  0.1443069275594058
  0.6365457626656037 -0.0192728116421728  0.5607274525689827
  0.2376057408065114  0.3994500016034166  0.4081658221626241
  0.8082651062423913  0.7294554974089049 -0.0178954869858352
  0.6479493821255207  0.2346325102814818  0.3099168279011548
  0.7226666684590107  0.6448115013177986  0.8120900675815936
 -0.0161493925899592  0.5703490088930132  0.3022098596795769
  0.7218078543443878  0.4714025515603494  0.3030503345187001
  0.4650150355645667  0.8798207460728360  0.4529419857990556
  0.8827756745092710  0.4837853258184032 -0.0140729957000411
  0.8061454563007459  0.6526157065620973  0.5742546280615972
  0.2234434331866521  0.6510066549746766 -0.0282410383119998
  0.4786981129904592  0.5677954361883346  0.1417869951849930
  0.2797469972991760  0.6207342170863172  0.2865346219738765
  1.0058283930239715  0.0655830090133293  0.4483742981608461
  0.5526129917635566  0.1537618461815036  0.6429785872751812
  0.7213815870634305  0.7326044423206115  0.8963311354749141
  0.9724887311108903 -0.0197488546873160  0.8894030339536743
  0.8023364090679014  0.7402255455183677  0.3156790929075502
  0.3898379356352831  0.4763161107888815  0.1447477647321680
  0.2301777582239595  0.7338934752212244  0.7337762842831105
  0.6396090506630535 -0.0246323327120481  0.7381606232696490
  0.9025933022281658  0.6538575760958911  0.3132047367508843
  0.0659500537069458  0.2312657890796413  0.5825492783292093
  0.8082648116397300  0.5693093697182360  0.3032113084173091
  0.1422358387625794  0.3072490879092818  0.4056927180015235
  0.5846165302101207  0.1239240036017021  0.3007339585634311
  0.8683400082247240 -0.0099005565649095  0.3189587805624988
 -0.1170538906302047  0.1494726421692831  0.3018834576620890
  0.4034941029676171 -0.0362721744411276  0.2996460250929252
  0.8930025343814804  0.8236392680747512  0.3182249664881520
  0.4964693773924379  0.1392207507018319  0.4014780021854918
  0.1425782093769299  0.4848452453907273  0.8919883627101276
 -0.0630834345536972  0.2505456174680285  0.3460993738135852
  0.1445799024684931  0.0444949795448781  0.3076946399235486
  0.2315207654350822  0.3054178315783933  0.3166967319332334
  0.1497206092260998  0.0577071720207994  0.1384679280250799
  0.8092351293836567  0.5690511212927488  0.4848016932152641
  0.0605321421551947  0.3048164942189143  0.1423759434117606
  0.9708755114073321  0.3931034367004262 -0.0134482996658920
  0.7196331355864479  0.4735748179878888  0.4866192237992197
  0.1396486120918191  0.1325323808822055  0.4051356046407575
  0.3907587216009501 -0.0223165536142300  0.4794405416120021
  0.8987033759750850  0.1428467137200834  0.1354220224423396
  0.8955962636507739  0.3884489374249017  0.3992377919509806
  0.4062250188307270  0.1377119679435957  0.3057518131612904
  0.2248621862363582  0.4801611910232736 -0.0218955478218652
  0.9696060246391851  0.3068416061138803  0.8898673052861196
  0.6350562534188161  0.4747132732321677  0.4017584796447301
  0.7187292307913183  0.6452664008369422  0.1411290445073597
  0.6318368617381109 -0.1089266555958612  0.4811424282217372
  0.3799618031919444  0.4720785633174316  0.3144513458237745
  0.4564442990538877  0.8175073821873019  0.2373466963134711
  0.8458788420273626  0.1165800387555638  0.5836427766141588
  0.0654433019303034  0.8152969112771682  0.1334996896913012
  0.7787067931896510  0.0290463426544330  0.4279735313897031
  0.8910577830957328  0.4773120673530239  0.2978253003316209
  0.3891648695199220  0.0642653169907899  0.5719284391421200
  0.4856754276406859  0.7865955976193998  0.3545808189986542
 -0.0083996055422247  0.7367990661364109  0.4725996253809014
 -0.1693417763610572  0.1868801271994849  0.4418737764099548
  0.6292221049471024  0.7359421451251932  0.3181814086471864
  0.1404956266387975  0.3965527429696717  0.8035401402526814
  0.9917185775498979  0.8248433635808464  0.2302002754131191
  0.6361298682953601  0.7320105085422194  0.8078514020826627
  0.5501873646418713  0.6391427490560473  0.8128118404463580
  0.2409546612015661  0.5670296833320858  0.5547074617654015
  0.2246049199527117  0.7359400457845553  0.0585404854936264
  0.9768747445591367  0.4699589857623028  0.5669403183921130
 -0.0261121345756965  0.9095554006143350  0.4891716516466836
  0.1469333754788468  0.3893279937901900  0.3056196632855155
  0.5616543778812665  0.0664326371228665 -0.1022956549114150
  0.5527314804643425  0.8876028585353861  0.7327717788734899
  0.4647118201127223  0.4721326946908259  0.4064749297989758
  0.7185713932129640  0.4740506146724813  0.8151079035280261
 -0.1062559441717879  0.8167979839103630 -0.0268738142123558
  0.4774285428052816  0.4744063462858382  0.0561756024555220
  0.3145475765080481  0.5649620807383789 -0.0266806676278979
  0.7080238264022304  0.0227130301934256  0.2944909947471933
  0.3922989682315077  0.0652593128983486  0.8925154127279364
  0.9706795800420370  0.2179114097661228 -0.0248647058264482
  0.2959283347082848  0.6736894056985924  0.5139281807904597
  0.9926227281992075  0.3850724964465928  0.6614047430159328
 -0.1074186635171360  0.8108053379131140  0.4899469728336655
  0.2321755249061077  0.1414984507367155  0.4931091089506598
  0.0626673351154679  0.4765723993609636  0.2992818322968612
  0.2286075266119554  0.6510335823234839  0.6486331303199977
  0.2330492721218780  0.4743113781347046  0.6497862017029579
  0.8943286769257540  0.0647851382816982  0.7306993819583206
 -0.0673313123491901  0.2684164154924198  0.2156201354318997
  0.5582568071302896  0.1512857488908700  0.8145374781756309
  0.3978879692546447  0.3049802520531389  0.3192282684915718
  0.6407208963561224  0.0668547291737635  0.6439489005883059
  0.5487206333806209  0.7279314873905735  0.9006091480675672
  0.8909673831269261  0.6550546384347375  0.8165103541449142
  0.8345313186097560  0.0658375061336036  0.1912368147863875
  0.9757206428995222  0.2269691856092693  0.4905405922205714
  0.6994308543268549  0.0970730269439982  0.1881024195972893
  0.1742877719008634  0.7780724686947327  0.2005093637529164
  0.1372884167121910  0.3915017728956843 -0.0186252382296023
  0.3261679058094381  0.5311844988949688  0.4378354698661027
  0.1499872950090877  0.2974855806423609  0.2247594513406785
  0.3080619192228436  0.9760355144708165  0.8963585900938131
  0.6372248188184617  0.8032347345278454  0.5713792159169511
  0.3989608867524645  0.7626791658187616  0.4457709112103250
  0.9848970889345573  0.5677991024238574  0.8195477581750626
  0.8917921982113776  0.8231014227356784  0.1410677097410716
  0.5569771773914132  0.8955175028102561  0.9001056412640298
  0.0747292016746143  0.5597855201936999  0.3955452618537748
  0.0974057929580153  0.2762279187271247  0.7318954852746111
  0.8879734649137399  0.2382429262379359  0.5728758897074445
  0.7199210880623168  0.5642049384678038  0.4001033178128967
 -0.0266315133334772  0.3913668392660679  0.2873705243706970
  0.1405061420790731  0.7317119730717878  0.8168073630478331
  0.2279898537628615  0.3046347106400384 -0.0187953156453463
  0.9664107274690130  0.3063765878826598  0.0670564943385238
  0.6385620059956985  0.5654409744617174  0.3049123449086246
  0.3197090034333037  0.3053923350668388  0.2226947602738275
  0.8044138133060216  0.1432742247919424  0.0521906190062835
  0.1372619537319072  0.4795886520526589  0.0675800275433079
  1.0664335165026888  0.4701400122809712  0.4789549212327933
  0.8109873176276257  0.4698708830332809  0.3988451066944551
 -0.1214376954211872  0.3225747843857851  0.6601014293655145
  0.2742600725554658  0.7956948616353946  0.5953079236008162
  1.0074757744387204 -0.0126096651767597  0.2664542450188666
  0.4714396151833460  0.3870022282712000  0.4065404987052293
  0.5586461148709115  0.3112489793106516  0.7343882251408322
  0.5606947655327594  0.3921234648001770  0.6530492905139682
  0.3903107709177631  0.3916675052185812  0.8146214507305181
  0.4758848642579813  0.4764108708740988 -0.0276674055679664
  0.5583019821821320  0.3105211597749352  0.8988206471446051
  0.5620779306848023  0.3935579665487866  0.8156780069899863
  0.6326759736409873  0.6455056110259723  0.4889526530389806
  0.5577244632980368  0.5594614064612663 -0.0224642717856999
  0.4731491632249556  0.5620190478400409  0.2255909509530194
  0.5619906853053936  0.4757647114061558  0.0588722616897205
  0.5589924949113017  0.4775235889588078  0.2212759603846194
  0.5629289972395474  0.5612437944335624  0.1392120997547901
  0.4778595930408312  0.5620297282868855  0.4042437901883809
  0.4743282739742773  0.5578866372653201  0.5720729451537262
  0.3082180597451840 -0.0265015799559837  0.6539757730112763
  0.4779250502077736  0.1477697224461379 -0.0203013485111729
  0.5548818194554855  0.3909992887478361  0.4860336211372406
  0.3901139962258611 -0.0226813180274807  0.7331359854660059
  0.4741856479039195 -0.0205398234253387 -0.0233167413393889
  0.5566473160994115  0.3941131753251419  0.1431491477286477
  0.5539333799994672  0.3925757453282824  0.3109434980888541
  0.4761451716098169  0.3071584309681937  0.4865585768766039
  0.4737814577870165  0.3063898026785427  0.6519180208040533
 -0.0150955626136519  0.7356239370904322  0.2310461268271049
  0.0766246815943713  0.6440825451698327  0.3944895999624153
  0.0646914626449250  0.6413936969760544  0.5765395643984446
 -0.0339036861380736  0.7375551922412672  0.5834351337064043
  0.0684194448845273  0.5648164326885993  0.8113170985323453
  0.4011005380981768  0.2278268476111937 -0.0191939851613745
  0.0551134514201278  0.7339342763982863  0.5295431525269797
  0.0572270200873870  0.8167942285427933  0.7324920186837660
  0.5611361341594842  0.1465876844923768  0.0610139944888467
 -0.0248983831671027  0.7395547555033127  0.7313121214640625
  0.5578922835452119  0.2290884776498881 -0.0200151108336530
  0.0603541636404180  0.8942333969366637 -0.0267264658183173
  0.8085614058988090  0.2591382441517014  0.3963624687789472
  0.8765307208102450  0.3302920604342038  0.2182266374539934
  0.6420250010682736  0.1575438758275559  0.4821898600477225
  0.7983330744653327  0.3162112501536459  0.1399331696398535
  0.5541816717479485  0.5597462523079514  0.6526551592454639
  0.8838004843963995  0.4057054709359093  0.6575709798692208
  0.6393999722563565  0.2339721849311105  0.5686603516536595
  0.8835601615537449  0.3120127016400173  0.8949801379681427
  0.5507972451013867  0.0593664162742452  0.4879266945444062
  0.7941147424699825  0.2414913445029417  0.2266611145889940
  0.3999838382097601  0.3897509861278900 -0.0223143709777962
  0.7828760665231886 -0.0256073737917044  0.3147095268727498
  0.5550231029649006  0.0596407635138076  0.8088190365911526
  0.1527691686505814  0.5267303007483339  0.3859758099130450
  0.5525022527594849  0.6432227338064215  0.5719462067811925
  0.4775275532987565  0.1469343803530646  0.4848400607296111
  0.5554357171560658  0.8114922473035117  0.9010805637046579
  0.1425712079089862 -0.0210204902373039  0.6565315822328484
  0.8893193052166299  0.8987609163361956  0.6571815238757844