Cr N  Ni
 1.0000000000000000
    22.0209710057406944    0.0000000000000000    0.0000000000000000
     0.0000000000000000   22.0209710057406944    0.0000000000000000
     0.0000000000000000    0.0000000000000000   22.0209710057406944
 Cr  N   Ni 
 259 173 605
Direct
  0.4772417966180454  0.0632627111379075  0.8980686169256733
  0.4759905031337778 -0.0293402044245183  0.8119063351332263
  0.4730305089925767  0.3091252048116654  0.8172886801147120
  0.3088724959204020  0.8079548290129100  0.4748487166567725
  0.3111857731394320  0.8088502884584854  0.6468659561988100
  0.4759671519388423  0.7344591787025390  0.2284396630074749
  0.8964404837062190  0.1491216421347343  0.3889077031334394
  0.8111358704883410  0.3080221114505338  0.6444433117160805
  0.8969126901067789  0.1485256137105259  0.5601793433010223
  0.5595206071820589  0.3929350542093837  0.4711071316503729
  0.8973440388880622  0.3143083129573611  0.3909892314392400
  0.3962738895517984  0.4831550430870069  0.5635422145354925
  0.3937305300507974  0.6486075774089473  0.7361896395642231
  0.4746806415531096  0.5668677823433463  0.2357947203579393
  0.8102719441052373  0.1417294121255661  0.1515425603848322
  0.5584964545079899  0.3908491537092324  0.3112963966324305
  0.5659777334499022  0.1458835135357239  0.8970507727868633
  0.6434357189779946  0.8983816712855881  0.3938138976134384
  0.3110518697793669  0.8900692619729859  0.8976230336135763
  0.5617755599741625  0.3848161840699356 -0.0167359790404480
  0.5627669064756955  0.0607891519697452  0.6362256371798809
  0.4750697440293026  0.3134294190094966  0.1524852519285644
  0.8982578296217116  0.1435432443454624  0.0652592553505519
  0.5614603578812851  0.1457733364538044  0.7324626196481256
  0.6436553197771677  0.4839048382141827 -0.0138229894636651
  0.7288764110982751  0.1483807108268405  0.5587283700724274
  0.8103981200725058  0.5602033458048911  0.2245333585631929
  0.5579001885808753  0.2295256919659768  0.6335873838902863
  0.6417870538297006  0.4869652747552658  0.1444775641433248
  0.7296848261041056  0.9010117922487498  0.6442279620531829
  0.8124920308925119  0.2316664170239255  0.0609481674518503
  0.8107796321424363  0.6548048979807490  0.8114578256925299
  0.8119285662691134 -0.1004184748392933  0.2323942754622924
  0.5628451167142242 -0.0218764926295768  0.5521440618700399
  0.5612039056176353  0.0642524549041045 -0.0131103337550998
  0.7245274763448444  0.5642211643730310  0.3143065124418602
 -0.0239199000882494  0.7298021245133245  0.8930063713033538
  0.7278652014360003  0.3945855888914137  0.3081987840414367
  0.8138832574599246  0.3140589659264250  0.1477483410495856
  0.4787083292035637  0.5654457284216967  0.0654828883114574
  0.8916251354841207  0.8123833195630289  0.7352767998071894
  0.5615273040403089 -0.0137934691157703  0.3922451702464555
  0.5565400375789556  0.8118097878255551  0.7265690929707928
  0.8945906935700815  0.0608867945080657  0.4752226443652152
  0.3948157972643088  0.3081654268375027  0.7321632382634167
  0.4770535218386347  0.0627488906294458  1.0636951912722850
  0.6416744821864099  0.2287029649891184  0.2316974842206932
  0.5645976779550922 -0.0220763293620302  0.0613361380068187
  0.7285495835341427  0.8130118356974011  0.7338381828451621
  0.3974474351046972  0.7358151268192183  0.6457977515982689
  0.3105673427597193  0.8933801796328104  0.7326165895911597
  0.5600238788744822 -0.0273339360346289  0.7243052867830428
  0.6513514890324067  0.0606155174772411  0.7278401168462237
  0.7276857865450403  0.3984654735153704  0.1472866710574938
  0.5600260603319566  0.2343761923214342 -0.0158546131625780
  0.6483820876031289  0.4804156801123187  0.4741409102306502
  0.6420055427367278  0.0621136081588498  0.5582074370168110
  0.7243507176330596  0.9030813533909733  0.3108971355307603
  0.7251685711096315  0.0670505691461981  0.3154073912799629
  0.6463536884217768  0.3913739273220748  0.5586249094952114
  0.8984436139707729  0.4784217903720608  0.3909798403000986
  0.6433210147987849  0.3061270663475098  0.8174502419779240
  0.6484540710988519 -0.0191635139063034  0.1457639214667547
  0.9827213326881371  0.0608136054409057  0.5640040554471956
  0.6549140089344662  0.0608690024499873  0.8951938838343124
 -0.0182250903882388  0.3133851188595586  0.6419832296706810
  0.1419189612665559  0.2255463296180955  0.2396024332745531
  0.1459975852674119  0.5649425181535809  0.9011739527586051
  0.0611757142085189 -0.0189064100401288  0.3982521394911838
  0.0607599083924669  0.7359228595427932  0.6435731799084994
  0.0566080729050429  0.6512879061650149  0.7277644879376867
  0.0590973109710275  0.8094614480079272  0.5589212237775701
  0.2256942419617015  0.6503845002808655  0.3948736249842970
  0.1422680800543924  0.1402376583171970  0.1549582566567729
  0.8999463834629859 -0.1016347773849887  0.1418718403325964
  0.1543543258074855  0.5658701066330236  0.2331098054816980
  0.0650539190521815  0.0574253057677803 -0.0180210673453892
  0.0607858880661380  0.8102955772425091  0.0582494580921050
  0.8952874707633641  0.3922863797967948 -0.0188315384362566
  0.8940910328154629  0.1246706010100982  0.7289325614112599
  0.3099199617187112 -0.0196754244402392  0.4735377492215982
  0.8981285913228820  0.1442169375504050  0.2380548325201659
 -0.0225557202245100 -0.0272498763351424  0.9779462138111926
 -0.0229999839842981 -0.0220369994156591  0.8080185477349577
  0.1483469937607267  0.1462342181049112 -0.0162063661174089
  0.0609334407219744  0.1456367623968311  0.8924316379077698
  0.0568591306208627  0.5659972049393859  0.6396532230516050
 -0.0140629824562432  0.7320912186439618  0.3969904704207595
  0.0638368069835485  0.8212340233471757  0.2297811501691973
  0.0619450724591085 -0.0227103001762958  0.2292501950604812
 -0.0146058444243692  0.8974520616739496  0.2289950442131515
  0.8991780180398146  0.8983216775644570  0.3129283615418235
  0.8934229466286834  0.7257510115442407  0.6474343651620762
  0.0597776515506043 -0.0163188535192468  0.5591946921192681
  0.3108638040392222 -0.0193236594898945  0.6412923133903329
  0.2232707852997584  0.1441948082629629  0.7292778951941286
 -0.0251216265656032  0.3053271156403413  0.8115354561710997
  0.1406861090900929  0.0546877874537601  0.0659083215552530
  0.8994265478922423  0.3143553196402650  0.5627063887637059
  0.2261637560639872  0.8963573886658948  0.3113189440031343
  0.8077425545854774  0.7296894153393316  0.2288761193227195
 -0.0285809394345758  0.4789436370553811  0.8149661248177659
  0.0662606594254585  0.3956322983281768  0.8167471020812290
  0.8917015838710184  0.8143374894841033  0.0547821201362067
  0.5619654711760559  0.0582987336105901  0.8122749176095151
  0.4025585488470764  0.2281158749947844  0.6423796366785941
  0.1424874717219827  0.1441460088996480  0.3147284566767841
  0.5609113363247142  0.8942141598249334  0.4820273734622006
 -0.0177328113620936  0.7323331109908742  0.2297499752218723
  0.1430764166957220  0.3148635195364661  0.3227620984842885
  0.1366543747969441  0.1447129302219114  0.4747956599985171
  0.0678837114078216  0.6495060068018428  0.2305457735278097
  0.8950660550312112  0.4012429569371254  0.1392967196416177
  0.8947693181964880  0.6451820153220220  0.2231154435757685
  0.1474390259902705  0.7278430686797531  0.0627181210998496
  0.2227119881000450  0.1459106040391500  0.5589964001239411
 -0.0221109333317560  0.9014089956921699  0.0631144474455403
  0.7198816729739623  0.1461936629361165  0.8970947461869988
 -0.0274793353932096  0.1446147527155837 -0.0184392361341518
  0.0566285031172034  0.5671727494593735  0.8138533241230125
 -0.0184674632830560  0.5598672620920221  0.2283857965457382
  0.0309617251323710  0.2214081133728350  0.7249366088422878
  0.1439294178115691  0.3136378565475971  0.1488720242376965
  0.3088301811085709 -0.0189709277575242  0.8138149375576667
  0.0533320316095337  0.4845499877034842  0.5642766971848051
  0.1439888075914075  0.3985365591413950  0.2326192283114434
  0.2281214494894808  0.3121676658102827  0.3861911946107433
  0.3109450802414925  0.3175251280602677  0.1536673784497032
  0.8097341824849253  0.2334320822652223  0.9011015870329961
  0.5631705865955063 -0.0280474067712643  0.8967169458981394
  0.6443501018950233  0.1414878438349960  0.1490686449234764
  0.1448894951239099  0.3958604226236732  0.8962381289597569
  0.3148697602733493  0.3947957394168058  0.8977872527947424
  0.2259146635031337  0.5757234525861534  0.4752097299070881
  0.3110644542099529  0.2284386184662460  0.2406731145012516
  0.1373498743645891  0.4860822099923541  0.4743856730154713
  0.1425274426016964  0.7317023993198444  0.8961436562828103
  0.2166988182989058  0.5679430940847282  0.1463903334998175
  0.8940404226496993  0.8997552067677476  0.6493517721751002
  0.3073356109834998  0.3129541642342009  0.6472093006141307
  0.6435099470390730  0.8136279158841779 -0.0250555741808059
  0.3988628854601292  0.4833341038646853  0.7337812187923286
  0.2283120397248280  0.5738913255747705  0.8168538736696660
  0.3948403479909158  0.6472147657585171  0.5613503516461070
  0.2279351240178258  0.4815544703454832  0.7303503302042680
  0.8915903094398198  0.1455331003520404  0.8949979705577538
  0.2240545981651531  0.4810633694496196  0.5623612799346138
  0.3942343979880151  0.6463334237707149  0.0402274887305046
  0.6415174703333122  0.3135361909417964  0.1478499194200106
  0.3029215762586112  0.5646303943564313  0.0632169079435534
  0.3157256872625655  0.5697555693603515  0.7377285638218306
  0.2245597238104899  0.6497413781128474  0.2340001181523113
  0.7322504994482136  0.4845395724847291  0.5638561351108944
 -0.0206898710798376  0.3978076431262627  0.2332435839052187
  0.8154184505679370  0.3975974522714844  0.7275049889135300
  0.8104263528780821  0.3118212172128583  0.4756221555537460
  0.3899412612724540  0.5674296763317114  0.3155156586114339
  0.3089481998733964  0.4815797160417739  0.4764600564619071
  0.3882798689803088  0.4736090272430812  0.0665315975031012
  0.8102052643193017  0.3084236651530117  0.8161403103248555
 -0.0235688607637393  0.3122048923904333  0.1458233099321659
  0.3985527987615406  0.8163144090562845  0.0641883810032413
  0.1459652337017380  0.8953575542584015  0.5609734366187211
 -0.0237274530523905  0.0597463669909868  0.8929544984054887
  0.4747891880204974  0.0617007320913806  0.7341363743923223
  0.9030213864620553  0.4810265798676269  0.5633185693335871
  0.3087244803973221  0.1442326553754521  0.6439582510209129
  0.3963443124337278  0.3128710500046277  0.3857315998290824
  0.2223825044471585  0.3140505529614759  0.5596433837468274
  0.3917712456718244  0.3956175969718074  0.3125178347325642
  0.3100317904548247  0.3138086119062035  0.4732985249281342
  0.2308914876883484  0.3985905437689141  0.3176546747843895
  0.3071627740754946  0.1435381021284051  0.8181411556961141
  0.6467598646585313  0.5661712729231685  0.3914523150832664
  0.3975015540226262  0.3113800938917899  0.5581113127943937
  0.4792672359242160  0.4019295307872221  0.0563505244300840
  0.3969993455987900  0.1446871004406433  0.5579830276084541
  0.3104079541574998  0.4009300295673524  0.0628826233785006
  0.3109606745691950  0.1452733579652840  0.4696360080929306
  0.8156098333066885  0.4832999381688831  0.8160396850676952
  0.3888216341092833  0.7289207492699082  0.1441757873475490
  0.6461073759642799  0.2320419169658793  0.7285246510963043
  0.6469088202324527  0.3968602425555331  0.7247633138543623
  0.3129263429569023  0.2287241190640422  0.0675037641551869
  0.3104218742377724  0.0622404892129136  0.2401023561117680
  0.4751132176041194  0.1423551191927933 -0.0149951932196125
  0.4771516887780733  0.1448099479150128  0.1527972414863723
  0.8124379074039413  0.4839061237753428 -0.0194388661619044
  0.8970623428077925  0.3943066768375724  0.8209426971421740
  0.8038106909262989  0.7333357994469691  0.0567739068182460
  0.7273780701186439  0.5667430159306162 -0.0236241153636575
  0.3120544524256194  0.0669370013188214  0.0680322661485240
  0.4758469151245773  0.7345150107001890  0.3996787102412494
  0.2264619870876270  0.6503613743254053  0.5573823490706523
  0.2994857361068622  0.5681986139964431  0.2342881379266716
  0.4107093184313703  0.5429315599861778 -0.0218218386982286
  0.7292386809355706  0.7272699691771873  0.6440729965517394
  0.5608663745855949  0.5744602723105854  0.8039835109249746
  0.4777808791502324 -0.0250643223719945  0.1519467833600667
  0.5621602151998486  0.6547905930920435  0.0696536853361441
  0.7108512902086758  0.8886264317689726  0.1414290172817871
  0.1442896858224718  0.4035570644409942  0.0632549093401540
  0.8995643649850892  0.5686344530902535  0.4781722391214232
  0.1357145820328896  0.3139846750087413  0.4743733210291861
  0.2275107306364319  0.6569388302197104  0.7302076608268409
  0.3197667445733490  0.5684575382470378  0.9029686613102559
  0.6448399868105124  0.6521237417801670 -0.0245170311067990
  0.5603286667315166  0.4859646526360357  0.7296782508152240
  0.8128358943679501  0.5713483953047148  0.5669317707679881
  0.6486658457655239  0.6512358637614762  0.8151534385540026
  0.4834046358609704  0.7346381251817212  0.5591705002054067
  0.6480223241321812  0.4803753040207149  0.8119523291075559
  0.5944904723353095  0.5277228919333271  0.8969992089502496
  0.7312463149587128  0.4819217890053867  0.7202004145740039
  0.6364895293030025  0.7335624580561781  0.2276890177897446
  0.3889650632011393  0.5665523104654384  0.1473936175877507
  0.7240213912640012  0.8176339671747738  0.2256107165027244
  0.0611902308470663  0.6387088241860355  0.0603695534821766
  0.5575375163436206  0.3961928487120620  0.8082662182778776
  0.4726893468964458  0.4807139075984861  0.8200656653631763
  0.2293012931376385  0.8139059635229444  0.0605851978601423
  0.6420274112977149  0.7346016778140902  0.3989490587375031
  0.5602055973602368  0.5713795971910391  0.4777386068796221
  0.5601236515977667  0.4824726457596015  0.5623381634444954
  0.3953535069841693  0.5728413702606524  0.4815682294758890
  0.5586199143909472  0.5632952371338246  0.3049342063803789
  0.5639987658028357  0.5677381671742007  0.1478630251244978
  0.8074704161800493  0.8897480201056644  0.0425399437533037
  0.6438016628278170  0.2278422504740540  0.3983187993726799
  0.3974291064449494  0.8932290784213062  0.4758562820904644
  0.7252934591554830  0.7324806000557149  0.3129967092786832
  0.5033125777703875  0.4780823354701538 -0.0453193623952993
  0.8959937696627504  0.8174379381063180  0.2258377238086682
  0.3966534890367091  0.0619732638051846  0.4710529479194159
  0.7306266261959248  0.5644884013365303  0.4771692921420613
  0.1410960069568857  0.9002200755005684  0.0640054030885858
 -0.0251464307409934  0.7281181265798948  0.0573863355942972
  0.3997128530037094  0.1435467119562727  0.7314663357807641
  0.2232554740168247  0.3114262853380673  0.7336135829864509
  0.8135292336671330  0.7336067612440585  0.4001500298959966
  0.1345259421093574  0.3156479380484526  0.6433174658997820
  0.0585990715314487  0.4816391409436542  0.9010980713076695
  0.8126088046356778  0.8995205924725286  0.4031658595249672
  0.1411480242649476  0.3122142620958470 -0.0222178746792856
  0.0600293114581902  0.4795233403928301  0.7286458376619740
  0.2261970823993253  0.1452732000531667  0.3847259086976606
  0.2220867622669472  0.8951362126367509  0.4767964151122017
  0.1445629377941083  0.5636741090672615  0.7333929427306998
  0.3946358966210928 -0.0201124619189449  0.3848206703628616
  0.0582731656162513  0.8965456099104845  0.6485366033953489
  0.1442294550537783  0.8943229437376705  0.9007314961681366
  0.1449281028957893  0.8957815521077365  0.7314222350982041
  0.8949613373789322  0.8102583913241033  0.5607283890972115
  0.1451068513223410  0.8073266758301950  0.8163062554710422
  0.3117079503075570 -0.0250254333462030  0.1537067744812109
  0.8083551660625484  0.0584278009783447  0.8938897937239597
  0.6401106540868247  0.8142163170795783  0.6422658482860860
  0.3113632202076379 -0.1031126238999881  0.0644836799553780
  0.3931157530902165  0.8971494016262779  0.3117919465157449
  0.3004436572127518  0.5630272702429844  0.1479621883291014
  0.2237443372057624  0.8082193381422836  0.4760039224203226
  0.0588249896684369  0.7358401080379284  0.7303300194412194
  0.0555229972984701  0.3164112504902269 -0.0227695173105525
  0.8097913321819020  0.8163811660629823  0.2187383358203405
  0.6443826726028288  0.5672506373762491  0.8359715125598222
  0.8138911006374667  0.5712527247160881 -0.0186806277371466
  0.3924954241429728  0.5740600257784962  0.3981227770660072
  0.8970739524782160  0.7327883941333272  0.2257018960264013
  0.8927716190940846  0.8985723990366508  0.7360089211115486
  0.3140382825788443  0.3152418096626944  0.0647003689930018
  0.2274154170229580  0.6530148005620623  0.6420991810011625
  0.6488760249012324  0.1466289686699369  0.7286037380093593
  0.1446263656206087  0.8137337298511541  0.0649823562747970
  0.2210309284791840  0.1443511113600500  0.8161695194576803
  0.3095070488644202  0.1430965528965096  0.5560999979021063
  0.7271798533739936  0.8143308614831533  0.6440928721789690
  0.1366207127761099  0.4824328285971062  0.5604976027700539
  0.1450565706200317  0.8965451014791098  0.6462059627886449
  0.4693947189473287  0.4843781782196942  0.0295276531312700
  0.3881496560814574  0.7359002141488947  0.2280968641885750
  0.6504127935641524 -0.0219167025421528  0.0605343176529008
  0.4757809365212319 -0.0265731912737586  0.8983464946212867
  0.5649177074044960 -0.0266950050926940  0.1521553000530671
  0.5574186948119823  0.9009497413362678  0.3963695591445570
  0.2349778613142946  0.5702173230277131  0.9028638453839352
  0.4028583603796195  0.4814291950761111  0.6490920168452351
  0.0609384100312074  0.1459034787804957 -0.0189632485391707
 -0.0259290492962475  0.0570774052651527  0.9836523793042732
  0.8110338109946791  0.3130219859625441  0.3893506867362448
  0.7268101439872994  0.4759485704086250 -0.0192234977877214
  0.5839310851171486  0.4509190657817806 -0.0653557242733848
  0.4768249425522352  0.0603842780006590  0.1530854780781599
  0.8952417978360188  0.0614651728232634  0.5631548487517452
  0.3999265382651057  0.1422700316051895  0.6451069608502414
  0.3091333300515478  0.2301569775015509  0.1549224694569986
  0.7308910631519863  0.3958020644481587  0.7171901339708145
  0.6464471830296162  0.5729196510810560  0.4786128289623263
  0.1570106948993597  0.2296044515222855 -0.0259209428626203
  0.2304761610667496  0.5701392786998090  0.7276754393103753
  0.3148393803500424  0.4818062023279732  0.7367890067962397
  0.8176003201681261  0.4833659676009259  0.5628834004442453
  0.8134670399705635  0.1392065679472410  0.7243392414119791
  0.5629822108265937  0.6595381548751887  0.8122676292328562
  0.8136299428307505  0.3081207749084087  0.7304866935460218
  0.5584913182601190  0.4857990700067007  0.8203840827439143
  0.9829498018423358  0.1476439410933021  0.5672152062110456
  0.9022772699552498  0.4810061818890614  0.4772778543403475
  0.3990000686213643  0.3135816867450689  0.6467640966489855
  0.5568706916214043  0.3977602154184661  0.7224965878249795
  0.3068070533638598 -0.0199792053243200  0.7274031257010329
  0.3123025486750725  0.1452794186089812  0.7316704876606334
  0.8144814961298988  0.2285212196155942  0.1497655009643283
  0.4794442541363040  0.5653315138984955  0.1513104112998876
  0.3934270675747263  0.7303589516929416  0.0574488595431002
  0.3880266822320942  0.5613555861226295  0.0603255234912315
  0.3873529807360800  0.5632750984709325  0.2325506255313289
  0.8119687791733502  0.4031785357569173  0.1450423883769799
  0.2252311572613696  0.9000900726497861  0.0650429794004179
 -0.0243227590514306  0.3106074233016104  0.2319053777388643
  0.9017220499405172  0.3138118826077040  0.4759744909022166
  0.3076659051142179 -0.0247965653773082  0.8986466140536895
 -0.0231962530694638  0.8156443972694480  0.0580089599163151
  0.3938392484932807  0.4841600556092561  0.4748964996779462
  0.4780344945663027 -0.0261998194672169  0.0643922057623773
  0.0586645242015364  0.4808220992845094  0.8158759907540074
  0.8046139842353278  0.1458232532696803  0.8953941167175297
  0.1471872433464785  0.4044023818659180  0.1475205867676545
 -0.0979337059730079  0.9015940850319324  0.3978801750442991
  0.9014512339485702  0.5641173600858057  0.3912558256016760
  0.8120210531131028  0.5713588222839230  0.8119936608822682
  0.0694467340814735  0.7370605718955124  0.2306908810121033
  0.5596176209904482  0.2293992039984056  0.7165449569219512
  0.8146454345200640  0.5725165863049853  0.4806856075779675
  0.0622834115629553  0.9806531515999763  0.3139445192612812
  0.3099857139114793  0.3141233515130336  0.5595282191079928
  0.6482066323745906  0.3918671538094085  0.4716262045399525
  0.1458235524547503  0.3119104891042227  0.2377619779405089
  0.6400045410984498  0.5674672708753487 -0.0405916878481616
  0.2224673165278463  0.4882170041210710  0.4731289744859415
  0.4709871982440961  0.3951453846125013  0.8213722866056978
  0.9755841307805125  0.1492054040316705  0.8888568429757644
  0.0597587731796108  0.8964451823246651  0.5586177350856305
  0.6469016597857246  0.4817534182517156  0.5618056444423913
  0.2237802402702913 -0.0194466565592277  0.4755260881449358
  0.5669377114248342 -0.0316429198269884  0.8113789141844198
  0.6470216315801497  0.4897321456842494  0.7259348287301043
  0.3146076146335731  0.8946910384958190  0.6429745861745629
  0.3069727099386047  0.0624515867177228  0.1550598929347359
  0.1447695802107622  0.3182915810419558  0.0624417267233298
  0.2314945440752070  0.3934119802826107  0.8962616030664292
  0.5580453437906930  0.3061396667953802  0.8179838412220288
  0.7273479865567346  0.3134432278575111  0.1446990317958589
  0.3980274319488366  0.6496468574600570  0.6505776260836809
  0.0576144305890312  0.6513959286768265  0.6373662402837325
  0.6411437262981682  0.8133483294426623  0.7316869314130504
  0.0617160841860952  0.7225171093438667  0.0587835175757348
  0.9724759224519066 -0.0291308954751805  0.8918954582557189
  0.6430397947640046  0.1486313555539935  0.5555926708131762
  0.1420047438525049  0.5709160220476204  0.8178486469923274
  0.8117026639585959  0.9065341122348587  0.3174807594634330
  0.8108104632362323  0.1433795318237716  0.0637824315666068
  0.3112096915774857  0.8086809314251402  0.7329588714258070
  0.9815564519669038  0.3905732830036764  0.8148095705747795
  0.8166800061159126  0.4866783493994584  0.7296047339013475
  0.8952095834011714  0.8106983858862521  0.6483805450130733
  0.3983854999638121  0.3143779498623426  0.4704599887291423
  0.2183174027384463  0.1427904985832537  0.6435807189587871
  0.4727008922347977  0.7346330718157901  0.3159303387201107
  0.5651245966121005  0.1498896787849005 -0.0150223385725966
  0.7197461422841432  0.7299095157255655  0.2215925736400992
  0.7263087581979518  0.7310935817644453  0.4033287642364977
  0.1436679398558736  0.8942897496419728  0.8174673427606496
  0.8949699053028474  0.5554327909459441  0.2236974968772636
  0.7281684890587002  0.0616528043193380  0.5595477892882883
  0.5574464745513369  0.3924957997452186  0.5578734800370413
  0.0534951263391937  0.5645511467317151  0.7255115796955295
  0.3139980436378135  0.8110471754851463  0.0657072096983338
  0.2209908123370064  0.3164765236102276  0.4711952735393913
  0.5605263923680519  0.5731936146360436  0.3896156615168749
  0.8100972491990858  0.3130450015634764  0.5608587202790899
  0.6461580507713900  0.3926093648925236  0.8166377136172487
  0.5579556357140131  0.4750975663184313  0.3063616420962240
  0.1482004464647441  0.1379312078348550  0.0697971947703150
  0.9823624355916980  0.6457804595003623  0.2282809734501152
  0.4761218588924861  0.2290085494053871  0.1532901686299994
  0.5630844218468666  0.0601670536938482  0.7236313313162518
  0.1428412449616903  0.4803591081664820  0.9042051946864109
  0.1440958336313519  0.4762924001698346  0.7283417759081605
  0.9002013809678669 -0.0919760962020598  0.2260157810813524
  0.5562816614918800  0.5722046542506520  0.7184504853857403
  0.0699459786370235  0.5612363637067376  0.2299356500112269
  0.3113373876835668  0.8927068550626955  0.4749011047162758
  0.8925781937719088  0.1465159959243809  0.4731668812830257
  0.8872725005625004  0.7260826214858307  0.0554542199798482
  0.6407612280537868  0.4024292814255461  0.1463662806375082
  0.2217134527698236  0.1463600677441769  0.4695503703249134
  0.5625982894764274 -0.0258768828785005  0.6356353073649240
  0.8121723401962986  0.7297834679836523  0.3157819287672680
  0.6379556089263682  0.7318410686807507  0.3137616773632476
  0.9796236805538651  0.4000918166502236  0.1453798315501304
  0.3156539601073732  0.1451126051662427  0.9028573381699065
  0.7204937187106303  0.9066004498211985  0.2244099969175787
  0.9020265400660941  0.7319116511238192  0.4012811784366755
  0.5588746944298478  0.4818685892297525  0.4755379575773484
  0.3969639027053049  0.7327012800484214  0.5588774354685692
  0.6427479258653300  0.2253560868926338  0.1441969005066814
  0.3673723157434867  0.6139813962651232 -0.0412813582483130
  0.4738311698970368  0.2299187327000353 -0.0180814537020464
  0.3120543019250209 -0.0167656293023790  0.0654463892643052
  0.8126263485526833  0.3951306035304114  0.8203434178411489
  0.3991419607306064 -0.0224919673397654  0.4727702021281245
  0.8062608365417693  0.6420933928655151  0.2218130520174346
  0.1449855217023035  0.4034022102323333  0.3186969402584490
  0.8915148227245918  0.9035984310609150  0.0524802175059740
  0.3090158077417829  0.3134889065449193  0.7373686685234058
  0.5674243836379269  0.0591557244481059  0.8999527078543460
  0.9004203965750861  0.1424866128458740  0.1526055612830640
  0.4738735041851699  0.3971088586921899  0.1431609603790520
  0.8993970462186172  0.4762325708520277 -0.0198167003759990
  0.7299142674404456  0.4796687254829448  0.3095655133856502
  0.7269453280278848  0.9022697583215715  0.4011785131066535
  0.3097947512277731  0.4846575184087417  0.5639798131882595
  0.1402320766285482  0.2254299392184246  0.1535365739742787
  0.4733038281438014 -0.0260674890347100  0.7244851459948498
  0.6466288476889489  0.6544667463988116  0.0616414362923477
  0.4799253271211187  0.6516304536914455  0.0537513960611567
  0.2185305629103276  0.3151229633818330  0.6474985480443838
  0.8911239852041745  0.8958445313572985  0.5623670577972694
  0.3993886195571956  0.1467569192715949  0.4689956439143103
  0.6446541417298854  0.2281829878120766  0.3156851054184892
  0.0661359154240615  0.0598531231812451  0.8926815653237306
 -0.0176537162302798  0.2942406478858089  0.7259167477345676
  0.6466916334760118  0.4842217844503237  0.6433525208058228
  0.5609996998944174  0.5705131527172661  0.6362115639379329
  0.4824788929309650  0.5688193726330104  0.8930945395065085
  0.4823313291854991  0.7373282320596450  0.0646765667791598
  0.3923999458719261  0.8205864245869291  0.2293974815916072
  0.4761762697187742  0.4844986499750518  0.4771591297104723
  0.4720218488797604  0.4789978153168744  0.3099623098925618
  0.6484210246657216  0.5777170158987509  0.7198072121005553
  0.5618143797427064  0.8135512548967897  0.0602463156345139
  0.5625651375440065  0.7346683912727351 -0.0232746101274630
  0.4789285187626388  0.5695369787095170  0.5592531855708246
  0.5577129322047567  0.7345900410706181  0.1491895828778331
  0.4724905861420939  0.5667401512938982  0.7328922301189096
  0.4775090099288484  0.6479686281287395  0.3104457809290233
  0.4736862729081307  0.4799077979727978  0.1518348888097542
  0.3919599349589725 -0.0221436407387181  0.7311357533045298
  0.4789470331687619  0.6521435319204835  0.4801938872642247
  0.5600589644286927  0.4808566756416898  0.2227575781789785
  0.4768434994890113  0.5695577372827960  0.3924896807532253
  0.4777840503605118  0.3134151165989806  0.3122288039032562
 -0.0282694223196477  0.6504404675929020  0.6437231292440853
  0.1415423438295763  0.4817841355239663  0.6445922652560241
 -0.0218676403272412  0.5666249647976163  0.8947520613240257
  0.8966906776398417  0.4816964835804852  0.8949304211175354
 -0.0214031485392432  0.6478373425969512 -0.0244815600287860
  0.1424394087239819  0.4829163784039021 -0.0124168936920072
  0.0627124355490747  0.7295152583738551  0.1453210633281470
  0.1438334310271854  0.5661395157360694  0.0622003377217427
  0.0640921442176984  0.7324988113633027  0.3172087701456570
  0.3939824213044746  0.3990934860986656  0.4748314757026355
 -0.0169078331523353  0.6497226597498400  0.3158358797372741
  0.3118779824077736  0.0567467415593976  0.5577604988136328
  0.4780927902244357  0.2274403119492386  0.5556935621593918
  0.0584294079870615  0.3984609380806066  0.6435234230609114
  0.5607863308097344  0.3953759406300262  0.6407969783574436
  0.1462377622769284  0.4882298168969208  0.1461971748062942
  0.4762631836464128  0.3949877572529966  0.3904897072919242
  0.5591837908523426  0.4847571020024313  0.0631093059356486
  0.5607185125440928  0.2284992822867488  0.4725255111424272
  0.4810171233228442  0.6552157138144876 -0.0303525827359622
  0.3966589616367129  0.2260666983740374  0.8136944871387515
  0.5573468216987997  0.5774342191134091 -0.0139062073911822
  0.4756192840334468  0.2255700912921705  0.8961677302476875
  0.5611907678405048  0.3124287211215001  0.7235366559952328
  0.5601314833068071  0.2207430585447288  0.8200329032443709
  0.5605175170392586  0.3084515587265618  0.9036555556432803
  0.5600329742019852  0.3117606722622651  0.0659284522319581
  0.4789484248957300  0.2288105320757011  0.3905488561100081
  0.3932310989303677  0.2288206508839326  0.1535036523843849
  0.5606270639868226  0.1447202090408693  0.3931134299767047
  0.5601879466974257  0.3132903897243925  0.2312219693680301
  0.4835715275438700  0.1440811573518230  0.4737417320958099
  0.5582416635957854  0.1449269744876088  0.5567412311856687
  0.2270712281133169  0.3953841938866229  0.8107671892487274
  0.1443484000388364  0.3134907263711693  0.8146700859649569