Cr N  Ni
 1.0000000000000000
    21.1326705523328755    0.0000000000000000    0.0000000000000000
     0.0000000000000000   21.1326705523328755    0.0000000000000000
     0.0000000000000000    0.0000000000000000   21.1326705523328755
 Cr  N   Ni 
 259 173 605
Direct
  0.8331609396090746  0.7423029592117177  0.7562752520481272
  0.4990790234468668  0.0847433887097108  0.2500476343834233
  0.5782912028640398  0.8284679235705171  0.4091532937943039
  0.5849661848129749  0.0037936683537532  0.4159559671673910
  0.3271107234922854  0.2480573951004182  0.9171506127876147
  0.4175951390215360  0.1608130267602904  0.9202178449193986
  0.8292969322401935  0.4176583099834223  0.5839116080422792
  0.6828370573705626  0.2566381673075355  0.9211956952095623
  0.3356579735802352  0.4249494021052660  0.9171208173932722
  0.4946071920598692  0.8251064454977838  0.6625555984344298
  0.4181581830010686  0.3391658968176906  0.9173133585902052
  0.5007621671532323  0.0005105096221865  0.6728208851771962
  0.4155789416913645  0.9093042404380427 -0.0040877888233417
  0.7449061283193417  0.1662066856562096  0.0869423487459494
  0.5828948715860438  0.8289175965542268  0.9145445241742403
  0.8292381774050983  0.0954600094484005  0.2487513375683967
  0.9035502500606226  0.0023577353446920  0.7499165313163421
  0.4146174258417695  0.1643168293043372  0.7480149276975715
  0.3306818785765542  0.5923531323535274  0.7454172356607908
  0.5828483759948263  0.0889903908689076  0.0056602185514209
  0.4223020448062952  0.1643756503947570  0.0868635342119784
  0.2522805338789618  0.4221981185849375  0.5016516629067216
 -0.0162484113392020  0.5011170382222042  0.8269349752100860
  0.5022815090924663  0.8270288274397093  0.8311034470653441
  0.2480555662988769  0.1657442908081086  0.0894480098718700
  0.8348842197272721  0.0094165424209391  0.3350448985164112
  0.9004187786425610  0.1696705340584937  0.5813703579538990
  0.8250795322290300  0.8356338917626777  0.4980716374123720
  0.3348378269344049  0.5837717099838000  0.9130958081510400
  0.7377547743399051  0.4030864059867866 -0.0037341932428558
  0.4168475481309671  0.4173358199553259  0.0027530610088701
  0.4171964148190104  0.2541576483460305  0.8324364730999904
  0.4984411970182075 -0.0000421028947286  0.0021302873612588
  0.3329088578962747  0.3329398575457222  0.8280082438146518
  0.5785213802713991  0.8278381662795298  0.0885888516218395
  0.5943134402898046  0.3394255505257617  0.9207060102619538
  0.5053181662433143  0.2500728255892761  0.9260807921802510
  0.2466673685283299  0.3333249352426405  0.5883220835338442
  0.5761044773119055  0.2518717860061943  0.3380785660145231
  0.5814377383991755  0.5033775582385569  0.4155985727677766
  0.4999694866878284  0.9121824074889201  0.2507834149752737
  0.6600099872971857  0.6554457471273832  0.4994325407419515
  0.6644288332550923  0.3360406736830269  0.3374256966218502
  0.5826393533224764  0.4169389648222075  0.5074415486655973
  0.4158991167670187  0.0831230794089642  0.6671138536415329
  0.6782929803698297  0.3421283153225160  0.8323193190714354
  0.5051044903556370  0.2510534673682813  0.7478778441185481
  0.5858054539841312 -0.0027146576290834  0.9162405533234368
  0.6602165815090092  0.6554468794208165  0.6637087415465657
  0.4160745841622146  0.7425771090854580  0.4998123542347936
  0.5834318054303199  0.5818305724799131  0.8298584275228534
  0.4099869082298935 -0.0011573474635813  0.2506300934357866
  0.8234441759116489  0.4135937180063429  0.4189418763611917
  0.5826439781516588  0.9183683640384512  0.6642333815531103
  0.6785034346317899  0.2526228386019884  0.7440911181056251
  0.3270961717756269  0.9115693098550725  0.0885161483343307
  0.7447731070975279  0.4900688837027050  0.0817720237929394
  0.5916306158914215  0.0854319750500020  0.8272491726575969
  0.4982634714012403  0.4227826127487774  0.2538512835362106
  0.4120755037601080  0.8274215679039094  0.9209634473050885
  0.7389207336978595  0.5006306611547785  0.4148795347944051
  0.6619345721652191  0.3302525924137548  0.1618379451676561
  0.8297512254295171  0.4216144275252558  0.7429491179659076
  0.7460218160078903  0.6654087804000300  0.0810323644067101
  0.3329305218184120  0.4163399352674114  0.0892754897529808
  0.3306957880258126  0.4208774662406998  0.2591315025332994
  0.0823595713504754  0.6572135982335988  0.5893360985323401
  0.5831125927273406  0.1622066651313682  0.0867437137061930
  0.1580244099250826  0.0820798650761509  0.4149589186183993
  0.9046760667850809  0.1687646155105529  0.0882988470188235
 -0.0041521829371658  0.5031018330154511  0.5006508733146628
 -0.0053365627480241  0.9228631999332672  0.5893517957223141
  0.0858225857894759  0.6597331892380699  0.2416261306933923
  0.0814870943947759  0.1646700753298218  0.9179806238719846
  0.0765605294570060  0.0946800881676326  0.3305627010432605
  0.0785939718976897  0.2429848328606107  0.3339885393075807
  0.0916003467198424  0.8312658964371757  0.5849368149026987
 -0.0029071985958782  0.2586639480092209  0.0850605211350167
  0.0773889389028384  0.1685722941476971  0.5807709912356852
  0.9053472991185132  0.1640952648187778  0.9138740575647338
 -0.0073333598807800  0.0888551659563284  0.7474297614521431
  0.0795906058678559 -0.0060301559997599  0.9195606574549026
 -0.0058639419648691 -0.0033489409796552  0.8398389325871342
  0.2449061589524901  0.1728650291382390  0.4141551919973629
 -0.0072796166253685  0.0787971534210774  0.5829471619746416
 -0.0019785707761076  0.8363667920359271  0.3271702066138674
 -0.0042824302935360  0.0076328330032691  0.1686014479764271
  0.1674341771209942  0.0817949691625339  0.5832997686433437
 -0.0100193282023219  0.0901054242783026  0.2473512912870370
  0.0819908723925911  0.9162722372496600  0.1680098567806613
 -0.0072420856095322  0.2507031743853353  0.5830058238377884
  0.1717449459118199  0.8254941308053064  0.1690249685685679
 -0.0019489240157187  0.4202148312400037  0.4243484807299794
  0.0672959366544631 -0.0020213692831006  0.3971774382377348
  0.1672953325524882  0.0794986874632797  0.7507546135508403
  0.0923555718530683  0.9290449640610332  0.4861543889215001
  0.1696267926995079  0.5054987372907664  0.3328098066385175
 -0.0048746491609689  0.5005821739067382  0.6651233420604176
 -0.0100943364865960  0.9205364402938141  0.4181097297449205
  0.0019416231923225  0.6625863583662169  0.0049077571766748
  0.7462415195732411  0.5824206282811624 -0.0061812860474803
  0.0739431268224101  0.4994009143439760  0.9191968606520265
  0.0861212537268982  0.6649052969523997  0.9189252612511727
  0.0812292681092091  0.6611512710185277  0.7442284081568407
 -0.0044360665478566  0.8316278242950247  0.1690729250534889
  0.1624675550422800  0.0025911251892791  0.1637436205441299
  0.1718431285481128  0.9129089601492442  0.2528837423247920
  0.0655883469771437  0.4103007006400661  0.8288295231946401
 -0.0101683867119213  0.2531125770082139  0.9103772924529142
  0.1569159137440134  0.8289870022667697  0.6687339662779628
 -0.0086858029040244  0.3390291583720512  0.6688133094412831
  0.3265574951948599  0.0007525361227847  0.8328390837805556
  0.0754944017207457  0.9146610348285874  0.8392990434580564
  0.1639126698609802  0.3329165718481792  0.4988389492576939
 -0.0096423967920970  0.3305299736767536  0.4944913678990145
  0.1617598604803513  0.0784361275969311  0.0829749642568672
  0.1595127531572736  0.2534783676027747  0.0874986997768833
 -0.0026491505952051  0.9154562219875917  0.0750082308817905
  0.9082460436575571  0.4146166298439402  0.3317156420637636
  0.0867982592746843  0.4177592252603863  0.1661847606428685
  0.9088603163393107  0.4190686342839273 -0.0017230466324190
  0.2413006246389049  0.1616336365142588  0.9192340026126103
  0.1565718356536487  0.4129474180130703  0.9124060401898770
  0.0022390511548078  0.8344980533418894  0.5045676020144346
  0.2454304676218934 -0.0031816648070284  0.9162846113105945
  0.9148051158710827  0.5835797178589058  0.1704417440140527
 -0.0040496975434130  0.9193366721388017  0.2513696984284065
 -0.0034006009993989  0.6597383416099267  0.3335357038987701
  0.5031972674423995  0.1708645226163609  0.6609483939587131
  0.3232256119205642 -0.0036357784340476  0.6648194019576845
  0.4070408530996824  0.9102761811068267  0.6630383093142777
  0.6716504270062109  0.8349970841267285  0.6608603420335436
  0.0876420854582566  0.7490244966830008  0.3250454502762012
  0.5789045839459613  0.0019301796439961  0.0908608817425523
  0.0960741279157850  0.7491915817118975  0.4989878899497108
  0.8221434452938243  0.9189939921960850  0.5851185740311556
  0.2410861705998378  0.4188820107858138  0.0061297922192573
  0.7493548902752991  0.7479347343119319  0.6626385042122840
  0.3348658735216765  0.5109287860916305  0.8323604783864367
  0.5813179921507967  0.6614714023067999  0.9100147505654339
  0.0768584249381281  0.4247556358109837  0.5005420439337418
  0.8353508459025132  0.7509168698700517  0.9072873318591377
  0.3340914479203335  0.3332044952606004  0.3443778680700651
  0.6546922467941519  0.9156485736049550  0.2489040662401415
  0.7432226337799017  0.7478540483132414  0.4995463334923311
  0.9168843716829658  0.9212391115514439  0.3302202884405144
  0.5760863079754853  0.7388837700005914  0.6647721321301732
  0.9123419597587582  0.4958901751273402  0.0821759993200829
  0.4962836579038359  0.3350015950928666  0.1664468831081419
  0.9153736518570552  0.5895089637729182 -0.0021235503460294
  0.1635583393823676  0.0885239728060084  0.2537634200790177
  0.8980215096872479  0.9069026736511434  0.8466114914865090
  0.8277478706003523  0.9274049825174229  0.0803512604204440
  0.3270847686009878  0.7448240041391222  0.4103803110137225
  0.3326740881681516  0.2521622287531862  0.0888724041705729
  0.0832317284268487  0.8293460306979489  0.0782770331721429
  0.5766765752125764  0.8298442124892883  0.7549345944514317
  0.1610189262529536  0.5047320745571289  0.8308153963731151
  0.2458659006687119  0.9160418622518409  0.8346745168620260
 -0.0004290611814740  0.8222219482569129  0.8325867184959042
  0.7530866039902897  0.8410306218103973  0.9151507214754727
  0.3327170500434152  0.0828074221084103  0.4190405448611422
  0.4196009160017193  0.1712423530249675  0.4213681794403235
  0.5694747066983236  0.7411679698288988  0.4987746811546074
  0.3281415281887343  0.9109628417033475  0.2518282532302495
  0.7466422940348577  0.0849545630651027  0.8336599631120396
  0.9039851441524998  0.1749908267819977  0.7464024483443708
  0.9118936244056707  0.3309578022752991  0.0881554825111958
  0.6600760086724204  0.7425856479190626  0.7553928618336053
  0.7408917112978356  0.8390331739444485  0.0836944093739935
  0.2409359152861493 -0.0027862062229387  0.4174538297712467
 -0.0002893732082154  0.8311670010523344  0.6811517973644062
 -0.0088820363904270  0.1678153921411047  0.6706410822554850
 -0.0039542053113794  0.9114065401584442  0.7492384106866811
  0.7526476061606098  0.3257930380581984  0.2505582437415806
  0.9053441835188712  0.2492766143216056  0.0015015225782772
 -0.0035190180633424  0.5065685038025728  0.3357535113231286
  0.8278091877428757  0.0045242133735219  0.1583952968891667
  0.3329523315131783  0.0757182985892137  0.0860735604573848
  0.9012943083141588  0.3353360121624251  0.5818828751367143
  0.8269966920191165  0.7502252246766786  0.5821790610083470
  0.6709865868634280  0.9206225131026848  0.7531569168023802
  0.4151930054739303  0.3408984591052227  0.7468287642497795
  0.9076930347128696  0.2417840692212082  0.3340388128104703
  0.3255979951693613  0.1697104792823245  0.6591155287945656
 -0.0044475509466488  0.3299106572763173  0.3324581023775988
  0.6559760557386830  0.7484673621275730  0.4092129216902294
  0.2419161052630109  0.4127991615116565  0.8281921898906078
  0.4142476598063899  0.0003695733739763  0.0901834340431975
  0.1590911951117605  0.8270513277583152  0.8358428772410458
  0.3252227499285502 -0.0009048301501845 -0.0001430570603143
  0.4971301074683795  0.0844183193152826  0.9200173293877388
  0.5848917689646738  0.9172051153953128  0.5021523332197018
  0.7440782377706822  0.6706358244805597  0.2560037350759661
  0.0834214919905249  0.4187005173410565  0.3318229463434970
  0.1669963470178549  0.5009999929140883  0.0080143909295071
  0.4085733983233332  0.4999923482170587  0.4182439877559188
  0.4061787282349337  0.7364127701983405  0.6654630363661005
  0.5915275557110370  0.2518612360815898  0.8341947171070007
  0.3297737896026459  0.8256737286016472  0.8293186699683066
  0.4967439942907676  0.2490102477409945  0.2583245783463782
  0.4134680767229686  0.0000160424217896  0.4167875064802669
  0.2491664844934313  0.9155316788031291  0.6640727596714147
  0.2422421732948758  0.3267876847611350  0.9169596953577929
  0.2417716129401833  0.6689930431423177  0.9187959373446728
  0.5011394291109467  0.3442585788339312  0.6556323263763025
  0.5024813903059909  0.4302153034524742  0.7422360144277587
  0.4907408771043792  0.6689642954406773  0.0010597174031481
  0.5006733019321012  0.3383423898465779  0.8330633398461459
  0.4178313229452401  0.4188142179692937  0.8335409542544984
  0.4193503118917865  0.5867858438599758 -0.0021708529587007
  0.2484170677717599  0.7373571397677894  0.6680820639084148
  0.2480426737288840  0.4193445534046124  0.6516358976598040
  0.5025708441567531  0.4276310948601568  0.9174322734484633
  0.4134996802645084  0.8214442125462422  0.0879537420342487
  0.8296391507998043  0.7457740438226572  0.2557293352154822
  0.0879642942242256  0.6566574791127925  0.4163282858533018
  0.4938110746525196  0.0012448121804864  0.4993865505384062
  0.4144037077439903  0.5841376473144181  0.1711123161816676
  0.3342942862958690  0.4194313232250272  0.7391861231010763
  0.0717718382235090  0.3268977142474235  0.9105965633982633
  0.5803813361483828  0.5785621523513834 -0.0016323184279777
  0.5032634810562739  0.5839635535629756  0.2539244915228458
  0.3275339726964827  0.1598839827470306  0.8297522556272203
  0.3240550226365798  0.5868303734127663  0.0863373216303028
  0.3291084478896586  0.9068980510116293  0.4155295141001678
  0.5768882673303618  0.6677793527584540  0.0876353793627746
  0.7402042592587779  0.7554727261846619  0.1707060031008170
  0.6659598796465608  0.1631009663610608  0.3355515165261324
  0.1706521691404469  0.3316515860075213  0.3337318577514331
  0.7447256260063682  0.5809901593002246  0.1697525857209929
  0.4984639776240933  0.9127964093869355  0.9202234751356915
  0.8309228476412941  0.5880855069640064  0.4152195448695348
  0.9164382635027380  0.5047122402897098  0.4177570168874269
 -0.0014023533608380  0.7450661906304177  0.4151593410432535
  0.1586695982187584  0.4169580792140823  0.7357746103799959
  0.0790212974492383  0.3346880764931692  0.5883425002847876
  0.2443260705163317  0.7425835364233103  0.4980624839611502
  0.9120330782762537  0.4095941196785065  0.1658131668342053
  0.9122426099670159  0.8326544939227424  0.5879081693014161
  0.7470969607223653  0.4995911362242774  0.5863325691905613
  0.9131258493270394  0.9253364896645001  0.4990121706478168
  0.7507682567247324  0.4977935249749175  0.9061163587370604
  0.7427862904262639  0.9154142763035825  0.3360283328330385
  0.7441967072104607  0.4980414744673933  0.2562160030082603
  0.8297411000190611  0.8373473018441443  0.1703565450795342
  0.7469243850233308  0.7478316319625519 -0.0037554096240023
  0.4160333209479433  0.2569035743472822  0.6549301804552470
  0.8323954535291311  0.7469132814899915  0.0819532403091719
  0.7421672815609364  0.0053651962454156  0.2502968278817725
 -0.0045392137132043  0.1668906775103462 -0.0000549142171959
  0.1621213670470367  0.9151004037471175  0.0775126632293418
  0.0011356892916046  0.7438193566340292  0.5900359369001501
  0.8319623573690168  0.8390552671182653 -0.0069613634370262
 -0.0074273429536943  0.6627054709315260  0.8316733232084275
  0.8342597282577922  0.6589571480518912  0.6655096679677726
  0.8304228561728368  0.7434539361300699  0.4066940520739663
  0.9167155216351717  0.7456230301478756  0.4964619506135228
  0.8296933085453290  0.9164310201193395  0.2430381689727815
  0.0918969580765024  0.7437002376872773  0.5916761501316633
  0.4964492760109789  0.3370901098606757  0.2564874960650617
  0.0767005166741094  0.3338879738556519  0.5006717521137318
  0.4138493931714329  0.0861852914692403  0.2534824275495118
  0.0800454647044135  0.0772281203567910  0.5824762828061999
  0.1716005942622333  0.4194314532114487  0.3306952352680544
  0.5062776910603256  0.3404081869540669  0.9263946503308013
  0.9170019016574742  0.5049797281016166 -0.0080489248971725
  0.0761609414818125  0.0905912267640031  0.2438501314187795
  0.1533161229195983  0.4130161563789831  0.8221148981521629
  1.0052615179580440  0.7416705964889403  0.5022961439145074
  1.0100255949056958  0.9351455100361717  0.3362710293748955
  0.4940275080037970  0.9122539540310964  0.6624852095252655
  0.5924875840452122  0.3427149646975349  0.8312164752197592
  0.2442208869896947  0.0857870860607717  0.4152871580308395
 -0.0962384753197442  0.1591043529296732  0.0015563416393423
  0.1690214851094156  0.0017781956143357  0.2506044152991108
  0.5938609479394119  0.2507472379616560  0.7434439078786257
  0.4101447418408176 -0.0038318301257310  0.6677927060082344
  0.5821275922791468  0.9158685793470714  0.4134040750577849
  0.8458307183190523  0.8511334694300290  0.9026098024322035
  0.5825463622624024  0.9219551784341183  0.7532338646285537
  0.4989218130927064  0.0039117391449452  0.4102561812602909
  0.3270227623919522 -0.0073910587719548  0.4169276146926435
  0.7436168089078629  0.7495270404882021  0.4105457852191500
  0.7454970982143401  0.5849622750812014  0.2583764483069073
  0.5045299149728403  0.2468695169840069  0.8370441153976835
  0.4073187079599313  0.8219757206944469  0.6604004693347877
  0.9960578553122563  0.4203368037769605  0.3338705477988810
  0.6631813948748131  0.7433967431889171  0.6673054660966473
  0.3249661885434283  0.9101810955634072  0.0019621990712900
 -0.0983449210982864  0.2520646166932287  0.9090287890031257
  0.3299612752021570  0.3359852797569578  0.9190144126648710
  0.1618543223288991  0.5033387316237317  0.9217900018810870
  0.9867219453370012  0.1639622524132486  0.5791051849097347
  0.5791840280329202  0.1646552340964702  0.3383035028871616
  0.4165333676825668  0.2488625054048428  0.9265595928999059
  0.4119864155808403  0.2525341138368836  0.7435886033194383
  0.9971951277804342  0.7490319786841982  0.3257210636720889
  0.3272692889603207  0.1583969376490906  0.9197201327898946
  0.0843141042469379  0.3285039355098252  0.3293261166991914
  0.4961583888805627  1.0004824729349839  0.5844989062051682
  0.9083483199806229  0.3355662016584244  0.0008020478736315
  0.0914864282076159  0.7461383645785108  0.4113953154907851
  0.5042675138053935  0.4306568555477775  0.8291892625726983
  0.4960470285521576 -0.0017761534503734  0.9092085820038667
  0.3337370532004050  0.1714054176776299  0.4152609861815688
  0.0682089957421265  0.0848288639630960  0.4156482098421931
  0.1617512105590592  0.9165628695637594  0.6626458025159232
  0.5065023106253590  0.3430770729610352  0.7430870724049613
  0.0651398513923025  0.4127098844604864  0.9243419571629906
  0.7478014521078259  0.6585775799438670  0.6633012003154477
  0.3250757958028155  0.0836690380508215  0.6628192675824697
  0.5819000300169734  0.4159616675304680  0.4210666941796236
  0.1716593471889087  0.9151909713456648  0.1646548192437429
  0.2417959338536296  0.8240117914105209  0.6626156397700356
  0.8382630621558937  0.7489251616714514 -0.0061704979988820
  0.9077195207894276  0.3265288739660145  0.3289266880962838
  0.5026246709555162  0.4211161019893130  0.0074201121216084
  0.7464813571900486  0.0040785359049256  0.3399275972030690
  0.7392664763871274  0.6685290772586114  0.1696195658652807
  0.4135711598298740  0.1697617542144267  0.6551396560127802
  0.4182401704865227  0.1589537203062489  0.8332107443672373
  0.8232545692435268  0.9263658513191567  0.4989912321145202
  0.9045354808156471  0.9112559830725619  0.7577382163849098
  0.7409369148712681  0.9141948734460665  0.2467787547950201
  0.6652590266739222  0.2496646491670686  0.3377036201714413
  0.8284604670937276  0.8404981887682291  0.0820202606509099
  0.9103221645383238  0.4150580723096046  0.4216054688602630
  0.9947313545081901  0.0002065404140960  0.7505606348870431
  0.6668320286625656  0.8308067435076252  0.7515906245378559
  0.1651840726462534  0.1689664360154658  0.5791531809704098
  0.0939503944838784  0.8422463283312958  0.4971784027258465
  0.8267835480881663  0.5021402892777819  0.4158825751294262
 -0.0844571074279415  0.4970997614214457  0.1708182056739327
  0.9140291373552798  0.7419015858264344  0.5880858820384556
  0.3379031596504734  0.1642726221289325  0.0912239371417389
  0.4144275809783255  0.9097384209607580  0.2550420170372336
  0.4903513901423723  0.7338806432838263  0.6675331760185408
  0.4179483108365674  0.5842598002884181  0.2581597652534675
  0.9958512557171312  0.8255347301128836  0.0796291965954906
  0.2470350732396596  0.0752312390267042  0.0883227398819375
  0.4113497316255638  0.3463925343029404  0.6560134773127696
  0.3257342700688878  0.3322086883539546  0.2598997084561113
  0.3345860048142197  0.9153149627563650  0.8299021567067182
  0.9212280944889021  0.5863070839982367  0.0845436436535541
  0.6655209904125667  0.3313657895663164  0.2482150450520541
  0.5847801206422012  0.0064993921193963  0.5032474781725994
  0.9934963917453438  0.2538815796112836  0.6739968936809198
  0.8293336577825459  0.7433399140808259  0.4937730036567274
  0.4136056502951908  0.9089731539753498  0.0857086373588434
 -0.0066555346792813  0.9200311553205758  0.1641053422046320
  0.0010319816755098  0.4128574601019434  0.1640192194295126
  0.5829081453502416  0.9134008644776608  0.0871617944099010
  0.5853987680652336  0.0860407288734670  0.9140722989185570
  0.3286429406061198  0.5875930865348743 -0.0012381972513789
  0.5087046863932478  0.0858303790419434  0.6651617776856480
  0.1595004760826709  0.9164232223532486  0.8346894424090243
  0.4971214581831065  0.2474826897899321  0.1718106735839489
  0.1719647872551057  0.8266144493200998  0.0778836104471374
  0.4148139714732750  0.7459666892792356  0.4128589824490533
  0.3282843680364618  0.6695861845066702  0.9129014998235899
  0.7416075792770495  0.4983672729391483  0.5014259020847439
  0.9049487144980682 -0.0038774682211602  0.8404457051717310
  0.3283276614214987  0.4170755421699128  0.1744794794695091
 -0.0015270194026353  0.8342861098442126  0.4138713477955831
  0.5784730437125336  0.6666503369708675 -0.0021445843527550
  0.6701466049395519  0.9250286970511952  0.6632708608365574
  0.2458052821342843  0.4127264207582451  0.7367241286997082
  0.5793041932667383  0.5790774072142898  0.0870200934868041
  0.0689529250334776  0.4993390328989401  0.8286614238232514
  0.6846702636055543  0.3502291624338807  0.9364407808679200
  0.3356394502839987  0.5081250381845727  0.7404295675897306
  0.1651148537438229  0.1671693903455792  0.7513066849294850
  0.0813248411792954  0.0821300407888680  0.7515616420130162
  0.4165212725051513  0.8257979860485115  0.8326494849174757
  0.5875040744383224 -0.0006934640097515  0.0048064763290686
  0.3290956397191874  0.7461595559875099  0.4997949587956738
  0.3286641038507683  0.4164015648322572  0.0039526522307685
  0.0829835191342150  0.8249819638741702  0.1670598673613453
  0.9884300795065375  0.3407863789919343  0.5817478279779950
  0.9977767038786357  0.6593737265109382  0.2440744208980367
  0.7486720483621185  0.5778324209373261  0.0807745674016082
  1.0063039328975962  0.9291624093606251  0.5040935526380514
  0.9966391762808701  0.6634756758556563  0.9193376148580129
  0.1489692235144868 -0.0135298931941505  0.4256785404012923
  0.6821545401783534  0.2518335460006143  0.8327833282152867
  0.5743670129636134  0.8289553334536732  0.4960380041088527
  0.2461714266099173  0.2558470148340600  0.0877996319041009
  0.9956611499619737  0.0029681721942112  0.0808300161591609
  0.7486153527432299  0.5832082379498493  0.9053064712437984
  0.0860771720831671  0.6571660318799687  0.5033478522278390
  0.2472005964991582  0.5056266450726002  0.8321963203065645
  0.5084689929809670  0.2582376593884251  0.6544655656369548
 -0.0877768087360795  0.8354832514710741  0.4964895845955742
  0.7492511053754315  0.4109345788967825  0.2538898445949582
  0.0597811731226293  0.3211916960770617  0.8238644578159110
  0.6555175103722873  0.7427842742361871  0.4970597514254418
  0.0885735462534095  0.6592056966253226  0.3275266501845155
  0.0819220401636802  0.0785846800418992  0.9219827159428465
  0.8365962873885961  0.7494025587984990  0.6717962340425665
  0.3317569293436930  0.4220499922295272  0.8273211041658854
  0.7409588361851792  0.4917063055536297  0.1689749606686995
  0.1651666760928336  0.4229816971867711  0.5024273333492441
  1.0038761792045412  0.8355546049435819  0.5963009459175210
 -0.0022813312592106  0.2567367060639553 -0.0020366724463569
  0.4110961787976397  0.0005919615611553  0.0021372251226930
  0.4117056920756407  0.5832726567422343  0.0836994791417433
  0.7433716473904638  0.4894850770643878 -0.0076811205815428
  0.4974504984108867  0.8238551604478097  0.9221048263682224
  0.6674679701393845  0.8384432944866743  0.9216574431927951
  0.9944980526677042  0.1645534028408314  0.9100527037010496
  0.5959722776353187  0.2520687250542683  0.9301128261433077
  0.8309769045130095  0.0082947807827300  0.2448038577859043
  0.2525564408669619  0.3335879064949905  0.5020451250919122
  0.7467970169910492  0.7527237889755966  0.9090729086135729
  0.9914972303294767  0.1716094872637798  0.0903366281323821
  0.3244564934755881  0.5883357305366439  0.1739992875194541
  0.3241802974309284  0.2463842832728513  0.8251812979335601
  0.1561494808532425  0.3228914815384703  0.9236957885508656
 -0.0132065563604612  0.9065469286547159  0.8409269649298596
  0.0810207638658513  0.6665909614748349  0.8302459690316374
 -0.0961961887296229  0.0908180609683624  0.7489245637273377
  0.5830569227403180  0.8276452745155823  0.6648830407604582
  0.9076834159495138  0.9251228714274907  0.5897919546437457
  0.8331881219929222  0.7491308032897231  0.1716907481355235
  0.2446383909618849  0.4170358004664718  0.9187278315803046
  0.7386309994406677  0.7532464648502085  0.0824986361317908
  0.2437771307354760  0.8241443773189037  0.8376880015175580
  0.6552011196898571  0.0039680400904555  0.2457517562195169
  0.1597346962632837  0.1657568559976469  0.0870042906044132
  0.4941286632345375  0.5035430379134322  0.4180309293524358
  0.8317416093291412  0.9150384794822275  0.3316016548804368
  0.4989898314058914  0.0819907288344859  0.0871386413135038
  0.4977838192729087  0.9141847569662774  0.0853779570604725
  0.6675767775576585  0.1674807593965500  0.0045446053200127
  0.4961263342457141  0.0001855982619106  0.1688673634829616
  0.4090912122142503  0.8293475526988597  0.5735753486052584
  0.4119060487317337  0.8270806782922044  0.7476177933043836
  0.5801840707893642  0.0838091740806170  0.1679954714856298
  0.4096083951385547  0.9147659010990800  0.4968915066138839
  0.3278328592376483  0.9140227370192661  0.5804397403428115
  0.5839729934686556  0.0914364906303705  0.5014308621891611
  0.5770394292275894  0.0798535713919657  0.3329431576038919
  0.8308483061183320  0.5811536403880705  0.5833770271502745
  0.6715567834949405  0.1695068361616463  0.6630429245128674
  0.4932648563276045  0.1670438208270439  0.3369547344978862
  0.4926203134431807  0.9121058414652293  0.4181418393810784
  0.5717372840645536  0.0006645809932823  0.2493816221179977
  0.0774875007635018  0.0807047680762632  0.8358056547937663
  0.5891255610468649  0.0079821345329243  0.7479248741259624
  0.5815514821623395  0.2457987148792884  0.0145639442638560
  0.0816968073670040  0.3324737972470361  0.2433011069803014
  0.4125461398638398  0.8327711547434994  0.4156813182291275
  0.3302703017003740  0.1666888549115095  0.1773928334845098
  0.4978538892530675  0.0902730685462695  0.4201529486736295
  0.5775653049515888  0.8306612872695713  0.2516356668154551
  0.4942761814650261  0.9125725729197717  0.7533731919690716
  0.2518427528833598  0.8277701092069969  0.4109818748545568
  0.3291545152580276  0.9112589732391638  0.9162759073997042
  0.5038943776434496  0.0017104603275480  0.8243852153757395
  0.5002985526829143  0.7447269184809201  0.4126875038097118
  0.0752533283238125  0.1710272804786141  0.7477682622544439
  0.4991189314445731  0.1650608433151256  0.0044032232833450
  0.4101131127203917  0.2489183434655777  0.1711408842701601
 -0.0067454632006789  0.2491903816284996  0.4155020193853920
  0.4989299293436638  0.2465920111872649  0.0862288145865691
 -0.0089409126948128  0.0123202966218132  0.4948148599511504
  0.6635286673242374  0.4304693351993636  0.9108194313818699
  0.4973032074065891  0.4172588747103310  0.0927091676152383
  0.5870763246810399  0.4159254762427153  0.0040622402006937
  0.5786231647072200  0.4992882551757006  0.2523470372714776
  0.3308871218850847 -0.0008452950127187  0.3296386311145251
  0.4124857760669700  0.6598682232535321  0.4161166752837417
  0.5021104535047355  0.0856392307752417  0.7519934288722636
  0.1730088654577252  0.6584749182684112  0.4992467586581359
  0.5791528860854432  0.1665466569905240  0.2498050474908546
  0.5850104506244568  0.3359765841384877  0.5808452134014145
  0.4989682508951831  0.2532669300471395  0.4213314677942500
  0.6562118860932247  0.5026109581555578  0.5002741880866756
  0.5812516049998737  0.3327094811474162  0.2520862666188645
  0.8264218516208763  0.1688958293054405  0.3338759081617917
  0.6634440407771929  0.0034666593436354  0.1609639580541258
  0.1619851078628806  0.1644407825234445 -0.0016793596463532
  0.2504826431489564  0.5803347715278550  0.4987531545486908
  0.4145610514144126  0.6698216399727758  0.2518151451792637
  0.3277062296932119  0.8339224299989774  0.4970792302144175
  0.3299293742199862  0.6595754673022762  0.6619239660240706