Cr  N Ni 
 1.0000000000000000
    21.1325853914720021    0.0000000000000000    0.0000000000000000
     0.0000000000000000   21.1325853914720021    0.0000000000000000
     0.0000000000000000    0.0000000000000000   21.1325853914720021
 Cr  N   Ni 
 259 173 605
Direct
  0.0772548270318218  0.8382389066339214  0.9147714270378271
  0.5874293458350632  0.7446746348615054  0.3399643039375152
  0.4942194938611695  0.5851226796056248  0.2442651068743805
  0.3269083938656461  0.6587438844831331  0.3296195699892280
  0.2430733137329708  0.5025122299773408  0.2520249716322482
  0.5789634597138271  0.7447125357623916  0.9969131500389804
  0.4194144762020067  0.9966691865557634  0.5700492998721879
  0.4094373389824034  0.5867820182540768  0.4989844276042086
  0.9079071670217158  0.1609808830100719  0.9176269830044972
  0.8328484495085368  0.5828398840636037  0.2578104832185616
  0.4981452948604797  0.5885089951626629  0.4174781562281611
  0.2503420268784743  0.8313860401841290  0.0840902083876270
  0.4084181619437173  0.5846214641971111  0.3255990741193853
  0.3299362364494388  0.6647153181084311  0.4987932107365906
  0.4074687222879387  0.4210907428641393  0.3266656220434450
  0.3256751840882471  0.8361262800533938  0.4962691131555129
  0.4168051437312650  0.9893772234645545  0.2498580174527076
  0.4119782015008834  0.7394883082337332  0.8314538627670326
  0.3270136040833456  0.8358524101512579  0.3333143721931472
  0.4923751623041392  0.4291546213138437  0.9216870556804688
  0.6632533729084916  0.5038026193791764  0.6701864280469645
  0.4175636669015208  0.6607950631583378  0.0852649488466687
  0.8432503785759293  0.4167523051767855  0.4143612814125844
  0.9080411966327895  0.8364658956029073  0.9154090596383587
  0.7521551623567306  0.3333570581899230  0.4139924407445210
  0.5738348420356949  0.8333153634707827  0.2498319755798601
  0.2478921844241505  0.8300297453675287  0.9175311360038542
  0.4107655767200802  0.6713044436097023  0.7510793776886239
  0.4135353834326326  0.8248493507561112  0.7476273753557410
  0.4966985460503579  0.5738504954260203  0.9190874215345006
  0.7496192644215229  0.1569054690698774  0.0836520660906571
  0.9883970717929498  0.2424523198373712  0.0834370984511834
  0.7483787641484345  0.1548729047343528  0.7463909757524549
  0.4989211311567759  0.1613452624248174  0.1668274962008479
  0.7499483411969986  0.7513999986711187  0.1599740636720109
  0.4967749237615767  0.2533532665186625  0.0781471826485168
  0.6653661998908694  0.9143797139482309  0.9220759310421837
  0.4146258266306678  0.9152402070414556  0.6614868766360847
  0.5808330268800039  0.4181434736501520  0.4996689659648518
  0.2423169354995197  0.6661233683581027  0.0822279424088818
  0.7493429796867348  0.9153775794642336  0.5068598322620191
  0.7517314163593308  0.5960763236350340  0.4946966439790367
  0.4944488676092575  0.1429194119593667  0.6721093723935080
  0.4106208960713096  0.4987545400129230  0.7521241455740918
  0.5634404055528670  0.2405673835772018  0.6788874714343798
  0.5745172630471134  0.7448197962233462  0.1660528550951082
  0.5016474333855797  0.3360051453880333  0.1726021541846704
  0.4122634654054377  0.5917213142758089  0.6674932014280803
  0.7509821145816645  0.2474485583130734  0.9935660265113883
  0.6670304109977701  0.9105752416406707  0.0812684025482190
  0.5769598326944457  0.4206076628312875  0.8369121351437087
  0.5769345006655339  0.5922871389248852  0.6643347972762733
  0.6684200850959715  0.1506985895844235  0.6693620409111239
  0.4881556618867034  0.2544378278458557  0.5875220134905579
  0.2436652954168445  0.9112341312412341  0.6571837804092947
  0.6622765965368110  0.5933075144009583  0.5779979030152275
  0.8415315608351956  0.2469140788006647  0.5779586333861533
  0.8377902024384623  0.7577258374913242  0.2532468806516002
  0.1623416428021383  0.7418859707767790  0.0825696911315592
  0.5705330114434725  0.4172883699479643  0.6649270429725325
  0.6600930761500474  0.5029455098409926  0.4947075553223645
  0.4996994178215868  0.8258721080905586  0.6674190521381611
  0.9113736757831752  0.1620736436645312  0.7552397638441033
  0.9085466791182948  0.2463843821412077  0.6646968427119712
  0.0812387063959630  0.2482584830566447  0.1645660130793974
  0.9227291766321254  0.2479183929813408  0.3357563913366258
  0.0805425493142442  0.1650557212607818  0.9175357236617003
  0.7510904561658385  0.2454968617300279  0.4978191933300039
  0.0042951236650174  0.4999624324944092  0.1719328665408987
  0.0761353697094724  0.9963799004967462  0.0805273490912311
  0.9154417600548416  0.0022454204870679  0.2578590116945285
  0.0708331089685288  0.9980112876116521  0.2554494159848595
  0.1653779315967227  0.9941675824453770  0.1668414059084995
  0.0773569688375657  0.9925128710762187  0.4210075056329395
  0.1587165540920276  0.3382874219017621  0.1687773728303690
  0.2453453823212696  0.9968894243880040  0.5856058955234937
  0.9978902936940346  0.7519026638228383  0.9155180593823958
  0.2405255040015127  0.1696271692508301  0.2519220782761454
  0.2440861235085603  0.3391377217216631  0.2562186587545437
  0.1660115233066133  0.3388049254667567  0.8358069565395218
  0.9953316864342011  0.5767712043891865  0.9180564991972862
  0.0828912687343669  0.5866225716340014  0.8311060115835930
  0.9105512730980770  0.1615817448028721  0.5793009000563420
  0.7570612955207675  0.0006667525410538  0.0831198164590583
  0.9932582667741431  0.4162345458914912  0.0820265248625041
  0.0892434133601314  0.3381882280177400  0.9183093444027274
  0.1690235439684145  0.3381778736093409  0.3349201199793351
  0.7490872472801744  0.8255137497913384  0.4149762651015663
  0.8269756221639114  0.9971935564776440  0.0011635220957264
  0.0686667802808699  0.1614716209552146  0.2522737328791680
  0.1576426225452507  0.6705921364328826  0.1688668165440353
  0.1619851718074098  0.9977995477761445  0.9903210726195395
  0.0706200963294294  0.9955321621890956  0.5826558951500481
  0.1616631035433331  0.0860952909908926  0.0829042603692164
  0.2388946831770645  0.3356360426229389  0.0801471315651787
  0.2459349546918950  0.1713908654318669  0.0819385850014754
  0.3341957595190946  0.0880495742556002  0.7452721727122267
  0.2487971641373620  0.0007912425823766  0.7490739472566590
  0.0000258312120103  0.1605678050618815  0.6665177453928355
  0.4060700951559786  0.1776706687323727  0.5908771121451604
  0.9951177763574757  0.3332463507032953  0.8304297580195427
  0.4128688119383325  0.1639708308760323  0.2500804165411600
  0.1603716934629306  0.6653232142399819  0.4990167085951273
  0.9927106744124293  0.1617395963690207  0.8280271103872644
  0.9964511462217096  0.5002866574521625  0.6635515420565854
  0.9916011086440010  0.7514277117507969  0.7476582713265925
  0.9172709696533661  0.5851848216331943  0.1717617747185097
  0.0846871179277112  0.6651208250688339  0.9183756247490132
  0.0741854603762818  0.2502514665004577  0.3368772751449571
  0.3229240329879571  0.5855023521740229  0.4135929137402957
  0.9140518482362575  0.6757487566778050  0.5809684339513422
  0.2532095300723124  0.9965824801322477  0.0817427193034025
  0.0727779992622643  0.0033974038845395  0.7465850983943949
  0.0803116389812723  0.4272907334660249  0.3337913328445195
  0.0026537182521505  0.5868278191566435  0.0824025422361628
  0.4995166308757145  0.7403216788690724  0.5806136813190266
  0.8398432705735165  0.2477475027484106  0.4203484570914800
  0.4125084556659956  0.7466863296787418  0.3293918584491127
  0.7494023804582493  0.4238471479144040  0.6673555110357321
  0.4072678415986632  0.6568582262311454  0.9224569141935981
  0.0016613271287714  0.3373662182683259  0.6571676328771728
  0.1621160077907781  0.0889074670728967  0.7471478235767293
  0.7543210078656259  0.2403395184003682  0.1702026199973910
  0.0793049741150974  0.3377155871476386  0.4244110641095586
  0.1659440762366703  0.1646943799877157  0.8305218239102148
  0.1559368068958842  0.0806876904092431  0.2506231777085081
  0.9862858796501496  0.9152098704634530  0.7466693813293467
  0.0864549971434824  0.3388293983983298  0.0777407169809121
  0.4940091697283772  0.4277015177134248  0.0818097913266308
  0.7530580334938940  0.5860440942684657  0.6705879391163544
  0.4933817612535972  0.4180598297205025  0.4151195735654679
  0.2439094060954403  0.5914958625029425  0.6629196997418216
  0.2443095312810532  0.9924964823033470  0.2486671510019805
  0.3181220785401118  0.4211884549009641  0.4144643416886137
  0.6644857380456155  0.2419796165199493  0.5810252883845599
  0.4925650557365387  0.9087944648895443  0.0844433498870799
  0.6648827044302905  0.2462618200410804  0.4129907495631931
  0.8290373650961067  0.4987634701926043  0.9973713033357411
  0.6681044561135682  0.8270571927467668  0.6576534515434834
  0.7457829879084092  0.3347470197347078  0.9254339843405048
  0.8343003177972657  0.9184973569739044  0.7450736357868210
  0.5817337197060812  0.9113133908176000  0.0026213512408538
  0.6681950802628276  0.1596094240341462  0.3330546016534119
  0.4112305286977253  0.1692588471054607  0.9086147545310791
  0.6673558535874472  0.1554183668255601  0.1619696472864895
  0.4117434725063159  0.0762124150544813  0.0021556935515066
  0.8360355838168502  0.3337184039806277  0.8313707289870796
  0.3961200035834161  0.1563765853344224  0.4231308394402825
  0.8331233434429831  0.3328340771554108  0.0044212140660700
  0.9073146173431530  0.6740458196997087  0.0778409921679501
  0.4984398106123297  0.2520840705913880  0.2560586380347960
  0.9126336680702779  0.5870522234756200  0.6704890537474029
  0.3279720399043512  0.3363825374096356  0.1688887954906273
  0.9897823862507374  0.0812642707465996  0.4189903021496265
  0.4104215203964422  0.3368552575629737  0.0772540561384082
  0.0695724786497771  0.7505331935240309  0.3364115075117282
  0.3196412834569882  0.4222207943683677  0.9179035547965196
  0.7547710526096236  0.3339534117765223  0.0800177758556936
  0.3210707900334224  0.2539716296785326  0.9164450482404792
  0.3302875785795608  0.6642771525658755  0.1711165408239121
  0.1625618680766848  0.2488963155687064  0.7456692685036215
  0.7490020354086991  0.3326628776538644  0.7525146938677716
  0.9082055549005346  0.3351098145487599  0.7522716412156404
  0.6626878773418315  0.6538559497729012  0.8369353941822613
  0.0771216777301318  0.7555200650176892  0.5015136048505295
  0.4891426016794073  0.2489970930823764  0.4190109080404439
  0.6557299288915807  0.3277130594494921  0.6702204363683532
  0.3243404606845288  0.2567669119970960  0.2499609968050606
  0.0856661939375898  0.5010250046527748  0.5744161896101592
  0.4131986256018316  0.0034570100924593  0.7441741754297357
  0.6677676589646582  0.4214230807222670  0.4063609283768146
  0.9140370327724736  0.4116087554700741  0.1660078421267308
  0.3251913659521615  0.6621675149595404  0.9969694549071774
  0.3152734425529928  0.2538942946132476  0.4158038272411219
  0.4116680616205231  0.2534958191360833  0.0047450137930782
  0.5024833278348416  0.8373578171127851  0.3339103335334951
  0.6598865558425235  0.4174120429182950  0.5780909405326692
  0.4081262543982306  0.4161814356968733  0.5015822396350568
  0.9960239144232158  0.4231784365437064  0.9180574109672259
  0.4034534892508739  0.0858569600112916  0.6521397201866550
  0.3363893201189760  0.0113319706886988  0.4904963396203679
  0.5794390825252965  0.8270774341360667  0.7423012977446454
  0.4112604012587274  0.1807869782106179  0.7477774634194951
  0.4199586473405584  0.8304407412327344  0.9237841506679518
  0.5776044470134994  0.5069450177929704  0.7549304942494245
  0.4105312306027599  0.8260824417458061  0.5755845495137136
  0.5771318249291768  0.7395930842802192  0.8339462593517255
  0.7518445594843950  0.4963271778002470  0.5844690294492630
  0.6601110042440451  0.2448618535298675  0.7559625014881372
  0.8309401079590473  0.4983556639114708  0.1684721556422097
  0.4905458875329778  0.9122655849709070  0.9226334088509299
  0.9152296491070560  0.4183043985615335  0.3343235156599054
  0.8270014698923190  0.6765599327683086  0.1597270749282327
  0.3359443665052615  0.3384933991985405  0.6671232361574274
  0.7581038131488974  0.8340800346978999  0.7441570640231490
  0.0826214740106342  0.4993530772265131  0.7472098433150912
  0.7568070570475046  0.9205307123843320  0.8295044665609516
  0.5750171073880798  0.3346391081817238  0.4104854413425336
  0.4124607126787459  0.0880660534541497  0.8258645681679547
  0.7480276085419767  0.8374823408339921  0.2554320328002375
  0.5052639249481128  0.0753588524527884  0.2512534528075221
  0.4864865822690724  0.0690019014211961  0.4284494507294907
  0.6645239928868902  0.7483856086002130  0.2498970941286968
  0.5772604679855988  0.1619768595948941  0.4210991507540408
  0.0073877581225279  0.9116927387610021  0.2532190551721136
  0.9126557336402883  0.0862417472558494  0.1672141391546778
  0.7411192744584002  0.5858279891169231  0.1669660323664243
  0.7579869577294058  0.7438488851733199  0.0129771225070149
  0.6555416927539479  0.5069971396239041  0.1694874270682042
  0.3338972813028411  0.9172052825238798  0.9185745009451455
  0.9181770336181557  0.8286552804355587  0.2557314084938677
  0.4981236561361568  0.7466341824403530  0.4251935241676659
  0.4994603651073280  0.1645651721915163  0.9956456514765514
  0.7521467821952429  0.7423875159058539  0.8354762477056663
  0.2452664533878185  0.5850985928804062  0.8377845665755173
  0.0806694674115055  0.2506903490401869  0.5073872085382807
  0.2483708586398098  0.0910181775605062  0.4922468958688312
  0.2484438581011788  0.4994527549722880  0.7508626554251667
  0.7464805298178342  0.2448626935572488  0.6681105851817565
  0.7540494217380705  0.3335708412526038  0.2551251973420119
  0.6661397979082283  0.8284770959302622  0.8347005241318699
  0.6656433238853158  0.2463334685152390  0.0814976624634475
  0.5028333868108652  0.0807516066713916  0.9146896390815976
  0.5779976037122743  0.3330523462398481  0.9213285520195453
  0.4134079512265062  0.9145372361238330  0.8387992561788514
  0.7499284827438941  0.5087104106169316  0.4083895992883696
  0.4957460936125390  0.2548922227566526  0.9148558735429445
  0.6677007817979694  0.0727014874556158  0.4192518610658861
  0.6632158876884469  0.3323992028925615  0.9938693225063853
  0.2396995913022897  0.7476863892338510  0.3330545617465444
  0.0838804843792093  0.4906666863958494  0.9190981113257062
  0.4104923337464784  0.1648272722231344  0.0857952935248869
  0.1629000209858782  0.3370912975707202  0.6587055413562591
  0.1591053010607933  0.9132200347546182  0.7478719053078615
  0.9158428528343635  0.9107450856694218  0.1633398365393453
  0.3306772673153792  0.0795126585757293  0.2534926290344379
  0.9218234106712780  0.6713097865936403  0.2554819928229804
  0.7514920600572961  0.4140301848903901  0.1694518355217930
  0.0774823000250396  0.3366380972865856  0.2512465447425076
  0.5848501764957988  0.9917023681198767  0.4187211993631252
  0.4054305163438329  0.4275140419445123  0.1695491700723887
  0.7501453157677123  0.9204778076808330  0.3332132266843879
  0.9846843886786035  0.3321595855704020  0.1719640102217807
  0.5809983606728575  0.9151473270217214  0.8314303814721045
  0.0049599104752215  0.6739156686637371  0.1681032130812961
  0.7523791919357645  0.0720143639137067  0.8317603568399425
  0.9121401549529398  0.9956572003896682  0.0832697675309908
  0.9130841833509540  0.0855353106912129  0.9996712854018003
  0.9097023481631866  0.6605783767185205  0.9144510615165696
  0.1604362970653402  0.9211390336365954  0.9161924008094408
  0.7512669541729535  0.0774443425942448  0.5027197180119042
  0.7511975330123680  0.3345076362858402  0.5746897981166247
  0.8393941410635287  0.9162538837186934  0.4156514301567870
  0.6670235696685748  0.1569900485862912  0.0000410719170163
  0.1597019482946018  0.9968711268492104  0.4936597548928714
  0.7501170186506159  0.2440683389087435  0.8418629932274486
  0.7498647553915179  0.8308071315519783  0.9226364467793573
  0.9090811579485660  0.5831434292254003  0.8341069350133108
  0.5825863162335645  0.0011170621191117  0.0819732834543167
  0.7564261208634937  0.3271722289282405  0.1699293201087632
  0.5752626536491731  0.0755149546053948  0.4204573601319815
  0.4156487496316243  0.5845628898472016  0.7563655783836775
  0.1677126974866609  0.1639756252423525  0.9196568334631097
  0.0709079358601635  0.3401991877525327  0.1644943455871980
  0.0740825283887494  0.0827891219747497  0.0782057690875890
  0.5783159468276582  0.9059900614740696  0.4173595786072430
  0.7469136872655326  0.5033356146137279  0.8356880583412875
  0.4101603805582449  0.5862525648274138  0.4118061895968968
  0.1685476609470243  0.2523231717486119  0.8337568932974569
  0.9937995492262879  0.3287762542205073  0.0839892933136319
  0.0800607436578338  0.3406428758853684  0.3383867913731680
  0.9114210125727166  0.7491997618743929  0.9158954943552546
  0.4934321823803074  0.9947172206896930  0.0847666507084478
  0.0834365310018394  0.4967360939359184  0.8329418116397442
  0.3336840720679946  0.8304903060947266  0.9201539629161113
  0.6596251663841722  0.8381877936380178  0.2535260704290034
  0.2394878020414355  0.8351375775832344  0.3310147737568810
  0.4130034772285259  0.5834426679923072  0.5836383902334235
  0.5759031027017355  0.9185806347128539  0.9185328563478964
  0.2420957150621930  0.3367011463409298  0.1690000709600796
  0.6535875642597782  0.2361845642759397  0.6699054524364391
  0.0726174790942982  0.2484350710920235  0.2505426841021853
  0.5758046454738677  0.2492987803406486  0.4176592526762579
  0.7477687173690638  0.1561409416396936  0.8373254925982027
  0.4339899901321413  0.0205326362581040  0.4826262145133217
  0.0760821217107154  0.0786648613345173  0.4191812654557031
  0.4192609035397310  0.0748981476343277  0.2491739897306363
  0.0034925724851825  0.3361189954452921  0.9164238115668337
  0.8337726351698435  0.6695154375703418  0.2537246983410251
  0.1659195400419806  0.9958809728309843  0.0769696749338364
  0.3239184215980443  0.3396589069763180  0.0791790547360637
  0.9134722941087322  0.3338151113379371  0.6602793848260103
  0.9965119351634566  0.2486936185987469  0.6634134771870076
  0.7459751862701335  0.3359059958437247  0.6639346304702877
  0.6605879721154010  0.4158918308166651  0.6703789830064160
  0.3313450563157964  0.9888296959611126  0.2462478388014150
  0.5799978363834767  0.9109813460776102  0.0912055817947946
  0.9109559851385054  0.1563424510658238  0.6686414158647086
  0.7572971048313777  0.8299540452018950  0.8330944875765166
  0.6681438720638426  0.1582652485103001  0.4209142225018285
  0.3264301651528679  0.7454410094898725  0.3285273076336174
  0.7519030974385688  0.7498875907578060  0.2494451322488166
  0.7495301929667428  0.2430136873606607  0.7555159333823829
  0.0709179016311789  0.9164577417951761  0.7477368382679802
  0.6677376824632066  0.3369921397033284  0.0807453052991262
  0.4931436943164779  0.1615394347786866  0.5900495288661864
  0.9092641572977823  0.9997510902322184  0.1706301154048163
  0.8379180884682532  0.9168640048402922  0.5035143427046567
  0.1555626006198557  0.0001935790307040  0.5803961926469547
  0.9105834287610945  0.5010508779506508  0.6709402648095473
  0.7574676481552934  0.2428760087909745  0.0807106384235122
  0.7508196167521771  0.5076578144324878  0.4954638703891305
  0.5016901130161864  0.1635947481251067  0.0811703395365070
  0.9179311692338498  0.6778659829776953  0.1661429553750197
  0.5779974655689455  0.8259956951662751  0.8332829523580251
  0.6627886806039598  0.7450657410508316  0.1608994849342199
  0.4973860658333172  0.2487246410042050  0.1673436221444565
  0.9160282711659818  0.6756674485862461  0.6690471596639370
  0.9171875543070866  0.5880081774159770  0.4143642733715981
  0.3267352960175822  0.1691503345388496  0.2480751606926814
  0.4184988433287247  0.9110489957149218  0.5723884549847775
  0.5041390505036700  0.1688780337444038  0.9063448176524829
  0.4078920123525540  0.2580147786452635  0.9151377844334601
  0.4959298672829935  0.6575868927981112  0.9180198458907404
  0.0839368530493254  0.5028176687440155  0.6605377033085453
  0.5713710828967656  0.3287582927114308  0.8363206411245583
  0.2515931389914517  0.3360838051362424  0.6607979916330963
  0.5004184396615996  0.7508832557501695  0.3393898524509085
  0.8275175434106627  0.5873775201927344  0.1680822138725307
  0.6717542059167599  0.9965902537450824  0.0838664798693793
  0.7559907692190660  0.2403578823325629  0.5824973866608645
  0.9211193672874577  0.9147826237263260  0.2541492001097853
  0.8336549999890073  0.3335600497254285  0.9196189212095908
  0.5741994268777197  0.7401726709618488  0.0794703284903912
  0.8389996148805404  0.2443048845120339  0.3315703043931440
  0.9152131902689060  0.5874847191069520  0.0794815992761232
  0.8155428084148282  0.6921620148548182  0.0686705121032207
  0.5742516916195156  0.2467178217679620  0.5900331035749077
  0.6642684487237173  0.7383211631803651  0.8356773748574661
  0.7498562484983022  0.5890066664316548  0.5828405232957009
  0.4083388763293131  0.1642416514289626  0.9991073752166397
  0.4139825843311815  0.9139267057034035  0.7502570097218605
  0.4091914255012816  0.8256575152264334  0.8352245587216189
  0.9921625403937152  0.1625441551384378  0.9173564565325000
  0.7577937553573669  0.4210505545048471  0.4109326422841619
  0.4141210199109612  0.3394415382792310  0.1672701661824538
  0.7457421700879425  0.7422141160189972  0.9281062881110290
  0.9958648354334257  0.3361934762012558  0.7449774587945697
  0.5805893101061923  0.4202430295183626  0.9248004687918052
  0.2458314338548782  0.9095920272660902  0.7437865133872653
  0.5740479638556983  0.4198764011492130  0.7514595559025201
  0.7427390872058640  0.5007891143767779  0.1659061112487920
  0.4285769082239108  0.0959787405884062  0.7361672793443452
  0.0846866752568699  0.5765993640506435  0.9227924412945021
  0.9943924237132042  0.5827303467899133  0.8283363709252632
  0.1660383112698543  0.3381072734270565  0.7477029372071926
  0.6624654003980491  0.4203793104606958  0.1685163566059859
  0.6740813477231682  0.1575794376205881  0.2483031478880041
  0.4138371525575169  0.0800478425791128  0.9149953104795240
  0.4051799184819594  0.4256835123222634  0.9190209549720720
  0.7509112518006359  0.9147904495000588  0.4189986472589383
  0.9993714188032812  0.4997183573807062  0.5750405305376123
  0.1627055645039647  0.8271613899647500  0.0852327854760487
  0.3299641415245765  0.7523390212859817  0.5025231473301348
  0.1528972895237904  0.7440615704511775  0.3345287907511557
  0.4047164358950093  0.4158361144274231  0.4122323364336560
  0.4931779954858336  0.4260252318908681  0.1697757282562333
  0.3322969108347941  0.0059217056366359  0.5799238898148016
  0.4074889467743965  0.8240692289564058  0.6615830298700215
  0.3318011479130041  0.6639040792587798  0.0832861315987054
  0.3196277408053393  0.4176009563810942  0.5025525338103513
  0.4118917848658006  0.7417949887922191  0.9208644036580528
  0.7512955961160105  0.9242716004097229  0.2450428989296649
  0.0767546774336834  0.2503922058963449  0.0764781350328609
  0.4155558015629934  0.8345292000448101  0.3280929560007531
  0.2456310504541531  0.6652245137849758  0.4991134235501756
  0.1650051313602149  0.2468983030408852  0.6585720543841751
  0.5796034476173821  0.4236921375016858  0.4108411059387654
  0.1569294894899831  0.9899754195771613  0.2577173423032937
  0.5022381065563268  0.8258635078551145  0.5791144263723516
  0.3996701581367068  0.2451560260562298  0.4214900657505001
  0.9992998722895409  0.1624507949557699  0.5790162949627538
  0.9965620207394863  0.6639405111903260  0.9215512003401133
  0.2430889986754705  0.6653452809792900  0.1709526178731187
  0.2508713591738549  0.0855709639843921  0.0782224976849980
  0.0868079402181613  0.7515296371437035  0.9188627219623340
  0.5843647227613048  0.9167850741771237  0.7428863336281341
  0.4159465903567042  0.0014011394596421  0.8335226004296173
  0.5746413953498626  0.7447286384094438  0.2539808691886795
  0.7486771531673709  0.8263957348946115  0.5025661827768687
  0.3383099679865808  0.1021804606468825  0.4723300377216924
  0.6594375516005759  0.5059996688719510  0.5816580160735181
  0.4841758011954037  0.1572158296020264  0.4224502822850269
  0.0773106552406663  0.7473293567550301  0.7452639740676710
  0.9139963593839725  0.9986526589123436  0.9951527545050103
  0.2488108565101314  0.0896781153971359  0.7487770530860447
  0.1536425085320635  0.1682164785746582  0.2513428676029116
  0.0738829911329944  0.6683189486893146  0.4998784323638318
  0.4260364867081120  0.0023431631664404  0.6568983260085896
  0.6698722737053737  0.8322614437259390  0.7426370129281373
  0.4994919809879542  0.3417234739855426  0.0791863476256141
  0.7540754012604656  0.2442712091715306  0.4118818572677624
  0.6599122321232065  0.3299886010669267  0.5799985547843398
  0.7446588247117090  0.3338575611333333  0.8392415257142375
  0.2527319888799534  0.5056838220962799  0.6610871657076175
  0.9180941585103115  0.4959075202450037  0.1705077975831729
  0.0808791019589342  0.2486467629954703  0.4239810736085108
  0.2427303682198612  0.0804421873151269  0.2525669187437988
  0.5009048890924167  0.5816825921882228  0.3297835588075367
  0.6650975631306305  0.5931946207298530  0.6709955770540378
  0.4113242109744209  0.2541771766320306  0.2514682189694771
  0.9914652609090128  0.8432969357397694  0.9169172188163623
  0.0058414767918116  0.5002927172071598  0.0827446528387868
  0.2478896716529998  0.0008872552816026  0.4944734521089469
  0.7530855222022514  0.9187595062928355  0.9211440523773399
  0.0789066202108108  0.1627041098721045  0.8281563649838125
  0.5036665164529299  0.1632753033221398  0.2553876152068121
  0.6615201785893363  0.2426345219529139  0.9923634083018693
  0.1631470209279386  0.8322332572446116  0.9116871928103715
  0.0779570968158742  0.9941205211197327  0.1682597767129607
  0.0086863475838309  0.5880121700182290  0.1731595076663136
  0.6689541846138000  0.9199216803777619  0.8312368958351123
  0.1597114675238180  0.0021785759934033  0.7519848308956651
  0.6669045037167991  0.2433945927303555  0.1694183946512612
  0.2475704100292306  0.9201187136676958  0.9166595974662555
  0.5701836564075404  0.5058139180579220  0.6673645756593192
  0.9178153524907094  0.5890165603944038  0.5830774129129147
  0.4950240665683412  0.4205033355007652  0.5050402847855319
  0.5108731878976814  0.1941819663394575  0.7379074989758928
  0.6642845747630612  0.3343630668799465  0.4092865475633279
  0.6610303251505690  0.5119712842120712  0.4065753756408604
  0.2437784435889483  0.5886742317118758  0.7514015066045678
  0.4937033483853295  0.5049555645015839  0.0041413199954468
  0.4093357796039566  0.5824191180215307  0.1684909655243663
  0.4942657844292296  0.5098533809197019  0.1681287146321823
  0.5767948605142883  0.5049024134218485  0.2506825411029582
  0.5777488042567710  0.5833268100158276  0.1668594077333937
  0.4898468187555672  0.3364528944985353  0.6678569346153915
  0.4934182111107692  0.4963368485491586  0.3326183557141883
  0.5800164226992461  0.5884151379955856  0.4996055960126323
  0.5810386979374828  0.7451820706925197  0.6653540111662205
  0.5822556537277409  0.6595482682402838  0.9207495140393691
  0.5728584207698554  0.5104215358301820  0.4171984277114912
  0.5016976128437426  0.7465817409449714  0.9187421032192838
  0.4851849978664778  0.5037049060567244  0.6664979305365699
  0.5863545817158782  0.5867643254621037  0.3336889981665765
  0.4932897516505053  0.5084455645320654  0.4985548776813567
  0.9994348075432292  0.7521001131770106  0.2519775151366168
  0.6643284940706664  0.0726784405372792  0.2521415906419869
  0.4939993472460452  0.5819935495072569  0.0856599507347068
  0.0792111122122324  0.6675416182326029  0.2530015748015177
  0.6665401425806691  0.0005459764294432  0.9963517907024753
  0.9981793131920911  0.6685093277181832  0.3352404161888223
  0.4083984275259592  0.9957682676213110  0.0819449638354901
  0.3298650346554872  0.9961089935556481  0.1604823355191443
  0.4860744117388132  0.3433641895024608  0.8389749592060624
  0.5788981199108696  0.4227878603576619  0.0084141811834661
  0.5789345854662836  0.5791643696227783  0.0018234222840228
  0.9967468357068496  0.6718901043025671  0.8279545658809615
  0.0806676293230951  0.4111567392313543  0.8313916129401399
  0.9969604898824490  0.6691605017247075  0.0074571711010392
  0.1615533393682250  0.6688028516424167  0.6644896361420222
  0.9931786824045151  0.4940858747504645  0.8329362218562265
  0.0792949496024009  0.9162104275092996  0.9991266860004431
  0.5788881745723395  0.6553816579251344  0.0829446304845364
  0.3284668831995186  0.7514815908493847  0.0848019653132554
  0.7588329238631443  0.1603803457340305  0.2506433719753023
  0.6695957078606521  0.9952021918356856  0.5025124576718223
  0.5820282683546768  0.0812287913164928  0.9998174326846712
  0.5801012222334651  0.2432784421487892  0.8307020435510738
  0.7513206516577889  0.0807924496894092  0.1667147325538086
  0.5833136771500684  0.3358937387060714  0.0839321752962168
  0.6664014802852156  0.9985712342289093  0.3363293099830738
  0.5708308258704889  0.3379496909553502  0.5850407846210341
  0.4944326356595012  0.4189620176409041  0.2554598886069636
  0.4943391589542757  0.3380315719506773  0.9937633529065839
  0.4923823761047834  0.3337020438598913  0.3344816578121160
  0.5791033136522262  0.4188252335738986  0.3254868763022385
  0.5782216722728976  0.4207818216012357  0.1700126170058329
  0.4937476773539550  0.6635509570546996  0.1660808140470414
  0.4144415358719721  0.8325943891922635  0.2418686274077643
  0.5803059508724238  0.6595326302835501  0.2486968053262470
  0.4967807394831563  0.6669959621394552  0.3314015938504776
  0.6625960794529324  0.9239166460835807  0.2512698268311584
  0.7511951601307411  0.0072497191213346  0.2531248279905857
  0.0777557182825005  0.1641781438905486  0.4190417881975610
  0.1623208574934036  0.3370183506972362  0.4971297647811659