 B Cr Fe 
 1.0000000000000000
    20.0899999999999999    0.0000000000000000    0.0000000000000000
     0.0000000000000000   20.0899999999999999    0.0000000000000000
     0.0000000000000000    0.0000000000000000   20.0899999999999999
 B   Cr  Fe 
  69 206 480
Direct
  0.1648092840664769  0.5083294334984919  0.3965765638060063
  0.1582319201084943  0.5578048596666157  0.5377714094661344
  0.1414527011054999  0.5320373983500045  0.2235794741906355
  0.0743496071794872  0.2569030974407949  0.8648407250048317
  0.2691809883243625  0.8149259428151507  0.0259991454074307
  0.9672364342020213  0.1694197870645503  0.2665466017722238
  0.2963741355714948  0.0844335318631054  0.6186993712303190
  0.0015087437406330  0.7742062327596746  0.4984274402181284
  0.7752490258204778  0.2728578625067716  0.4152379856756176
  0.4314357024054083  0.7664059274132733  0.1691649536138880
  0.4686721029502172  0.0899908163309158  0.3470071652695388
  0.1539140937436667  0.7435788737860621  0.1765046835318993
  0.0477135524045699  0.6199456584101880  0.3628859627480194
  0.1256324645464641  0.2431616818406236  0.9344992935580421
  0.0152377322469610  0.1176630190547002  0.7771534007320885
  0.2152032408365020  0.0914255197357404  0.4307143376086203
  0.9091848050276217  0.4357291919472776  0.4108494026337827
  0.0529922792470562  0.4666823568808190  0.1502825157939979
  0.0059095239800085  0.2247090092653667  0.6658869232624155
  0.0367347978290503  0.1981935233937794  0.1224947269404843
  0.3684085646197289  0.0405993485288045  0.8043882410090782
  0.7707553593051942  0.3621292587543175  0.2912321273433825
  0.8679606362189113  0.5344124935846419  0.2525825635404810
  0.3313464037601752  0.8738834335250820  0.0205544228202141
  0.2807153614535540  0.4975939460862333  0.0977703352045055
  0.1381691887902200  0.6210964536311865  0.9416665869310560
  0.0781812278910217  0.9524700251812406  0.4319918050971171
  0.8564080373455618  0.1113992780878838  0.1649157271727833
  0.9938211553145000  0.9253493598205209  0.9705183846305365
  0.5151919644716321  0.5755115494867592  0.2061887274819415
  0.4776574084857593  0.0686963985473343  0.5688995915655226
  0.0666663242940554  0.1969484759210971  0.4086168641011806
  0.9295216440324841  0.5255418474768986  0.3951502537943531
  0.0976418880485818  0.6900625773921690  0.2223535116600762
  0.2400217645552658  0.0207770269254523  0.6186136313096068
  0.3445717059873158  0.3146951235801089  0.1794797935963206
  0.8904611382102277  0.0823840027666581  0.9105028458451840
  0.5242011860744862  0.1528556299150158  0.3870768211352962
  0.1888429551522126  0.0024174307389682  0.2799565716907068
  0.6558105687180640  0.3934321392367890  0.4123792591431976
  0.7298034610737423  0.2198639907316117  0.3624266838868014
  0.0658402302929795  0.2869865627919866  0.6786894405214958
  0.8614137260779599  0.1705288953742658  0.0982867765748995
  0.5825860953890454  0.6372993690462718  0.1991881431221604
  0.0365914881669840  0.3450403742367756  0.4143188728294390
  0.9536787668449344  0.2749145383537112  0.9633572313369533
  0.7701948495287338  0.6252969514409895  0.1760194898081893
  0.0794570340881081  0.4880025207267244  0.7056696895966651
  0.7550647479925603  0.7967231231466275  0.6698700127898843
  0.2721605817822578  0.2008397791720730  0.4999048068671300
  0.1589157753549729  0.6087355111713527  0.6052541267063057
  0.9137972346225187  0.3512049217147271  0.1782143470353746
  0.9235998040361582  0.6704068903831731  0.2782091035918867
  0.3974731267175768  0.6550992521517478  0.2794865459607913
  0.2796260762391585  0.5144949616342869  0.2940601778080048
  0.5783956292611452  0.7718545882871450  0.0259807194877782
  0.2466466598729206  0.9499374750536379  0.7643966483264661
  0.6057464882083984  0.5255491180253110  0.4916720812266047
  0.0964892411085302  0.9920840547709497  0.7431156057752870
  0.0116235585958098  0.6237484726871424  0.0896412074349289
  0.2653710518377834  0.8788023413546754  0.9639682374765117
  0.6888329570007040  0.5723257776018403  0.3342162444479158
  0.4732279348315487  0.5018299130529235  0.8553818997969719
  0.5101472314257773  0.9083732701785218  0.5321956634900099
  0.5820934836371143  0.6032076522304876  0.7407058245190373
  0.9747166921617832  0.5603587238137896  0.8778564334813351
  0.1818936604307944  0.3568265606540024  0.1204183522989705
  0.4164626076701641  0.2597068675120559  0.9271582964396556
  0.4710227835024547  0.4406805939768564  0.9176267730981669
  0.7340960898644026  0.7220369618916846  0.0058097354281648
  0.6369148085979366  0.5048013150746828  0.9288025898827164
  0.7770101363818680  0.3670252399719152  0.7836185740689148
  0.7816045579309471  0.7972341077886723  0.2164021371458081
  0.4993646083361682  0.2203053769774557  0.4743419269993722
  0.1823181753210691  0.8796219040274303  0.0405246958204035
  0.4311110629506842  0.0111036596091963  0.9961586565584460
  0.3588707850213480  0.2274209106081415  0.3428239115840536
  0.0340185107151420  0.7389280064722947  0.5972178027812367
  0.2155105113266148  0.3521114823056969  0.3496588068840188
  0.1575585512374407  0.8903218324597035  0.2940418559311391
  0.6792535000328280  0.6304365577158966  0.2420505555986008
  0.2824121133413714  0.5776036532362400  0.4179025002668952
  0.0758091908302568  0.6474457066715924  0.6544064164644059
  0.0556279187919452  0.5308368464894225  0.8086139871681118
  0.9978815124698857  0.0133499998179793  0.7181427036861220
  0.0592481305759086  0.2092185394599870  0.2268043608711970
  0.1887291929361646  0.5716882125080837  0.3125774323785936
  0.0632823909072259  0.0646813812352605  0.6260607374986671
  0.7191612404601079  0.1418874938440753  0.7083925772061657
  0.0708610396313802  0.4929426868821774  0.0548761266547001
  0.6396742958886656  0.7900819598754264  0.5093474496315725
  0.9695596782925452  0.5417394495240256  0.1584014023625362
  0.3426290921029854  0.3769859067479391  0.3747011189302802
  0.6267234035155741  0.2028147344472809  0.3473512826203340
  0.5748028662270421  0.7309924481995548  0.1388700920098128
  0.8505186483415349  0.7155869678359069  0.4354835406799121
  0.7341238217040534  0.0039045334952341  0.4479983237086420
  0.7813753140744089  0.0743569099133694  0.9285030080096457
  0.5011014169403798  0.0774330206372343  0.2069264697209998
  0.7164237201059797  0.2609504903334272  0.2550395301703228
  0.5650169609225656  0.0029138031839503  0.5759917733845158
  0.0433760715419384  0.3242271708073257  0.9544276013080601
  0.8275539268870972  0.3651416555700041  0.3861630822282225
  0.8510256492240869  0.4209018247348472  0.9938146201322831
  0.8044830366254194  0.3289824865473128  0.1952822012647388
  0.7081677265505438  0.5749041193069300  0.0012409931871861
  0.8612210525422501  0.6056828149041762  0.3374569075889999
  0.6794807430611535  0.5472384550504030  0.5794341084494302
  0.6301119298596841  0.3601163895491458  0.5153599411039421
  0.8701287522730865  0.5863464431354775  0.5808764455206634
  0.7204774037452460  0.0068537499863531  0.0033869651332711
  0.7164491225673295  0.8649543282918365  0.0013978796392574
  0.7189647159235377  0.7222977951090447  0.8687855817679525
  0.5103913279549199  0.6374950833626373  0.6590893971002867
  0.9599051506994293  0.8228667597637881  0.7722271149856264
  0.6422428788555802  0.8023883307937951  0.2085634050654788
  0.6353041068883326  0.0540576147853950  0.4918682124340376
  0.9684741336489645  0.5689856862037784  0.2916815220045784
  0.1839605909400354  0.6249195515417796  0.1846666857271047
  0.1222305796579076  0.2863393037143426  0.3982022878071464
  0.4781896179831464  0.4777160802149755  0.1820506860480903
  0.2406816385293163  0.0917291153089527  0.5282269035394394
  0.0835843663073454  0.6528671742948634  0.7846285768383791
  0.1653752900495176  0.4210101562458501  0.5600346772248591
  0.1378569826818032  0.1512428534216840  0.1300303783560069
  0.0637485349628016  0.7735218082238421  0.9300902516501458
  0.1003307045604484  0.1927622549940457  0.6399469455048132
  0.3544263547820291  0.0784489905856987  0.0598945175974624
  0.3530725882024240  0.3532343676904033  0.7532852873160258
  0.2601911036842497  0.8781005309482767  0.8494727069185783
  0.9743620448156882  0.8494361046065818  0.1351351061977192
  0.1448197447381171  0.8554038015177902  0.1602656808821811
  0.0307332532261017  0.1979719453947181  0.9467738459316101
  0.9135501361633451  0.7563948225408800  0.2099530186910910
  0.0559161983234941  0.2154117737969312  0.7621870822988931
  0.2843556976359441  0.4052107618424444  0.1434136789002535
  0.5740692870615266  0.0082999402030392  0.1408578694345465
  0.3713680449743657  0.0893008738895416  0.5033493836908376
  0.9210226391121983  0.2642209155175538  0.2449622204626137
  0.0953659606337361  0.6864326477857852  0.1129159312033449
  0.1437736189009385  0.3081573382748130  0.6018455753130166
  0.9393393809485946  0.1815708112790313  0.1664174533641042
  0.2095412093961307  0.9149897036464073  0.6223579268089457
  0.0758394038147910  0.9614749551344679  0.9051036785813155
  0.0475206740655062  0.9001100958909860  0.3395290146837716
  0.1705581273105136  0.7223236551137125  0.4549532614355952
  0.0172133106716748  0.7103432039762348  0.3015023224077378
  0.9287157002350830  0.9354605977266300  0.0643462183106313
  0.0659659849325467  0.5264003379889893  0.9307675950713570
  0.9947342007606090  0.1618471104291399  0.5673238859779256
  0.1634344324164867  0.0088091780736299  0.4573825411301700
  0.3803341757314257  0.3713695148303464  0.9297187044820132
  0.0188799591344252  0.8740654910833247  0.4543443133310964
  0.1530723745466248  0.1429990984780123  0.9829410970538855
  0.0849456933696828  0.3645755572542512  0.2018964983196384
  0.8902679062645288  0.9075150531857794  0.6030087644291124
  0.2665843751766080  0.9675734524797005  0.0307188165282757
  0.0261866306727826  0.1034051786342037  0.1831998429422702
  0.1785992255276088  0.1876681793101600  0.4420953393834334
  0.0281721663019883  0.2643826456601424  0.3251051572859738
  0.8377549104123162  0.5336515036599883  0.1477072734962995
  0.1109839667354882  0.9758831557790838  0.2112186255351322
  0.3431736105249134  0.9466115314404125  0.9338868947132725
  0.9158772010777964  0.4926627225182172  0.0623562703149993
  0.1078845635527418  0.9148468083570359  0.5328598050550833
  0.1761342948193348  0.5297686954284021  0.9812696257364482
  0.1584558957834415  0.3200934928103510  0.0118048188055003
  0.1950449642507967  0.1115826761590928  0.6451145752339019
  0.0199667912687070  0.4257361370031039  0.8678409079070442
  0.2814439226478656  0.8716116122595368  0.1248109348124824
  0.5019082667414060  0.0877133747480357  0.6669309342857130
  0.2312843833611683  0.9482273051875851  0.3652969588913367
  0.6807064495854834  0.5886352461237708  0.4452404303535790
  0.7216809186408575  0.7277602802664531  0.5850609383967041
  0.5033171424259151  0.9377757448864072  0.2121030244264193
  0.5050693822500679  0.2209980449646839  0.2189197865451451
  0.5754897246399202  0.5891672193090051  0.2963248025459880
  0.5981279237717910  0.4567490958148587  0.5758915478647749
  0.3572700829567037  0.7841095578314198  0.0828554257920409
  0.4740505710998887  0.4037904290999547  0.5907475665143860
  0.5611522113863969  0.4376462827264366  0.8535741637444467
  0.2886906126222074  0.1587846946486781  0.9978416686589953
  0.2864077270562658  0.2817578794983456  0.4251996594604275
  0.7068280495733266  0.5804750751715173  0.7168386338723748
  0.4257633640573756  0.2819517328332178  0.5753431384173282
  0.1042350132747186  0.1492350669236598  0.8496557151894076
  0.2388136087232202  0.5089876759628399  0.2048921506200327
  0.2834375833456999  0.2970445391444926  0.5588907162826927
  0.2846704753063848  0.4368687224236550  0.5722405129004982
  0.2336352962272846  0.5359095204308644  0.6188241109005246
  0.3742304968117979  0.5088956968074018  0.7827918333734349
  0.3466305334397995  0.6585856879713820  0.0670347401472715
  0.1409572041222260  0.6030797758767601  0.4312666374318793
  0.4202187555966789  0.5897470982510005  0.7113740436913759
  0.3394564976718578  0.6464026886509215  0.6325068434212980
  0.2959992015459229  0.1531935969894706  0.7041656997616605
  0.1502551535968359  0.5699864141594184  0.7178463318759615
  0.7830051119399543  0.3478561902737635  0.0616812457782520
  0.6099422048909418  0.3994651719060195  0.3236943393590754
  0.2987367755165334  0.5784660144675385  0.8504336558643119
  0.5736780798352885  0.7237780845379490  0.2768319414671932
  0.5652944570614318  0.5764857703824949  0.8556183685435248
  0.4393434207757858  0.5877168006291337  0.0233460887947768
  0.3035674330101794  0.0300210126403868  0.7129572258713524
  0.5004737055317641  0.3681202513775138  0.3520099303252190
  0.6499268490106227  0.9387684009026797  0.0717367568549193
  0.7128698945126286  0.1492313738779437  0.1480655857511942
  0.5551838723704394  0.0467723291513070  0.3837582253978064
  0.4855961316755579  0.6750355299078594  0.2169089590663568
  0.6433624678914102  0.7886326117123416  0.7967119120474822
  0.5212842016809782  0.5019460569480975  0.0779266928422081
  0.5004238829055608  0.3434011487530724  0.9205115554132108
  0.4190703239112805  0.1664046701388618  0.9955969768518959
  0.6613037692769045  0.6191022347712951  0.1213087454467760
  0.6379488904756901  0.3614078254427183  0.0691070130273675
  0.5072496901641110  0.5224973357471276  0.7576413814475862
  0.6479665910709995  0.7852891844249672  0.9429467690655718
  0.1982029472441899  0.8005746922859214  0.9420969785624038
  0.3758116902057081  0.3592651705261630  0.0757524445763226
  0.2744422715616514  0.0117976086463086  0.8518034079998172
  0.8648784485052731  0.1338960550772449  0.5807284331729050
  0.5105444611819518  0.3596015827611591  0.7773065203252687
  0.4162530724209248  0.5689231814617983  0.4496116682342390
  0.7145739081932359  0.7194227297307872  0.1500369654765135
  0.8355444751950935  0.0053017743048356  0.5520746252190122
  0.9566090213487705  0.6287051507481287  0.7976787203156414
  0.4480336696242928  0.8833721557120389  0.4427524321483436
  0.0450767095466124  0.6393711962901262  0.8995519408700960
  0.8609942915434829  0.1474748054012699  0.2764286804762054
  0.5635476934797221  0.4240596494826090  0.6966001075594953
  0.7899869274295338  0.2100659416689131  0.5064343999526122
  0.2951608050214225  0.8662530348884885  0.2982265540008074
  0.1616774847212248  0.8743649266867435  0.7341285136820580
  0.7021252545629374  0.7254791973270514  0.4343861080509799
  0.2134917118974933  0.8192618253813224  0.5221282925057201
  0.2090175749403263  0.7905581735394531  0.3502386110683530
  0.4336464000494345  0.1538626889394509  0.8572427896255908
  0.7862875436448102  0.9355713198788587  0.2194349355450139
  0.3043626395757058  0.3054292243228752  0.8604120474459617
  0.8155342690414257  0.4476300813829424  0.4626346556357453
  0.8028784506740575  0.6908159251934510  0.2555285939158700
  0.9269942892275077  0.2048244713129569  0.7753425657545788
  0.9422971881800101  0.3422102329294650  0.0455156089190661
  0.9299683801575920  0.7850353513048791  0.6475986154658248
  0.9011789317810039  0.2569502864464533  0.5483587096723721
  0.1792957615104919  0.4431712569404436  0.6772692709778769
  0.8534872731287505  0.5692595526187042  0.9965881895875153
  0.5646898111643233  0.4271404065082662  0.9913072140300335
  0.8196936974698453  0.2641354745778666  0.3124842897064373
  0.4297458404925457  0.7309480202561471  0.4310298677600831
  0.8391508990754756  0.7153977353735664  0.1311659173386821
  0.7579092410390640  0.6561063785420440  0.3602953853443352
  0.0052382542807192  0.6962957302312346  0.0038804357212414
  0.9932703418335973  0.6573463915161192  0.1921530237273570
  0.4174664487701022  0.1914368873135885  0.6667222116759874
  0.4258053098502790  0.8663878800938258  0.8708050293837936
  0.5628077692847556  0.4315030209896540  0.4462262599053112
  0.3042188989011106  0.8687506742674411  0.5797862296712999
  0.8684024498789241  0.8395075877930146  0.8476916770593542
  0.7818817327626945  0.7833248618097072  0.7880229323100368
  0.0158827439447443  0.0104614225342816  0.0293094825574861
  0.8925020121964837  0.7264145578348963  0.7593786319555186
  0.1395086644630887  0.4103418893302551  0.4260672662934054
  0.5901968601892332  0.2523222150272644  0.5307637034433914
  0.6391344966969589  0.6493106806255945  0.6474366694071912
  0.0864353610059333  0.6355476654500272  0.5313223918479495
  0.9275373725321134  0.0784813124952168  0.0917952106654697
  0.9283549465594657  0.9241400777940557  0.2253604340054597
  0.9114808036080488  0.0860908947686802  0.3727646276209864
  0.9204533849561283  0.0646976456954198  0.7900469880103841
  0.4902170967598882  0.7987966501164072  0.0763851971274963
  0.8562719975568258  0.8635084537637175  0.1528288624709989
  0.7788791686136289  0.7849891315883073  0.4950749145780766
  0.7982189845224951  0.7970423787451972  0.9408867609685040
  0.7862956914823476  0.3627109905246785  0.6477856810371516
  0.1657739133213247  0.4533164043427045  0.2944162418499007
  0.2842624341331763  0.7232098873217506  0.8700459708793847
  0.2276292180950334  0.8072772063391117  0.2224474435032489
  0.3092083838691513  0.7347829805516127  0.2950617832992549
  0.3460352744691149  0.8094350845125916  0.2060891437323949
  0.2902053041604159  0.7369744270160085  0.4384789332633812
  0.2326821699054082  0.9331922531521215  0.2176782425265457
  0.3571592262827955  0.6589152093124349  0.7910483571660272
  0.0831804698201918  0.7953367388450527  0.0674088189746670
  0.1246634854267543  0.6870972849399098  0.3442204327598877
  0.2830227576181591  0.7191405934777620  0.9961823514842953
  0.3832775190418408  0.4897496911792317  0.0974672512169469
  0.1503029922610725  0.8808625428559334  0.4242734267306951
  0.3525532896753152  0.8001722786535376  0.7992208555763682
  0.3122716751831226  0.1214782268378925  0.8114223835273124
  0.3202240412753986  0.1771510367974116  0.5873949006235946
  0.3602056449007596  0.0793849863376838  0.9217147825393573
  0.2829222720215588  0.1502036219061169  0.1420610787472269
  0.3515531690177013  0.2326624989562688  0.0863445764818513
  0.3178638136819234  0.9961129810537053  0.5653673611276281
  0.3620749029333347  0.2193301755813988  0.2091326223257844
  0.2941589053949270  0.1498400757473040  0.2755624009948994
  0.2266339904035292  0.2254923565302871  0.3421929151756973
  0.3601611102595245  0.0797849387054843  0.3478467409250024
  0.3685921934101339  0.2267153753597058  0.4877789271101695
  0.2969214420191845  0.4484924626337995  0.7104038538192362
  0.3123055256846776  0.4301516959001057  0.8431284811066021
  0.1993032415560342  0.4328263222825726  0.0511047411703134
  0.1973708763988743  0.9410061117896454  0.9290046732744519
  0.1616838430583978  0.9632595935282638  0.8152301983353499
  0.2069366208816582  0.3696711593968490  0.2228420150145985
  0.6425151029691598  0.3681873349668173  0.7788121279566853
  0.5840920672916424  0.5832895847656555  0.0086220074809844
  0.3821499282200771  0.5039703743126975  0.9246509878658380
  0.4957482370596196  0.6490044774866444  0.9242044854389422
  0.7986399098065751  0.9304875847294078  0.0647519677116172
  0.1869582080423248  0.5455357747713042  0.0966134369649426
  0.3637831741549911  0.5143911252824550  0.3514216023506869
  0.0971721219552732  0.7955217718564048  0.5037744075623918
  0.6374642481048031  0.6888632248333220  0.0411419049877219
  0.5357362926205081  0.6168212659553297  0.1103666457064678
  0.3136455838044382  0.4389808334705428  0.0122454648413277
  0.4354469172759770  0.2904632641008336  0.8348841858657396
  0.4313442296106945  0.4150576024096453  0.8295616107604487
  0.0815031668437388  0.6016641652781303  0.2671558745248264
  0.6005300586853486  0.5353433646726083  0.1773706030998241
  0.5932108359563514  0.2939146459990593  0.2811811580252225
  0.4253432168689435  0.5854331345663814  0.1496503182589395
  0.4296402448744548  0.4373372054144935  0.2945053385128171
  0.5025686971042956  0.3397288239855945  0.4919506236692928
  0.4944493002669040  0.5177442947690772  0.3735255730551051
  0.4022577540216170  0.4733420166062318  0.5454296611894633
  0.4307796844333674  0.5910224274393753  0.5756711194142082
  0.5038613394490177  0.5096378023464615  0.5058739207707874
  0.6351162644891769  0.5092481123772779  0.7853333366437377
  0.1570733459368708  0.7195872492793629  0.5812107770094227
  0.2164079226248431  0.0653177378417245  0.1998917890984596
  0.5062596107036311  0.5272774111046056  0.9478647753541531
  0.4083271315882033  0.1141866055208190  0.7436356612189825
  0.3032892366399005  0.5595161188556916  0.0160911362261926
  0.2324046242232680  0.9377849513703913  0.5044383258030206
  0.4000356146053335  0.3976852380864213  0.1840882321151119
  0.0687807543027635  0.9199531218220686  0.0900945501734537
  0.4294614205649355  0.1505130054388426  0.1371449797093992
  0.2113515874069494  0.7836433129067855  0.7935568636645746
  0.1995490492499094  0.7670738604317012  0.0825469837925265
  0.3731683398876306  0.9457040549925910  0.0723731091581144
  0.3633568059942950  0.9405557090358776  0.3586098604345070
  0.1374472358888583  0.7091219378919414  0.9939547075330850
  0.2953237648139398  0.0106362152575525  0.2816760850102862
  0.4381541592763631  0.4312845575518065  0.4308943298604344
  0.7775164791539725  0.2199830552002280  0.0665992553619182
  0.3711829331134159  0.3598689795112955  0.5030384467932244
  0.4239832611306917  0.2982461114515271  0.4106824714231667
  0.6443503507966472  0.2201836944028609  0.6408237023924377
  0.9623208923819639  0.7818709065537669  0.4032923709502093
  0.5738560096826654  0.2858547273842075  0.8454753235244580
  0.3615173911082781  0.6383773850832870  0.9363533458838385
  0.2995872509271036  0.5898208346743737  0.1415500634585993
  0.2653146301774331  0.7121566646585522  0.1588267136310123
  0.0827689753618123  0.9358823433343465  0.6562527008613500
  0.3639722784795381  0.6502281074139865  0.3724193547020959
  0.2509908052256843  0.4641732099772355  0.3744178807585677
  0.3193074759412668  0.5569175941849049  0.5372844095847851
  0.2850965503390353  0.7336195068542983  0.5691168662764584
  0.5219709047406811  0.2202203282123180  0.6356196346356651
  0.2929110998510465  0.7264703267510865  0.7229710181235813
  0.5440816875973921  0.4777812585536365  0.2734166366969906
  0.1561014816126563  0.4610215548815466  0.8737938285402618
  0.1096300707438424  0.0973824940755450  0.4067222316823476
  0.4429774637397554  0.4341871500452039  0.0122171225528477
  0.2520204050340277  0.2758976906109010  0.1591876255260399
  0.2157633942123400  0.0793996650916074  0.0730958524276745
  0.2868993113391656  0.2924022159732134  0.2721905288229270
  0.3318482696585059  0.4723371145450929  0.4575611532417083
  0.2953745639684482  0.1507333713091077  0.4157726499978769
  0.2542399494701107  0.3881197496798869  0.4675889397436393
  0.3383342739634719  0.2701835590850865  0.6654145680767919
  0.2639225355229876  0.2645911872280355  0.7604897588139050
  0.2237103268188768  0.3760393349706901  0.7910054129006426
  0.3706862602578682  0.2236517399296962  0.7734714005423896
  0.2415334499830248  0.3812379088240020  0.9358116560833922
  0.3371946190594691  0.8115112516509468  0.9350652476073951
  0.9268956887413009  0.5063283689103992  0.6510225572338360
  0.4244612530273352  0.7274936391380513  0.8671720096931393
  0.4337263966859100  0.4340452183675830  0.7068367805668526
  0.5702126642976340  0.1426103781440845  0.1396948043889760
  0.4238405759490230  0.1588169430944408  0.4084630762442585
  0.4393711277796989  0.9827347413461944  0.5392748766058481
  0.5026118150826034  0.0914139845313644  0.4772858406100723
  0.1256859528157518  0.8301161676943666  0.6131616957463754
  0.3514324332008834  0.9256398364859812  0.4803981892550608
  0.5000339917229450  0.2103366883240953  0.7662773998609584
  0.1130463455834805  0.7871757869393587  0.2682927704366235
  0.5745650077516296  0.1481852271808486  0.8536414803938496
  0.4489373390978020  0.2976983900042787  0.0168220506648900
  0.3349094058320368  0.2006951758687457  0.8943511785513428
  0.6529064124719068  0.3598589740523246  0.6421176489830522
  0.5734196900328041  0.0043001715477181  0.7179401461994354
  0.6877000437577451  0.4710677287701265  0.4725507854507294
  0.4993620613633456  0.7909274344886191  0.6541967058900099
  0.6357319625978023  0.7974063205342014  0.3626859590533648
  0.3712337958313562  0.8137244525620866  0.3756607139784244
  0.5010010983478727  0.9400200082247517  0.0707485279892109
  0.5805723569616098  0.2892212270642567  0.7136240121925478
  0.3566916232465971  0.5073201318706814  0.2169517278842078
  0.5111928190246919  0.8049902618071882  0.2159996416573953
  0.5862642575438839  0.1442357726899423  0.7121948777115710
  0.1575566913166049  0.5782673654693119  0.8546923954560270
  0.6478417298226906  0.2156402659976729  0.7816253088662158
  0.6218509901570386  0.5059400433542444  0.3758152092171956
  0.2370280184435322  0.6311409192831241  0.9342330763217994
  0.6347117303467407  0.6624875688247507  0.3598692881074811
  0.4924341054790533  0.6597586783096266  0.5032995551246165
  0.5735995182109869  0.7207080146346588  0.7235082996410237
  0.6002083435920412  0.5341949028847972  0.6710563723495057
  0.5017298664463115  0.6551142060493103  0.7886391295741073
  0.7091742763574211  0.7151039388538866  0.7183721770509842
  0.2891938636841601  0.5794316179172164  0.7207929958829354
  0.3658090876115195  0.3783347871636797  0.6285534443481926
  0.5726667028784409  0.8705027038937183  0.1376967196650761
  0.3654814949719209  0.8003945374433101  0.5031073018871691
  0.6691094622254422  0.4938058812236741  0.2617682641357514
  0.4314739936514769  0.8633938732573434  0.5790747797232116
  0.2200860366709583  0.6610508081736599  0.6607039953354675
  0.2901560908680417  0.8650751692815833  0.7172334302372368
  0.5636696182579005  0.5866860730240852  0.5679199301247272
  0.5010230083651490  0.7936583845441211  0.5091411240115303
  0.7102393929060410  0.8629164963632182  0.4321833074919867
  0.4314057631368550  0.8659232105058868  0.0006645069756022
  0.6447276981214901  0.0758242213307030  0.9294926962737232
  0.5736375475632889  0.1480391912348224  0.9993572966433080
  0.6507140773274065  0.0736882921848247  0.6342571109681094
  0.6417654277348478  0.2158538156698565  0.0711760871687082
  0.6303346880522491  0.2000834833641079  0.2188435961799050
  0.5562078884573748  0.1299332303530353  0.2914103227920002
  0.6831014576597829  0.2501040963688274  0.4543351557977458
  0.4429940212134262  0.1625718235592175  0.5594044873214882
  0.5657835673462770  0.1333230587860498  0.5700653645621772
  0.4309391312645604  0.8709305451286987  0.2831052505124173
  0.3601680474330164  0.9366951464402152  0.2126093427772661
  0.3685119019307196  0.6881198739860859  0.1892379432485074
  0.2592969317046489  0.5016946482385164  0.9177771134459743
  0.4887301604744446  0.6575902781946130  0.3541684887478956
  0.4435095844818446  0.5657761170620378  0.2769615788075672
  0.2180083867956190  0.6537255097703596  0.7854538612846170
  0.4902866621278267  0.5105501504617372  0.6334779454269258
  0.4303314798011104  0.5893276645382950  0.8508331318236246
  0.4148339547357778  0.7306769948855812  0.9895591750092252
  0.4491471511961311  0.6938447089131889  0.1015636174384774
  0.4271827235762835  0.7501163969333454  0.2878298043029537
  0.3578252504955596  0.6617945990190320  0.5003169710968931
  0.4280974964738028  0.7212477262126705  0.5813394430527759
  0.4279252660173800  0.7214085423156595  0.7201295632087765
  0.2294010698128246  0.6349975357598974  0.5215308647690436
  0.2380702512358041  0.6647796507477354  0.3681599457624879
  0.6015807492081778  0.1582976564530706  0.4517100788489628
  0.3008721844759080  0.6114382827526832  0.2653738931985535
  0.4295115064375171  0.8629206024401321  0.7258301517216170
  0.5036201078951824  0.9307531033352028  0.7957508950375902
  0.7286569132348134  0.4270490076799410  0.5715988475145726
  0.5484457043752814  0.3303775553556423  0.6061314401863065
  0.4537615842652402  0.3087813855701324  0.6921725866794202
  0.3599271422037971  0.5161145573348817  0.6445277608099543
  0.2181848051462846  0.5034957621449000  0.4850729709374748
  0.5090379164760374  0.2196347828544579  0.9271615181346524
  0.6366819423986000  0.3594326401039311  0.9204407944758088
  0.7072894376743144  0.4253393706872369  0.9934244497012357
  0.6437423925563902  0.4937381466248774  0.0699484685706702
  0.7725068692146781  0.5636100038721836  0.2695319787351835
  0.5133566100373466  0.3609929515770567  0.2281468850921717
  0.5858244559387463  0.3050414983214533  0.4085836451345012
  0.5738514729186857  0.8566465610264674  0.5852994083167230
  0.1816903644654249  0.3062475260393873  0.4932029408620563
  0.6465859720091317  0.9348396322844766  0.9337084455013632
  0.5085552265888017  0.7900066075722284  0.9417351703649174
  0.9949394363834173  0.2604868337467877  0.4555637625246662
  0.6412709432227048  0.7889105171289149  0.6538002866011505
  0.5594762390291118  0.5966049669501969  0.4336275483572799
  0.1118696626051550  0.4216692847932135  0.9709322009142108
  0.5043828450309104  0.8013247374525966  0.3596041899586836
  0.7794042348812736  0.2159176784554160  0.9230122005648349
  0.5722414713523610  0.2923294318649161  0.0038216807066294
  0.1363900691380971  0.3457202294198871  0.8842282495440901
  0.5972941065189156  0.4215212674062326  0.1660681072785863
  0.0108681049997349  0.2912812724637094  0.5888671935253763
  0.6839972278983815  0.3718859843079088  0.2351408304057464
  0.0560920183010733  0.3336533359883930  0.7910776092613085
  0.6413267538165978  0.6614793466267462  0.5192457459322749
  0.5053598476358440  0.9344035343012768  0.9348891720648719
  0.1384338587820720  0.0080421355228590  0.0090238773935846
  0.4340020196835742  0.0110770463349921  0.1429117872921863