 B Cr Fe 
 1.0000000000000000
    20.0899999999999999    0.0000000000000000    0.0000000000000000
     0.0000000000000000   20.0899999999999999    0.0000000000000000
     0.0000000000000000    0.0000000000000000   20.0899999999999999
 B   Cr  Fe 
  69 206 480
Direct
  0.7870070568400241  0.9016016521781908  0.8879239671189461
  0.6552733712248578  0.4678410725753967  0.1868941726490938
  0.5330663093689275  0.1522172807297913  0.3903597690696091
  0.1887646015847144  0.0029285447148365  0.2804590020384447
  0.6627523701863619  0.3770047741200542  0.4206795490920115
  0.7336618753187609  0.2141073564739047  0.3530524676921581
  0.8944881894518596  0.6972249629697254  0.2154924319437636
  0.0659502376314258  0.2812988873153086  0.6770663916204097
  0.9638286667305140  0.2898643609915663  0.9596543555565552
  0.7502756428430724  0.7332142772579041  0.0689949759695971
  0.0692208943313149  0.4862220402999082  0.7021575608630454
  0.7600163368980150  0.8022350521962376  0.6665956643048814
  0.2759931861689532  0.2020068663103391  0.5047063688331518
  0.0991609147649211  0.9970625022940859  0.7339485777207894
  0.0354226885929361  0.3400737073225311  0.4114617784033739
  0.8445941474935023  0.2318525437699763  0.1972529145943658
  0.8239057096728742  0.2764198650591115  0.6103811818655295
  0.1455343632850895  0.5162510503661965  0.2326204450162281
  0.7786766449967257  0.3649037356473357  0.2863674674000630
  0.3426496738989860  0.3332275863867561  0.1993502940152950
  0.5707922642041257  0.6074906617443163  0.7388857246544510
  0.5171134556256543  0.9272801457493818  0.5410731897059375
  0.3998189855228119  0.2812497699439191  0.9338616602088408
  0.2686006702631697  0.2192173691217067  0.8442464711430929
  0.5856211402325828  0.7615104541735640  0.2982735606394289
  0.1657414515628069  0.5867368672983923  0.5944625310660354
  0.2661683053728895  0.8753624556153800  0.9603022082041067
  0.5777209615579524  0.7602333342224943  0.0183510130874185
  0.3672219274515930  0.2710422121620051  0.5862660116044098
  0.6848705671220725  0.5867976459996213  0.3423071373549154
  0.8421485533361687  0.1251549527268719  0.9722397294795264
  0.2499591344258879  0.9431013388668661  0.7562296876034114
  0.2718399329865251  0.5046483194875450  0.2976120170804065
  0.3262005425157901  0.5269066163768228  0.1357369039288193
  0.6065164320300026  0.5231736384532577  0.4880797330864442
  0.5773878935323150  0.6939298516878089  0.9532255009140215
  0.7777472925406899  0.2682411913989056  0.4065055406493621
  0.6701063943410469  0.4774363338532023  0.6497035803615236
  0.1410168479238586  0.2055841829868386  0.9268963779283989
  0.5451744533092703  0.2966619019283079  0.0698837883505653
  0.1659302212330277  0.7164082189441465  0.1670902334309665
  0.1198182988352226  0.7930801770449101  0.0097210827431361
  0.7870029973154595  0.9659099148266755  0.9503005386854333
  0.4281423669092738  0.7711223218613884  0.1773499447036536
  0.2672380225365906  0.8109324156450101  0.0273689599882120
  0.2055189189830801  0.2982709604306708  0.8589849328682826
  0.4267017301967876  0.6294608834463348  0.0294522693325669
  0.1636435282397378  0.5079773024263119  0.4120260220210504
  0.2641907687012296  0.0277804824805606  0.6284290091849251
  0.5350536298407078  0.3627562259477878  0.0170347996244636
  0.9728539815175087  0.1721286528909715  0.2567954638728377
  0.2080465528883972  0.0874161358933026  0.4449298558256515
  0.9125176055119941  0.4338789929904247  0.4095443026906359
  0.4040693408802624  0.6624372569635859  0.3029861623514647
  0.0656477091516815  0.1957066868003351  0.4032289072313932
  0.3700455343075139  0.0433225159960935  0.8066364861283295
  0.1764012612249056  0.8301822084744696  0.4217293360335682
  0.0083214499273158  0.2193661325604066  0.6600529667426706
  0.7391138827754372  0.9380297139238335  0.5167346989360810
  0.0354917592250765  0.3075382228959664  0.0077001434323722
  0.9796286260958038  0.0697696412826259  0.5967474766570405
  0.9323103209550561  0.9221707856721864  0.9007280914775830
  0.0072860781317398  0.7784036733419710  0.4900832041791821
  0.2626185954371798  0.6089251033384800  0.0114852695458164
  0.9955860918863058  0.6416504896768291  0.0998965468750185
  0.0487820328259169  0.2020200514886943  0.1223403792145964
  0.3305092278970285  0.8697060834470121  0.0169507777266614
  0.0106402033262286  0.1176015311692656  0.7716891665902523
  0.8705519189248286  0.5501128434064323  0.2426643751310708
  0.6144206593654026  0.0695651293033863  0.3884567240931052
  0.4803551079181937  0.6485025762065448  0.2228505433686272
  0.3895005729791373  0.5065254429796903  0.9343863932654065
  0.4377485581636500  0.0024878280723496  0.5596287930171022
  0.5043644506358235  0.3654498914530951  0.3557713902261256
  0.6370136512370017  0.2187889342264600  0.0701724132085409
  0.6451114079515012  0.0696106823019916  0.2147817982639339
  0.4839456393380587  0.6357824297051814  0.9293999602009685
  0.5955046493788515  0.6819344255537503  0.2265068081488022
  0.5340263973842123  0.6070987740716846  0.1200886819455015
  0.5710605325651651  0.2845800168846861  0.8525815392945671
  0.1335578770039494  0.8541318086566899  0.8557786802745122
  0.5020165550854966  0.0718001940748666  0.7871702851736909
  0.6523976641235502  0.6845252055830093  0.0334527354645977
  0.6461664064802388  0.4989790234491952  0.0812383134590490
  0.5134786935057941  0.5157849695623883  0.7706889995956084
  0.6379739339396963  0.7844334956369114  0.9306328415099697
  0.4524916665174446  0.4326451356412688  0.0120464089911785
  0.2712412593485133  0.0071121981960216  0.8487270430221185
  0.6529924658406886  0.0846774882811974  0.6406621875118431
  0.2948367260723457  0.5691449200994227  0.8527444293055001
  0.5599152435686433  0.4490510287706783  0.2502226331516390
  0.5060441492002327  0.3647282742759286  0.9171300153639136
  0.5667448904536756  0.8535375034878836  0.8599438767897549
  0.7865962877464771  0.3516354188416753  0.0643698235205648
  0.7142290390092896  0.4356996514186017  0.8552015329716470
  0.4192051784920688  0.5586605645837535  0.4462493792823931
  0.4954511645631144  0.0556933451052157  0.3608795263712880
  0.3649150821913081  0.2153792501674449  0.2177620026225372
  0.5744957274469571  0.5775995648977617  0.3018184603386904
  0.5944532456435395  0.4529561885347869  0.5740183896231296
  0.3637919939695903  0.7920963673698996  0.0829607133221762
  0.4762789409028059  0.4026467279124955  0.6043686511787182
  0.5742938554769078  0.5838576370945040  0.8556595701253920
  0.2236277841254034  0.0676230793652942  0.2020616014828669
  0.2966772460049659  0.1455875013027477  0.4188602310473121
  0.5870843655232043  0.2558226651407878  0.5405007094447917
  0.2916416084425961  0.1635743042296428  0.7168199651463839
  0.1805306643153064  0.1961204145421395  0.7736823593797187
  0.2917830518425557  0.4241346525464212  0.1421938823012278
  0.2694720488757228  0.3024673562663676  0.5650368898790273
  0.2858857978014616  0.4368880691350857  0.5769160632157531
  0.2207465747076717  0.5077112579605582  0.6438534146516555
  0.3641063068555380  0.5039632185618372  0.7814268132996589
  0.3362270902491468  0.6591537062334379  0.0756487380828721
  0.0817947477287014  0.6455967978238467  0.3408108305954334
  0.4271034707003665  0.5849423712843306  0.5765694588880186
  0.3564993481709900  0.6478306513763339  0.6475665590592380
  0.1437869821178508  0.5685769840139834  0.7160059351461050
  0.6949889818329688  0.6289511987283838  0.2441762544177504
  0.5723052074587762  0.4272952930694864  0.7000536508722072
  0.4364671241062012  0.2803493205752305  0.1548303531561382
  0.4298760503506291  0.1347933714262928  0.8537454898680156
  0.3672991647467324  0.2304562675614715  0.7839033327250071
  0.4116784577083035  0.1978613066557656  0.6664341868961736
  0.2629886461333264  0.8728777021216979  0.8459003789159846
  0.3527481414964940  0.7912030758116174  0.7966946039759907
  0.5734597690173173  0.7125733796072485  0.4483028994247487
  0.2965404504670353  0.8609723160696092  0.2949455116230202
  0.4977325005291772  0.9290834805008452  0.3590201949546711
  0.2131842106384808  0.7799780326865429  0.7924408126200514
  0.4322800911385762  0.7042309393077366  0.4092682090845475
  0.2831059224395506  0.8369095617052041  0.4170491665707738
  0.3241235616037541  0.7362257339094173  0.3258420614320723
  0.2944090057873960  0.8555067580018896  0.5707322210163996
  0.7113716856139740  0.8589940282264564  0.5810831198882218
  0.8028328235297755  0.7977422197398588  0.9142163803738801
  0.9225140934619103  0.0780912610941713  0.0926244960031369
  0.9193910022921233  0.9313183595641352  0.2227634971846510
  0.9170383584197306  0.0780149942287601  0.3728151494953778
  0.9227990807363707  0.0609613116174623  0.7866032276107795
  0.4915598123383128  0.7946780740849592  0.0758743887859717
  0.7683303523533684  0.9479995953687207  0.2270049193594553
  0.8604864451332582  0.1524443764609623  0.2739811964489209
  0.7935330788685805  0.2167139885205261  0.5095084426636480
  0.8722962340282802  0.1248409176964067  0.5823152782344029
  0.9052494011979393  0.2193651301633856  0.6476263265410345
  0.8275862739520525  0.2684160119863458  0.3055967944119639
  0.9385087548066606  0.2032744399856345  0.3577406126206806
  0.9362225218252761  0.3654218349330931  0.4903996343510296
  0.7213092202931209  0.2892106297817964  0.5755074617547360
  0.9408360995745323  0.3559625381178098  0.0478201586956817
  0.1496503644191619  0.8592096020200701  0.5866133085073861
  0.0671815987286596  0.3850727866844574  0.6518303880534569
  0.8556479293224166  0.4347997196896087  0.7152730021196880
  0.8775408126978284  0.8519542622239455  0.8377818998761317
  0.8544928339044219  0.8504225698883526  0.7107447946873056
  0.8773231838005172  0.0173117051376853  0.9871538701600452
  0.7804522893472864  0.7881249891130988  0.7789637441037855
  0.8952486141390218  0.7405477765040714  0.7560725100894090
  0.8922030022279096  0.7587692994473519  0.3168648352219250
  0.7844632690642088  0.9252521054839747  0.6450393834250149
  0.8510280788573484  0.5753300291377815  0.0052248420089396
  0.8496308563373631  0.7135129508039724  0.0069461508264640
  0.8531137954153598  0.5791893242231971  0.8562602896591344
  0.6479902114423449  0.9345695899830727  0.2107746170918816
  0.9484041924691961  0.6092895277551182  0.1970763805585508
  0.9726757249892856  0.7045515269011909  0.0151977100449085
  0.7973955214435834  0.7161184596497893  0.2603281643238830
  0.8343420597825331  0.7436473530676823  0.1327420011998891
  0.9345126326528790  0.7863888153954717  0.6415680744908874
  0.6675315463962880  0.6042291662455558  0.4520058905692994
  0.5027309706148835  0.5013140277437936  0.5064349771014960
  0.5644634728941423  0.8553383748507238  0.7207816704857132
  0.9466875073153982  0.6552384539262741  0.5012548833826956
  0.7829974347644550  0.0675282823735072  0.3556967315101731
  0.7138030362938097  0.9859701261325529  0.8652083961110602
  0.7199903094398309  0.1480261958554905  0.0059432658096805
  0.7481456637649092  0.2087161223699732  0.2358029980784753
  0.6351259174982808  0.0652922218908920  0.5059521386896597
  0.8553972514727893  0.2887788446357558  0.9969255254223740
  0.8327302119891317  0.3674443733627938  0.3765513294379469
  0.6253938810231343  0.2081457525856783  0.3544160629733937
  0.8527194052805193  0.4284472799724793  0.9959277430960243
  0.7953481304995982  0.4582336518680026  0.2254633538767224
  0.7366333756501817  0.4367802673021436  0.3571889203661592
  0.8598817404628364  0.4904984078664393  0.3336715506125545
  0.7662084758905704  0.6287214966976069  0.6168785800132851
  0.7315652726179406  0.4258605750486115  0.5699069690865214
  0.7839730276052925  0.5052046290109915  0.6438693218728140
  0.7914134014871679  0.9466012783782490  0.0618340093995179
  0.7230289725040102  0.8784552507854642  0.9765841976013178
  0.7213968302103405  0.7222642568061685  0.8525890784684054
  0.7099680586585030  0.7150702975210858  0.7118263103797204
  0.9710433649249642  0.9032116972395660  0.6840788419487516
  0.5769874433973204  0.8700878652160751  0.2894764474517466
  0.6312955537970120  0.9328379566627883  0.5172868065945946
  0.7114338801620791  0.7164609263839312  0.1620900376412695
  0.7874217651802314  0.6431539601428334  0.9302615680071402
  0.3401499849824700  0.3773830753698837  0.3825502334569963
  0.2137596845516935  0.9087992262598396  0.4922204284687684
  0.7842185227464477  0.4920532812229170  0.0669047520091545
  0.7729795891874192  0.6313348803395729  0.0801589795879531
  0.0635508690923629  0.9270331269495939  0.0810250219844506
  0.4449917292347029  0.1556633270633166  0.5613773000192392
  0.1384019995325960  0.4061206377382734  0.4249097838895664
  0.7656132111514449  0.8178088217813484  0.2201279814900197
  0.6475592065441624  0.5090842808431577  0.9212648023337721
  0.1456600268860773  0.7179448335602019  0.7162585470099730
  0.2319551947717458  0.2232383723591118  0.3465060667791044
  0.5701538844196021  0.0038453865089773  0.9986801705399925
  0.1235764082367835  0.7306549348052711  0.2688073875511997
  0.7775345934697343  0.5609882707949759  0.2900275112121284
  0.2604966745843476  0.5744359557793778  0.4274466572417779
  0.0556677126407833  0.6493766472646647  0.9271326838756691
  0.9988837110835354  0.5757467115332008  0.8521625226343799
  0.0779027135941701  0.7816285354162099  0.7912080737437956
  0.0941139219867048  0.3587509225053877  0.1997856357444604
  0.3031895617524972  0.6060028420015341  0.2841772067462352
  0.0841631252991877  0.0579281960713198  0.6295935228601166
  0.6345568519063948  0.9285085049446701  0.7899791020306561
  0.1615446210354368  0.4379556062328831  0.1461447313236695
  0.4946603570180323  0.7887599303346017  0.6505357761481774
  0.1774250871900367  0.6253278232516750  0.2250917589849084
  0.9737236169424363  0.5781917370318560  0.0109329913042800
  0.9959497840391952  0.4384697976921836  0.8576288451735971
  0.9687889744480276  0.4479130754636542  0.3198197400573512
  0.1088825932993450  0.2353460933264771  0.0383935316967679
  0.0763292278072090  0.4859363400390203  0.0535739273365291
  0.9695783855422113  0.7355623687140403  0.1431786509925099
  0.1371773970620573  0.3129756782188169  0.9546389444426397
  0.2336252262527437  0.9225460822352254  0.6393130502938262
  0.2008525814773768  0.5123257614982454  0.5131223794578198
  0.0572246870040297  0.9572979947215603  0.8995577262550838
  0.2220068113157222  0.0768905698416131  0.0745641859060723
  0.1993525844671862  0.7968061102982051  0.9381111691236651
  0.9723850848501912  0.8574805302151317  0.1409318685525239
  0.0798327854976151  0.7189116597387808  0.0756773783002351
  0.2066675423094159  0.1149563996585616  0.6508876290982840
  0.2536399853267255  0.0947422765701235  0.5381295572247747
  0.3661466719308988  0.6884657265865125  0.2040421930707441
  0.2098479920663962  0.8097556721868291  0.2097597145954006
  0.9331177745227678  0.7898358264763796  0.9392944873732126
  0.1610789760713471  0.5623299606358926  0.9889400618874541
  0.1122434449648591  0.9858944073394988  0.2052365583962961
  0.1626973663157215  0.7188061846709500  0.4332763855602305
  0.0803597862688357  0.9344184217809380  0.5170337890516449
  0.1729332822219509  0.9997996329304863  0.5713821117410391
  0.0231417819601396  0.8944428845983662  0.3268499193900692
  0.9930215783081515  0.6897238706998763  0.2683238048522238
  0.2345309528198156  0.3863071344713719  0.7988685245099043
  0.3517387436158643  0.6322347782164639  0.9402507565824292
  0.1842584457682874  0.1883179979673360  0.4439359648511476
  0.0666939255965256  0.2183064494358321  0.2207888952125756
  0.2736244540872660  0.9646928803079622  0.0263609102522905
  0.9763545777711297  0.2711111312854869  0.8453691967447655
  0.1451401184562322  0.2739394666074582  0.1424724972361839
  0.1463247536228126  0.7117741676597518  0.8621827876623200
  0.1034271001687309  0.1873297110021088  0.6375480519018519
  0.9355487940490149  0.9362837776136732  0.4945087642046949
  0.0537900754196943  0.4662074413250129  0.2294483722553071
  0.1321789422842481  0.1823686617023004  0.3213605535698978
  0.0007914891530277  0.0155533060613059  0.7089562605566281
  0.1825827031282696  0.8840160017287140  0.0336708134152123
  0.0518134125167093  0.0347907193293811  0.8209547803933714
  0.0386849888610535  0.2106062103017041  0.9418585022178101
  0.9985075561785031  0.1661814267827389  0.5603724996375322
  0.9423941557317538  0.1871652288719527  0.1547038806528317
  0.0514832901334813  0.2140060103864964  0.7590213158979140
  0.3058048517175342  0.4088889873487644  0.2728327648216057
  0.2991224436715730  0.0006531096410604  0.1439464976375090
  0.3653533557015565  0.0946105378847135  0.5024599766652664
  0.1529818866833546  0.2953409637139587  0.2792582065629734
  0.1882970204166980  0.4836559779395265  0.8913601828839801
  0.0107652153600712  0.2904970771486903  0.5847102949082382
  0.2391617297967763  0.3787250876982449  0.9386151910122050
  0.8273594983227880  0.8148003214259544  0.5957516847512310
  0.6914738316669244  0.7449491342958651  0.2917371908163839
  0.2119845619407860  0.0822624381163717  0.3435760841005081
  0.7850395398748996  0.0561775460628692  0.7906226147781850
  0.7754768157365760  0.7941507096907090  0.3610630026629628
  0.7056483445884023  0.9934269016310029  0.7184682868300168
  0.7357779942667312  0.7365633255034515  0.5863580299402810
  0.7916594027572956  0.8214304557965195  0.0482838440363620
  0.8566586733681226  0.8925779646055676  0.9665809816033242
  0.1555848410190523  0.0034340412386870  0.4490064006296990
  0.7193966203994722  0.8783146026658202  0.1339709445523107
  0.1869730648991646  0.0063664922043510  0.6959442925621171
  0.7012027867247914  0.8537833336462430  0.8558474344991434
  0.7761803338172482  0.0673145995327417  0.9283701832580501
  0.2946442368519634  0.1439704060526392  0.1439571029000258
  0.2009049353325040  0.0813024476255211  0.7859175450162592
  0.9754953003424990  0.1276245308180954  0.6792407494954041
  0.9712239735437769  0.8235308799199663  0.7609577814948209
  0.8630695272013614  0.9729919180410120  0.7335275967942464
  0.8988628148744319  0.0238639405484200  0.6387751835135099
  0.8224472330989745  0.9999927183539644  0.5483412201032778
  0.6948610008991327  0.0042377099473826  0.3092062791351876
  0.9324647717187768  0.0524520425942339  0.5060024515482270
  0.8543501566101280  0.9904219698286085  0.4293133285037460
  0.0597729481226277  0.9096426876841101  0.7709309712729723
  0.7191914811343777  0.5757403198506861  0.8502926743418396
  0.8536386505046096  0.5843812194217134  0.7061048949009172
  0.6991215001998228  0.8734057337344915  0.3040557788991554
  0.7145287506035713  0.1368549934610270  0.4326903364423878
  0.7109666154259268  0.5737170049364534  0.7084566656747501
  0.9551116669006299  0.9440603508663425  0.8052988816669648
  0.1331941369434750  0.9987739970501152  0.0030023034918141
  0.7231633144919108  0.0102955679820442  0.4484871472687764
  0.1910005168232213  0.9735653580707706  0.1121538809722909
  0.7767129507222289  0.9185055724731598  0.7857023863457128
  0.7019108821499717  0.9956304616600365  0.5868855965780511
  0.6457537804742696  0.2194356256637570  0.6498772185117488
  0.7007866922292362  0.8612939059462350  0.7181921415619921
  0.8222205796505574  0.8909210176723573  0.5028070264105565
  0.7023322612536947  0.7263984062260205  0.4349918030020841
  0.7776042004970845  0.9327802942525864  0.3675976600930019
  0.1535388331967275  0.0423784249674112  0.8912777183347920
  0.2096707792855893  0.2014754326130043  0.2177689274398557
  0.7832909890102202  0.5058710503251553  0.9295036163088339
  0.7880518028999617  0.5109174971748718  0.7812716754684133
  0.7201967240479953  0.4345707734365201  0.7239514631429069
  0.8290123944564678  0.3439397351426022  0.5363508316239268
  0.7751480536084785  0.1899126429198700  0.6361373473960730
  0.2312048477928139  0.2449962339794815  0.9485397913943526
  0.7073760249876824  0.3145509371645566  0.3456831033733962
  0.7211544253886281  0.4147491467536049  0.1306012611768506
  0.5684849617889530  0.2728685498017015  0.1592803540782362
  0.7130117176327634  0.2846755611846460  0.9975040140119490
  0.7211312977405400  0.2838461694555059  0.7152351207239349
  0.2454653158670131  0.0455121959872500  0.9616919096699632
  0.0903893414325936  0.2252209399750567  0.5110031277512347
  0.7861232985762944  0.2092520525725863  0.9283672968331396
  0.7801256927185687  0.5355317502453626  0.5217916533823230
  0.1044078458234677  0.1439440274172542  0.8506427012971767
  0.2212106918310898  0.1419330470340313  0.8921195419856233
  0.7896895121113634  0.2062882637926967  0.7873083974501722
  0.7155643094577494  0.2858812930126168  0.8568284868140508
  0.7855101390060525  0.3603306276153518  0.7889591479715656
  0.1959026614988034  0.2053099667751803  0.5624380853508332
  0.2245551476819559  0.2100827163119944  0.0690833636298188
  0.8443096039937568  0.0089027166694636  0.1564402060655022
  0.8498341953416316  0.9809606777719956  0.8656184126378584
  0.8541211437104869  0.0072082301280353  0.2898699513826274
  0.2196186761640629  0.3369562201943374  0.0617757467549293
  0.0063916360627513  0.8513245548689362  0.8712969116491726
  0.9158500344964228  0.3601657522739620  0.6270824138674752
  0.7088225170393282  0.1401418901647736  0.1390830547043817
  0.7579820530569155  0.5430999396059870  0.4053195214065084
  0.7795244596868759  0.6494688347848050  0.4914840259893791
  0.7901437980164542  0.3665272251647353  0.6509035292043387
  0.7297766525077272  0.5402060197523262  0.1672274396946437
  0.4048554592404698  0.3157779089049632  0.2871300856857817
  0.7880176361572103  0.7821065255856394  0.4880804159066268
  0.7611745668410489  0.6576963042309695  0.3613666332367289
  0.1513162631983609  0.1278939858523673  0.9954735930524480
  0.7319047430726748  0.7397145596252915  0.9742172121841015
  0.6803047561645108  0.1791364776790910  0.5481882298259741
  0.7511757598913010  0.0977243228207066  0.5509813565300384
  0.7939471599365057  0.3248552826716543  0.1931961349674965
  0.7158243179216940  0.1386043680448030  0.8559019403112288
  0.7101530154659970  0.4309072884121007  0.9963890890458080
  0.7112848571725874  0.5708972511969393  0.0031397560159406
  0.6935517571287664  0.1282391494852986  0.3090594939871729
  0.3579859118936065  0.7900109407102985  0.6473079528556959
  0.4959553713925279  0.3747784284967952  0.1123726996907640
  0.9470898248546726  0.1158803235419430  0.9800583496342953
  0.8225648980574694  0.1756266442556899  0.3868256268017805
  0.1407227747186560  0.1500727922385345  0.1331778530109962
  0.8636552944644499  0.1806554653000711  0.0493625344960234
  0.0424647581739650  0.9035494173940629  0.2108707754723093
  0.0120430961585902  0.8514616066719481  0.5705740865214257
  0.0790381466150776  0.5042132357840028  0.3517946685444255
  0.0110656125272813  0.4353781730378639  0.4269917076881349
  0.9309236210450439  0.5043326903740281  0.4931287203471740
  0.0003739028145076  0.4369468798197753  0.5694569035436262
  0.1003085110913794  0.5094916935148985  0.6106650728707476
  0.0840394940726951  0.4892966457256082  0.8026198459794309
  0.3443929461727459  0.9086145120589922  0.4771766506671887
  0.3169496548748431  0.4315789828107581  0.0229982416783052
  0.0774990781779063  0.6101729990955851  0.0458622190423246
  0.0140756172153013  0.5443089527793692  0.1338354819253093
  0.9686180557788479  0.5606046232301455  0.3099978348424363
  0.2144937630661702  0.6645132238186308  0.3452551321336819
  0.0712515503330445  0.3789715292012923  0.3241280601115772
  0.0139389543406512  0.5717014286435624  0.4321569546575006
  0.0799171775819071  0.6403808407611254  0.6472515832078444
  0.0076652935169588  0.5671612766580987  0.7141001651605752
  0.9572152975095820  0.0246963118984978  0.9018058023171506
  0.8581602104770094  0.7176249001519401  0.8606032614047664
  0.8958949251059768  0.9049355474412698  0.5993586799137953
  0.6295111972771855  0.9263358147319952  0.6487083946484954
  0.0162181645075600  0.0031320648405305  0.4109299390927727
  0.8754384993605981  0.8475770431054246  0.4062013866557503
  0.3568703483967440  0.9396038431710396  0.6498062756965739
  0.8425538064780235  0.8750283822499197  0.2897129995792244
  0.0356283428586206  0.3424794378390785  0.9091323240753216
  0.0072846050433914  0.4213491172531598  0.1264378409275268
  0.1741114882435498  0.4302562774753956  0.2815368427611152
  0.0463202481221624  0.3531310758652705  0.7829935677136897
  0.9227731063073051  0.0771245371439797  0.2215382755536086
  0.9922110435135464  0.9969308676653371  0.1506255895044789
  0.9977987362628922  0.5701644952532137  0.5741149856822336
  0.0008019597049291  0.0077443135209661  0.2776824540760463
  0.9971679825060727  0.4311296083668162  0.9850805366644408
  0.0507991725110952  0.0455494013321344  0.5149488572143675
  0.0985881055254163  0.0454908403536640  0.1047329782524530
  0.0169203785497541  0.2978959556687915  0.1286137744704757
  0.8416331222695836  0.8773017310706958  0.1468285215075108
  0.1255555649796970  0.0955146930908320  0.2490688289834719
  0.1060106248527394  0.0007753177754558  0.3332104700813279
  0.0314595909682230  0.2618633463941253  0.3190541104591760
  0.1012166443214848  0.1038230718266431  0.7292309751277911
  0.1359942831157099  0.1129185488928688  0.5311083618019675
  0.0547741007679537  0.0797223275612989  0.9422743570136660
  0.1443155854456639  0.3080641163937847  0.7341990152772754
  0.0292631177634609  0.1089296188662897  0.1821348876897040
  0.1062688291724636  0.2653557458900119  0.8480927679388734
  0.0046604433703339  0.1286766537466087  0.4432569185991417
  0.0988491609156142  0.3650836294385025  0.0639491557349629
  0.9063804965365804  0.2565900675247864  0.5448503054383967
  0.0532094464838083  0.6971851618638769  0.4517589542075376
  0.0368474682495129  0.1300645963554507  0.0543544740518652
  0.9837186147854365  0.1393888776867981  0.8641332678477321
  0.9949757379027228  0.9719673290945889  0.5892528388502657
  0.0267215025559253  0.1186716274568154  0.3207341291036018
  0.9714503965937401  0.3003714482977879  0.7113241691749232
  0.9848946199765648  0.4331718503022823  0.7184069237477753
  0.9131183384139078  0.9449253298821561  0.0779824159171612
  0.8658505010487365  0.4101704096270429  0.1345133422387525
  0.8949938524742033  0.6452899773510318  0.0960540053725676
  0.0247638590451827  0.8126903888859196  0.0457032130487390
  0.0052452036011261  0.0142346871782558  0.0249133274842276
  0.9274941811770546  0.4882347754017213  0.0648420112010353
  0.7828954052961937  0.3591246798445717  0.9253445713442001
  0.9151638117187421  0.3668492844651176  0.9170740606531713
  0.8525573543503281  0.2827970403843132  0.8526835934549840
  0.8505768970184153  0.2885623951377375  0.7182730149720143
  0.9176903300649222  0.3676274420647458  0.7925282554555088
  0.9228197323866260  0.1958999569733504  0.7754650217622249
  0.7665900420962470  0.0724375523692958  0.2303530721334615
  0.8731988430939238  0.2760921414133821  0.4339610662934158
  0.0110729239498406  0.8003439857689909  0.2633983512640958
  0.0890778998936237  0.7890113515335729  0.3663743392200321
  0.9324561683095616  0.4786510340225361  0.2083891208974106
  0.9848759122589799  0.3617038352680619  0.2324439548792971
  0.6863380951140228  0.2934543668114357  0.1574285253691442
  0.9707536808447611  0.2298631183088194  0.0419586785150857
  0.9091674342226067  0.2094571324975301  0.9300899455953862
  0.8596982615170783  0.1223886058414794  0.8644366941447172
  0.0024605927343721  0.8711717926753633  0.4426265239909550
  0.9941883425644794  0.2575788596684316  0.4531426813175425
  0.8513839948037072  0.1260291319428113  0.7133231827764346
  0.9053356894002240  0.1691288972511633  0.4714752339087904
  0.8232671867417448  0.0925349104369069  0.4676096306860364
  0.9208291743427099  0.5089886381971321  0.7863961990033199
  0.9298981336792643  0.2632328086724908  0.2449386587306165
  0.8876048371259484  0.2882546433895723  0.1223602852877450
  0.8770924275348303  0.3802387720062934  0.2631078935632922
  0.8162187062232957  0.6303882658638370  0.1931032250239674
  0.8238425122643727  0.4507745121487447  0.4554360646762014
  0.8247198616502198  0.7200367722174261  0.6741127992817396
  0.9347593847891610  0.6529943084231681  0.6469969455872822
  0.8602632042927008  0.7057186935983126  0.5610629724973181
  0.9141019398012673  0.8016431441715448  0.5115610266551573
  0.8586488654474161  0.7128090517595774  0.4238694969887589
  0.0826945954184926  0.7876582368004111  0.1709536614171876
  0.8970659574433421  0.7995603259149064  0.2159900889590020
  0.9070463720629397  0.8161935006803465  0.0534653609117031
  0.9246854177433298  0.6440506911962278  0.9228675405342559
  0.7891611001090203  0.6520330577307036  0.7799880825342395
  0.9316086405455474  0.6374029222144482  0.7832874761752160
  0.0163682054977091  0.7226496438070220  0.5766782461218816
  0.8701484319853032  0.5837487926251840  0.5711701760348403
  0.0840556840180156  0.4958657610089404  0.4918346863727349
  0.8689851454186296  0.5844728368564842  0.4224388680312681
  0.9612614702629972  0.6601066911296445  0.3792607783372660
  0.8747326217491068  0.6345794700344917  0.3049173793851790
  0.0683978018338618  0.8111110226347863  0.6699854088958692
  0.0093636256258370  0.7141619970679286  0.7132019412566624
  0.8534275039520102  0.5378417220294132  0.1384940337255064
  0.0710778266207288  0.6470805848846496  0.7869054775072114
  0.9477285123801616  0.3363070008777668  0.3584452679222010
  0.8303272506315810  0.1370298325963911  0.1567860671559834
  0.9227234088685767  0.5074142251704938  0.9261369771925965
  0.4870601585040281  0.0843064547636427  0.6533905573304899
  0.8486110917517570  0.4400392288036011  0.8560118797812365
  0.8583583916905148  0.4493694299270447  0.5725488018017469