 B Cr Fe 
 1.0000000000000000
    20.0899999999999999    0.0000000000000000    0.0000000000000000
     0.0000000000000000   20.0899999999999999    0.0000000000000000
     0.0000000000000000    0.0000000000000000   20.0899999999999999
 B   Cr  Fe 
  69 206 480
Direct
  0.1706547528950164  0.5134862622486026  0.4171129331879025
  0.5761462708916367  0.7614315114292358  0.0244265202001331
  0.0937644938524245  0.9987681925564063  0.7363975369885861
  0.2777431540082367  0.1965047898702422  0.5041126628554948
  0.7534927793648759  0.7944861018459435  0.6667984985631313
  0.0730112449478689  0.4933735903723198  0.7012595715963708
  0.9291689474812853  0.6737930061079098  0.2761640584151401
  0.7687372271129481  0.6277579502137250  0.1741609348739608
  0.6661461548578205  0.3769941405241209  0.4129133805412401
  0.1912542001471973  0.9984996157936040  0.2823859074504314
  0.5310168566529685  0.1526907134042111  0.3856418234974315
  0.0074443080565758  0.6316269251298137  0.0869036296300061
  0.6107356260327251  0.5247762193199316  0.4906074207750446
  0.3702990795643321  0.2747329361412456  0.5876789353275452
  0.7413123626812085  0.2008684701859229  0.3409569006930815
  0.8419520566465789  0.2295488098923634  0.1966225988953704
  0.9319341010749811  0.3541958760307615  0.1653876173328236
  0.5206253813969871  0.9217410679972537  0.5308438897093035
  0.4073196100093058  0.2821385648363880  0.9358205143424845
  0.0339608561208340  0.3466972978638084  0.4100222632473526
  0.2734245103857375  0.2131321330750520  0.8402804168294076
  0.8876737899188755  0.0963944966564106  0.9232398327737659
  0.1600992634412057  0.6086962278879754  0.5991627446370620
  0.5829488010644811  0.6358193960637454  0.1990820505896742
  0.9632789110110702  0.2821064844435909  0.9647589656986348
  0.0672647502944907  0.2857090020642398  0.6775562529246167
  0.2642548579464216  0.8732435388024183  0.9610124776893598
  0.1427475171845692  0.5375804786383689  0.2206240980162888
  0.9685473312890858  0.5603408659625507  0.8745933634994325
  0.6990062308376619  0.5643659743844354  0.3346601095918454
  0.5745652181609906  0.6042485672181380  0.7367540843494492
  0.2464433276465329  0.9444646692033861  0.7555403549475405
  0.2747106759293171  0.5098621981044571  0.2988567797600553
  0.3208331159592376  0.5285763151433707  0.1384744322803258
  0.7903985145288441  0.9926768516725843  0.9622961894295929
  0.0567717019521613  0.8206293922629003  0.2755575225275483
  0.2672377905640384  0.8091604128894634  0.0244106906485648
  0.6944791779377955  0.0415412632054208  0.3795044616637860
  0.5275211887458865  0.3673990501634536  0.0388553770136250
  0.2424448520760417  0.0245513374085109  0.6149381998424299
  0.2245759716948860  0.4699177297756590  0.4758762666095016
  0.1830190584767130  0.5667651159298361  0.1483034896788041
  0.2968338250913859  0.0892932787110344  0.6219814213116831
  0.2011560841247560  0.2891773793502194  0.8565621476298536
  0.1455073932041321  0.7563080745378189  0.1581018183183067
  0.0521672143142803  0.6217099192132991  0.3595860736484990
  0.1568330818393691  0.2068097056794707  0.8992204470802443
  0.6715231019277913  0.4744904717965418  0.6482507260332424
  0.0348324798336865  0.2922075289836099  0.0172874219933491
  0.0073511676180047  0.2234127639437448  0.6611937614534856
  0.2423403998327600  0.9839132520833521  0.5298630202566588
  0.2107344440315242  0.0932990030552002  0.4341832072382234
  0.9081446306169541  0.4304989983021034  0.4034266955875530
  0.0436046822010701  0.1900735829358157  0.1274456512341026
  0.0744408974966983  0.1990006516634548  0.4071443173594831
  0.3297350785133246  0.8677043470396471  0.0178689828102331
  0.1770544203471634  0.8376515431409286  0.4200436785039792
  0.8749562700661800  0.5397735891599282  0.2456256483253218
  0.4029624391393364  0.6586654089763457  0.2914606023433093
  0.3730589897149039  0.0408438416678792  0.8047896545921108
  0.9673922355829976  0.0756465838695392  0.5941922032599710
  0.9211788512610096  0.5366418986535358  0.3900449835418106
  0.4345008333615410  0.7594809117479566  0.1714257580472674
  0.7742512826482272  0.2625880737395898  0.4015108781405931
  0.0062315041458456  0.7799681535337656  0.4946252116326729
  0.0107361996419909  0.1165879476290417  0.7730812393726727
  0.2701909200335762  0.6011268632969692  0.0075670399805935
  0.9666086754808483  0.1683155333535468  0.2637579005842935
  0.1254698191900167  0.6244886966021012  0.9286349990105672
  0.5751441531211563  0.7164621172370708  0.2772170164086376
  0.4982742941537105  0.6416897844140913  0.9259033815525113
  0.4554036257581602  0.5754183479787289  0.0250999685977546
  0.3037826560617281  0.0335114708561824  0.7158908754357115
  0.5058808950392819  0.3657201771544530  0.3548233390505774
  0.6433109123673098  0.9323394639128322  0.0691922561339210
  0.7142626824841962  0.0032425965687412  0.1385783001374107
  0.4884524525728438  0.0563119431083181  0.3567878982452612
  0.4840682947580596  0.6653456392316401  0.2193274221927562
  0.5288469604293954  0.4846459048198279  0.0838922627464871
  0.5700272174314417  0.2873583698631725  0.8545529340842639
  0.2875479854859800  0.5705592354836150  0.8520126689735172
  0.5025698756373997  0.0732120395806023  0.9288236689495305
  0.6545121698865650  0.6137320483863919  0.1214172547629239
  0.6345644093717718  0.3639202913241188  0.0663994642849499
  0.5128721379413403  0.5122495449438933  0.7703331733826382
  0.6451925687608464  0.7807068379296169  0.9410226935372819
  0.5743882500256228  0.4319608460352238  0.4349023640615116
  0.3551249608199171  0.9340156063377605  0.7924554656790085
  0.6358214100400028  0.6541983347133620  0.5097400780408857
  0.4157380930491418  0.5597488117605633  0.4546870248905202
  0.5056395117357061  0.3528958827981541  0.2337092785270426
  0.7818771052300423  0.0636386073367538  0.6545246642212514
  0.5746229989950296  0.8532020687042555  0.8666941497542221
  0.4912138226772795  0.5096203962971827  0.6361837413863537
  0.5899002402615064  0.2557229991470206  0.5381568249057539
  0.3656280256043022  0.3523495344543009  0.0843236924556880
  0.4341921305736172  0.1434525327359904  0.2844339047754922
  0.3637744134709910  0.2128281883875056  0.2133883747695708
  0.5656273715459001  0.5812554695089992  0.2885315937520513
  0.5989976425252492  0.4520109804073960  0.5704608543219418
  0.3604946220644351  0.7830398941920353  0.0819086562050700
  0.4753448598519879  0.4016914774276533  0.6003089843270524
  0.6446248778982435  0.3619936247463889  0.7859902250197026
  0.3568575927477720  0.6469708948372871  0.6408458355504169
  0.2936752943057476  0.1579633395124988  0.7126290080459423
  0.2388489548323331  0.6936033933105699  0.2554731229130364
  0.3373377518019245  0.6483241024620064  0.0800713674523977
  0.2910943727505036  0.1441021611953698  0.1414622371671392
  0.2914451960705750  0.2755655639669006  0.4306585946632650
  0.7133993418079175  0.5747548003411017  0.8566815133920641
  0.2256509923342916  0.5103186495741160  0.7748001518254514
  0.1783420733693819  0.1970349187988136  0.7761500890359444
  0.3140221568316779  0.4266468533968633  0.0153160426644919
  0.2718910662829384  0.3013077648774673  0.5660737096698949
  0.2828871226413689  0.4400316332688139  0.5748136370715039
  0.2322196336213038  0.5353290620746448  0.6340243982685168
  0.3669705306425330  0.5081698599512910  0.7833136918855728
  0.7764100571945186  0.3498403162378816  0.0661224180547204
  0.2743646078306540  0.0068715772643194  0.8464598358697207
  0.9010535820481935  0.2568206430191657  0.5472729546402497
  0.7586816128648685  0.6530571399348502  0.3585417413999519
  0.1558931129466684  0.7220725845418643  0.5756007783504993
  0.8550040827946678  0.4335938478622583  0.7178496761431070
  0.4178356520083337  0.1993446206732672  0.6663074913382325
  0.4246934905170491  0.8616940836559219  0.8695358474028306
  0.5019016918143677  0.3602404484381461  0.9257625612644168
  0.1981016188170046  0.7946541625974767  0.9376256506175749
  0.5599495726097604  0.2911318827910498  0.1312599897289705
  0.9375581825498432  0.3683435335842234  0.4918158774840835
  0.9933257993095256  0.2609123306788917  0.4542022003774058
  0.9495673194718854  0.3513894079060533  0.0485479117358495
  0.6481583109375091  0.2162913238101649  0.6476796589470567
  0.1721955997692394  0.4432674860552083  0.6807868556519461
  0.8769454836888989  0.8364549525021451  0.8460584953167901
  0.7927831266201936  0.7847714124373434  0.9343786613278121
  0.9321237969878888  0.0808252304595121  0.0949856656601981
  0.9217973352828804  0.9288855777527801  0.2218539731421742
  0.9186218893093184  0.0837642993062908  0.3644210674718230
  0.9826437814288381  0.1394768925045730  0.8689724324741688
  0.4888101840011256  0.7901044764604821  0.0759679663468229
  0.8536376175624011  0.0024030081417645  0.2867087272726815
  0.7783226672198053  0.7866182952971669  0.4928796482776270
  0.7812968618308181  0.7823152937173448  0.7870460100641374
  0.0119812979351022  0.9962220290333036  0.0175276557279694
  0.8912668975795863  0.7283179761475629  0.7559370207824362
  0.6407769853712625  0.7884674960448638  0.6535433383353748
  0.8248865569801800  0.2674906911708715  0.3033337794633820
  0.5729439576343567  0.4250862004781725  0.6994433498466633
  0.8577356335605407  0.7093768305180572  0.0109312780524957
  0.3003475652090697  0.8671325593965697  0.2988277331084723
  0.9974583388341636  0.6639977472551335  0.1902672032021467
  0.7018500193555690  0.7208636048123548  0.4334057726924604
  0.8350445040996448  0.7183866795532344  0.1320073162686886
  0.4276110737933533  0.7247284636900558  0.4244039804199347
  0.8401031086590512  0.0076331470891988  0.5524211105870899
  0.3267243816817436  0.7394698414291576  0.3179989013452556
  0.9192466703749391  0.6429366149766108  0.9303842503474440
  0.8524993979576889  0.5778246068415781  0.8581046432729865
  0.4339366081462925  0.8692179798603303  0.5799293862546008
  0.8550448027475672  0.1545886438772969  0.2728475467794148
  0.4345182794088205  0.1363301484900476  0.8554078962540813
  0.7794118775111418  0.9364997394615396  0.2165337430925982
  0.7914711388594320  0.2122772658234029  0.5026317003878747
  0.3133352455628319  0.3097051338156593  0.8682907793498461
  0.7979856137984375  0.6917983135210716  0.2528712513606310
  0.1599415914526681  0.8723787805468017  0.7275342007406614
  0.8551456216509983  0.2828331166820445  0.8560802499025930
  0.9297146201519613  0.7863271369835197  0.6412472578536860
  0.2282233796976419  0.7951914023103597  0.5165997636072845
  0.8486364335710216  0.5667616515150961  0.0018067801105747
  0.6908599699100484  0.5796538270153618  0.4422754041458818
  0.6783367577843845  0.6269030096961445  0.2436071188235887
  0.5037621975564144  0.9334002980332202  0.6500997537339588
  0.3140726626305617  0.6027419083145864  0.2799243044770983
  0.7901274213538362  0.0707914541004607  0.3528206200406264
  0.7199360804256788  0.9941167426459515  0.8738108968494921
  0.6363301470317629  0.2165862112822539  0.0743395504269738
  0.7403704256704670  0.2190274428260173  0.2328680738853909
  0.5739168791211917  0.0047439310680084  0.5800083098362800
  0.9700079988347252  0.2135934807165136  0.0476820830807244
  0.8164268387513967  0.3686200446196069  0.3574534958485343
  0.5793238028490941  0.8709860627172139  0.2906833065935805
  0.6399639410077230  0.9297460859891302  0.5106373487831893
  0.7933550916215659  0.5441804669631742  0.4022575707979388
  0.5075255762011558  0.6445667719936328  0.6539999134072333
  0.6297316250248436  0.2041702587835937  0.3492170638898129
  0.8512981819752506  0.4202727482843931  0.9987749764900375
  0.7955440922170782  0.4540317703348590  0.2277461932228884
  0.5728524058544551  0.7231056408660473  0.1378058465245875
  0.9711003683823946  0.5690527573614299  0.2905168175919736
  0.6815115175769884  0.5495807591611420  0.5731353127389220
  0.7319071080342928  0.4236236927243576  0.5678439324954828
  0.7840644010831130  0.5040672172892483  0.6464769493288661
  0.7926263070208882  0.9344464785037271  0.0599090254864278
  0.7160003933485806  0.8643623978191637  0.9981910883835385
  0.7174497892752528  0.7175717070594509  0.8656872850589382
  0.7821508991301160  0.6397290265254971  0.9337765551944650
  0.9588134036144587  0.9095307680536944  0.6871531110377005
  0.3433718370703349  0.3722019884982896  0.3774681137368882
  0.1484325340691074  0.6561852731431829  0.1982563185657732
  0.3624804008065647  0.2220644578027734  0.3504931653085592
  0.0391170849780934  0.7424571249521802  0.5889234874556039
  0.1364980423445704  0.0029982141998190  0.0086129528003343
  0.5016801506230734  0.2240799273312489  0.4671205180236148
  0.1393918553065407  0.4101327040456849  0.4230853332529624
  0.7753520047701854  0.7988268212169203  0.2165327673116732
  0.6451455324384090  0.5063478952854550  0.9242921123835494
  0.7064696979867934  0.5707383468940830  0.0037890765070817
  0.7298262551462148  0.7191003549678855  0.0054352890951886
  0.5702613024494663  0.0027859100451568  0.9990943873740642
  0.1506278691750705  0.8837791078251881  0.2934104900221746
  0.1468213126033998  0.4589213764952058  0.1423425727519643
  0.2706672063558374  0.5652136374111082  0.4270656730444674
  0.0798194939087516  0.6584608865009410  0.7762522178719362
  0.0419608176891370  0.5412021041649672  0.7992801104171655
  0.0515160345718861  0.9092463321465876  0.7759900516702540
  0.0169377771328168  0.2945096372746762  0.1345089629723421
  0.2222146213502462  0.9398015778369736  0.3727094748741491
  0.0608710816115279  0.7734887508381656  0.9280772687069578
  0.1021013982078093  0.1927457365090743  0.6375069508564841
  0.9601890212528462  0.6825874849204125  0.5117623671593428
  0.5694710531989131  0.8666193728626210  0.4401839787894396
  0.0707083928478223  0.0632645695418534  0.6316291824384745
  0.6447005426284939  0.9279731918014892  0.7988104945497320
  0.0773024438886515  0.8024399107217904  0.0663472096659254
  0.2419965932105590  0.0954824825514440  0.5307911758067794
  0.9341971663721611  0.9353629370472798  0.4925771199361024
  0.9792723415170597  0.7346635223092232  0.8455170348713371
  0.0519694583558335  0.4811986854770313  0.2326852640456553
  0.1677930948306485  0.7262082619390177  0.4409715577931507
  0.1456828814765535  0.1483585002779940  0.1377052666049755
  0.0387355125976089  0.9145335324042131  0.3260523375635134
  0.2672751147488103  0.9608772649277687  0.0303067870080897
  0.4089573789918100  0.5833815257718482  0.1612107968513833
  0.8810013191564307  0.0215840352662482  0.0017807094283422
  0.0752292062718144  0.9333716226064493  0.5196959763024630
  0.9989172394546663  0.1687377375867664  0.5625044614254606
  0.2759334108886821  0.8655755929451783  0.1232732764103599
  0.2374571372808592  0.3721012454588197  0.9338520684089429
  0.0307579831607101  0.2643184907148877  0.3238677689288822
  0.1112149132462111  0.9744779714437679  0.2136178690023252
  0.1591368224102045  0.1412774441371355  0.9871142812250423
  0.3427046664269977  0.9393965463711478  0.9317602038756652
  0.0463314738774089  0.0468297881222298  0.5158803651472896
  0.8558645605622011  0.9782834942756383  0.7396371402960102
  0.1675616152327873  0.5444340378643757  0.9827266028924611
  0.1976669325031525  0.1153959647420101  0.6491135353890342
  0.1835695064834701  0.1930411492144332  0.4434242165808372
  0.0223262562895098  0.7156573262637451  0.2986390318558225
  0.0652422313095997  0.5251537809744432  0.9213432259942731
  0.2084997166005684  0.7791035044112931  0.7848274220382460
  0.9560517293536908  0.7416955709635112  0.0936494800514041
  0.2255775567084712  0.9214771995431452  0.6358969868164236
  0.0624036200022624  0.9565582287178876  0.8999723717780206
  0.0674236281294028  0.3920001913075239  0.6558098179225185
  0.1483680340530644  0.2773213447859961  0.1499162154505970
  0.9808772292072641  0.5689289055253687  0.9969943934314834
  0.7758971132596008  0.5644134048873151  0.2644535471663357
  0.0022986912469328  0.4407724312242339  0.8612382222181574
  0.9290958795231595  0.4612227481184295  0.2086103213646315
  0.9198789241407987  0.4907747323872239  0.0651993928952498
  0.0478171270912511  0.2067461783030389  0.9451128551056065
  0.1417828049397557  0.2946050188449973  0.9650195247816801
  0.0711081598893009  0.3588178177686520  0.5092337803630717
  0.9691357380932061  0.8514057581459715  0.1305324666615018
  0.3551387640595181  0.0687249325987481  0.0628003299955038
  0.0508126844307522  0.2149731029482375  0.7587240090500245
  0.2971321761769182  0.4091136709034388  0.2762683896686243
  0.4326034421825280  0.0042172641760491  0.1417147012275508
  0.3626787252208539  0.1027833693325744  0.5115860047254986
  0.2071962110638566  0.2000964521020224  0.2206668985962370
  0.1925443202882684  0.6419359111059988  0.0734015994535599
  0.0110366957890052  0.2964652065434270  0.5859262584100188
  0.9416629928308885  0.1844670382035203  0.1616102631542093
  0.3590436726215958  0.3603845589653630  0.7646755038414919
  0.2144028047481317  0.0858073717665108  0.3365200299953514
  0.8105568665911191  0.9029829042491755  0.9292211823307931
  0.1623704936202568  0.0102472534401303  0.4582181237196926
  0.7159115753647778  0.9935499048444534  0.7255395245372188
  0.8227957798509443  0.7182951845370105  0.6736057029995766
  0.8202771553443213  0.8127799365510276  0.5965021833728886
  0.7703940705026959  0.7889550433029209  0.3577590517482409
  0.7186315333700742  0.8729546851527404  0.1407929806056643
  0.6930727789635230  0.7344897582448641  0.2863560125563067
  0.7775104442089430  0.7955411293445286  0.0764562788463371
  0.7838324774276945  0.0660858245638331  0.7924640037976250
  0.1802669256811773  0.0049028570015499  0.6958541396488255
  0.9340426362623285  0.0590401404941731  0.4977277857119772
  0.7860037495537057  0.5114950745274353  0.7836015777806427
  0.3615579075351954  0.0728583253310420  0.2104869686431615
  0.2046671092256432  0.0815209540222570  0.7808750060055163
  0.9741036838933951  0.1293886959761606  0.6806575003476464
  0.9605722258602464  0.8251990368891200  0.7649044884789939
  0.9973401015130915  0.0135123235058678  0.7158314042572886
  0.8957125625219043  0.0285566208466093  0.6531840568085522
  0.7868132301973824  0.9280219663011617  0.6482736334574322
  0.7052290651140474  0.9988300618455093  0.2846518571266966
  0.7130540214465478  0.8534663256256810  0.8673980528845600
  0.8591587313519713  0.9911096084143872  0.4259398088138495
  0.0744878113935653  0.7852222869858474  0.7921743379691778
  0.7799906485042291  0.5028008999616134  0.9300321043118023
  0.7207332170235159  0.4321853178059339  0.7240841109821471
  0.1877230218636070  0.9629421454850181  0.1170868218520854
  0.4156622805580155  0.3032102163246456  0.2863773002094517
  0.1456197351771032  0.2945641833423361  0.2752501695037625
  0.9437759622765758  0.9444703665262570  0.8144433787172226
  0.0928833602336794  0.8819765288713661  0.9705992876198953
  0.7419071986632844  0.0005700126123182  0.4592903683276600
  0.7882794666759595  0.9176037728886076  0.8034486388741500
  0.7146519496912046  0.9875614279650509  0.5776447654920379
  0.7182942402765354  0.2905734283452787  0.5723112913909569
  0.7113152940709652  0.8618626920306914  0.7266279604824980
  0.8037414955062450  0.9055014098208718  0.5089047218943311
  0.5666033593701939  0.7234190714919684  0.4310857620329929
  0.6404060137189498  0.9335446749189193  0.2076698124062562
  0.1584705946105422  0.0424244651884266  0.8911594660620034
  0.7050412278817663  0.8684739429356676  0.2911879591704456
  0.7841990807591366  0.3582157578130875  0.7901463035182836
  0.1959727322417186  0.2086285555757246  0.5608558830471885
  0.2246571934373765  0.2138736175857885  0.0684226491867065
  0.8503577602602623  0.0035460141885382  0.1462019017047231
  0.8499481788535412  0.0045933503522770  0.8742427642387426
  0.7787206902111339  0.9330974889524204  0.3604625696223741
  0.2235913405232101  0.3338662605957101  0.0624658235298075
  0.0041103200211168  0.8546766958044297  0.8751776370969375
  0.9188777115521004  0.3643968579576996  0.6313902945643345
  0.7089826695074769  0.1390411632100431  0.1393174810425551
  0.7339619043915688  0.4511269674223353  0.3537252075373755
  0.7686174652577629  0.6462768999505639  0.4994789442795459
  0.7911238482711089  0.3602404194167158  0.6517332717226179
  0.7247855033030529  0.5353872132577121  0.1579083707619823
  0.7117424437647484  0.1512443523241490  0.0070459026262938
  0.8267783229693649  0.3363169609255114  0.5420257516662597
  0.0130018869503436  0.0062592927894436  0.4111879558110357
  0.7076149395473373  0.5721559076910452  0.7113371207871830
  0.7122967369806383  0.4343000691440880  0.8549455123659944
  0.7841772375657006  0.0880287238974629  0.9371175015322606
  0.8589660577164667  0.5885781002253300  0.7130468797022692
  0.7870290957448681  0.5287823398221335  0.5198609696853874
  0.7101488673213402  0.8571781326231248  0.5812351391704257
  0.8760044150010282  0.7454266530205147  0.3243331877826282
  0.1024326721860335  0.2311451087228134  0.0564108956696358
  0.7790757382435747  0.6252227422479192  0.0741810853989210
  0.6821921370981672  0.1750787983098040  0.5482435906269881
  0.7551289707838538  0.0955046344301229  0.5509887940229510
  0.7988862174748728  0.3210492137423129  0.1851648272024782
  0.7141355970348826  0.1454795531781455  0.8591168211013340
  0.7095919210519278  0.4254730349746229  0.9928849079426010
  0.7799631768039937  0.4881711784849708  0.0628360506826057
  0.2302617317056790  0.1344350819033663  0.8882524035727416
  0.7835099773228338  0.2161370757733491  0.7833018210331109
  0.7129394951427059  0.2865153540576201  0.8562258071250320
  0.7854925660274437  0.2087664529043573  0.6327717249450807
  0.2394851499561909  0.2409700051625753  0.9429726210544273
  0.7005107536244919  0.3009061481165711  0.3474483310340348
  0.7181919237342725  0.4174042176538920  0.1434586128736801
  0.4323090135080631  0.2775067240503338  0.1503591987837379
  0.7060715167608215  0.2861174023859787  0.9990873248401663
  0.7178153694588929  0.2866748962157374  0.7139711378738731
  0.2510894217100081  0.0421800252961499  0.9629068343039421
  0.0898119461739591  0.2322099099591061  0.5116728341956895
  0.7154020886836284  0.1340997467919366  0.4252860372917348
  0.6897719920786206  0.1199256349270726  0.2997475014216744
  0.9244747709294766  0.5045928300612427  0.6486024567072662
  0.1902168108368851  0.4740323782409550  0.8804887684234951
  0.9625011601249907  0.1116348619244811  0.9879417674280294
  0.8274754473833472  0.1774165263241510  0.3882875489051422
  0.0621457071272479  0.2135329958008906  0.2255194544503142
  0.8518360661119070  0.1576549277702244  0.0242160761437443
  0.0353613058896666  0.8946985925247639  0.2114294924392623
  0.0062898234810647  0.8577784465993689  0.5701283835264952
  0.0813105869130879  0.5137146334963916  0.3557008132077504
  0.0090042618651211  0.4421148303109456  0.4291264356018221
  0.7165237613794287  0.1420143517856862  0.7189494451956595
  0.0000545562586338  0.4423303623273434  0.5686275056861623
  0.0983023271738257  0.5217608565812470  0.6083903989730103
  0.1140328891609508  0.4515416136628221  0.7829868989335865
  0.3232052325013992  0.2926943416125734  0.9970995704641633
  0.3367955676692826  0.8012403902261688  0.9368521328102191
  0.0823851846592541  0.6081534074091323  0.0194527301396524
  0.9718086794048616  0.5510026307029857  0.1539283790830259
  0.8579310648827663  0.4824165660348811  0.3277482119710149
  0.2424569157395442  0.6588927211452371  0.3706731568221886
  0.0749819946866676  0.3865062731432901  0.3255895592306973
  0.0081061870093835  0.5744519143415078  0.4402948791991753
  0.0764148806291764  0.6468216859146256  0.6448929310630088
  0.0037594605059664  0.5738283231079534  0.6977474169261833
  0.0496003172581703  0.0343620414593053  0.8214577871718043
  0.8537491292203115  0.7106309427913903  0.8641190464858087
  0.8918653655198610  0.9017104893809352  0.5988412295927743
  0.6426696858515565  0.9297647533284166  0.6527842846596940
  0.1032439980968109  0.1392239595346956  0.8476613076850973
  0.8634475988888721  0.8512220475142557  0.4095801378157113
  0.0003744470364928  0.0142529160911400  0.2775670875357262
  0.8463264750461829  0.8624027379631157  0.2841926452990987
  0.9932686721005658  0.5725069358537395  0.5649372790095644
  0.9086026569237972  0.6263723679019724  0.0824010020765369
  0.9955975072879982  0.4388504828607582  0.9891745395354193
  0.9890690007021600  0.8502097198350244  0.0113777592514439
  0.1036711378395502  0.0398745410422100  0.1204119991218799
  0.9265377439703183  0.9180218992580307  0.9388879878460479
  0.1226067752814568  0.0927429793497706  0.2525730190190181
  0.0751783170339612  0.4919533556696197  0.0532444927033811
  0.1118657847582081  0.0060973943543262  0.3393037035882078
  0.7828669666796366  0.3549615837277159  0.9261998983833933
  0.1002308369814141  0.1042441570569216  0.7293510794937701
  0.9187384924145408  0.3666898486647397  0.9204148255677950
  0.8569121630204244  0.4102013083494512  0.1277944372073938
  0.0627242712919419  0.0774860129566228  0.9417646666931050
  0.0260839282176087  0.1050734380883061  0.1868188266663712
  0.8542050344721945  0.2917795145190655  0.7229871853600724
  0.0080523156081694  0.1358241354973126  0.4425493226194749
  0.9100198588926328  0.2260753931434007  0.6484756444732490
  0.8740542589690834  0.1296595394456043  0.5824298226773135
  0.7748388590711420  0.0728275670655309  0.2210256827781559
  0.9206518191749740  0.0686266703308107  0.7900718774097066
  0.8673624452136146  0.2867943112301882  0.4315172188159646
  0.0373826637457462  0.3405481628022327  0.9271434700413714
  0.9609921835876932  0.8305741988313017  0.3042537661073163
  0.1672497590594445  0.4442296110110808  0.2808319182869486
  0.0884838028433626  0.7991688996842512  0.3689671227434602
  0.9272396580519834  0.2010809188640869  0.7736318098890175
  0.9157064422393301  0.0741983197564004  0.2194930292891488
  0.9208689991640940  0.9396590022013360  0.0718533400799510
  0.9901816800490119  0.4393398889623266  0.7259710498737114
  0.0990695712096959  0.3716154815953288  0.1941159191551621
  0.0561605413600076  0.1186702829758373  0.0533402966902164
  0.1308806157978047  0.1868861498023054  0.3230701044329132
  0.1244761015533854  0.1202973846704407  0.5337136558659435
  0.1447095273052004  0.3161876117277285  0.7362797669799622
  0.0980118456155052  0.2640223430794690  0.8479797255069131
  0.0935975589222196  0.3634758823159309  0.0631286786340692
  0.0546685235220254  0.7006081833343720  0.4340526537847961
  0.9071852722745460  0.1757668329141397  0.4709821035870339
  0.8265289964199998  0.0943830075776463  0.4667984807086067
  0.9198399708364997  0.5081117983628188  0.7915648419562386
  0.8438518417643358  0.4350360573243687  0.8564196507299857
  0.8499263194235168  0.1362753608921084  0.7112763524874169
  0.5058271393716697  0.0769162902459804  0.6560763275647017
  0.4353993706980598  0.0002898074315735  0.7284676867564102
  0.1432648891979132  0.7092599181997760  0.8634726142854089
  0.8564549372852680  0.4444138472144488  0.5751949730443542
  0.9621858729668676  0.0249844677411050  0.9046495014334941
  0.9263263992900387  0.7789011260309066  0.9400010831290319
  0.6381483611195994  0.0686501574221139  0.2069534266542451
  0.3929220084766187  0.0802395896677297  0.6343578637975522
  0.7029089096553182  0.0025200380062145  0.0016099851466910
  0.9277641731210582  0.9380286545323299  0.3516342448346113
  0.3690908554401807  0.9356456603434936  0.6568670629800664
  0.1667244205239288  0.4212838545341979  0.5567328211032097
  0.9740941915025856  0.3050606538641623  0.7140855005138299
  0.9188132957573182  0.3694025675457161  0.7964386368435774
  0.9723558534293406  0.4547754352879880  0.3213673226788729
  0.9968643877737509  0.3619948577721995  0.2425764073732455
  0.6830564905821239  0.2979559030790953  0.1545099654434622
  0.0353902211449144  0.6397922300977301  0.8916247402880106
  0.9450613518780042  0.3397989864006669  0.3583501347200947
  0.8331431229393651  0.1414870698010624  0.1471604952709518
  0.9310098848036398  0.2653457758700874  0.2413686319573575
  0.8831830235855992  0.2773106179743826  0.1147978356248484
  0.8771873566829855  0.3739766744386455  0.2605788330559053
  0.8814712960124443  0.6300889134927650  0.2024666537385338
  0.8221031603850153  0.4336148017426875  0.4565717165092404
  0.8480578239295840  0.8462031342941031  0.7141947028819995
  0.9375273721108869  0.6613224032434771  0.6417572367229963
  0.8540242690055321  0.7040645312223962  0.5589139260743594
  0.9084181366706532  0.8065747525221134  0.5139059486378227
  0.8491239394371615  0.7171817740838460  0.4339223915353960
  0.0400998076398842  0.7748464323207589  0.1843590309855706
  0.9117106743426369  0.7611926737938319  0.2112567400093116
  0.8697710695644315  0.8404642825700954  0.0263723599614272
  0.0010819453341058  0.6998184268653487  0.0016799359821628
  0.7826095734840994  0.6484336165777046  0.7845859831438532
  0.9492931956328355  0.6306925797062853  0.7958047538432046
  0.1304904487472389  0.7425804306430611  0.6957676110572935
  0.8699632770397711  0.5838771743809614  0.5788544478068148
  0.0862954719160492  0.4998862889918709  0.4912476537992223
  0.8791617823994883  0.6055393376249320  0.4606782500984572
  0.9534106464275810  0.6565834839380781  0.3792452764285190
  0.8645837016391574  0.6092969461737818  0.3284113108875229
  0.0465815161547324  0.8267538262097478  0.6814445832296182
  0.0058954065568226  0.7188856002288059  0.7167690535320125
  0.8436332797102232  0.5382465485183241  0.1466205261935483
  0.9123954856417753  0.4970282781739572  0.9278192257091491
  0.9113106976242177  0.2031754379759885  0.9318508495505646
  0.8569588631458996  0.2859756326232691  0.9980248683136839
  0.9357128601114072  0.2089306043297473  0.3560979226432903