 B Cr Fe 
 1.0000000000000000
    20.0899999999999999    0.0000000000000000    0.0000000000000000
     0.0000000000000000   20.0899999999999999    0.0000000000000000
     0.0000000000000000    0.0000000000000000   20.0899999999999999
 B   Cr  Fe 
  69 206 480
Direct
  0.1705972651393041  0.5119997870404414  0.3849548825702011
  0.8613163431754493  0.1097804244151061  0.1678245865706424
  0.1850234340775025  0.4098308971625113  0.5125397472354661
  0.0494366659239523  0.6250399609301980  0.3578347395322778
  0.3113592807796014  0.7268871808113750  0.9561707891259330
  0.0270007636933651  0.3730872484839696  0.9342425101015626
  0.0893424193770038  0.9171589186113582  0.0028363635792356
  0.4348420884769555  0.7610656211127931  0.1716434280924854
  0.3482724251678158  0.2077810428783673  0.8716850036963448
  0.7074648116262630  0.3795041728108280  0.2603994218453625
  0.1382315072908529  0.5324980143429410  0.2204240865099146
  0.2368837732919650  0.1006271302572993  0.8914028438249922
  0.4563306175419086  0.6418424045655703  0.4229926435232776
  0.4614507839638046  0.5815975892052090  0.3600580112261728
  0.2341688841389774  0.0854043276838533  0.4995201592627680
  0.9562860111519759  0.5535775348411417  0.3889653747639096
  0.9285558602499189  0.3956808214552665  0.4322282860322064
  0.7834821738819501  0.3608686346736824  0.2948883833352703
  0.9536382043941276  0.4631895775954323  0.2330614131030538
  0.9129415392920444  0.1855343364279619  0.6517219064841784
  0.3288426704861827  0.8574407601848022  0.0273900508124145
  0.0539943645060871  0.2939564274612299  0.2346070793347775
  0.1112138582710909  0.6418094678353462  0.9320428259462136
  0.0957770168262985  0.4882284032085157  0.8627651876197147
  0.7903983574372947  0.2714887543655307  0.4167467860370102
  0.9995312865255442  0.7536047735681487  0.5082264277626412
  0.0249431667158489  0.7901350395654729  0.3471192306171196
  0.9390737194832802  0.7036463624085630  0.4690875818966060
  0.2621191409030338  0.6307072669510129  0.5781797157704189
  0.5064990823675557  0.5785450483549822  0.1970199210970158
  0.3265023797674952  0.0467834772737388  0.7556461026585286
  0.9496047066355109  0.5779962095375146  0.9848383520343320
  0.0360744703396383  0.7603825962546686  0.0061361332658895
  0.0950668941651714  0.6911805993567228  0.2049056776723247
  0.7202850247801919  0.8921351470891203  0.7373636781352705
  0.9272578893418396  0.6575505408824659  0.0157022450100608
  0.2805717004102706  0.1247507810035060  0.0386062723470533
  0.3467037949727015  0.9081473273665571  0.8566103359745376
  0.9567028418704707  0.5645653358511271  0.5465690196944559
  0.5800618342916170  0.7106810706174751  0.9482595211039662
  0.0405801284278491  0.6138012670802967  0.7314644328137269
  0.7492301792641264  0.6628188352413684  0.9977929805722990
  0.8688065224760912  0.1688702187554504  0.1053461954789915
  0.6802315197020995  0.5737356799552739  0.3233691411330911
  0.7443309173751221  0.2194584016375325  0.3618879099243695
  0.6615319367482296  0.3678524376452438  0.4250963883297161
  0.1864129302988665  0.0015054756610110  0.2867632522672319
  0.7451317880999593  0.7254420818039947  0.0579599351558823
  0.1466013047960435  0.5592174841722175  0.6335554658693863
  0.6100982489518312  0.5263465929223390  0.4890462952881701
  0.9599432974773607  0.2869841707737372  0.7724408169044246
  0.9218852114581364  0.3517695884269570  0.1723727654632273
  0.7810879555318430  0.4465675707490336  0.4388051707893179
  0.7745677210910813  0.3521816792527347  0.6650555015013534
  0.2750523745454822  0.5171751697265059  0.2915356981597045
  0.1752248512541680  0.3679943032037850  0.1219916674435557
  0.2339981292030435  0.9510196509169556  0.7559830039102694
  0.3271564124110549  0.5757879354595276  0.4501908986725954
  0.3334158375568409  0.7226753301356390  0.3734533472001994
  0.5793158219323479  0.7698176924873505  0.0163427159205130
  0.2610555135834478  0.8655262230168589  0.9770038327367666
  0.7996041228889533  0.5995505068848891  0.4304000614795396
  0.5788980808958052  0.6326480924423903  0.1926296789727660
  0.8914709492125970  0.5097874114375897  0.5233904926281432
  0.0460127086606744  0.4521234905033252  0.5529546267691349
  0.0998431869194135  0.0302196478907964  0.1130643847110487
  0.7438495474539202  0.1512465015803080  0.6184887040706499
  0.3800151887351677  0.7831558465929709  0.5150148916252778
  0.9622094387662935  0.5618142869177692  0.8564957842171107
  0.1757650567617603  0.7138953036079746  0.5676219303489363
  0.2243887727317346  0.5097777125442078  0.4813744630801685
  0.5004328630464305  0.2227944722028587  0.4997793893931419
  0.5705743109874483  0.8617947067514881  0.4322371375735058
  0.5703928161232173  0.8642994621300738  0.5728832591645101
  0.1693800708036295  0.4536001879950133  0.2862587718332894
  0.6354669468516905  0.7906513599083734  0.3574304947080820
  0.0569807679037700  0.7450625343359997  0.9030511484448498
  0.6614186912740025  0.6505204732406993  0.9200208068716368
  0.4288424294981206  0.2816961991019976  0.1416582151687299
  0.7191954441823218  0.0025772203752678  0.8615446342841714
  0.6985254054874035  0.7177224507358227  0.4316451726681684
  0.3060014688975793  0.8550622441741932  0.5582942562282972
  0.7945228388631670  0.6560862351857730  0.7752396123065675
  0.9338349158423337  0.6297182035348224  0.7784918513493216
  0.0628236124701419  0.0698482462724267  0.6316316593434217
  0.0832201414330527  0.3789408152030863  0.3168069063233778
  0.1653091655987951  0.7550583679032187  0.1356105375012448
  0.0057030637610171  0.4390677932877713  0.1348790717419770
  0.7173613366222339  0.5399380515990712  0.1567764943005033
  0.3724135442725414  0.6612179425581005  0.4984258502827478
  0.8661804540889313  0.2900915882620675  0.7134014989684786
  0.6585851008882079  0.0770271172995490  0.6379329436947565
  0.1750197147824915  0.8627175816320730  0.0478300553927639
  0.7134782502107198  0.4279322242907846  0.0015496723936995
  0.7342621875485821  0.4206386560286198  0.5777945975000338
  0.1764401591013232  0.1051405428485458  0.6737538346253925
  0.7829337985125153  0.9296855460766851  0.3608009084892198
  0.8741762442751524  0.8509888074270602  0.8473083793151155
  0.5753933895113988  0.0059505962917328  0.4309503101035582
  0.8131739436368133  0.3306973305620657  0.1946853511098117
  0.6352393795485068  0.7907538985612803  0.5008709972164894
  0.1110291997809854  0.3132826289439408  0.9545088368578973
  0.0289576517742604  0.2644399800978400  0.3333052901063864
  0.4952206282882162  0.7989515112547680  0.0779439973724538
  0.9027654706615597  0.8028735404680009  0.5109017765512790
  0.8731953676626691  0.1284475486765982  0.8731126371990364
  0.6859052367845740  0.2546516708547483  0.4588438514014004
  0.8718803576639155  0.4936891389953366  0.4090084443682208
  0.5692883691249577  0.2853861086669146  0.2819412038743794
  0.5764362413980113  0.0079230262902828  0.1428945470766648
  0.5697833436909511  0.4280659820614612  0.9986366514375969
  0.4259335049134051  0.7388641611681821  0.4263504945197156
  0.8078155056149336  0.7395467424441959  0.6700501370847224
  0.7114146735725391  0.8644286219350560  0.2902836018014219
  0.6398167196077975  0.9322754006876670  0.5000994658102401
  0.8391435118876828  0.7037365462388460  0.4258454459977005
  0.7074094141497078  0.5683820491593462  0.0042700708081008
  0.8812126315043097  0.2970989256555855  0.4617898274677826
  0.0693236362777236  0.7774477022280127  0.7863786091099079
  0.1474054468693280  0.1396333273278237  0.1502790920560207
  0.3067844663093218  0.3950173506714705  0.0326670905181038
  0.1709293133900967  0.5403946610700229  0.9570748910803314
  0.9119869495906543  0.7482860902145565  0.1975030238640688
  0.2122686167576323  0.6578555933415658  0.6665543348677362
  0.2072576470051228  0.0674219072801568  0.0840381223487964
  0.8587625643207890  0.1498519864011369  0.0003599266677538
  0.0410461389677431  0.5518787960574071  0.9309564421944448
  0.2928533327771137  0.1454016312358541  0.2849205551617819
  0.9227168728935591  0.9419852854457669  0.0691024466363383
  0.0291855115242400  0.1703564319092792  0.4491665159262743
  0.9305393980278515  0.0676993847670765  0.6383488464783686
  0.4292058186356271  0.8648721140892662  0.5728453259728054
  0.2696465454148033  0.4289536682523569  0.1377403497176181
  0.2721729174158003  0.8634348727040632  0.1316866868099871
  0.2173155433376080  0.3750617510380486  0.7888292573673639
  0.4419349755828990  0.4262897289197251  0.4298888758578930
  0.4141324603133203  0.0019254789339578  0.8473890388316148
  0.9338450950485483  0.2652337369440855  0.2442241043313402
  0.1061470088582007  0.7869364832101912  0.2654293796473650
  0.1687774368217135  0.3395408903920951  0.5969950396531812
  0.9930076208056453  0.1394208839749584  0.3000689092692743
  0.0387547513220269  0.2938335196356957  0.6014749298973833
  0.0811076229163774  0.9367875859628666  0.6426436205990746
  0.2059478245611949  0.8262632434412954  0.5073167677679191
  0.8820228267063915  0.3873465976919667  0.2689889087266152
  0.7809869873971150  0.4974455479216254  0.0683894078861692
  0.8563756893135472  0.7213315029599229  0.3025206198790881
  0.1224864208566867  0.6744560518617555  0.7588384398550081
  0.1355065862235521  0.3079326565562333  0.7119966897002025
  0.9964259177167500  0.8631133387172466  0.0075254401404678
  0.3997371958511510  0.2447853344222864  0.9561234657911840
  0.2504618475162939  0.8715665007962118  0.8362276778803802
  0.3548644186082675  0.3529963464114875  0.7712866999571811
  0.1095004749095695  0.9827790915794026  0.2121876677949960
  0.1393704749929481  0.0043183211910570  0.0126868663762178
  0.3307640812618507  0.1873050133272595  0.5951596015647135
  0.9627468558794089  0.7366627045729434  0.0799221913159914
  0.0622667632684604  0.0268292700111639  0.8204901985432436
  0.0006450292893290  0.7102314445788906  0.7119055937923131
  0.2241471082775526  0.9463981618587212  0.3737956140358287
  0.1072467203286538  0.1778573901051236  0.3436117930983620
  0.0416583922007946  0.8957603344700636  0.3333293802388823
  0.9793045133245141  0.5668349679817353  0.2872074200834969
  0.0967665033831334  0.9357703246389766  0.5279598854639498
  0.0583897427814869  0.9098717204854017  0.7752523171949055
  0.6402369093012220  0.4955857485261670  0.0688579031298445
  0.0085201553680898  0.2970149780697623  0.1364865057277192
  0.3606733873031517  0.9365857409076305  0.2172524829937659
  0.9981593045191197  0.4435945577646793  0.8608282009303992
  0.0361459856274163  0.0848755306987093  0.1825944968007537
  0.1359562050735475  0.1448183917282028  0.8571131275897550
  0.9981087277608309  0.1644343186488292  0.5762549125587848
  0.6896969778160571  0.5824157108153762  0.4364989404352635
  0.5061279749818020  0.7895150615740900  0.9342157594231320
  0.6461049393746113  0.9366632494411398  0.9278057212907979
  0.4425467842517832  0.1465138322744264  0.5685009477315833
  0.5590616229526449  0.5800801049453190  0.2905118308731067
  0.5991190763366671  0.4477461524946463  0.5707234005061986
  0.4385485817261495  0.8708447405828627  0.1541299048115553
  0.4732541411180916  0.4012735040788493  0.6125804624599041
  0.5713313142166843  0.1454716501682881  0.1384041042047591
  0.7789614440273249  0.4985101850852802  0.7840654558557105
  0.2253776107881576  0.6599447291675327  0.9423053120878964
  0.0064706316363376  0.1383022854296581  0.8512400645527854
  0.3406520895086441  0.9428302704925783  0.9544475798402835
  0.1422469302707431  0.1350373582051707  0.5603044625936667
  0.2771610031231516  0.4346681340018717  0.5735099356623514
  0.1489630077188444  0.5820475190181850  0.8516115646447621
  0.1042154167138164  0.3746255118164715  0.8516850879076461
  0.4208935568944218  0.7337276429612368  0.8640702456978141
  0.0062701287801616  0.7028102992851808  0.2874209409144898
  0.4268444549306940  0.7197018281453352  0.7210867672065245
  0.3025144555892726  0.5845648487323247  0.7268188302485804
  0.2111443260130850  0.0683256690791114  0.7869141840673985
  0.5708336851530473  0.4269839549460063  0.4372298588414775
  0.0011597273674986  0.5905249153467748  0.0714983046614860
  0.1411736656621793  0.7280770717595747  0.0022357839807228
  0.2992786159045197  0.2799775630890199  0.4298374953481263
  0.4934368452790264  0.3492910794999097  0.9376873841833377
  0.0786441067452509  0.3682119555040024  0.0649085477559243
  0.3532378588362687  0.5026609441489763  0.2062283671445686
  0.3649138588838892  0.0744390590748601  0.6470092824405707
  0.5544940049484398  0.4443098799097804  0.2679015242481286
  0.6550719092539470  0.3575061432517531  0.6485770389524458
  0.7571357581454611  0.3496866773817925  0.4808602746652099
  0.4229731815231183  0.5861207343952363  0.2618208499073789
  0.1842550140658351  0.9224650160158328  0.9364143142752216
  0.4203978197128695  0.7379457287866268  0.2854273637112935
  0.6485345928883502  0.6889916964710939  0.0296763789657201
  0.5087445784344620  0.9394258725281311  0.2161448110136346
  0.6494371867013049  0.8043386670423959  0.7762669627663985
  0.7671135295282451  0.6324650828223869  0.6331503572875370
  0.4379252597366802  0.9979577353113014  0.0010154675323845
  0.9413754222323231  0.7646423300267645  0.9527731000309853
  0.9586261632702781  0.2050016594668008  0.0495828690629557
  0.5043162941330996  0.3577820961896098  0.7925274534961009
  0.7937171926173405  0.9414100087631119  0.9315510726030042
  0.4276050843885110  0.5497058096434171  0.4586756377520005
  0.5752527800103743  0.7274095382678425  0.1314139996418219
  0.4344229849433239  0.1472838225804817  0.8664348350310269
  0.0594226718116822  0.9446027542631448  0.9068652785666771
  0.8668687369723126  0.1458060348842380  0.2840847961181927
  0.6312701018979657  0.6502095937235823  0.5057666622990082
  0.4955916733454236  0.7953036843919403  0.5077829556945753
  0.1338001588530259  0.2684831421741927  0.1511310950348398
  0.1808225641591427  0.4421313135273081  0.6818747031165769
  0.8578487656407870  0.4476768292187519  0.6077051471850587
  0.0104474731864704  0.9974642085606460  0.0147481614665174
  0.4380578266847607  0.5803566860382284  0.5784726625227010
  0.7023716014724432  0.7121619310765422  0.7153746251040889
  0.8368239755889934  0.7412080923270056  0.8748716902682634
  0.0687533151516434  0.1069747999526447  0.0461411602028548
  0.7725177709858890  0.5665710237907179  0.2639374990948542
  0.1504364166435855  0.4109245302667417  0.4115594024156294
  0.1779906067274543  0.6220403211819209  0.1683345248728257
  0.1425999722268392  0.6089816667622424  0.4248275189908320
  0.8407403547106659  0.5878425906314673  0.9983984807696860
  0.8947699868706811  0.6302084164756926  0.2414595763971327
  0.7807452355832351  0.7935185278412737  0.2189803137655885
  0.6510251027946533  0.2140692104408334  0.6476469501611877
  0.9625393204799233  0.9129676849183298  0.6815090724113141
  0.7547296705841060  0.0862325767716215  0.5366349284617098
  0.2914863819440069  0.0027615048336530  0.5663032017765361
  0.9179553401604019  0.6460284511836888  0.9093781038816856
  0.8494753056178794  0.5630545712825423  0.7135400623458326
  0.5483944094289289  0.5865458194412163  0.4277407813510425
  0.7220353401065834  0.0055966076421975  0.1432239502092731
  0.0370162508108021  0.6478310602379715  0.8431887298453857
  0.9640508630296990  0.4526343513133202  0.3418729938767993
  0.3351128878048901  0.2693912426096333  0.6732426340735824
  0.1049454893562548  0.4971546451655998  0.4731685166015220
  0.8770062840951173  0.0225687266201458  0.9939324957760801
  0.9787366505248556  0.4873709127564552  0.4711192182962102
  0.6675220694259286  0.4862788006864666  0.2601112644882326
  0.5712426344768368  0.2856069461180069  0.8585914862831197
  0.3374875332938267  0.6744833330355178  0.0548814818542800
  0.2463807366525192  0.1899224768820399  0.8348266482120239
  0.9167191718999458  0.2572584637483518  0.5747975179078203
  0.6251283254421354  0.6562183733131395  0.3596820227295619
  0.0946491571535123  0.7989313524396586  0.4996461197543330
  0.7772776703632152  0.7982144529041773  0.7790486591416399
  0.0092401925024062  0.2937888695048133  0.8656392215117343
  0.8611184028773735  0.9902029255755034  0.4291579555730919
  0.7247417207198508  0.1473865191691644  0.2848646387150747
  0.4989995292481648  0.6537374864622496  0.7902239142210242
  0.1576607175150176  0.8673648523382823  0.7246989830587734
  0.9256041977378148  0.9269096249664507  0.2290784048534017
  0.9270785506976109  0.0814444942993631  0.3773775323453514
  0.6472349724115614  0.0755063902454993  0.0752547212502617
  0.4376949268930579  0.5898170017617401  0.0085546364435389
  0.5764235382401784  0.8687788991126972  0.1420810648956402
  0.9683176930408658  0.6656595715054030  0.5718978201458440
  0.8287834821209177  0.8344049347125867  0.9561689655370441
  0.9371505063472080  0.0827687897689774  0.0909541970178585
  0.1809390654369539  0.5819843528944242  0.3026370892758742
  0.8952592846456308  0.6031970382577895  0.4737421927591333
  0.7701963428197861  0.6318092360897342  0.0919178432476507
  0.3631888551709956  0.6492981024085510  0.8007243113907493
  0.1467524899816998  0.2797783287424917  0.2793156614980672
  0.1555098804057325  0.8883915781118619  0.2955770340671119
  0.2272515663982716  0.8098999111678227  0.2306673045134279
  0.3518393909236969  0.8114593340302513  0.2128284226132315
  0.4886196808941201  0.6761596190789724  0.2092480641746824
  0.2887015656313797  0.7280102006804077  0.8561625144265328
  0.2819330867158338  0.5655761807464187  0.8718855691795496
  0.2237787891519117  0.9395918180664400  0.5004151828210567
  0.4325344900996005  0.4343797908493637  0.0021666697860025
  0.2157711032829942  0.3441931320149624  0.3490127957875111
  0.3228105431347548  0.5534570803287208  0.5469150576917731
  0.3249974594024920  0.1102396547389325  0.8346577762732971
  0.1528584642657978  0.1480307335155466  0.4462920377519896
  0.3004719794513609  0.1645634338178898  0.9496481858673941
  0.3544408256095123  0.0599200512477088  0.0624396433853344
  0.1814388532267292  0.9645920405302503  0.1234204616241448
  0.3566172152708060  0.9364374896986584  0.6397399957707224
  0.3613861188519544  0.2121906865298664  0.2098119210743996
  0.2886599896092540  0.1317035807191165  0.1451628093813929
  0.2278557014589940  0.7979532164107178  0.3583227291748253
  0.3669722985293675  0.0788591335784580  0.3592140612200514
  0.3675629440386697  0.2194674695099384  0.4935313251013023
  0.2564598648725774  0.4532836195290679  0.3714366781300612
  0.2992456791662714  0.7271912790335371  0.5724625534716110
  0.7971162131621871  0.9373774846245556  0.0641250662962619
  0.1417332524280621  0.9969471986040631  0.7123588055156856
  0.2550531145719018  0.6428224822576356  0.4787779721911901
  0.3652888503975115  0.2148546194298777  0.3571512006731468
  0.5043279166089267  0.5030103908994721  0.7883690073866231
  0.6421010469020948  0.5006408641582785  0.9293186253117074
  0.0756416831135457  0.5643412667996499  0.1472893438218988
  0.2161298047496189  0.2212921360428549  0.3709001013549162
  0.1263065038645426  0.9061646108113637  0.4277758659884293
  0.5770337104666859  0.5820563010112683  0.9977216722986385
  0.5293933063510504  0.6103957857607233  0.1038548932723254
  0.3720587017750477  0.5087380575005057  0.9328916479554670
  0.1943681489670657  0.3128254298978849  0.0421880242174153
  0.4949550631522807  0.6551815826972162  0.9181408660169195
  0.5736033201335335  0.5771226594538468  0.8608261744659410
  0.4036414482628952  0.4632200218376269  0.5491367597661821
  0.5006024757453047  0.6520765729179552  0.6501176581480738
  0.5111018651357984  0.4904529928417879  0.5153012035099017
  0.7140499694730773  0.5697911910682163  0.8514898806505233
  0.0852657247987467  0.6420073626217673  0.6410177547581289
  0.2139984874042764  0.7935553973905211  0.9267006596912408
  0.2787978465966013  0.9954861827605089  0.8579153670790849
  0.0901300595789023  0.3685896696484955  0.5164869326716067
  0.2816146417327339  0.8638798146122352  0.7098252926412938
  0.3659732675530879  0.5077283397017145  0.7914815805512269
  0.5043267140789154  0.5073150910480677  0.9333677056724317
  0.2173840316158689  0.6610174534324087  0.0677436494308920
  0.2973599201920463  0.5971181867581542  0.1361503203359395
  0.4130906188549712  0.7387378007736396  0.9878454302549218
  0.0626559170162397  0.1970427078145537  0.2314245858925818
  0.5212637511032810  0.2177382823287224  0.6385001086428235
  0.3507512523059822  0.2019931567041243  0.0667258967991505
  0.1199502984679705  0.6071939722422973  0.0306111933493294
  0.4314468337613140  0.8666562282753547  0.4361800532633793
  0.4225165017565398  0.4250268871777492  0.2783945422163908
  0.7856921919919839  0.2201092314426900  0.0707582485572116
  0.3529110258370728  0.3661678934745158  0.3620721643121335
  0.4364512203827758  0.2929667420828536  0.4245230620156229
  0.5788815771243873  0.2851317161545444  0.7221719835138672
  0.0065045794042739  0.8467798037434089  0.4411548143281914
  0.5696824165435570  0.4271926616830793  0.8624269883341971
  0.4296121930472481  0.2871799751213047  0.8507131661360362
  0.4339518193724701  0.4285923450318165  0.8576533619836915
  0.0816262567079346  0.6066864044457236  0.2599892579562389
  0.5940201725230519  0.5294957029754455  0.1795175544618239
  0.4998956604683937  0.3615106035259091  0.3476031829059287
  0.3696026288800771  0.6790785395420235  0.1913176094133113
  0.4299999382862630  0.2859832642373806  0.2850658612064939
  0.4281069416991263  0.2796296641264269  0.5829337924112863
  0.6304414014529661  0.3510701491194604  0.2080298010002455
  0.4326353957124225  0.5818318833788383  0.7199494399618319
  0.5032306783110391  0.0734001220749727  0.0698672661443296
  0.3663988453752592  0.9440356491068660  0.5013508976029249
  0.3539292676010191  0.3451359601137776  0.2120903051229078
  0.9708971794325670  0.8551526666669819  0.1365419402375420
  0.4345786533641360  0.0067937595075271  0.1457399180837962
  0.2093325446535189  0.7713271673209992  0.7731814024723349
  0.2736219370366026  0.7277147317738960  0.1531014799834644
  0.5045100529721293  0.9359523540302490  0.0754610658926018
  0.2307777970908624  0.9362306398683791  0.2217755432768951
  0.5003961392541466  0.4989159916191494  0.0731042009699471
  0.3022263696089658  0.3072965160037308  0.1122349419862269
  0.4369890224088720  0.8669927724978069  0.8648834712863198
  0.3528643145425979  0.5059865960521076  0.0690670917504876
  0.2438556956767846  0.2359423998271380  0.1821405746280114
  0.2880874737451389  0.1453392190378988  0.7156716149059000
  0.2193220913664503  0.3510655102917163  0.2124658191196649
  0.3752932643125628  0.3579257701600052  0.5059071055775548
  0.2898852331313909  0.1436660545361668  0.4229383947941263
  0.2664065522694047  0.3847832292417308  0.4612788933000944
  0.4177798371543556  0.1870204579680358  0.6760179976987245
  0.2518611636869911  0.2706988865529031  0.7532976066782772
  0.2177658733626108  0.3623563082100308  0.9268374813751903
  0.3644440794021158  0.2219924896398082  0.7767111993556456
  0.3023245961705874  0.4285233251965809  0.8499648303561899
  0.3536672703760516  0.8103043803314530  0.7929327219242471
  0.4756952534851454  0.4848380974570142  0.1916195713376360
  0.3615189869339934  0.6437417730077137  0.9266200211486330
  0.4331978528123906  0.4317158257518058  0.7226726022933457
  0.4921288139187579  0.2195215308463844  0.0597572765633164
  0.4369771068660617  0.1471511646916231  0.4305718899853300
  0.6477760641027988  0.0763871970944316  0.2149753287953767
  0.5861021137664986  0.1568306504532613  0.4391142493243978
  0.1265718957984511  0.8370304752015796  0.6011371445837620
  0.2959549702789486  0.7599729857971246  0.4582921732173289
  0.5744672886011095  0.1372704034706598  0.5763613123537933
  0.1440972533872715  0.8622554493240320  0.1693387516282226
  0.5053717867457660  0.0770377098488205  0.2138598878652417
  0.3624855396273308  0.3674466501241088  0.9289541083150640
  0.4087575598949535  0.1094770026498112  0.7547851142457019
  0.7163738884842301  0.4264832211464721  0.7159082020138512
  0.6356750609412815  0.2127719480905267  0.2103251876365372
  0.6865441654691352  0.4597560150641292  0.4728715699721581
  0.3623185889792429  0.7967188604029728  0.6504474194391862
  0.5675277094745063  0.5775049001406982  0.5754734182275115
  0.5034833610897678  0.9372089710061082  0.3628589997006418
  0.5709066477709426  0.5781887887466548  0.7189578728041774
  0.3022951971716495  0.7310578486947079  0.2784844341211449
  0.5661529717540349  0.8653167890447986  0.7189428773534031
  0.4520480180738200  0.3042275841208362  0.7024362463115836
  0.3641403752537977  0.3762078793594381  0.6352257273825306
  0.5134368300636590  0.8002412717736120  0.2189747343725677
  0.4361702481840229  0.8723649279646838  0.2863018006371887
  0.2455732508932559  0.5381931292989199  0.6371279945020549
  0.2967411368421822  0.8762384793214348  0.4321704317353353
  0.2328580201965574  0.6443314566020779  0.7935332677417219
  0.6225915700283579  0.5041145041624784  0.3706375451684947
  0.3639526758186986  0.8134251044186642  0.3573804031028732
  0.2960426569465982  0.6122471530598155  0.2618391404793322
  0.6292629604182817  0.7921994965790240  0.6451413243141788
  0.4281633199829417  0.8694015868779221  0.7184422348131051
  0.4967709420681903  0.7935321383596168  0.7888445417727783
  0.5028206872977935  0.0704418760768090  0.9270344247730122
  0.1480288868811711  0.5688443983110205  0.7307425612939848
  0.1607986618674216  0.9520127990576981  0.8214516640998709
  0.7129166413180812  0.8756560348209272  0.9920982540058442
  0.5051777479287315  0.9370769382831956  0.9286742086657418
  0.5718932296706997  0.4232966440777314  0.1392500966113757
  0.7017229097900193  0.7208817609349690  0.1509958725741426
  0.2304058618210707  0.7920801756082096  0.6399831803819729
  0.3526275739351596  0.6400522882959735  0.6364236466537110
  0.7244788506465821  0.1450935868314876  0.7189662152476589
  0.5827458344246998  0.1432395281121671  0.7155417284207976
  0.6431748358575422  0.2152855105753201  0.3473285383340178
  0.4987285746155847  0.0808783347334406  0.6544860709560035
  0.5973632042355412  0.2516281622832280  0.5396004555829128
  0.2931883776285646  0.8788053255675431  0.2982309077857727
  0.2967464579806094  0.9991603376989393  0.1458419915849510
  0.3685515654523973  0.6314615670898748  0.3686871783559021
  0.5856796580164062  0.7143955117571205  0.2646247544857098
  0.4967368942570782  0.4905004732037548  0.3551806998421039
  0.3022329760827373  0.7197071636744636  0.7201136831338643
  0.5027554586179243  0.5080196444766536  0.6482830310321361
  0.3395098147847361  0.9445037109011865  0.7645060973904919
  0.2627512056619205  0.7728547916396631  0.0350052294660353
  0.6480060274655018  0.0770958087439367  0.3606639664093850
  0.4413079695034668  0.6916507796699221  0.0977094280725354
  0.4289081695001197  0.7234853142729649  0.5842457645769579
  0.4965374904992162  0.6557828295381219  0.5128698320594821
  0.6400211757321596  0.6444550116072683  0.6419039592957444
  0.4356162750590507  0.5742994017710781  0.8588378506979704
  0.2617619461870634  0.5670508788640652  0.3800546553578188
  0.2426549131948761  0.6771893845370272  0.3631174496977213
  0.3387047652156948  0.8216509439662339  0.9238717826440015
  0.7092617880536514  0.8602307483517222  0.4303296107990182
  0.5079676375790744  0.3536012041738755  0.5059681261099339
  0.6419920067779501  0.8055042473530987  0.2112340969979041
  0.3677091438760976  0.0604671474646560  0.9327552370768589
  0.3682346175190699  0.5095971798571016  0.3438222418500679
  0.2671909835175685  0.4709135950562292  0.9622682010312245
  0.2348925593090237  0.5206068130256071  0.2011758241258455
  0.5759936845875310  0.0074037498241798  0.2891589516463303
  0.0860152716177014  0.4972547988198185  0.0503526283494003
  0.5518665269886561  0.3285058668701966  0.6151614424869769
  0.4976342085897792  0.2102297186307610  0.7786613551763991
  0.3693582901554971  0.5079773414578327  0.6497927882584258
  0.3369859130030217  0.4717093730820294  0.4548366131967025
  0.4006013839477922  0.3188326655647676  0.0370832255269372
  0.7123179780267659  0.4289054319346284  0.8587147198161370
  0.6428119363974738  0.3561256494101168  0.0693638313719388
  0.6431861749918164  0.3570521591698471  0.9290074332297963
  0.7619524291308373  0.5255511909920799  0.3707087883857469
  0.5046426431457807  0.3579829009222763  0.0691689764216310
  0.6371766085470966  0.3560343456876461  0.5210359919620289
  0.5767626867628236  0.0039587902965830  0.5800534645102349
  0.1917150254851421  0.3035352527595976  0.4817712563942533
  0.6379583158537174  0.7935107571560329  0.9307924066362027
  0.3692144711005443  0.7917757745488818  0.0945606345665109
  0.8346237037133186  0.2710576834063532  0.3144583378488827
  0.6489228177494530  0.9230068131825491  0.6529587253095407
  0.4971540212033044  0.6739343416509053  0.3379483349851480
  0.1013549682907705  0.4381202820530577  0.9513473119706480
  0.5044921726852439  0.7977914031212876  0.3525545565011842
  0.7204455992600780  0.1443753453585355  0.8589401058634144
  0.6439211511208804  0.3577586886226845  0.7892026788206616
  0.9999242577344635  0.2979639535254270  0.9985004646679860
  0.5670252939442890  0.2822931623886993  0.1362837582541911
  0.1060029782157457  0.2381777001406830  0.5299912774634197
  0.4945603964160963  0.3555620934060378  0.2064726608698044
  0.1848482662509950  0.4276449008497117  0.0354640860171648
  0.7210893564954246  0.2887482919539964  0.5832337932133700
  0.5596665951104364  0.7233963443894174  0.4334594330550161
  0.5085449999733308  0.0754733298329658  0.5014140375991645
  0.5090579101021515  0.0716317031366239  0.7903274039508160
  0.6478489666627276  0.2139296889283287  0.7893980665764929