Cr H  Ni
 1.0000000000000000
    21.0567998360923951    0.0000000000000000    0.0000000000000000
     0.0000000000000000   21.0567998360923951    0.0000000000000000
     0.0000000000000000    0.0000000000000000   21.0567998360923951
 Cr  H   Ni 
 259  52 605
Direct
  0.9144909049197445  0.9171836423184385  0.1670830339478845
  0.3314125010455547  0.4183689477894460  0.2522708878997224
  0.6635187969658954  0.6739138895738955  0.5024770694287172
  0.1626838109794490  0.4174879021836452  0.2524141545128278
  0.6624158081449760  0.6687843393439939  0.6698124850807115
  0.5807213869946981  0.4186154465921149  0.3354956558595537
  0.7473802255203148  0.7514947125500863  0.5012222573000771
  0.3270973647752786  0.0041262904470655 -0.0007938372111608
  0.5811543124116801  0.9186727900766793  0.5014581965468436
  0.4131408738285873  0.5009250818781611  0.2511117653960457
  0.0819958502093821  0.3352029818615697  0.4194543195093011
  0.4971052350332869  0.5844531719928173  0.5845965871529222
  0.7474315079514882  0.5016335600595425  0.4233443270897003
  0.0811149146692090  0.3364470119075288  0.2539079958541502
  0.5795376829739126  0.0030007444923567  0.9183041975663313
  0.7461625711429765  0.5843902564039541  0.6719788463576866
  0.9133356553639884  0.6670323587788349  0.4154879954589983
  0.4148385232145548  0.5823518086768146  0.0001005982785422
  0.1650395602627072  0.3348130247138691  0.0004000632794167
  0.0804672989102028  0.3317096689092738  0.9181700160654815
  0.3315271393554913  0.7517495812934705  0.9199602902593874
  0.2469195084110077  0.6675835174074952  0.5876428549176177
  0.4964460194045370  0.7509889573367143  0.0899532543431849
  0.4160423302975031  0.0838167139160619  0.6687496584493724
  0.2485241040397351  0.5013395787244923  0.9167973245889430
  0.5810966999222110  0.5029313558729456  0.2510371839258436
  0.6636758397972152  0.5009927203847766  0.8337219919963960
  0.0802328205382099  0.5845318748718613  0.1659864476534244
  0.1626236219846567  0.4165910176459081  0.4189521766426721
  0.3294008652916499  0.5818335375979888  0.0834198009004127
  0.4143863632905528  0.2518104188237363  0.0005885700060166
  0.4967492379936598  0.2478975352370489  0.5830356313033371
  0.4960204445820106  0.3354002388885944  0.1724728252347949
  0.5816575282886810  0.4157568398063135  0.6680805947420532
  0.5818450734589702  0.7514897542966323  0.6700273659370891
  0.5823050052430664  0.8360826123573110  0.4194841080313632
  0.5825512957510866  0.4189240110622705  0.0010525226091446
  0.3309310390078555  0.3336739175725700  0.8346877231822325
  0.2472865070722924  0.2535861520630068  0.1699183702166080
  0.7477010542741748  0.5027497239030549  0.2486120797493440
  0.6643216437086605  0.1678787799018631  0.6670988110485219
  0.7465128170851495  0.3351359782272620  0.0848249636688335
  0.7476234072440704  0.2523754809151011  0.8336054747642774
  0.7473450706424849  0.3325626428310628  0.4192166208472064
 -0.0037336565273551  0.0858966622117586  0.9172324498005348
  0.8295951999179261  0.5008311785051122  0.8350079231224470
  0.6634331340278132  0.5837742233549740  0.7498280582585058
  0.6646378958177612  0.3338775194226075  0.8348965275357372
  0.4964489458280534  0.6678217974877630  0.3361395809415800
  0.5820311542755883  0.5835244119776968  0.1713028553491412
  0.4981386463262839  0.0845809356419977  0.9158555136775316
 -0.0022545322536887  0.5020510042405603  0.8338782683573216
  0.2474083677987176  0.3351179275205789  0.0833588674791772
  0.7469863692747141  0.4982761140577108  0.5850363400040604
  0.1642376593741371  0.0843029421207925  0.9174390215881234
  0.1628279561417851  0.0851387793584680  0.2527776779220984
  0.0791542286433917  0.2499966653309080  0.1682923061761723
  0.2484834556517060  0.2523540213218057  0.6679468262696897
  0.7513902248975770  0.0859332249285108  0.0042187516778158
  0.6629855717318992  0.7515238150609205  0.7511256188944657
  0.5801673472790957  0.0024076004242985  0.2517769335465427
  0.6646808791040648  0.3338572152720081  0.4998799210998062
  0.7461461581114953  0.7494926321748000 -0.0029935922973560
  0.4979291037840340  0.2504330500218189  0.7506534080682693
  0.4134719745424312  0.1681652813314537  0.4180974530416817
  0.4972163109610556  0.2515729033088133  0.4175592859543694
  0.4972837902103532  0.0031818160447639  0.6668299189290654
  0.4966711797162817  0.6695516984157650  0.5000212535779508
  0.1640219757950041  0.5850852868115241  0.5828822245627980
  0.2485908996810606  0.5847690307876119  0.0006891287161456
  0.1633581213956374  0.4173610726063741  0.5854600830981297
  0.0807030632593430  0.8335006679025868  0.9193585856231365
  0.6631446475232968  0.9177717026233277  0.4205795819172348
  0.4134885267327138  0.4992977697706594  0.4211387820185900
  0.5797068444478412  0.2558381411620688  0.3350250836604514
  0.7484627957441295  0.1673677315487709  0.4177523437375173
  0.5805866941952589  0.0856044044395030  0.5009058495210273
  0.7459723671394612  0.0869376395281316  0.8310384220197755
  0.6640740949833974  0.3351877034307634  0.1701562823826812
  0.1649160843529240  0.0834641173763598  0.0855594220557155
  0.5797798742835796  0.9199858904525233  0.6667986505825910
  0.4960742084605869  0.5838830625392962  0.7494855477674111
  0.4143186909921028  0.5837927705471020  0.6669617393812911
  0.3296674165008219  0.5008625293281997  0.8340658604947483
  0.4977162634256103  0.7537425371063593  0.2509775953909856
  0.4136675837898267  0.6693900198224204  0.4199595451242590
  0.5815029700743436  0.5010389260502303  0.4190615771871293
  0.3309518085305915  0.7485683836987911  0.2517304232577051
  0.0798502176073066  0.0837667647450070  0.5031742041729715
  0.2479305020418771  0.0842111369758917  0.5011653115155836
  0.3313084502028237  0.7517822947107032  0.0859435918629618
  0.1660812907447920  0.9175693531216556  0.7501873852222871
  0.1616232303560426  0.8349624079049537  0.6683025993390598
  0.4133875341027496  0.7504365737971935  0.1685602660905076
  0.3303924218551717  0.4999534627466174  0.5004498051904462
  0.2491840110165163  0.9180556992084790  0.0007705594055983
  0.4973053968676571  0.5824989249469448  0.0828471075302561
  0.3333641817174832  0.5833608466649892  0.2502609923708083
  0.4162395487638020  0.4169725782391451  0.6711850089176419
  0.3295228711398822  0.4169224847020703  0.0837098484155605
  0.5808493696571826  0.1709793285002348  0.9182765739809964
  0.5816883785962238  0.1696204276272123  0.7502168492952811
  0.6609685905662015  0.3339807948385659  0.6671932755416817
  0.0797218016591200  0.1703072675016346  0.4187638088900467
  0.3287981525072335  0.0029711244089768  0.5009428471475155
  0.4134328861893768  0.8370171370660779  0.4184433721572460
  0.0824364688066368  0.6657520203878308  0.5862341380095479
  0.4130897438856879  0.3337581288147905  0.4188154290440498
  0.4981928007776363  0.0849322782787469  0.7511634351880361
  0.6649747854917800  0.1694409903050120  0.1682309555444552
  0.4127699492089887  0.0012116660497585  0.2516816333415001
  0.4994450388993214  0.0036746330037509  0.8344568884108667
  0.4127855337308360  0.1688986380486108  0.2509868976616815
  0.6631470923239684  0.5842285919334645  0.2519327432620022
  0.4136974365599114  0.3352682752228460  0.2510750915991525
  0.2488057470154141  0.0853124575060578  0.6685804691252751
  0.3319316019326911  0.8333588336690458  0.8346873504570942
  0.2475566714636595  0.3333443409716592  0.9178743805141989
  0.4980684985479732  0.4187185844989623  0.9179506276530200
  0.4994544169876061  0.0864038149947618  0.0898327984441123
  0.2441422697723444  0.9178815355896327  0.3359701108907809
  0.3308917315072628  0.8363988149406668  0.5009120485924444
  0.4149293650796640  0.9204969813584477  0.6677301434941774
  0.1638319204984808  0.1692416903905746  0.3351151946022307
  0.4967606387887035  0.1682201064692758  0.1692238022468556
  0.3316675068425999  0.6641340355611129  0.8367580181455951
  0.3300177316992411  0.3294931364756797  0.6681225017090420
 -0.0028222013241096  0.7504656361581865  0.0845899860000146
  0.4983948162168014  0.2524781335329968  0.9184388240184419
  0.9141064922329976  0.4177814448504267  0.6691664349322678
  0.4991923157151137  0.0014107045091214  0.0022081207321497
  0.1639846757198540  0.7524475562473973  0.7512544697479006
  0.3296252804354280  0.0078294681210660  0.8352538228085650
  0.4971855866475276  0.4993678169788054  0.0018656844517103
  0.1636919216567150  0.9182772202946287  0.5853601590157606
  0.2442534937935962  0.9170959919837335  0.1686651847579918
  0.4979852275443725  0.0036393217684226  0.1693042388344190
  0.4964038196055466  0.5819121174880240  0.9188613048461306
  0.1624835453748763  0.8352531445221187  0.3354374198751711
  0.0797646556514047  0.8323356978779436  0.0852636477303088
 -0.0034637128351966  0.5837279089062748  0.7513289188750746
  0.3337030529128188  0.6686414653628078  0.5014986298676644
  0.2476676090733310  0.5008066245543192  0.7531736000273341
  0.2448158888122468  0.6686633572375619  0.7495075754488536
  0.4133376167850177  0.9187940411958263  0.3359911464474317
  0.4122656919704645  0.0016092550001459  0.4179898707775050
  0.4149822894024568  0.7524934851529396  0.6666857370487549
  0.0805510556746740  0.8364210229448245  0.5867306881730981
  0.0805036067642035  0.8333343313962684  0.7478255589900629
  0.4988922004753395  0.8345102188740109  0.8346157954640855
  0.1633702129561314  0.6671537366215424  0.1672512797634013
  0.6633448807731679  0.4981442021997826  0.4999854637467059
  0.8322279053671539  0.5860627858963673  0.4190389543040653
  0.5791909509183477  0.2512887977706459  0.0007376830164990
  0.8318688333170599  0.0854310313579203  0.9168760371250256
  0.7490402734771442  0.0859810425523574  0.5011130402106643
  0.9141634440312264  0.9175082753192948  0.3359184495904800
  0.3313803126146307  0.4172776305884685  0.4193599059199546
  0.9129944128995400  0.0021182732010655  0.0855785261221391
  0.8338248169697698  0.0001053331267374  0.1627355010640053
  0.5810174261301529  0.0818493256807633  0.3332717711814467
  0.2463243948532533  0.6677767194385776  0.4144881158377692
 -0.0072169379084893  0.8339145659550750  0.8330094173845631
 -0.0035362893269710  0.8357807965530684  0.6682865648565173
  0.9139390518793437  0.9171908662027654  0.8349483245523197
 -0.0030953480917395  0.5003086111828061  0.5021158090530983
  0.0810612959174633  0.0853754128002454  0.8355229186642954
  0.1634267351088365  0.8341721853670238  0.1686326679949023
 -0.0030657326205245  0.0850647358936736  0.2523057549862048
  0.1650658767322966  0.4167749825386422  0.7524599754894772
  0.7452830078552595  0.9192514036179135  0.0009202015840191
  0.8300796900271366  0.8341374462744174  0.5037365739440295
  0.7444279488324014  0.7514657248531431  0.6703067242192309
  0.8297030378160817  0.5805670266420215  0.2500199416698056
  0.9134485010744317  0.8347197683093066  0.7510537331632300
  0.1624283531181785  0.9148693423077376  0.9136022745733609
  0.8319434383531122  0.6673802922902307  0.3369728293607593
  0.7475676735108017  0.4190279308705217  0.0022630377071890
  0.9146366075221365  0.7522624889825852  0.6700561410658471
 -0.0027874008417312  0.5010907851049825  0.1672139261898007
  0.2478597773143893  0.5025671096924860  0.0834604208253041
  0.1639065421134862  0.7528888133441183  0.9165748000379115
 -0.0021812072422970  0.7518815198444767  0.4191871668258452
  0.7469905950664392  0.6654726661133752  0.0804279046771714
  0.0805355494436067  0.9175121659682691  0.3362949899729675
  0.7460229388787577  0.9188744603484272  0.8345695799363095
  0.0794845919506468  0.2528745367451260  0.8345992737474534
  0.2472802239523779  0.2517115845808964  0.3350149153649003
  0.9129550291889811  0.1675264380926081  0.7498640472305593
  0.0809191671667577  0.3343099154778686  0.5856607469537631
  0.2454031551541982  0.0848446390082976  0.0004928200368583
  0.4126973099164671  0.9217791128586375  0.1734735795390324
 -0.0034518759887308  0.1672498236344472  0.0002989901640561
  0.0800411222031270 -0.0018895054411707  0.4186544286350830
  0.2482451083427036  0.2515380941487570  0.5008611150830634
  0.0805343292972137  0.0848150521208539  0.6682963370061356
  0.7475772795224940  0.7523729054701447  0.3363707742459051
  0.9142750256809569  0.4141309736767526  0.3345618539603370
 -0.0055949146769795  0.4197714780578198  0.0832168047929962
  0.8302553015082864  0.5830358417522818  0.7524498665353685
  0.0799758196646446  0.2533234361416992  0.6673436143936400
  0.2448328477625612  0.5845308643880461  0.3389547454564311
  0.6653550436110236  0.9156514960858082  0.2515843094756476
  0.9154302087148215  0.6679804877949190  0.0863745452428112
  0.8297386915309689  0.5835613624888023  0.9167094673729437
  0.7474015656649562  0.0864603443916315  0.3363242505127819
  0.9131882153096343  0.3350665235930961  0.9172621685015294
  0.9150814780214824  0.6674797179380165  0.5904421713754552
  0.5803097732304452  0.8374065143943055  0.9173305225878207
  0.8288090658926801  0.0871214784310995  0.7497017280509078
  0.5827637761450922  0.7509741203812406  0.0034462151599650
  0.0806051702747388  0.0035885048574904  0.0881575448935532
  0.6660510064088476  0.7502581481694048  0.9170719191536478
  0.8304910520287814  0.8339940825874056  0.3388301690221576
  0.8303599423851132  0.4175177169389261  0.0851141238352279
  0.8320764248614765 -0.0024450109480064  0.3388086462903049
  0.5790715742381775  0.7507572295323962  0.1680847881951949
  0.0792687294471371  0.6687555488873755  0.4176759107129311
  0.6631372575233828  0.0873024419561096  0.7491900852786766
  0.5820454134570496  0.8341189877796436  0.2518537298595116
  0.9131172151761906  0.3352508418118780  0.7513329818339916
  0.6632290030010850  0.9185982381047897  0.5830195753678372
  0.1652626274713212  0.1677208133054961  0.0011621183508192
  0.3290058073905432  0.0857329695684558  0.9186383221992143
  0.6658805279090866  0.9192249046167700  0.0839709379025120
  0.3249401250305168  0.0876378214688526  0.0838567892187728
 -0.0062573745939729  0.0021518340491162  0.0012798447423477
  0.8329740661404100  0.5827706702922419  0.5873118088027908
  0.6618867051851187  0.5011870885642483  0.0017541545151184
 -0.0012850992064986  0.2523114055168472  0.5859836955482515
  0.8312864559837164  0.0018261270388338  0.5037312100128195
  0.5796466947398951  0.6637617587923370  0.9166671177898540
  0.0812403723400356  0.3331250425073206  0.0807033530490194
  0.0802262497978819  0.8367481914816429  0.4188195291380656
  0.9146751781140913  0.0031022506364758  0.7504838543397130
  0.8312499971837672  0.2521360299515603  0.0857951616485004
  0.7458383110600764  0.4200313564322633  0.6668675805628868
  0.9142875821222801  0.8356447901615480  0.9140437268945947
 -0.0022524805263161  0.7513934507176451  0.2517940963955055
  0.7444456926713057  0.6672317471108049  0.9173750511787637
  0.9158212330238561  0.8349887111566036  0.0843339840802072
  0.1654551802060512  0.6697792350052300  0.6677649782558899
  0.1662006376232897  0.8349623241511698  0.8334945925795508
 -0.0014782273495643  0.1697555992725460  0.3364045208696277
  0.8318051877942735  0.2519804281326156  0.5833404452984798
 -0.0021388396076207  0.5001810664990716  0.6693832783616549
  0.9137883050791360  0.0849213342240498  0.5031021804380147
  0.9152970699780948  0.4176751499888324  0.5007804673704892
  0.9149485245847817  0.3354082492364263  0.2520995502695468
  0.9116773315258568  0.0850878356263055  0.6702392340095606
  0.0808446047513269  0.5853494620960655  0.0002269902366454
  0.7471508978836290  0.3347527101800236  0.2500573143025957
 -0.0025921319206891  0.6664051421035136  0.8344225865502427
  0.8331157027977136  0.8362182763891456  0.1650741096711149
  0.8315680026305050  0.1694064391221234  0.1680767363428017
  0.8317266433730983  0.1715429631935207  0.3363616769870613
  0.8298733183216064  0.2533056845085200  0.9179564647526397
  0.8315271279365217  0.5026731456736546  0.1684995225641168
  0.9138188329067083  0.5842528259809017  0.6694048780702744
  0.1627809288162563  0.1711246019744475  0.0892752277567475
  0.4142106143189496  0.9179527415688558  0.9186139634138739
  0.0800314461297292  0.8348789392765511  0.8338918678766293
  0.8317378422428442  0.0024245512610942  0.2509928195407968
  0.8280373585233936  0.8348026669597456  0.0773131440439814
  0.7470609850430383  0.7533158506226333  0.0870900189656422
  0.8265920870782205 -0.0013147518826798  0.7493772886258732
  0.0806982606914080  0.0847729342446429  0.4162491608029346
  0.1645564005651828  0.5808061711107064  0.6714178039652400
  0.6678937703433080  0.0046085081576835  0.2507889368083472
  0.0799922431018720  0.4226684663260563  0.9163711012803035
  0.7465284448563914  0.6692590104413969  0.1708525143001899
  0.9165230621260684  0.5035684872184942  0.3352721814042203
  0.4950009209187373  0.7513654422786473 -0.0000861709571305
  0.7456766480698633  0.5857765826067008  0.5848760936980176
  0.8275940437020242  0.6715141394649727  0.5858039971257558
  0.4977737903338529  0.3378329285179715  0.5837467867191432
  0.4971552498115397  0.3353710988751367  0.0822617056019744
  0.8320188463166102  0.6700385991694676  0.2483425084750074
  0.3282744732737588 -0.0005520492859521  0.0884078906301833
  0.3326389840704317  0.5840227879060460  0.3378719657481100
  0.5010150671874408  0.9163367949355469  0.1681283568444711
  0.2441747504508980  0.5853282961705808  0.2499301764286122
  0.0797794609009851  0.5846982391382136  0.2560780220418660
  0.3320673913086302  0.7485349603704213  0.8328397608800393
  0.0779801261427849  0.9217536537513075  0.7505170349973135
  0.4126861427201747  0.0864150395424106  0.0860637659395618
  0.4138165209194095  0.4165909758017093  0.5819355642492503
  0.9152158288788171  0.6689580547629407  0.5026778818140312
  0.3290461306183345  0.8380759211550176  0.2525257840054319
  0.3313744021270799  0.9208120781754641  0.8334529012498599
  0.4144880118167514 -0.0821165786392539  0.0822367681941922
  0.9148083641153991  0.6667892208447589 -0.0037629483462323
  0.5793183336741633  0.7507318339924942  0.9174809978211975
  0.8338713482977269  0.0849830476419216  0.3355422732623743
  0.2524552201218839  0.8366871285746184  0.6660667560789724
  0.8302484602312893  0.8342844843056797  0.2522966410162634
  0.7452655485107611  0.0860390234049943  0.9180835212526098
  0.0810412406268538  0.3369104661577313  0.1673102794242608
  0.0812605980484654  0.0010659717084581 -0.0003697544042757
  0.5800608079182668  0.1693042136635699  0.3343655015786949
  0.1611088612092789  0.9164661069463924  0.0032461738628562
  0.7500438054015340  0.3320965145600640  0.6675007921360738
  0.3344902669250217  0.6673814541070313  0.7476392671064135
  0.4969354795664054  0.0881420936778480  0.0023528112419097
  0.3275595046360182  0.4186642823925977  0.6672504322901631
  0.6627406562751975  0.5853408570083742  0.5012667908965900
  0.1649928343850719  0.1716553205026869  0.9125553260138222
  0.2461154626978672  0.6687414463803253  0.5009904729287626
  0.6620441497700044  0.0864293594957470  0.0030341892891124
  0.7467671986587238  0.5009741284698428  0.3358358822452742
  0.0827639125180572  0.4215352694764117  0.0836219822549357
  0.9147836246173162  0.7525759959027816  0.5029404004234526
  0.8313651841448618  0.0865887589814480  0.0850468073865880
  0.8290641101253889  0.8348834729492999  0.8346668600968374
  0.8295988255843048  0.9190086002639524  0.0810702100038446
  0.8310121079699040  0.0014968372567847  0.0003786159654960
  0.4149535964262321  0.0860479644956410  0.8344827920146544
  0.0800410461563156  0.9182975089117266  0.5024601807847898
  0.7464409457763567  0.8344518917747976  0.5854632624173943
  0.6628223044440238  0.8353671966187119  0.6684558862703652
  0.0808155074003238  0.7511668922935325  0.5025362613465374
 -0.0027715694430026  0.0021149192324609  0.5032122469333847
  0.0800052480162842  0.0016788763854330  0.2518689627002407
 -0.0023317780809776  0.7513277518840825  0.5855800981132505
  0.6632810918463328  0.8357131894449505  0.8345795043202791
  0.7450306145254721  0.9183410005642403  0.6670543990532343
  0.6640108577958695  0.9187846991944518  0.9177420307040438
 -0.0023567192674206  0.8349355062169924  0.3355926375965824
  0.5817086396825301  0.9181259897561802  0.3354914359110788
  0.0796252513965121  0.9203131289665701  0.6669408946404893
  0.9127746149870802  0.0854610837970462  0.8330577976801603
  0.7462399510022628  0.8349249184623126  0.2518055087896530
 -0.0028020580269144  0.0854984059130806  0.5854548903591609
 -0.0025106254955429  0.7498653994419345  0.7512719876682906
  0.9142611245793311  0.1683149614593090  0.5856479341837604
  0.7474214632327381  0.9181713695377136  0.5026379638233659
 -0.0027162865280943  0.2516233597417599  0.7508541363541350
  0.7459619261113146  0.5833794215486277  0.8339676878489074
  0.8294579487508090  0.7522627855756008  0.7518461856240961
 -0.0052241826193483  0.9194661938538957  0.7501216306049659
  0.6627288041960481  0.6667355600494504  0.8329882818201807
  0.7458773459163974  0.8354799064873764  0.9172466082943312
  0.7455477278724894  0.8356591760193651  0.7509971227226304
  0.8300761915031978  0.8344197461264492 -0.0033733294560483
  0.6644952637480135  0.8339291237591101  0.5029190175034602
  0.7467420128059280  0.0011896143606994  0.9173809497903886
  0.8311885178147720  0.2519326889670354  0.4186190026278587
  0.0804258949356273  0.7505821827322718  0.1686968779650537
  0.1640241321209130  0.8326230205145336  0.0015852323728919
  0.1650750287094441  0.6689417481408712  0.8348056512817668
  0.8307952210409513  0.2522983802004720  0.7511476019440605
  0.9139788978796782  0.1687121030243255  0.0848028512021204
  0.9165558112027062  0.0855051590441290  0.3350814393447759
  0.9134791477293266  0.8347030053477228  0.5867151433312423
  0.8290519564899337  0.0014348963186825  0.6665538924411671
  0.8290792893749437  0.0020298210324576  0.8348467107095663
  0.9129977442274390  0.0022321305543513  0.9172390051429701
  0.9131965620031562  0.0862804623974892  0.0013665445641504
  0.9152165424531374  0.0009993297305850  0.2513686643852708
  0.9145883189162901  0.0855916059526101  0.1677800330959010
  0.9140038495406166  0.2522155203927883  0.0010468017144440
  0.9144462916143236  0.2520332236624609  0.1683955209896052
  0.0800447456165343  0.9171397390854898  0.1678429193406767
  0.9149743291578590  0.1690669480494692  0.2518888561888813
 -0.0028812966500918  0.0014175606338551  0.1675551410970487
  0.6628345408238466  0.5001575205794196  0.6680059229123902
  0.6630746931962979  0.7527638172293021  0.5864301813198999
  0.8293701215196850  0.6674364712182367 -0.0003852787877108
  0.7469922402189717  0.5835435835584529  0.0003832712105687
  0.0780822796184168  0.9192944960295796  0.8346459958376571
  0.8296792540817614  0.7508671424118045  0.9162256793679370
  0.8313525314169850  0.3349335532590218  0.0014535987663381
  0.9129847880597156  0.1686123927898861  0.9174280820746886
 -0.0021102458680174  0.8346353811313610  0.5032359783384496
  0.8329046599609896  0.0841635612541937  0.4204349902930791
 -0.0035314503891876  0.9177922114141116  0.4200277467005494
 -0.0022274441446907  0.1684434742714172  0.5027735143091737
  0.7474042570501772  0.8351831568687444  0.4201621051968110
  0.9148179955171167  0.1686660291308126  0.4186807202021833
  0.0805660742660378  0.8346866505920233  0.2519437846049950
  0.2481777835939288  0.8339415796709755  0.9183501352465030
  0.8320785087215528  0.1681561000560088  0.5016389980176975
  0.9143710166932707  0.2520252961071227  0.6681081334382990
  0.8313074444439480  0.1700601695173661  0.0009960051594524
  0.6640177106429520  0.8353103705333580  0.3357228127477467
  0.4142659066820832  0.0041290270198467  0.9177785176040711
  0.2479905535042456  0.0030729752780010  0.7506872110077848
  0.6637159859935988  0.4173572069336269  0.7512106235863765
  0.1640254938780597  0.0859145666518337  0.7497893425420887
  0.1645017953150092  0.0028154241068467  0.6677408491374289
  0.3295165765460135  0.1676762242770178  0.5011841720502904
  0.2476407706153189  0.0024941725153174  0.5854549233972559
  0.5795530572024067  0.5829877272788349  0.0013738145388038
  0.7477234903625218  0.4163426552056076  0.3350821569867174
  0.6651140812612828  0.4168588496142920  0.4178807067705995
  0.2454280561092989  0.0010986146193911  0.9161804167432884
  0.6640285088676021  0.7521851604374785  0.4184593068268835
  0.0810025055312290  0.0052039391916655  0.7511835261670883
  0.8301957859883031  0.4174091409262245  0.4188487749599992
  0.5817557885942889  0.3332588852460934  0.5838094757183986
  0.6629471575220832  0.4168427423568580  0.5836885307331996
  0.8300508500989149  0.4175542723632897  0.7515920189410069
  0.7461422933538890  0.4175965323906465  0.8350717114769656
  0.0808616659502705  0.0021186119479363  0.9160394647977966
  0.5785781906206777  0.6666936772686818  0.7516010719351363
  0.4974656074953436  0.3358127262903411 -0.0003816662807692
  0.7469880694040023  0.2502084657927575  0.6668191697106318
  0.6640893610097963  0.4179310023847171  0.0858057896150972
  0.6646577002517084  0.2529702104845835  0.9185515884194464
  0.0790762505636730  0.1675120972050222  0.0844479130139789
  0.7464148161870571  0.3350593183602106  0.7521332967850161
  0.8305590753083868  0.3348068639937133  0.3348739636041918
  0.0813199998017498  0.2522610647619679  0.3352589487923464
  0.1647384860358858  0.0851168799203348  0.4184563618576967
  0.1636312381851042  0.1690829708096439  0.1713188783545545
  0.5804526953800276  0.2507852688968378  0.6666850228948885
  0.1655903576393359  0.3354525583806145  0.1676308187197445
  0.6642846359256112  0.1702900102678501  0.8341466446497205
  0.6652430222239042  0.3351781517740077  0.3349893318179008
  0.7479088997040598  0.1708939471072378  0.9176365084398692
  0.2464933914388980  0.0854167082265835  0.8344587492729754
  0.2465397882464745  0.1691321309662925  0.2520763370631524
 -0.0030565462735802  0.0859902261514237  0.7513028302574639
  0.5788681174090398  0.5859425340646003  0.5013319724759138
  0.5799067989359427  0.6686084240574706  0.2519570319868710
  0.7462121706229861  0.6678424126295952  0.2537656284574221
 -0.0032964125503701  0.9186006349692865  0.9182339964087628
  0.6633409154683820  0.6687769751957776  0.3349453188816392
  0.5799046177937418  0.7521942498892416  0.5009679286997114
  0.6636398774992599  0.5860951818575616  0.4179922276646333
  0.8291759066178518  0.6668508609076869  0.8346057293913000
  0.6639127218502159  0.8344941843238282  0.1676448796985542
  0.1630634804177434  0.0013068964304141  0.1696872441437434
  0.6640275490745075  0.0027177323385735  0.5012954012097270
  0.6648905377791214  0.5003736028742325  0.1681361355199177
 -0.0039552363972040  0.0030270772838932  0.8345898824658788
  0.6623494480538531  0.7508142594109639  0.0836691380962373
  0.7457679577854008  0.7510424426729450  0.8344897452438791
  0.0798935957039476  0.0858797055956325  0.1690920221285855
  0.5797624483320531  0.8362880220592442  0.7510119924430999
  0.7449916929263766  0.8364118019239527  0.0830125460545686
  0.7477432733709665  0.7527073105944234  0.1690646045024295
  0.7475276041781572  0.5855407238017230  0.3362856542570284
  0.6642455308092367  0.4184667890847161  0.2520207087255186
  0.1632221725162781  0.0010116058004038  0.3355248083651283
  0.8306604276658820  0.5014206328851805  0.3355492877225021
  0.6620491628313050  0.5853076142609465  0.5859371947742913
  0.5810781822058249  0.5009819518233326  0.5851193317690004
  0.2451244055785978  0.0015477422163466  0.2525106728994906
  0.8316562358556118  0.5006218694088653  0.5023183199106771
  0.7462111173595696  0.5010102524813282  0.9173243929365201
  0.5795475339654869  0.5843682779893943  0.6682967239821030
  0.7473566162085780  0.5009567096576144  0.0849478222022186
  0.0807640749924312  0.5003805390243876  0.5849739117008134
  0.1646029598606500  0.0855362244943593  0.5851273755234915
  0.4144044511181076  0.5018716185598979  0.5846586141558846
  0.2457079943878688  0.0860332691323512  0.3346659290552170
  0.2476300803075636  0.9197219240044239  0.6679167005147117
  0.2475801965674397  0.9186854350781384  0.5015573701362925
  0.6652181806934285  0.0013311834451394  0.1669436448636772
  0.0801348155487772  0.5841943781059231  0.5018063721329696
  0.1658889214015594  0.4174516524150528  0.9173179531041338
  0.9139269075430722  0.4175461357691821  0.8345549602638112
  0.1638303846585230  0.4980402808887068  0.6685703690431259
  0.2454517030479241  0.4171087194984285  0.6685836742549447
  0.0810159792192395  0.3340922656736204  0.7509535630448723
  0.9150562778169508  0.3350910816978837  0.5850625029947765
  0.1648744510044987  0.3348477340607999  0.3356004045823517
  0.9143468750350029  0.3356893912801098  0.4185583446885316
  0.8297344986691704  0.9186177481204654  0.9171138905686976
  0.8295853780469268  0.8347787191864652  0.6690179702838179
  0.9134355054480146  0.7508649782924373  0.8338748957987017
  0.7469469192057052  0.0861722677340351  0.6675181128466485
 -0.0023726593185548  0.5848428346750135  0.0842747735655599
  0.9146454654755009  0.2527935061123575  0.3349000512069831
 -0.0032630389381023  0.3355531713649152  0.6693850036085395
 -0.0029951337126118  0.9176323201017843  0.0846249138241499
 -0.0040354651488352  0.4178816315587994  0.9171383186067322
  0.8314089107122687  0.3347514471281829  0.5016768158835576
  0.8310631970292313  0.2520869709173252  0.2517026728509625
  0.8307457480456129  0.9177372588173610  0.4205161489905777
  0.9159945762940952  0.6683760825406377  0.2513690489075910
  0.8313549947306869  0.7515733108576422  0.4190600385963265
 -0.0030946121860141  0.5842440187206067  0.2507655557758192
 -0.0034601758285319  0.9189670831744038  0.5855788423984208
  0.9131891283328630  0.9173078582175288  0.5032947753465169
  0.9133436669404102  0.9184630949802722  0.6687109109725802