Cr  H Ni 
 1.0000000000000000
    21.1200000000000010    0.0000000000000000    0.0000000000000000
     0.0000000000000000   21.1200000000000010    0.0000000000000000
     0.0000000000000000    0.0000000000000000   21.1200000000000010
 Cr  H   Ni 
 259  52 605
Direct
  0.9126440847128583  0.0016459090213593  0.0853689327298645
  0.6612885179802660  0.4154817808872837  0.5822344495953473
  0.6644020151562936  0.9161745555182217  0.7494083887871642
  0.6616797064103028  0.6668291624275585  0.6673532095821528
  0.5790923048373795  0.4145725861538173  0.1671381036672039
  0.3302495498659276  0.3337136709171823  0.0001696404144069
  0.4130477180289424  0.4998626958474544  0.2503986308669002
  0.4946031198773174  0.6671213569642080  0.1674501388068182
  0.5768418075607391  0.4989978833270529  0.5845849369851390
  0.4957324363143675  0.6666724564067161  0.0001020992000712
  0.5772146501626808  0.5852938975780290  0.9974356504864207
  0.7446600905742397  0.0830151932324809  0.3338033755190476
  0.0779964237962787  0.3298051950862960  0.4122008938584093
  0.5800165178757758  0.1655617187901323  0.4164101087808256
  0.2448046204734883  0.3327124356809749  0.0834545790528527
  0.5769822660688972  0.1669027389734924  0.9157521311563265
  0.5786922392195077  0.1677848405740103  0.0823746620173761
  0.2456585923435533  0.4165779199822967  0.8342716687181752
  0.6630664093165676  0.4166781809331649  0.4161367883720024
  0.3300527098344857  0.9992410890406596  0.0003063836602501
  0.5766366250770987  0.4999151570945039  0.7522415908210623
  0.5775469361397633  0.4172908215014063  0.0002258050853165
  0.5789529754923572  0.4167016492657529  0.5002869558131772
  0.4110058028199927  0.4175673616478003  0.1675344483956327
  0.9956224248060942  0.5011910773728530  0.8306691581895645
  0.6623260635052040  0.0811255150236011  0.7462183399996094
  0.0766313385265279  0.5047450770038794  0.4142082644598121
  0.6608152765072000  0.2493096312633398  0.0839427916696753
  0.4123911837642721  0.5013940878058496  0.4144050876023331
  0.5808072548481208  0.4163567450846179  0.3339730227108458
  0.7443674933341687  0.8332245856828664  0.0851481653536452
  0.2444505494394221  0.4141417235833710  0.3340965853410613
  0.4116775301139815  0.4997630531776647  0.9159967688313266
  0.9104100142813272  0.2496374723539334  0.4978827897330422
  0.0782219670175401  0.3325884584679720  0.9170830811396186
  0.1615893924842731  0.0838547890222808  0.2489363970524794
  0.3298307730073615  0.0825978422972804  0.2495069605757048
  0.4958478116551006  0.3340650302489449  0.8288389304272199
  0.7464749244876989  0.8339128659908761  0.5817196036706598
  0.5780505443810718  0.8350422091233792  0.5823196950805207
  0.6620690682649254  0.2496497067811452  0.7490133406496156
  0.8283695012991581  0.1658825436834409  0.1659487714865057
  0.4958281382883592  0.4984074409608470  0.8317007577091411
  0.3270103005781722  0.3347254524232304  0.6664459325410463
  0.6636863129029790  0.4996075957188946  0.1669701153892460
  0.1618969785221435  0.3348222823671250  0.1661117611308192
  0.6616146735992398  0.8334614695366459  0.1665491451386279
  0.8269862016005652  0.3328370359404525  0.3326426783282569
  0.8282396887785574  0.8330823670201846  0.3341183713133220
  0.5784243510322546  0.8324526057264660  0.2507563693460638
  0.9105425855274547  0.1664208881553210  0.4182631425866697
  0.4968319755763038  0.3347661711962798  0.6646159526477917
  0.5793946314862213  0.0829505464438152  0.4994045402536712
  0.6623076592554293  0.6669950268758166  0.1674083342706623
  0.8272890948641319  0.3324075498420616  0.8336362398394497
  0.5782327915947613  0.4172768663240405  0.8305451868024744
  0.0781210696123976  0.1659185442616779  0.4163635671143018
  0.9918560619923582  0.4153344243594525  0.2509336663101449
  0.8275749975588015  0.5010795755097743  0.4980046837586034
  0.6618819600638223  0.7502012453415184  0.4161320054745835
  0.2443132150479120  0.8310479441579672  0.5820242032173989
  0.8266942357540845  0.2517637227220684  0.7493251574930142
  0.8284068343038841  0.8340164673470681  0.8358615712639249
  0.9934321435711125  0.5845469231075757  0.2508391037366992
  0.6604583853121769  0.0832294431099622  0.4179347969849547
  0.4972583118155150  0.0003168904700145  0.3320968170944963
  0.8281768702413284  0.1652857862892259  0.0030408661462238
  0.7465806533060730  0.1659405275586774  0.2494411158001596
  0.2451464569184280  0.9157443020470277  0.1680638722873283
  0.0741793523303539  0.5826517505958723  0.4999954510764992
  0.2461408331439031  0.5000241816937283  0.5837294624660838
  0.3289774614424144  0.2507595844292819  0.9180527467188309
  0.1620788257723362  0.7508555135762852  0.0849916413272729
  0.2466189216566947  0.4182767348168849  0.1660653652875092
  0.4124079429939608  0.7484987373359885  0.9998561523904049
  0.2456848602716402  0.2498344709566386  0.8355774919909466
  0.8264429414527273  0.8357446854616848  0.0033658208312383
  0.2449413331766561  0.8343403599888953  0.9179129697332301
  0.4108987930256263  0.1679913946071397  0.2488906141158007
  0.4954615945710375  0.3343848076370061  0.0037269012536043
  0.4956351712682804  0.0832974789656667  0.9169181625130767
  0.3285330086327081  0.3328671073677635  0.4984717176803400
  0.5796939139031095  0.1681996783644011  0.2507225327641547
  0.4125866348661191  0.1643153793013639  0.7523951718405972
  0.4116336807914872  0.5842306945893770  0.6659497601024135
  0.0778383396405690  0.9174577797595086  0.6652854823674200
  0.4113246628515955  0.2503268568491625  0.9999122757472908
  0.4118752363574008  0.5002961483067278  0.0841281817737940
  0.4094457225983938  0.4997755621092115  0.7476944819869201
  0.4101650129664146  0.5012048864424825  0.5855275815378364
  0.4126731940237611  0.8326063819416233  0.2500775382211586
  0.1602466168861738  0.7504625650173516  0.4142728224670453
  0.2466706383347626  0.5836228372300496  0.8327382817226001
  0.4989131612832691  0.3341714551209554  0.3327294617610971
  0.4955974135486534  0.0824843086559412  0.5825411098430366
  0.2450373690304805  0.2522328760992890  0.3338512381360536
  0.1607130042746299  0.1681412627032217  0.0033159976259257
  0.7446036990863701  0.0826672196086897  0.0003734951127491
  0.2450612799563792  0.1685818868727032  0.0848656871656168
  0.3285068107937536  0.1679789240431504  0.1688169846941960
  0.3290267718740341  0.9999838966432584  0.6664500126714639
  0.4114176708920098  0.1635909738348287  0.5852378683424535
  0.3292567240503407  0.0822424038526890  0.4158205705981321
  0.4938965663670420  0.3361980979136215  0.4999779787771523
  0.1608525596541543  0.9998878090236768  0.4976643173787894
  0.4109731666705752  0.9169917810602752  0.4972030016905176
  0.6622896546244950  0.9994265814604305  0.6663670115414021
  0.3276741003170440  0.2507025926391488  0.4164657416338495
  0.3292993016394747  0.9994080213481266  0.4980548750315242
  0.2454383294541693  0.7517522486241527  0.8343109922211474
  0.2462748008489107  0.0818847233629040  0.6657356346992325
  0.2436176259812907  0.2496579833804108  0.6658093252934807
  0.5787664531456733  0.9993046941067661  0.0827021738446263
  0.3299749972209128  0.9150210126950955  0.2497786762241872
  0.4124669405283484  0.5838564118944596  0.3329933160703934
  0.5797285774573896  0.3339821410242625  0.5849849062672967
  0.1613703583235903  0.8333412759893397  0.3336630055394034
  0.4981176721024946  0.8343200448775731  0.8336769851625289
  0.6611953083440743  0.2492925409723650  0.2490676051241718
  0.3304008985560956  0.6669355034415367  0.0000805177699892
  0.1607905329241852  0.9190198420711925  0.7493754882576605
  0.5787086749033545  0.1628740736408743  0.5813208937674310
  0.5800072179008410  0.9185789687270898  0.0005763478334467
  0.4111334444172118  0.1662794195685213  0.0862552663778879
  0.1603940020529433  0.1631200569458798  0.4982557878447462
  0.5784325274578904  0.9988314480653273  0.2506773778000338
  0.5791442006161582  0.9164403391332427  0.4986846797230297
  0.7414895528580651  0.3329307559671635  0.0833452695314315
  0.4103080754209408  0.9188440245860555  0.6659259612287519
  0.4934861726831686  0.0829875004707935  0.7503928036449907
  0.4951361132990825  0.1660171199981344  0.8327591327016872
  0.4954086822261853  0.6672685299541571  0.4999542962377985
  0.9110374325765127  0.7486370550185349  0.6652135969428495
  0.8291489092750434  0.6658046979184872  0.1675277709459983
  0.1609447579933115  0.9165273120251599  0.4170376380126499
  0.8277539609477429  0.5009895383482796  0.1670901811860966
  0.8282011555361539  0.5008209066153726  0.3347210828902064
  0.7449477935060261  0.7501154116943106  0.8341318898435656
  0.2459160779590777  0.5873330053280849  0.3318727981922755
  0.4119864272376951  0.6690441353403644  0.9178555418028073
  0.6601316051098062  0.2468908124525635  0.9174668489475667
  0.1606095458480921  0.8341960208582594  0.0027203443731259
  0.3226979105148228  0.8316803554891438  0.8356217807908869
  0.2439067267823007  0.6676483255766751  0.5853387610605127
  0.3310192007125263  0.6683816906218314  0.4981875320637179
  0.5799424430754843  0.6702692480200457  0.7470026552001503
  0.4152370238007240  0.7502718888675098  0.6657806385517345
  0.4125982604563189  0.9154833529104770  0.0004138366514978
  0.4132506096517162  0.0866070121610778  0.1676172038674300
  0.2446643066462404  0.9966206522279253  0.9184811651958417
  0.3287469204859308  0.5854291949650958  0.7502757215414017
  0.3296251076197771  0.7491048685436397  0.4167742189845169
  0.9946587217477825  0.8364913482023862  0.8325397452327596
  0.3256837585968061  0.0008230193478400  0.8362069548624412
  0.4119435476451795  0.9118107072258477  0.1694202075082038
  0.4963616981241220  0.8333527063757343  0.1671963648301598
  0.8264045443514703  0.5009081828361696  0.8312741668551415
  0.1630745389110278  0.5803220168838090  0.9174061944933869
  0.3281493113354143  0.4997290250642228  0.6679450955056978
  0.9113150245732166  0.9176626365367051  0.6648150040175054
  0.4959439489854007  0.7491434903431466  0.4168052620982752
  0.3275780565417522  0.6668710600414395  0.1679154440360887
  0.9946016461542895  0.8345658908518330  0.0030084158982931
  0.9955360134267837  0.6649310915993474  0.8344078476797147
  0.7458373090298080  0.5020624854920049  0.4146186168164120
  0.9083168978364924  0.4166607205878238  0.6666754531926699
  0.4928713193225084  0.5845883493776473  0.0835258449796006
  0.9110789093190232  0.8308527748941944  0.4169726936961728
  0.8285412926881224  0.5859538806024261  0.2490504914592591
  0.7460614982031945  0.3318593601268383  0.7506130064955706
  0.9965411893937469  0.3302820797808547  0.6676030019600562
  0.0788496626146788  0.5002774044115632  0.7509968777701878
  0.0821364683385902  0.5004739681014592  0.9160164874939186
  0.8242517368144521  0.5853980456842390  0.5808245977507216
  0.3312505560921515  0.0830022838303454  0.9194390479156090
  0.9978803345779160  0.5833819582334910  0.5826003319466008
  0.9945246012583074  0.9162082221702545  0.5830586169485082
  0.7418323429039230  0.5012398063645460  0.9177863322117474
  0.3299120538623762  0.9176789616311635  0.4174139089663172
  0.9129255658164160  0.1663362844790560  0.0846180346929586
  0.9918329980637663  0.5866837853790019  0.0851173749117738
  0.7453717701024695  0.9161653680870832  0.3325409101124361
  0.7454945731422430  0.3326767526736371  0.5828307759535171
  0.2454587010173572  0.0825754159175779  0.8323471249100358
  0.0772922183872944  0.9172904635350176  0.1683094687519009
  0.0750127131173003  0.6655787149534647  0.9176908089148117
  0.8275082815295464  0.9986189384929371  0.3326002276099066
  0.9126664068213882  0.9994116788807164  0.7486531194107036
  0.9953570868109910  0.0839022262349021  0.5837662177518093
  0.8274666926802154  0.3324853715233983  0.1699422243077695
  0.9952231300769793  0.0810910568913826  0.9176955524389222
  0.0774209640748341  0.7519126624832571  0.6654349236120340
  0.1627015174567951  0.4174641923738730  0.0844329505397625
  0.0788313533328767  0.7503610336754181  0.4982110402503804
  0.2441067962385403  0.8334162876288064  0.7503990773548709
  0.2453021853162891  0.5001462859208617  0.4173403532355005
  0.1627438926503772  0.5834555767983582  0.0837828450025500
  0.1656594160731940  0.1655944939262571  0.8329138891453282
  0.1628313518503283  0.3350596053885193  0.0029701081211556
  0.9111833187424357  0.4151019116069015  0.0008277448185769
  0.1635595877431704  0.5004023770539548  0.0006139450036064
  0.9936592465447944  0.4158630371735570  0.5842764321912811
  0.1635108935216158  0.4207128525206051  0.5835349248277518
  0.9968067823126358  0.3352414256798761  0.8349562721662681
  0.8275427481225985  0.3325086834008115  0.6666988505371630
  0.9109617981745493  0.5845883831042916  0.0024179862571795
  0.0773041258697646  0.0006549071617214  0.9170433199304413
  0.9936308978939904  0.0833084142961209  0.7476007102744704
  0.6609948958379164  0.0009160057548873  0.0006955936646121
  0.8288190745359995  0.1658664464997024  0.4992699795965160
  0.9970890150734149  0.9174422633267151  0.4173177780355741
  0.7449081512004735  0.3323916586420871  0.2494224358819351
  0.7453522061611029  0.9171625898267166  0.0020772867672374
  0.8304838501342146  0.0821042868022930  0.7453227900953741
  0.5786010113157629  0.7521603883709426  0.6659835587204495
  0.9080175415874816  0.7492535906104751  0.8358085484131893
  0.6620234408609833  0.9171944003670290  0.4168608801004696
  0.7449872787584622  0.7502554485795979  0.3343138496787368
  0.9115906209910436  0.0833403087603368  0.6665020828304589
  0.8317826098478323  0.9202691339648092  0.7472901027949891
  0.6627441231667650  0.7521278206864876  0.7504954602925032
  0.7446672481682511  0.6675637621592417  0.9180787398732145
  0.1593487351642409  0.0836235769060095  0.0880059049837092
  0.9089918112365847  0.7528178210283843  0.3346061504176462
  0.3261319047626656  0.3350197143979466  0.1660621335729814
  0.9115941532081419  0.6687039977406691  0.9174218996151801
  0.9933157224425307  0.0820959553080672  0.0838432673398110
  0.9103137520945854  0.3348318112256137  0.5844191073980787
  0.7460699025848628  0.4999588696463579  0.7523493433375170
  0.9937428386655923  0.2503873414784588  0.2505847133215100
  0.6626186768723659  0.7509735767213073  0.9160884366272617
  0.0788452243739945  0.2507827419125350  0.6676566525791920
  0.0769350088477556  0.0833259926459780  0.6651812754286239
  0.6628979168056105  0.8333982541142061  0.8327210285288466
  0.7446095123569906  0.0830890353087378  0.8317903687258067
  0.7453993518055360  0.9167482170160952  0.1668183618042180
  0.8273194902165999  0.8326472157021659  0.5009290627280266
  0.0784783878763537  0.7515354592166680  0.3343576981738897
  0.7451052607361794  0.6681168232266647  0.5828078714172925
  0.8284401014987093  0.0009822128059037  0.5003433304326289
  0.7460248103778989  0.1649829470470102  0.5823724083721395
  0.9941673022556380  0.0842628436359957  0.2515882570804641
  0.9943812159441789  0.9157161490540825  0.2500747860937275
  0.0790457740054527  0.7496507190996349  0.8338507964746266
  0.5794632697999416  0.6685172858382616  0.5843299481409255
  0.9970735925157975  0.2515168145251584  0.7455466266410452
  0.8270027542906188  0.9168221607291698  0.2499274811781063
  0.5785631414927466  0.5846348016425638  0.3330941217876571
  0.9094056943752831  0.5836246615560926  0.1676471187312487
  0.0769089564012439  0.5832050102246685  0.3324534585356150
  0.9134313457862564  0.9999255629782202  0.9171479305059003
  0.0783112289516091  0.7507072303943892  0.1659541670879246
  0.9963433275424508  0.2516497500789894  0.9200328842542744
  0.7472565012530081  0.3315159592380112  0.9163473068285519
  0.8268317354938343  0.8347912567092090  0.1680683622257116
  0.2440268776184413  0.6672959532088065  0.2503917804462593
  0.8276811802860440  0.2535496397450673  0.9160573821104598
  0.1609996177377121  0.1650872251051766  0.1670888936440980
  0.7458983416576545  0.0853414872712438  0.1685342187325816
  0.2446403798642838  0.0837265692503009  0.9189340679674539
  0.4105144984503776  0.8344538075340805  0.8333744988799301
  0.9955913854209395  0.2485259247795049  0.8331495493646943
  0.9937477468807164  0.7504850168643421  0.8341081292214232
  0.9109374304787003  0.5839723908120218  0.5832005525798761
  0.9933017655325280  0.4995998048836283  0.9195566109155529
  0.4965956777571824  0.2451472073889552  0.6666752359535462
  0.8306873724584882  0.3332676278949802  0.0816201348905080
  0.5787736555792239  0.5045670885080095  0.4964819910062698
  0.1597620686177023  0.0791533146422381  0.9997425345486419
  0.1565308396992304  0.8307233668263939  0.7499775028228571
  0.4089527167813225  0.3338372321072940  0.3324924279273406
  0.4109481807885187  0.1652505626930516  0.4943496887672365
  0.0760475637259267  0.5000245601603196  0.0041216830545687
  0.9936433172472432  0.4955636716636292  0.0859031638412236
  0.2428802429036987  0.6677204662513434  0.4960707753923294
  0.9087822278336337  0.9192425857944083  0.4176481909445450
  0.0773842491275908  0.4172522697094143  0.4157078128094920
  0.0784904768753257  0.7540493819711596  0.9220001793996249
  0.8299619264854713  0.5005257805768135  0.9198089510642085
  0.3317619608585768  0.2457594068330231  0.6666597716174262
  0.1624458764659928  0.2529036201523443  0.4988315623951411
  0.6649792073868575  0.5032962824067871  0.5838622530174127
  0.3240254080337517  0.7500421346517192  0.6652097912277897
  0.4957077441835592  0.2468897362234901  0.4980680936945646
  0.8289443952384522  0.1641616239241662  0.9145246411539019
  0.5741461494540362  0.9172634214863170  0.7495075700533603
  0.5816686889949231  0.5843379702539697  0.0853797873653972
  0.2472821557690672  0.0799847053359360  0.0852704848203529
  0.4139478392057542  0.9991018822389267  0.1659065376136713
  0.6586237733694418  0.3359854981225057  0.9160672762051335
  0.5757679487581694  0.5029079880740851  0.1681113770381405
  0.4941562068787776  0.3336711637835078  0.9164286876034058
  0.0779890502879550  0.6617953585730967  0.6665690235998596
  0.8285538556386679  0.5842432484234703  0.6708862280699940
  0.6575448556724016  0.0817500958467154  0.8351329467936189
  0.4951350766428060  0.5885196328981828  0.8332041029274190
  0.9921534232929010  0.4167903847618499  0.4940402087223811
  0.1642752931656864  0.5828486928677012  0.5008352141239190
  0.8326955445657582  0.0828511856232304  0.8344468675448196
  0.0823797287904490  0.4163023276792244  0.2494004241328713
  0.3321677492956686  0.8332358612584496  0.7475086456214189
  0.0755719129132243  0.1649963344331303  0.8329201855267621
  0.1640433801447673  0.6687602046184250  0.9177974095418666
  0.8293291103847017  0.8310126141983036  0.7468211316920940
  0.1630924096317577  0.3297067085428893  0.5839282547169327
  0.9959873441176333  0.4182194563888634  0.6705758677797806
  0.0786089069136100  0.3338568883997270  0.5028344756853270
  0.5809633330704176  0.3302040937743468  0.4976098671674078
  0.2438367965781163  0.1623297367304683  0.3338517483104331
  0.2444224459491002  0.9207580443473329  0.5824412566735664
  0.2458396921007945  0.5002406909426699  0.3306568234857341
  0.0774225874818866  0.9169715718445512  0.3333214310826207
  0.0779430706424008  0.9170756369571907  0.4994271158575913
  0.6622404488698436  0.9163215505499608  0.5821285904574617
  0.5785170658316836  0.9169648387770568  0.8342029978864787
  0.0778727829665617  0.8334895008893277  0.2503180738894549
  0.0770176681656602  0.8344740474408857  0.4169955307116636
  0.7448735994591458  0.9992938087570824  0.9169166644221667
  0.8280146333098146  0.0008445866219868  0.1681953060413011
  0.9948305527902589  0.8330544256701174  0.4994868272532257
  0.4946471425077625  0.0009137506193129  0.8339293969655639
  0.0776667195390300  0.8335101790231030  0.5822519483137477
  0.7459914705772925  0.9172534864512099  0.6655621249965106
  0.6620751407006138  0.8331736818125047  0.4997495749216467
  0.7445277561530501  0.7508753310481587  0.6658564190692221
  0.8280946076015797  0.0004177391804334  0.0012364379881522
  0.5782235043709505  0.8332184259321536  0.7493806999935081
  0.0780541990341526  0.7506194865417879  0.0041890410163715
  0.6613573435646782  0.6676174508813200  0.8329013600486076
  0.9948538323146366  0.9169463897644762  0.7478458964433067
  0.9941375339790282  0.2487683645897208  0.4153792520970470
  0.9108354802515312  0.8344703224263388  0.9178939477824346
  0.7448234344594056  0.9997591552606773  0.4167900307463583
  0.7437655801212483  0.5843052695963610  0.8341564408136477
  0.9114041944378181  0.1676231825419123  0.5825430694316789
  0.5796327741376608  0.7513331411099065  0.8328716873544035
  0.0778747495550419  0.6669115649982715  0.7516367284779525
  0.7434859790633614  0.0011218384429379  0.2502688480866834
  0.8280636074621285  0.0002767093259229  0.6637415510906487
  0.6617232160668923  0.7497866029876556  0.2499218888870622
  0.8280313322724409  0.1676122068513425  0.6660329845447500
  0.7432907689072078  0.8320097708034667  0.2500257937261102
  0.0771240904574273  0.8356271012064608  0.9186464778146389
  0.5790788870249105  0.9162548784803587  0.3333495549113010
  0.5782538767069314  0.6686767165232106  0.9163763347859746
  0.9947204239160776  0.7507489468072380  0.5831040021276208
  0.9119963463228101  0.0828204312618790  0.0009705525540175
  0.9099553887330826  0.3321776945395326  0.4156551307113384
  0.8282304399268308  0.1654240792641408  0.3336939057755396
  0.8271531006947500  0.2493487395268672  0.4160876891529592
  0.0766978700291604  0.6665131117738570  0.4158374284829365
  0.8278008985224967  0.2497215470972551  0.5825433264161396
  0.9953286642341418  0.7500898827221796  0.4162017253709563
  0.9933864098072627  0.3317304173263764  0.4994685356133984
  0.7448284200282910  0.1662144181239068  0.7486573955340673
  0.7455481219998272  0.4162964131518598  0.6669911835386408
  0.9116522760144532  0.0833486673374851  0.1680664291252895
  0.8288309280342985  0.0821418343302795  0.2513138843620081
  0.9120011212726505  0.9169401587171601  0.8340758374798046
  0.9948237648390708  0.5834207702583331  0.7508628723696349
  0.9142250262822412  0.0828765044340690  0.8325147849688183
  0.8283295672931381  0.0806103378140628  0.9192334330336757
  0.9944297721388534  0.8333353148328785  0.6656847771359707
  0.0777850390142258  0.8340971639474135  0.0853954254672519
  0.1618388080684906  0.6665769715884066  0.8333466128706204
  0.2450970206548099  0.9163193805989780  0.0013154315181400
  0.0760250928159569  0.0831678322631962  0.0014619171609005
  0.6616535422731619  0.5005377356290108  0.6685433603852943
  0.6621770551146516  0.5861251789426938  0.5838540939463274
  0.1611788983108092  0.9156830105444340  0.0849008612258211
  0.7444812048093248  0.7505807923676415  0.0009406167001370
  0.7456102928984280  0.5841706138236912  0.1670121278164334
  0.7442801291051659  0.6678825237235354  0.7502509002522881
  0.7440841322883026  0.2489183070771408  0.0005012607739172
  0.9941078043054291  0.6671557245973779  0.6662778255692307
  0.9947840830381827  0.9999206831611498  0.3327558919449956
  0.6614388790611171  0.9993190384149087  0.4997972898421836
  0.0774419146779220  0.1660970008439426  0.2501188494878220
  0.9113464694050417  0.2496386349251375  0.1681957401498835
  0.1621912938494780  0.6668833858686580  0.6669242729398527
  0.8284841769129881  0.0823182395454628  0.0840360855568878
  0.0774593607699385  0.6676668825023303  0.5817818130909962
  0.9952803505248126  0.6676566236908867  0.4994421647644014
  0.1604367975047550  0.7502917362069348  0.5826453449139303
  0.6615386562501506  0.9175754506843552  0.0847527936285284
  0.5764418127776961  0.0822374321610550  0.8322340984160123
  0.7442318448080206  0.7499898268789008  0.4998633583207623
  0.2451923182620164  0.1648671700636418  0.5827516349750641
  0.9100737910381256  0.5009151211217439  0.4153657550988221
  0.7455459776678998  0.3334333811459447  0.4149805948837053
  0.7452006836978975  0.4169514927389861  0.3327291415255439
  0.6641866596667388  0.3323427955978506  0.4988626624776761
  0.0774399619868227  0.0006030861521208  0.7485808063594694
  0.7476469022156715  0.5003383464517385  0.5817842498436029
  0.6625229724633479  0.4173536612347688  0.7495916037064150
  0.0792976117139553  0.1661696187152112  0.7474276559935530
  0.2451786392822086  0.0821011735382680  0.4983390476124711
  0.7438383568201039  0.1666314777355465  0.9164884700766665
  0.8274236799272376  0.4156519008194056  0.9165370104378434
  0.1626187833707436  0.0826525044024896  0.7489545376734285
  0.7441998404592386  0.4168813779116822  0.8334006295807322
  0.5774479187022153  0.4994989730432839  0.9161161715913501
  0.1615023157644617  0.0005118707500657  0.8332467523586893
  0.6636520315121673  0.5836757146392204  0.0835903269675604
  0.5781798100986475  0.0826995284708552  0.6660327973023873
  0.8277121326453601  0.2492256342412804  0.2502416247484860
  0.7448456977974660  0.4163173786523993  0.1674472576022937
  0.6622310998729373  0.1651199437338492  0.6660279336049308
  0.9943723624542365  0.9170819403962429  0.9179144030625066
  0.7463727245850754  0.9993905937649522  0.7491555905970302
  0.6612431047492108  0.5839307440517647  0.9161739108993900
  0.5782041798325412  0.1648788008382951  0.7497675715106122
  0.4117166594931055  0.9991121541119639  0.9174930833472734
  0.8294862385459683  0.9991437586475949  0.8328912564602017
  0.5791920816541699  0.0839081313169725  0.3329615195362865
  0.6604318673394941  0.3329307908929492  0.0010846671861605
  0.4117076471709770  0.9996916199867641  0.5818873598207612
  0.7446578198491856  0.2489916196045182  0.1668081188373423
  0.6631264583281310  0.1669365271558486  0.5005830154196474
  0.6620304309356390  0.3330735796853059  0.1666958167167598
  0.1626585659546994  0.5001878203941392  0.8332742087751974
  0.4956872504824477  0.8335092170100922  0.0007093166185599
  0.9949999446472513  0.6679066862852566  0.3331097299745752
  0.9937345726686743  0.5007738442689939  0.1695209141498880
  0.5795639790842784  0.3338124371717132  0.2502496823593086
  0.0767424878743986  0.9171913904483987  0.0016066900545166
  0.5788965303984867  0.7496249469847868  0.1670732821934097
  0.7454932517914299  0.8346154618185109  0.7489881788980548
  0.6614797660441795  0.7498985315299271  0.0838881812930705
  0.7447059751976145  0.6672890354280795  0.2496766413093434
  0.7445310542327795  0.7503524186550278  0.1669132440875153
  0.8288629669265899  0.9172003610364766  0.9184084595211988
  0.6612488004935934  0.6668861543756119  0.9989405191131316
  0.6620011649123329  0.9168149929655445  0.2497795789081056
  0.6619904561379133  0.8332582062703071  0.3340686545096395
  0.1600840858996068  0.8330082347260787  0.6644738225272238
  0.9112058202135956  0.8331626903632966  0.2506131864504547
  0.0754960981645158  0.8336992253578629  0.7489160860139835
  0.6619700666315635  0.7515156167881136  0.5830345827282325
  0.8261324985026868  0.9165261579344960  0.4169772311707144
  0.0777651145890337  0.0828568096059976  0.3330182146063476
  0.7442536257288223  0.5839081264019440  0.9999944502168572
  0.8279616000645657  0.4999423002902511  0.0019759086548010
  0.2450445672135229  0.3336924734120746  0.9187549932248844
  0.2455834140546329  0.9163955925057515  0.3338137817193279
  0.1624611477085832  0.4168039130765891  0.9174260686347064
  0.8275341459990394  0.5838734185571960  0.0841681027818751
  0.4947828276226852  0.5005651488583286  0.9998203695138316
  0.2450285633059664  0.0806559372536369  0.3328722158592661
  0.2452011646785458  0.3325499486310958  0.7502822396328205
  0.2453180213066734  0.9992819608579393  0.4152923721389523
  0.1625916964818208  0.3333837673824203  0.6678734838863744
  0.5781998814160133  0.5842726877048805  0.6668027810599332
  0.5791249049675091  0.5006520855562969  0.2516622494452441
  0.7444582163209960  0.5849012810559413  0.4987603966821501
  0.4965585169478213  0.5004330179113022  0.3331234177609446
  0.7435303960303683  0.5833766875931056  0.6674578938918522
  0.4936856015497955  0.5011769089166579  0.4998027987306101
  0.2452476255878563  0.9983881122448182  0.2504783924476000
  0.2462965761930903  0.4999780483792391  0.7507120920272115
  0.9950907277741123  0.8339553996534874  0.1677716413649901
  0.6607328985064324  0.1673306698745302  0.8324493771099695
  0.6612926820120260  0.0832979900378242  0.9185754542897860
  0.7466310871744953  0.9165903969694278  0.8331146272226345
  0.0778182550775201  0.5850917945508981  0.0022280846039290
  0.9946115393967592  0.9998355630693059  0.0012474957099353
  0.9097895122552541  0.4997503857767102  0.0850348155616673
  0.9925288495039666  0.5003772960844816  0.0020857772636754
  0.1624270521313438  0.2505314691312856  0.9184199447452168
  0.9952791385531085  0.4154961683190567  0.9166062480664167
  0.0798235078822005  0.4175271657067822  0.8342565061347902
  0.8276542898885823  0.4160082955917507  0.7512840832062615
  0.0805394971181152  0.3338861813220773  0.7514800527819441
  0.0785886128677576  0.4184435601811551  0.5000710966696534
  0.0776263461258236  0.0829305647245599  0.4991463114318703
  0.0777371881277515  0.3336192802640076  0.5855131527617001
  0.0773222051397151  0.4168970601631446  0.3325475458082696
  0.1616525105613475  0.3330161270554533  0.3327068387665489
  0.2456419163795128  0.6669900294342891  0.0844422054386915
  0.9928968272328751  0.4162502394358630  0.4134394515047949
  0.9933242738011057  0.5009696234337031  0.3320713198008773
  0.7454224332115715  0.8347463279183254  0.9178147506058707
  0.8287995239055337  0.9187735973431167  0.0847603509116744
  0.9118746984906178  0.9171909392458004  0.0014235101827912
  0.9104131498566942  0.8342547643743223  0.0849505848786688
  0.9945718173445169  0.1665269521976124  0.3330448867906667
  0.9112098229780323  0.9166578778303074  0.3327928398446262