Cr  H Ni 
 1.0000000000000000
    21.1200000000000010    0.0000000000000000    0.0000000000000000
     0.0000000000000000   21.1200000000000010    0.0000000000000000
     0.0000000000000000    0.0000000000000000   21.1200000000000010
 Cr  H   Ni 
 259  52 605
Direct
  0.9967921790429702  0.8302903438927089  0.8327608510350232
  0.5802820407401134  0.4160430787546485  0.8317457295043492
  0.4141461874984170  0.9127295634108256  0.6676743974578380
  0.4980633348586033  0.6656715494561285  0.4991053460936629
  0.4133665918988232  0.1670944922898047  0.7494234711669727
  0.2463167704956703  0.8335910148691613  0.5829534498104187
  0.4134428584595872  0.9152716064984823  0.4999026885302819
  0.2461438928426129  0.9992935774596112  0.2526503795988267
  0.5804526676143007  0.0833414743022594  0.3326129244609131
  0.5010311305511346  0.0835312258715514  0.0837556115827893
  0.7446341952811794  0.0017718057714856  0.9192640814425886
  0.3291167781528503  0.8329123886466658  0.0002031778308199
  0.4148088138592209  0.6674130321355560  0.5822091105852928
  0.3281917394975967  0.7494525707793939  0.7493113903148876
  0.3300405412606994  0.4167924451167753  0.5806197426152651
  0.3334224095094796  0.1663729959803758  0.6657101540789018
  0.4954430986123338  0.5033663340926900  0.0017999064906474
  0.3296496376806570  0.9195782218406295  0.2522047517603718
  0.4955725722535421  0.9162529975150291  0.7510120982681815
  0.4962960577095203  0.9158267738957903  0.5834726302714779
  0.4137764899688235  0.9166426839843557  0.1672272431307135
  0.3283018022994296  0.4993975618289288  0.6634256774335616
  0.5794777818758056  0.6703238701753428  0.0825809092085294
  0.4141206348703349  0.6665538083825688  0.2540827405851914
  0.5789873250330065  0.7513291508484714  0.9990650875105624
  0.6610951418807941  0.2502516557949732  0.2498059011833400
  0.5788858820274823  0.2523630674628232  0.5000583303542638
  0.4968278707807275  0.6655608174671335  0.3339124809146117
  0.6617551140473538  0.0850394187452407  0.7506943716095107
  0.4948027324064100  0.8333606800263423  0.9998919101303418
  0.2469406315835456  0.9997068723480473  0.5829362794535913
  0.5786103460329307  0.0850099759357053  0.8321729086314622
  0.4932750724398324  0.7490205787047363  0.5828618078000894
  0.1623183731115693  0.7496300611915946  0.7498271300574345
  0.3296122128752323  0.7499969981181036  0.4165986972789049
  0.2454040245530416  0.5008736319470722  0.4188614128570093
  0.7463161382338334  0.7491824356816202  0.5002201398177147
  0.2470179980921469  0.5828309840981116  0.1699271614311513
  0.3286711829170193  0.5847143182483450  0.9150836072203039
  0.4985614570848734  0.5834922456953467  0.2534287857848250
  0.6610767246044448  0.6653722296326153  0.8333242482167420
  0.5797400777403670  0.8366629417571160  0.5838610939549913
  0.1619051007609817  0.6684210687235884  0.5000159333580213
  0.5772560513210506  0.5833074182351630  0.5002294223497060
  0.1616284855877432  0.7498360792823551  0.9182159709322001
  0.6614304037699915  0.9150100739008231  0.0829549330622940
  0.4137964588726514  0.7528948815459016  0.1687659376534260
  0.6616849393661620  0.8334584442694674  0.8324874868044922
  0.4954997280797010  0.2510486799367097  0.2514240524505471
  0.4142615526638423  0.5006884704737250  0.7501914680511547
  0.4978081787339089  0.0836559079794936  0.5819642092428354
  0.4142377405921356  0.3322238696116916  0.4177189633114392
  0.4958723842655631  0.4175640740516194  0.5837262884134874
  0.9101577486236743  0.9175226513519966  0.4988695338867694
  0.3301576433309022  0.9157015285161764  0.4167857507767485
  0.6626334069529489  0.8334476741319640  0.6666525693484190
  0.0788694539079142  0.9161676145500981  0.1686397186835614
  0.5803363368512839  0.8343468875715799  0.4170096610417141
  0.0776705909248490  0.9161412846400837  0.8345807658619026
  0.3295436786747303  0.6728009944757248  0.6683038361838003
  0.4978886815052799  0.0001908768203906  0.3332127696860399
  0.3295171503326900  0.6668742520470891  0.3331791359422273
  0.2445636047539425  0.6673432011121833  0.2500738691585522
  0.2417564568043516  0.6664194337416901  0.0876007079787182
  0.2470633828059384  0.8342835174539353  0.0804578584704153
  0.9118333565575016  0.4171312184720969  0.6669781802954656
  0.4134888100981410  0.7494675249196078  0.9989833822479151
  0.8279146998429515  0.5819529788253760  0.4169084265185224
  0.6637574300287752  0.7492347434055188  0.4176742043160809
  0.3299158562016811  0.4988147821661202  0.5006713852699582
  0.4127600030064736  0.4161863730248645  0.8324458318780932
  0.3326964708926451  0.2497262560964189  0.0831562935259687
  0.9949558718932436  0.5840734452033656  0.4166578688912622
  0.4136216565425660  0.5787851962484483  0.1689928266521391
  0.9081627606096340  0.0833227369532408  0.4970635406023312
  0.2441611510459060  0.2509835381446920  0.4994701831424333
  0.4947399928612640  0.3319468974342734  0.1683023780520347
  0.3299292209188656  0.9985348133663918  0.3334688991975563
  0.3290643954485383  0.9157280302654369  0.0825553194806451
  0.4132341713121920  0.9996507678458695  0.9166379734015642
  0.8276864782341115  0.4191152698423783  0.9152819683271773
  0.6623930566419458  0.4174430464031962  0.5833067557398260
  0.0765788769859039  0.3338620767381264  0.5790604788036465
  0.3289332784863280  0.4179810645158822  0.0832743785441584
  0.2479532626885472  0.4170979517652080  0.8309576629553247
  0.4126489490442332  0.4992123974241244  0.4182361679803701
  0.4153779519871422  0.3323546467776601  0.2488794185977034
  0.4146163254842216  0.5009700858862512  0.2498761508874068
  0.2463479969249384  0.4175425758153927  0.0034991141943332
  0.2415155806515979  0.4172817641057658  0.6659798068992228
  0.3284412423377376  0.2504491461609581  0.5838759585887884
  0.4148215586702436  0.0823948966843276  0.4994815635535128
  0.3267681225703084  0.0823130165714992  0.0828425811852151
  0.1648120291841532  0.2516034894313028  0.2531069105366273
  0.8286382851212337  0.1684248556902181  0.6650705031968533
  0.7443301666021451  0.1664392861454533  0.0831603819033910
  0.2480495270963512  0.0807789136156348  0.6624064854572173
  0.7422251022683781  0.9161582546800120  0.8327719271151492
  0.9953707583324217  0.1666074424075558  0.8341415646482471
  0.9103591960610992  0.3337003385896525  0.7498587600526599
  0.0771975020470015  0.5001864063984883  0.2526020273886089
  0.9105334410280729  0.3340979057109756  0.4157999512849593
  0.6603526297004459  0.1663247143174091  0.3335407615007288
  0.1624498278121059  0.9967141839853475  0.1672311323878201
  0.9112219498705364  0.4169834672730317  0.3335856180045098
  0.7467391666885991  0.2490895793503097  0.5005970466674567
  0.7446866410427442  0.9995729464755475  0.2503688961315649
  0.4954851226738862  0.5005869578250435  0.1687597191690833
  0.9124274721566984  0.2493063760824827  0.0005225947328709
  0.3270444915912755  0.4973670862475839  0.0014195504725757
  0.9950261625639916  0.4186354471897345  0.5823299707025908
  0.9101207778298162  0.0038642005975466  0.9175203831601773
  0.9948021681333316  0.4192723500572965  0.9161247380529829
  0.4115880075377691  0.9161502543893694  0.8313848868026523
  0.5778653583629422  0.9999417842631664  0.9151201966214888
  0.2509683145185403  0.9155971708667170  0.8352867393709090
  0.6602782591815011  0.5837467262062455  0.9148850187039798
  0.6612790933043206  0.3335107544696467  0.8336168461355310
  0.1608087005431500  0.0825745678321694  0.4170998671819044
  0.1609320406098946  0.3342408152211033  0.0041602468970208
  0.7442884717530823  0.4169012566284834  0.3330966349708430
  0.4114622571159423  0.5000613227479000  0.5831376577489163
  0.8279107707483584  0.5004427403098736  0.4994982328026357
  0.7444905693368012  0.4978564874116009  0.2517321836280322
  0.2493887399575225  0.2522497873377127  0.6650066733317587
  0.8276877873027797  0.2485229358225050  0.2516746711961083
  0.8283235861268363  0.4200472617817285  0.0840705774453710
  0.4140403384400609  0.7498893210240403  0.4989702704210800
  0.0793723704694608  0.7494026680135627  0.0008364510960937
  0.3321623614375969  0.2487959621257983  0.9144723134194781
  0.8284203464810947  0.7501775194488443  0.5829206335400474
  0.5795627469956847  0.4167841475800469  0.3336298742538431
  0.6598752518089926  0.3325608252929837  0.1673049481988535
  0.7440796233346250  0.2481957788829841  0.0009919663276704
  0.6605447866097596  0.1657751307829523  0.8329838224967164
  0.9953680487329331  0.9186277306398812  0.0820515914496218
  0.9950349458162038  0.8333828289562794  0.3350564354844606
  0.8289751623965143  0.8330907095676995  0.1670166927808058
  0.7454465851141050  0.0823187206206733  0.9992864373347957
  0.2452233278872150  0.6662782129741899  0.9157981551068157
  0.0786888896629131  0.5841752572113899  0.6650611918792012
  0.8285538202114071  0.8329066698781402  0.0044869812830304
  0.9122003230931459  0.5838131932804542  0.6655846269801849
  0.7458040081420039  0.9173122626804266  0.4995133385025707
  0.9099581174092206  0.0849876295121660  0.6672760474848253
  0.9098602525050273  0.7479882156594898  0.5017038584520251
  0.9925652205824442  0.8337366724017098  0.6658152240465427
  0.9944191534763822  0.8325936944756784  0.1678110261290830
  0.9149448697140274  0.8323936334896388  0.0855808744729126
  0.9117311130905591  0.5804736962931002  0.0005047189000622
  0.7439068077610476  0.6672590517116603  0.2547337659351859
  0.7459911316365644  0.6658139125728025  0.5829793595022273
  0.9120905746802502  0.5843833864105756  0.8338029958341480
  0.7458365459259318  0.2490804716086822  0.6659921126216104
  0.4967526263780042  0.3277134623975420  0.9969114024956751
  0.9123195386983423  0.1700111531803156  0.0842189593164126
  0.8279241345253150  0.0014204582711938  0.0009503231321261
  0.5805748828033945  0.3340986355328321  0.7505835655693004
  0.8288243620931708  0.4169579130466027  0.5829155663670347
  0.6611313392336370  0.4156782718470469  0.0846037579628771
  0.6620120691285933  0.4993584153334173  0.5006280030406182
  0.5803634455668589  0.5831418294314800  0.8327362207371778
  0.5782718507581651  0.2529015793059901  0.6679295517802322
  0.4964005785118710  0.9156520551570695  0.0843139162857439
  0.7445923587870074  0.3335232937456239  0.7490248337847167
  0.8274519240572705  0.1677722862883094  0.3325476758778977
  0.5826189337068408  0.4997540814314849  0.9161708901032118
  0.7451303551461212  0.0006585639324533  0.0825427616925657
  0.7457957600568013  0.0862925807394307  0.6663506759214481
  0.6615863301241096  0.0835295347236699  0.4155272976582169
  0.9931663613637642  0.0833338016603240  0.4158929983741331
  0.8270422843683779  0.0826226265514110  0.4155010837175108
  0.5783348941976419  0.0828706403125782  0.5000356313333185
  0.4976434194334454  0.2508495849568540  0.9160543453003652
  0.5804218006105706  0.8336176155236993  0.2509512692224133
  0.5771900089984313  0.6655538900076746  0.2511468031584156
  0.9116364881146369  0.0000130164523774  0.2508218414889755
  0.7442808932770438  0.9160945235500566  0.6687553607105483
  0.5776054550362875  0.0837668830821514  0.6670188890658172
  0.8281368364944592  0.7471273985337424  0.9161242707843599
  0.8275434600758328  0.0007614830509360  0.4998065698452135
  0.6628452930769516  0.7494637588971585  0.2515046282508502
  0.8276287582438793  0.8331338330484456  0.3335087730838089
  0.7443112539212595  0.6678264262312875  0.4182895384572479
  0.5785256991544813  0.0843642597750072  0.1670438269125072
  0.8291326901541473  0.5008617299252582  0.8326902434555910
  0.2440178424991850  0.3323155241567100  0.4181294656386071
  0.8285357449992488  0.1669732729750142  0.4995846253806822
  0.8283366200540282  0.7489223186670663  0.7499966383709689
  0.6601095665193358  0.8336473982066407  0.0001196165247854
  0.8288139203836531  0.6648901274159764  0.8328697820777236
  0.7440493840159297  0.1676594018793025  0.5834717992208478
  0.5768161354900974  0.9142706009835176  0.0006405676771279
  0.5778842319600497  0.0825358462401858  0.9997383858631053
  0.5790281381079035  0.5838361972717802  0.6661346236540270
  0.7454499541064706  0.5841870359395199  0.6655795482223349
  0.9948426430960032  0.6658270628268141  0.8332229812994842
  0.3316873539935963  0.0792177229527859  0.4172711026683114
  0.1632542116174724  0.9964648692775870  0.6618245791103443
  0.1606330916816692  0.5020453449491780  0.0003181322870426
  0.8282169140651549  0.1674920336240468  0.8331042427915101
  0.3303593473637478  0.1669522450438009  0.8332710079808772
  0.0784783604415178  0.0845149000724245  0.8378520636435611
  0.9116664744129029  0.6668495269141567  0.5829298497543181
  0.0789307419184078  0.0000965072079641  0.9176212868893843
  0.0790438873287261  0.2504558730741906  0.0027417066317914
  0.5769949438743252  0.1661499276889118  0.0838244240966743
  0.8283529546248859  0.9169869213404922  0.7469444792005521
  0.0769381319049590  0.0826173864149925  0.1680878279645601
  0.2470334413202178  0.0000140393435293  0.9165983616865423
  0.9133574767433301  0.2521964986234513  0.4959921177925386
  0.0793291860231622  0.9989750387774365  0.2492633343051616
  0.9943203634676481  0.4999857140281225  0.4983005579559957
  0.4961518576990416  0.7489515460845956  0.7510980271454250
  0.1630985732688523  0.3360522761150209  0.1695653491125333
  0.9111079140304534  0.3331210229927664  0.9179955781168758
  0.9958937306784714  0.6656666343384373  0.1681334359840085
  0.0771248034148026  0.2513480422038313  0.4996357674339428
  0.9112627108109392  0.4991487186259995  0.2529293502326607
  0.2441375678382126  0.3321579640964905  0.2488971872184539
  0.0772252278557214  0.3335854260398723  0.7533260211626055
  0.0798526010908514  0.5820669925445761  0.0009964438719477
  0.0746914393939860  0.0853881743375225  0.6607753270511064
  0.7461642292451918  0.0838040431387591  0.4987543951699314
  0.0791169418131179  0.9169037530664715  0.4974260669543292
  0.9943031216127682  0.2510938910603344  0.4165827356920285
  0.0776036446767463  0.1654176854855199  0.0836824067807799
  0.5787645808348386  0.6634828476810732  0.5844417550562387
  0.5805125652398708  0.3337537390173326  0.9152988189965258
  0.3307585895319696  0.4179477633254914  0.9173216626004606
  0.0765927943173502  0.8349911196435513  0.0855033443715756
  0.0777995416823229  0.4995201544241786  0.0833959194356176
  0.4132027986817495  0.2522404671767299  0.4988928482913075
  0.9106613108032088  0.9160911601182180  0.1664564881953913
  0.7422020116830662  0.6661376420877154  0.0789820071529053
  0.1602770831506128  0.9153996133728431  0.4185961769627908
  0.1623213754171585  0.2511908563362653  0.4166720876395113
  0.1631154804884699  0.6691646764932959  0.1681450115516844
  0.9935012467718526  0.3310868482732870  0.1687423522048558
  0.9944243694465864  0.6652386312985108  0.3354534797584145
  0.0781624618249616  0.5031597377867196  0.7492539705259547
  0.0768865232807711  0.8324354638590116  0.4133312386905684
  0.2469331491418919  0.1657957898352418  0.5783399283635893
  0.0779059019624616  0.6657952863781652  0.5832524614960961
  0.1620060398898800  0.4189397361209177  0.5831808876446780
  0.0792496202287592  0.0831039162193798  0.3339106406325716
  0.1607307377642916  0.1663469288785432  0.8345387621192983
  0.9947848855911490  0.4179717723285604  0.0826841227473857
  0.0789700578265784  0.9158226266208476  0.3345493689579792
  0.0756061882419616  0.1664757534163035  0.5815448138555338
  0.1622169028900584  0.5009819645260986  0.4986476975745786
  0.9078886900119955  0.0021799077965858  0.7475504279116229
  0.1628603452284827  0.4997603710653700  0.6655290318684350
  0.0789560840063953  0.9181095916867440  0.6649407243259841
  0.1565563034416167  0.2492072445611024  0.0790688117438297
  0.1597190829311452  0.5824039955869158  0.7481293218194253
  0.2453240617365204  0.5005891901109130  0.2512091744252932
  0.9109091523576761  0.0824288584233861  0.1708251395079382
  0.3288640487417822  0.8331815774465404  0.3373663071172928
  0.2449955953952852  0.8337766323033183  0.1706544231794097
  0.3305617570377345  0.1659959115092979  0.2504503259949817
  0.1624755686544806  0.2489044530212583  0.1663405021709551
  0.1645576225834504  0.9145119488106270  0.8337595275527723
  0.4957872010386746  0.4154596600575807  0.0000735960407319
  0.3307526055367828  0.1690207487024320  0.4161525121845471
  0.0784037011152157  0.0851267600460409  0.7495502165784702
  0.0764653783105841  0.3333359178846398  0.6659510007369364
  0.9122367360795646  0.9126789613050870  0.9189505215667660
  0.9937190855485660  0.4199658354913860  0.1710060280193245
  0.8281016152994435  0.8349775170839792  0.9151703566009793
  0.2433825346019986  0.4183130390240863  0.9172504138873186
  0.9973923318823875  0.0005940835987260  0.7483142090328210
  0.0776979307102787  0.8292367526348892  0.5015204853156036
  0.1581358803542917  0.2495211825418613  0.6676757284165878
  0.3300242307263795  0.8309924963571603  0.2488654923415348
  0.2418640919070868  0.2481752617275990  0.9152568238986800
  0.4131182171938223  0.0026168921839202  0.6667279168358787
  0.2476542768453145  0.0823532030671069  0.7537741164833943
  0.1607481090621926  0.3325392495608215  0.9134470014402762
  0.1586796464689484  0.5809999976986998  0.1687477479696009
  0.0820655595457274  0.8293033534834823  0.6664703052684909
  0.2478279181401318  0.1655195558660129  0.1680378464288126
  0.1570840626789354  0.4172930526500429  0.8335343353908257
  0.9911307173958492  0.9189650788549572  0.8333913188319658
  0.4132750832216943  0.6656558688303870  0.1672162776242326
  0.8296683000180906  0.9168883058353087  0.8346443441058893
  0.1614676429289694  0.0834846394030214  0.6662989774088530
  0.3304005956132409  0.4144575296010364  0.6680572473017277
  0.1640258413246499  0.9990025951085720  0.7528082476990032
  0.9130356708368563  0.6705844692633239  0.0010384731117129
  0.8287133521373764  0.5828034174299003  0.1677592930908725
  0.7492931014106700  0.3337764966186453  0.1676795308367732
  0.8233827885116771  0.3302477513701740  0.9157692887368756
  0.7460684184200334  0.6667223839831828  0.1671303320878657
  0.3258803787184833  0.5013627917871308  0.7519111027508822
  0.3326498374254929  0.6665667128377550  0.0835299380256913
  0.3294357973703047  0.5862628692190162  0.0030482287496490
  0.9982893969573944  0.3304374172373915  0.9154218346305030
  0.4938309398520361  0.5013369711611365  0.9130948751952189
  0.3302695609921931  0.2498429804748807  0.3328632169450277
  0.8286648964931655  0.3294940497383401  0.0845755006968917
  0.4138595777561695  0.0832429166283200  0.0830073273973352
  0.5802191357761650  0.7500261283899514  0.5836339878535638
  0.1650909059287278  0.0841532064312956  0.1664670798857956
  0.5799670870858592  0.5795659051214499  0.0829833432586514
  0.9113475639605119  0.0811113571797537  0.0815155442939814
  0.3283935618796990  0.5861081740495351  0.6674309672766710
  0.2460799557286818  0.1670248936813761  0.6661622245418934
  0.8328296348002030  0.6657440695946186  0.0851222525604067
  0.2443654035380684  0.2493702626560727  0.0837169339174395
  0.0734733117731639  0.2506398185471728  0.2512809816712948
  0.5800564107078768  0.5822488959542399  0.3353923385132703
  0.7455707267299351  0.5002121947357148  0.5834049068950602
  0.6625564372452371  0.4993193554476708  0.3341008737905026
  0.9950043687989868  0.5003437155824313  0.0001026830901168
  0.7431267426062155  0.5819775110649411  0.1680049785312089
  0.9952792648733846  0.9992146695389451  0.1678832900383843
  0.0778844631237943  0.5015930231666839  0.9172223612225014
  0.8290971331301146  0.5004019613942716  0.6658451894501413
  0.5791187077943465  0.4174912770874940  0.5010653810865675
  0.1612060170267525  0.2494981562632878  0.7510315562489952
  0.1613689394108113  0.5023624167236828  0.8329385528686476
  0.9116555402082632  0.3352434654370982  0.5824143333025167
  0.7444671081061708  0.5828497343098888  0.3341837067886776
  0.7446713534287537  0.4994639818855729  0.4173756312009253
  0.6619516931578774  0.3339210555958534  0.5008945528794395
  0.7451478971558416  0.5009873497524068  0.9159206447274563
  0.8272677868304301  0.0000185188336431  0.1677066897636539
  0.7444277972255390  0.3329878052206129  0.2518147969298465
  0.6617880168388633  0.7501273069491844  0.9157423999413213
  0.6615375193346420  0.6650841411737985  0.5014176929459108
  0.6622498588610213  0.5832084225157312  0.7496410412243943
  0.5795355730096569  0.9160658682051593  0.1663030562928469
  0.7455210461713194  0.6662901406309112  0.7499010975289115
  0.7454073407716992  0.9160153583279375  0.3324211007982018
  0.6627168358448456  0.6657563389060274  0.6664413801677856
  0.9130759824911859  0.6666499571290775  0.2519108779827938
  0.6630418737289889  0.4998615315289778  0.8315581924152019
  0.9107485457053693  0.1669941807631788  0.7503144577432701
  0.5787567479136139  0.7499188332756588  0.6679064347605170
  0.9152740364798936  0.6663483034121772  0.0849904191132328
  0.6609794427464661  0.6666770652021971  0.1677397219759759
  0.7446010164214900  0.0844334701041460  0.8335712850555586
  0.8288792857293661  0.7513179422048913  0.0837975865780821
  0.7438740280270294  0.3334392135286934  0.0828734208802841
  0.7447488964640647  0.9170142277611786  0.0004102031151719
  0.5796109180332371  0.5828631486370731  0.1680173701753400
  0.5783416457144562  0.8332778071139177  0.9158816335530078
  0.7444490187182096  0.3332668192897592  0.4170558657228947
  0.6633657975010003  0.4170561382931806  0.7484679469408553
  0.9962859715693891  0.5827828135200537  0.0841710464840148
  0.8268750885731267  0.9184777711644860  0.9191207828544271
  0.8269012706502566  0.0845464244274951  0.7500751273994238
  0.6620107969585077  0.0005703068666823  0.8333582373167698
  0.0756100727699628  0.4182514628171871  0.8323403663929499
  0.6618238562272604  0.6662609060906313  0.3340219553907908
  0.7450394683222510  0.0004820769978120  0.7497364711280230
  0.4962962233067638  0.8327604691405895  0.6673267878444309
  0.4124630827473307  0.4164481242104858  0.3339703370801130
  0.5789791604408047  0.9992446493992728  0.0829727720755302
  0.7445393471029896  0.0829930733393080  0.1668802229041360
  0.7451739971201466  0.7498187558656266  0.3343657262470991
  0.8286382405100784  0.5821881749361406  0.0822456094580206
  0.8278262953633558  0.5824356505519293  0.2529647866555065
  0.6625873010949974  0.8332593731716249  0.3342481029618672
  0.6617499578440692  0.3331734084950665  0.0005444331684746
  0.7439473438680297  0.0840112876140841  0.3332768407748076
  0.0779711910516421  0.5844574286450820  0.8331101640803157
  0.3302496999046619  0.1664141412258526  0.9996367234975275
  0.9939242877550698  0.4174364922753658  0.7496707010188493
  0.5793340552521717  0.7494516171156105  0.8325481396987587
  0.6623048906912428  0.7504205117292893  0.0834990286379591
  0.7456801687516347  0.8339626019632762  0.5835914184182486
  0.5790985825127052  0.8327802150095615  0.7501586776424108
  0.6626402509311969  0.5831387487534775  0.4179122465069149
  0.8287511683562014  0.5833308613108901  0.5831256028785737
  0.9109560979175415  0.0846451677462087  0.8330378680142408
  0.6619659321465939  0.8329804368727844  0.1674052403331654
  0.7447798007653118  0.7504032564323674  0.9997474106382015
  0.8282498934877092  0.6666859898721027  0.1686992923049968
  0.5783161698419607  0.6676210472203727  0.9160188759263913
  0.7453748298379742  0.5839504600500875  0.8328948153578274
  0.9936576531922444  0.3338208672415732  0.8313889886026232
  0.8273525308967744  0.4170641911422553  0.4165870077061631
  0.9111657884544231  0.2503270185823610  0.8335205589070750
  0.7453647129299042  0.3329486418441582  0.5830525031326111
  0.6613867100397248  0.9999727282284343  0.3328819137898011
  0.7444296588582925  0.9993281753683372  0.4154935800576732
  0.9120006902098923  0.7498122870042778  0.1686849571498126
  0.8274704359540481  0.9170822515641269  0.0837810598878643
  0.9106608100410729  0.9997973523424520  0.5829689450464486
  0.9111575522321114  0.7495981417216345  0.6661158604209174
  0.7445458380092513  0.0011732632188348  0.5837965113453386
  0.8281742183131304  0.3335729831702420  0.4994098175865019
  0.0785573436469484  0.6664553329059556  0.7494457155280981
  0.0792870612934873  0.5838094675446213  0.4997164018755910
  0.9932192715264743  0.3341504251408416  0.6663502683342605
  0.0788685820771591  0.4178189616927405  0.3340767868684268
  0.1630026708028726  0.4175395260796210  0.4168520933421876
  0.6613667840619742  0.1663208100670111  0.1665628678575969
  0.7451499275394684  0.4171658021583744  0.5006065118470261
  0.6624787959392695  0.0004132249246425  0.5004507875564961
  0.0788743725795466  0.4168208612710387  0.1690379018409401
  0.6620675708374930  0.4165360630355607  0.4168354273822543
  0.6616142988029188  0.2500188761455497  0.4173653770339218
  0.7447970036472954  0.4178129751221318  0.1671015373861275
  0.9108326445386029  0.0835069752240345  0.3333454383807754
  0.6623630901746622  0.4998776650633796  0.0003011455388428
  0.9949785208388661  0.3338056242761965  0.3342556168847421
  0.6612568187309863  0.4160495774402063  0.2503600928256568
  0.9952712423429368  0.0824307309019708  0.2507422699094768
  0.5786930308957761  0.1670286390431938  0.4176151434688118
  0.8280180644283570  0.3343429023475918  0.8313408194472869
  0.6620014826325056  0.0011045379061368  0.6668155567670226
  0.4956845333445378  0.4160007486228087  0.0850736315544355
  0.2461090811534450  0.5843376148697569  0.4993299488226853
  0.7446208724246376  0.5830219289267680  0.9990416083655548
  0.7422596319049644  0.3327995211305247  0.9169939990195658
  0.6614803413938272  0.3333108938970603  0.3334363847741218
  0.9947553185815854  0.5014139915956806  0.1683462198481837
  0.9953962107088361  0.5835310177018470  0.2522841029702624
  0.6622494581877887  0.2496383157061736  0.7495604126091368
  0.9955440844555761  0.0824713399481014  0.0844786885450082
  0.8275554141988937  0.2476989281361171  0.9171080150776169
  0.9114196035739094  0.5006028383853329  0.5826321152382956
  0.9977967852916958  0.6652663847832490  0.0002456882247081
  0.9946791054466988  0.4173846507940481  0.4162214329132767
  0.7439168725002797  0.1668129438374607  0.2507753296540067
  0.7448018662176750  0.4171094196803255  0.0004230127944808
  0.8281902164560550  0.1660934555348263  0.1679995394831987
  0.6630434321653543  0.5838217983826539  0.0828448376401586
  0.5775490544792169  0.1679167703054732  0.7484206018458531
  0.5781714589564946  0.8313881845643846  0.0845410096143165
  0.6610214774180889  0.0829237275363028  0.0832580472411545
  0.8283821838138783  0.7499930998236032  0.2513689563140987
  0.7447351729296524  0.2482350800677271  0.1677681056073882
  0.0782352295269868  0.1648700248909628  0.2517551484326322
  0.6615674054888039  0.1652502649320947  0.0006308450923449
  0.8279363732203980  0.6665895575239694  0.9986208355270545
  0.8274592647929960  0.3336193051710704  0.3335906945519545
  0.9940715270397645  0.2499028074793403  0.7501705068322999
  0.8292020200123476  0.5840793779210435  0.7490668831146586
  0.9114105407575411  0.5000641188541375  0.9171600120966128
  0.2461932271712994  0.7498689330523698  0.5002406566442863
  0.8287066505258543  0.5832643147743511  0.9161504777087284
  0.9963439067971807  0.7489255480735519  0.9165908207061029
  0.9115476571299983  0.5015345771537034  0.7492236092603133
  0.8273599958050577  0.6663033664195317  0.3351813774872346
  0.9116482513001345  0.8321004249286407  0.7494381678520565
  0.7448928948201373  0.4988286950265684  0.0832866074706031
  0.9947906961160360  0.5008757959476458  0.6660068073241989
  0.9116396605559587  0.5831869577433738  0.4994816905157235
  0.9114164856389358  0.4174619334114537  0.8330426983452076
  0.7463622133330403  0.5013671693228612  0.7487043305790249
  0.9139402860116349  0.5830438283295972  0.1690082077344262
  0.8281089604135476  0.6643227094806350  0.4996995025458999
  0.8279697916053335  0.4993972201962210  0.9998439489011897
  0.1605790327473549  0.4178079691686982  0.7486736840079994
  0.9105420859072821  0.4172130827721314  0.1681872087863528
  0.9949289205968698  0.5831201752654261  0.9169527875996567
  0.9112290373808585  0.4173808245431793  0.9999462542759776
  0.9108356617274095  0.8331152327020854  0.4167105956962796
  0.9946835298800413  0.0001287251840181  0.6638961085322784
  0.0753744899312022  0.2494669566609262  0.6651017168396560
  0.7446249134050977  0.8322416933486193  0.7500202599741943
  0.9956291599125582  0.9994965373404925  0.3335565834660328
  0.0780951743986008  0.6666342279804724  0.4169648161843896
  0.8277757695591395  0.8332071142939705  0.6668472543841822
  0.0776171990965285  0.1676860169619139  0.7501374709690786
  0.9107301766428573  0.9163198227256821  0.6667141594675148
  0.1612691858713532  0.0833904050246424  0.5801081340611783
  0.9110621831748172  0.9153349020494417  0.3325198388927280
  0.8287100670357163  0.0853275529070821  0.9161826748258295
  0.0775014513448722  0.4190997843627240  0.6662858758285038
  0.9110523441620121  0.2516653116300781  0.6674156058731370
  0.9114644198190568  0.5827672748455447  0.3341245231712494
  0.4130711661936474  0.1671327436096482  0.0828598915921959
  0.9955491425605956  0.2498385753849983  0.0842047804470046
  0.8276568512336360  0.2501396992079316  0.4157818924849150
  0.9109461893471900  0.9167099377774716  0.8320903720372358
  0.1620508835713035  0.9160532970946829  0.0828931730261592
  0.9126136272220982  0.7520045086240786  0.0004576482086680
  0.8283738385538968  0.9164274636802491  0.2499955643425502
  0.0772295269474549  0.9996901554070576  0.5816501581590876
  0.9960414774445472  0.9170251392859374  0.9188012146511686
  0.0776341213812188  0.8334202175673979  0.5836302743168714
  0.7448703070992131  0.5830984762988749  0.5004657773686539