Cr H  Ni
 1.0000000000000000
    21.0602837004505830    0.0000000000000000    0.0000000000000000
     0.0000000000000000   21.0602837004505830    0.0000000000000000
     0.0000000000000000    0.0000000000000000   21.0602837004505830
 Cr  H   Ni 
 259  52 605
Direct
 -0.0017212309414467  0.1682892138560082  0.1708972912384879
  0.7470314046835052  0.5882968691138325  0.3346457271775361
  0.8305735603678920  0.1680558620140667  0.5024368039049283
  0.6652154696895792  0.7524402738721511  0.5836997550125174
  0.7467888906462506  0.7513587261633901  0.1680496143280182
  0.4947809076258562  0.4170897184417655  0.0862766558108579
  0.5793352772341618  0.3333443649746323  0.7511822074863193
  0.6598987650173659  0.5875461528197048  0.9179782311737626
  0.7443802789397359  0.4190920521825151  0.8348468884436632
  0.8306318799551728  0.1684012645318279  0.6627208134536959
  0.8310516075550938  0.5024385554100328  0.6645995310227186
  0.7457044706996233  0.4140423229072731  0.3358716293048010
  0.4142049591427053  0.6684542473410414  0.5836315305723376
  0.8316501443472825  0.3344721421992359  0.1708079314580229
  0.8343160616514295  0.3350122235742093  0.0035881126427503
  0.4966525803103891  0.4993077904425943  0.6692722777045095
  0.4922404978790799  0.3339237273089002  0.1668476472958178
  0.7472497331751660  0.2465688679812293  0.6637104262700964
  0.5812468585314635  0.7528509634165298  0.8349797253561849
  0.6630059064336092  0.4173670383883875  0.5835718436871093
  0.5818823587102169  0.4976033569232879  0.7503002682508610
  0.7446174516139406  0.2533796452691940  0.0065691592775345
  0.4968632043157317  0.8364391001449292  0.6688827958522251
  0.6636660875384933  0.0013575309725926  0.8351979341599519
  0.4958093336342869  0.4167497162828163  0.4166625200411873
  0.4966518662362143  0.4167879350212011  0.9185215014949659
  0.5824366111004491  0.6689898283242491  0.4186530134941035
  0.3296714533135939  0.5837239169541718  0.5853574628838489
  0.8304036682691449  0.8364109606294430  0.0014366545132565
  0.5797810284625393  0.6690995719911975  0.2531788986507830
  0.4930808166888396  0.6687653964800486  0.6638838152159064
  0.8318206832880272  0.6689301626231789  0.8342601690114707
  0.4960541562831004  0.6682657498544300  0.5050536349413859
  0.7472392185810418  0.0838261355579057  0.3358650396863356
  0.6645543725840756  0.3341379019991600  0.1709815690483044
  0.9144153259693446 -0.0013300884267481  0.2513851384682066
  0.4976805239816379  0.8364391619412107  0.5014259629490470
  0.6625039998720880  0.9190665844213675  0.5855304244189137
  0.5801279457850268  0.6707215559385014  0.9182670412101407
  0.7469441929583348  0.9198804046082215  0.5016791807300901
  0.9148785131732445  0.3315883131672357  0.7515176713740509
 -0.0034023573151536  0.7517205399269864  0.4207663836657223
  0.9147124229434903  0.6689180429258632  0.7512225569391754
  0.7403885971400733  0.4214376572400554 -0.0002142786442896
  0.7461215838784740  0.7525068931083776  0.3352450784838012
  0.9171734301160760  0.5004421929559008  0.7511008379001041
  0.6646385891131616  0.5838742389178430  0.5867680124602390
  0.4124033353750395  0.0017811479340103  0.7525767315039307
  0.9149568031932838  0.5829227120570789  0.3352524978913904
  0.8306932492028386  0.5032364700878471  0.1691672199075835
  0.5808868734048099  0.9203591115616933  0.6676531593352510
  0.9142386166066090  0.6697125431833638  0.9196185877835724
  0.8306501768461121  0.5848790889117500  0.0864732649735043
  0.1623869128264869  0.0046513259219540  0.3357622721797292
  0.6630452254374454  0.5872247456719984  0.0870926702011522
  0.4985038389094970  0.6681191145597365  0.3312509356950861
  0.7460700709691792  0.0796295901785223  0.0046158650673066
  0.7463380168160283  0.7528236874231068  0.5029041324737815
  0.5801159406712316  0.0858980167681019 -0.0001037381035611
  0.8315172222607726  0.1669010371425664  0.1705237188835474
  0.8306882522453556 -0.0022421428944756  0.8346847811292082
  0.6610547362925893  0.3349933088984032  0.0009373206718916
  0.4112817219824600  0.0012129320840453  0.4174790141112621
  0.7474593056883662  0.0013261493646401  0.0840399613301890
  0.0820377624847882  0.5011816936260767  0.7503434690095309
  0.2467841473915878  0.3355004654451219  0.4168924486872034
  0.1642763680004085  0.0013559925229720  0.5029956959812978
  0.0000306136795138  0.1678970143064340  0.6666810441718992
  0.2446593118054069  0.0837115372533187  0.0004372593086573
 -0.0006906959951321  0.1667125278555849  0.4997892242589568
  0.1631549499780947  0.0000276100503647  0.0011627543599580
  0.2470600153328121  0.2493075932007437  0.0002117239596557
  0.3291951361512633  0.5858787558814013  0.4195296731305713
  0.7469262031470468  0.0020799598997173  0.4171214182673653
  0.0819751792761352  0.3350761453544271  0.2520057817705552
  0.2482996415843611  0.0842383111542639  0.6698154218439595
 -0.0034050194904574  0.9186992801463731  0.4188930284673223
  0.1675048334186559  0.2516922505397640  0.9181874953962330
 -0.0033116535131295  0.6697529042101776  0.1670916261277688
  0.9139789649891310  0.8361105578653072  0.2510437826650661
  0.0786849285979493  0.3348244153378556  0.0850483251521616
  0.9148917217972526  0.7507918735380057  0.1672522706628410
  0.0808279939319625  0.1649150716666693  0.9187989249708123
  0.1633620683550856  0.3351563799055174  0.3342968284239823
  0.9170118938944410  0.6676772116076811  0.4209047335587209
 -0.0012076442634011  0.6697568886642631  0.6689883758345040
  0.1633908208663874  0.5038021011162943  0.3349036753195060
  0.2476013109928785  0.1658567835481056  0.7502010850739472
  0.9142051280171695  0.3354904888874506  0.4184559285647154
  0.1614147017692661  0.1674121886489525  0.3357165737454752
  0.9135493017621357  0.0017476257294670  0.4179962021996498
  0.4126551695815135  0.3343344485834031  0.7508964395121145
 -0.0014018499867103  0.2504981850156145  0.5833553215669249
  0.0793967240908208  0.7535721965689141  0.5029825297455346
  0.1657481754032487  0.2511121840934872  0.5836707020512288
  0.0835873161381642  0.5840615867703456  0.5039239624847887
  0.0836629120934304  0.3357679445153630  0.9201857413818079
  0.1620043835047727  0.6681935039057942  0.6684302355313393
  0.3295007048853347  0.4169557615019495  0.4172729336265455
  0.2478452872956124  0.5850393734327136  0.8339507359410778
  0.0820594832919437  0.1667880384659953  0.4186308735471113
  0.2477980642201893  0.4176234460983564  0.5001194094237199
  0.0800289507310253  0.0839094684554682  0.3356438945974941
  0.0817641565265687  0.8333895463357646  0.0827299604686090
  0.0807176250390113  0.0845245450773078  0.5005872770130823
  0.9166212431316437  0.5010104916357341  0.9196535673447193
  0.3300444578480386  0.0847278478115169  0.7530016310527943
 -0.0042665747397728  0.9153936451423992  0.9183846364546323
 -0.0014565082573238  0.5021515821912242  0.1648417531699408
 -0.0027883022814564  0.0002981581908886  0.8316387695025866
  0.0845412301043382  0.3320056096119803  0.7507059104096948
  0.1671470708571013 -0.0004736845632549  0.1668442739260855
 -0.0029759654968741  0.7509990729341783  0.7496391168714536
 -0.0045634613060147  0.7490564398050743  0.9188839963876236
  0.0824018717226233  0.3353868096308213  0.4177952688713146
  0.1639898747972727 -0.0004986569492884  0.8355963351340283
 -0.0033889365058851  0.6681907454722730 -0.0006082094709575
  0.9176012664195892  0.2518416727614914  0.8324296134212689
  0.1626667479488598  0.7524649613680711  0.0825409535446509
  0.3319911007340445  0.9176231274683194  0.0850938786262511
  0.7486491202087442  0.7483240513587898  0.6667802912606635
  0.0801964673544096  0.8331974594162584  0.2515071965538723
  0.7473482369380127  0.5833070762537493  0.6639215004988251
  0.8337064692873835  0.2511208066851687  0.5829160054649236
  0.9145754422178340  0.6681017947008081  0.5851516258015460
  0.2513984274751417  0.4204597315907435  0.0029909703773455
  0.0804277384709998  0.9169160287846514  0.6680751049852155
  0.0805677516716515  0.8370532179783521  0.5832628445086898
  0.6632298290241773  0.9166269562874089  0.9173894425187934
 -0.0025917226804200  0.5021562203210430  0.6726605848281476
  0.9149190919187554  0.9161535734936778  0.0012532849426108
  0.1626340753778155  0.7559120369952113  0.2516879708537441
  0.2477083934067587  0.6695780466902697  0.0842227388526343
  0.3333039020218921  0.0015354487262368  0.3369467396549432
  0.1654225950259126  0.5844573910790570  0.5857891644955525
  0.4964822970176156  0.9183390148430574  0.0885294762728903
  0.1645915800179976  0.5012214282154142  0.5029871819495074
  0.2490162668528773  0.4189233668412775  0.1693027998969166
  0.5781442992078525  0.2495697338332618  0.8343429508139271
  0.6634398290850659  0.9172944858335494  0.0855700959818787
  0.5789780466740531  0.2519117897576204  0.6694969314719363
  0.5808875760240938  0.0009580445016577  0.2516039827734763
  0.5781649924061839  0.2495646556064275  0.5006783832310170
  0.4957584116495640  0.0828249859654890  0.5851196536426081
  0.4139658921362410  0.3342111336589588  0.5842501440787122
  0.5812681516689036  0.1704504764436221  0.0837708476456172
  0.5818524756958555  0.1684405229133742  0.2515182631073436
  0.1632980255357749  0.9189761806144703  0.9173850917170882
  0.6632866456671611  0.0844138135229180  0.7534966030145932
  0.5818444659413156  0.0019371067628011  0.4191792537301037
  0.5840757282457099  0.6724943362282199  0.7534988572486673
  0.6650006647324930  0.0845863708099860  0.4168861836390657
  0.5789336154522975  0.1702114163103491  0.4196432646194824
  0.2472307242569448  0.8369585388339454  0.5836973863126446
  0.4953393345459800  0.1670190625675517  0.6684644905089430
  0.4982557421770268  0.7508865914426097  0.9169694743253576
  0.2479133225860984  0.4165851210276799  0.6683361489985418
  0.1645726809340018  0.2516176934256832  0.7518510513359825
  0.1619786635383496  0.8290704997274789  0.3350995690599824
  0.1624651946006634  0.6679407127553132  0.3376190532742065
  0.1638159108906111  0.8343762120678565 -0.0003504972463998
  0.0821418771928230  0.6692225862887764  0.7514436961150102
  0.5811340222335281  0.1682238410386990  0.9184154101409492
  0.1625534106864507  0.7520030322538261  0.7529366956862775
  0.2482562186480989  0.7536510896817307  0.5015443734788617
  0.3305458567524401  0.8367026010639173  0.3350507673399488
  0.4137922385339520  0.6686999711096401  0.9153496091154731
  0.4990245846462841  0.8347660523559428  0.3380172325022834
  0.3302735337340713  0.5840445343038023  0.7510876698129491
  0.3307632520990565  0.9180196980790205  0.9180734265275420
  0.3304970474770451  0.8351980338805653  0.1666955496113195
  0.4999155494145560  0.9163527841150646  0.9148134327840576
  0.4970159989276528  0.5860201567878131  0.0875843067747653
  0.2477048817542287  0.5833697962128680  0.6682616079808933
  0.5810997583962538  0.6687625863521712  0.0861412871752990
  0.3311384985882023  0.7528204924774353  0.2495735313891967
  0.4130815373406797 -0.0000243310834619  0.2534122897072180
  0.4128495382905030  0.8354461413039449  0.7523573803531367
  0.4973029270101621  0.3323952903410602  0.6684583041395431
  0.4964413589095149  0.5009027383044657  0.3363542734515107
  0.4966459351105909  0.4989350854821851  0.4951037492296493
  0.6620517665409488  0.0834725846192040  0.5843691442420342
  0.3315419891660801  0.8343701125451471  0.0006853465486697
  0.5806229237095764  0.4187062285505151  0.0021022878589510
  0.5822344675874005  0.8336982152473710  0.9183976146047842
  0.4130708102387167  0.7515505386972570  0.8349722604951393
  0.7469463565085934  0.2512066026894989  0.8297753171297330
  0.4127430321056856  0.0009861984117615  0.5841409293190899
  0.5807538963692115  0.5006299121162177  0.2517614116680407
  0.3303386408019057  0.9175852571002100  0.5843818091422904
  0.5803898975540753  0.3347353024908567  0.2539230442751834
  0.2474957361091429  0.9164197380106175  0.1683401935122322
  0.4947426158859780  0.5870659724019018  0.9166926385052772
  0.2468590763309011  0.8345455044750669  0.7528262309119441
  0.0816317336587102  0.5860235983574671  0.3351055203686431
  0.4129321817192147  0.5851831710000464  0.8360298970153275
  0.2479455797684108  0.5849506301598175  0.5021345544818724
  0.9151409608462279  0.4169329720861222  0.3367659427906620
  0.7480192741047361  0.2486640264278121  0.5041724590421270
  0.8309488474309801  0.9169861004736793  0.9181829521862600
  0.9172613776938024  0.4212081171120439  0.0021840185447585
 -0.0023580952066853  0.2508528861503082  0.2523785213418384
  0.7444176628635999  0.9191046350994165  0.1631785266148329
  0.9145141638476560  0.0839321084553437  0.3349313357564633
  0.7466162532273360  0.9229355585087353  0.6673699355107217
  0.8309323477391507  0.8354627925028566  0.5021098959423786
  0.0833155669476639  0.5016334725594811  0.9189842029308659
  0.6636462070585900  0.0854035223785176  0.2527744754117841
  0.7495010930546661  0.7513468538506755  0.8351865667401260
  0.1643980560353889  0.7506401889272407  0.9186018956123183
  0.9117443527100220  0.0833519509283264  0.0036316184762818
  0.9149504961463641  0.9163618441325803  0.1693490260117756
  0.3309426152988872  0.3340373665420596  0.8345000973144379
  0.0807529711574837  0.0843267161469688  0.6683601470887893
  0.9157722866455316  0.4161958897170036  0.5009735420546277
  0.3305754287664029  0.4186080464500835  0.2510602755831706
  0.5822819511815914  0.9163951285724442 -0.0006851576262339
  0.9181458485449662  0.2524132916544571  0.0035595688518301
  0.4124034375231183  0.1661190589803163  0.7512742929492565
  0.8307651782023423  0.5006906999176184  0.5007016847699374
 -0.0015307640211818  0.1683442911079470  0.8346009933503175
  0.3301205290718393  0.4176243499314901  0.0853475658417203
  0.9148397450738549  0.0016474013251626  0.5853165409309127
  0.8322630995586712  0.0813999688051087  0.7494485436971161
  0.4149952022527479 -0.0013050919669254  0.0851901160256236
 -0.0029632384345173  0.9177188493435409  0.2511957889860899
  0.0817607382136702  0.1673983755828077  0.2516060324345559
  0.4144640010458860  0.5864768491758079  0.1680864166787022
  0.4127832790548521  0.4174242478399544  0.3340697696487099
  0.6665607806821436  0.0845141019792430  0.0859548600420522
  0.7477364630985969  0.2506023189962102  0.3353554468858933
  0.3311427380492233  0.3344535426546050  0.3364756174647378
  0.4149417538934859  0.4190191206793565  0.1685797269872748
  0.5793098587389247  0.2505513660868667  0.0017968397436300
  0.2470704437267763  0.0833132139122293  0.5020693395320803
  0.0810230584633253  0.2520237861465490  0.0053273392646350
  0.5798551344045543  0.9176705878314004  0.8347084499072862
  0.7440848521116582  0.1659338201197380  0.5860864068593620
  0.2480254264196211  0.2536024062531707  0.1701032501960172
  0.2441033964396111  0.0785132983648697  0.1654571611492504
  0.6618811838111353  0.5035901196037733  0.1712686028310830
  0.6651870041797915  0.4165946511636008  0.4170362991156749
  0.6618250179162928  0.4173125067413784  0.9177691816709147
  0.2453191299950294  0.1685596606216922  0.9187860883571528
  0.9129637208087310  0.8365929427006420  0.5853903373218258
  0.2485507514087150  0.4170633363023023  0.8348810144594588
  0.3314977153088342  0.5864469506597739  0.2510162964629188
  0.7460940951728844  0.9195572870489549  0.3394624649712628
  0.4140584223074594  0.2497667712961232  0.5023170929302582
  0.5802339085891505  0.0005898084113286  0.5860543761077476
  0.4945488851118991  0.0860304987438489  0.7513239202539815
  0.4134018294744944  0.1686761244956635  0.9186687515880479
  0.3298704450190423  0.5026280972351257  0.0024154024120444
  0.3312944037412937  0.0013101614656392  0.8344066600459065
  0.4977951138895401  0.2502457717857150  0.4183624579794513
  0.3316433971045636  0.1689745763872613  0.3356009799633052
  0.0810695908235753  0.5025798709064946  0.0857012231974694
  0.2474630288497419  0.2514701503444723  0.5015770931408681
  0.4137795767286371  0.1687558513564922  0.0853537684175344
  0.8266985492676906  0.6683700161484031  0.4184765589646397
  0.4952791815547903  0.6688629408930706  0.4181074459091538
  0.4965634103228936  0.0851388563272543  0.3355817644222875
  0.7473989330020160  0.5008275747363073  0.3351066296833784
  1.0019859273461076  0.0846081070590635  0.0031663535460803
 -0.0015974906844196  0.4996156389948561  0.5810171131183612
  0.5782322419646608  0.3337745487621139  0.1671732271281447
  0.4121685268967699  0.6692156647932689  0.0055893443009644
  0.5830548606588940  0.6682716108007084  0.6640809496642310
  0.3311760050909471  0.7483671988550887  0.3383501043255245
  0.7481046768259468  0.1664750788054146  0.0019829555592185
  0.4973820896088362  0.5000859696075386  0.5820258035957788
  0.9976871769947061  0.0031008982709342  0.9206261899759411
  0.7504185719619871  0.5873233169864523  0.9192173462213515
  0.1684492970832021  0.3351931230394610  0.0863864256882896
  0.7470732489644563  0.3374703785576422  0.6672220230506639
  0.9979245048007737  0.5012722872614634  0.2556760843554529
  0.1651989476748961  0.5851223750008897  0.1665026482461609
  0.7481203939747078  0.8354825811326559  0.6693051908931446
  0.8328601302054082  0.3359691358287463  0.9139511468921527
  0.8276173183877793  0.5003025006470971  0.7529755607871927
  0.0808136943514224  0.2502701678176098  0.9184324553399732
  0.1636895011323588  0.9163876053302937  0.3357111354572376
  0.7469466344729562  0.4203223158040785  0.0907885954084799
  0.8321616086105412  0.1665708948286199  0.9182384230372800
  0.8267584434429042  0.5027978756346776  0.9183786098761969
  0.7461010028047812  0.9176673000798858  0.2513531028770641
  0.8308354270275278  0.4132450174226895  0.6679509334648400
  0.9992447449006865  0.4127346080093117  0.6666013209672204
  0.7472165546676075  0.2504628559566845  0.9187847401065120
  0.1645685292773920  0.7560328374455113  0.6647685219848970
  0.8315883074003588  0.1700109044609621  0.7516798675500073
  0.4948623724532055  0.6687251768424214  0.7521227136484901
  0.5786363535270349  0.0826346925426710  0.0870377735423125
  0.2472258705634919  0.1661349172510549  0.1689488651205457
  0.4987915054986761  0.8359720982731152  0.2479089391874737
  0.3346543942946490  0.0837476260092972  0.0007451084497410
  0.4956890517441827  0.9176014022601784  0.0020285987425493
  0.2501305860856440  0.6715052682465412  0.6683300340181805
  0.3349346879420358  0.0847041234297251  0.1695963604494409
  0.7466401358886101  0.5852848600372245  0.7543011375425240
  0.4931494370556988  0.4999787214215609  0.7568086530334346
  0.6640520237106428  0.5841984756936494  0.4964798638735716
  0.2485755024472343  0.0844713356104994  0.2553211339994598
  0.0770621678668854  0.0007529065703673  0.1672602121395153
  0.8314220837265015  0.0861993709996468  0.8375515683396021
  0.5801241160695073  0.5847648258518831  0.7507514995076059
  0.1630344775064101  0.6670057979446796  0.2489023833951492
  0.8312889185542139  0.2489176968106823  0.0040129541406513
  0.8293798027831653  0.4210869532959425  0.0034890378933283
  0.7480546909994250  0.3372954197667503  0.0015201905098992
  0.9136585056074404  0.6721435868441312  0.3324724806955401
  0.0801714552895790  0.9183251772364001  0.5016272495107899
  0.2482762213835995  0.9172031768214408  0.3355174898237210
  0.1643698128385913  0.9186017764959094  0.5852547869277980
  0.0811473634311292  0.0015292930445722  0.5853783762465985
  0.3313021078059210  0.7538081354145373  0.5841227280904638
  0.1646113716909906  0.3352680257624351  0.1697076417618798
  0.0810655606453312  0.0005463581635444  0.7515225106393583
  0.1641401247038684  0.9181104901708869  0.7518372839523344
  0.2479288866698091  0.9178213482759180  0.6689812771591970
  0.3302381205888892  0.9182466437821921  0.7518838524433774
  0.2476311002667492  0.9173232229612953  0.0006423136534700
  0.2470999800061857  0.8352408809001868  0.9179851968388393
  0.1633768344847104  0.2517073071887109  0.2521564302622171
  0.2473382388583935  0.7516401076024818  0.0006153715879161
  0.1642759614723737  0.9169734978888238  0.0830030247001366
  0.2467326509074013  0.8342509482446235  0.4184879937098601
  0.1630098150492870  0.7513149535399538  0.4200710239829741
  0.2466156284417382  0.6688968772895696  0.7528745273486906
  0.1651197794133627  0.4185669117071994  0.9188344782729508
  0.4971156436194217  0.5009331798043000  0.8378676727225838
  0.4130663504687813  0.4172980921334898  0.8351026669923007
  0.2484192018653914  0.6690324194082963  0.5829464438666827
  0.0804010475765331  0.7504443255695157 -0.0003141818393075
  0.2462887811110506  0.7515912566615075  0.3353927591535047
  0.1635575385201599  0.9170961459740141  0.2514479379035718
  0.2483052259540335  0.5003500921963141  0.5853314842063521
  0.1647643459354007  0.3352328849669497  0.5010650123011757
  0.3302765538609796  0.6660250269287171  0.3348357671108574
  0.4968870134056827  0.3338693003546047  0.5012764775622431
  0.1639405556339837  0.8359052998881499  0.5018524972050851
  0.0822787774545655  0.4178334499675207  0.8346477584278159
  0.3304564833482132  0.6696222157316802  0.1686229247977848
  0.2476927415945306  0.5007760298645052  0.7517109995078517
  0.1640102764556197  0.7524791377797974  0.5821770628150753
  0.1641744752407615  0.8374007020885897  0.6678281523866185
  0.5790044795985206  0.4172549279288826  0.8355612369145747
  0.1632515904256655  0.8344439721307515  0.8359064525763815
  0.2474279712967759  0.6681461899970524  0.9176383863832587
  0.3293365562653952  0.6684795307376021  0.8341240427099694
  0.8304768536078575  0.8345590449621674  0.8346136721718834
  0.2470525268522813  0.7532983682329446  0.1677137678533864
  0.4974567898204371  0.5845536816223924  0.2518560748429133
  0.4964968172645772  0.4177945663323753  0.2522313523701840
  0.5794400007021193  0.5861993028530978  0.1696723416644159
  0.6638925740289461  0.4169423041582133  0.2526701958516758
  0.4969384516319850  0.5838803636975585  0.4179983537491553
  0.5808361413201116  0.5005067873519863  0.4173992445392020
  0.5802567581453064  0.5848419846241695  0.3348308451447344
 -0.0022252252821051  0.5843079595087133  0.9176970041663203
  0.5813462711438114  0.4997680307301919  0.5835895429402199
  0.0811607901499599  0.5853200527716980  0.0008453635315035
  0.4960362309971014  0.5845522258298927  0.5839954507358847
 -0.0004225237205577  0.3345053800662862  0.8347124243500345
  0.5798742517669635  0.5832276506373981  0.6657175446257750
  0.1636864921663426  0.8345154843547663  0.1670271187489147
  0.3305605074446732  0.9171967013770846  0.2526106628297676
  0.2473878253417503  0.8345701291088493  0.2521483459386966
  0.2483702148857388  0.6695917324219697  0.2517169958534117
  0.1639746303517123  0.6680915577925000  0.8346494198145046
  0.2474007415758444  0.5852709914899719  0.0013541396247653
  0.2485605056627999  0.3352549434253427  0.9189349402885554
  0.2479421004214267  0.3341020032104493  0.7514169320964729
  0.2479795568461489  0.2508883595073934  0.8343269990677005
  0.1649319906791007  0.5009031615066424  0.8344926971079597
  0.0827059812855318  0.5005288188826625  0.5862991311319692
  0.1647107220983999  0.5837986296635530  0.9175550804874203
  0.4975112649134372  0.6689018708694122  0.8339339446030051
  0.3302058424140443  0.5850012190356522  0.9166915151541212
  0.3305092586050192  0.5019500807120348  0.3344776599809615
  0.0810284677356649  0.4188005314384550  0.1679865195039367
  0.2487791558810540  0.7554885629176779  0.6676890867899778
  0.2467293441687931  0.1687656818187274  0.2536603735368531
  0.3299743563518542  0.2514559433236588  0.2524043967274537
  0.2467526778037279  0.7523531706904952  0.8352089334744915
  0.3315150213969182  0.5025034357802272  0.1678501390632508
  0.0807178466402998  0.0009719518260759  0.2525717683287684
  0.4137237543053429  0.3337303784078731  0.2518464678447839
  0.4138606745206774  0.2511534220975480  0.3355626880878817
  0.2467443092578701  0.2513454153649892  0.3352702214755489
  0.3305181309236625  0.3335313261238378  0.5015837921815205
  0.4160804401697251  0.0839300233417401  0.1689592871499798
  0.4135151152699553  0.3332811604220053  0.4194676220888963
  0.4109189585210663  0.5007584965303408  0.7518959355362507
  0.3299747124260728  0.5012950595173014  0.8352760385647711
  0.4138981928860995  0.5018550051531731  0.0849528363464140
  0.3301750026880509  0.4166985172373183  0.5848252616555749
  0.4129869107285065  0.3353650461173189  0.9189050969398835
  0.2483132915955233  0.5030173382214830  0.0861254519749263
  0.3301538301013833  0.3345327165297050  0.0013507307174724
  0.4137229706980542  0.4187861300503905  0.0023716957942688
  0.1639996224898448  0.0831636226475578  0.2518007961053342
  0.2474226346434938 -0.0008559444777199  0.2530170250537959
  0.3304004527417409  0.4183383570423838  0.9185006521778968
  0.1632769094488089  0.1682193115478565  0.1678801137057390
 -0.0027421457820181  0.8338513119932461  0.8348157994222838
  0.5798348570578663  0.0847641436451467  0.1704754076993823
  0.0805379842880496  0.8347331676620396  0.7521565176053143
  0.5800794850148276  0.0843264676899832  0.5011485764676036
  0.1653286593106889  0.4175098957850369  0.5851469100311545
  0.0799565656464033  0.7517253203733452  0.8354707737214024
  0.4128975078298808  0.4174917333482573  0.4998566622030550
  0.4958692216809055  0.0017415752030990  0.6687847088819373
  0.3306463929474404  0.2501989433273054  0.7509553783036136
  0.5798857782281776  0.0020589806602274  0.7518738684416967
  0.4122310975755475  0.3342436635920693  0.0837595507069888
  0.4967606262172998  0.0021406018416431  0.8351468784044814
  0.3311460373940189  0.5857989923244727  0.0852421695948325
  0.5805884130329911  0.0010111228610648  0.9179995794437973
  0.4136502863606479  0.5851455631244517  0.3347063067711560
  0.1642823109075519  0.0008847063204546  0.6682187941365126
  0.0801062401443343  0.8341053183206809  0.9182588953125688
  0.4137061991639384  0.4165288558822530  0.6679353213441396
  0.2473892053764347  0.9177936109635731  0.8353977019001195
  0.1644351704073612  0.5008488463101438  0.1677217387322255
  0.1655435091571423  0.3351766119219328  0.8353137361572486
  0.0818953092757733  0.4185615069023496  0.3348706083994585
  0.0821746303344902  0.4176513055967703  0.5010479116439497
  0.2472087023462467  0.4195412876975734  0.3338070177980129
  0.1644531254377672  0.6687779699007526  0.0005120677148616
  0.3301245194616800  0.2502818448855014  0.9187782180161793
  0.1640842176833596  0.5855276503530696  0.0828914585836657
  0.2472111316795051  0.1680552005888066  0.4188645481787150
  0.2477809271748183  0.3345237920376159  0.5837348582568921
  0.4116981132539628  0.5020750951820683  0.4176881079766852
  0.3306065757440638  0.3335379039251241  0.6680171973331768
  0.3300528640218903  0.0855125895382832  0.4184800170458057
  0.0810200041785764  0.2512113965245582  0.3353498147617559
  0.1644876015409603  0.5839202858693503  0.7512913934855817
  0.4119633065581179  0.5003191037508158  0.5833805246234031
  0.3305436707855124  0.1675412918944340  0.6671001102711611
  0.2481639872792871  0.5011514641727336  0.9177251264623205
  0.2471110007891699  0.1672834759280222  0.0834207231914077
  0.6639573820689769  0.2516680343353585  0.0869822529045832
  0.2486210101142208  0.5030223409344583  0.2516277395052690
  0.7469809454454606  0.4188793265352487  0.1717918176347843
  0.0817883627234565  0.5024224766763733  0.2513692033391012
  0.7467713145192707  0.5855147718898299  0.1690582495246030
  0.1642259403958023  0.4192726932670958  0.2515293568160708
  0.5804691266446451  0.4174038321039497  0.3353690640544862
  0.1643195062763610  0.6682148378470355  0.5024984795031889
 -0.0022836939582143  0.5021049355187723  0.3374077276366287
  0.2467997847186471  0.1666653397732726  0.5848304002794993
  0.8314418756665470  0.5840277994828759  0.4180781675572465
  0.2473931847098662 -0.0010652188836417  0.0829241287389628
  0.4134926971565880  0.0853860112567992  0.8359420601601902
  0.3302533042699102  0.4174658839283379  0.7512520341714117
  0.8301910646248043  0.4188082782059160  0.9170634493517547
  0.3302405419170163  0.2506573011796102  0.0848467972869155
  0.4137617215953420  0.5023826889050711  0.2516658101449946
  0.5789573675274999  0.3331909522898281  0.9173199628114361
  0.0800413925302458  0.8346214769420640  0.4192874231671960
  0.4968672160211406  0.8340944085527214  0.8329586568399339
  0.3305677022458289  0.6687347959175819  0.5023259602763342
 -0.0030329577777310  0.8356727844325696  0.6673129607065558
 -0.0031661995730199  0.9164982508866183  0.0855140820153501
  0.5813236853985958  0.8347672772621163  0.0845762592120335
  0.4124826735522431  0.1691677824384293  0.2524472856978822
  0.0792750288459478  0.7546453176068986  0.6664267813271743
  0.9130091047175565  0.0002660120931670  0.0858671262223902
  0.6642004617341688  0.7528807206790151  0.4185866264024665
 -0.0025078700271486  0.9190714689763436  0.5846572463505508
  0.5799381968353001  0.2495009262688273  0.1689671699833193
  0.4143765144686842  0.8362965692585659  0.5844696056083909
  0.2473757187951786  0.0014652164057305  0.4181332692030714
  0.0793873125076196  0.9176415843934050  0.3355653060309769
  0.4968628939762691  0.5020123022758444  0.1688892376322451
  0.4136575980524779  0.7535795488554980  0.6673259017366526
  0.0791636304382147  0.5863033518051607  0.1667203051528879
  0.4136419742759090  0.2509930776414842  0.6680095737824633
  0.9139805674105270  0.6685825686154281  0.2493107131622777
  0.3306006508708265  0.7529471754259334  0.7513225985650122
  0.4149189377901474  0.8342726765818589  0.9170661206729255
  0.4138288085012448  0.6689382628056804  0.0877639829094716
  0.3289469518614038  0.6677678297104995  0.0010223777217271
  0.2495875019501764  0.5865963501955218  0.1682209275321689
  0.4137217805398565  0.6686723501111614  0.2517577362200690