Cr H  Ni
 1.0000000000000000
    21.0606043706946018    0.0000000000000000    0.0000000000000000
     0.0000000000000000   21.0606043706946018    0.0000000000000000
     0.0000000000000000    0.0000000000000000   21.0606043706946018
 Cr  H   Ni 
 259  52 605
Direct
  0.9140290396693098  0.9183620396886796  0.0025214521052453
  0.3301691701768104  0.5883968955631405  0.2510544516285647
  0.4969298439653587  0.6695738552082640  0.8334072829448290
  0.2485724813725587  0.5858135902059725  0.3360786679089062
  0.5806771665800815  0.5851461731991486  0.1676088454796077
  0.3316337483124435  0.5837346961864268  0.4176926931344554
  0.2497311141572247  0.4196535840615012  0.6695840409938947
  0.4133115917232600  0.4188535225259083  0.6683785457424432
  0.3312829413154975  0.4967428296256720  0.8349395385389289
  0.3309987016485315  0.0847861061337125  0.5843015231235797
  0.4993230453418651  0.6672703425673727  0.6703986868947520
  0.4971707199752405  0.7518241899376970  0.7510565799139091
  0.3319184225914676  0.8366447126685097  0.5005756982169277
  0.5801823121606881  0.2506498574586932  0.6673895622269268
  0.2482087794741316  0.7527217803157044  0.1696215778777763
  0.6617834669778010  0.4190316962641688  0.4198147746885886
  0.6648754483837560  0.4186352895668630  0.0830784152199517
  0.4141698471838058  0.2503504436401883  0.8362007699878933
  0.4960899426911283  0.4203089564757252  0.4195966872592952
  0.4150051466667819  0.8334503123682430  0.9195277657004050
  0.3298631665616988  0.0008305909184132  0.3334940343297637
  0.4961060349934263  0.0009649758649757  0.0041766196854728
  0.3306071193171310  0.6701773827883714  0.1689634923415788
  0.7481553920626756  0.3330248708318990  0.5848800157718567
  0.2479949261058693  0.6683144255691946  0.7519454918052959
  0.4985355042145529  0.3335059658692092  0.6677740244063846
  0.4152636993308976  0.7510255472029361  0.6684818523914907
  0.3298277437153882  0.3374480639267111  0.3321293999043563
  0.3302674879505261  0.6682518969555828  0.0023928629871878
  0.4139978531557906  0.3345594702350800  0.9205335043881280
  0.4975754802167878  0.3329234531184603  0.8373536040761957
  0.3307453959371756  0.5005486948886082  0.0031050536498575
  0.5812113525234234  0.3339471799442955  0.9220325875921155
  0.0803813511046325  0.6692140398837307  0.0848168866005750
  0.0790354985430723  0.7497316284921494  0.5001325978829173
  0.2488834197240958  0.4159109360178868  0.3292822122139782
  0.1639014902186968  0.5010772974018775  0.0028915763440912
 -0.0044390318298915  0.0016162691707227  0.8343097080206073
  0.1632960251575047  0.5842822378090191  0.7517863365176338
  0.4958805492466755  0.3351292749222710  0.0029102390255886
  0.6631664799549021  0.1663936893597039  0.8372372621828361
  0.6637556614223087  0.3323799951953179  0.6676187039492901
  0.4173090390385933  0.5025148862808007  0.2504555076981671
  0.2486516017144654  0.1695141768369364  0.2534002848748590
  0.4138300011169917  0.0005620582331206  0.0868324206811146
  0.3298923838144781  0.1685889389878622  0.3326399764942214
  0.6644214798369880  0.0850946745214937  0.0863060231155348
  0.2459428285165735  0.4165339756867578  0.1695456701082049
  0.5813893384299146  0.2517071279653697  0.0026599175685065
  0.5806912494340312  0.0843632344835906  0.8359476076357963
  0.9159886496722620  0.8343709980271825  0.7515979818564823
  0.4141951251629320  0.9178039738089107  0.6647100698119717
  0.6630517607338711  0.0014134090741668  0.5006087159313874
  0.3308432742452556  0.6724029073196481  0.8353602785204013
  0.5003550578395145  0.9189321573988204  0.2515696720836618
  0.5821927621348639  0.0837366643757996  0.1671969936590415
  0.1674605536738514  0.7511258318276463  0.7539268738409554
  0.4951731342991195  0.2505427076148042  0.2479776912514133
  0.5790604624896621  0.2523791019763619  0.8366316124345798
  0.1637270937163245  0.7519991630997886  0.0853541968532184
  0.2471484945774504  0.5844816539717154 -0.0014976737921719
  0.0798220056978887  0.9161632551281433  0.8342789195818036
  0.3316178294462747  0.5007850967440305  0.6687453329174440
  0.1649806502701333  0.7553663057905005  0.9190660565687940
  0.1634851021712526  0.5835414048149062  0.5857910966484664
 -0.0042490243114178  0.3335149852249431  0.8360123692359090
  0.4982867969863796  0.1680433334505007  0.6663488576339134
  0.1630409109658518  0.8342564221525108  0.3347986161515475
  0.9153123111550958  0.3344874091413539  0.2498535015824004
  0.4114050948808207  0.1680601648086220  0.5833851715202580
  0.4977636379837123  0.0004745715044118  0.3330776150131151
  0.9120360296941645  0.8343637094309335  0.5829770332450638
  0.3300357467613311  0.0865284366983383  0.7508880398335441
  0.2486898373188464  0.6662051270965665  0.4166215047320576
  0.8331030453876875  0.9165385654061230  0.9192472236823067
  0.1633850176319919  0.0859306755242714  0.0865185367440298
  0.4145281932436501  0.8329328463489134  0.0864642292645937
  0.8325965290561299  0.0019002292769570  0.5025669997031479
  0.3279806573189115  0.3358394455978197  0.5018250102410460
 -0.0015217038649886  0.2503785678693176  0.4199202748045243
  0.9165715767487365  0.3325778921625832  0.9169299895847833
  0.1577417539972928  0.5024675091871373  0.8329128959165082
 -0.0008755462107606  0.5872867381979417  0.0842443882829491
  0.5832633865063527  0.1667330776129410  0.0862963516185117
  0.1621522336603750  0.0014243988398728  0.5030769037016094
  0.1632968684793951  0.0011428178347240  0.6669118782310172
  0.4954242071154337  0.8342391196546257  0.5010779536130707
  0.5808631710883561  0.3342121253452162  0.0799498629794282
  0.5014246062444024  0.9176733344517712  0.7510160956747077
  0.3352716680060328 -0.0017814852629497  0.0055605611052867
  0.4138154891778287  0.3359987992904561  0.0844868979662858
  0.4980649671941240  0.1655669773264601  0.3342135559366923
  0.4112255149563512  0.1658539440766716  0.4180975969527392
  0.3290556040011510  0.1698814216202412  0.5007053541720059
  0.4112898743965263  0.5001208787476153  0.5866699977740882
  0.2495484485578038  0.2511315090803680  0.8361404454742978
  0.4138556965705149  0.0855490418968887  0.1680633289320834
  0.3313354488553296  0.3315407880171830  0.8362567916506987
  0.2449546562538348  0.9138013736185235  0.8357763202585533
  0.9148169584217261  0.0040180643268078  0.5838313374383571
  0.2473644590239360  0.2522381575130270  0.5013673976030962
  0.3288977975121718  0.4147560413454857  0.2489829852202771
  0.7495207773381591  0.2518511901800859  0.1677594970438716
  0.9134921691179920  0.1668267715098943  0.0840730087187882
 -0.0032993745546412  0.4195745261270549  0.0854341087021521
  0.8304760833501639  0.9217275038160689  0.7501146600493057
  0.1631381774987452  0.5010220957766011  0.5013166593890818
 -0.0023759437824477  0.1690184779470930  0.8342595777806960
  0.6670118154086562  0.9191327535100905  0.4199357671896220
  0.2473578150983567  0.2509072854042981  0.6684864959640648
  0.8303097822116152  0.3314177002774766  0.5067688416359929
  0.7492432365811453  0.5853984741832226  0.0015373666102652
  0.3305615829375892  0.7510047089466054  0.2510341114298053
  0.0831067715140096  0.9193786363413998  0.6655509267205282
  0.2463983974985165  0.8351348044542228  0.7538859163202689
  0.0814928540397624  0.0020499217795868  0.2541496254541538
  0.7489906844362102  0.2511229415102997  0.5025612134363148
  0.4135594412911751  0.4187769553166101  0.0027959595352729
  0.4135802745291769  0.1690287116493457  0.9182501034837866
  0.6653845481157856  0.8362485651677886  0.8356836178609889
  0.8307084152133358  0.3351229753654899  0.3305853216699735
  0.0794438710400663  0.5002900977849087  0.2515892731966594
  0.9128914351707388  0.0016870704700235  0.2535804807634510
 -0.0032205758388397  0.0003427133417455 -0.0000012590876169
  0.0801079249831494  0.4184151617719826  0.0022546505626664
  0.9150774267994572  0.5036419922544934  0.9172526517027182
  0.8320904784331264  0.1698750850245018  0.5030260896947122
  0.2467948998122599  0.9172902412995135  0.1685871910762000
  0.9123932301302569  0.8363125333496819  0.9171447876265190
  0.4127054338732624  0.0835943436388934  0.4992711311759169
  0.9131370690143443  0.7509455548592040  0.5027985890046370
  0.4964628573465747  0.1687784658802300  0.8358797627642025
  0.8320437169149884  0.0857039334824199  0.0860237652952874
  0.6626354717181513  0.0045012207302540  0.6658726532975594
  0.5826536766039936  0.8349994373604256  0.7502323988684617
  0.5825912404737628  0.7556405905961592  0.8334445024586601
  0.5795631647826983  0.7524779761162781  0.3345017509844521
  0.7463619960943393  0.8359633000575083  0.5854976370993299
  0.8327890583888935  0.0011172895914887  0.3326433940123650
  0.7474406081656662  0.8336643343457326  0.0839707616557896
  0.9143207800067441  0.9169835020842320  0.1696066922438720
  0.7462680560599514  0.7529970524758661  0.8337127999773277
  0.0807748322237312  0.8327469934346708  0.0829904215657879
  0.5822445274771172  0.8341741332626788  0.0874328192039836
  0.7491706143931662  0.7511360584822306  0.0013190503733661
  0.6654331088076251  0.8367127883789141  0.6667739276034094
  0.5819392538624267  0.0031427904593062  0.4191217850711766
  0.9147093828818864  0.5853367466707603  0.5037017957820855
  0.9140914445113699  0.5842339410539658  0.8350803329270011
  0.7463660765918561  0.6676192807621439  0.5854945818356867
 -0.0028903028510200  0.7509338452868186  0.4190399440497383
  0.8322337201412181  0.8348984157010179  0.5053231387822396
  0.7468013386986943  0.8349211257600307  0.2515615895287617
  0.7477147660623880  0.6658846185673731  0.4200143447301229
 -0.0025137199209776  0.7503105325115447  0.0858452570253416
  0.5818468737051709  0.4156683476094403  0.8361687923422456
  0.5822072709669283  0.0024308074493368  0.0857681738596510
  0.6651906150590032  0.4957309661179482  0.6690188334784642
  0.0826956891669088  0.5011233342164139  0.7516975001140178
  0.4981151780328689  0.6673609677109383  0.3354298466560626
  0.5822756029516236  0.5024003130025684  0.2510582141997836
  0.5810560386569029  0.7518988691127925  0.1682388238089770
  0.3321429921038938  0.7506161710850594  0.5861856542921787
  0.7490088516062708  0.0020762468349735  0.2526010802344911
  0.6631972032618562  0.0858311303806617  0.5835411620906461
  0.4988417356173624  0.5848552496258086  0.9189978735944243
  0.6642786654717800  0.7516201056643943  0.4192185029057019
  0.4136800428381687  0.5007250152550382  0.4188020415968122
  0.6626272553725612  0.6681392035513743  0.1650367929583499
  0.5800411424382510  0.5847478239337656  0.3356554278559588
  0.5824403595368997  0.6678692580846054  0.7489191719213367
  0.5787424614358607  0.1675717054896789  0.4174416383565964
  0.6659161249383747  0.4201759098057129  0.2502737796804686
  0.5810651542787537  0.0849873417866427  0.6677481616231498
  0.7475553584317488  0.5025249906412028  0.9183879772866407
  0.5803274948583182  0.5848006341377041  0.5032383810882147
  0.8301538774741567  0.9177281992360102  0.0851498197055135
  0.4989675314639310  0.7510885991860358  0.2528701126811575
  0.8306199010863282  0.1676554762870278  0.8346565273586428
  0.8300112554393313  0.2494455903301364  0.7512519726168961
  0.7467701107500533  0.5019954309885117  0.2486292149374593
  0.6665269128362525  0.6706629867304637  0.6669159552154539
  0.6655604473681255  0.4999475106624853  0.8366368532799395
  0.4983698414791930  0.6665507887681205  0.5020638397238039
  0.8306946684198979  0.4166940630346847  0.7489078886621635
  0.4152051127193278  0.8348900528857658  0.4184440636163823
  0.8324779502920460  0.4174627968550452  0.0810552674547479
  0.5806313858238807  0.7505814147130176  0.0017648844661818
  0.6616366037645929  0.1669582099556438  0.6667862347243089
  0.4987668606554576  0.5855994787116610  0.7514247810506491
  0.8305909707046475  0.6648448192098310  0.3358790040990318
  0.6634498381436640  0.5015708809257750  0.5009269506138644
  0.5807937912997195  0.4176597081449510  0.0019002615242587
  0.5806858778564418  0.5849799701250334  0.0006960530257438
  0.6639529628390503  0.1689541409206752  0.3307828545428757
  0.8316358978606314  0.1686364164520682  0.3326372168399467
  0.0820660075416357  0.8346897075382801  0.2584306135966988
  0.6630077322566458  0.0027033296247098  0.8369044265928800
  0.6624889234534593  0.0849052908362354  0.9185474491227633
  0.0813425473004520  0.0031256419186939  0.5837412017828890
  0.4130999727387941  0.1676230760939104  0.0872262484917746
  0.1646501824937422  0.3362772845862769  0.5027500605252514
  0.0831643111398323  0.4999658464083306  0.4186144314010731
  0.0815255975156241  0.9182518903588841  0.5015470173835337
 -0.0014023601803591  0.1701704302982617  0.5009794896178318
  0.0812555792055083  0.1687586532966621  0.2522244352856989
  0.7497764177540994  0.2512207016062598  0.0010622946385886
  0.1667591541530573  0.1708055151637283  0.5027739317810003
 -0.0026256681394804  0.9186758074738474  0.4192923068956698
  0.0801800886587022  0.0892248938529610  0.8355638224482194
  0.8313222149401230  0.0861271554029691  0.7518127150010060
  0.1630678469059298  0.0009309813556470  0.3344434425261967
  0.0810363369954866  0.1676794379529940  0.0837822936113421
  0.2488061488956599  0.0898866142082177  0.8343879217540373
  0.8309910229323790  0.0857752589117837  0.9168822006687639
  0.0798612425845793  0.5858009670878179  0.0015576811525719
  0.0826543850319264  0.5826382231103070  0.5023460084802082
  0.8314430269071547  0.5029978540141689  0.1661707522286874
 -0.0039938135059231  0.6662068982573262  0.3360262714508472
  0.4186069561413624  0.0017274291967495  0.9225889607582537
  0.3303756873073614  0.2517612435715323  0.2515391480135583
 -0.0004638354888645  0.4193494833802594  0.2506624276814583
 -0.0021793446506494  0.0864810514641350  0.4189554804268934
  0.1631824842854984  0.1689188064468564  0.0038822806389092
  0.0846514264064894  0.0016420006334940  0.0845091291796381
  0.9146367566855221  0.8351318507271359  0.2520011025928362
 -0.0078085233227310  0.7519734489984155  0.7506255185006797
  0.1593524607336447  0.0016749307113679  0.0040682588238120
  0.0796807875475677  0.2516717955865749  0.6688706467306584
  0.8307192103017161  0.6686290142576352  0.1673380495114731
  0.9116916019141343  0.5848246158090850  0.6695868705164479
  0.7498276556329138  0.5889404612172493  0.3364852288565373
  0.0793737030982467  0.4173441432087023  0.1675718111023688
 -0.0048895158252372  0.5017701421806536  0.8384769436987338
  0.4121841449362432  0.5018605095123766  0.0836439641619864
 -0.0049891480941736  0.7527485298282810  0.9174063384067380
  0.0813223791744197  0.3348465387206851  0.7523598770125505
  0.9130049808161648  0.5848319071414265  0.3339159307568365
  0.9138655621842048  0.3338399279465994  0.5856579133546665
  0.1636275932915337  0.2499678814883455  0.0849899484784386
 -0.0039382199090893  0.6680000849549161  0.6680423066331274
  0.2463955454993923  0.4172982227819762  0.5037530611432506
  0.3308610684206399  0.9181792430371269  0.5831281518291686
  0.9149186118846293  0.3342140674360219  0.0850140753689271
  0.8309376671761395  0.6695434518956238 -0.0002906856341981
 -0.0017680939406323  0.6685028702682807  0.5017943889137046
 -0.0008705318527259  0.6694931083997627  0.1681150436089421
  0.5831866407859168  0.2522998081974671  0.4997364439678761
  0.2493703111434037  0.5879612307589384  0.1732348477734878
  0.8310558121115510  0.6663158452577441  0.6695398022917142
  0.7480806934064307  0.3320613337732476  0.9186005198482557
  0.0813460971020298  0.4184198512754735  0.5017361814912669
  0.0802170477835001  0.4158862159457005  0.6704869906074704
  0.3310341477442150  0.1690382660711137  0.8345678236204692
 -0.0009493430085520  0.0037103046054265  0.6666673378218063
  0.2466251301833514  0.6663810328123432  0.5839054975374504
 -0.0024782044173989  0.2514233175740975  0.9180105806935365
  0.2467429528103350  0.8353917974194739  0.9185739000306877
  0.2502765792763794  0.1685842752023971  0.4176843848997063
  0.5863516240056047  0.2521484872135778  0.2512255065937976
  0.3312840587527583  0.5844228601653227  0.8359735392127967
  0.4120362321791214  0.9189396552765491  0.7533906414907183
  0.9942462361616531  0.9156318194849388  0.6666530416860297
  0.7517867938053416  0.4189797049416114  0.4187048266700488
  0.8272102585545004  0.8325454509737146  0.7502711078101738
  0.1638226137885276  0.6649433001713987  0.9178684495201402
  0.2442063717963073  0.5007688251885881  0.8357058898856891
  0.8326669033186651  0.3357277975633161  0.4188243915250274
  0.4211078882870856  0.5022623747276760  0.8349013602312153
  0.9934850574193147  0.4995862451638475  0.4190555246666832
  0.3292920858250478  0.0017098684067171  0.9177390006361540
  0.8298377903843829  0.7549275888542035  0.3352391046335674
  0.1621416201358353  0.1686607670607980  0.4146689659531668
  0.5816141500123000  0.3361161405178323  0.1701498935922363
  0.5008779632550698  0.5004145318442809  0.5864031651181806
  0.4981650279320548  0.2550145929016120  0.3366649430697922
  0.4937664975062124  0.2540904310079507  0.5012628413997453
  0.5784424786403016  0.9150705384244167  0.4187452898811255
  0.7494244641021878  0.0852313274751917  0.4180650886436619
  0.9194836254710211  0.3343603608678694  0.3388175457194889
  0.8325922070520667  0.4220629127954419  0.5033100752301529
  0.2466820510343762  0.5847774214866663  0.0855189361799205
  0.6651446778139765  0.5835124585939985  0.6689111054659401
  0.4102010095459874  0.9171976471669816  0.2511935205287046
  0.3308141866166743  0.7474244197609129  0.4972823459987977
  0.6674057362831505  0.1691469954581404  0.4197462744131398
  0.3347728206283924  0.9169430719527055  0.8342308381101038
  0.4165349099025286  0.0024267617408064  0.8306061171378061
  0.2470217998622594  0.0022357011955580  0.8337692851181111
  0.2470769763238592  0.4189963251675747  0.4168002770960856
  0.8313531875190351  0.4151389512948813  0.1697589386827651
  0.2469641784246009  0.0007808211859744  0.0031518899361052
  0.1642045552944868  0.3343513500999136  0.9189346354800499
  0.0795964421921371  0.7519156382592275  0.7509060638942635
  0.3298183792284081  0.5014822724881491  0.2507162877707610
  0.5817238374184626  0.3364871896156851  0.3347029023664571
  0.8297115662965134  0.4168554513311382  0.8390307244411574
  0.4130920054486721  0.2569599579030795  0.4169953318840529
  0.5836923779474792  0.6668435087451858  0.8363367072169084
  0.8303862607931641  0.8352018429163031  0.4153345909546686
  0.0811884506218839  0.8354788804082918  0.1701526790669497
  0.3292357435042427  0.0883179045067820  0.0032097277836394
  0.0822166154745656  0.0027845978262320  0.8341904868691519
  0.6652100535889310  0.6686566130943278  0.2544696592669851
  0.9954489433673928  0.0015413051887546  0.0882349442453762
  0.2472721062327118  0.8353897651507304  0.6632527569515243
  0.7493165660654835  0.5001366906392856  0.3373844108127552
  0.9935516683411829  0.5020291767411934  0.7491246119433823
  0.5813151152702803  0.8383595317414532 -0.0008183743920537
  0.1629168361059642  0.7516175896768791  0.6633680615560472
  0.1619812149429275  0.6683984345204417  0.2536644208912532
  0.6642192520278892  0.5836914331418706  0.5844022172274068
 -0.0027308621085093  0.5016642782039515  0.3338534579933822
  0.6647931244085600  0.5855038886529804  0.9191532942463850
  0.7486184691447937  0.5838102310375465  0.6685341555110160
  0.7475032637699256  0.5036817512679218  0.4203471197499835
  0.7463917807447399  0.5003334620287783  0.5861595865248400
  0.7465829240803588  0.5845609197417542  0.5030708777269605
  0.6631170036415007  0.5852313319649670  0.4193045845574571
  0.7472300595992667  0.4993930156624402  0.7517297675242364
  0.6652558054720584  0.5017977899771169  0.0007257857020166
  0.6652696958603751  0.4169681759315055  0.9195926280241932
  0.8297226929636553  0.5841564518879578  0.7526849264244228
  0.5798565988451752  0.5023211686823141  0.4187370457930438
  0.7474267864445927  0.4158121839034096  0.6687136519228942
  0.7461091099109658  0.8349639935503321  0.4194597893201207
  0.9139475611479261  0.2506115950546019  0.5028042979552991
  0.1643401801537579  0.4170729860750225  0.7520285401949903
  0.5813571850124797  0.4159415259854974  0.6691409538725702
  0.0810645864051069  0.1686690405069735  0.9188258394323796
  0.6661266359418374  0.2511757564126069  0.0841796180835949
  0.8309383083119743  0.7515496346481710  0.0857033023734748
  0.5815268214096748  0.2501538864473133  0.1656808552358002
  0.6631726525641485  0.5021120772398684  0.3357624427009467
  0.6665769979483730  0.1684830601753172  0.1678812867863782
  0.7469869878130672  0.5837670150079216  0.8349761661843500
 -0.0025323386323354  0.4176141302752270  0.9184701248426684
  0.0793727445855885  0.2517038840011795  0.0022061167555778
  0.8316245634017466  0.1680604697099677  0.1671983975141091
  0.7474396061515182  0.7520819113008977  0.6679726378765367
  0.6679785981826709  0.2516345174261974  0.2502478443991855
  0.1638868707003597  0.5839639759058318  0.2526550423654641
  0.5811748304622048  0.1666105821480578  0.2505190410471267
  0.0801168599600979  0.2507484085858463  0.8349531294193883
  0.5805522076672014  0.9171855012636508  0.5023150970209226
  0.1647553712712675  0.1698786276884323  0.6683535368317873
  0.6649257810947171  0.5840040037099098  0.2515410496174879
  0.5803286063486972  0.1681802481056355  0.7520985489765941
 -0.0021891040727563  0.3337496267408007  0.1673790004852337
  0.8314047306193086  0.0852230127275671  0.2513711659857945
  0.6646448057732388  0.7509508320734691  0.0844185696736746
  0.6640571686161275  0.7521869112451487  0.2515319040140215
  0.7476010755971129  0.7518247085408790  0.1679095778005636
  0.6632053882954158  0.6678282790740299  0.3372504942801571
  0.7470881429798965  0.6677661514862745  0.7507219903294750
 -0.0030147698331303  0.5025376059837330  0.1669944459689446
  0.1628775233300258  0.4197133569801275  0.9181455280504967
  0.6638018843335948  0.6677050119141154  0.5019383407915898
  0.6642551203466597  0.7519264276516180  0.5845928745826805
  0.9141294050897770  0.6671934228967806  0.5857491412339105
  0.7475273798276167  0.7517183289027248  0.5030254532422200
  0.5818006313285808  0.7523707184308934  0.6673385228128530
  0.7460288495997522  0.7509181470533348  0.3358012974394362
  0.7483285994544803  0.5853327962563911  0.1667869164226473
  0.7476082050994055  0.2499966493359679  0.8350231055984408
  0.6654163552463342  0.7522369880532241  0.7498102665395789
  0.6655232238538532  0.7516114097968478  0.9187032290623807
  0.7482977344825467  0.6687819168878735  0.0841601886849518
  0.6644237386261846  0.0005826605463824  0.3349459669075643
  0.0804821740188849  0.5001564028521517  0.5862947168296820
  0.9141768399533581  0.1681076828272688  0.2523014243559474
 -0.0025336718810851  0.0852494218389264  0.9176732765353424
  0.9130083242564474  0.6680059039589219  0.7519958083200313
  0.9140668751914742  0.5859805673954699  0.0015082733460639
  0.4962127125865513  0.3357481113278715  0.1660975784303396
  0.6646144613104655  0.5025845968286943  0.1666068256897812
  0.4970133904128031  0.3376363777313123  0.5014725107716163
  0.0790997560886237  0.3342231610515726  0.9179583340274055
  0.7468344425677219  0.0844973497765653  0.8350324625064113
  0.6655182883721273  0.1677891003829575  0.0022705776477139
  0.7473516776664981  0.6682896456345937  0.9182464848233244
  0.9149839809921572  0.1681323667389456  0.5851199466612452
 -0.0018452220119097  0.5017557700902485  0.0015510830361256
  0.6651398164101765  0.0845287876543900  0.2510927599806546
  0.7488379101622438  0.1682883253018378  0.2509527772371192
  0.7487072079278202  0.4180885397436765  0.0009211347381126
  0.8324911692321563  0.5028842042876914  0.3338717152511401
 -0.0021195024163242  0.2513058016078895  0.7521530151522626
  0.7460836373921165  0.1668816780487132  0.7520879756283015
  0.7463473895595605  0.4177659488486458  0.5038341489583585
  0.5807732273034195  0.3335542130639235  0.7522979361581128
  0.6643113442780377  0.4159093923496407  0.7525019219421384
  0.8308672648433504  0.5007816925429559  0.6690171394401289
  0.9145715776030217  0.6686392177974471  0.0852078372865972
  0.1642483559637005  0.3346416416090597  0.6691307231924388
 -0.0028684203165034  0.5860510767390003  0.9193677282137757
  0.6646422194062096  0.8349388603156672  0.3353734838661339
  0.7492651613043463  0.0852010005752679  0.5024142893384276
  0.8321678527219504  0.3332287961379337  0.1672912148409958
  0.7463829580157139  0.0849622696029995  0.6679969472636877
  0.5814126051096500  0.9193984438821905  0.6666687053306688
  0.5796373672353178  0.0852389686898553  0.5005987465957817
  0.7464023019594351  0.0035915715756789  0.7518662823629149
  0.1631146343684383  0.4183757370653802  0.0853993799821131
  0.0811499493131087  0.3348993695087851  0.4188980398443571
  0.6641938173919425  0.4166287688527893  0.5852892401609007
  0.0802461216607217  0.9191451930806581  0.3365228717639682
  0.7475865873982233  0.1680422312409564  0.5855414047026005
  0.9135581239924063  0.4164292881679538  0.6690554972789279
  0.7479923669954582  0.9187750080145269  0.3345194493641496
  0.8306346961933366  0.5017774495046952  0.8360910432018616
  0.6637028323906464  0.2502637966913231  0.5843995377296247
  0.9142523897283600  0.0026355383871891  0.4187433718108535
  0.8305921877988867  0.3331658239095666  0.6681814491817859
  0.7505968797648425  0.1696662059183436  0.4170017920020689
  0.6645908509084617  0.5857120830194416  0.0836322597319212
  0.9148712229169720  0.0861809234522010  0.5012861314537459
  0.8313779306305283  0.5864898726951965  0.0842390181703454
  0.9144686397119878  0.1688678099334224  0.4187763263258668
  0.8311895892728414  0.4176005913483911  0.9201346103558325
  0.9158099106164095  0.4167628763347592  0.5038393215363344
 -0.0014465292779643  0.3341699527423582  0.5030995902512498
  0.6662049951697845  0.3355724294928329  0.1657133010708032
  0.8304368483223719  0.5847079354171858  0.5856720278480776
  0.8309638834405919  0.9199065102093811  0.5852414742966234
  0.7483749317208808  0.9178052222309833  0.1684303793854872
  0.9118000645011765  0.5015275924553603  0.7522957387802318
  0.9146639411553302  0.1674473871625649  0.9173185544913635
  0.0815111251395383  0.0852558799353453  0.6669700226185588
 -0.0032284186086503  0.3342670558046280  0.0021539029188271
 -0.0031417555985154  0.1683273675114960  0.0021089845241176
  0.8296965989363236  0.7503435669507063  0.7509709317178299
  0.0791541189364549  0.6693454441589958  0.9182433220639141
  0.6654451881888700  0.9175954025826589  0.0855075495524811
  0.7489030953323400  0.3345903377020815  0.0837190315495140
  0.7491125847090797  0.0022229036122795  0.0845388881782153
  0.7483056345274516  0.3350317760585347  0.2506966395628271
  0.6650142626699699  0.5833376747125789  0.7523823560350245
  0.6656816902983466  0.3365364364712183  0.3346735996142167
  0.9146642913760006  0.2504181604545374  0.1680395249118460
  0.6649545726497825  0.8354407369272171  0.5021795399001863
  0.7474998215780032  0.3333208571773411  0.4185027264156003
  0.9141862443399745  0.7516162010465790  0.1692645740212023
  0.3309573553295874  0.5843239494714820  0.7514611637831935
 -0.0024975623426730  0.1678745004705665  0.1683957324107537
 -0.0036657171743737  0.8354391643196345  0.8348426808111277
  0.8316291238745139  0.5021980840039908  0.0009558932889473
  0.0794227912616905  0.9174076060505889  0.0015301282715244
  0.9143746213788398  0.5026282364290866  0.0837946434559165
  0.2470376497968512  0.3346348730608082  0.4175785611360555
  0.0801898733766988  0.6669431369503549  0.7519969724093271
  0.1641092868476106  0.2500876833031594  0.9190053663183412
  0.6646434998185312  0.3341709211155767  0.5018257073514407
  0.4981611590906493  0.6682206068048497  0.0011139714622911
 -0.0011221402239959  0.0854746284321995  0.7511447548947873
  0.0800882768676151  0.3350244183496476  0.0846750472011934
 -0.0029466146959267  0.5847278528187064  0.2515000683203235
  0.2475354305060423  0.5845166944514990  0.6691571967075517
  0.8309783365195433  0.5857136755954939  0.2499070989169355
  0.6629013476544189  0.2503459138860005  0.7523696432119941
 -0.0019642846994152  0.1683316740227259  0.3355104746990776
  0.9153941390138256  0.7506413242538954  0.3353486899147770
  0.8303934349343877  0.8369092289308873  0.3322685122274586
  0.8305826062649154  0.7493534221078501  0.4203942606331165
  0.8305302316531492  0.8347214061869418  0.1687310019093229
 -0.0030107391616141  0.9182001620600765  0.5822409497579639
  0.0791377825813478  0.0856743200888357  0.0007782139582490
 -0.0018210684511234  0.0851454881835166  0.2524970884256144
  0.7471193419836573  0.9212990352009958  0.6672884756018442
  0.8333891122137360  0.4187743714511520  0.4178116650480025
  0.8304303921879411  0.8356787385604764  0.6659446632796890
  0.9144230635604071  0.5022744448053273  0.2498737913324903
  0.9119752020783539  0.0015360672131996  0.0855051375594159
  0.0804186178665080  0.0018575024620507  0.9193115044505947
  0.7487407947140109  0.1676045034391673  0.0845645216486277
  0.7492110140647177  0.6676908388993260  0.2509094117676720
  0.7472172508743410  0.4178911537076047  0.1670723245946894
 -0.0027663402973946  0.8341066314990673  0.5016305376057527
  0.0796774696470295  0.1688521711462991  0.4187415220044368
  0.8312008155078361  0.0858562006872823  0.5845123991927573
  0.0805342868110818  0.0854338374391106  0.1694974408431596
  0.9153564735224198  0.8349412727317538  0.4194076575741885
  0.9124318021117044  0.7509724126312944  0.6670221209738902
  0.8299398736719157  0.6685874482079126  0.8350109139097722
  0.2470576379352458  0.0839736677231032  0.3343915288107136
  0.8307672201104923  0.9179403348035139  0.2507637008050231
 -0.0036075133906206  0.8330953773687068  0.6669771455256036