Cr N  Ni
 1.0000000000000000
    38.6909066207142374    0.0000000000000000    0.0000000000000000
     0.0000000000000000   38.6909066207142374    0.0000000000000000
     0.0000000000000000    0.0000000000000000   38.6909066207142374
 Cr  N   Ni 
 251  27 473
Direct
  0.4606766842503934  0.2956420733501176  0.5326647614468550
  0.5427565298140953  0.2320762564316715  0.5771556706140837
  0.5855920676948683  0.3066554759949473  0.5163908724300191
  0.8811313816355646  0.1779443853788591  0.4948287039457556
  0.8962160819790564  0.2319717648466221  0.4716380300116623
  0.9054579193948674  0.8721205294744079  0.5007224832261047
  0.7850124805283690  0.6356460085306116  0.4623587936769573
  0.2332593886037749  0.9733675237404439  0.5467282720818913
  0.5091240872706333  0.5334985143629637  0.4580160230250239
  0.8764148334094116  0.5438423506001778  0.5228344296714983
  0.9947517946791062  0.6549163703570188  0.4778777847705982
  0.9809518975755097  0.4843806394982306  0.4614814274735116
  0.1486873748202267  0.5267373083859199  0.5052381700629782
  0.7985269424516214  0.7397137665554553  0.5021355687164276
  0.0766926983835688  0.6940953408507584  0.5438431909502153
  0.7454965022295131  0.2388416821627117  0.5323343117042818
  0.8382787698628480  0.1531826985898355  0.5545742397535951
  0.6919994036549938  0.2042870180548959  0.5252816788063224
  0.7761991435251963  0.1706401878128608  0.5346306048734895
  0.9535006045492374  0.3141829376886348  0.5254012007463914
  0.8450123814976583  0.3280443024645763  0.5437308262755940
  0.9718149373484190  0.5858317235468156  0.5449698994801994
  0.0623663343301502  0.2166455364573197  0.4850047830266686
  0.1147581726362290  0.1921600896240714  0.5942479352022992
  0.5372567594776384  0.8487323431537570  0.6628525804369227
  0.3097154163331654  0.4536987669186127  0.4684297548042509
  0.8581418818102746  0.4356264325540137  0.5353725683728550
  0.1926924173717479  0.5569783852286864  0.4613377838550476
  0.6634502041074941  0.4525269654585122  0.4758756817127093
  0.3227089982086918  0.8561060975932643  0.4768008475270972
  0.2687586626452022  0.8243968034265182  0.4752171136440438
  0.6262359885085496  0.1642291400009445  0.6047208217655869
  0.1034008894815642  0.8388989027271626  0.4730994609077505
  0.0864583037738426  0.8836437278736908  0.5202761398736080
  0.3671662335987518  0.4057456086987828  0.5358678067083604
  0.2690585772739365  0.2933106460111556  0.4694028742549482
  0.2890338804016411  0.0572392085403400  0.4666358133850407
  0.2221639755512750  0.3199291744765043  0.4430745694225529
  0.2149770001181366  0.3771856366101121  0.4966025276208872
  0.1753415871422979  0.4048965455248891  0.4505870746404355
  0.3435199979022481  0.1400942874007231  0.5200398918713115
  0.4496323950289384  0.0895769067974652  0.5078436965128357
  0.1404606032444779  0.5880575294087548  0.4938347492544506
  0.0862378701300535  0.5526134938755815  0.4815913699900615
  0.1379129768674589  0.5316455752097619  0.4503334140065047
  0.7688485730845013  0.3802683541458519  0.5612866106097931
  0.2118769107923199  0.4389006979171237  0.4850889894945900
  0.2300387683094066  0.3863552545980397  0.4210664199330673
  0.9332765430417693  0.1542324095590197  0.5259123396495664
  0.5051879173376311  0.4589988733208694  0.4746760257556110
  0.4357364273705644 -0.0395245113351708  0.5459560981158558
  0.4758952127135245  0.0190224428051370  0.5997661219994694
  0.6083467851791060  0.0548809840711631  0.6266165160359529
  0.4027921516218577  0.5340796762569029  0.4244959564787660
  0.3615153721399919  0.6725254567781782  0.4263132606243534
  0.8148653614892654  0.0733348460431858  0.5780940641908078
  0.9061545391016629  0.1534084667084439  0.5864952426791450
  0.7051191594368037  0.0101954783860550  0.5598475560611075
  0.9156748106772435  0.1418905584099954  0.6521006639256135
  0.8636590448489884  0.6892519048248282  0.5788157338926398
  0.1977950518724559  0.4992147584083400  0.4736767516520826
  0.1191281183487213  0.7019295054065990  0.5033192022880607
  0.1619297310395474  0.8989741504222989  0.4224640544437331
  0.4643323932811280  0.7172082202396719  0.5465012110108701
  0.3595204704211097  0.0874219958445034  0.5368445037426656
  0.0456190031707449  0.5365384768635255  0.5252759066045295
  0.1608521020991113  0.8299876563843558  0.4340849239051434
  0.0644078773412317  0.7664419875194908  0.5342781574575456
  0.1046034728390258  0.8192018398467551  0.5386346197619791
  0.1197272418879600  0.7414164998619440  0.5466670145589008
  0.5655649528648249  0.6139841287329025  0.5136576020467888
  0.9664921286874510  0.1478757199886163  0.6145585108998626
  0.3938064714657322  0.9160802290003182  0.6007086863600604
  0.1196654530679762  0.3082135051811694  0.5275630752002336
  0.0492707169017023  0.3230078147433824  0.4985110301027066
  0.2203779052075024  0.9265705290064822  0.4337582023344685
  0.1071603524460674  0.3671717505712713  0.5146148398513873
  0.8986011998218248  0.2947812503970749  0.4568045097802990
  0.0309927382631736 -0.0151367808156221  0.5622435342325842
  0.9840846455250621  0.8863219355386714  0.6342190403962026
  0.0862869297912541  1.0273186814847821  0.5679843009189379
  0.2525866081626526  0.5698814220632425  0.5325823711067724
  0.2302385863754303  0.4652906488466201  0.5436566204028994
  0.2562048963257051  0.4066645961294977  0.5508324604736079
  0.2683055753392213  0.4671046025554693  0.5057342590168484
  0.8477834857671235  0.3717189146058523  0.4758686400774668
  0.3839876306929674  0.1906083910041749  0.5197036473637150
  0.4263606858549575  0.8065450481378402  0.4716624240045006
  0.9727804449040949  0.2028523118526126  0.4952284091241017
  0.8431974762812849  0.3054174288112503  0.4924490354192078
  0.0784156262606380  0.1442512951305047  0.5241773154194830
  0.4157648929339449  0.8621482925265757  0.6196265294019094
  0.2599567855957349  0.8276812339571399  0.5741148132653371
  0.3830654438932596  0.9317700140346048  0.5341010996812406
  0.8963680131350102  0.6387798147115393  0.5640949991484362
  0.3048619968134332  0.6757533529481400  0.5147445518132291
  0.5524411778775197  0.0874154340715640  0.5423188057238263
  0.7050515589154197  0.2182482845048603  0.5835689901518033
  0.7702282778667245  0.2129625952187486  0.5956097443213626
  0.6606442583804415  0.2129838658569232  0.6213798897959761
  0.6510478919101563  0.2257606182757575  0.5585773447331788
  0.6866552258805751  0.1592043108183525  0.6250484005930835
  0.6273194091569615  0.3436840397000543  0.5198144141708184
  0.6084218349911241  0.1219683455971189  0.5484684155474312
  0.7365371635743519  0.1580223495449296  0.5848998814839614
  0.4821952648134719  0.3685973387869711  0.4597964819118897
  0.6937985847100271  0.4309753030220099  0.5941195091468100
  0.7845943944873939  0.4888656177286058  0.5613696465691291
  0.3904578661960168  0.7639835679423298  0.5787676611504926
  0.4794921134218779  0.6594971464613755  0.5124557302700289
  0.1481542764568823  0.8730660219293636  0.5504804803617707
  0.1843914256559279  0.9261426192011931  0.5503176722415142
  0.0505026661808786  0.8036831879164423  0.4586100676286224
  0.9094948201533565  0.9175966065270204  0.5507682673312748
  0.0092868702923570  0.0149211133161418  0.7065194728982843
  0.4627828487715972  0.6255785492877806  0.4164023079668651
  0.0484469577227412  0.8139735732174423  0.5792851258295488
  0.0230528241632867  0.9288479818865636  0.6096787520118017
  0.5434877939327203  0.9612361379287478  0.5808923216866013
  0.4376785276761389  0.9658492778185196  0.6023878674739594
  0.9446286945576100  0.7417485782930916  0.4302007798162100
  0.2159037756600035  0.7891305405272413  0.5158508449894126
  0.1806801752009082  0.7279599998367935  0.5686069621032827
  0.1690305378580988  0.9899950598449985  0.5288370318117985
  0.0928650286668794  0.6118867228402619  0.4703837257065514
  0.3815770319802713  0.3625769969628850  0.4222973089316837
  0.2455713772673358  0.5454188775660790  0.4265386215017639
  0.8776750773499248  0.8000039421370192  0.5594797997000882
  0.7394497828826521  0.6026413571927354  0.5200103516903669
  0.7052399864472469  0.6536093319764468  0.5409510574034928
  0.6112388432977996  0.5245637358898512  0.4960755129022661
  0.6316625417098594  0.6046070948393356  0.5401274398189815
  0.2013932109389344  0.2475412281076063  0.5627030864213277
  0.1210610306055666  0.9762241451853640  0.5768446906323071
  0.0034804001451676  0.2417702921032688  0.4503213750611518
  0.9354115016416150  0.9863325962775766  0.6510361165884729
  0.9358437220451152  0.0872389005578706  0.6701462088373522
  0.5274564349392323  0.1232847288322745  0.5819316003615660
  0.4477411255478541  0.1472192108510909  0.4906818599797291
  0.4985760372756577  0.0513173138593574  0.5301817329698580
  0.8364970778793125  0.6474947917552502  0.5400455922629576
  0.4862778412485643  0.0045919108153322  0.6657548164952292
  0.9284348525046789  0.8092287801785339  0.5131820369605734
  0.0129968790373293  0.9696278029527339  0.6534986716542214
  0.9746402571891702  0.9504334755252742  0.5547652242899486
  1.0416809216279121  0.8325239503429744  0.5174479298868622
  0.9962072371683145  0.3726078952441595  0.5293117002695558
  0.8771851667139774  0.5292815650158973  0.4704515955428947
  0.6571201802242466  0.5625748097393467  0.4999359490541591
  0.6467967251226462  0.9208681568930901  0.5704324637841577
  0.6512131462656919  0.6631195085794513  0.5214522599351864
  0.1997593911614735  0.6178296352865223  0.4500167139947605
  0.5403525780363222  0.8422522049516734  0.5631361816802654
  0.5887858600374065  0.8828553689856297  0.5614882776648478
  0.9534890316968974  0.3247331607153269  0.4653539612731407
  0.9575601083021271  0.9073305163414619  0.5118066816954873
  0.0034793946655464  0.3611494069996132  0.4693742333333408
  0.5395828604795259  0.3960580269587859  0.5391879937108839
  0.1346773945145493  0.0536391163517649  0.5202984399684474
  0.8608950260558896  0.9298493772830821  0.6030972487851320
  0.8104150018230818  0.8461876735280039  0.5849203656879237
  0.6174297259763989  0.5968215777091419  0.4781531951609451
  0.9212128275236006  0.8527784178200638  0.5642092803461830
  0.5670709575703353  0.5643018595950600  0.4701849977649143
  0.8579727071264115  0.8714138222586305  0.5461308491714376
  0.3504946755239042  0.5504402925761668  0.4563450260083274
  0.2285244562531669  0.9702315973633386  0.4771933047331190
  0.0589693508846122  0.3918765384575278  0.4825851330892996
  0.0149580346857187  0.4185476519814996  0.4454028542486722
  0.0368416294088250  0.4534907577006220  0.4869810855154470
  0.7552341666605449  0.9209954420653204  0.6086954615343843
  0.7155232764631785  0.9379617229689386  0.6486466896135397
  0.6361524464005407  0.4388921019792538  0.5704459339112355
  0.6584270096618680  0.9102448851562102  0.6319007705847155
  0.5820335554245134  0.6765593107866296  0.4969081627831738
  0.6773372762926333  0.7460111205197938  0.6120701605948148
  0.7608247071267962  0.8061128218033865  0.5775133095570477
  0.8316591545874551  0.7937044850922915  0.6021032171776930
  0.4270747257574192  0.8503374872406119  0.5175050586573944
  0.5965939735843235  0.6558003830468530  0.5570760792654628
  0.5365618908433856  0.6716879207695221  0.5334716859378754
  0.5217672115508057  0.2869869373648353  0.5560502743304558
  0.3725891462923077  0.2391106241417202  0.5719234402000317
  0.8225143216946282  0.5489103028125731  0.5038674215209072
  0.7033644882050720  0.3872488389749814  0.5404537901510581
  0.6089125149469323  0.7988623569335611  0.6394305912760775
  0.4808837754660820  0.8276903528862878  0.5374307285600736
  0.5907227136072042  0.5578133246136064  0.5353927878995195
  0.7682911721469162  0.4611509289306693  0.4563824925229654
  0.6934583083707764  0.7302600309540261  0.5250181092287191
  0.4817501714230188  0.2358962420788980  0.5549010034042208
  0.9777029692435184  0.1173409251366802  0.5610054221854064
  0.9867030712468933  0.1925878289752771  0.5518507807227157
  0.9959386870826623  0.0317046890451149  0.6493593648532547
  0.6735321420411459  0.9394762998775399  0.6893918915234257
  0.9226620663471453  0.0271087253397073  0.5684687720675283
  0.8160223212831484  0.0977623783496815  0.6335304891074396
  0.9005029805712070  0.2783612123526800  0.5188863115389151
  0.0273714031809612  0.2519198810628860  0.5655799199946614
  0.5862361549674424  0.3248001477906766  0.4533564438137550
  0.7929511237772644  0.1564915866318501  0.6089252539063843
  0.1104990071208978  0.7675425607581032  0.4874573432770232
  0.1080021648702553  0.9088075401984768  0.4621000177215505
  0.0364212019402670  0.9307718274091230  0.5150020057913126
  0.2087517674113114  1.0338634639204956  0.5433295608835300
  0.0606946186287200  0.2750435619164082  0.4605951790958741
  0.5820271826657728  0.1986054734014937  0.4867963308263513
  1.0288039512032339  0.1651851587396345  0.5041363733915388
  0.4829687401122341  0.3085897056616202  0.4784326823495516
  0.2996430715271459  0.5182996664937644  0.4496916517278272
  0.1897804226875081  0.6879358073617466  0.5189427447142037
  0.5289548107129712  0.1683806291067249  0.4786007552318760
  0.4811505913390594  0.2484003859791901  0.4972927492574750
  0.3451370338607073  0.4434098938175190  0.4304369085567590
  0.0358426766673895  0.5775212871442907  0.4546857929855608
  0.9606453712918395  0.2568794055171827  0.5445693693568295
  0.2012894442972964  0.1496128033657550  0.4318379023617590
  0.1412120150204910  0.4667364105328803  0.4685512127807183
  0.2214982802253758  0.9098784563942599  0.4953770027172893
  0.2185514197402999  0.8455459230721898  0.5031391903426196
  0.1626630010103132  0.8770465504341338  0.4859991400708784
  1.0092022482986995  0.2732279742722959  0.5012482707557293
  0.4977473193190941  0.0580155392288253  0.6425851824501725
  0.4882170831041334  0.0764667320990125  0.5772977253231409
  0.3323534054073017  0.2029707756504725  0.5055871531357904
  0.6456413406089119  0.8182702819858962  0.5373937778681336
  0.7039912155512223  0.8815321040435802  0.6115908506458492
  0.6515129591298677  0.8484182260632724  0.6438804962699226
  0.6959873890498718  0.8852820154647231  0.7004640766210191
  0.9153323243978827  0.2191078934410474  0.5287432526909781
  0.5125693182366172  0.6053995384000701  0.4697515384550415
  0.5779103983040107  0.6006367465825165  0.5792138139162333
  0.5321525520981513  0.7395857556726174  0.5191773674363951
  0.8167022914836926  0.0147333977000923  0.5952206887192556
  0.7011598654033209 -0.0017877290507801  0.6278923106279247
  0.7021009045120957  0.1123322962582195  0.5851531606671200
  0.5838233855649694  0.7200627828480294  0.5431096249193758
  0.2128030616107994  0.1897017444246028  0.4707878870256532
  0.7621426807449977  0.9900240623698503  0.6520220176856539
  0.3088003605297581  0.6422487962878195  0.4167332008154390
  0.9564348085601270  0.3915658479782517  0.4442309203379593
  0.1650118550132109  0.3400175513872654  0.4788693871522570
  0.0096126817916197  0.3060893681383445  0.4348053735937171
  0.0591488778501131  0.3410837651454784  0.4355254486775432
  0.2148736321050156  0.6723232665342315  0.4455723984554713
  0.1128574138657040  0.3120751383137879  0.4673949896675327
  0.0081408885796235  0.8824004396240187  0.4761083011839447
  1.0308366122500585  0.8819747968211298  0.5633191599382370
 -0.0077693742210250  0.8135643863351558  0.4851332596510362
  0.2605719922591120  0.1779080972181733  0.4385273383738618
  0.7124984860752517  0.0517957149262406  0.6047497462252154
  0.1292364174690573  1.0134129952984698  0.5471166203290867
  0.1990339205171481  0.3621607049001012  0.4511168519545792
  0.1931258111343236  0.8821670963237136  0.5272084203841773
  0.9979322394966365  0.3228497511458777  0.5021970519555295
  1.0184134327646583  0.2009230947739198  0.4733364313014980
  1.1288810670998759  0.8517509215223225  0.5123920332022059
  1.0002830833985952  0.2336996745842367  0.5293720638622744
  0.5294734199720376  0.5726460716971358  0.4377714607916212
  0.9523638611328592  0.1619465118479559  0.5704769096704431
  0.0849855021022991  0.3515246781966677  0.4747960405306370
  0.8277424149298757  0.1246270398986399  0.5934650275089619
  1.0121683861050188  0.4073530969480417  0.4942372195651841
  0.0837971506567625  0.9325137300016539  0.4975896646772952
  0.8010459940092676  0.1309413662647654  0.5256765874044966
  0.8865826039547788  0.1701164651146531  0.5429048735430850
  0.2001316798002680  0.9535472258823151  0.5127938531808049
  0.5189568818585253  0.6297972846172716  0.5128024414200203
  0.8880711461826111  0.8357564608088049  0.5283255259974545
  0.8582872760148221  0.9172369040272589  0.5575726609207134
  0.5009917801767159  0.7029373072253464  0.5158529582124849
  0.6099502736105935  0.6376830047417082  0.5095115862222941
  1.0773971452879558  0.8019159026979448  0.4999331425376580
 -0.0247355076409761  0.9914876667308783  0.6784412184937270
  1.0375726495569588  0.8807921328532837  0.5144123889833525
  0.0230880509537252  0.9342118218812885  0.5611742007680526
  0.1316945685865148  0.8683581457139345  0.4452880619959411
  0.7389025424366846  0.1969100106387216  0.5556372987921210
  0.8076553319695260 -0.0428188672462569  0.6167245968640125
  0.7613494279335228  0.0439125608752633  0.5661119891591097
  0.7547774302283955 -0.0147992351796378  0.5908407591457883
  0.7912732146580139  0.2203634799030624  0.4980193392859574
  0.1359217187961746  0.1154402045125291  0.4994846599161032
  0.8934151337854137  0.0341978802791092  0.6664807759127136
  0.8376267844271572  0.2037793469280559  0.4613792055955494
  0.9249334859092665  0.0885185959828996  0.5475455501237614
  0.1799381422552892 -0.0074440121747855  0.4469257580161447
  0.7272082266428859  0.0429495557392829  0.6676526945290937
  0.0117703277884406  0.3133628217524947  0.5505853817645203
  0.8341756356884332  0.0411840814942362  0.6487247957437404
  0.9267370935984865  0.0968064840063520  0.6079321367492351
  0.1150084763477572  0.1948202843243850  0.5165168664968359
  0.9392198975064233  0.0406845632934936  0.6259600002315183
  0.7139017703969812  0.9875525931442984  0.6922330905726833
  0.1611140856778784  0.7865404103000518  0.5535657612284188
  0.9497873783211985  0.0325591794556519  0.6915887673519650
  0.8676963148072373  0.9872381870201745  0.6293979772609247
  0.6953487576642113  0.2755717888500080  0.5628515334568353
  0.9363833311470783  0.4947259385307285  0.4979781000306148
  0.9105466007348484  0.5948551249666619  0.5218325352545902
  0.9692574239384840  0.4341883523203010  0.5027488722052453
  0.7836130128992904  0.4508279125855926  0.5166957072924919
  0.9312224468415810  0.5575917289782374  0.4802131675704137
  0.8763482705846184  0.0451544468637742  0.6038848289823247
  0.8660974649184974 -0.0049551538916159  0.5635902100476240
  0.9350399102377310  0.5365870809058761  0.5422230214802198
  0.0271018319805882  0.1377002715221973  0.6312988213554099
  0.9859729120311143  0.5389344390344919  0.5042623778000537
  0.9936047180745086  0.5283958905421768  0.5646617411937593
  0.9015446860291241  0.3191846687894798  0.5655868249299764
  0.7341876661651439  0.3317819689323471  0.5635470634201558
  0.7174742907791112  0.1345971830870107  0.5216365608632512
  0.5996594331146697  0.0561436762495988  0.5665514582213155
  0.5001537570562539  0.3449239091361530  0.5377737579312593
  0.0335707800562832  0.5159826159446133  0.4703907663203249
  0.3511638069411377  0.2991278677287971  0.5520268011354095
  0.1836322877787522  0.1539568642348456  0.5153714020534771
  0.1509967704792552  0.1723770004721678  0.4679014403547938
  0.1866196901694984  0.0983057716102457  0.4668626653811817
  0.6669439589337348  0.1554133011449760  0.5575285618365761
  0.7396381199166138  0.2959443363996543  0.5151496168611719
  0.6871965973439761  0.2638348702103924  0.5045839647055875
  0.7923495455529627  0.3216044126061837  0.5835350926516174
  0.8448768468401558  0.4793465581445740  0.5795576616953512
  0.8706396318845648  0.1035199355986914  0.5829495755692488
  0.2236983998445894  0.2029744699349147  0.5266199342479558
  0.8941813422838384  0.4859187146208074  0.5409788250345651
  0.8325090582333905  0.4910338702520670  0.5200862115185088
  0.8765642991343681  0.2084067723154996  0.5752060954670005
  0.1128845432522158  0.6416044289023796  0.5241962232569114
  0.2967135778979326  0.8748521173708389  0.5782665244021957
  0.0436463003645506  0.0793180120007497  0.6493865034374866
  0.9849052332185647  0.0903790462684705  0.6296739013055157
  0.7746224163053221  0.0457495946934743  0.6269686672301162
  0.2313310520916960  0.7332192310640638  0.5317505278516093
  0.7897207288989212  0.3343964718956060  0.5205429915782939
  0.0526709432346502  0.3639748870026641  0.5505070694403505
  0.1161154766024674  0.2506163836163078  0.4847287632368674
  0.9423011900702127  0.2056435780822274  0.5949531001180370
  0.8555269779943648  0.1486141572861522  0.6290433332353451
  0.7007954555293294  0.7868584518103421  0.5597512515972968
  0.0703981834485383  0.3062745526543332  0.5684303607274159
  0.9413597123458548  0.3669117870506061  0.5664803220115219
  0.1866015987856142  0.8796250445289587  0.6006124295952244
  0.1979636789111307  0.8333971351487638  0.5589407147479112
  0.0753619899127472  0.9323167928260521  0.5701866697269558
  0.1792842127157175  0.9707645611084201  0.5947900187204512
  0.2329077314321451  0.8841684401203824  0.5582332054765280
  0.1836214250263702  0.0394849466302103  0.4876483698990726
  0.1277945353121598  1.0028091250689997  0.4764973484640270
  0.0670211017887268  0.9781000268918706  0.6149851339702165
  0.0351617838857595  0.0317373523031725  0.6047653017252094
  0.1597472709220146  0.8110492405369121  0.4957968052195198
  0.0170367771355011  0.6984087481194855  0.5202970952860101
  0.2210071253887565  0.7768727069345234  0.5755610555407746
  0.0577729185477143  1.0208872259598056  0.6634537955121826
  0.9613725238098522  0.9395159382101701  0.6176421001243880
  0.1587794422108135  0.0304840377239925  0.5823461043247932
  0.1264818536491428  0.9317174846233953  0.5266470597477441
  0.0386301715975042  0.5997826262822236  0.5075791236075667
  0.2761643735455506  0.9294004845743471  0.5596626425520199
  0.7755860894206251  0.5760685849934662  0.4806404970301416
  0.0827879885908702  0.9757361483484971  0.5255997282139939
  0.7825046556765934  0.3948662873712624  0.4878176084070091
  0.2855246278006634  0.6214847759240872  0.5310930097888147
  0.2885867982765895  0.7236294959041997  0.5535036883779102
  0.8767150783553476  0.0912632795132895  0.6488699256419609
  0.8936272045522407  0.1976031901839451  0.6358368615847450
  0.9578633179848084  0.7460834521126282  0.5442404388113204
  0.4448675896746557  0.0236572148907851  0.5282765934374944
  0.8167933341061469  0.2155895241339119  0.5558869454991694
  0.9482368319543151  0.6435142623296506  0.5227351911098324
  0.0332087866602198  0.0913234831547676  0.5858563196552172
  0.9956972859248879  0.0761753003160888  0.6928489347912893
  0.8055835881428673  0.4300191014715459  0.5732466949281008
  0.7652915269984470  0.1052963254229768  0.5487736226296140
  0.1464472998194976  0.5725980504386393  0.5513926571772877
  0.3195723118825091  0.8355966284720149  0.5371474526050078
  0.1981115079101070  0.5840686174447624  0.5141935842533730
  0.1730759417608235  0.6303595009744175  0.5441782981458758
  0.7373020034955344  0.3581128941759763  0.5011631467297027
  0.8232998632461362  0.3876724584505070  0.5298731835758955
  0.0035395881197564  0.4851801484875716  0.5222417169824576
  0.1029789166503246  0.5251583453273829  0.5459663242481565
  0.3265560283446318  0.9015130615705294  0.5236220034968339
  0.3364596371401877  0.9239009994893208  0.5799851326493236
  0.3751072108171968  0.9728718198626755  0.5801334614197582
  0.0719739354984642  0.2633929144791060  0.5244065678285810
  0.2085086608970922  0.5226235476907988  0.5284825097313185
  0.1707511634576607  0.4690812587925632  0.5232423372414509
  0.1630210087670247  0.3593205999185469  0.5362743613666642
  0.1513849572697013  0.4105108866707566  0.5035931373167646
  0.0902906061885381  0.5853904346393064  0.5325657463588427
  0.6526394792949696  0.0267423555442900  0.5930772601548931
  0.7467071890464620  0.7031413286591538  0.5394628232423359
  0.5474654914904481  0.0659126011133276  0.6030754767051913
  0.5951352914385181  1.0009901311736706  0.6500398887627924
  0.5453258588414032  0.0229513333085101  0.5601312871683501
  0.1710291692500608  0.2211142844353779  0.5044162689495104
  0.1313133527066970  0.1461996721254252  0.5539187296963463
  0.6518215198024470  0.5476102470686924  0.5604315820549992
  0.7717112575044052  0.5099177642459469  0.4950377308618825
  0.8000679712184072  0.5962424152111990  0.5416764187568104
  0.3106274248312475 -0.0181229991295773  0.5600838364042653
  0.3156261731405382  0.0801061494060646  0.5803482125910593
  0.9007589633155068  0.7522036762864149  0.5229434268417071
  0.9950873516315610  0.7962127788158605  0.5453733301005815
  0.9344188560414458  0.6240633639855628  0.4645797998432150
  0.8445721412062395  0.7484572702804229  0.5593608619598699
  0.3762838117677612  0.0733863776143269  0.5998000254398671
  0.8633619256182499  0.8871377264415887  0.6505310985661180
  0.7599601994106001  0.8473655061839491  0.6224887531472896
  0.8872705523524439  0.6471854063630301  0.5018072770857528
  0.7186930849615435  0.7946208886032894  0.6198151189710419
  0.7343043819295367  0.7452993578508192  0.5824978087087215
  0.7505311167567819  0.7660290524912160  0.5266574000630634
  0.7801171045351013  0.7893563068339000  0.6400481401886277
  0.6966689798851937  0.8463176574053097  0.5597132241207413
  0.6657168020449225  0.5022975625445451  0.5181982432184306
  0.7528765254327890  0.8737664621091943  0.5652399130573639
  0.0430761673699265  0.6389692582044936  0.4411943390857719
  0.7567918035639574  0.6904400882492375  0.5999336079462791
  0.6113710220487478  0.1828440789458147  0.5395912888698110
  0.7690443483926002  0.6467451934125485  0.5559933838875709
  0.0570168890898177  0.8681063026567394  0.4407647503811987
  0.7655643551575744  0.5464163619672614  0.5417958085369292
  0.5563962309417422  0.1524132926004007  0.5300083333018395
  0.5887631438220674  0.1118575514889554  0.6050659616594422
  0.6476271175804833  0.1084543606879527  0.6290012488568871
  0.7569254956320309  0.1012727881555206  0.6093985051069736
  0.5062923896100291  0.1798680987013986  0.5689225767198379
  0.5664886166633469  0.1717733257722795  0.5882890088954666
  0.2546741841380623  0.0854280966785398  0.5573647160194695
  0.4850885395292039  0.1846579255836433  0.5134052220854617
  0.5873036952483265  0.2434224155629614  0.5330213609819421
  0.6369406130679367  0.2827843463036046  0.5400332858188128
  0.6361309933938312  0.2945423233691604  0.4781069473598462
  0.4044334660949238  0.1344797858156244  0.5410962496390628
  0.5337126828114025  0.2176011836332984  0.5211882279010053
  0.5818459441210309  0.2825988898531989  0.5790866261170520
  0.6770039442514124  0.3316570967540792  0.5460660594665386
  0.6211724487372782  0.3298163957993688  0.5816086299497167
  0.0775768940453354  0.0316968858282593  0.5050094412549481
  0.2969139533541213  0.1371731685074629  0.5626354791791720
  0.4235690555472397  0.0771234064297703  0.5592357353362885
  0.3559576817491386  0.1304072099909359  0.5831111934141354
  0.8090534582653617  0.9074605519064481  0.5689497549965389
  0.2400596951194253  0.1433336490227131  0.5396225113559137
  0.2520791805981311  0.2577713616504302  0.5257294198240915
  0.1900811572407818  0.0933053773973896  0.5304179396123373
  0.7930061388887669  0.7461015891490820  0.5970623531201232
  0.5342707571656482  0.2776238637607972  0.5006883479847900
  0.6572576160377773  0.6470473443441517  0.5810919894431210
  0.4016874781142410  0.1737233594618924  0.4587522465730721
  0.9153165371690783  0.9677431980631971  0.5919458345512882
  0.3413871198442878  0.0877283090583587  0.4766853353078096
  0.2916508922842052  0.1193423592953036  0.4476973003710839
  0.2365784855564938  0.1312949442360961  0.4797850105197565
  0.3409625863464195  0.0245977418069262  0.4926603875112512
  0.2893859505841259  0.1066594688142500  0.5091869662125027
  0.3443661867308569  0.1527059599323003  0.4600007240338078
  0.4642161362400866  0.1313396205382097  0.5607866594341583
  0.6015975609655845  0.2229497471981560  0.5944806419152371
  0.6140086884615579  0.4994060057351547  0.5580623195222397
  0.3529309420213829  0.0296243740210087  0.5589788266432214
  0.0628915494028259  0.7221772705312718  0.4834704867781596
  0.6357653898102119  0.2303047553343178  0.4979593864131112
  0.5758953773590076  0.4466998702725384  0.5562151944685731
  0.7527006144080325  0.2728769379782431  0.5823958258190595
  0.2777982876110613  0.3530763505112878  0.4477188170757471
  0.9013894767980408  0.9378044146607291  0.6527556731381626
  0.9651088954285388  0.9305150472381204  0.6787773665651957
  0.1881995762423583  0.4589070519375851  0.4285687728669775
  0.8082515289299662  0.7957460539367176  0.5429207439897396
  0.8064837803972752  0.8943725541337908  0.6292415205081422
  0.8712414529330960  0.8455621101981690  0.6055286452498682
  0.4130563773084729  0.0207939207324797  0.5817538031998860
  0.8054881218522960  0.6995982132003055  0.5599147690022535
  0.3144939820153336  0.2601199663542014  0.4889608924732016
  0.6842857076682718  0.6864397228733194  0.4747971557678710
  0.8791417751685426  0.4697598505847348  0.4845435263905775
  0.3143268583441550  0.2464236437878750  0.5490318066834896
  0.5374025998216256  0.0085210481069849  0.6230318808080622
  0.6743291926339020  0.4890795209423174  0.5778468722467274
  0.6860979965390085  0.4467093729572821  0.5328658268804747
  0.6910640882317782  0.7935604243265745  0.5015563681813044
  0.4007859956192370  0.3055681569324183  0.5112345956610991