C  Cr Ni
 1.0000000000000000
    38.5950107061839773    0.0000000000000000    0.0000000000000000
     0.0000000000000000   38.5950107061839773    0.0000000000000000
     0.0000000000000000    0.0000000000000000   38.5950107061839773
 C   Cr  Ni 
  25 252 466
Direct
  0.3806528742615612  0.6689698310410328  0.4834234538576559
  0.1592364411933959  0.9608614117976266  0.5072690924218581
  0.8428752570318998  0.9617105917528471  0.5832601901242213
  0.9440990835386380  0.7910915020058679  0.5342600177222394
  0.0524859530313361  0.8627492221894111  0.5726139374684341
  0.0260520907386092  0.3934489704496684  0.5031379959580980
  0.0304757343907647  0.8993530056945779  0.5227021670853507
  0.5995294587399131  0.5356134280901160  0.4815168464939836
  0.4802932584190437  0.0711027442485923  0.5984869618813542
  0.1835466174588339  0.6271708421023497  0.4986330651021724
  0.5403037075620454  0.0453891213885801  0.5571241097266146
  0.6133497284453422  0.0457593946642644  0.5649261014844468
  0.2792800980548729  0.9213732854521641  0.4875642500225632
  0.9433406096605940  0.9768840135776381  0.5795603333824696
  0.0886529190493940  0.8789367967321395  0.4844199378511851
  0.2587456010577376  0.8253064558479232  0.5224577349127550
  0.2596611542721054  0.4490236850515024  0.4497445844426189
  0.0876192276782825  0.1012636830028500  0.5606424742471116
  0.4574566706620272  0.1922510747466882  0.5634064169106080
  0.1163189959743863  0.3928936234390745  0.5309392653329303
  0.1466568899800494  0.8771864022043365  0.5668049945147833
  0.7809692053708760  0.9971618098985963  0.6549019259751716
  0.8435427719193161  0.9035489763424349  0.5351311737855646
  0.5760682632951588  0.3553852615415412  0.5232584877482979
  0.7712215991028410  0.3297455581708012  0.4288701040696695
  0.2955026720140103  0.0981663290020847  0.5070963292611966
  0.4102547336997533  0.2526023950118095  0.5239588318304363
  0.3983931340024292  0.6280763374558005  0.5126131360687290
  0.5271507628867871  0.2703904469408376  0.5049379236153925
  0.4703704274870147  0.0195499690811816  0.6000916841069055
  0.4260949341909732  0.7927026511814439  0.5251349264995967
  0.3281070362266747  0.9171415891732472  0.4746925407211892
  0.3459631656493730  0.0217852817383591  0.4986126777381127
  0.6419580751057132  0.7592222488540231  0.5503815528636954
  0.7003446077864938  0.9051571549162354  0.5386124124858721
  0.4382324127103405  0.0774954184221531  0.5700641973251761
  0.6016446158098426  0.0622411477180205  0.6169458153288109
  0.4977711896866929  0.0697215974472900  0.5495331819153304
  0.9676090370582547  0.2656613939462419  0.5455765542417594
  0.8023249413275181  0.2775752886831628  0.5418811875832477
  0.8993510199775785  0.2906460710009866  0.4632334918452882
  0.7994611583597475  0.3415959077604445  0.4662714948529848
  0.7821872080644685  0.4466960524779678  0.5223981679060993
  0.5723713283947407  0.6111162727324895  0.5195961237205784
  0.7227113008182257  0.9482859507130569  0.6496319055555996
  0.5900954427835349  0.5503403006206721  0.5318598627801968
  0.5693743867423331  0.6322101208742070  0.4528125890865378
  0.1698774937325496  0.9331272795482213  0.4660280458234363
  0.0057016707186351  0.8710199910287607  0.5560085014804752
  0.5791928900808342  0.3021497970778252  0.5156037237520231
  0.4842135296516954  0.3739003455189145  0.4674248246459911
  0.9077731866123391  0.2810519087538769  0.5232294466529888
  0.5821409510851163  0.1191227026958163  0.6059884706224185
  0.0821160525976639  0.0203242438889663  0.5169507065070067
  0.6522349270490806  0.4131782317475110  0.4350102977767509
  0.9601535866140184  0.9308554095447987  0.5770695803581857
  0.5378512935037238  0.8593513637514626  0.5506169861005297
  0.3460760557405226  0.1295117298875698  0.5811747478514698
  0.5740396954262783  0.0172126269139285  0.5816431086715379
  0.5533493887735053  0.5000113191367503  0.5397665198578857
  0.9141104354244123  0.9002391763135125  0.6137715970396832
  0.4572046385353278  0.2927921732037715  0.5319371312237391
  0.4335830561325049  0.0672195702326579  0.6247784020660161
  0.9302145974342516  0.1046316411690773  0.5047420251230805
  0.2192286720995655  0.0212162615418973  0.5921749977837927
  0.9486492670424477  0.9825794480398238  0.6311249080218893
  0.9025201618139881  0.7548496475439054  0.5293756550582290
  0.9209820553861149  0.8618090921814402  0.5700982570076096
  0.7997289846776867  0.9795277042432061  0.5587748170081107
  0.4787684151321313  0.2368261821665971  0.5493709521290012
  0.6210238996727055  0.6153309065620456  0.4186899777918231
  0.9201325453653411  0.0199643609380171  0.5789016449893829
  0.5750590243069489  0.6905268173279734  0.4370599239153280
  0.6115688712796853  0.1356050406391745  0.4990258356228768
  0.8540467450714777  0.9536351217317148  0.5322325684574881
  0.4152538771731564  0.1980780600919459  0.5393705072388026
  0.4282476169132942  0.2330216182993928  0.5899044753870667
  0.4740705069929786  0.1176339829965583  0.6199197832627207
  0.0170165117915127  0.9252026917026394  0.6048877665428458
  0.6414928635571814  0.7031265394326395  0.5620262845354027
  0.0666937642675625  0.9215531034056783  0.4962111898878441
  0.7444851143227116  0.7684350736094611  0.5238342088319251
  0.8622057869099775  0.8594875516753427  0.5498943130913333
  0.8960546729052339  0.9112860112533837  0.5476604932831755
  0.5563916323051097  0.3371120778715387  0.5636760672748620
  0.2027156339329989  0.6780360012615237  0.4943670768403074
  0.3966386643909673  0.0570574859755692  0.5093835645615610
  0.1447641649069136  0.1299691350850540  0.4524935813657934
  0.5333619053384798  0.0663465595557681  0.6032445163117199
  0.6540462039887848  0.0732340203484718  0.5792713215416656
  0.2242136757330379  0.3113315777180415  0.5041458229275055
  0.0661369663796569  0.6279212445689638  0.5699016479868525
  0.1921643292935237  0.5023850130365284  0.4741439370343880
  0.7828937853537549  0.9457996336495422  0.6561069033705923
  0.9024986315131145  0.2257857323109726  0.4795284147952274
  0.3520692698800360  0.5507744311004006  0.4580196163299340
  0.1208252638331723  0.8879359131968321  0.5238917151037673
  0.8171734529751876  0.9956361284561711  0.6157162740389664
  0.9005224632378558  0.1576202198433362  0.5955622981491929
  0.9723690535229751  1.0000024656154516  0.5420921755692781
  0.2788602213370655  0.8743993436255222  0.5122255888300925
  0.6413364868417903  0.8148386698072098  0.5388785583577700
  0.2697672268880595  0.7471921793324453  0.4842921400241424
  0.2704689355298986  0.6794953291512869  0.5137563761120172
  0.0654990687598147  0.2076290160427801  0.4792782941051901
  0.1414627310274680  0.0702670189598247  0.4670498583090958
  0.2980248242226097  0.6275211100455972  0.4734317739928370
  0.1112229742795354  0.2536154456284584  0.4252612200708982
  0.3476737648542330  0.2177110163094239  0.5128201598922538
  0.7076727432635914  0.0104144280181609  0.5675799742421780
  0.0277308473726303  0.4291201000305089  0.5391884893783697
  0.7568235892513131  0.9827696148064409  0.6047056853999682
  0.0278091306678554  0.4137420602513771  0.4528281924111970
  0.1606488576564465  0.3620208716179629  0.5301615256285589
  0.0753517863436815  0.3981432656752049  0.4929972493527483
  0.1702311208558493  0.2214076204937546  0.4530875122444910
  0.0207405182593895  0.2259640266650020  0.5107532006379100
  0.4847078577952579  0.3118894145401393  0.4802162482183215
  0.5314692665533363  0.7453981757867221  0.5230035977856623
  0.4097545160674367  0.5845840775419288  0.4716406244097824
  0.2477537488252347  0.0674064593547487  0.4987132140735408
  0.4579998934829700  0.5034315424812293  0.4588851390700004
  0.9121111760465128  0.1651689370340488  0.4950267273843649
  0.2612489561355310  0.4088385823683296  0.4815936503278671
  0.1074543932846369  0.4446802022122732  0.5149254700389906
  0.0927950974103888  0.6140353050485424  0.4671235956963068
  0.1427686567319799  0.5882995421177667  0.4897833490531370
  0.4982967373230934  0.0119687168474825  0.4942342745146168
  0.5085983253992834  0.0047968981703668  0.5577027483525956
  0.4186728164037485  0.1481684428969286  0.4998858067721567
  0.5260134700033685  0.8566044427256798  0.6043964260348967
  0.1959067403734015  0.6252847237857140  0.4484566402095366
  0.4772730775729445  0.2421561510713998  0.4930394228919600
  0.6587277984767743  0.9542477992104247  0.6267978939788074
  0.5328859134082486  0.2064176547433805  0.5210980234490120
  0.8965299720649482  0.9552461769595574  0.5907226621063574
  0.1337454873414926  0.9217424094237642  0.5855354998479319
  0.0597492935010941  0.8571875709642337  0.5199574016321777
  0.1105809563160611  0.7687088645202004  0.4923970742172345
  0.1435040119652077  0.5982353423774295  0.4303702242726521
  0.2374649058969484  0.4924974459652220  0.4389102125963194
  0.2870383729901034  0.4113660460308043  0.4266649896148340
  0.3821227640107951  0.3636892563034458  0.4876540351951297
  0.2126180710052399  0.4428275705694836  0.4802978163706703
  0.1478631447088998  0.4099316272725382  0.4927004920413083
  0.2505750629557925  0.0820993285293428  0.4413734937821587
  0.3271843146620797  0.3293237204856436  0.4771896613572780
  0.2217776693794785  0.3210450107958788  0.4431201543101324
  0.3073492288068831  0.4533643565617379  0.4759501462093860
  0.5438784287973969  0.9169883030555207  0.5355502499979845
  0.8618051742050252  0.0074982977546473  0.5686096037538600
  0.9644835577592588  0.3832209695781131  0.4465605597229044
  0.6115609299021566  0.4960195355133871  0.4475033548414860
  0.6861743573982434  0.3225080377459881  0.4879478075280832
  0.6855934651759412  0.2623720223209466  0.5057344784942596
  0.6730937652157009  0.1721581895428347  0.5709244724879516
  0.6025587512526934  0.2274172541207259  0.5940364279250928
  0.6641051374032535  0.4541133508172421  0.4794454172373104
  0.4358205359519099  0.9195391246512823  0.4991292110397944
  0.2695920667001750  0.8182631645976711  0.4739222627886011
  0.6255400236523054  0.1282286760441989  0.5614661029305955
  0.6149107204895291  0.0739797597367798  0.5175227872340916
  0.5743562631404474  0.0837397724561901  0.5565836116897274
  0.7165843698365199  0.4844677458954132  0.4857706959892484
  0.9409417175525145  0.3832434860948891  0.5051353676119456
  0.2783505064823416  0.9734280555715421  0.4968702742861765
  0.9140269511009315  0.4304958556483163  0.5609216222208122
  0.8890273083895036  0.4106394750532909  0.5001908435065242
  0.9738254373868270  0.5888459197793215  0.5533446729868106
  0.9964832142550546  0.7024981109432235  0.5178464675761965
  0.9211050894714256  0.2646644778758986  0.5847267575794284
  0.8135201616722141  0.1559008533809484  0.5157483605193643
  0.7591296781655354  0.2331207918718945  0.5392330297978253
  0.9903828512302524  0.3762655549415407  0.5365395083426431
  0.8431621845457717  0.3306465177554820  0.5498237342828349
  0.8576146399487296  0.2500830644534381  0.5115200538844062
  0.7183138591283386  0.1446597772227206  0.5366741723632420
  0.6585797903389645  0.1699673538939742  0.5099309490000433
  0.8648796662483950  0.1094899325373638  0.5950845427154656
  0.8136378066411898  0.0327358903378726  0.5324880086246605
  0.7693121327445421  0.3832952356560051  0.5638272033605449
  0.9740156100888974  0.4247316742414858  0.5702915266519112
  0.5547204682087084  0.5102498594699127  0.4842366267032525
  0.7427040095497998  0.4409301285434356  0.5594848775039367
  0.9540414757239810  0.3194313502099106  0.4707832880865480
  0.7947188935623896  0.6131809276258382  0.4821627173329438
  0.7264865724631335  0.6253434092540638  0.3970931261484409
  0.1782298802884851  0.6257137946725837  0.5495337195323249
  0.0718042517609880  0.7271444254349394  0.5888866718674503
  0.5500731477726017  0.0422287632450768  0.5079691325946558
  0.6538582884007124  0.9759442187854105  0.5582369123054173
  0.0072936062816035  0.9397820813229569  0.5389155953251905
  0.0630665064298106  0.9120537374214408  0.5621930395044494
  0.2339940729614419  0.6305280733430205  0.5111620631346803
  0.8976029764964311  0.8097993794001386  0.5154739251750722
  0.1128275154070454  0.9485793072089727  0.5271892520589404
  0.9246433683119153  0.4558327422133673  0.4571652413488155
  0.6253015484847241  0.3400889790021025  0.5165881008384590
  0.9783216493693968  0.0679887467645169  0.5279327917786816
  0.7571509834682759  0.9341338179111828  0.5505243779082453
  0.1971306156167238  0.5775323936396155  0.5100077845824986
  0.7900729812971701  0.7637746320670590  0.4359425897145014
  0.1016909423181901  0.6912994540274709  0.5084188747011571
  0.8041729722214804  0.8660646139603894  0.5275403316990728
  0.9796853503783800  0.5530179233041400  0.4475374969636393
  0.1072064954453101  0.3518395295120486  0.5010461505575230
  0.2099389795877160  0.9710936985089500  0.4914810304459734
  0.5800382093256704  0.2820443701089033  0.5783886933441064
  0.5675999996259039  0.5737300111843106  0.4703444839679372
  0.6116479975999911  0.4900065606822426  0.5028890442162691
  0.7494043499179612  0.3733389420528304  0.4377789144088020
  0.9436080538695559  0.7987329068333965  0.5855703985587059
  0.2317284077467255  0.9562064036574384  0.5496238284704228
  0.6410215044786697  0.0126282357991945  0.5998704396423319
  0.6841875007293433  0.7462668004849555  0.6185903248706086
  0.1563016885424149  0.6840203996147914  0.5343447167824699
  0.0910218861795873  0.4991955861641830  0.4968367325163182
  0.9938110624045428  0.4823157239127221  0.5276313098045431
  0.2539474712773624  0.8267417797900461  0.5721534835803238
  0.2290872354658300  0.9152443557123461  0.4939692730386960
  0.2717332053554792  0.7764027342098893  0.5341861892146628
  0.2179901054598442  0.7879212699843235  0.5138968472106612
  0.9428017232367519  0.6604455581500887  0.5087979027491083
  0.3305756815903934  0.3873144503072206  0.4637053139880864
  0.2045042984068830  0.1660368394916676  0.5224283363524475
  0.6422771844924544  0.5564316996576606  0.4992704531391251
  0.5414104324160910  0.3942596575429929  0.5330582517182529
  0.4401679454890635  0.5086075311747594  0.5479365714466677
  0.6172200631637175  0.5560740316786799  0.4362343030336122
  0.6763930005594081  0.3352914955626582  0.5448752105024988
  0.7935540669102576  0.7581913956123086  0.5442305217656492
  0.0883428436336735  0.0491242688462567  0.5651234651717629
  0.1376411513968710  0.0908257537749857  0.5705515635792863
  0.7220394836327806  0.5647386785194037  0.4164505458705509
  0.9536432039021094  0.3243095345477824  0.5287196962809022
  0.1766981777457512  0.9220487084157534  0.5355068146986057
  0.8217519514469037  0.4997439208943163  0.4645778003338520
  0.7054857805167077  0.8549174780735315  0.6043987961880530
  0.5104265035299932  0.7525083476741977  0.6162456399941522
  0.8199468646539148  0.6523177163039295  0.5245520821954408
  0.6885729499094491  0.6817142238950828  0.4808358847485905
  0.9844818206390411  0.4251317732613811  0.4907376529901188
  0.3139422600377783  0.5136535905601162  0.5113091096900215
  0.9371431132964727  0.4512006852668899  0.5139539561615479
  0.6872950817126445  0.8994031511586510  0.6364533730374297
  0.4657088424697590  0.8651291758118349  0.5806644430451688
  0.3670549481631558  0.8193244133465480  0.5590958412003598
  0.9917541382925655  0.6583144161129340  0.4737109909667092
  0.8020242423836997  0.9236889539521815  0.5101552010019332
  0.0211590506472805  0.7542301245973079  0.5739993385170611
  0.1206624351982019  0.3037292497400820  0.5282619265075301
  0.1147116155248979  0.1448461569321512  0.5499971586243297
  0.0901743237862263  0.2493761005267575  0.5824433673602696
  0.0930734622488953  0.0877724209908957  0.5087123052132715
  0.1354630127599873  0.9989698962150174  0.4832160555726749
  0.0407297123622618  0.1016601223445222  0.5377128074669117
  0.0679643242286332  0.1419924611699575  0.5886797491497208
  0.1770866354457148  0.9954792261870555  0.5390198552429822
  0.9658328654985919  0.9617127063773322  0.4988626927140730
  0.2926864100566689  0.4550364747171853  0.5605525515832379
  0.2609979364593811  0.4788649582696774  0.4955514113866324
  0.2836599559214832  0.9271537954193025  0.5386994351176754
  0.0537936200131469  0.8142010996037177  0.5778674844764152
  0.1461646921678583  0.4092624103662228  0.5715753280604307
  0.6687507260262028  0.1088656595221934  0.5249233333624286
  0.8141890182740389  0.9184204618111839  0.5752564894739561
  0.6608221146598158  0.0354541555597106  0.5370900964408771
  0.0422874138505831  0.5318489500185847  0.5315215247193303
  0.7570396284486407  0.1038179716228099  0.6014070123328721
  0.9984240449355497  0.8034798720206741  0.5511318753328145
  0.0065675922219248  0.3532049098253894  0.4791891659287550
  0.3416446221100740  0.8821451881921640  0.5340215859711031
  0.0830559104974897  0.4164501743526187  0.5627185028384518
  0.4736820032353122  0.7080977140636696  0.5606604428968762
  0.0506350508933192  0.3666630421491459  0.5434954353181701
  0.9705153403174031  0.1066562052429524  0.5718179830486256
  0.4540468484961963  0.9767313600886187  0.5515034914433353
  0.3866004866865780  0.4191594852947304  0.4598058601778646
  0.4332203162257025  0.3394315336738755  0.4520509038808427
  0.1446312839474314  0.6491301423375553  0.4789175079615781
  0.2971444079812082  0.5186917811475594  0.4511655526189320
  0.7174086300206666  0.5021632406828247  0.4274052838225778
  0.7687123213675237  0.4574060589662630  0.4614335406349644
  0.8962290577735477  0.7637849268986142  0.4681081252912390
  0.9481139410533254  0.7282952811432020  0.4931767021263486
  0.1884311551171064  0.5189373809870252  0.4116902155487606
  0.3791237313388656  0.3089392523341495  0.4447380556568148
  0.4326656721558589  0.2788869912943689  0.4698718027509070
  0.9861246762053831  0.6134589252468948  0.4293431114494497
  0.9664273629010555  0.1942670346751746  0.5037015953167162
  0.7982295881670785  0.2903190191829674  0.4201114201087297
  0.7108364484293537  0.4409458304647608  0.4419084505415360
  0.6222327880668946  0.6100569627133801  0.4802232037156303
  0.8522475621156660  0.3708840029495397  0.4728418785957236
  0.8084222592124111  0.3995861631864268  0.4394733636447787
  0.8481674131057430  0.8369914495678344  0.4905671928872130
  0.4018592693426164  0.4662988969369658  0.4966616558432382
  0.8047610756993749  0.3517806644298948  0.3994130469172990
  0.7252646798054811  0.4234985098893077  0.5001270535392168
  0.9425091576338513  0.6874189802465317  0.4467267342361560
  0.6706199921805961  0.5188701691528019  0.4617914894208129
  0.5854777876626861  0.6712592787436444  0.4977529566391219
  0.8528715266629170  0.3221817121385125  0.4319734631308139
  0.4219924360575815  0.4084498602796655  0.5057134496724771
  0.0962822280386769  0.6742424056479286  0.4497201925192481
  0.2690041317450980  0.5132762913115539  0.5489405650729473
  0.8322271828372368  0.6714131253882368  0.4713743421937239
  0.6731290981700648  0.5816259931216038  0.4483566702626320
  0.2460633336671100  0.5355785302322726  0.4833794187911109
  0.4400250772867764  0.3962644380029423  0.4266096774595253
  0.1173371449115237  0.9035378057477219  0.4544701821989989
  0.2458622603129820  0.5505546865148159  0.4212864527157694
  0.3546130147336750  0.4929966606847711  0.4733629119947724
  0.9045652915479975  0.8691587008697926  0.5012644073716975
  0.3004086913091748  0.5692626230091536  0.4920651072635211
  0.2479060012512725  0.5932035305182366  0.4661155594042290
  0.4020051295924579  0.4781886077600833  0.4374946425722517
  0.1929866234742190  0.5620158880123057  0.4541365385582247
  0.4478103449108463  0.4419783759025371  0.4623683262218219
  0.3553532919864485  0.6130894952998703  0.4519853459019573
  0.5404909712495394  0.4040278954825042  0.4650231628517992
  0.4979504718879952  0.3443870629047373  0.5369819324325138
  0.3225888243606236  0.7230644938110394  0.5126453277584901
  0.2381465085032765  0.0137042199043571  0.5290126254911347
  0.9518831690551455  0.7922818749273479  0.4839686354185498
  0.9554598783995991  0.8393653571561699  0.5268998110413258
  0.0533365898040099  0.7509672115871671  0.4690547987063570
  0.5249475754325635  0.1240943796260501  0.5811868972570694
  0.1028564226096008  0.7346638076709014  0.4372718543813414
  0.0563436143566056  0.7940877706232873  0.5193842417311513
  0.1509971142967651  0.7065878131601515  0.4650258679882185
  0.0763810737719795  0.9776934216114855  0.4729027426426576
  0.5283530620264434  0.6953319462689336  0.4788040925940126
  0.2332168504472204  0.2032665993116292  0.4834781767735701
  0.6304291494585801  0.6660436222092704  0.4589838534915085
  0.0308841215101032  0.5246514966058980  0.4719797752862255
  0.3390140167893670  0.9623303085297843  0.5203448590658805
  0.3089740351046737  0.0804255680623800  0.5786325242433792
  0.3864421259119473  0.1793422448501173  0.5892266900650962
  0.1216709807649449  0.3692030832901551  0.4453690376479060
  0.2867626871059083  0.2325252597457732  0.4912386298425545
  0.7076207731574428  0.6580511907416180  0.5355445702153389
  0.7716954651629954  0.5055050694442081  0.5008754389266000
  0.7050338986639845  0.5520402381719878  0.5140996866034154
  0.3733435532483676  0.0738624824661560  0.5940554420887044
  0.4499928029872576  0.1757130281069670  0.6085576672328441
  0.4257685651011759  0.2101527602754491  0.4812976855180972
  0.3586780177667620  0.1200520446073016  0.4921627101564061
  0.7055901355568234  0.2060727431292428  0.5226870962194766
  0.8540005851914965  0.4395075656463325  0.5406625711627489
  0.9504823116187240  0.4834850929174090  0.5671792137614635
  0.8793610748050588  0.3808405867225447  0.5537887935567487
  0.7627937996875626  0.1079998751077572  0.5370818073926648
  0.2744768561720859  0.3047541700787877  0.4073804744353959
  0.7143412877343259  0.0585233101061486  0.6073082444886494
  0.2300521831612339  0.3808672620288367  0.4201850967220737
  0.2724995254106082  0.2434696811748556  0.4282266629739526
  0.3285464001660550  0.2185913208605862  0.4520093114622728
  0.2199101189947277  0.3547075301332257  0.5509906017876641
  0.8762829201001615  0.4725042438545813  0.4894481292907283
  0.3562679556169098  0.0708796948262623  0.4576328440368096
  0.2991378737819382  0.0433109846794654  0.4635091057620578
  0.2526944714541122  0.1391421493219919  0.4858569568352965
  0.1688255746433130  0.2791889594204227  0.4942337330361329
  0.6780515757717450  0.6414298853851287  0.4316275916188989
  0.6675858136000247  0.5023286169548483  0.5214165794278615
  0.8717997376059455  0.5336905934902596  0.4713606080503154
  0.9784182856891290  0.4892692694298618  0.4677932866217784
  0.7812837612971046  0.6559327493210210  0.4044950111722168
  0.9542101282826994  0.2554329186763853  0.4874745073567233
  0.7080325075011887  0.3901402328634439  0.5511341550045404
  0.7554658010301589  0.5642613064310312  0.4792601913878031
  0.4093791030002302  0.5263061498387087  0.4845331675271350
  0.7292644412636851  0.6167762826223937  0.4607296774675557
  0.1681843201611353  0.7434422729593140  0.5105778149905502
  0.1621709094058748  0.8090569715065073  0.4945345855309478
  0.5795276166214267  0.7349433922658594  0.4818504909636340
  0.0997665287055652  0.8649389611757530  0.5823404958638541
  0.4641175820664968  0.5586223571222383  0.4958243697345032
  0.4799188566642926  0.4027724485336650  0.5213829239232521
  0.2111223385749362  0.7356038498658468  0.4702572543166531
  0.1069134854446927  0.7799076733854969  0.5884233609672397
  0.5828059488869283  0.1931012096948013  0.4885390355914060
  0.3722721801470269  0.9714233152445599  0.5818708324065648
  0.0653933197943318  0.3378722013087025  0.4460542928451500
  0.1678523325116610  0.2861765407113684  0.4329593807345578
  0.3665557947983161  0.1626755624005044  0.5329918541186170
  0.6824124524908202  0.6111597016358457  0.5010863422001050
  0.3957800230465279  0.9929188973006398  0.5263278382671787
  0.4110655378434266  0.1246029644426613  0.6037616454972591
  0.3067057520189392  0.6891525477193052  0.4626703449627969
  0.3501637508147111  0.6159849104292493  0.5545911728732650
  0.5339872222786535  0.8004808083514426  0.5626150162940158
  0.4293981604073335  0.6644243195125936  0.5540497431005640
  0.3178651578684017  0.7476035326641283  0.4459412612663713
  0.6418355021572580  0.3547661419728802  0.4576864244031634
  0.8409667543257557  0.7310564756627822  0.4572393187874279
  0.9317148281011233  0.6269136794217064  0.4593286570248192
  0.3449418736389138  0.4603268068968936  0.5258485055560416
  0.3097370899207577  0.4090479725088649  0.5189363244550782
  0.2258120372096683  0.1145856098930573  0.5374739480157416
  0.6027024577776605  0.9599640425398510  0.6043778015251567
  1.0007777872646675  0.6423735719877863  0.5336030568540391
  0.5212928253356945  0.6263285780048384  0.4931000920221301
  0.3142897026631193  0.6668974119913302  0.5661333866643107
  0.4480703028768887  0.7574697889765827  0.5993304087760177
  0.8727625111740234  0.4881321391801490  0.4293825555410978
  0.7725537299507566  0.5247021037345805  0.4398591947647862
  0.8681830149050974  0.4277329951359839  0.4458449726266485
  0.6335834301144853  0.7708992914288462  0.4904725299870710
  0.7603160073430063  0.6629952042637995  0.4954361322300184
  0.7318429186861283  0.6741026062591018  0.4387289331074178
  0.7949610088236102  0.8041303977560658  0.4867227295701953
  0.6444183581898633  0.8744609848109858  0.5236662395786509
  0.7915600728007037  0.2793417390579927  0.4829951982600613
  0.7753199344828628  0.5945760156368706  0.4236694200463442
  0.6955591082361413  0.8442312760900633  0.5477159619342835
  0.7533898564621451  0.8699263299347246  0.5631916186813908
  0.7995351168495626  0.7154929406707501  0.5035466620160873
  0.2208285131874625  0.8503970282956538  0.5031659326959106
  0.8945027041228684  0.7031941923321046  0.4814875235610512
  0.9881859123253036  0.1332340489118027  0.5144884298824288
  0.3722668618670454  0.7798802419172256  0.4559139164418268
  0.5049471117866722  0.1253598704639133  0.5223499331684177
  0.6967667723539801  0.3834121356903262  0.4631089071552404
  0.4114376800486592  0.6443214189060817  0.4519873540792924
  0.4707872171835151  0.6763541371707985  0.4571532738893295
  0.4621013597311884  0.6169786844931657  0.4759456731814361
  0.5600403508721105  0.5248578401659023  0.4230860621277435
  0.9086873509210689  0.7450053278896515  0.5901543099683021
  0.6063021052652063  0.4365557595744297  0.4633640056275811
  0.5090921002326526  0.5389382606527878  0.4583043561284383
  0.8234694528334903  0.5644040989595145  0.4471844839317655
  0.8130591566781226  0.5509837279363585  0.5050158309646573
  0.8504751398922636  0.5987601380518917  0.5074595025692111
  0.2967607327602527  0.9828354596302753  0.5586398434802320
  0.7401407186912573  0.2421933626246698  0.4775040526799151
  0.7408869801643030  0.3064006450607783  0.4588283678922853
  0.9268277530119091  0.5188274279858952  0.4386639897512156
  0.4232313104952237  0.7502301082941210  0.4791999267673170
  0.4581333309506919  0.5670000306487119  0.4338548966656981
  0.5385446666305999  0.6663816087428881  0.5364628546809401
  0.3959723774449611  0.1110747098694933  0.5439799967952288
  0.5197417475452044  0.6582283523259501  0.4265045034216853
  0.5655362622521622  0.5847535254505533  0.4081750404383016
  0.5132445939211064  0.5974170202208920  0.4412123924213291
  0.4250808342057175  0.6881463201551581  0.4949976142720055
  0.8300022791264574  0.6257942600235940  0.4301606303804890
  0.3685423461192999  0.7161536807432841  0.4729077046224433
  0.9259829635785775  0.5657182883551585  0.4810150402885806
  0.3262414410464424  0.8524305027401134  0.4781924373179137
  0.3217468326605144  0.7861617542119694  0.4930149652323694
  0.6495740342498881  0.9179612738101891  0.5728110695344957
  0.3889318584693931  0.7656788588763167  0.5779192803919959
  0.5295372839562429  0.7079654077034631  0.5785264317835760
  0.1389772554668481  0.0452069990801693  0.5247509487502793
  0.3278923317369852  0.7706758147292678  0.5565774577912584
  0.4435893809735514  0.9188534559651510  0.5611878077325650
  0.1977539304282389  0.4119364130054146  0.5341151464525563
  0.3595507456151749  0.5753884710960865  0.5107220330036979
  0.0455282025974583  0.1647442338377114  0.5247733189918400
  0.5963875179118860  0.8126170857805195  0.5788204712015032
  0.7616795798588019  0.8478933522220210  0.6258132562730141
  0.5844667861581451  0.7790377133938844  0.5275331017357759
  0.3119988663383003  0.5629008431110117  0.5525597662409263
  0.0259623303328629  0.0902106271367661  0.5945255001198169
  0.5296970768435763  0.0086454914323125  0.6266109487918097
  0.4253026329396654  0.7332528184180913  0.5394808461597285
  0.4818512083101829  0.7672302437067513  0.5508841678596891
  0.4861886900674132  0.8080698072904002  0.6008857377148965
  0.5499920613996838  0.9781710527068547  0.5202737141715970
  0.3776676698408751  0.6922712640940125  0.5328240748113096
  0.4799002330065874  0.6643770743836931  0.5162346964416367
  0.5490873757163723  0.8013930331294568  0.6233830403593745
  0.5872561245391021  0.6986586515200707  0.6011151344481496
  0.5660189651649734  0.7559144393221269  0.5827317246477024
  0.3384139760167915  0.6547231507794153  0.5052381330890507
  0.6457210183486618  0.8587261764595109  0.5858642407261692
  0.3740047881266749  0.7615293914779565  0.5172488793938573
  0.3064873886886609  0.2455943160179905  0.5481176959622208
  0.2641946533280289  0.1929640746666635  0.5371411826713914
  0.3851274391332233  0.9503006329146294  0.4774939054908570
  0.5026292523035634  0.9142798391374531  0.5809983487314415
  0.3757892372489804  0.8250678919003051  0.5021991734016887
  0.0088109099316019  0.1515717109205638  0.5738473550999297
  0.0486789883480065  0.2018509474462542  0.5771970830877177
  0.1393578083418162  0.2504059266433831  0.5447351596799704