 B Cr Ni 
 1.0000000000000000
    21.1200000000000010    0.0000000000000000    0.0000000000000000
     0.0000000000000000   21.1200000000000010    0.0000000000000000
     0.0000000000000000    0.0000000000000000   21.1200000000000010
 B   Cr  Ni 
   9 259 605
Direct
  0.4182973726913807  0.1673134871097562  0.5009690926056447
  0.2486028792067220  0.5848600925782096  0.0831751431656002
  0.5814142035047517  0.7504014196898985  0.7507398093860749
  0.0020920487583446  0.2461927261612676  0.8357524181286817
  0.5734124031250564  0.0949518222826693  0.5772090122695926
  0.2465200110539656  0.9171976181694248  0.4162110201261462
  0.5003851577402380  0.8312948082091524  0.4152121345103814
  0.9941892166964647  0.7515340143682326  0.0009921552451379
  0.6653050233826627  0.4177388789975969  0.6676241357471352
  0.2508403937492374  0.6682890849314598  0.9141703588480363
  0.2499632307955570  0.7500721650167291  0.8322867533411937
  0.1668814475676811  0.9181822522000175  0.7510595072869530
  0.6655334413256351  0.6672204362675275  0.9999786878412503
  0.3336423349927079  0.9994946920733592  0.1677539740683574
  0.1642831414258031  0.8340693104620428  0.5024827376847452
  0.6691092483271032  0.7497201190876562  0.4159211042138853
  0.1643630177018379  0.9174353165730322  0.5845393229225323
  0.2480300445247312  0.8325553948175350  0.5835777819192820
  0.7517205651961416  0.7502838139212603  0.4994807529382376
  0.7501240908537824  0.7502492875698695  0.0003803622853280
  0.6654235760473965  0.4175809383393183  0.2490971445792271
  0.1676904330573698  0.7501223329124821  0.9170621193728569
  0.2517116456784133  0.6646649166240410  0.7514550656351123
  0.0871896253846431  0.7510174450425714  0.8338266425956790
  0.2494720522559179  0.6650668395150066  0.5841414111601206
  0.6665308634752942  0.8328772119461666  0.9987568584199218
  0.8320377289209349  0.4168025667702754  0.9181551395455110
  0.3337049248633694  0.0837381067470193  0.0839218825588528
  0.3318522945151586  0.0838037565863590  0.4155394459973527
  0.6660208061875466  0.9161555418819393  0.0830574933223408
  0.3315679175983970  0.3330961256373632  0.1676460815335983
  0.7498255870558544  0.3329054365694918  0.2493381290896676
  0.6666575592115634  0.4182840296662374  0.4141034115231558
  0.7518504532490469  0.3338592177365644  0.4120677661905637
  0.3279629425241360  0.1666729605144889  0.6704384144763046
  0.7604986870974528  0.4176186085371298  0.6685065154585853
  0.3325299535309692  0.2502098191790562  0.4158260670502232
  0.9999296971161038  0.6669422310600033  0.3320101636863997
  0.4161504978846041  0.2497170157409919  0.1658283251401160
  0.2495625500109354  0.1653929130686860  0.7516194283257648
  0.7501397215575309  0.5006254557347998  0.0833979920678199
  0.2492289511114698  0.4164912788492903  0.3337227570174869
  0.2493481476626569  0.3325258494848283  0.4157543236505787
  0.2516534313931976  0.4149522136426563  0.1667521595565564
  0.3317499612165627  0.0823952850369115  0.7515663970534191
  0.7494346266545349  0.5000740700366274  0.4153567425533772
  0.3315096847030570  0.9999117853593881  0.6671988795160789
  0.6671983820800452  0.5006957279701985  0.4981087778922241
  0.6684008983999371  0.5846105041138215  0.5835918276475561
  0.7512519153334661  0.5004563157893943  0.5836244265070912
  0.4163566404879822  0.4160575029857201  0.1656114110934385
  0.5022141013335858  0.0852262234603792  0.2495847008209544
  0.2489101053353124  0.7490615240073677  0.3311717443162184
  0.2488306261916850  0.6674618709989736  0.2515530560047177
  0.8343231496291479  0.0843032437463364  0.5847456226855832
  0.1659063943611535  0.4170396157993572  0.2498915665218049
  0.1661266391196974  0.2493470901607906  0.5839694959729065
  0.2492519477518833  0.1674579904570009  0.4155040862388545
  0.8317719935474457  0.1665428538553176  0.1638907679600018
  0.9167692791542098  0.0011210103681214  0.4151621425427947
  0.7513797716538265  0.4161442257060158  0.8358000289603511
  0.2490758035682288  0.4174305106604873  0.4991868504705941
  0.1628608348776179  0.7502435318766950  0.4183277762616648
  0.8357430169530745  0.0842173583475819  0.7481957179278272
  0.2521243270752199  0.3329343913466543  0.0830263810820987
  0.8315174914345824  0.0022235336605940  0.8333634520380767
  0.8335658661562094  0.1636297086549842  0.8339824769008294
  0.1671635571684017  0.1647698538975632  0.8350291369974202
  0.8319295975996137  0.2493196607165749  0.0843309419711974
  0.2476337247710176  0.1663704360315381  0.5854494596489748
  0.2489820694141602  0.2506813255261889  0.6669903219999515
  0.8335000465270490  0.0821953310856608  0.4144863156183733
  0.9171691597161181  0.5842503698807893  0.8348517751869200
  0.1668329335741765  0.7499001127678259  0.2497391948213224
  0.9992219009509734  0.6651608761092139  0.5001498762218152
  0.7497541566978851  0.0832598942317969  0.8346333121909991
  0.1652909172072528  0.5825414093525023  0.9163336414756216
  0.1666743119705174  0.5005233761052863  0.8325297815119279
  0.7517465644440192  0.8334860535465091  0.5824931234783780
  0.6675945691136448  0.8327344232288938  0.6666804243152050
  0.7489540703947722  0.8337141371800606  0.7501882344743869
  0.2502921064519067  0.5828331827532552  0.3344142371618100
  0.8315870916971470  0.0822840056757587  0.2485276167403169
  0.1676918436073583  0.4169390513495445  0.9168279692191630
  0.2500664541129542  0.4171338499168167  0.6662967895957216
  0.2495484395071899  0.4989560382917308  0.4160487894620822
  0.7487619435505926  0.8335961317802957  0.9173537985653101
  0.1659703873414511  0.5825052509539100  0.2505845164463764
  0.8322910112853756  0.0828577549651172  0.0828715899020486
  0.1672698236014934  0.4169628457016681  0.7511983939335641
  0.5010322700203447  0.0010729306390229  0.1661661365635508
  0.5798755985754630  0.6644341388809061  0.9174956509336889
  0.4963261432936567  0.6674316556298404  0.8332309531667098
  0.5813448195080446  0.1675788291791902  0.2495650518543186
  0.5021816725975480  0.1657136663051925  0.3309012514349692
  0.5005109172656255  0.0831776887563769  0.9173947872780192
  0.5144598547058173  0.1617720420181054  0.5045360395754354
  0.5843133926665791  0.6620981802178164  0.5810836101969167
  0.4154978369243331  0.6656278827000475  0.5827747380775447
  0.5918332037537639  0.1861411823902445  0.5837089577002961
  0.6683439423059062  0.1697641202883191  0.6694151959845182
  0.3356383116924427  0.4989116390448317  0.9989669129642351
  0.6672294027142809  0.1670738924761558  0.8347775780605797
  0.8319448292618215  0.3334018967913333  0.0008287235340783
  0.0005519697460749  0.5018879853959645  0.5022651759027590
  0.0824407300843157  0.7488786164162495  0.5012834630802246
  0.0836406537116782  0.1679941080035808  0.5852034298087537
  0.5839234604484572  0.9957319397318979  0.4143891855134502
  0.4156288564607545  0.0026880427147583  0.4143583081604501
  0.8327777242248989  0.6659393503974851  0.6688038314483944
  0.4999441574692111  0.3323759189555678  0.9987927323114516
  0.3329983658807567  0.8314013702285967  0.8343516523683497
  0.4143939087433307  0.8336195852923560  0.5842314659785794
  0.7494787133243044  0.0018094659774529  0.7501762224537397
  0.5849199666306202  0.9983220586037600  0.5839010340872369
  0.5918849907982771  0.0781434922514462  0.4856749450529483
  0.4979255192457452  0.0835162359266996  0.7507243420693801
  0.6675312506234194  0.8325058929463415  0.3310920375920550
  0.6683012951478646  0.8325361180674269  0.5011448859495219
  0.4991447584195039  0.0004261064292137  0.6699409166509130
  0.9166481460974922  0.6648355075787417  0.9152589404619964
  0.4169131298278470  0.2501301106225464  0.3318178293065911
  0.0818053822088489  0.3314815785597817  0.2485077590678397
  0.5838546530254428  0.5833126848208008  0.1658692897987497
  0.9170037874904875  0.7480958815768370  0.5004622540633363
  0.7509726125982020  0.6651655080958184  0.7507000690118893
  0.0013822876656707  0.3336051529017349  0.3333435424411538
  0.4162300753166251  0.4997090095889143  0.9178024621083015
  0.0832581144466645  0.6672606927879293  0.9165269721203977
  0.0829985984244320  0.7495492534357029  0.3323650897428804
  0.0829131812898451  0.5011775758488451  0.4177093282264200
  0.0839284676089712  0.3324587527119601  0.0837719138701163
  0.9143323589914664  0.9168410317778095  0.0006071830947188
  0.0015491857955259  0.3326150427643629  0.1664767784427055
  0.0836146708197473  0.1658949749212883  0.7508609100474681
  0.9993749454805677  0.4190435484261060  0.5831291870438429
  0.8325445368323839  0.5011341053574510  0.1664634595465747
  0.9155714722523171  0.5822940878300864  0.1657391820376114
  0.5002810492865889  0.7487839422476479  0.2482851356964079
  0.5839766451211602  0.5013909457584400  0.5830551757047679
  0.7542434875310143  0.2510801943026679  0.4962090698722242
  0.3350083508166190  0.6696338297469873  0.1682065017487589
  0.3340870454471688  0.7509902363925748  0.2495107339819165
  0.6647569882057598  0.1658192514568627  0.0002432266248163
  0.3331863979873172  0.5831818336703480  0.7490930407677578
  0.7477535089605442  0.1643993311952406  0.0826752234886745
  0.3307595594525549  0.5830141603742430  0.5831647298863660
  0.4163640105727647  0.4997831470714957  0.4151875177141456
  0.3332933892168572  0.5818802375917139  0.4161179476202664
  0.4168920436379959  0.4982819634939739  0.2481452491100747
  0.3362363346628949  0.4980847228247634  0.1685148514076442
  0.7502779589218774  0.2503261991697499  0.3300193358094251
  0.1662381232136555  0.2489937679446644  0.4174064014977642
  0.6730994303328779  0.2532662493567935  0.5821140422525258
  0.4171899793539863  0.7506835977344124  0.1657218690012174
  0.4144126450121139  0.3335970255798085  0.7512318191925051
  0.4148670546438878  0.7512339739331934  0.8335772694319540
  0.9997353929721288  0.8333168959578928  0.3329500690245161
  0.7497034502111373  0.0824688381914327  0.3297761589872669
  0.3335355787943413  0.7526602956444444  0.9200725330100422
  0.3362091969755561  0.6660654074726021  0.8326010455980527
  0.6717477357448163  0.0834577066042669  0.4115410317571794
  0.6652804816429587  0.0000492899515865  0.6664679337198701
  0.3416442423954560  0.9206351475607411  0.4156534422458676
  0.3337213758238161  0.8321134957077321  0.3297306349486623
  0.7487478838522772  0.0013596145890134  0.0828446390149405
  0.4169037921427340  0.9176822908903994  0.0008918260159378
  0.7483244723568748  0.0839321751536552  0.9994409712694160
  0.6649541485490793  0.0827127838246750  0.2506926251400868
  0.4156322089817725  0.7491939252035099  0.5023356665969153
  0.3336578715703445  0.8336967640276602  0.1666619664855453
  0.6703014290280824  0.9960725545608023  0.4998979718624328
  0.5811096323166632  0.5824076453631548  0.8340608024627795
  0.0823436671782728  0.8326364016579278  0.5841719904247196
  0.0903872782734974  0.7515776942436418  0.9986828397798787
  0.8330660885789409  0.2519172886077960  0.2478215649893960
  0.0812395692610628  0.2488224966881979  0.3305364968824443
  0.0800209240328722  0.8338572518167642  0.4147674130430714
  0.9988426770513905  0.9177824708333655  0.4160370271059872
  0.8329623390717257  0.7498181554666886  0.4146506355213663
  0.9174022026646421  0.5007463313902779  0.4155499107526312
  0.5829893599376833  0.5837372158741696  0.3328358113514259
  0.0824256584339794  0.9994288144456719  0.5839906682857798
  0.4192877657122226  0.6659490197926659  0.9178992414585996
  0.7469484499560155  0.0013985964784996  0.5844491901328984
  0.9155227149138180  0.8331760565054126  0.2478932523011939
  0.8358124060226994  0.4195459599232542  0.5848133109297035
  0.5840226553596658  0.3289516471531172  0.5825158454966035
  0.9159656539471207  0.9167642967407071  0.1655455026141031
  0.0001265394705916  0.8356698769475807  0.6668483599397498
  0.5006333646427008  0.5815751343128724  0.9192809745930471
  0.0844678967141336  0.2498393553564610  0.6668685464419647
  0.9180512237153347  0.4153747152209098  0.3327446288770416
  0.8340472165605876  0.5827182292148738  0.4136197128355034
  0.0834633973063939  0.2493802250386650  0.1652788501696814
  0.0001062256068572  0.6668800829269261  0.6685224336650022
  0.9183200596313417  0.3331166436620173  0.4161691618567144
  0.9992450287066210  0.1653728827931957  0.1640379435445216
  0.0844722300166010  0.2503370997334113  0.0008037457340379
  0.0842968010214834  0.8354550684274865  0.9161653086812376
  0.0822366772671756  0.1676120375571450  0.0841970490520950
  0.3343002248367682  0.9168416330746078  0.2474933375538419
  0.0831749648485668  0.9175551259673581  0.8327793258066664
  0.4968503267623330  0.3312323704719966  0.6706376212341838
  0.9168493947998607  0.9991612077856445  0.2480995071939892
  0.9136915191650271  0.5000448486275041  0.0850392333870203
  0.9994918452698979  0.7504623160823736  0.7494362327712698
  0.4985083113132370  0.2511235241478455  0.9179024176690439
  0.0000251471137371  0.6646557873447897  0.1663451521677103
  0.9153313518030628  0.4176322916569194  0.8356256436138537
  0.0819084472259417  0.4981793229996945  0.0835199606201913
  0.9171803276884644  0.2504563831399034  0.3331077961955341
  0.9149739925065139  0.7500981404975565  0.8319331673519621
  0.9164168821397299  0.2506460973129354  0.4995623813113068
  0.8342875798801160  0.2511318425154480  0.5831814887529282
  0.9167461696189141  0.1676090113698981  0.5829495037284161
  0.0000564701612362  0.0827563786761216  0.0838622522241560
  0.8342870164562423  0.1670668774348336  0.6664414106936779
  0.8341320962729200  0.8345113398578496  0.1667941092147846
  0.4991236558268394  0.4158985497674734  0.9173559347522087
  0.0827512026258262  0.6677605372897137  0.0845585835400957
  0.4977928748216205  0.3337374538937322  0.8323927657395699
  0.8338217630824538  0.3343124325669022  0.4994189047414442
  0.5705975101463899  0.4139911606293937  0.6633218227108409
  0.6701372399242924  0.0850223081165205  0.5824148780693759
  0.5813941887354410  0.5825273525301518  0.6656475597811876
  0.7490451550762232  0.0002464696516513  0.9173776817025676
  0.5810125607136991  0.4178827043714007  0.4992050632343342
  0.5839408782740765  0.2531950366955433  0.4967239752751973
  0.4985706771738170  0.4163154116086651  0.5823145231250531
  0.4162425679969978  0.9159353517408213  0.8342158968456593
  0.5832516551345057  0.5012053311857829  0.9172007401009427
  0.4978696097069034  0.1687335003792057  0.6690117139802789
  0.5833299676017277  0.4171524253893101  0.1663183808847833
  0.5839550014727135  0.6673855306740525  0.2502472539800174
  0.4979992961811018  0.2510746854590651  0.7531440459431342
  0.5828106121180440  0.5812945893842116  0.4986512470057483
  0.3313405615702441  0.8332918726290444  0.6661576342589587
  0.6657151387925369  0.3337228051412853  0.0004818754477300
  0.5825101589666268  0.0839686502519338  0.0007716411712052
  0.3346056529773492  0.6690817812191706  0.9969646013671971
  0.1676708282155838  0.0834761248210881  0.0831921972861365
  0.0818421915291516  0.4992604278603025  0.5842255719284215
  0.8328360058443041  0.5841322115282930  0.9167371030960136
  0.9152004243171157  0.9173833415055690  0.8331187547230724
  0.1652009242566350  0.0815673692589821  0.9185768178934471
  0.0811001833742898  0.0014241210766991  0.4158289453699094
  0.9172848142083883  0.8332408172789456  0.5853344230441112
  0.8357820241635583  0.2476820669785339  0.7503995403384185
  0.9178436220167269  0.5011844288754110  0.5846384107090488
  0.9155718700995704  0.1656111499960344  0.7501211203690215
  0.1661971917794351  0.9999865199965613  0.8355682300974691
  0.9997361302279034  0.5826678509681616  0.5851155682567661
  0.1669868145013613  0.0002103608543492  0.9993836851127111
  0.9990690779204333  0.4156712867651474  0.9179795090318322
  0.2490900914351431  0.0012316315543282  0.2471604600378809
  0.8334547881946193  0.5820982498943602  0.5837512549062954
  0.9154205211653790  0.1677338311652802  0.4161339704895339
  0.0827045095978201  0.9981338157179096  0.9179359604824490
  0.1653383812929924  0.0029919508485647  0.3300008550523164
  0.0003081894629155  0.0810678383532647  0.9188550970671335
  0.1667508070564702  0.0007272414545739  0.1656429079042533
  0.8323230724927371  0.3332231390548525  0.1661509331113236
  0.8323052760332180  0.6658407528420893  0.1673214248496887
  0.7513123806846849  0.9145782913012522  0.4997379278721173
  0.9986834588106143  0.5829592515439344  0.9161842199153907
  0.8343276869461674  0.2491020830120632  0.4123575550198077
  0.0830602413202471  0.5836897133708124  0.3330318594670691
  0.4990698576516727  0.9170656027134240  0.9171106164370576
  0.5830264532101374  0.9177096066395173  0.8336736707023951
  0.8321457820207522  0.7508379224831025  0.7500050182013192
  0.5827278893496232  0.8349788431906722  0.9177465180239718
  0.7486903559463572  0.2497898387943266  0.0008925830141790
  0.6653312690229138  0.0002837548434838  0.9998304898374551
  0.9163390991212940  0.6666007747613873  0.2488860101824588
  0.7510759285981792  0.0834059750457084  0.4980064533260189
  0.8333354858856475  0.7499505932105331  0.2492246722999678
  0.7494293687344402  0.9995089874565992  0.2488000397215832
  0.6661925625624553  0.9996294699337278  0.1660813674169097
  0.9148904929509003  0.7491774918175194  0.1670933806882727
  0.6661749237710812  0.0845603632180330  0.7507675706829917
  0.6654400065502822  0.0822589575703665  0.0835333035521468
  0.6658854930112003  0.1661198632733390  0.1666188496106230
  0.9060711350830651  0.7487846328694903  0.0000220254856776
  0.2491697458334787  0.9172126322294335  0.1658128819602484
  0.1651519418444603  0.9178326344848602  0.2486703498708138
  0.9157379072795550  0.5005649573226052  0.9173400527616002
  0.4153866470778629  0.9996925629540270  0.7510189641774008
  0.6650716078908504  0.0834918243020713  0.9171970341032664
  0.9154020916729058  0.6660996458271609  0.0847705219755581
  0.6674896265025742  0.9982301803906716  0.3325225586235782
  0.4170200295990448  0.0833464831449871  0.0001872638704610
  0.8310266280820692  0.6651239846932363  0.9991961935331957
  0.4171485201855574  0.0007605626176043  0.0838024146331299
  0.6656255956698721  0.2499696799550612  0.0824187282107742
  0.1664018564044121  0.9182239915254494  0.0837585797130550
  0.8335898235651942  0.6664888217666596  0.4994363596742097
  0.2508725349507296  0.8342464472860333  0.0840527271167746
  0.9162987708728249  0.6661722526725383  0.5845133489295570
  0.2508957452661774  0.9180178667076488  0.0016636439440622
  0.6669353200780224  0.0010064869146437  0.8335072965435106
  0.1654548773345932  0.8335856460815668  0.1664001503026245
  0.2489342452756040  0.8338287972577035  0.2479661821466564
  0.5007817757500918  0.6665317659399298  0.1665875209053657
  0.6673824452262784  0.9171138279207151  0.7500917620438642
  0.6664507653502310  0.9159898139891122  0.5850096991613744
  0.5001992897972264  0.8350726848808335  0.0007117449520960
  0.8346317959111299  0.3356476223356926  0.3314438570857454
  0.9164474367880499  0.7498191062553297  0.6675175219381503
  0.9180785720014283  0.0823877387115016  0.6658191746326735
  0.2514622759323800  0.6735871304195176  0.0836757700629307
  0.2488893306531126  0.9161958450044140  0.3270307441576154
  0.1576910368728324  0.9177731665517997  0.4161990995484744
  0.3336258652585524  0.1657950964781424  0.0002635812237052
  0.3337220281158575  0.2498632814353303  0.0833992172916148
  0.5837455140814550  0.6668400234372399  0.0839484185155476
  0.4169883299184401  0.1666711977449553  0.0832317683382358
  0.8346657483108220  0.8337576243874796  0.3322379605097092
  0.4161328135497357  0.2501402244991059  0.9994135533301552
  0.5007536004055064  0.6665471460050248  0.0008670145152269
  0.8325850966053248  0.8336231472955186  0.6671334615736211
  0.5839312914680450  0.8324467231814521  0.2484026107500747
  0.4999116040480346  0.7430705260580249  0.4176255790974581
  0.5001550587573499  0.6659068228576133  0.3319156624154550
  0.5834730502549593  0.7496178263808037  0.1670449599209826
  0.8328263003364880  0.9169235388807478  0.5839307653876870
  0.5841895268589221  0.7499409495616046  0.9998199449079358
  0.5007464707286869  0.7505168819799825  0.0837547456858163
  0.7512371464745893  0.9985000582002175  0.4151894167421421
  0.8333766858261616  0.6661559658290922  0.3327712496925235
  0.8316288791252471  0.7498946621511833  0.0853683251713282
  0.7481158133486278  0.0823780748064751  0.1668055462257752
  0.0007692520075503  0.6679330813133288  0.8321587385839198
  0.9172108507334958  0.7498570178535743  0.3322351395592101
  0.8339168680703511  0.7496798656576632  0.5838895931720064
  0.9161879847133887  0.6662135724676764  0.4155947386856781
  0.7495787195823874  0.0856095182940059  0.6681804971525387
  0.9163025103213621  0.2497471560091091  0.1654193433072948
  0.9161181307792428  0.6668807441349435  0.7510473152555872
  0.9169268630755232  0.5842211815702310  0.6686191825310618
  0.4984242688978284  0.9173847756471432  0.7501735957871142
  0.1657641402712987  0.8334176238737635  0.3331570112823647
  0.3333725463795025  0.4166607277012108  0.9179298268679416
  0.5004729669023464  0.8342688071054758  0.3264370779663539
  0.5839928513771372  0.8327219472686678  0.5835210880918873
  0.5839797426903283  0.9169682664849504  0.1666980740135945
  0.4999799663896279  0.8343683661844243  0.5049436955535980
  0.5836939400910689  0.7486401002399242  0.6608605339870042
  0.5835496842903033  0.9157160169521986  0.3309686277429806
  0.5821700772956551  0.7503790990271568  0.8399014568878442
  0.4981642306151869  0.9213544703150921  0.4167613312872755
  0.8337329524653561  0.9171395653540050  0.2492392470164501
  0.9162357074320312  0.8341231348608983  0.7497626555642138
  0.4983096171316876  0.8331149052148917  0.6648096222978266
  0.5816685246475047  0.6608431642758607  0.7498713428087215
  0.8324356080284407  0.6672925092855047  0.8329638821402794
  0.4992458922393815  0.7505688517083559  0.9184928022631867
  0.4995922097570036  0.9179530216083612  0.5847404116340946
  0.5843157722073991  0.9169882281946259  0.5003930517715707
  0.5900951208656262  0.8333660836000267  0.4157625576096451
  0.8315196819876188  0.7495414611946046  0.9145030301714764
  0.3310501842401068  0.2505635399090901  0.5841807363038231
  0.9167872000079599  0.9172046322964527  0.3315425269805833
  0.5820380354902353  0.5001429187247395  0.4153611388275247
  0.9167183706632358  0.9169302642639987  0.5002977140498096
  0.5836811391753056  0.7485119561682870  0.5005246298946486
  0.4988503425776037  0.6654950246478455  0.6650424556619184
  0.4925637456956111  0.7507306693223134  0.7477742017202161
  0.5823245604195720  0.8391151987865036  0.7501377299901437
  0.5829284111838138  0.9168563623269161  0.6667554201905898
  0.8355237913277982  0.9167572833931800  0.4157184700758143
  0.9173697247485575  0.8324578397877167  0.4160612699850099
  0.4988709833341317  0.6645620210071523  0.5003592679920574
  0.2497657449703181  0.8281287820538807  0.4172368825599986
  0.5836172084592277  0.7497001827453224  0.3327482419375709
  0.4161537559324712  0.0835248684642221  0.8340317700963077
  0.5838097879680623  0.6653833563454433  0.4168269996015073
  0.3348445383615972  0.7514402401347551  0.0832063790363882
  0.3274253956991753  0.1666460647763661  0.5001422217819135
  0.8336884602269266  0.4171949399943259  0.4151424820841911
  0.8326572003896975  0.1656790678345050  0.3299407701085335
  0.7501595323186357  0.7500687732531088  0.3324785119551771
  0.7508778575680183  0.8328598420023879  0.2490533266087859
  0.9165337416560193  0.4170624442158199  0.6678425696554690
  0.6666207130084901  0.8336162878214285  0.1661813305402972
  0.7514764917662338  0.6661283998944327  0.5832838767642465
  0.7490828483569258  0.8333096196680146  0.0826597826129808
  0.6677426365917004  0.6659595235475210  0.6675405012257619
  0.9169505762490090  0.4176697501883875  0.4984165487923102
  0.6671101917917620  0.8339835642731092  0.8336076376410759
  0.6686349805187984  0.6659721222104626  0.4980814346840359
  0.7514154925360969  0.8332609757173136  0.4155580606885241
  0.6676280599464657  0.7484586632840300  0.5827433560611857
  0.7495868384193882  0.9162706957049100  0.1658695070023403
  0.9163838814657363  0.3338432426912764  0.7516330235120867
  0.6673516385429629  0.9153592321005390  0.2492539871610339
  0.6681809762791825  0.9150035794004787  0.4156305240058582
  0.9172976070615876  0.3347613430388537  0.5835546242335662
  0.7487172799092700  0.9169632103315233  0.9999764846990787
  0.9158064609716867  0.4171917198407056  0.1659289370631132
  0.6648324512715239  0.6656235340476891  0.8345653211565869
  0.9160775729775633  0.1661255709269171  0.0830301297131684
  0.7486587852672304  0.6669147461077366  0.9169191052871035
  0.8324155126615270  0.1659768235628255  0.4993788991161663
  0.7512687503889824  0.6664909137505921  0.4152882966801901
  0.9158403784464053  0.9994723135313834  0.9169997314985819
  0.6663727600667317  0.9169707875613700  0.9164768635598767
  0.7501758893199006  0.7497852099987300  0.6663948605362644
  0.9149188485847249  0.2506253969320621  0.0013352546137236
  0.7505406401659085  0.9155017270733766  0.3321381858194722
  0.8329600492319100  0.1665567819640414  0.0013009369239182
  0.8351842087588471  0.3320192237209740  0.6671539599443305
  0.9157381019587165  0.0815360551017110  0.8347284579621151
  0.6661636192305489  0.7494962862488487  0.9168147552613369
  0.8337891581716171  0.4169941414910143  0.7530046646981312
  0.6712731689837215  0.7491375978506849  0.7506986449273322
  0.3312122542655681  0.3342563548391361  0.4991911101731946
  0.6684935902223178  0.2519771081148157  0.4146328612913205
  0.1673169824916742  0.6656931506225471  0.6673950774827938
  0.2488810051599145  0.7514894348159699  0.0002302350648691
  0.2494470350946563  0.4997110506629481  0.5831631568428138
  0.1661821729078206  0.5830817665831899  0.5833940033256395
  0.1648536090360369  0.3327097001596192  0.3333744286341296
  0.1661793444158976  0.3334145037970588  0.4999808585416295
  0.2491176052190643  0.3337598222765248  0.5834529642609600
  0.3349719960214941  0.5845988436036400  0.9160926918424629
  0.3324877095071564  0.9167652413911288  0.7503387452550511
  0.4160529441757016  0.9177361911379676  0.5018411045934987
  0.9994241804539133  0.5835676582612510  0.4165125884116195
  0.0010653979421526  0.4174424090924155  0.4174500992561160
  0.0835456907255075  0.5840031533193371  0.5001469844997607
  0.9998382752791501  0.5002756366086778  0.6667571804720626
  0.9998952486406124  0.5841648355684003  0.7506065921734089
  0.0833647357236936  0.4993222226989966  0.7508050238974767
  0.0835395659954449  0.3336500259305362  0.5842244773120707
  0.4999825656260727  0.4999059978078090  0.3318735290113272
  0.7512459838919069  0.4999198241332301  0.7521402062887301
  0.7513475451597200  0.5837997503001421  0.6677177988400717
  0.6663587772220838  0.5010753566185107  0.8341864841392514
  0.6654684123404598  0.5836534920580415  0.9172900464994984
  0.7495002424325927  0.4994697275777413  0.9172517340010273
  0.7497639000895603  0.5839301969820289  0.8349330734745994
  0.6667236008083962  0.5834516090605880  0.7512282687509962
  0.8325972122499797  0.5001740277397521  0.0003134834825491
  0.7488079462872629  0.6670863583135492  0.0837545678555772
  0.9998242483106212  0.3423486433091818  0.8349811172564346
  0.6654281164463300  0.6662757976776091  0.1668214893206489
  0.6666402571585988  0.7496782116472542  0.2497145118113259
  0.7497021906727662  0.6666746463826535  0.2494161898155384
  0.9152693770196018  0.1660990980358109  0.2481214776583686
  0.7488641348960516  0.3332968719910216  0.0831948502697536
  0.6659698690999581  0.4166122401313970  0.0834321181110852
  0.7512063202050457  0.2489751478148046  0.8345608162449966
  0.7490690779045966  0.1667235188158308  0.9182096837283127
  0.7478079829117968  0.2500341540376655  0.1657036621446371
  0.2503779509788743  0.9996203774428698  0.7512624237070417
  0.1653528479777870  0.0000731276139053  0.6680414917130827
  0.1664777061296309  0.0829664830931983  0.7519417145566100
  0.1671018612183011  0.4155157009421755  0.0836223288350453
  0.0803794052157434  0.9174441546807380  0.5005860896311413
  0.2504887261620512  0.4165549325435705  0.9995589362738222
  0.2487897900331598  0.3330945671250398  0.2507522454203488
  0.1670774012617425  0.4989800257300387  0.6675503901363672
  0.1672373105935498  0.5824460190437765  0.7506200795152679
  0.2502376546664628  0.4996197682279599  0.7498974293790687
  0.2495577275232732  0.5822300078015196  0.6666800804189901
  0.2503101738980411  0.4994094767969346  0.9157545607506130
  0.2507808983767592  0.5826063620100334  0.8341603745746152
  0.1674575871831109  0.6647116924605163  0.0000831794045493
  0.1658441814865444  0.7510292905022599  0.0842448792333806
  0.1670504529675595  0.3333743346022189  0.0007011267813492
  0.2491069701131785  0.2498786109330164  0.3338414566795305
  0.2500710893553230  0.9995378733573573  0.9178183452508364
  0.2477704015382708  0.0823491671575315  0.6677842251247876
  0.4973437036677328  0.5824854956706998  0.4142121569683054
  0.7517567568487468  0.1669435910482388  0.4135139627120739
  0.6704347057001588  0.1681132478196286  0.4959262313046643
  0.9175447387471735  0.5002717837153355  0.7523289509634099
  0.7518914213942142  0.3323754641809037  0.7515310823382605
  0.8334880811881465  0.5838140106250338  0.7520530239490445
  0.8352939382547911  0.5027714521691327  0.6693814820882913
  0.6673963648467772  0.2503014813973961  0.7544977528014594
  0.9155023752760197  0.5838256950442042  0.4996113703638180
  0.7514012724940582  0.1673027283529885  0.7508437948207597
  0.7518155794798997  0.2500698205797167  0.6680788073956266
  0.8337967847063043  0.4997809200893986  0.4988772437597104
  0.6666668748525935  0.7504042975057348  0.0826439904295287