 B Cr Ni 
 1.0000000000000000
    21.1200000000000010    0.0000000000000000    0.0000000000000000
     0.0000000000000000   21.1200000000000010    0.0000000000000000
     0.0000000000000000    0.0000000000000000   21.1200000000000010
 B   Cr  Ni 
   9 259 605
Direct
  0.5037299031588459  0.0847777204755184  0.9980774365220282
  0.2603079390146579  0.9932185263872919  0.8381173497718785
  0.5947614253100428  0.9273145844347166  0.9358143922507918
  0.4960283436120137  0.8366555222443435  0.0663517439166684
  0.4320103994564813  0.7623119754509784  0.9168411835804628
  0.6527615630117263  0.9065999566768288  0.9919058777100758
  0.4102745006563579  0.0615456006730625  0.9012545140192312
  0.5593839578794297  0.0111546765704422  0.8234736015802586
  0.3465508544522812  0.9171662341524612  0.9843055651334156
  0.2489428174202700  0.9156219137366715  0.6646077075020006
  0.2479270217021015  0.5836060254651377  0.9999868440150385
  0.9147594959738773  0.1667876144181691  0.2504856251749274
  0.0831299643261000  0.1681633749579428  0.4178236656208569
  0.9988939881210263  0.8331936542097946  0.4978924534559962
  0.0828847545893387  0.9168756163332377  0.3347114036520757
  0.8307355571286418  0.6674488319113644  0.3340147498882536
  0.9143324322077031  0.4151235865771856  0.3332742553449933
  0.6654693412118020  0.5814601215491342  0.2507701098203279
  0.0822694903413980  0.9168131122335842  0.6641394910530398
  0.3293324422586071  0.6664180747459166  0.0011859821093344
  0.8308314996872316  0.8351995368256968  0.5009552233994509
  0.9157508603427948  0.7482601295356226  0.1674401407711073
  0.7506585829266469  0.3328879921583804  0.5817514272720077
  0.0810658984927088  0.8316720698754096  0.5822738668779499
  0.9147862735627348  0.9174810149122192  0.1661670901815706
  0.9182791121567916  0.0010725774675356  0.7500154744363811
  0.9988176512975815  0.1686429303084541  0.0011935828034577
  0.0837403165329964  0.4184916870830162  0.6657839285802609
  0.9994546257996023  0.5002097754103125  0.1669277557614353
  0.8316321569892573  0.4993984557156393  0.3348558066551098
  0.2476622323420184  0.1683429665118552  0.2513880863542422
  0.9980886458206126  0.6658268642798835  0.6674935886192652
  0.9997329323418015  0.2491470488249597  0.4167681436716328
  0.0806111594911394  0.1677080928403137  0.2493829890489562
  0.2415745060361830  0.0884441946933001  0.0050029290425510
  0.3346529084765058  0.7488646180733497  0.5842273390447549
  0.9976895117767109  0.2500395838856656  0.0851157265029436
  0.9994018489429060  0.1686606677396434  0.4981875180420953
  0.6644631287384133  0.9173046256062718  0.4149396598548661
  0.5835674899418113  0.0018777843133238  0.0881771883312447
  0.4149957570889625  0.9172900383324343  0.5002757317978468
  0.5836316646215413  0.1713963071399991  0.7472423208281623
  0.9160560352934934  0.2505254907594981  0.6641710874815133
  0.3299945534058399  0.6645570633341351  0.1692942374918865
  0.4145883464762786  0.8312283980374130  0.2515338553753237
  0.5863513992180672  0.1773370766302363  0.9185218086707535
  0.4973002219974198  0.4162316145308031  0.7488813059533059
  0.7516349117185794  0.1690661958132518  0.0879293774035321
  0.3343125970973077  0.5841084417644695  0.5826946671982688
  0.4169555794479738  0.3356924463378096  0.4173582242537788
  0.2501853050607367  0.5836878910802991  0.3346037968050203
  0.5833955631075683  0.4996765580695173  0.2514979023629388
  0.3320148072288613  0.4191669458610494  0.0825472325013880
  0.5811524389677901  0.2512390884448062  0.3327019732235199
  0.1655526647314537  0.3359734464951302  0.4985178222882154
  0.4989460681033540  0.8295336234631566  0.1700974356142088
  0.4936430445096990  0.9247845894233749  0.1081260071250660
  0.8336599457674154  0.0843030034954989  0.9167564731051413
  0.7496047722396827  0.2517352043429447  0.1678509748420751
  0.3329819890061271  0.1686867606512192  0.6638810521819754
  0.3985307900143556  0.8509382539664013  0.9157222772668048
  0.9153091146425726  0.9172678731988894  0.3344491127996478
  0.7485099433558515  0.0835186286218928  0.3321321047947326
  0.3313975961397508  0.7507170516968735  0.9158067359523655
  0.3315480109609193  0.6677246727070094  0.8342577039927612
  0.7499536358757580  0.1672803797120682  0.2488914622788768
  0.5006223259686871  0.9197879881169627  0.7551974934551225
  0.1662168952915052  0.6655815134717689  0.4998741704953448
  0.3296488984975680  0.9174093647507829  0.2535924731187279
  0.2468218220902890  0.8339980571353763  0.0868785148756272
  0.3312729924656987  0.0004424106722178  0.3340762936664464
  0.9978279628215759  0.0001614839493031  0.8325078071526757
  0.5818756218926112  0.5004147674539969  0.0820463217343671
  0.9968691877921748  0.9984719182471395  0.1674778868240357
  0.9161253552444475  0.9166631986168271  0.9997266298072742
  0.1660699098052906  0.0850615600141565  0.7475152813843720
  0.9990592344005452  0.1679982188564887  0.8313646168584262
  0.0833048600720060  0.5022711685166220  0.5830404090214810
  0.8337154314896752  0.5838722441638322  0.9154538818343038
  0.9167960994577233  0.9162809834503687  0.8324904897038087
  0.1631087589355482  0.0879518854243573  0.9181296266229091
  0.0819825161321525  0.0002774654875972  0.4163400677672786
  0.3285302694621474  0.9171894197488485  0.0865164080717189
  0.9991100402997682  0.0015496493465365  0.5000437748305709
  0.7488522239501343  0.3341492577872781  0.7488170850539168
  0.9166963642106157  0.5006327367574746  0.5831162913010742
  0.9171544153017881  0.1680652964703321  0.7495305178037549
  0.0829746161007146  0.0006589838680265  0.7474499795958662
  0.9989724394179651  0.6670355364471537  0.4988279074122202
  0.0818835286315055  0.4176238029543458  0.8332989576373606
  0.8291274840852015  0.6682851853157272  0.5027045754104696
  0.7493293997195184  0.0833299511186585  0.4998961543616496
  0.0822069634101184  0.0005679647402002  0.9166824948815256
  0.1627311925791919  0.9982632817787074  0.3359372337334245
  0.1629235111343831  0.0008534316939898  0.1688697695369205
  0.2455922289591482  0.8318625754964317  0.2527131858303485
  0.0816156326977066  0.5845006616640872  0.3340794276802846
  0.9993643350037316  0.0001591648102390  0.9992684506486791
  0.8307199524557626  0.3325798358388408  0.1666709780370997
  0.7505759593417091  0.6659865155177093  0.2534586596917311
  0.8330759473054026  0.7502993144403605  0.2506668122565103
  0.9152858687948175  0.6657809060051879  0.9158649979839656
  0.8314147476279892  0.2527961640030751  0.4158632539562795
  0.0814944640661567  0.5003064560448004  0.4144066374939330
  0.0002775454249148  0.3342701744380340  0.4994485105844493
  0.0819002066155887  0.6663625003688173  0.9162747634748079
  0.0812892967311680  0.3336187275863138  0.4181845244637323
  0.9989064719777201  0.3337075945376385  0.0002373917245140
  0.8329167677238051  0.7520297685237031  0.5841583015537698
  0.8346324764829226  0.7481787100181729  0.9152863432023419
  0.4082226904730408  0.7431520284920209  0.0077555470447624
  0.4158862902080336  0.1677111630167560  0.5833562850172299
  0.6679887607341598  0.3345046490123086  0.6655939147357730
  0.5839372936244021  0.5813409564044754  0.9991850634132182
  0.7503014485053059  0.5819462148396747  0.8307753322023026
  0.4986801547046846  0.6649594045475259  0.3359579663655777
  0.4979391085949051  0.3351404795954547  0.0000623229854564
  0.3286218487283146  0.8311939779242262  0.8298241261867121
  0.3324779401237671  0.9160382911346630  0.5838899956871496
  0.6659007675656974  0.0047819177731128  0.8313730402869218
  0.9981771198450718  0.7503383427290697  0.2523234529573803
  0.5825495918450436  0.9996892929694712  0.5817364416649486
  0.1640525598957307  0.4190532591943912  0.0854793073410699
  0.4988098572831849  0.0846512909839325  0.4154085571824627
  0.9995634222187986  0.3337642739403160  0.1670424115014733
  0.5044040393148920  0.0822402837901137  0.7515372470523510
  0.9141575844288754  0.5837263551798093  0.8333669377366666
  0.5606618132030927  0.9060724448472945  0.0225423136553495
  0.8313743749062849  0.6677782348362434  0.6640281855132203
  0.5830834738717928  0.7505638365381639  0.4994365941089062
  0.8315624087238147  0.5004867251825054  0.1662305151298601
  0.4976975479005355  0.0864645562853557  0.5822133344776824
  0.9152487713321922  0.7477599315378167  0.0000118427841028
  0.4165189490828567  0.3355433388880154  0.2506018525858138
  0.0809625191203829  0.4178816832613356  0.3331542966068096
  0.9977138119277833  0.7506264757339188  0.4174977564262359
  0.4145066883035992  0.5834517603097926  0.9990776337184517
  0.0800493764077950  0.6640116188282511  0.2522730343866994
  0.5820194878459685  0.1699229983343553  0.0860736280067057
  0.6666529369904308  0.1682881111592088  0.6663480779916390
  0.3331452734607326  0.5840307521735940  0.4152387731822910
  0.4149101114505565  0.3347533847962506  0.5821186130473271
  0.2497483994073762  0.3360044988375437  0.2503808096661986
  0.4149121352101656  0.9169821151332456  0.6660980186965314
  0.7481721203437145  0.6658603620456134  0.5819376241905848
  0.2483941141987864  0.0854492981455431  0.6640001226541024
  0.9168098557478486  0.3318161188016601  0.5848196980228916
  0.7481208695620245  0.7530478848896420  0.5001400743816358
  0.7488276382667689  0.5012803367893207  0.5835802261903046
  0.4149865644520567  0.5015943343459830  0.0819142850994145
  0.4121161455490950  0.0868885792675102  0.1690990257597671
  0.0807390224595000  0.8331021611859996  0.4209718942096888
  0.4159443385263538  0.5824536768231562  0.3336439650745768
  0.8332714342590759  0.0832729140051306  0.5815215194929130
  0.1642813964330155  0.2526332296738643  0.0851046720216424
  0.7514382135163608  0.3329126569660119  0.0853877729453662
  0.3307427010075533  0.1684206612769885  0.3347296730589447
  0.3292923692784632  0.3346997521364232  0.6647762487081472
  0.2495400214464723  0.1674309377858655  0.4155402955646344
  0.8321376979556800  0.1668997992681590  0.1668298570854536
  0.8309128026318323  0.0015177405928390  0.4997044551391883
  0.7501337673845527  0.3345054892887536  0.9165175056877045
  0.4986007637121633  0.4157301976716997  0.4180179004599528
  0.2497717313566281  0.8318549679537872  0.4178249419253983
  0.7491760811120146  0.0019054548795576  0.7493161783792045
  0.1660389757545629  0.2504806589773851  0.9177297090102575
  0.2443674022434718  0.1709860816857693  0.9169625596326196
  0.0827405345033590  0.2511066487101680  0.6647636424053595
  0.2464525215861390  0.1687299596496971  0.7472688772156280
  0.7506019327130501  0.4999461343210961  0.0838290699236893
  0.9990065354227476  0.3344264376472157  0.8318433420520264
  0.2461477553572029  0.2529661792034638  0.0012226751658456
  0.6679356634575296  0.4151927792884356  0.9177909485420642
  0.7474034668391104  0.5005888851252974  0.2509771025809006
  0.7507744737521299  0.8306292994867303  0.0851399168933287
  0.6636664733634615  0.7507538113743504  0.4179089221191897
  0.3325468560678491  0.6655457928050572  0.3353284549473717
  0.1662459998361309  0.0001838804201130  0.4998780719084103
  0.1632757108221262  0.7492117067237918  0.9175940295032077
  0.1656851058919507  0.7471139593754261  0.5817378205730337
  0.4090488232283818  0.9179221765924248  0.1747694548499711
  0.6668755745364341  0.7463961450806358  0.9148415784266731
  0.1595692146735050  0.9169831208024154  0.7436269263075118
  0.1626931224226826  0.7492529087293784  0.7480231292199173
  0.1638297780765651  0.5841196367244340  0.9171256945161005
  0.6637963340547745  0.9181968733835765  0.5822049377298665
  0.1645101310766230  0.5830701288649218  0.7503555072677952
  0.4980576394000927  0.2546355654060125  0.7470299485095447
  0.1649778739096513  0.5836064747664291  0.5820147180054408
  0.5861890109151806  0.7440245585414494  0.0014672546437440
  0.3338767874688609  0.6666602889503526  0.6652957929521618
  0.4099088010079652  0.1696604414060364  0.9173117405268242
  0.3308499710724030  0.0851394733333782  0.4157799848872281
  0.5832968634442675  0.7444722814834086  0.1719940478110769
  0.3310798796674628  0.2521255615904128  0.0842371817687530
  0.6645411116010799  0.4177158578110069  0.2488864974069529
  0.6660568373504644  0.4157638802235018  0.4182783407459010
  0.7485070819999320  0.3322678570836132  0.4170689997258811
  0.3318259453378046  0.0853994799794873  0.5833130683071119
  0.6679566496190218  0.5823908384938703  0.7481553840909709
  0.1662324964658512  0.1687312052382472  0.4986508697793273
  0.7499408563979777  0.0865742088748842  0.8328950817837006
  0.9155337705080121  0.0852175821572460  0.3331123569984233
  0.5012424949097883  0.6654422320738037  0.1691791536490516
  0.1643450935283517  0.7499218244587090  0.2516437827430863
  0.6658762554750338  0.9996086629942186  0.1672529312040629
  0.4142286830998677  0.9156851423185842  0.3328300201918697
  0.8315663315638733  0.4156110956240172  0.4182638506615222
  0.6672783752965132  0.2526273920500006  0.9186208259548037
  0.9126028591635164  0.4997748906251477  0.4156812054609383
  0.9972964486241328  0.6686106460020591  0.3336192000068854
  0.0822626815507295  0.8323630154456291  0.9162664992191460
  0.8337209443816950  0.4159770022056361  0.9169937577755722
  0.0803875895467198  0.8333950094887090  0.0848124806109898
  0.9137855540587081  0.6683862736096324  0.2497543254874846
  0.9177277273813224  0.4159868372377736  0.8320987196640519
  0.0821288246156758  0.4184612961783107  0.1672924000851857
  0.8311080683852347  0.3352300359922996  0.3337994967469652
  0.9167199152419334  0.7497292632978612  0.8319771712097380
  0.5835190919052189  0.2502422026679115  0.5007506803771633
  0.7505162305036306  0.2501117569046550  0.5012123615674448
  0.5835384235312209  0.9162542083868409  0.8320739579143659
  0.9179579479379171  0.3344159489671596  0.7498592999486885
  0.4997499514335517  0.1678845730996435  0.6667787045036457
  0.0001914384343340  0.0841096958312775  0.5811336542574920
  0.5823853023070100  0.2536440938329300  0.0007106910329541
  0.8324074757536535  0.2519241638351760  0.9169405063424331
  0.5825405163719856  0.5821066460332998  0.4999763670438341
  0.8325069521049089  0.2500419081996099  0.5829004480757612
  0.6646293603723232  0.5840031215307346  0.4191294977164673
  0.7494262695426667  0.8326453085975095  0.2517096674522225
  0.4984939160116504  0.3347016748539866  0.8323913969202846
  0.0822667554646383  0.6657294010048918  0.0843948450242097
  0.3290871281254823  0.3348406705431716  0.8329097770987236
  0.6680463079502473  0.4152608324736421  0.7465097908047812
  0.5007390050230111  0.6666249181375588  0.6668745060246865
  0.8316792830255558  0.9158315798953686  0.9158181104487860
  0.5819798724457892  0.4177092661570503  0.5008304382046789
  0.4992010733723423  0.4985998489395369  0.6665694151894797
  0.6675880532527319  0.5811699141060882  0.9160313832674076
  0.4989976952198158  0.4174925173446061  0.2501596054367361
  0.3297917918690979  0.5001986810489171  0.8337777259830654
  0.2446674584189242  0.9155542182140990  0.0036384386619759
  0.8326226514019358  0.9164145107606517  0.5832292524011320
  0.5818626878428865  0.7504988776196058  0.6669736829218265
  0.7500844099150543  0.8330994831105483  0.7477054672118842
  0.1645278376922721  0.4987886293701323  0.1675778159836880
  0.8327406376827823  0.9989212233806274  0.1670047336238641
  0.9984030524570966  0.5015310565223742  0.9992956221246627
  0.2483274229786077  0.5017599633608234  0.5830732074619590
  0.2498884947085556  0.4160792405179635  0.3336313754179789
  0.7530232024746090  0.8281794170879441  0.9154329032947142
  0.0812757261685690  0.5002059055864446  0.2514526332862477
  0.7492972793106663  0.0839263162656200  0.0004514400313300
  0.1643939948184985  0.4173968715949346  0.7489259894363646
  0.3318149820090597  0.5827929916205499  0.0840365070652637
  0.6669081743509124  0.0876399752403796  0.7483178683868728
  0.6651979044226746  0.1664710413580744  0.4985569798467372
  0.4163094625438177  0.6664241328714450  0.5827760865669029
  0.6667680263717545  0.6667978674363010  0.6651804700700348
  0.6663795509172161  0.2507091890175314  0.7478305040960019
  0.6611335973958706  0.0015835073006441  0.9982636626742462
  0.4991885788137537  0.1678566420692580  0.4997314467245015
  0.5825349184416116  0.0842829618452266  0.3327112214222420
  0.4975435134712188  0.1692821633377806  0.1680731202112548
  0.5000306186206832  0.4976485288369538  0.8314154497649694
  0.4179327479318853  0.6635540417773247  0.9143517592612854
  0.4074893071081042  0.0855390165417187  0.0008328068629926
  0.7497385698609594  0.1666719580480175  0.5822122843504288
  0.1635266183344110  0.4177424439717380  0.9161328967740755
  0.2465986767808005  0.7491901714355419  0.8319980358711444
  0.0817104259904482  0.5004963720324489  0.9169354230094608
  0.9991863302321957  0.5002022779218103  0.8330379807382506
  0.0822053293666875  0.5837291801597777  0.0006368333967368
  0.9151205334874565  0.8335289379052025  0.2509048338296171
  0.0005280683436719  0.4182186668335921  0.7483379401282710
  0.0828736661941924  0.3346670980644283  0.5820283211106795
  0.0814929767160886  0.3342358190905020  0.9174251393600834
  0.9984366289279750  0.4171178394233649  0.9164769627663791
  0.0811114130590302  0.8330860018807921  0.2516693515569765
  0.9986028771333235  0.5838201243894323  0.0838755867172530
  0.0819254559239232  0.5838130484693985  0.6656208163262005
  0.9158204644492797  0.4171098850848644  0.1668134538302245
  0.0812115425680391  0.9158308464452243  0.0004289237219095
  0.9153063802655644  0.0001818760702207  0.0826957357322466
  0.4142159698695853  0.1682555261600105  0.2513364545403735
  0.0814454873339895  0.7483227510793817  0.6645084017344415
  0.8321163386410516  0.9993875463901993  0.9989205999790347
  0.9996449955146405  0.4175622164262783  0.5829615586931606
  0.9983280077346509  0.8321871935312848  0.0000010490659929
  0.0823013746490990  0.4187555118519775  0.4993066981497924
  0.9162970453620846  0.0841661963358552  0.9997766235914509
  0.9992708220156939  0.6666259542530693  0.0000694400666185
  0.8324808159184363  0.0828208811009829  0.2500551881110163
  0.0822551772407273  0.7507855308543826  0.3355756947625790
  0.9150571048565060  0.3338490685938363  0.2497009220656472
  0.0812318147130135  0.7493855733220335  0.1683809462418348
  0.9163060477579623  0.4995319093146671  0.0833944054466338
  0.9983199468287920  0.5834810205288038  0.5823263784453881
  0.9156439632456467  0.0828581462704150  0.1672193357919997
  0.0821074981068525  0.5838782059011466  0.8330964862845085
  0.8324733957171581  0.0006161296292887  0.3334167136442870
  0.2454357308020277  0.7486286349261138  0.1695447644989344
  0.4159922004247590  0.5827489409304911  0.6676636379240947
  0.2484589583679611  0.2509912745812858  0.6650135255832527
  0.1645326547097369  0.3348362447020433  0.0012377545626202
  0.1640029544212077  0.1679106116216515  0.8320394146325696
  0.8333492116645859  0.0009386138165984  0.6653619145439672
  0.8343544845006692  0.3347766990069992  0.5002453940841238
  0.9160276493534141  0.0840524742693519  0.4991417795060031
  0.9157013884534624  0.0009492619345429  0.5820406553787257
  0.8320492627250488  0.1676910844204390  0.0003201088768402
  0.9154458656544795  0.1662133024352580  0.0835694741780364
  0.9168583923815121  0.1683585204226935  0.9166794238302457
  0.9154487590138342  0.0010362107843408  0.4170170216445454
  0.2472645257010683  0.5004857967103578  0.9159742068249135
  0.8314963868268048  0.4172175387785851  0.2495224041073037
  0.3311571864241177  0.7474628115862498  0.2521801546341288
  0.7546716617785064  0.9173250440268779  0.8266853713007932
  0.1657844137237473  0.5826646203537925  0.4163526329472831
  0.3120416330119380  0.9245100811574216  0.8995150124200654
  0.3291399488843742  0.8285662030477464  0.0059384982192047
  0.9158800145567069  0.5828832742726461  0.9998821016828259
  0.5829231725646148  0.5823310801857313  0.3355663401026166
  0.7504133596341723  0.6666186674395798  0.7468518835081845
  0.9991003864441935  0.0839478861409870  0.9163425757129089
  0.4994714672588676  0.5001443991783440  0.1665312581209422
  0.0812474576952281  0.2517560686159466  0.0011275963330423
  0.2480976444691073  0.2529228995166945  0.1675813750517344
  0.2464826492333147  0.1700478288703870  0.0857669672938129
  0.3291260493434118  0.2522718772960713  0.9169083269412293
  0.1644790053549506  0.1690814185838085  0.1686805306066380
  0.0816147285240813  0.2518656795376638  0.1676986255614536
  0.1651572285064290  0.2519129036262590  0.2511707654915309
  0.3317073319434211  0.3355840824215433  0.1669080744707032
  0.2468333881190322  0.0860770775079691  0.8323936030404313
  0.1654752410604991  0.1685383797365103  0.3334582737208291
  0.2489229136388535  0.2516169104835363  0.4986963013674693
  0.2486041404232986  0.3355388291088542  0.4166017484909570
  0.1651443308932659  0.1681958059072510  0.6645425303323165
  0.0813979746174073  0.3357673920695331  0.2504197313491512
  0.0816405113500158  0.6667539494127199  0.4167711234680189
  0.2475528463647434  0.6668029797746254  0.9156140466624422
  0.1656047539777143  0.5000829190426357  0.3333648135452821
  0.0809238577943246  0.9169079023712462  0.1682981969233557
  0.1649407912391656  0.3356015025188283  0.1676233184387526
  0.2472166223841820  0.4177221448388027  0.8324385340883511
  0.1651875502874728  0.7502033577519033  0.4183567786655057
  0.1643808132711151  0.6669011994995434  0.0006258541598463
  0.8329498215220469  0.2509347189957428  0.2507554264573429
  0.2488912256666136  0.5002064485380159  0.0833663187357092
  0.1637778786412632  0.3347157791924702  0.8328730955185555
  0.1648737411325746  0.5829618913588670  0.2511727924635362
  0.0823950210015189  0.2506288371972346  0.3337904924022710
  0.2478371887557559  0.5828783021436089  0.1673094644091009
  0.2464556482617231  0.3355036682638303  0.9167901767475803
  0.2491768328072117  0.6666781551392618  0.4176052885407037
  0.1641919306109266  0.5825171457489369  0.0842371248721139
  0.1607938449749370  0.8290356401285128  0.8318796507299877
  0.2492397511471934  0.5000592015855838  0.2513942109325963
  0.2475877961270769  0.5843416750424514  0.8330162460439866
  0.2481983387679971  0.7473864724996557  0.6648972518842350
  0.7485357569893306  0.5825331375074217  0.3353733015619604
  0.6669941776096977  0.3345977011516419  0.0014429894554427
  0.7500376201008686  0.4161501668711379  0.8328832339818759
  0.8319862956720759  0.5832644436423546  0.2510058302168885
  0.7507168164077179  0.4985697132620622  0.9160695146346282
  0.6662703592067389  0.5818625137627336  0.0834488872657397
  0.7501039610306178  0.5815512181591236  0.9992238040264549
  0.7497195953160786  0.4991522791918727  0.7489740243559788
  0.6660140230521753  0.4998698804904229  0.1663318549559101
  0.7485685977733173  0.3344430889532435  0.2503600999888315
  0.7493946156462332  0.5822105420115917  0.1677403460483142
  0.3329115891287155  0.5001145195616128  0.3339386184255783
  0.6652402517921809  0.4993299806567502  0.3348684197893543
  0.2499090261213927  0.7488213845771104  0.5009143648924089
  0.5823631089180900  0.5000592468843653  0.5836415410549642
  0.2478211334849540  0.7491592867562726  0.3347905218611350
  0.1649304725814073  0.6656107000253239  0.6657899083471508
  0.0829645650464487  0.1674900286565777  0.5811747832403522
  0.9160992615176102  0.4169162798053087  0.0004145048424454
  0.9165833230913705  0.8340343525716211  0.5820109158733754
  0.0827181339760098  0.0842156467137733  0.6653075371074840
  0.9995681073118748  0.0010770144413743  0.6657230944942143
  0.9149909029704486  0.0000733582741432  0.2508531252044500
  0.1643104760839643  0.0007963921715223  0.8326527918125255
  0.0810170860021942  0.0000691017259510  0.2512902763610725
  0.0821903811337351  0.9172341105011997  0.8322762217307539
  0.9985796202009622  0.9175987645651169  0.4172138027008147
  0.0793355656427144  0.0002635830227343  0.0854624114159043
  0.0822250236712250  0.0846543119135972  0.3343437438463089
  0.0004341875007774  0.2505951591138184  0.5819723576172473
  0.9160159344490895  0.1671630976728081  0.5818474244781894
  0.9982540438385418  0.0831939253062311  0.2514609366109810
  0.0831899963261637  0.0841517348471724  0.4987610795359147
  0.0802673352396766  0.0841659504597323  0.1683685124784025
  0.9998064777416346  0.0845677667230527  0.7489317710332599
  0.9995308006571694  0.9177955302387892  0.5815379470542484
  0.9994901655615160  0.0843362763033676  0.4169108571153788
  0.0806834548328546  0.0852356962185655  0.0012643663878261
  0.9989444919029618  0.3337366667209130  0.3342939783038086
  0.0810199310952237  0.4178234401071938  0.0007547408174797
  0.9979583635446112  0.1677966281463346  0.1686233598928175
  0.0804568399993495  0.5009663444633180  0.0833703832496793
  0.9993870969416576  0.1675385380569159  0.6654678496707337
  0.9164922427207629  0.2512855588543899  0.8325987830828967
  0.0820557358649201  0.3344767030567979  0.7493596631042270
  0.0805087199920956  0.1686233529429601  0.0852204847281482
  0.0815864327062163  0.2506409093093588  0.8332277891283167
  0.9986441966810772  0.2512285473566965  0.2506001595983574
  0.0814625151807370  0.1687618175273114  0.9174399734960350
  0.0840328251571465  0.2512931356002738  0.5008779043614628
  0.9986297305672626  0.4170303655307533  0.0838367358901797
  0.9995919589171092  0.2512075661961852  0.7483984308360466
  0.9984191250200095  0.5001906911656194  0.4996433806324633
  0.9990611286283901  0.1675147414709537  0.3334040405439843
  0.2479358967087743  0.4185631844708187  0.6664003628317058
  0.5006366588477081  0.7497515724447341  0.7502467273168809
  0.5912955870173344  0.0899148776596663  0.0028642266344402
  0.4992717780273721  0.0008285414568673  0.6649639191439290
  0.0819913264678700  0.6658791620062695  0.7489577662689296
  0.3309487696117727  0.5012781464626981  0.6652945439563953
  0.4156751802407725  0.5008206860182660  0.5838675734013166
  0.4142257044970358  0.0025425046848467  0.2530172969415846
  0.4985911750537965  0.0875023184752911  0.2529919629885518
  0.3322370428803922  0.9167822791922328  0.4162642520527118
  0.5819536003352578  0.0843948305997690  0.4993972478448180
  0.3324764910997225  0.9998630469939214  0.4999520032516190
  0.3303555718510353  0.2526229515773945  0.7482517439743563
  0.4151948904369406  0.0014018813347046  0.5831257929747303
  0.4149763974755467  0.0835640871956188  0.4988203468573074
  0.3296910133558054  0.0849715269216769  0.2525116406382161
  0.4163595999286727  0.0845731851742701  0.6678124494061992
  0.5008518913384598  0.1757612003407849  0.8290729101816497
  0.5810369234125726  0.3343688794583992  0.0828377998581347
  0.5835201184471285  0.3345043329172839  0.7482889233414556
  0.7505903654302546  0.4167122815177878  0.0008675945559977
  0.7496822008126925  0.9174911150431434  0.6660080751926296
  0.9153453415143392  0.9178178925087004  0.4999078707937293
  0.4984994087797451  0.8325359051028651  0.8380000100337828
  0.8357456842094034  0.9177727976994304  0.7479863772606019
  0.9172097783266420  0.9179215996539128  0.6650454066765022
  0.8339398550612732  0.8325795763265738  0.8316282048802598
  0.4994124841714503  0.5801118237355908  0.7484838303807633
  0.7507688624551071  0.0029732615798341  0.9154642774915182
  0.9155001779127696  0.8324038539043092  0.9163560956420754
  0.5832056632268147  0.4979896096921562  0.7488719349658129
  0.5852885040418384  0.5793571105005433  0.8304311328066808
  0.4985987915659779  0.4172314152628476  0.5829518996410169
  0.4992082761251151  0.5837432338749472  0.5842491008015395
  0.4990423856478681  0.4998538167210935  0.5003378748901334
  0.4990875461639334  0.5830321783893805  0.4177567859938953
  0.5822957788036918  0.4995744422625464  0.4175586156682047
  0.8321123934135154  0.9182890613777173  0.4168616167455610
  0.7489182833497076  0.5824252080624126  0.4999377760223643
  0.3290439402061653  0.0870305672361149  0.0869131626000890
  0.7498716975268657  0.0837150250526237  0.1671046573781483
  0.9985505365962902  0.5836164248006764  0.9163737782619155
  0.9141720037105732  0.7518227191803224  0.3350972656174805
  0.8329571264915691  0.8347023747822121  0.6659060626508559
  0.9140436185227024  0.7500349156814903  0.5001244484240167
  0.6660771753754001  0.0840192792333612  0.5823095420272631
  0.9149383220817562  0.2507871793886532  0.1673482935487533
  0.9151008799685729  0.6667511310017916  0.7492996450953961
  0.9155552048379056  0.5841320608634519  0.6649400590539716
  0.6671932966147271  0.9167306162564034  0.7492451172319794
  0.6644868895242172  0.8350294852605705  0.4993280360540970
  0.4936728394175664  0.8160967319476464  0.9773683380343042
  0.9161987132466237  0.3332614013886855  0.4175947573654557
  0.9984358135569268  0.7492342586038480  0.7485040981162675
  0.9166333994686455  0.0841737916284680  0.6656957121136637
  0.2464702994146552  0.6652560495905941  0.0851127343411584
  0.2465612465290710  0.0004580517489418  0.2518133410489210
  0.1655366383808738  0.9155332048757383  0.4192199684411538
  0.7487400027654799  0.4989368670516431  0.4173467856759540
  0.5815262507762429  0.8347016758805190  0.7502483112527492
  0.6683189541022126  0.0006010090532130  0.6641375325827233
  0.7481853697503029  0.9178701365723750  0.5002085902257009
  0.9146503071422428  0.8342847626047140  0.4177699494613760
  0.5002280070271808  0.6667501594298515  0.5001967524363363
  0.5816881579597432  0.8340331718437572  0.4165850504363927
  0.5822786348067802  0.6662796398959377  0.4180400722350066
  0.9984993675091339  0.8336611564008941  0.3349888104953421
  0.4998682006719972  0.7502344692436476  0.4172742545151817
  0.5827798963146509  0.7488998169152409  0.3343882452987018
  0.5818168113525013  0.8314848562448972  0.2509336404512595
  0.7488912705587202  0.9999699254431119  0.5825666399331101