 B Cr Ni 
 1.0000000000000000
    21.1200000000000010    0.0000000000000000    0.0000000000000000
     0.0000000000000000   21.1200000000000010    0.0000000000000000
     0.0000000000000000    0.0000000000000000   21.1200000000000010
 B   Cr  Ni 
   9 259 605
Direct
  0.7512868262395217  0.6664640262752968  0.0032210175520815
  0.2647339432097288  0.9926036286851793  0.8329166515982032
  0.9145493894081207  0.5834265765124297  0.0815909206903648
  0.3308111015184838  0.8537362462261081  0.7365705641732330
  0.4249786665890177  0.7694339583855241  0.9179348061036816
  0.4900615424368763  0.8284386147899533  0.9183271045602146
  0.4193692083685296  0.0661881146814707  0.9006402197054874
  0.3094458444307590  0.8559447862044035  0.9354369225108723
  0.3422452729946201  0.9182770226973473  0.9784049350355877
  0.2535112395979713  0.9150568516724285  0.6667798490543629
  0.2475512836070745  0.5842857812428988  0.9999052187216205
  0.9162737139293851  0.7515150909504559  0.1689303400797616
  0.0831506829693083  0.1675831691014063  0.4175256778105737
  0.9996189406309256  0.8345476500437253  0.4999153673541479
  0.9157784687044661  0.1650068595446495  0.2496515346848341
  0.0810183842390393  0.9174830897115143  0.6632434640279294
  0.9150775987617402  0.4151157037909692  0.3329907607836893
  0.6655791326192080  0.5831922031415705  0.2514185815222318
  0.0843188132728264  0.9174988454592078  0.3346946419700517
  0.4156051693891907  0.6666461702488021  0.9170812526386042
  0.8306545072925970  0.8351724460994689  0.5010152466791137
  0.8327423106033861  0.6674915559783208  0.3343327003561041
  0.7494549225652515  0.3328311408674922  0.5823618437753636
  0.6666258054240976  0.4152878251084469  0.9181234791078365
  0.9160340253360505  0.9183043858040033  0.1663349569566243
  0.9169181007690159  0.0008786214283086  0.7503290085856100
  0.6672721240023790  0.1677261213234521  0.0035171000345264
  0.0829436263067840  0.3341366730173801  0.5824048730208043
  0.0016618314745163  0.4986141968248842  0.1672894227354433
  0.8317033141807444  0.4984471715777194  0.3349805986575922
  0.2487447714937728  0.1676867666400325  0.2501977750710535
  0.9979422153551657  0.6652151551410171  0.6661219236457435
  0.9995077857039041  0.2486610714942987  0.4167676126302535
  0.0819842940667766  0.1670926871802626  0.2496954291757021
  0.3258891932116263  0.0897244974830770  0.9228047639540007
  0.2464531327018246  0.7453999191980220  0.6618862887238079
  0.9976929065318398  0.2488063427790811  0.0838594069285039
  0.4192611445893761  0.7447621197885722  0.6644363123612305
  0.6646477977599217  0.9172282627062879  0.4144647485324719
  0.3278580879998611  0.7561331865827560  0.9190196547790672
  0.4151409909477362  0.9180626328640811  0.4986600972005316
  0.5863780575212107  0.1732666368596979  0.9185063536314190
  0.4972305383604244  0.4176356329467951  0.7490561308506791
  0.7507302050037524  0.1672337166093119  0.0855632232897421
  0.3337151379538357  0.5825137325573594  0.5821623324390828
  0.4175825045075279  0.3360450420967849  0.4160200948579229
  0.1645880647891989  0.5820518867751447  0.4169044797596356
  0.5817883220826318  0.4993266455459379  0.2512525166973563
  0.3326307995768655  0.4172505603839754  0.0821068350784860
  0.5804464698503733  0.2495367797418939  0.3326144085205071
  0.1660900677110489  0.3362435047598009  0.4995785945789046
  0.5828853064950348  0.2512196279470196  0.6664468330661014
  0.9149938784709344  0.2497872751817153  0.6654023330903412
  0.3321039258755764  0.6640957058051742  0.1708359687939550
  0.3328707278826786  0.7474699425214949  0.2488300290194891
  0.4174576983601029  0.7473049724648733  0.1698208868077661
  0.5811757887575649  0.0013876942209251  0.7498080829500280
  0.2477428570921973  0.7474611694293194  0.4973720766012909
  0.3312852864566194  0.9160748835811198  0.4162492869836699
  0.5818876442025605  0.0020607101300138  0.0862763016084582
  0.3330629277416223  0.9166586973529743  0.2492814529054938
  0.2469070445186293  0.8334980855200838  0.0852466601344529
  0.5054086028583842  0.9185998889329362  0.0916064975593449
  0.8326102117968771  0.0834227330562778  0.9163791871732287
  0.7495784830189639  0.2504490018608180  0.1671760667535057
  0.3333494340587423  0.1693519186600944  0.6623993104263133
  0.3349948989334862  0.8277081762576296  0.0221273792530982
  0.9168168364942761  0.9183189130417374  0.3352089381428566
  0.3313575912096020  0.6684352024876292  0.8339702777684438
  0.7497279559191582  0.1666950999400167  0.2481470982905545
  0.7485227199257054  0.0839728568094495  0.3329942947579619
  0.9976849303536922  0.0006955544235478  0.8318765306413743
  0.6662332596780408  0.0838747654281459  0.5825930000372888
  0.9981016835900777  0.9984421912592246  0.1674645696646227
  0.4992854163037903  0.4165727195394537  0.2499738199290610
  0.4994876611734185  0.6641209821173061  0.1682113282571613
  0.9983007211543418  0.1680109349827743  0.8315907923396452
  0.0832374744189163  0.4182279791690692  0.6661029868794408
  0.8335429208131191  0.5829013748838272  0.9132241289083727
  0.9168992897249246  0.9171122129121366  0.8314444992502688
  0.1630215767049110  0.0867344436236533  0.9174796460587230
  0.0829882284812707  0.0004495044145460  0.4163893985462199
  0.9157197794448543  0.1679914310840075  0.7497496610840571
  0.0826984517854001  0.0014367086425937  0.7468524737504882
  0.9971782719623878  0.6664078425630068  0.4973722595757621
  0.3312644546551840  0.9194997525521367  0.0854053317350095
  0.9985783511672649  0.0024687501535482  0.5005406435266977
  0.7476346036608134  0.3343962126538242  0.7498206553869543
  0.9159768363855543  0.5010632596589077  0.5839553439381698
  0.0827136414641116  0.4173674959089549  0.8331798173108976
  0.8323178769017942  0.2508745662408570  0.4161252968528106
  0.9157159984714593  0.6675774019369184  0.9133187686917722
  0.7481516266335505  0.9176927062496050  0.3340187957284825
  0.8341302095067783  0.6704221587449306  0.1711151188813227
  0.8309247095102299  0.3311213468409948  0.1675278069935526
  0.0811050858848456  0.5835259202224463  0.3338106951339137
  0.9995125300745994  0.0002707313891647  0.9989755620626608
  0.1653134858589920  0.0008534723723651  0.1683959326382943
  0.1649817958898240  0.9997291909184947  0.3347332274461753
  0.0817535972838625  0.0022134660367075  0.9159010984195856
  0.7468696604932176  0.0843004415296274  0.5001636725639058
  0.8302967629266159  0.6676350239922577  0.5009838521671717
  0.2501830726871557  0.9156730893051680  0.3341400013955129
  0.6653472388552950  0.5810008819475564  0.9158140737980133
  0.4992878867511639  0.2523590300248385  0.7473509193093079
  0.4985664818490546  0.4992669863118547  0.6664861032555230
  0.5827404939793736  0.4175987948385829  0.5000679368508325
  0.9990005659644343  0.3326005495522069  0.9993706000266320
  0.8332006156549505  0.7526473552902396  0.5839195245457244
  0.8317016315929905  0.9166658845658090  0.9164585557754229
  0.9987764773826556  0.6679780070963081  0.3339859398586025
  0.0825067679054944  0.8324831049307780  0.9152641349108801
  0.8327958501256303  0.4156813728805385  0.9173446372606603
  0.0817068725752099  0.8343755820274611  0.0855575997848282
  0.9164484551299064  0.6688059657437172  0.2519482086158578
  0.9169395224807723  0.4153423920390428  0.8312598354158577
  0.0832480194526453  0.4969576046807476  0.0840490950075945
  0.9162573906143233  0.3329236517485331  0.4181209078800828
  0.9159800143946623  0.7507635842483957  0.8317060790627490
  0.8321377972056621  0.3343298523683785  0.5006086864060482
  0.4949200025395237  0.0057456736586329  0.8362698243877610
  0.9163242829996397  0.3340000603148642  0.7505878842512211
  0.4996941662292587  0.1696422539037077  0.6656367573757485
  0.9994741839705488  0.0843746552983342  0.5814062014740046
  0.5821626855163532  0.2518865095955162  0.0013166721777883
  0.9160498109529276  0.1657210050271570  0.0824104330963121
  0.5824223563214286  0.5813564099481109  0.4989547756060596
  0.8312844535297294  0.2511158306344553  0.5821201262214493
  0.6651496737929989  0.5837180665620163  0.4175025998741931
  0.7487193453064334  0.8353006130094922  0.2524543376675855
  0.4989767322462292  0.3338540757175225  0.8318583014055508
  0.0826641246256468  0.6671109008992137  0.0845480187588687
  0.3312534892452000  0.3342658551213514  0.8326641844392358
  0.8307770367363938  0.4143469255296309  0.4183316922445273
  0.6668024980590844  0.4169647501443539  0.7475528326700858
  0.4993641756505100  0.6658756343514207  0.6650167176244748
  0.5825182774773249  0.2505492269517410  0.4996422034597309
  0.5029635632863639  0.7465761372296417  0.0897392495359216
  0.9133593079136625  0.4987515152419780  0.4155268750721328
  0.9988889032916123  0.7518379956452927  0.2516456205555994
  0.7478597271785138  0.6663015930873160  0.5817396586497207
  0.2482428722873731  0.0868120241348048  0.6630226068562245
  0.9157000331352068  0.3317641386698264  0.5842419318940565
  0.7498312734728918  0.7519060623719268  0.5014122519147753
  0.7480714709340549  0.5017956209874644  0.5839207926691873
  0.4154778344611659  0.4163661962857852  0.9995483596266838
  0.4147668252221061  0.0860095558226725  0.1676782613179784
  0.0821680916936823  0.8350230670882668  0.4188280695745056
  0.3320951514461288  0.5830804447164573  0.2502138197987307
  0.8315005492498301  0.0831795377605451  0.5823746554492294
  0.3331538890396069  0.5826373441924376  0.4149595413884686
  0.4153142667417829  0.3359777619523131  0.5822913233127305
  0.2497858861624983  0.3347462608882543  0.2499557805987241
  0.4103754770203096  0.9163184121113617  0.6678797898145630
  0.1649011641657523  0.2507909933515778  0.0846114638815898
  0.1674677563508418  0.2493216274196558  0.9176326763593515
  0.7490176037403316  0.0856724880840478  0.8347182351260640
  0.9986537170118979  0.3337746717321765  0.8323393980192081
  0.2471027879232524  0.1698821310715474  0.9171268861990642
  0.0821837259851794  0.2513451449656565  0.6648575980350127
  0.2474988584929828  0.1681377446707242  0.7474896929503027
  0.7496087750595682  0.3321943351761426  0.0852615297803010
  0.3326195320111005  0.1683719417476588  0.5004066548997748
  0.2475914624766263  0.3370238540587341  0.5822680523890292
  0.2509978815450032  0.1665598779129858  0.4173041958565301
  0.8323967568428557  0.1665111223988362  0.1670917479143616
  0.4987434472251613  0.4153750969491092  0.4161560429060640
  0.2501291434442224  0.8321456702920498  0.4160430138539323
  0.7478131750423870  0.0006800317952616  0.7502885619543246
  0.7496777820707423  0.4984924745329119  0.0857953224541341
  0.7489880550492045  0.3340106198530217  0.9167630771009243
  0.2471010917107045  0.2518281612665094  0.0005903927318747
  0.6661314736858484  0.2524329564504574  0.9181480288030381
  0.7481940814777177  0.4996150793154888  0.2510722132552827
  0.7497018106123420  0.8347051479015286  0.0868671437541343
  0.6624910165311968  0.9179562518126171  0.5819140648481781
  0.3317816130888887  0.6655605765510340  0.3332156780645587
  0.1664594793183711  0.9997388381903211  0.4996079476312510
  0.6653032046531377  0.7504621834147454  0.4170680160804437
  0.1591389624859780  0.9167081421437494  0.7415645369354018
  0.4151364854360661  0.9179309744290842  0.1701484631018905
  0.5878272333022112  0.6570458097685238  0.9152065603542272
  0.1586020204630960  0.7439657489344955  0.9164678794276604
  0.1611511641629191  0.7468777113310346  0.7453322219703107
  0.1646767272455458  0.5843549328484783  0.9172968090761970
  0.2491563485856046  0.6633402677091763  0.5819696953304594
  0.1643056581684748  0.5832334492240894  0.7484447664312799
  0.9973548761776386  0.1688097325069324  0.0019215392252373
  0.1646128650872027  0.5812693456579211  0.5802008691107875
  0.5857207525713000  0.7501574512440458  0.0063600004783225
  0.0798213092828285  0.6654426290127325  0.2523178885998463
  0.4160218194918067  0.1680101882381714  0.9184943811023606
  0.3306135610932356  0.0862662933097345  0.4165148508566476
  0.5821946761558764  0.7485391321642146  0.1695345394114142
  0.3320196634087639  0.2516933481135636  0.0844845852875160
  0.7486138237570902  0.3315062249487349  0.2490131720706738
  0.6666334341359980  0.4140210620987923  0.4183002744905990
  0.7490515814175173  0.3316539954669331  0.4167468225314211
  0.3321856974775487  0.0851335130751954  0.5831550704004831
  0.6667754845269567  0.5831746037896434  0.7496349497107297
  0.1664971466400629  0.1688271340975923  0.4985500566448413
  0.8300736639585506  0.0016433697545890  0.5007841780632353
  0.9162963335297311  0.0854644722946472  0.3333558868570262
  0.0801405951211114  0.8321654685320828  0.5816533542102490
  0.1634180277597440  0.7501235550496365  0.2510282246572318
  0.6654023333903113  0.0002856614460279  0.1689451691592756
  0.4138481844223911  0.9174922129581382  0.3335512617988064
  0.4146705764163742  0.5824809090844275  0.9996425952577920
  0.4163165074525170  0.1682606545412749  0.5822517198751160
  0.6657867088252544  0.3333816101659018  0.4994693599299572
  0.5830887998806245  0.5799189742109859  0.0007086132139670
  0.7473672345234624  0.5827938333445277  0.8307430771548676
  0.5820795590089102  0.7494757240343640  0.3338698766215737
  0.4984469415488054  0.3345581270149220  0.0007292046499831
  0.3262767953520546  0.8304209614789351  0.8345989952609281
  0.3316255679752337  0.9155452947400182  0.5822339301197247
  0.6651319635653933  0.9997125772491141  0.8336550252861319
  0.5816168233170034  0.9999176019893020  0.5817970618264803
  0.4984057577265591  0.0854440744763771  0.4150774303402038
  0.9990397066802258  0.3317956011764945  0.1670115979704605
  0.5051437777668214  0.0845121679354712  0.7482399234787338
  0.9131547600411082  0.5833706833020135  0.8332447909207631
  0.5849967263780137  0.9194601364324640  0.0039107065579436
  0.8306514994518167  0.6684765390352069  0.6637129567950787
  0.5826584363578456  0.7502952557264504  0.4989504647179171
  0.8303101658467211  0.4989355628463429  0.1678359217912281
  0.4983019832232007  0.0856842864976637  0.5828073827032197
  0.9162738430250666  0.7517475024726534  0.9984707212156199
  0.4160626274507043  0.3349934447279074  0.2495667522833941
  0.0818742112723475  0.4167392188928043  0.3329317244958501
  0.5818413102732707  0.4995832023375368  0.0831094742826231
  0.9143475003919035  0.6671038092599254  0.4161980134530666
  0.8345852373084166  0.7511638942666122  0.9153061096985003
  0.0808921198381018  0.3335035474352688  0.4191231027024619
  0.0808330150051879  0.6658481250841812  0.9153431488444654
  0.1661608366581689  0.5007459539851324  0.4993350783093891
  0.1643872979058323  0.4179374730374227  0.0851576675227721
  0.9169878989400790  0.9178905366927295  0.9997586042741036
  0.1643470972944831  0.0867854276013657  0.7468842718186148
  0.9978447302017449  0.3332527142886541  0.4995518748455929
  0.9996717389763136  0.1675482960002987  0.4990244407106659
  0.3307000469183120  0.5011680887854768  0.8333573431170178
  0.2449213402606586  0.9124842242809236  0.9987774934222375
  0.8321436132696859  0.9162768320034977  0.5835802397901672
  0.5814389524644281  0.7505380025053890  0.6663818709203548
  0.7483293328835019  0.8341912326220169  0.7492385618449214
  0.1653073499241048  0.4991850929451059  0.1665172529550182
  0.7497078313113961  0.8346326602370485  0.9164038508819071
  0.0821430054854115  0.4987354361331066  0.2493179422066533
  0.7486508364917793  0.0844699375849318  0.0010081761020654
  0.8338443661738393  0.9991377377779678  0.1678112646366592
  0.1642781838632864  0.4169241958408929  0.9152605109746075
  0.2492601235655371  0.5031819413425853  0.5825681430184285
  0.2493123890214246  0.4159620603223029  0.3325489942890044
  0.1648482906850280  0.4172283282723842  0.7491804532033269
  0.4151705919169769  0.0855785104467629  0.0007685913749400
  0.5864514029865534  0.7475920732509730  0.8317880898465116
  0.6666047063053558  0.6676903169383583  0.8317625269181077
  0.5815257711033712  0.2511379071363946  0.1666961744196827
  0.4983370401611167  0.1684058033047471  0.3325028961535846
  0.6650309274329200  0.0000560759059949  0.0015142938606005
  0.4986021828883190  0.1677085496233199  0.4998448087143438
  0.6656963672778786  0.6675559821771402  0.6658410280723746
  0.4166077436213603  0.6660234376564462  0.5815391797083530
  0.6660125346684425  0.1661551902489206  0.4993600709320651
  0.6666155295089528  0.0832513710447930  0.7514759550580180
  0.3316166520796334  0.5825928811415396  0.0841907588020665
  0.6673060487082818  0.2520385747938402  0.7498249830443409
  0.0820918690205664  0.8342740145750740  0.2514434755390783
  0.0810066775860887  0.5824842467829867  0.6649755984348785
  0.2451377545717286  0.7476381683415337  0.8308131070139039
  0.0830158783221438  0.4997326984910966  0.9161215897112470
  0.9990527800169294  0.4995270344170280  0.8323779929437317
  0.7489143967798979  0.1673183441499659  0.5838254230739590
  0.0003919688036864  0.4991200773799850  0.9994293917459396
  0.0814893932030958  0.5006567983401145  0.5827253008334388
  0.9156167023861311  0.4153998513886202  0.1675408630285570
  0.0826783045337743  0.3327087397423990  0.9165714255580464
  0.9990750831016807  0.4160244457594914  0.9155849514213443
  0.0826890941161816  0.5833736334449350  0.0000520679825798
  0.0044612002300642  0.5835057945539622  0.0842038298430040
  0.9158632674626238  0.8356546697430112  0.2516056510624732
  0.9998136517098343  0.4173279715958497  0.7484680802028716
  0.0814729719427550  0.9171091970474310  0.0004548553122971
  0.6658516868063578  0.4988672414453829  0.1678569622019883
  0.5835484879035701  0.5818958451747470  0.3344498144353693
  0.0815752635738860  0.4173073030139658  0.5003996933244780
  0.7485724227435733  0.4992727087714118  0.7491995113368711
  0.9983095862679856  0.4166248962970286  0.5834444919127194
  0.9989585527061761  0.6670308990500787  0.9993568966365366
  0.0819352382813680  0.7511672397092347  0.3351866345694089
  0.6654853378154407  0.4165654694383121  0.2499872918717335
  0.0816164799564616  0.7500511504612775  0.1683292783066631
  0.7486032532515838  0.5826537873934603  0.1698646691315660
  0.9972684426042604  0.5835816316388787  0.5819904332132985
  0.6655348693061787  0.4990124969605357  0.3338543724919816
  0.0824267076754126  0.5831714440071427  0.8321961407026705
  0.5821439701244235  0.5003796270134349  0.5831646355539342
  0.0801821232296936  0.7476968841926087  0.6633820444125595
  0.7490191772973462  0.5831665770283369  0.3343428450866238
  0.9995446969058933  0.8336908014565528  0.9995410294297432
  0.9177195589981251  0.5810035577541307  0.9924782811172811
  0.7492440919999253  0.6685011432200615  0.7473766952197232
  0.3199346659598586  0.9328038412049254  0.8874488259178731
  0.2472921478823440  0.0848599484437347  0.1680775731925640
  0.1663440909887842  0.0843196186911138  0.4168370017061736
  0.2491270911030557  0.0006182195504163  0.4170391812249606
  0.2479592535678034  0.0844904638328813  0.3333900623741292
  0.2482934244377856  0.2513888204848279  0.8329229190316008
  0.8257319708010679  0.5847413323945494  0.0855219207698900
  0.7486040331647321  0.4990577547704664  0.4163541067431827
  0.6657930057122983  0.3338500133275374  0.0014455408293103
  0.7487448317664563  0.4161956249955697  0.8331562408628689
  0.8319808329395934  0.5831003202318878  0.2515610078870940
  0.7497884364445823  0.4978859727058926  0.9154337826763670
  0.4023049000480435  0.8582178466367799  0.9226123438824850
  0.6665611714294932  0.5809473511572211  0.0849559420827559
  0.4156942618022525  0.5832534920515867  0.6666550063580563
  0.7486624174099445  0.5769674777155142  0.9982347154806890
  0.2483494348533849  0.5002738521272931  0.9164562749076428
  0.4159896869246340  0.8327864512527549  0.2502933763641071
  0.2485802641550663  0.5827960818149954  0.3331119914980238
  0.1653661499083625  0.4996499834527580  0.9998782876958823
  0.1654783744371894  0.5008270659999715  0.8331029069207858
  0.0805771915403410  0.7492345434731366  0.0007513862305888
  0.1632733291203173  0.7498555366933272  0.0851392504033940
  0.2484899258473094  0.3341199060597580  0.0835187576594259
  0.2489782601058864  0.2510793173768139  0.3331739331355378
  0.1602323650547990  0.9182483444690233  0.9171625364680769
  0.2498659696270245  0.9998722590347708  0.5826661006936910
  0.2421506075089520  0.0042663465118649  0.7431742377823745
  0.9985936001062473  0.8336635970326630  0.6640750743654120
  0.0796494450376575  0.8321573984278627  0.7443445254911132
  0.0828111163549867  0.0012496284378387  0.5813452726962729
  0.9997531913004252  0.8335321636698315  0.8318939289665405
  0.9991332181280651  0.9167603366373267  0.9158437743199052
  0.1632769810603675  0.0835563801919274  0.0864215365915995
  0.2467391927106961  0.0000560909407932  0.0855653002694021
  0.1637319111440983  0.1682065831901923  0.0020102039542375
  0.1645481335527945  0.0842378796861384  0.2508618000237061
  0.0818817289023548  0.3337761662732245  0.2505868403567708
  0.9985373388866345  0.0842811063943492  0.9161225463792343
  0.1654890946894658  0.1682260176022196  0.1681697272694904
  0.1645575041986914  0.7502823210471830  0.4170123258680986
  0.1639892788752911  0.6665762753509411  0.0012060619813430
  0.8337590259152656  0.2492572175303071  0.2512282640734100
  0.2486890103710874  0.4998185353390778  0.0828324244146396
  0.1651407908992352  0.3339661955579286  0.8329333367617355
  0.1638163094093885  0.5830142247738855  0.2509251422019477
  0.0827721047264800  0.2500495240735376  0.3338045343470177
  0.2479673017241995  0.5829355923025257  0.1670995993130285
  0.2480655480069910  0.3347075358621030  0.9165434824323526
  0.2489836991629701  0.6656260275013157  0.4153535096238505
  0.1640239079974458  0.5826447210070160  0.0840621604485755
  0.1557948215113767  0.8277528504303912  0.8268429897578735
  0.2477498748317720  0.5844722601720862  0.8334038647833193
  0.0824800196757304  0.9177472550126184  0.1677283892053793
  0.2484536675650404  0.4996027694049636  0.2502939052663017
  0.2477886264305094  0.4176192234124331  0.8328826787191986
  0.1658917316238795  0.3336221826064995  0.1669133623774118
  0.1654324505901872  0.4996532840983935  0.3328399795047586
  0.2476928781587697  0.1693714636676655  0.0847818908851852
  0.2486349297636805  0.5836459356883487  0.6659815668046205
  0.1655022275007637  0.0851045485472913  0.5815713676625015
  0.3308079108041014  0.0873976480475891  0.7455727060954938
  0.2484897621196557  0.0837458179470278  0.5005027306933032
  0.1654532795190133  0.0006889277245511  0.6617734589310762
  0.0817686407492244  0.1683463623602168  0.7486878449320499
  0.0819546748311807  0.3329563467391332  0.0828890888770663
  0.0824228589190373  0.9177292336107459  0.5003111226172677
  0.2481964668588062  0.4170332270581332  0.0004014450381254
  0.2490733059407761  0.4167955151817357  0.1666874893456003
  0.1656700828049558  0.5012802949131709  0.6661806887857650
  0.4990428948749195  0.4995897631284861  0.1671521123997358
  0.1640990624276519  0.6655240238109422  0.8315465765581908
  0.0822554614617498  0.2507081321189190  0.0003983283412114
  0.2479686043604888  0.5015562013474578  0.7504719912969275
  0.2486010452866198  0.2515705843518669  0.1668427700100734
  0.3315715245284384  0.2502991048922995  0.9167916970826819
  0.0827915736536760  0.1674894198996795  0.5817127483048937
  0.0816499850006100  0.4147147090770027  0.1677076380572119
  0.1644149477174046  0.0023873146760427  0.8317158623111658
  0.0826078042547835  0.0000794867342208  0.2508649062167699
  0.0819649027091096  0.9182113546027317  0.8307598554239560
  0.9992193009265744  0.9184279396315916  0.4178332431874330
  0.0806518322248363  0.0002631550139661  0.0849024314062534
  0.0829120995370014  0.0845199441271504  0.3341692166510641
  0.9995691738200413  0.2497529754452733  0.5827196169525248
  0.9146008152982376  0.1665596337404865  0.5830622094775977
  0.9995158597819462  0.0828772460444708  0.2510224604047889
  0.0835568690744137  0.0840764265452262  0.4988916576942419
  0.0813863362571064  0.0840670676140991  0.1676587684715728
  0.9989663939298740  0.0848413487816626  0.7490023871454446
  0.9997655397510693  0.0840910501885878  0.4172031492476742
  0.0822709873507877  0.0848554757773678  0.6650666434549860
  0.9987086354193685  0.9186088181168967  0.5816819950222355
  0.9159216343733796  0.0002750797901883  0.2515503588567269
  0.9986610094422653  0.0017586601971840  0.6658133711282367
  0.9159858428482006  0.8347084122211327  0.5822495642241403
  0.0826338452227246  0.4158122942351842  0.9996407056435929
  0.9985283404773890  0.1673737966106452  0.6660036008949467
  0.9153450630187852  0.2508720089777875  0.8327281225693983
  0.0821570594361339  0.3341928928275460  0.7491504683036039
  0.0810864029683869  0.1679695008544904  0.0842181167145495
  0.0818903475545148  0.2501297324965053  0.8330363745654414
  0.9990349997133755  0.2499045002915156  0.2503259604623083
  0.0818911147377349  0.1682919736306167  0.9171422952837114
  0.0839464971147443  0.2511234839422644  0.5011700112384766
  0.9994526679780052  0.4145612398448995  0.0841557139181470
  0.9986832481116605  0.2512847256508958  0.7488172887815725
  0.9973174750840602  0.4997073319386103  0.4998331113127773
  0.9994161865204357  0.1669734021145373  0.3333122140360728
  0.9995436495825739  0.3328022913746619  0.3341190497203562
  0.0808140638253255  0.0850879376640547  0.0010235650420979
  0.9981593005866080  0.1669917414163303  0.1675085304142380
  0.9160185116049367  0.4152331914926061  0.0000762246652688
  0.0820387726729826  0.2505382679112657  0.1671940309225525
  0.4160069454345561  0.5826996235947337  0.4984271411461090
  0.4153997962209627  0.3347287935111374  0.7494641366921485
  0.4151893258378094  0.1744842564252380  0.7419666017106757
  0.4151365605655428  0.2551088703334805  0.6632401991145788
  0.3298783290644475  0.1690243448967567  0.8322724682079622
  0.3316087932498568  0.3339385706883347  0.0003094571032811
  0.3310497777743142  0.1696944542366866  0.0028532784787527
  0.4148581181350230  0.2503021436197583  0.8318471041382477
  0.4145389425291396  0.2517431035283472  0.1676248974196389
  0.3314251726598087  0.4999988928359279  0.1668417579707950
  0.4150418207876697  0.3343957883756433  0.0837466428650120
  0.4983930596902853  0.4171814274057287  0.0831948379897183
  0.3322149292069774  0.4163485392206890  0.2500516767066222
  0.4153619125835465  0.2513317049711215  0.3338151794561567
  0.3326691295933148  0.3341039969128140  0.3326392754907073
  0.4993106262415095  0.2517930493925506  0.5826185541815851
  0.4144602749039827  0.4178408871113787  0.6664935923908258
  0.3316010261241065  0.4176142467540249  0.7508587319326959
  0.4122752516556703  0.9828347095378648  0.9305673338978400
  0.4173923806088568  0.8324574414853307  0.5809548506845247
  0.5003528108346923  0.7499742481784120  0.5811727050249454
  0.3325169962107252  0.6660338966109872  0.6654506028809685
  0.3313813467279181  0.7506439057998719  0.7463436329342115
  0.4154799485256131  0.6660967429376177  0.7491333569001529
  0.3326560313918891  0.8252234640046426  0.6540451443459506
  0.5812393878720593  0.0854313050035408  0.3333167328702257
  0.3323321073417126  0.5839513430429077  0.7508925585961846
  0.5822226424963297  0.9180676565430574  0.6657904784774156
  0.2449247127765620  0.0872326211441755  0.0039096390195401
  0.3312376543904872  0.6673409430894136  0.0004493864847858
  0.9972865844342698  0.7488113264993697  0.5812176643943919
  0.2425760147756584  0.8289108342716309  0.7461401241022654
  0.1646783484577581  0.8314165192401145  0.6626420371956648
  0.0789495787940795  0.7465042893394266  0.8310440871399937
  0.1627179854797304  0.0012241782348648  0.0023396735744366
  0.2292509874031567  0.8284030067963365  0.9107986381537008
  0.2422481597085444  0.0067630002765860  0.9228464961029381
  0.3272125979511362  0.0054485305131014  0.0055254808111661
  0.7489708495507749  0.5824906417046740  0.4994461785650106
  0.7495869828955880  0.4164376881666684  0.0008790211487691
  0.7475979151175047  0.9178112109313388  0.6664995417511400
  0.9152012555802914  0.9184441429967939  0.5005129848466372
  0.5003327681634153  0.8325306765395707  0.8291116002527817
  0.8326942346093638  0.9177346368408357  0.7497421366939552
  0.9157585109180970  0.9184749437116170  0.6657818931829538
  0.8326673396587080  0.8345063650209780  0.8323419350374359
  0.4988667582072281  0.4988960278538898  0.8325517174845782
  0.7487055011442487  0.0004467999559039  0.9166055348380474
  0.9161541686204987  0.8342518360566487  0.9154926961866940
  0.5823324888042688  0.4990850386463003  0.7492328243111244
  0.4985975998893334  0.5825799451929474  0.7487765600026434
  0.4988598031319510  0.4172379747357283  0.5829291944015023
  0.4991233485216650  0.5835256730947687  0.5828943698044301
  0.4988710013061822  0.4995459183507934  0.4990448589705344
  0.4998388304238879  0.5831241951330942  0.4169864748206595
  0.5829826715090035  0.4989375784717853  0.4167106377163546
  0.8319710990064328  0.9182150145611275  0.4169084705265938
  0.1661170691230061  0.9156535774086983  0.5828165558097750
  0.3315770517587873  0.2514767222426639  0.2505247035743798
  0.3317613505169357  0.1682394971711705  0.3331827305755677
  0.2492858927177573  0.4187464797743235  0.4994708716295342
  0.4153586556326513  0.2521514066595315  0.4995152942171805
  0.3318087322803150  0.4180882022015174  0.5826522498683222
  0.2499726439042135  0.9158588779280571  0.4989915663101126
  0.3307934551615980  0.3356597078850933  0.6648921377024580
  0.7489886377218825  0.2515223189663868  0.8332565619032660
  0.5844103837567440  0.8340788477724910  0.0879624729272952
  0.5016675136291527  0.8322398300386652  0.1713706034481216
  0.8336862729191420  0.8347829567724926  0.0002939823865435
  0.9161410527228765  0.8349766395331024  0.0837414114609762