 B Cr Ni 
 1.0000000000000000
    21.1200000000000010    0.0000000000000000    0.0000000000000000
     0.0000000000000000   21.1200000000000010    0.0000000000000000
     0.0000000000000000    0.0000000000000000   21.1200000000000010
 B   Cr  Ni 
   9 259 605
Direct
  0.4959855931064597  0.9110521561896986  0.6636754137762253
  0.5827930226025859  0.9166298639913459  0.0812642638350093
  0.5833820054040961  0.9151635698657201  0.7550436030232548
  0.4156177374542750  0.5836301988802960  0.4144998968040907
  0.4155709705734064  0.0830386508991546  0.5811250509961633
  0.8336838958973188  0.9966654629939904  0.5837630199244962
  0.0817192959078166  0.0843690441414353  0.4133939586687669
  0.0790552462444644  0.8340856910308255  0.0007931058246698
  0.9989732042653642  0.4164563125788029  0.6727786108209861
  0.0828335537868302  0.8323559179963016  0.5834745515055574
  0.1677276992018944  0.6642017928663231  0.9983270769405469
  0.8329073164443240  0.7490027691042306  0.4139250940367207
  0.0875500384621476  0.1779861399056818  0.4176286143135505
  0.0819749243866823  0.8349632473990738  0.4139737951179437
  0.9153235422362933  0.8327615788545737  0.2476394168819387
  0.9987385310546536  0.9156204761488648  0.4149594174424607
  0.9155279969070841  0.5004660580204097  0.4146236361566012
  0.5840601197123702  0.5840399800539681  0.3304358617229923
  0.8316140505940239  0.2505110958867943  0.2470248469810610
  0.4150060323799394  0.6661143718420581  0.9180875689731275
  0.7380288379645655  0.0018780144555741  0.5827585748478353
  0.0822362798244062  0.9990938536705681  0.5852011765196000
  0.7498785151849048  0.3322284678118686  0.5818298180206167
  0.9149204262164795  0.4156965416705566  0.8364410838181607
  0.9160435600893182  0.9173848932357408  0.1660099913444948
  0.0003454159442312  0.9149215833131481  0.7505198261609864
  0.0832602256258970  0.5002637923219698  0.0831046567400505
  0.0835455783586923  0.2504031921672877  0.6684919456437970
  0.0010754388610956  0.4176444900740911  0.2482539495693233
  0.8338034330732260  0.5817568462074916  0.4140481817869313
  0.0837458894183601  0.2499335218720575  0.1650816577476032
  0.0001605858698325  0.6664969372796250  0.6682217009985918
  0.9154275258875607  0.3353904564530910  0.4166205704106568
  0.0829607227387688  0.1705628098044005  0.2459521348848717
  0.0828082608603694  0.2504685546364166  0.0006028609130402
  0.0831542483490574  0.6669642536795738  0.7521349951647870
  0.0838748442368028  0.1671162586879242  0.0840272239832310
  0.0013799169305613  0.6656544838134721  0.1641487652567732
  0.6680354129046471  0.9979045217584999  0.4961838319167255
  0.3333382389546803  0.9167135488892618  0.4161208309519047
  0.4157132540599325  0.7503867969586412  0.5016554933622733
  0.3334765620830733  0.6681688610435357  0.1677108802007672
  0.3322853849917939  0.7501383333157546  0.2499119154051979
  0.6637189155768263  0.1660581621224765  0.0000239702163441
  0.4157924653121639  0.4979533273526739  0.7497258869928424
  0.8336276386234083  0.1669403384167012  0.0018992585448666
  0.3310422210956621  0.5813335576738897  0.5839357889219416
  0.5010612948453791  0.4995764175856061  0.3311208292549777
  0.3331834146626966  0.4989193512736457  0.5014227271186009
  0.5006035403560899  0.4986403520083006  0.1648430292133010
  0.3316360367343004  0.4993017882931953  0.1667733037295191
  0.7504738903735443  0.2511882695173931  0.3302154465727377
  0.1676164761655800  0.2528622988979893  0.4156661152252273
  0.6657590820122938  0.2521330741096670  0.5823523815971116
  0.7496318571578170  0.2506260189148150  0.4974849820773823
  0.4160103944593052  0.7497509379579582  0.1664281228235254
  0.3342403398280119  0.9151794914667454  0.2506701597273270
  0.2501436503016169  0.8345338158646518  0.0837895894923655
  0.4144974985527975  0.9171735913233072  0.9989363211447948
  0.7471879710984899  0.0844923438574316  0.0000072833155790
  0.6629606704102756  0.1666928367741564  0.1684353340902152
  0.3311618671218522  0.2503256779834709  0.7514173140153587
  0.4152060960111131  0.7499655181884196  0.8320821842973208
  0.0000723822054620  0.8328536700776085  0.3319061278461978
  0.7486565869703135  0.0828637535237277  0.3303972804345687
  0.3326978863550994  0.7517655038887742  0.9193801927043479
  0.3352463712234474  0.6647953047507218  0.8322768272028329
  0.6661185381708806  0.0835384556945133  0.4148217127972314
  0.3340934732710348  0.8321019444996061  0.3327051474769698
  0.7490821445117301  0.0025162198498669  0.0821956270521940
  0.6669847579960186  0.9998834174099143  0.6681178908599766
  0.0837180378280245  0.9184389754185598  0.8310424302755346
  0.0820481942744852  0.3332405789955211  0.2470828629570961
  0.9165396101276054  0.9984350466157902  0.2477590199595063
  0.0850250377671333  0.7485520076257676  0.8317093501823828
  0.8324884965993263  0.4160188145086782  0.9187864307613171
  0.0831778809771391  0.0856317929271297  0.0021147331410032
  0.0838686654242582  0.4996458634761526  0.5832003840453186
  0.8324025577542030  0.5838315637543992  0.9167655455082064
  0.9172115498802157  0.9174693325952336  0.8333098051425877
  0.1650046142938555  0.0831232859563107  0.9201715690753272
  0.0825738907492643  0.9897815527289293  0.4152289622902534
  0.8344952559292900  0.2494743677159238  0.7505187251742864
  0.9165808883104831  0.5018293503636417  0.5843350066331120
  0.9162523002649103  0.1677630312040426  0.7521990681769181
  0.0831307373596205  0.9988304256534092  0.7533910737969269
  0.9998210034934687  0.5828249269383150  0.5834855022852128
  0.1686756589330920  0.0019439333768672  0.0007403807779982
  0.0001470326578546  0.9152522745873775  0.5830679218658831
  0.9980080722059350  0.4154682344251600  0.9174038991593231
  0.8331499930466330  0.3327926802180089  0.1650909750105161
  0.0019476537266792  0.0836939373070543  0.9190511868686504
  0.2504346946899422  0.0005364324602534  0.2495473790134931
  0.8327665344916811  0.5832374811282512  0.5849522199063477
  0.9139191421296958  0.1696369973536991  0.4156262041112183
  0.8333925045779422  0.6663196499786304  0.1666086711160389
  0.0818992988096577  0.0008190537476940  0.9174988960753371
  0.7509998974181822  0.9143166087754764  0.4988828077048090
  0.9988885644129429  0.5836503106798507  0.9184346234751473
  0.8332937593022978  0.2519915803958284  0.4147423963632734
  0.0807931337296896  0.5834975973080919  0.3319195424124509
  0.1679946331742323  0.0014660038107528  0.1672169635267029
  0.1682395312657371  0.0011163870194355  0.3295700159234869
  0.0003780121628523  0.6661136157961046  0.3315716969357945
  0.9147558453400420  0.7470060399798202  0.0007130473087255
  0.0017341722785409  0.5029806834982004  0.5015886776402517
  0.7505047871117507  0.1681252837831909  0.7521424677977682
  0.9134904879535858  0.4996167215743205  0.0840954451101073
  0.0001492866264822  0.7489750305577513  0.7497480241615994
  0.9173131993539128  0.7478349832996313  0.5000254347170768
  0.5900292416912385  0.0028269460681133  0.5824993635632829
  0.5830334347607559  0.0853992831786445  0.4956145386408564
  0.4989411287838290  0.0844246518850602  0.7520101967968007
  0.6661942114981464  0.8319076145389580  0.3322698894548765
  0.5840638751625771  0.7486973171783635  0.4992683473536871
  0.5004736617060762  0.0076243484112387  0.6693049851850177
  0.4166853846752942  0.3340161828758214  0.2485910133737380
  0.5839108180867280  0.5830243158170156  0.1653957466501697
  0.7477185034551104  0.7494488904910961  0.8329390314510047
  0.5000300790715587  0.5000154230418097  0.0002006259579869
  0.0826099954855464  0.6665037409066368  0.9162451122962467
  0.0834058015438107  0.7503210371231368  0.3321685110520479
  0.1657214913375709  0.4995440177884798  0.4992707740503259
  0.0841486820090810  0.3331883718756402  0.0831983041386569
  0.9147867482482337  0.9177393335854199  0.0014802972051669
  0.0008728041152703  0.3340298768515757  0.1675774043968590
  0.0825647626110500  0.1685277981749905  0.7515454095499875
  0.9161937827991008  0.5836708622077071  0.8360119387331597
  0.0006912844458892  0.4204929494637882  0.5763519516315543
  0.8333189104992017  0.6653588088478212  0.6684062543514989
  0.0836725508316400  0.1685621122234391  0.5839102763409521
  0.8315972770123157  0.5005973317980522  0.1655383294082893
  0.0834548615511497  0.7496732205481896  0.5003587414329941
  0.9161479194434320  0.6662163794530793  0.9159766036918831
  0.8323112091945307  0.3325442662212391  0.0004936846525603
  0.9988090679072964  0.6659108123221292  0.4997764109108718
  0.9994519179777561  0.3344423338759734  0.3316808618514710
  0.9158363407218947  0.2506625015370941  0.3324877095322811
  0.7504064506481239  0.0023948896877664  0.7526654460866237
  0.6677436030756203  0.4182460840211685  0.7519885768866249
  0.2507477643157418  0.4172799428262930  0.1662025035321920
  0.3302892658669823  0.0847666866448547  0.7511669077990225
  0.7495004774746956  0.5005700764750676  0.4146798664315293
  0.3290119617336061  0.0016205929564215  0.6679663533596721
  0.6675482612267390  0.5007342454106929  0.5007451910626207
  0.6689997832685759  0.5845170710112098  0.5846434040476801
  0.7497331905294681  0.5010442630778920  0.5848510849763030
  0.4996122766461767  0.4169171851017960  0.0835329781081454
  0.4171115161525507  0.0834830307663497  0.1687478605924468
  0.2491301003570294  0.7494466651978663  0.3310945158054466
  0.2492054915223430  0.6645858334499789  0.2506156063876201
  0.8334973226079009  0.0912379573569568  0.5859040700865348
  0.2502029526703420  0.4173539540751461  0.3325367890295182
  0.2495803370798477  0.3336283652715650  0.4167369143385881
  0.1660555963005294  0.4181310225033768  0.2490386940782746
  0.2494471831065615  0.2522242047629439  0.6668749861930738
  0.2493754972364014  0.1673510722045376  0.7511398590375280
  0.8317147093278553  0.2490273959140130  0.0843703850444773
  0.2501106204380107  0.1685908328259273  0.5843658720398316
  0.1669496963118278  0.3325158441096088  0.4998516695003434
  0.2507259925256430  0.1700749568279979  0.4176502566829394
  0.8324050821923775  0.1664182013609500  0.1652979359512319
  0.9159412670785075  0.9991380550503233  0.4144351284948793
  0.7483420257534926  0.4163581288224507  0.8342930617313625
  0.3330661995910418  0.4178117804008555  0.5822157404307774
  0.1646496527930869  0.7493189613398796  0.4155385967049862
  0.8337706134799633  0.0000068640792557  0.8338089229912111
  0.8329275206201441  0.1664560976061169  0.8337634647136781
  0.1665764369789700  0.1674887321805294  0.8347119093202248
  0.7505179935277804  0.5008898834107324  0.0832140944699058
  0.1661123954309644  0.3327870223421150  0.0020120247905070
  0.4167856086478411  0.2499692430215276  0.1665312036753069
  0.4146886910525722  0.8327442829480577  0.5839902069483974
  0.6655340151669282  0.4175754184714101  0.2479813481299489
  0.7482405149627200  0.7498937539134348  0.0007453103547982
  0.1650412113650309  0.8324351291757452  0.5003561485681483
  0.2492290702071005  0.8333809306612669  0.5834290479449661
  0.1659120334299926  0.9992283929644770  0.4992277405779520
  0.7518015204910437  0.7493512273183912  0.4990359847049912
  0.1744505092585073  0.8341611548950311  0.0020816696650987
  0.4159885325153408  0.9173011954943705  0.1678692188143682
  0.6670314560960853  0.6676259300028009  0.9998112684413287
  0.6665331510762615  0.7501997725423629  0.4142547743090022
  0.2510523097369861  0.7495841511169431  0.8334661793997582
  0.2518590684266572  0.6652754499381167  0.9160118570179104
  0.1667013677977876  0.9163147461228349  0.7508156037942969
  0.2502525095105191  0.6655068413782856  0.7521448160533577
  0.4992795853796058  0.3327413656706255  0.0001577013435030
  0.2500734863802797  0.6649790652108797  0.5835395143019138
  0.6675836644543355  0.8303181578220227  0.9983841366917686
  0.3327908719181379  0.8312667097954617  0.8334420166510464
  0.3337999142622194  0.0847573206410094  0.0841338141255934
  0.3314783271431092  0.0850171249058506  0.4157153610171123
  0.6670811909525510  0.8326276911477957  0.1683132165702570
  0.2510460480350097  0.2503407140388977  0.1670172757907088
  0.7502411102864164  0.3324773233013614  0.2481700868186805
  0.6681268746600170  0.4194939560719618  0.4147450779910041
  0.7518336994820894  0.3354630850634102  0.4136413225215610
  0.3304478143416325  0.1686299095207588  0.6677008274371224
  0.7494650019117243  0.4997731278147920  0.7525184239879265
  0.1674856562960784  0.1690731022246458  0.5004372165470998
  0.8333208131412192  0.0868070053891457  0.7514988256995144
  0.8324824727867862  0.0838963974486876  0.4130942895587853
  0.5847466674329186  0.8314602395960583  0.4149095703559229
  0.1676609183339755  0.7491204342532949  0.2490765507441529
  0.5832418431193488  0.9984101057154122  0.4161896672805621
  0.4170290487738243  0.9995621538707308  0.4147707331596519
  0.4160363340557924  0.3334357683404102  0.9182054626195770
  0.9172298017014234  0.7488386677359781  0.8332448995294799
  0.8361130168146648  0.3359768343768484  0.5006638110784571
  0.8329304219475462  0.2528114052407787  0.5826804328832319
  0.0027153918658749  0.0857379006312528  0.5840671719115867
  0.0007379021203633  0.0835216347142271  0.0823221432532854
  0.8329530789275776  0.1684456998920832  0.6689829697693189
  0.8342420793896567  0.8343118358058497  0.1675612654743820
  0.0822722558600143  0.6647338975722449  0.0852141351976483
  0.8320203841115426  0.4172004647160982  0.4153886381506472
  0.6660851261297754  0.0883849495782230  0.5814798481311867
  0.7496388803183736  0.9996575747603658  0.9178965726757792
  0.5824742691752441  0.4177522577668662  0.4997121030415035
  0.5851786727757248  0.2526223547382035  0.4973452844568841
  0.4146374738193160  0.4984238382825835  0.5830719599504224
  0.4123210792728536  0.9165543201184241  0.8355974720313376
  0.5822556102851156  0.5001781393852630  0.9190251044281477
  0.4992204492128534  0.1700240305416974  0.6685488198647132
  0.5832336242768252  0.4175213464451938  0.1643517165030043
  0.4986842817156631  0.2530508701277558  0.9183750144236577
  0.5828571226395015  0.6659379674273190  0.2487717814336471
  0.5823036369340709  0.4986366369419368  0.5830721997190746
  0.4988612527284961  0.2512436020087956  0.7500102916420430
  0.5839463352443940  0.5816249970569357  0.5007851396123740
  0.3300134649929135  0.8321732410370091  0.6649763474395018
  0.4994755339256608  0.4172721816003401  0.9184832716786042
  0.6655227037816642  0.3338864335336997  0.0000550139652054
  0.5836843552057092  0.0860385362145573  0.9991228602155169
  0.3330410816920222  0.6668717419726127  0.9990600312704043
  0.5830827476380603  0.5814027307607008  0.6647584076269041
  0.5019480390697026  0.2515938434510160  0.5843571329210833
  0.5837921672665543  0.3329819675747811  0.5840183780079161
  0.4992114835319055  0.5814884532917940  0.9181875231735928
  0.7490967724195501  0.5815918288559898  0.8339862744052238
  0.1668965374160077  0.5834632258639262  0.9188965019686317
  0.1655914739629805  0.4993701161445642  0.8337957070687753
  0.7512145379831386  0.8299778872638554  0.5840022033375790
  0.6680689500217168  0.8294777651711392  0.6661198454451240
  0.7507666140689903  0.8299064058623595  0.7501476267923971
  0.2496975655742552  0.5834728738551719  0.3329772232985321
  0.2495679516183970  0.4168293039411684  0.6674433235134348
  0.2478831878464319  0.4976026147857293  0.4153276999871768
  0.7486985984588768  0.8314599261846604  0.9166694761626530
  0.0824009396974327  0.5829396506431531  0.1645880814945677
  0.8317782930114207  0.0836669291637594  0.0831641875496719
  0.8311367142605322  0.0827847757784536  0.2487746075878979
  0.1674944803955450  0.4168306148941894  0.9174355079371003
  0.1668082400624179  0.4172593445981839  0.7530929482219716
  0.4999808049936871  0.1687540465196825  0.3325673947003835
  0.5023292640645393  0.1719040583423869  0.4980848058602388
  0.6660516771344628  0.1692520304931950  0.8342536229971003
  0.3332997654371989  0.4987162457868373  0.0005353588481501
  0.6670830435989357  0.1693052622994086  0.6690777234811531
  0.5827335013413916  0.1670262714941000  0.2495781182048963
  0.5863885489993433  0.1689938246129125  0.5848658135877951
  0.4962081511575217  0.6645305724413705  0.8335459176682093
  0.5803883729891578  0.7476431870688143  0.8339680334464208
  0.4969622268369605  0.0007345831386802  0.1673570727426894
  0.4993072045115263  0.0844393569316067  0.9172476903818740
  0.5844374625805788  0.6626707662956135  0.5827261237002554
  0.4162866075411254  0.6679284839029973  0.5823838641552593
  0.9993456725977476  0.3279471377390589  0.6682507330823695
  0.9984867885510105  0.4993351981457322  0.0002491755955838
  0.1674357631518077  0.7488443293832920  0.7500001618706584
  0.0829384059717903  0.4997185919448856  0.9177873626753603
  0.9995848537861175  0.5008327216039594  0.8365419747562057
  0.0822531353748628  0.5820038982182468  0.0013629356882126
  0.9981100904171284  0.8335565140128177  0.1673155412313261
  0.9999847766495694  0.4160416224523310  0.7607999080386622
  0.0882040085434223  0.4171049522447768  0.6674505815422940
  0.0838792664291592  0.3337937274486587  0.9180498023338496
  0.0841368698248259  0.4165580754480583  0.8370292363332728
  0.0829743656148927  0.8325193943300870  0.2487065398017699
  0.9981266224303174  0.5823730586993731  0.0821501615798445
  0.0844428902423504  0.5836489994926698  0.6677344813803096
  0.9997490764251246  0.4998577530646238  0.1645146684295410
  0.0843158499444763  0.9232999247904825  0.0015763511741669
  0.8323237412793548  0.5010344776745399  0.6690130516190421
  0.7481771186888994  0.1671328985353595  0.2482970570217331
  0.0820111139966811  0.6667420088618604  0.4155318587721651
  0.8331283970584842  0.5832120296085023  0.7525835115419843
  0.9984426511303922  0.3341974562602573  0.4993269352009315
  0.0829527214328113  0.5834380778361390  0.8349232321598370
  0.0840320336021371  0.7491357437203461  0.6668811581817964
  0.6669681182304931  0.2514833153953140  0.7517830822650824
  0.9906569985807200  0.8330308777923046  0.9990596748360362
  0.9150401951553059  0.5833922298479904  0.4993689872994610
  0.0841020098194961  0.4159719329309924  0.4974040473288949
  0.7486484715981905  0.0840033196585217  0.8359532537066450
  0.9998346955190334  0.6662144693872001  0.0005845702937068
  0.7492647180575372  0.2517099296508234  0.6669716025433784
  0.0001744709414537  0.7488658020811846  0.2482169109182071
  0.8326157788678078  0.5003145675927214  0.4994158956391094
  0.0838470256816425  0.7486023291314583  0.1662369521160837
  0.6667110422137860  0.7492311420650063  0.0843936286558495
  0.1653891066012509  0.9161021445188046  0.5837288693552481
  0.4157720062556846  0.5819381289933896  0.6659072234159840
  0.7502632870164271  0.6667096036741036  0.2486648719822785
  0.9151742928812189  0.1665700129935925  0.2487004326851552
  0.7485192361934198  0.3326353063274903  0.0828723354368849
  0.6663643181273118  0.4169269747402503  0.0830238642243828
  0.7494879930865250  0.2511030475172156  0.8351985072770034
  0.7488317429192463  0.1676831305693678  0.9177485441415680
  0.7477410421507862  0.2493811810716390  0.1653323828698748
  0.6664319912928757  0.1677779422323625  0.3319811774472146
  0.6677427384464029  0.2522190725047648  0.4143660355886435
  0.7506244558662873  0.1673487245800669  0.4141182815072527
  0.6674634612196385  0.1681652451332593  0.4965021541599105
  0.3335709980022983  0.4988389777343322  0.8327879264714471
  0.9163411057224449  0.4997989902985270  0.7530418460812680
  0.4169836470146308  0.8330178929805404  0.2493512049998734
  0.7500478788447924  0.3336059018894554  0.7516960835850248
  0.1657897731159771  0.5827191666895594  0.2494940843972458
  0.3324877988323416  0.9157000243164606  0.9175595301959935
  0.3342530188106607  0.9178444919825592  0.0841830509049841
  0.7502141666329741  0.7500145967087281  0.1669737448327420
  0.9174156931581622  0.0007115792658300  0.7513907939804699
  0.7491515102052931  0.1688462646469878  0.5829749838523952
  0.8326684027268346  0.4996643381262115  0.3312138216390383
  0.9163023920129458  0.5001728526185757  0.2476435134185377
  0.6657246562325184  0.3348271819343179  0.8339641960477174
  0.7505896578683198  0.4165902571349259  0.6678632984172247
  0.7498417237688989  0.5829163493382848  0.6685327823309406
  0.6651485804294351  0.5004931315332123  0.8345366328613758
  0.6659540730321515  0.5842404935471305  0.9171377858037932
  0.7490699621598466  0.4998525438182174  0.9164793030631871
  0.5812797462562644  0.5827085058692070  0.8338373053832181
  0.6656708687598989  0.5824708587947878  0.7501938719306678
  0.8327485322087592  0.5000665833282760  0.0001892076012797
  0.7497538232906220  0.6671416187926962  0.0836919111874867
  0.9994957963624054  0.3323138828483453  0.8364888081290401
  0.6659127464542273  0.6662018574075228  0.1668407185207154
  0.6668039193520461  0.7497049219348749  0.2494343295897171
  0.0830389953723294  0.4174091504338735  0.3329192921271806
  0.1654970015799294  0.0844459387167971  0.5839386205745324
  0.0829348187384585  0.9155111918667780  0.5012237303641721
  0.1667562461701479  0.3342772253735918  0.8347811247697627
  0.1656705215919404  0.5835457245910460  0.4156508259122916
  0.0822432794040089  0.2509442768189870  0.3302766556375514
  0.1671364897862473  0.8329619061581023  0.8326464780600494
  0.2495573334687498  0.3345210771706238  0.9177766819594471
  0.0842135817398670  0.9179514034323243  0.1667756043313380
  0.1672097239221182  0.5825360461114811  0.0827696617042286
  0.2497632792302854  0.4170108044586688  0.8346510916165667
  0.2514871741781009  0.5819151143730423  0.0006411703216787
  0.1661013135138503  0.4991830759247388  0.9995556226932417
  0.2497513124644690  0.5008394523382997  0.2503371120723726
  0.2506568612738514  0.4995607201475833  0.0830185549812080
  0.1662331024655094  0.5006083400727097  0.3324207980446016
  0.1670819228167174  0.5001435858751677  0.1665860002494125
  0.1668580611723412  0.3335215571333184  0.1660421545195839
  0.2505370113801613  0.5830833704176093  0.1657925810407258
  0.9990356468629209  0.2507099351020705  0.4158344256273003
  0.0000092819653871  0.8322480658052673  0.4991368677799680
  0.1656435524660652  0.0849685329104818  0.7513866732261244
  0.6661208005310960  0.3339927285474715  0.1666724687256100
  0.9155927813827305  0.3326638375612743  0.9184626054812116
  0.6668905976779356  0.6659490885311337  0.3323195069906872
  0.5830849922448733  0.4165920660153438  0.6672010709449896
  0.6670822715358321  0.3347570001427686  0.6675799794771906
  0.7504758669056071  0.4177095005413827  0.5006373096995793
  0.8323363425506902  0.4181932127041359  0.5836564546564657
  0.6670276733600154  0.4167750137814181  0.5840527653565687
  0.6677951599390842  0.3365881142156527  0.4977307657587394
  0.7502082011641290  0.4174025010229039  0.3300528322527790
  0.6666653717804177  0.3349714853647272  0.3315868531588214
  0.2476533979506316  0.9991029753785646  0.5829021298628707
  0.7492000380686576  0.4164716784195830  0.1649480747721578
  0.2490048140810270  0.0832898472500114  0.4997492636718597
  0.9167518589871196  0.5827857714217141  0.3312533428847628
  0.1643311266227608  0.0000409701102115  0.6680345751929554
  0.1674781573085602  0.4169072634426546  0.0834403335340476
  0.0007219504672490  0.1670762846454421  0.4987164877354808
  0.0001535975321878  0.2499637270192965  0.0833724181664262
  0.0838491180028557  0.0016091136411651  0.0837705735543105
  0.0842574544352920  0.0832998481566276  0.5030572726655259
  0.0007527270836579  0.2500200701012719  0.5833062124003392
  0.0007542021037393  0.0844870982511845  0.7516333101516307
  0.9994626476076619  0.0835847947000309  0.2479732914290591
  0.0833827698908505  0.0848400837070289  0.6680726484441288
  0.0835904783726030  0.0846419693358603  0.1663395166209613
  0.9997613498278445  0.0004348110499867  0.1657167027594513
  0.9926221070588906  0.0833403313345984  0.4151102177989726
  0.0849221506406048  0.0001403523052891  0.2475973664416843
  0.0007791360627760  0.9999690218144358  0.4992897380244806
  0.9993567542401827  0.0000795383162091  0.3313626512300915
  0.9184222586801376  0.8309303337608419  0.5835354110106590
  0.0835507221872919  0.0839867804861797  0.3251234310085450
  0.0011164819620808  0.0001452593027966  0.6684900182044621
  0.9174745950696203  0.1678501278694216  0.5834903512095593
  0.9989720689156218  0.0007593774774709  0.8345202174159347
  0.1666202606921578  0.0022163123406173  0.8352560238586118
  0.0003933080432078  0.2501226598511922  0.9183655759430649
  0.9997426864603165  0.4166458806441654  0.0837450616037827
  0.9984631940787835  0.2503335375117328  0.2493044564250109
  0.9164397045171019  0.4175698718720994  0.3310132736030266
  0.0820569436659774  0.2527988453863134  0.5018847808873177
  0.0827305347431622  0.3331609817597617  0.4152466508425612
  0.9997595705116972  0.2494459731044748  0.7524478151504538
  0.9992118846083295  0.1665414701658554  0.1661470266190138
  0.9995691204984297  0.1672957278189592  0.3324905880312179
  0.0001177017357172  0.1677344966174626  0.6678917755334139
  0.0836216988665298  0.1670178653200855  0.9180740471327087
  0.0835623642750299  0.3338107092626882  0.7522275767846810
  0.0004571627935404  0.3337106518099409  0.0008234897796088
  0.0008327257203679  0.1671100604238066  0.8352013380041355
  0.0828672442078310  0.4168097661316016  0.0002894404787218
  0.0839856367432048  0.2499363558850766  0.8347516396441093
  0.0842878643288793  0.4178080360047604  0.1649278402639253
  0.2499822062081319  0.4170347125796560  0.0001323652443210
  0.3261718159525390  0.0822199688582067  0.5837997679524429
  0.9174305649187949  0.7493307578027379  0.3316198648242353
  0.8341058986745818  0.7485256303120017  0.5833882893197270
  0.9163460168920469  0.6659299355075727  0.4153058816174622
  0.7486869811657475  0.0854606231044129  0.6676060591564306
  0.9160719417747406  0.2500722912730000  0.1660390606115496
  0.9166113823195889  0.6662472897639946  0.7516713167142934
  0.9158540694335220  0.5838521842038200  0.6684807580854226
  0.6728378398834571  0.9147512081334427  0.7502305389833117
  0.6669960093654963  0.9130125345467474  0.5825519983772740
  0.4983519811277444  0.8336979325152182  0.0002796044275154
  0.8342928215994179  0.3357795322853416  0.3309693713652024
  0.9169874978119908  0.7483508565610371  0.6672412696941106
  0.9178599980499695  0.0842962891030356  0.6675458716520505
  0.2507926778263108  0.6660681463004446  0.0831807720061498
  0.2501154551518623  0.9159858498506336  0.3329245389894278
  0.1671806873374905  0.9156197933164600  0.4160304523450636
  0.3335455948591317  0.1669516317362371  0.0005504663771361
  0.3328159184478755  0.2504049225106758  0.0847011881620304
  0.5818310680554044  0.1671929389268477  0.0837423450594863
  0.5827675186650108  0.2505378269916128  0.9999657476138982
  0.4992373448213247  0.1669630084998455  0.1676884091424683
  0.4994994313980008  0.2509676779091838  0.2490042133117669
  0.5827699936331263  0.2505637716456304  0.1670028842957380
  0.5001742482010390  0.2518803859034461  0.4150905545537207
  0.5838118360603630  0.1688842437619746  0.4144116617337752
  0.5827907741861831  0.2512282089802579  0.3315230822478949
  0.5829987858693170  0.1686633289828763  0.7513660942222925
  0.4160855668829166  0.4170169644263124  0.1658477353284810
  0.5816591189742307  0.1684716192976462  0.9163167374036434
  0.5059010914899728  0.0854372340877093  0.5832014139523090
  0.1675747638686917  0.6651618579076498  0.8343668287475616
  0.3325108194955471  0.4991828626710514  0.6663915790382963
  0.4990695560222059  0.4989082693391460  0.6665544365444777
  0.4158441755942731  0.0000919440179608  0.2508322705354985
  0.4997567912352406  0.0840120148662863  0.2513354776886919
  0.3328673875638820  0.9995277725537119  0.3332543254974775
  0.5009899718960978  0.0844763614463391  0.4140109379139553
  0.3318642940472905  0.6651611796629709  0.6662390271856923
  0.4168456236461883  0.4993227871483485  0.9174475307299267
  0.4995503560123958  0.5827299117441410  0.0834842338755945
  0.5842781113310143  0.5006980060405639  0.0819745630255310
  0.5833091439579902  0.5841915179357254  0.0010134879052459
  0.4167119130500150  0.4986030199391723  0.2477307159321055
  0.5004954582303490  0.4175274995712088  0.2477508446034542
  0.5004667485728931  0.5828419787023948  0.2476000446521466
  0.4994253184688806  0.3339612940082456  0.1659706214442426
  0.5017545715089247  0.0010009898043865  0.4980577005475477
  0.4163119994829024  0.7496314460563021  0.0010464536807032
  0.4164262880782527  0.6669674985104892  0.2487436056908095
  0.3327661368839476  0.6670639980695158  0.3327343427692452
  0.3312859592544976  0.7503856296976639  0.4160384799402361
  0.4160585339191976  0.6729446586698389  0.4158618553798840
  0.4160974800170120  0.7506469638868358  0.3318004924049162
  0.3313628028196363  0.6661517042377505  0.5004616636252790
  0.3313975958324981  0.7485433901657629  0.5831972404325589
  0.4997647335208420  0.7476555304639526  0.5815773843789731
  0.8330731562258785  0.3337982896595689  0.8352391917916274
  0.4170117626026519  0.9943148758422775  0.5834356117271601
  0.4183804342297264  0.0851791059790475  0.4921846994668396
  0.3338068243840345  0.0840916193961503  0.2499139337436883
  0.4144119754828218  0.0852006658177215  0.6712359538437503
  0.4985732026876373  0.1684337060097765  0.8337479350088742
  0.5831660591676403  0.3329072272466122  0.0830204785888738
  0.5825257204697374  0.3340741057240582  0.7513611125646930
  0.5830223053901291  0.3352006266472341  0.2486478920479471
  0.5001639212148269  0.3344378075320381  0.3314650547306117
  0.5009843123276118  0.4169947246636671  0.4151570730745196
  0.5840770849100461  0.3357471602015960  0.4154884598542854
  0.5835034439344166  0.4178912140074957  0.3313008612747940