Cr H  Ni
 1.0000000000000000
    21.1080978853550221    0.0000000000000000    0.0000000000000000
     0.0000000000000000   21.1080978853550221    0.0000000000000000
     0.0000000000000000    0.0000000000000000   21.1080978853550221
 Cr  H   Ni 
 259  86 605
Direct
  0.1611948606264247 -0.0009448768405830  0.6662721875568327
  0.3292339551837382  0.4169624031516412  0.9168608189844445
  0.3289493301484221 -0.0022666120057602  0.4993904385819032
  0.5810432399553395  0.2526791616765298  0.3343316902931435
  0.8335594872306190  0.0021616531297793  0.3361581765996230
  0.6643623317151541  0.2500582624002445  0.0833133293341941
  0.2491886457150056  0.2497868343935589  0.1675981354758468
  0.3298933481579300  0.0014470130289000  0.1684583153070351
  0.5836126515907086  0.1668638210860734  0.9171952654499017
  0.7473155587690742  0.0003231486291788  0.5832176300295634
  0.8301856395907181  0.0014435521148725  0.4990572835174680
  0.9128714216194869  0.1652458344942142  0.7485473347755874
  0.4975789184566826  0.1673688175000096  0.4998953269172168
  0.3295837326979383 -0.0015872954225212  0.6660635018917287
  0.4146174929533343  0.1679551187713247  0.7457578630023975
  0.2462675468645033  0.0833444345041389  0.3355243589500279
  0.8310958125804777  0.0034638515414372  0.8325961523022669
  0.4974956475637723  0.3326063890444668  0.8331114457213503
  0.3298356277807288  0.9175188988351928  0.2506297344102050
  0.8268301634239943  0.3339622712375006  0.1712964245261786
  0.9134107724812426  0.1675500335146787  0.2506574761957141
  0.7461872964517077  0.1683881506207968  0.4173619436933566
  0.5801406435407850  0.0805359469445311  0.1623527282480632
  0.2437119960996233  0.8353863052884786  0.7467750596226441
  0.4983579136256318  0.3362662320439703  0.6662962583930941
  0.9092655541878690  0.7481981876178749  0.1684519290165314
  0.6649898304842897  0.6655649261131604  0.0002957519678929
  0.7465250783950054  0.8343700335233689  0.0826815657202638
  0.5809728524485342  0.0021766622762660  0.0833824388496337
  0.9155507361598110  0.9166763070786728  0.8331805733914248
  0.8273741974175336  0.8322376194234026  0.3341030499656531
  0.4130820241491939  0.5009249272225818  0.0844185547092490
  0.4136917680432698  0.2546862281710731  0.8298552327407375
  0.2481917051050785  0.1664025929378689  0.4171585598351629
  0.0823889081999719  0.6679968740091052  0.7513127725738034
  0.6643620933352026  0.9180873420023419  0.4172771477971742
  0.8269866689574926  0.5861867951073578  0.2522273440744301
  0.3306675001917333  0.4177342244696069  0.2505507319931920
  0.0802225889955250  0.2497277814575587  0.4989233237583322
  0.4103226677845607  0.3334691733248395  0.0842160864859320
  0.4964090340079518  0.4163384938896920  0.9191709005173315
  0.4102834172777203  0.1660340740851433  0.9181212081024759
  0.0807320400879079  0.5008034393929117  0.2508631056964703
  0.2491858256453119  0.2510076156620815  0.8316637254665914
  0.9127904927817938  0.5006710256924504  0.7486296684046226
  0.4129053797458894  0.2513042970168844  0.4993927760151240
 -0.0039294371990524  0.5023259367053491  0.1703594876619076
  0.4161212463761266  0.8358125925793152  0.7512574202862211
  0.7456733085488723  0.6654200194000605  0.9183892442680065
  0.1639494252165826  0.5834957600236758  0.4178733909348999
  0.2482618885734806  0.3351235355407718  0.4179768341759701
  0.2466992224626464  0.4176868906380650  0.3356000566071604
  0.1649388989675952  0.3344826286953301  0.1690632694560188
  0.5819159562249756  0.8315748482202604  0.2488515765879457
  0.3331451847047217  0.5001819907670217  0.1673168748064226
  0.2500034327177036  0.4173499127768214  0.0005727381371496
  0.8299927513144408  0.5832907250504182  0.0830874041705219
  0.3291066708879786  0.3356568126361062  0.6649236299855299
  0.6659296610859473  0.1675377982587187  0.1667001670497286
 -0.0036757806236352  0.5834972213628685  0.2520040959891408
  0.8286714631202898  0.4173548984313393  0.5801329239170454
  0.4975674113045129  0.4173051789251930  0.5838382106733159
  0.0773388137751420  0.4988754155812989  0.0882394211889154
  0.5828525273973253  0.8341857410370592  0.0844888975840680
  0.3273095912677240  0.2545240387649683  0.5845232173938555
  0.6645047661453933  0.4171108382785194  0.5812644708286464
  0.7503492904685940  0.9182010684421956  0.6654852945444455
  0.4966124749288171  0.6658522759406342 -0.0010212817986819
  0.3299796644987438  0.5839962888327291  0.9173326287203507
  0.4133702816098406  0.8302602774037141  0.0836816310045648
  0.8301635537537766  0.2473385020806123  0.0853301701961828
  0.6642332305054062  0.5839529205626820  0.7505065174992864
  0.6642763169169078  0.0829590825352010  0.7502887709920206
  0.7476508579851163  0.2494144027385997  0.3362711133841080
  0.4963597444873635  0.6640637202911738  0.6699300902812950
  0.5829484241551721  0.8347346376263816  0.9204964781430239
  0.7471231961191416  0.3318019044262068  0.4167110749913185
  0.6652303585308957  0.3327325620184083  0.1688144746717478
  0.7447454431824259  0.4137419670786061  0.8324958768513502
  0.4169342545825868  0.6653719376716331  0.7499680500737507
  0.1616817022543314  0.0040242364676163  0.0001879576234204
  0.5819277428574942  0.3326437104131392  0.4173232454516739
  0.2490234682685396  0.5845563721226054  0.3386094016609256
  0.2458257220671258  0.8307667053019833  0.0880244056242761
  0.4093785112321602  0.4999749474126340  0.7495083802373151
 -0.0059670355197753  0.5813739432872792  0.0844613731023930
  0.1617189403962958  0.6732621844477810 -0.0024210946767060
  0.6639114919570863  0.5854683319033038  0.5822103906644812
  0.1638708108780354  0.6707260568634512  0.1691159822824860
  0.1634594235619605  0.5013287363711603  0.1733961653867341
  0.2476378584927330  0.7519022873106466  0.6651465988366752
  0.3285747499507473  0.1667855028866532  0.8328029411723988
  0.3326172928664639  0.6688027478958223  0.3355811496857510
  0.4960752192598062  0.5810524625629830  0.5825307117652233
  0.7480649745306152  0.0018023084493404  0.4207735445721151
  0.6629740369906504  0.0842103860335404  0.5838736479100480
  0.6635329268428078  0.6650308186016415  0.1682807336902908
  0.4970382284860365  0.5836757402982544  0.9178124565325494
 -0.0058187792795250  0.5014730929706531  0.8300225626830962
  0.4962263758902328  0.6662257455656674  0.4965806878069592
  0.4988990705948175 -0.0000992902718622  0.6673426998052209
  0.9132247404366584  0.2446829470193990  0.8336792605099972
  0.3291499252268693  0.4158386273520800  0.5836772869094905
  0.6631847056416864  0.8333706062517047  0.5029669362443711
  0.8297110933357283  0.1682409709654018  0.6656540024682410
  0.1651417854179814  0.5000699615763176  0.8273973957654677
  0.4968965082052889  0.8330810282858997  0.4995253180202270
  0.1628943476253213  0.9181630744921501  0.2506125670855711
  0.2472183673762496  0.8327360363819455  0.5845440107071471
  0.5829207609926756  0.7504841214868294  0.6636348385852181
  0.2435562649317101  0.7489094313415188  0.8335615443001676
  0.3322426068870510  0.8367945579486561  0.8353287134372774
  0.5761588264862018  0.9190548765750159  0.6670497573684026
  0.1604626799007990  0.7500291346322692  0.9179822692589572
 -0.0053082509460241  0.2470675241038543  0.2545382252685003
  0.4954122705113507  0.9162528300309319  0.2469095963822176
  0.9155189158623883  0.4156903705812001 -0.0036746180125150
  0.5822578021576728  0.9194351522261619  0.1638864546938033
  0.7524496035086536  0.0036813348096567  0.0808601472567022
  0.2476544541906383  0.8348737464328665  0.4163443178778591
  0.6647963664813592  0.8340773453727188  0.0007452783156813
  0.2454367741947065  0.0828878676881934  0.1676004788897512
  0.9130437003989467  0.1672015734088161  0.9143052469383685
  0.4116923483768767  0.6666008666118853  0.4162551527211172
  0.5794213068088945  0.0846818117680586  0.3391041556101722
  0.1630460265181850  0.9187947861224840  0.7486785178582456
  0.5832074904202468  0.7486760400019205  0.8377373655582238
  0.4971637351005723  0.4169065929195379  0.2474807741061386
  0.4139496540103906  0.5827810842173429  0.3349859321701147
 -0.0045416046352443  0.0831601123361974  0.5830203200657235
  0.3295871678826099  0.0836016009264312  0.9165255374499238
  0.4153470976176179  0.8349765035277767  0.5817586939769552
  0.5801488486414290  0.5001186661365015  0.4168856387876333
  0.4133399078097775  0.7499877358615851  0.3342952338149014
  0.6639988524950747  0.0030799083058418  0.8317767781916273
  0.7453239388483889  0.6676074610861600  0.4166149796436973
  0.6616503520404536  0.0033769939595388  0.1684183686327348
  0.3298830170553528  0.0795201950946281  0.5841583747511977
  0.9140450154688042  0.0847024352264507 -0.0001539201618950
  0.0848272847670574  0.5823205913291286  0.6684551669575765
  0.4961679352404397  0.0826802450289924  0.9178886388805647
  0.0799529130357491 -0.0022221595466061  0.7473054993744984
  0.6622463884126104  0.4998396740621390  0.3378284387843366
  0.8257604230315835  0.8334764638535128  0.1656590272969134
  0.4133719225466687  0.8335470748367536  0.4182341729354483
  0.4968848327279985  0.5846918232980386  0.2506217507283091
  0.4131941077979908  0.7500354613824302  0.1662020988279870
  0.2472273555122156  0.7508114853972390  0.1672997517685913
  0.3320594645752917  0.6680457548091082  0.1677566221544097
  0.4133012148595043  0.9162817134421491 -0.0036540485864349
  0.3287677739229756  0.9162536370834937  0.4177629165658810
  0.3309166890451167  0.6635889305763759 -0.0009490614764543
  0.8310716170632948  0.0844988234999075  0.0828635539161677
  0.4091516748016475  0.0033798497748864  0.0837654329522646
  0.3299255986537032  0.5839286499405454  0.5835171981630457
  0.8302967130294068  0.1682614162607740  0.8306455593678103
  0.4974847388370268  0.6632243032753939  0.8333096701197116
  0.5788701478182248  0.7511161269716621  0.3316968637499558
  0.4977315602301353  0.1675825645976984  0.6678289950367294
  0.6601062432744340  0.4992458824148757  0.0008494200075354
  0.7443332460721800  0.6659011496770847  0.5826261761604303
  0.2477277784333640  0.6653544654614006  0.4159703818739376
  0.7453949575265890  0.6648925272929183  0.2502614309001462
  0.1643210938557811  0.0000905637073248  0.4986065485479549
  0.6628903849371621  0.2505961249817569  0.7505318534483532
  0.5836660271518815  0.9155040080303065  0.3361550071191914
  0.6630795007983262  0.2494158438090326  0.5833079248677152
  0.7474692498208642  0.1680652244386320  0.9142159057374132
  0.8307038120430555  0.2497623285628272  0.5837842146520901
  0.7456913944402894  0.4163623235580149  0.1682603232972509
  0.6635875312284929  0.5874239930085489  0.2493973744189249
  0.4121549873849986  0.0832919951453476  0.3346017743950694
  0.6639501297782003  0.3318957474418227  0.0002117849694693
  0.2450439306935289  0.0833126875043456 -0.0004665468745151
  0.6630202646831596  0.7514450722070057  0.5823806951720638
  0.4981976144603414  0.0018781692107460  0.8348651167709902
  0.5852300750551982  0.5005626029739243  0.7495360313031889
  0.5789714639067649  0.0851434736426920  0.4996125816997968
  0.9124745359722582  0.3353297843572533  0.4189626217338920
  0.5822020513393464  0.4160915618301235  0.8339393969966490
  0.1619402741578761  0.3333155492622688  0.6652700519613622
  0.4957689647329451  0.0011632083730946  0.1687631896071714
  0.5810498348281822  0.0873228038208146 -0.0019762002385570
  0.4145085757421328  0.8362205690207165  0.9177677699762989
  0.5806602809507770  0.5027911768551122  0.0830297564600667
  0.4978863420770016  0.0022364515522366  0.5017267961672541
  0.9122429547690512  0.6665193111547955  0.4174004605168545
  0.6649595491638408  0.8344503214227365  0.1653101966650708
  0.1612150248674307  0.1666136188427455  0.6666176655581488
  0.0779166378128513  0.0001832836029760  0.4147629010447509
  0.0793367613184221  0.3341062697752174  0.4196278558831912
 -0.0054796880098821  0.0011466708016532  0.3341723935721062
  0.0799978072208174  0.1659258461003172  0.0822920698707513
  0.9123325190730845  0.5893102207874097  0.4972838721370587
  0.3251057780448491  0.2497999044716515  0.2497744209682466
  0.4986109337469736  0.7508710157022994  0.2506435119504897
  0.8295432896452896  0.8319169329206820  0.5008138384657550
  0.8285633756384265  0.7507196282944856  0.5827567278178544
  0.0798356160097728  0.6703728071075673  0.9167673047512247
  0.4971689572106215  0.0871712439064595  0.4173595584112395
  0.0792181635503353  0.8355287353400382  0.0844730027792056
  0.8293959612525006  0.8295598182508477  0.8335438722592925
  0.0798053940763130  0.1670103069023349  0.4191165687466327
  0.0801276435656123  0.8339596755141531  0.4180070370574080
 -0.0022644095209587  0.3354227783567670  0.1697683872756923
  0.9134911848594696 -0.0003314273729869  0.2519638306313190
  0.9122105196396473  0.4185644990263239  0.1722559219064016
  0.0777322951908346  0.8344121149612456  0.5822118459654088
  0.0809897410028963  0.6676038570566344  0.4169110815732774
  0.9117194621968622  0.9174459242465254  0.6649087526019678
  0.9121830246686528  0.7501732813662951  0.0003622407241358
 -0.0041839713811301  0.9218745037388659  0.2511562066277110
  0.2474760203524572  0.5843176513297635  0.6640173379115760
  0.1635316371044017  0.5009308249454096  0.4985509600355132
 -0.0043985001848611 -0.0004946564086892  0.8319934483869550
 -0.0084082639194323  0.8340565241944646  0.8332227577040028
  0.2453807094597701  0.2517038068674134  0.0004059077320988
  0.1664614409692162  0.2498866931894034  0.2497419931120121
  0.9118947915672664  0.5853996956830054  0.8318337277497050
  0.9077667602180305  0.5843730751628790  0.6669599033467029
 -0.0053174856615185  0.6654527495688362  0.1702241933955540
  0.9113806846231512  0.0003625202491904  0.4185245062435942
  0.1647352793148473  0.7495547945854617  0.2494592347506550
 -0.0027889411498637  0.5024674927425344  0.3347114713558484
  0.1634715118804520  0.0017584917938307  0.1681328194758669
  0.0797848579278957  0.1646859934283616  0.2507217157750715
  0.0771294888098506  0.9169818257215315  0.6637349566142539
  0.9150365751575017  0.4171625510036560  0.6648034659053621
  0.1608825592826172  0.9187180052817803  0.9149543103343480
  0.7457382061374070  0.8321912578189561  0.9180769085163606
  0.9128356482891161  0.4213134583049192  0.8306555475794626
  0.9123752760806582  0.7480936206353113  0.3333291018423107
  0.9116473298600213  0.4141331491186362  0.4988376932062938
 -0.0056567608870127  0.6687484353850118  0.8346155744292465
 -0.0036788052603326  0.8319954965715970  0.5001669957269234
 -0.0047779477259491  0.7487229113905203  0.2535137802779109
  0.0796269676100223  0.1659878751840342  0.9170581781031428
  0.7460570153658576  0.4164694293880396  0.5000363304304815
  0.0799062598855167  0.8380357963865962  0.7452271982718384
  0.8324719957511665  0.5012617804204396  0.8298992828817688
  0.3292900461966186  0.0024317123476523  0.8341208046620432
  0.0816144979967027  0.4159145301457884  0.6650540931732751
  0.0815113790966401  0.5013662118882387  0.4179202925198294
  0.1637085600957282  0.3352495335273049  0.8323333234917331
  0.1624305609009785  0.5851365459209701  0.2515684631654323
  0.7440241967770702  0.6672217157044560  0.7490882061811756
 -0.0026929552843845  0.2502139845280639  0.5823485254600380
 -0.0043181904430788  0.0010051805992498  0.1689296876015897
  0.9131688814514770  0.9187385334322800  0.0006082339472038
  0.1663483880096597  0.4992423218210927  0.0009455319241141
  0.1680446919622793  0.3291774339388974 -0.0002294330838636
  0.0775622538677207  0.1659675654521127  0.7479285488183405
  0.2465412796749683  0.4988073900279289  0.7500117776139651
  0.4117373849999833  0.1677566201803372  0.0840372819342141
  0.9124751207145378  0.7488137227912497  0.8333617460506186
  0.6641895797848067  0.4123718354044117  0.2488265789027352
  0.9095212835237010  0.6668045771596037  0.7492591911868676
  0.9135690943500818  0.6664671087161579  0.9167323099169147
 -0.0082167002199692  0.3331718702024877 -0.0046857572375996
  0.6639760464175931  0.8298326432500158  0.4144263886694478
  0.3299979719699397  0.1670875451500029  0.5836611110556292
  0.9131686039657382  0.3331197670447534  0.8306964229929682
  0.0805917450230799  0.2519869348897184  0.2534074490467318
  0.4971109226384426  0.1695819491713536  0.9167886467989527
  0.4960115748001312  0.4171931383535365  0.3380053485726432
  0.7466315405323872  0.9224269477594370  0.9164196739058427
  0.4954575595503402  1.0005432015447739  0.0821866649932595
  0.1668895413157902  0.1647758308404104  0.7539440006183353
  0.0802150748973094  0.8352108163563056  0.8353897371678537
  0.7504302812143466  0.4985020144153788  0.0014030811379089
  0.4977718161426904  0.5003519337821911  0.7492666844374286
  0.1626778640395857  0.4150540477085587 -0.0000834636334349
  0.9954414503581771  0.2465116736482764  0.1652361640583075
  0.4949357206979526  0.4193758932528313  0.8320785294409326
  0.7509143783190873  0.0021243481777787  0.1695670302172423
  0.5810279954860829  0.7516896119729279  0.7507904724053769
  0.9963264998994603  0.5836130432817890  0.6642797652750365
  0.4129241467654612  0.9173530777544618  0.0839442605013381
  0.6624875399121916  0.4996741203893307  0.2499089220352742
  0.4964373587903727  0.6678816161364282  0.5835773834806268
  0.3325388083866129  0.7486875932716062  0.8340513231669352
  0.4942727730036074  0.9174586754802332  0.3353127478655447
  0.3311700001690296  0.7535534319066577 -0.0003141433308321
  0.1634103552520434  0.2503801668076135  0.3389454449413037
  0.9951713111051377  0.6703993764426887  0.0814283854706152
  0.1620160745301789  0.2470503728243955  0.1639752683385949
  0.8285166639183582  0.9163690082496467  0.8320774713332896
  0.1648550781298874  0.5004665799606710  0.0864835153338905
 -0.0866463379599960  0.8356282073236008  0.1637081488997557
  0.2461089462107416  0.8344703584163315 -0.0029498116467076
  0.0799071744919093  0.3325262028403164 -0.0012103287401599
  0.8285406240767895  0.3359781343042907  0.0814353799243328
  0.4970239638701340 -0.0003507182032267  0.4145262109828547
  0.9134154798826503  0.5015413583204421  0.4988593952668328
  0.7437536881587140  0.5032017369886831  0.8332000382975727
  0.9136152461665703  0.2533234034871157  0.7456130346850809
  0.4158217600330989  0.2499437255154009  0.2504417728894214
  0.4125830204866511  0.3336734262138523  0.3342683713992838
  0.5810311657630841  0.0854861943296556  0.2501247964594497
  0.0769280123146096  0.4994311202666891 -0.0015037409366917
  0.4123252177135942  0.2541992077903661  0.9191602727532022
  0.8264685442037272  0.4168484211090137  0.6684738026807783
  0.4939337768141983  0.7530504998923861  0.6655275460030626
  0.5815226666088165  0.8374715474555345  0.8315252473143043
  0.6662367530942545  0.0021212876947069  0.0815719183528516
  0.2463255825133334  0.9213589389380812  0.0843034838690792
  0.1646776512425221  0.5860218338158065  0.0002122768471659
  0.3298810636657887  0.8353968400199598  0.7486411380804160
 -0.0029994514975414  0.7526066905340894  0.1660494490818440
  0.0816564219515359  0.5867393189717802  0.0847473441695150
  0.2505190511405359  0.5839936077937103  0.2497062605747231
  0.5795354300272175  0.4134018172768126  0.0834064659328365
  0.1611906295719757  0.9151746946163806  0.0035920655545099
  0.0792855133433421  0.5801733911345355  0.9145795300795457
  0.0805879531368234  0.5843022620988504  0.5788427137689330
  0.5809802205582252  0.9178551357389512  0.2500393204413566
  0.4136906513733754  0.1674290059227936  0.8325807900690897
  0.1621882573981558  0.1673112881958362  0.5775395561624430
  0.1601021736088711  0.2472807434844278  0.8332923619753466
  0.9961698455436758  0.6677883804815652  0.5812543509384608
  0.0756833164128283  0.0002178737843591  0.5029273916935372
  0.9127982527715655  0.3312177829148351  0.1686468010442814
  0.6636116530417105  0.9178434020550453  0.6674437150225990
  0.9123905470945591  0.4178888633523419  0.0848138983214358
  0.0806052419559424  0.6711642569606304  0.6627812831670743
  0.3306061407414483  0.0870127189388542  0.6704960639270063
  0.9967099878449457  0.3357604179599439  0.2572512601838030
  0.1639093486657315  0.5001286815731067  0.9149067777107124
  0.7447334471710032  0.0013301443371888  0.3325037609636793
  0.5771841526645215  0.1702933255317720  0.1665166609716367
  0.3301869626558132  0.0866330196081529  0.4968201941222870
  0.4999663536538405  0.3330424310937328  0.0837439091284517
  0.9957573316681030  0.6695211031379471  0.7480230747617308
  0.9117151048772792  0.8356679726833971  0.3384190663078454
  0.4157168317147983  0.2511574931934993  0.5869189006412691
  0.4916544788631438  0.3328944289370714  0.4181125807212190
  0.8305590479602946  0.2514359162603931 -0.0046456744923412
  0.4954641699092169  0.1684425913614798  0.2501962642255282
  0.8291222895867078  0.4961740150200861  0.2531199951832551
  0.4958101997145029  0.7525696431884000  0.8354993823373836
  0.2448623106591850  0.8360105165634443  0.8339378450062312
  0.9974503125834452  0.3318936904888284  0.0824414008346870
  0.3252937859018568  0.6656484499894094  0.7487072800241265
  0.8292861813655861  0.4998471099772289  0.9196589860794806
 -0.0036963345339642  0.8348656055908279  0.2508479556412583
  0.6633076865144590  0.2506501454451201  0.4175752974643162
  0.7472048954413589  0.1683142301213982  0.2515267525127165
  0.7470567174891406  0.3316953458576117  0.2528430113366968
  0.8298657689386184  0.9181847937611937  0.0825104585398781
  0.9119337354855334  0.5005603675323199  0.5841261329943664
  0.8289459905819375  0.3324835108039291  0.5006402347815821
  0.7455346781301793  0.2498884640296047  0.6654509933071527
  0.5810432196634417  0.1684247208996351  0.2521836361387521
  0.9121577854363879  0.8334912980670579  0.9173399019549148
  0.7465875629534547  0.0853367970748282  0.5013625613559580
  0.9119056418508962  0.8344795293997289  0.0815303888654395
  0.8292779955926152  0.1683494108161159  0.5014710035688223
  0.6636046910726516  0.1675150908947413  0.6667405820169434
 -0.0038641391149885  0.3335475853344180  0.5004198432907624
  0.8305663554289369  0.1672117265899509  0.1674925566425116
  0.8274526125888618  0.5851378512125157  0.7493140211152616
  0.9115534703805929  0.9193169545310628  0.1666783671224079
  0.8286841414594991  0.7498812597119293  0.0828029052809700
  0.8284897390804838  0.4180619646073353  0.0847576223412933
  0.6659727931634878  0.8340390591724781  0.8347889180293216
  0.9117197044971650  0.9181563753686339  0.3358828689530334
  0.8291832059857387  0.8334489234266299  0.6661210852311864
  0.5810416102847596  0.8362329198447317  0.7481649658539034
  0.6638675946898888  0.8333748290380150  0.6656489167834535
  0.4966797292410406  0.9186504398684359  0.7510086039800952
  0.7469181203754347  0.8340076866644973  0.5830023576250001
 -0.0055884077583001  0.5831261633920470  0.5812240875261571
  0.5819032444765720  0.7495718527038080  0.0006097554484052
  0.7452767812709165  0.3331848814840646  0.7481523619122776
  0.8301133412594032  0.4161403281984734  0.9147532311766405
  0.8273469716425211  0.6675674265728264  0.4998004520320932
  0.7459141973059780  0.2501266487066477 -0.0000600430724820
 -0.0066332051754058  0.5000010984784574  0.0003136071550350
  0.5811760156906053  0.0028942846957251  0.9165802030602929
  0.4970196931094856  0.8362267429129844  0.6659621412020926
  0.9129267738022846  0.3334230381583914  0.0835739540764046
  0.8309568500082581  0.3348889423632243 -0.0024420611540262
  0.6635626897613174  0.3330187490108476  0.3345506196358948
 -0.0016545252561835  0.8340558719138157  0.3359203333971738
  0.5811810940731581  0.2519989595695775  0.1667031385514098
  0.6651733535103350  0.1682301427474985 -0.0004036946562388
  0.9130103209447699  0.3342146711712474  0.5823646124546537
  0.8290051559883745  0.4166726330047317  0.4176620160904013
  0.7463201008308580  0.2500540573446375  0.5004977816694479
  0.6629861851403157  0.4155525360692864  0.4174504728999830
  0.8304180186902516  0.2495471316600594  0.2525646870629805
  0.5802313452950726  0.4167140339896026  0.1682953763947231
  0.5804862497141735  0.9175326076918857  0.5003436087257592
  0.7451994904746111  0.7501610091956541  0.6650992346376671
  0.8293945712052986  0.8335997752967494  0.0000965389146188
  0.8320805155297890  0.0023704605869149 -0.0013646800381366
  0.6646612834213221  0.0850986163648021  0.9153073078490279
  0.7469758600297608  0.8343090206450945  0.7496479089798159
 -0.0034331127648280  0.7499922846374211  0.4167151465056586
  0.6643518909878423  0.4151370604560248  0.0839912427923727
  0.5808673596337059  0.2498919217119894 -0.0003597922378988
  0.7475273891305804  0.9177334784484574  0.1667068780088935
  0.6641509186946094  0.1672936596130094  0.8323190656275975
  0.9119665374455292  0.2480709302837810  0.1677113052346714
  0.6641872607667617  0.2510772654010777  0.9160346356805873
  0.8284075217511261  0.4150350461286795  0.2536066503137107
  0.0777543170559233  0.4159400226707652  0.0000374470743729
  0.6641639486631717  0.2502121074258624  0.2514041523018229
  0.7474148891430835  0.0851836380282701  0.8316733751754762
  0.9134606677701013  0.4174641669041418  0.3362247412838678
  0.9126692967458279  0.3338356896390391  0.9145731123280681
  0.5812311889033669  0.9205261343807709  0.8341482305861481
  0.8291340705328208  0.7496079041095302  0.9181537347573501
 -0.0019122308885339  0.4171440183412854  0.7478698640886318
  0.8283395602740982  0.3339555266234039  0.8309730280914954
  0.5810234811176054  0.2505575508423013  0.6667274144234726
  0.8301319598875317  0.3327172551540553  0.3365369244298314
  0.5790255700385231  0.8328965466236783  0.4170331921060954
  0.4967384370963841  0.9150782740840522  0.4193977009879207
  0.6638136973593535  0.3326926887790677  0.5004673072019982
  0.6638873401965758  0.0014144762485385  0.5004767951324265
  0.8324916960042094  0.5004222044517442  0.0021475152709667
  0.8291881636317407  0.5006727194374477  0.1678177154725854
  0.7451793067575895  0.5009338294795403  0.2512196138014216
  0.6633303614108457  0.0849365392999047  0.4181293401884534
  0.7466741472664059  0.0844352425192359  0.6663130495384986
 -0.0016589007301427  0.2498139465186741  0.7488455412674827
  0.9126270135475076  0.5014117453807584  0.0853819112071367
  0.8286407494494380  0.6657617926463985  0.1671347599800303
  0.9130662493161089  0.5839364520655045  0.0003832549634740
  0.8284572647861597  0.5847228516413822  0.5818105973671962
  0.7479469159302393  0.0866806127660013  0.3355492290480876
  0.8287295250225647  0.5014074316786756  0.3367790482048031
  0.0795938221748795  0.3336501535389965  0.5822184225656899
  0.6635667503980580  0.0020964576716646  0.6667525294822609
  0.8283999071010346  0.5011506354452333  0.4999046760420591
 -0.0045573002256493  0.5833104220128966  0.9159736453052640
  0.7458252073726498  0.1675751366841745  0.5838557228702617
  0.9098450291499421  0.6672015204873663  0.5826777635473246
  0.5808919725533188  0.1692439094596433  0.4168986249537783
  0.6619522253711078  0.4997483790283165  0.8341793065923445
  0.8284184066340678  0.5851119213864456  0.4170432044319016
  0.6626233133940818  0.6671574803147193  0.4995934892465960
 -0.0026475782353459  0.5006516667884096  0.4994011337560616
  0.9132189302642816  0.2488375775711984  0.3360508066352736
  0.7452871619234043  0.4160665217823756  0.3352112681705791
  0.7448622457808539  0.4999229898950828  0.7486476900123517
  0.7484338455728509  0.0857873625899911 -0.0014446665166192
 -0.0028015526756795  0.2485204227442721  0.0807267489877324
  0.9137349564237874  0.0846975433780174  0.3351111956324380
  0.8313963167238205  0.0852244468309036  0.2521947114931607
  0.7483745839773588  0.0862323158272352  0.1677400179211242
  0.9118675710692158  0.5839293035997544  0.1687415079308491
  0.8279626376153034  0.7499963237691080  0.7494359606283623
  0.4952263527634442  0.0856215060449605  0.0815714707081593
  0.9128873762936358  0.5015475433024538  0.4163371533727667
  0.6638163573248174  0.6666966365298579  0.8345776174181480
  0.8296263975857726  0.6666299921245403  0.0001297288627000
 -0.0036000272927754  0.1663980202482465  0.6655833687267352
 -0.0053647682815925  0.8351063107739998  0.0007372516406959
  0.0793201469892509  0.0840073874288214  0.3348691854692543
  0.6623042128149240  0.6666007765672157  0.3330006493976876
  0.1632896279747733  0.8334880533287178  0.4998749897089840
  0.9129945127749831  0.0001611594891338  0.7491717704803895
  0.5802281107660789  0.0017736050767080  0.7506355523588164
  0.8295737343451777  0.0841112471667610  0.5833496883102290
  0.5792824080283230  0.5839342230064438  0.1666878427845683
  0.7459741502394948  0.7490596027069676  0.1659031372897995
  0.8268743377878179  0.6671917141132344  0.6659304944985793
  0.9138332353886253  0.0009811481765088  0.9159456048392790
  0.4129637834743766  0.5818323982662790  0.6664233152559853
  0.6650079337028157  0.7506756937256499  0.7504092009113373
  0.9116864880065968  0.0005393477732614  0.5826629504689056
  0.7457956067399116  0.7500257617432359  0.5003320552128767
  0.0788441620262773  0.0826327084776011  0.8321647755549724
  0.0786041494951765  0.0002015401103605  0.9164562463647817
  0.6634659431724641  0.1681447648339310  0.3353954169323199
  0.9131960589616416  0.0016415481157425  0.0833137495774695
  0.5793365494413265  0.8348483956413794  0.5826869316800553
  0.8303595857015309  0.1661001152104985 -0.0018931120987935
  0.5805228272020954  0.0013022736440438  0.5832614370210715
  0.7479107543474466  0.9184340372950062  0.0007436413852717
  0.8277337931520689  0.7491582170040318  0.2506140245389175
  0.7478058314334741  0.0012494744212390  0.7491155080703904
  0.8285749567408014  0.7492331182489084  0.4173738229499880
  0.6641231590785805  0.9184742154564757  0.7510759160980565
  0.8284124021545411  0.6668739765331291  0.3345327459811571