Cr  H Ni 
 1.0000000000000000
    21.1200000000000010    0.0000000000000000    0.0000000000000000
     0.0000000000000000   21.1200000000000010    0.0000000000000000
     0.0000000000000000    0.0000000000000000   21.1200000000000010
 Cr  H   Ni 
 259  86 605
Direct
  0.4933799887918900  0.9989134066518210  0.6665509067508417
  0.0826058351443364  0.9159943000914128  0.4966815455332136
  0.5854892825024210  0.2492237541075374  0.3348067928416030
  0.9943094551424837  0.5837495904432601  0.5830383032330742
  0.4964899050481085  0.1673894353862253  0.6665549122279042
  0.9115598980497976  0.9180891799373131  0.3318899046779684
  0.4150243306799662  0.0834858249575889  0.1651883917900686
  0.9982820039219622  0.5817835212572836  0.9183016877618513
  0.7497277455322912  0.0011338550583657  0.5849938895288932
  0.9127197490976732  0.6700773634368109  0.7495826011883718
  0.9958936167061120  0.7485764095915699  0.5857817910644436
  0.2480399394726137  0.8327577254335040  0.9162391740353659
  0.0817476003410329  0.7494337967247414  0.0022632066224650
  0.0790413064175600  0.7472881269750665  0.6673628853495730
  0.9115903198244516  0.7503108161311679  0.3311539075006623
  0.2468063375641365  0.1693030769269619  0.0846523575502056
  0.4125911480497472  0.2470879636920650  0.3310093120963192
  0.8270952914424847  0.8347566532471496  0.8367452287037684
  0.0786405264927034  0.0008290309406365  0.9171510690209991
  0.8301234067818267  0.0027578119653839  0.6669038871317994
  0.4979158298449370  0.1665070084891967  0.5021498325994733
  0.9118936484050557  0.7510761370959439  0.9961647128165454
  0.1666432949601894  0.9177735289002431  0.7546047424925099
  0.9152844299169770  0.8336603577524030  0.7520458636394843
  0.3312269703368941  0.4203530445727069  0.4176969636599377
  0.7472196981827985  0.5887736145263082  0.6660420488238344
  0.7446034846451681  0.8317697379637949  0.4120478472328103
  0.9963494428036578  0.8376587592598219  0.1661762393845009
  0.9123384780569181  0.4959793389804011  0.7506538965575484
  0.8281280379325527  0.8345823350273961  0.1659132229804005
  0.9965408672717055  0.4989448505786134  0.3336975452373501
  0.0838681789293419  0.6657805275557315  0.2532939896243580
  0.2494268688799904  0.8322748892612490  0.7515093884115394
  0.6624739329204298  0.1624653183653831  0.1650078387323798
  0.4148638038646467  0.1656329325283440  0.0833252552989528
  0.3343660425932762  0.8335881580218454  0.1672565237582727
  0.6618145846464373  0.1665608835003227  0.6672920598008006
  0.4978963419895064  0.9988963872398658  0.9995292120915016
  0.5814991857731283  0.3326607033963899  0.4184097281996579
  0.5801952276085580  0.2513209343601380  0.5016547606415194
  0.1641603175295381  0.8292294716914314  0.3339185984411648
  0.8325378872531597  0.4165642797605278  0.5831220279591577
  0.4954826978522858  0.3353544506038984  0.6681893755028945
  0.2469685155096956  0.9189924082341862  0.1699401094879915
  0.4973858077849241  0.8306523291140857  0.5004755679262094
  0.4969666958460182  0.2517278968061120  0.9148604029833413
  0.9077086824408629  0.6687889912310488  0.2496060827856677
  0.4986432248139283  0.4989996413394469  0.3321447628723645
  0.9962726973885343  0.0008150142202901  0.1668867488566151
  0.2476877017254445  0.9170160260527916  0.8348314079269833
  0.5806298268396932  0.6660670422047666  0.2499372238349646
  0.5791916824362451  0.4174047643395222  0.3336838629082703
  0.1644075618654023  0.6652584837447062  0.8341249922563727
  0.4159420199055633  0.5804664813729719  0.0004038275250005
  0.4974877025209327  0.5016477413686621  0.5001325826782345
  0.5795391538149802  0.1673859709305510  0.7480473067952627
  0.6625292520051103  0.4143859138084818  0.0840795807204436
  0.5787313657051457  0.1675992898788497  0.9157065369832922
  0.2478388007227026  0.9165446732625021  0.4957953901168818
  0.4146011196119345  0.2506229821419911  0.8342076072653543
  0.3360709289312573  0.9201943126801400  0.5838881723517991
  0.3288389097912257  0.9167237045343015  0.7528487059595996
  0.4129524118573904  0.9170910270271415  0.6667563643302115
  0.4132750936077448  0.9157827180722700  0.1666217384220370
  0.2436740055775022  0.0008695474042677  0.2502747792020449
  0.8303122446975947  0.2488329397394204  0.9158523196171586
  0.9948227151122052  0.9174784766430865  0.9181437733925814
  0.8235293520502579  0.5839511490939747  0.9164040198565867
  0.1670459742568989  0.1689856994800304  0.0009153276679379
  0.9110481314502362  0.2497269635402689  0.6695245359659102
  0.1619871663676657  0.2485862075185764  0.7500690284957724
  0.2464446993462872  0.0833511770289308  0.1683035519026419
  0.0794700408244356  0.0037032565452723  0.7529981241177653
  0.0782863595024391  0.2482982412537428  0.1668633716255044
  0.7445825197041628  0.5864263026596779  0.9982186084045745
  0.0804812947897440  0.4991143410380229  0.2507939386105982
  0.9950346038289596  0.4152342524658258  0.9156099886669891
  0.9105680863823440  0.7475540985149547  0.5010696855049833
  0.9989558751970247  0.3359459578949662  0.8344597665189831
  0.1630563635175446  0.4160751616788692  0.2505985407481116
  0.9153292691016665  0.9171913767850027  0.4991739667414183
  0.0794020152383806  0.4167355415010010  0.5012202292288740
  0.8270938400120152  0.4974694779007339  0.1683613842486338
  0.9131405357906264  0.5823778603951788  0.3355316770772188
  0.8273468336440203  0.4151946336876445  0.9153103964465713
  0.5803777823713093  0.4182627411466951  0.8324942535526517
  0.9120923970906336  0.4166837417921025  0.5013733596993400
  0.8287555828145946  0.3349691414397836  0.6668725769240659
  0.9127098898339850  0.6664430219142857  0.5827898137919093
  0.0772186100042785  0.9152780398665313  0.6693697527050929
  0.7467185076609413  0.2480091885165369  0.3318720831941037
  0.6634158707433649  0.5840758149812733  0.9160928785709576
  0.9132808207032175  0.5842394141327325  0.5014305228233046
  0.7469647928288421  0.4146390228878702  0.6677718871340802
  0.9979098561371692  0.4974491330988081  0.1715612571147705
  0.9960854019991462  0.4170868603228138  0.2503184830770719
  0.1658700832834774  0.0032225497364352  0.6704688362784416
  0.4967544583919581  0.3330097066685489  0.1634020689564927
  0.8290760986461653  0.0827564505766652  0.9158495255713870
  0.9937135825814974  0.1657939960244911  0.0012441499074343
  0.8290104091916505  0.0827180264652685  0.0826257178838531
  0.8288205811701147  0.0001554095745991  0.8344090634861749
  0.8338715378275278  0.1674855191782691  0.4995681414922002
  0.9963010931652896  0.1676287120339655  0.8338642296279407
  0.9956930550551776  0.0875481861932288  0.5833703763089005
  0.0797946168400156  0.2495003693953161  0.5006073778362699
  0.5797764850021530  0.1670681169712661  0.5838593203605367
  0.1629974229639712  0.1678774550513437  0.6689434979826809
  0.1635935577000392  0.1677826165902646  0.8342854115284182
  0.9956243925120952  0.3346318435802195  0.3300524803119501
  0.0783394560647032  0.1682091769212488  0.9144505568498312
  0.0797658358263870  0.0797862878635066  0.0003658780820761
  0.9949671592331965  0.1670100838644365  0.3314755845890712
  0.2460116736612386  0.0010179116979161  0.4150854290740028
  0.9960956253098970  0.4998981700687939  0.9958135742808771
  0.9957152452160591  0.0827746113194869  0.2484700102099391
  0.8319507639785598  0.5841986132167022  0.5841121666428901
  0.3315786224818212  0.1685439174527164  0.0008841886625623
  0.1647140339505277  0.9181410692578539  0.9144479116996638
  0.8296326709254699  0.0838743881438817  0.2497102236235466
  0.9115952137518055  0.2491594243733492  0.5006640785514894
  0.9967916329780248  0.0838601259970565  0.0826956255271904
  0.1610635123992710  0.0849618663040708  0.0821597695174441
  0.9119026026518854  0.2496839425866643  0.1670142933686778
  0.0798236653293839  0.2520267074420215  0.9998753054765616
  0.9111838209352512  0.5816476721359877  0.0007876656862778
  0.0776098689018725  0.0003067299791842  0.2460921187418438
  0.0798205765926508  0.4983606090294769  0.7466052263568541
  0.1641027822528952  0.8312734705809067  0.4972435087125169
  0.1638889907481579  0.7512967683622720  0.2543758710768275
  0.4140327670266882  0.1671420271420347  0.5850704032596157
  0.7463205883010559  0.9171586185820685  0.0006843016608462
  0.4154707876495469  0.9998480223367338  0.0827350376990509
  0.0800609051210025  0.9188806601225866  0.9975328903417651
  0.6627398676522793  0.8349971818563584  0.1680279564921286
  0.7482013621314025  0.4976362825372996  0.4157121161446988
  0.5774563416936128  0.8330816788636607  0.5817918453381274
  0.4120001331927718  0.9173561098611149  0.8323672099582307
  0.6623801617247250  0.7520432302355631  0.0826455136135125
  0.5784897128702634  0.9157385119016367  0.9997111360498405
  0.6618198776662634  0.0870773904496550  0.9159063543908399
  0.6613511368206059  0.0841895768480970  0.0832258451282394
  0.7479029648081140  0.0018388058089298  0.2455891573857120
  0.7465127167276495  0.4154123016264741  0.8335232020360004
  0.2463638264315306  0.7487918081339801  0.4995022945162964
  0.1624624620702260  0.4166369646881194  0.0827447998402530
  0.0798465052805486  0.4138696946915383  0.8306080466100909
  0.7455301129272770  0.5851580523613626  0.8344965387418727
  0.9989978651387126  0.6633830099082796  0.8343701624823675
  0.3327836291263275  0.0858619961850207  0.7517915053835538
  0.5810213828480975  0.9181646125233786  0.3366654101859871
  0.6625304582057406  0.5827282660018046  0.0821436586066481
  0.5795552614424349  0.8319431690402295  0.2466401303343405
  0.7459438735730269  0.4165194066234578  0.3333076093601959
  0.0792120129083407  0.1682902827138504  0.7510330320969850
  0.8307030065638059  0.6666659411556234  0.1663162097214517
  0.4138642326535447  0.0838312327736065  0.3352754944168893
  0.6643380729991267  0.7502421920646466  0.4161480845612182
  0.7461838771395566  0.6645178849763659  0.2514040790054204
  0.7463904196196208  0.6646788305219711  0.5851764496336066
  0.5787311893866439  0.6649783360334509  0.5828341342832629
  0.6619310976858617  0.7514153662137113  0.9166241671971929
  0.7420421231835935  0.8320720657196686  0.5877191233103674
  0.8299335967772936  0.2494277114845789  0.7480455396015359
  0.1692004050762250  0.4145402877226378  0.9164772806988902
  0.5784120860173004  0.2499821443917210  0.9993386810957873
  0.7467502261596070  0.3348179752989090  0.4172613210195577
  0.1628428581848979  0.5820790641659699  0.5864680113489391
  0.7461508563418032  0.9164086698325006  0.8327515587094584
  0.7450756363070626  0.4155545087061654  0.1656586807008885
  0.3307073463514344  0.5792028131856337  0.7504889307566450
  0.5811681059308996  0.9150643998615622  0.5007208257659943
  0.1637900611152553  0.7449451361117487  0.5826812946633491
  0.1656429449910331  0.0034090360815844  0.3326183632905185
  0.4990506797078146  0.6654754834655272  0.5020199252564553
  0.2474208796337714  0.5795420306497500  0.1713476743644287
  0.5799413075095851  0.9142624405028061  0.8353967560938870
  0.8295253752294504  0.1668937147726634  0.3327477243711138
  0.5815414220609471  0.9158270471685617  0.1648191332964618
  0.4142334592685367  0.7484603300181827  0.3347537784607650
  0.1630947236022678  0.7518034428885161  0.0775963532932546
  0.8276959288734489  0.2496734289525225  0.2508578465406363
  0.0810407646068547  0.6671575163537355  0.0767723775835916
  0.5820955196695726  0.0842557290968322  0.1649356435553533
  0.6631731642964359  0.9991952725301372  0.6688492865230067
  0.6631773401946099  0.1658549633726716  0.3320587877409186
  0.7490388931561368  0.0012028650115666  0.4195736689677002
  0.7457517425724437  0.3326365289058827  0.0833493109109819
  0.4133195898693805  0.7505602139844585  0.1703371588112812
  0.1633385974188704  0.2533757551153748  0.4171739932558426
  0.6614107787845603  0.7502777754179575  0.7498641076127587
  0.6585280872198044  0.1675597799130635  0.5018192194057683
  0.4971869458798185  0.8338600400226636  0.9984924423735541
  0.7449380077386104  0.1671631522105337  0.5876503817883728
  0.9111732881320614  0.9174824345166990  0.0010624666989774
  0.6661398054167712  0.8327382901885175  0.3331266049969231
  0.4141509258695017  0.0020242587889046  0.4152387044999877
  0.3340210869754953  0.8322363242764143  0.3342344111169324
  0.0793321137144775  0.4180870235341578  0.6688086133703157
  0.7474419289611509  0.3299564336680517  0.5818362013093009
  0.4133371319929132  0.4153176979808696  0.8328334029305348
  0.3264981757832737  0.3344495485486852  0.5031448245006493
  0.2432540028357488  0.3340102963312074  0.4170242526000141
  0.4156255027479637  0.5810134966377520  0.1671391863678818
  0.6643078515906108  0.3348558327334717  0.5011396712563694
  0.6653588291814393  0.3365463402902271  0.6654018162311615
  0.2464180498150290  0.1676170743208799  0.5855679752128095
  0.5799105436521388  0.4153976892512336  0.0004229615589279
  0.7464867879396626  0.2481057897182286  0.8304862153623138
  0.3355079462809665  0.4155379780071504  0.0833226473756317
  0.1640642274660695  0.3324717432599559  0.3338097254757311
  0.6627564786490894  0.5829172080458392  0.2481731927582282
  0.3312863338452632  0.9141998616000938  0.9162935722016525
  0.7477357076811032  0.5834990757632150  0.3307009191126470
  0.4134909339660988  0.0861560529112464  0.8327749645942347
  0.1620984123283365  0.0865036458017292  0.9193200430090952
  0.6596989370673432  0.4182720978504460  0.5831494161329447
  0.3298322663986703  0.6642189429232522  0.5007733572576828
  0.1633123708904218  0.1672799977357123  0.3289646927022403
  0.4969768387304163  0.5005913732241604  0.9986970665875170
  0.4150989209341032  0.3358646137765447  0.5892771534247678
  0.4961453160717921  0.7490983815808805  0.7492269214823409
  0.6606339818329618  0.5817777439196170  0.4207228719743744
  0.5811176039145686  0.4995686757752681  0.7508382039324444
  0.3305656681597943  0.4170881022714817  0.2505234867161976
  0.5788650133248191  0.5837830559519595  0.5005979757914508
  0.2462585849272316  0.3343342753598458  0.9150143839933422
  0.1633967523474520  0.5856011873818550  0.4144319261612724
  0.4155775258083426  0.7500416267303168  0.9954546845926406
  0.2465887464187229  0.4159470088377832  0.8328385231784501
  0.1636109550110246  0.9167482993764994  0.5802631243782193
  0.2444281991598723  0.6650221617400301  0.7497511107540668
  0.4967571248236824  0.5006910489178715  0.1667677134427329
  0.3321899864267117  0.6648105038961545  0.3330570385947427
  0.3304484686516936  0.1668775608002468  0.5024314144055815
  0.4150888224892456  0.3361693007898349  0.4170929989345987
  0.3300039201844158  0.4983341504677298  0.5006915125499557
  0.4128716923124854  0.0014153178737189  0.5847587602240513
  0.4149915830452278  0.3337312035959884  0.0847756754782961
  0.4139552650617500  0.4174673001868959  0.6659769939859904
  0.2481815236252374  0.5816191844980133  0.9958759154536393
  0.3298345334872382  0.4171347638257597  0.7499277587753964
  0.2478654741815892  0.4163971770310684  0.6683934889747193
  0.2474016691463038  0.3322562317684770  0.0841005040374506
  0.4125986350080401  0.8311797882745162  0.4154395025333830
  0.4145967509983043  0.4981057536561161  0.9163242309628931
  0.3307212453096383  0.2503595908503835  0.7506369933158286
  0.4144458554285251  0.3340621974525225  0.9148992360486481
  0.0785478048244978  0.0859364054531647  0.5034544280946880
  0.1666329722458309  0.7479425316623560  0.4160295471577651
  0.1636667548820557  0.6685772446274243  0.5006540892503260
  0.4139633391056666  0.5820561186915626  0.6673820006272561
  0.4142341466734679  0.7483154830530999  0.8325408500908372
  0.3328624755492104  0.7497972618670625  0.7525327648467023
  0.6631775890537426  0.5014409153084382  0.4994950237773232
  0.4180772036147387  0.7485874736746300  0.6679219199092279
  0.3308200228120336  0.6660911354053537  0.8348569037254462
  0.2462763885188367  0.1664966346079249  0.2480185224715419
  0.4966224364067919  0.1662269211327388  0.9983198157432036
  0.6603589901621687  0.9995734801126960  0.5809528465020898
  0.1691595546044362  0.6629599747352232  0.0815378382694822
  0.9097777008053824  0.6683615923478788  0.8371051246129344
  0.5801563847126550  0.9167582331407180  0.7451814631982289
  0.1605992352950276  0.8291325069595051  0.7519024898956754
  0.9954486624675659  0.6665432236465483  0.2503818155166452
  0.2492127538158375  0.9176315270277147  0.5840855019778201
  0.7467827988231696  0.5016814722757656  0.6676165874490854
  0.1630137291959291  0.4961705333407034  0.4177326021709082
  0.9908489846675878  0.6655314102251336  0.0828217632619410
  0.0781547907376400  0.0844197392073960  0.4129456555009607
  0.8337064849858500  0.8313029354314245  0.5826844575183346
  0.8295290696724458  0.4990393077504372  0.0791555081453483
  0.4136739011101809  0.3339540901708304  0.5024266412475020
  0.7461007175275490  0.1663477030944343  0.5000184564266777
  0.2492105284400428  0.5826770724973537  0.0837173658808660
  0.9951244134667471  0.3331478913943364  0.4209017027393553
  0.2501372887587163  0.6696368435383510  0.1672939494645732
  0.7418355650128714  0.2493205403776061  0.9195360734712524
  0.8254205361785962  0.9180944740383368  0.5000965248846463
  0.5800779670188395  0.9185891619971152  0.2507778303183056
  0.6586202526815644  0.0005943406074263  0.4170418065283828
  0.9985041453840930  0.7492431720529333  0.4974454599396259
  0.9938792312509591  0.9974763357970390  0.5829861332235557
  0.9121876319774619  0.5833969762031395  0.7501292434144923
  0.0799516267191087  0.6651325419242043  0.1650823231549159
  0.9958146540794750  0.7536652366868105  0.8346297613875924
  0.2464159340519149  0.9148841697319182  0.0799278615243359
  0.9951128056656091  0.8340710641623212  0.4144984933766440
  0.3342746091669535  0.0007222605082568  0.2508023285338046
  0.3282751715477448  0.7481681010771265  0.6644020445689054
  0.0792455877233374  0.9173616000977279  0.7538446455932972
  0.1637770082581183  0.7501998274324317  0.1660012884044624
  0.5787535452099219  0.0045303993909095  0.8319541684947719
  0.4141574895348899  0.7499239670297435  0.0828353957888951
  0.9104914943402473  0.7514312427373314  0.0864744620185625
  0.3305714937704824  0.6646516196465028  0.7494811096642795
  0.0781411335924412  0.0028325931883655  0.6659227711215513
  0.3245435872132501  0.2490512448829870  0.3310194527861218
  0.9117066528744983  0.5816155500843968  0.9146539137079396
  0.9127821424713810  0.5800706208761053  0.2468159895415911
  0.4149411833196504  0.5857474489435488  0.9122160903679515
  0.3322658222056057  0.0051312985022351  0.9174330547786936
  0.3322846753321366  0.8294845552627204  0.5816659715939575
  0.4129381852699547  0.3360697072047416  0.3293167068531707
  0.6615674254226547  0.5832002349562609  0.3339576790997887
  0.1641915506659310  0.5811097881365777  0.5002915991166174
  0.0796552794731484  0.3370682400088033  0.1661124176149009
  0.4988498816242939  0.2485120789486708  0.3327219221646750
  0.9968379048305913  0.4983042135630476  0.0834592861049398
  0.1639060429267958  0.1657343911091769  0.4188019959702617
  0.8257962666297225  0.8330365749609662  0.7486079030855713
  0.7481228913088362  0.5853998596797626  0.4190247352794825
  0.4976423184400370  0.6665913770677038  0.0823457242963889
  0.5788104691976931  0.8311989693219130  0.3342883427699661
  0.1621238592306719  0.3342428661789160  0.5852583331799139
  0.9124104062929435  0.3324585902008831  0.0016957731918461
  0.7427320922025364  0.6674981302888504  0.1634373364178699
  0.0779220366150042  0.9157743779477014  0.5830545272295903
  0.4129829603661789  0.2474589117403349  0.4196610139237087
  0.7442773481483018  0.4958676119677654  0.9990775687807104
  0.6626680914290624  0.9964244549242536  0.9166415660458276
  0.8312949794266759  0.9127662539676964  0.6669490095048946
  0.9954845875405892  0.7474460020115227  0.1665206524785941
  0.0813985149360846  0.5015049172903536  0.8352116284806796
  0.2487785631761673  0.9998578108322814  0.9998174124651966
  0.2491834614894749  0.0826056330440995  0.0810334991393882
  0.0783268635460900  0.8294871233301390  0.8355404232158825
  0.0767037632328808  0.7483743883668011  0.4148592026398005
  0.1639063073622530  0.9169460899866723  0.6675027314694235
  0.1621716264481092  0.9170749650325948  0.3323638447443663
  0.3300112582964627  0.3333204792592522  0.4168375371645897
  0.2449708607779035  0.8311182766759633  0.1656642771846311
  0.4934654718564604  0.9184711971074008  0.4993836518698114
  0.0758061354579465  0.9990319849267617  0.3348744970141946
  0.4979744725682904  0.3325748618340145  0.2524699310213294
  0.0817129252539048  0.4155552250336592  0.9174215495178309
  0.9093518047485002  0.3325409160149283  0.8328824649760889
  0.7453995044383762  0.4160421238701375  0.5821700041877190
  0.6628012414039958  0.2524897495591540  0.1656727226865159
  0.2490041412556733  0.4186782321814903  0.0842892814934146
  0.7467748151062810  0.8322407238911464  0.4995618023545038
  0.1642142184189802  0.8310428714297129  0.5842498540389411
  0.7463735939325044  0.0008749494934035  0.3324009531088427
  0.0805312676003923  0.1654943352012543  0.0001795478214719
  0.1645494501079359  0.0051220823439031  0.5805056234859685
  0.3297888903265885  0.4175008815578178  0.5845371548466439
  0.3313515309177913  0.3336659562824066  0.9998277179956880
  0.3300951809804097  0.3334887556844108  0.8327739411622349
  0.4151050352099844  0.4163921864212811  0.9989976413505454
  0.4140543159972906  0.4196771722625955  0.3336745195139768
  0.4147653736959527  0.4993432965854578  0.0832303619096642
  0.2478557967452182  0.3341432258345889  0.5855874321953324
  0.4972049413231824  0.2513575536573986  0.7495630913935638
  0.4145568638794245  0.1681487297949928  0.9167531696934363
  0.3317441140578240  0.2513496681586187  0.9166243852666927
  0.4134675851600276  0.4997600962186449  0.5841164075288949
  0.3319938872882434  0.4988378600897295  0.9988165603693170
  0.4141801983658271  0.4187593602886195  0.5018678604740526
  0.2470271855416713  0.2507335192629984  0.1669945172717616
  0.4131340404347015  0.3337931412088095  0.7505405846113857
  0.4153620907751789  0.9161536978097524  0.9996934067492661
  0.2470976789754924  0.5825157120266506  0.6671407843286447
  0.4973134558691216  0.5816597007102401  0.0832919942721671
  0.4139321746697155  0.2493355939458766  0.5037554833659438
  0.4140688427929218  0.2510395950663327  0.9999083118607973
  0.3331162667882822  0.9165214785501170  0.0837280278984964
  0.3317075723881206  0.2506642875537485  0.0836171667853937
  0.3322970062534267  0.0876604826100655  0.9164425624740193
  0.3330922139299158  0.0835322750998252  0.0840224790516491
  0.3324606769556380  0.7493155110869278  0.2514279161427983
  0.3314579055461079  0.7492221956052088  0.9162967369370134
  0.4163670158696737  0.0013246158811848  0.2495863888746503
  0.4151198181438340  0.0006086430553836  0.9161009076671768
  0.3316053541167191  0.4995666400679158  0.1673178255961867
  0.3317880690567948  0.9160402813010433  0.2509130782280021
  0.3318142497895029  0.0000929925572846  0.1664541182137639
  0.3310335887356535  0.1688410757946191  0.8332075259291762
  0.4133059245455541  0.0839495244513671  0.6673186990820635
  0.4144407733064190  0.8346259465769336  0.0832014395784027
  0.4138737059662196  0.5824124266349525  0.8307092378312465
  0.4139331130039653  0.1647385695806849  0.4175445842461488
  0.4985148164632652  0.2491420335551746  0.4183081516274162
  0.3301362631507133  0.4987118586506941  0.8334886015814832
  0.5799056946163741  0.4169608704519839  0.6675951537177012
  0.4964936483731057  0.0836783488685511  0.5842987090986512
  0.2501628371804779  0.9180652924840964  0.6695547036650621
  0.4970862137457346  0.3335585032994878  0.9997282997073600
  0.5796638494877633  0.3334085684343262  0.0832615229286306
  0.4132487613121474  0.3341176362785006  0.2477298959077178
  0.5816773179261695  0.3336387533561541  0.2509172962477920
  0.4992170530776237  0.3340277060281289  0.3353808522189345
  0.0794869921797616  0.0001339212203899  0.4181895558538164
  0.2480686572032251  0.9165288299002173  0.3334758510492993
  0.4966192972586237  0.1674157746126841  0.8324008649857805
  0.3317561827048209  0.6639669395990857  0.6660337595485285
  0.4148238630167477  0.1649012873268707  0.2490090706773866
  0.4160738057116848  0.6649084296756925  0.7494019652566113
  0.3311233017461641  0.1666112684135430  0.1660320338102210
  0.4141931149255228  0.7477309187457784  0.4991586214833924
  0.4136963546481217  0.6651030545540002  0.4172635200911575
  0.4949275246238697  0.8329722966094745  0.3342847442356917
  0.4138196549780627  0.2499047988300220  0.1654888884260066
  0.3312127023907472  0.8334067560755155  0.4978681162137056
  0.4147975198889922  0.6645288039820880  0.5831782254018997
  0.4135226420804646  0.2506530451726654  0.6673788767336213
  0.3304549349650627  0.3337651361599181  0.6680342329254285
  0.3306747410796410  0.0843996477483645  0.5839650249315390
  0.5801185943183825  0.4999102963549021  0.2488500531873326
  0.3316396646472816  0.5818799136535673  0.5835418134311633
  0.3301657721682588  0.4996283422542351  0.6670828117464526
  0.4139718469696742  0.4990798005107129  0.7504673822328873
  0.3338278032105496  0.5820686587106791  0.0826736408041001
  0.4140779375502237  0.1681590788602540  0.7499708078756294
  0.3304464936606446  0.4995753308435147  0.3328554527060479
  0.4147044145962693  0.5005469659675257  0.4172655742025845
  0.3305808963714730  0.2504357012008397  0.5848148067327539
  0.4145039635796730  0.5822733281172255  0.5002078162917086
  0.4129076766406093  0.0007430700713757  0.7510546817316024
  0.4151904416079933  0.6675857336056028  0.9159884757432036
  0.8285885556074948  0.4161026889461988  0.7506522595002221
  0.5790132033837584  0.8330049544380942  0.9160330081357839
  0.5796521782054140  0.9993546996102042  0.0824780956180289
  0.4977815958816655  0.0833994721906614  0.2496257768613284
  0.4971128643174851  0.0001988576612234  0.1659963071409502
  0.4144012355936280  0.0840818747164774  0.0001870273044971
  0.3307285437846271  0.0015787941309576  0.4982886274027127
  0.3310476905939785  0.9177641023897543  0.4154938609264076
  0.3314884383699752  0.8335113261828557  0.6682154243148672
  0.4139151778650437  0.8331250175794166  0.7506762941263903
  0.3300197038118958  0.0840335600155470  0.4164866258443576
  0.3303798798779009  0.0011073203202368  0.3347594802957902
  0.2475757271924649  0.7488486163026519  0.8336422818789396
  0.3309842862602536  0.0013878996476223  0.8330886090376022
  0.4143155731042669  0.8333328271546514  0.9154574944180156
  0.4960157587239953  0.9164844722854137  0.9158974542395719
  0.4978544244001304  0.0825628435952216  0.0828593639888928
  0.5795956814032762  0.0840585666382625  0.9995914284579326
  0.4972119360234997  0.9159755651856217  0.0839636418988774
  0.2490744348064522  0.6646744006598532  0.4163920247398090
  0.2480574722522374  0.0859388868060671  0.9986462707882218
  0.5801828696967665  0.7497171849794664  0.8327081087855940
  0.4965678750321131  0.0844595155388139  0.9164165079456016
  0.5806948434161775  0.6675313656192222  0.9162407553415937
  0.5786082468124170  0.0005094202054899  0.7485647147394270
  0.4972446122769726  0.6663058021402140  0.3327950434729239
  0.4971847162497270  0.0839738412439182  0.4170778336337023
  0.7456990999892452  0.4992254892609914  0.2504163434092152
  0.5809995118943565  0.0839767341516584  0.3335551048779875
  0.4143207030875794  0.5823952963805198  0.3338921580233772
  0.4131403099077446  0.0840260025193842  0.5007974619889206
  0.2477560090463307  0.6637592180679418  0.5839242769774997
  0.4966014434062127  0.0010261656686262  0.3331453421874189
  0.6629723530328533  0.6662080528235063  0.5010834512890420
  0.4958878733226841  0.0838677193130378  0.7491619204979737
  0.4974957247033925  0.6651215344113797  0.6673280650439832
  0.4975365221848210  0.5816625447627154  0.7496719023912584
  0.4965711951047909  0.2494543686648668  0.0822754398688152
  0.3319590028644721  0.6656247192180331  0.9985841572183101
  0.7454818973145813  0.5817863907825391  0.1657102024609393
  0.4986693506254507  0.3341723875117241  0.5008504842264569
  0.7457175692039276  0.6678867328491118  0.4160763688021240
  0.1632794398580626  0.8311527303851495  0.6679865922647826
  0.0795629814967517  0.3335572453820185  0.0825098947007731
  0.6624363385161463  0.3325823776271791  0.9988793155332972
  0.6624652844436917  0.5834337005852001  0.5838641900645687
  0.4981383730055481  0.2479975371246191  0.2483979703476821
  0.1649820477712791  0.3329278682588518  0.0012544122605469
  0.5786851718287718  0.2488978796144393  0.1653986618413403
  0.2472673182889566  0.3332193776640485  0.7506336992129258
  0.1636793943970824  0.8346471501823108  0.9989034832185981
  0.6634627001463854  0.5835957273561477  0.7503790794253650
  0.1642997808470854  0.8316499067200762  0.8362549925405804
  0.9121545878416947  0.0007925117724059  0.0828998450783560
  0.4156440183793629  0.8319983631603167  0.5830638374712991
  0.6626843738908568  0.4980399938153174  0.3336986352249926
  0.1626891912065550  0.2501343640870722  0.2494571498490325
  0.3285770399197093  0.2485514977185936  0.4189982661380572
  0.4971167259577329  0.4174825974546179  0.4174131896759006
  0.3317926405450356  0.7495931430281837  0.0822762146369223
  0.5788464767348177  0.4993568068211515  0.4170936185358858
  0.4972238443924301  0.6661851901580850  0.1682175505618348
  0.4975347324152061  0.3345868548594399  0.8317773001265050
  0.3323302383778833  0.8324048913712144  0.9990693973835973
  0.0826123332750812  0.7484871034104330  0.5011551426260556
  0.3338946116552854  0.6654469859964536  0.1673416215172686
  0.4970480512722859  0.4170221444021004  0.0828846079997491
  0.4146051815667955  0.8329231305775407  0.2511351339009033