Cr H  Ni
 1.0000000000000000
    21.1138047140468004    0.0000000000000000    0.0000000000000000
     0.0000000000000000   21.1138047140468004    0.0000000000000000
     0.0000000000000000    0.0000000000000000   21.1138047140468004
 Cr  H   Ni 
 259  86 605
Direct
  0.0776210691388766  0.0049788963500954  0.9173779980451350
  0.3307828026706101  0.3331921603700428  0.5022278268719350
  0.8300731700730991  0.2497254246290258  0.9174968029691818
  0.5781991578476893  0.0836632582482948  0.3342777378134277
  0.6621809213220919  0.4994936704392203 -0.0015327349580138
  0.6619681089906716  0.4175943954946734  0.4175456244706272
  0.2452405424630124  0.5016248703659489  0.9145608687605720
  0.4973535887774680  0.2507340755077332  0.5821823735193874
  0.6632774629599157  0.2489143035020059  0.2507129207638553
  0.5837104518240114  0.4185768657732434  0.0003521302571673
  0.7511853784186320  0.4189972492860485  0.8314874808779068
  0.8270348211791881  0.5000571963996772  0.1679667460971445
  0.7450740572413127  0.6687593940860954  0.2514255595165935
  0.6644748073043131  0.6661737949688529  0.6693634493308233
  0.8281341222922265  0.4179904776318183  0.5794630029996111
  0.7475842665930770  0.5016246885465009  0.7515521766440333
  0.7443595887636248  0.2515964727399955  0.0009633656605773
  0.6630739651938273 -0.0026293199251328  0.3367662925695530
  0.5804495693123543  0.9142243188890381  0.8338816511551765
  0.7476120758072524 -0.0000849748922171  0.5847615601230741
  0.2456619307619281  0.6664854859135280  0.5874094740647965
  0.4139419685985565  0.7505101214341420  0.1671500558795932
  0.3308080901211723  0.7497546955491803  0.4197432436101010
  0.0806235101488654  0.5851224035247691  0.0029803440833810
  0.6624675929725237  0.9123411535257128  0.2509957755358912
  0.6658973294428959  0.0825816586257607  0.7529156657461880
  0.7490908942241432  0.0794082137180762  0.6651136552136050
 -0.0039198862322045  0.6655946473862043  0.8343910056213342
  0.7469702716087486  0.3326797824247431  0.0828724040193653
  0.2466545933520132  0.6667660128025495  0.4184402289849599
  0.6617392294365657  0.5029003337991199  0.1703914693441461
  0.4145491883934469  0.4998373468427203  0.7461709780814390
  0.6646956512227259  0.2504264540444746  0.4165953098119635
  0.2446991412120110  0.4173717248766288  0.8281560406163125
  0.4960594686771879  0.9147908265313607  0.0824301407127809
  0.9113215225166389  0.3365874069636969  0.0857268637669347
  0.8294193884831784  0.3347346495611535  0.1680009118905224
  0.0808122469722915  0.3341209544724070  0.2505285065240520
  0.7462976276324300  0.3336296002863998  0.5831381976511821
  0.9113850731105086  0.2489168187955781  0.4995950511028646
  0.9117239686281431  0.3309070140394744  0.4168674025390888
  0.9138453671032345  0.0013181763507456  0.9178393658960858
  0.3303612448989223  0.2511170568562507  0.9187306102733310
  0.9126140533270838  0.5005415108028681  0.0848185438788805
  0.8262009917632398  0.4158934011917906  0.2515909379149269
  0.2455187025002878  0.0800201860719024  0.3349474973401797
  0.8294306690869903  0.1676436382815991  0.5003661119132748
  0.8282100367778259  0.4190844963346951  0.7551960008835871
  0.9120696931235354 -0.0005355527282442  0.7493525866350361
  0.4132410705153293  0.6663000358446947  0.9159911296554450
  0.7468729443866685  0.0822842315897462  0.8333852959570128
  0.4132656679818830  0.5846947795502735  0.5005608801695640
  0.5794700579375422  0.1673383856999436  0.5823317310898630
  0.7434944872884488  0.2497595617665152  0.8320067251875473
  0.5813991552875223  0.3322715985259063  0.5825044704211900
  0.8295156279633021  0.2498582145063749  0.5830912885315302
  0.8275540369154326  0.1658370884837724  0.1678856907665618
  0.6646785502861603  0.2505293602437622  0.7504609501323714
  0.3294526088272847  0.8323959295588454  0.8329462327978763
  0.6631847308287420  0.0855510407275610  0.2491329808118226
  0.4967486378488537  0.8336033544482323 -0.0013711502163282
 -0.0022539930102674  0.1622934432707329  0.3338596699273603
  0.7472804549507701  0.2536202598564437  0.6645913769070021
  0.6621584886887225  0.5850699677085744  0.9146075062524196
  0.8311902518474182  0.1629210680536476 -0.0003979114674781
  0.4120642712530828  0.6669782014610860  0.0832618780736205
  0.1608818892415818  0.3351808089719515  0.6661034805383419
  0.6637740200553738  0.8342887632745206  0.0009261526429439
  0.4127779708229651  0.2490575705937869  0.4994096800162502
  0.6645819147464814 -0.0019252516130067  0.6663734051280847
  0.2465988825045348  0.5828557002216496  0.6679101825878087
  0.8297177279678106 -0.0012767851853324  0.6675077458757124
  0.8308134577265099  0.9166396589834928  0.9171037695123663
  0.4134430346842775  0.6666511098142374  0.4189469653803933
  0.6622528318842267  0.5827793992028748  0.4176314525055833
  0.4964558495195495  0.5000268316638073  0.1692113478226071
  0.6625691601728312  0.6654337144172775  0.8354333717871965
  0.1655406428357981  0.5022131502474911  0.5033019183393768
  0.5807435439227491  0.8341740669311408  0.9152127023554740
  0.5802912624267161  0.6661232052514577  0.9149372784615244
  0.1597326056893615  0.2518777998151606  0.7501709438785847
  0.1610707220032717  0.3315906633087926  0.4976750654608689
  0.2477110073759117  0.4173982947805033  0.0021812449337983
  0.3296652460375640  0.0047575436548650  0.6635948842128416
  0.8275519874886571  0.3372462272795409  0.0014639220908749
  0.3303517574422356  0.8325730358851202  0.1656716449708975
  0.3289742261757366  0.2508169970852992  0.0835599485693479
  0.4103187923109795  0.0008551954003757  0.4185625346523362
  0.4134143915332341  0.7492194610083416  0.8320770979321855
  0.1642593086239034  0.8308329364303429 -0.0000814076686632
  0.6595736938199266  0.8370552455447752  0.3335630815187937
  0.6621073666768519  0.7495351792857635  0.4209961269477505
  0.2437477767500938  0.9137035249824923  0.3305205244894999
  0.4122036465100574  0.7481558640472752  0.5005566956996884
  0.8341806359365660  0.8324461703227035  0.3343203722889002
  0.5789304706708651  0.6672601591216361  0.2542708922205485
  0.4111692019509276 -0.0005927460584870  0.9131493684124421
  0.6644261509096786  0.8330339261597914  0.6625621162284011
  0.4142288727328716  0.3332678973241028  0.7450872237170481
  0.2455881194511864  0.5002125681311248  0.7509060022335279
  0.4132178355368335  0.6664472308405631  0.2504723702954191
  0.3314734198862299  0.8294244666768346  0.3335906857486101
  0.4946352530103507  0.8299814360688049  0.3365915464173494
  0.3273137359259638  0.2550146065608244  0.7456405111619772
  0.3313588266207229  0.5845410826727191  0.2470482570305159
  0.3312041047492092  0.4178410300765256  0.4213624838897448
  0.0813775297751614  0.6665467340016077  0.0834422495456843
  0.2466861003786104  0.7495854268305294  0.8327408444801544
  0.5006830088826340  0.1656159178083904  0.1662741513151241
  0.4949252653035027  0.9161402541847325  0.2481383629131733
  0.4142485819919505 -0.0008823508723718  0.2487678723694050
  0.8286215482278690  0.1660760645836943  0.3353075927649854
  0.4973511303978950  0.9162685788216112  0.5825767563925963
  0.1615144242944104  0.2521401773856390  0.4180877287885054
  0.2458623327255729  0.6676806319285977  0.7488426161109965
  0.4974013696236636  0.0854216278612677  0.4167482506379235
  0.2495718767966532  0.4181202009486765  0.3361775848933760
  0.7473866299549137  0.9157670555014603  0.8349711116160610
  0.3292120732187386  0.0813849469630547  0.4172548818082368
  0.5009860201482031  0.2513485383611128  0.7491538486774707
  0.4975484748149269  0.1623049329591886  0.3357489552697404
  0.3301232756417168  0.2515488049119168  0.4205925737314632
  0.4114318672552195  0.2506085695019047 -0.0002315381597298
  0.2445257023254816  0.0859338975247437  0.0015733517814556
  0.3307982621484438  0.5012011773869038  0.8296154434757920
  0.4990773882677965  0.0840116602999241  0.5818700750206708
  0.3304725040069642  0.5844169163155229  0.0839758671256060
  0.3283974147125150  0.6662494658712774  0.6649191784934985
  0.4967045715923025  0.0824403933331818  0.7468674063680044
  0.9125950987517004  0.1674920599701331  0.9183142715792242
  0.4974759669802764  0.2502178424041329  0.9160249795064939
  0.7465236789199549  0.7473260061458344  0.4993742629568058
  0.6630050659440704  0.8339024340377903  0.1660746695711010
  0.9141294640994985  0.4191886878027183  0.1648336671026523
  0.5801549249113183  0.5819267705497676  0.4998675521624271
  0.7465375055015532 -0.0006340385760621  0.0843451583834792
  0.4980116777928508  0.5000183909423521  0.6663037651816939
  0.5818769668034840  0.4172885575339725  0.5003207075366268
  0.4143156677099606  0.5008013439740190  0.5833966936667743
  0.5793560009245363  0.9168495246006158  0.5026590239899976
  0.4968296060439890  0.9152820573903876  0.7504879561540472
  0.9147021743734065  0.5050314318803867  0.2498279819785870
  0.6633495667578364  0.9158602537018610  0.0821780199413413
  0.5799736444775346  0.1654101785053265  0.0849677519156228
  0.4118222452168307  0.2493297948439500  0.3386990272247490
  0.3297480421237139  0.3311464255974879  0.6648424410363256
  0.3294312254907069  0.9146801321412712  0.0832228776325399
  0.3290392638403256  0.0827867113234535  0.7483819818636454
  0.2458881264046582  0.4182384509035290  0.1681760808986670
  0.5762841236038108  0.4174804577592616  0.8312826845915628
 -0.0035283529494822  0.0865552884098078  0.2495069189895477
  0.5796635418038767  0.5001560169523067  0.2515530254780191
  0.1630392250735353  0.8322202458757179  0.5023483008650731
  0.4975529089278154  0.7485638377791335  0.5830474953232069
  0.3311196511384292  0.5864510272880171  0.9151825950131580
 -0.0065158287743691  0.8321024620965389  0.0007786912099772
  0.6637286226865694  0.0816100574616870  0.0833342662755441
 -0.0014745707303653  0.9130915997369636  0.2461477615156474
  0.4130639179998384  0.8314503067498381  0.4189540653202250
  0.1641324135141783  0.8303605358438292  0.3321907610530728
  0.4959052705249310  0.5022474535799571  0.0015654600386730
  0.3295828757913147  0.8300076870620422  0.6684760196479494
  0.5805641419903371  0.1665685971572829  0.9165202378066107
  0.4130038269014434  0.3298873813521699  0.9204481184618394
  0.7455924457385809  0.4177288393522525 -0.0000088410038588
  0.0775404977950337  0.1656985201782199  0.5832749087371888
  0.5832463653217328  0.3328292318943676  0.0852255698793898
  0.8295621911128200  0.5845705385728640  0.9175432518820517
  0.3307341002266002  0.5851492893644474  0.4220970358903752
  0.2470133789992262  0.6673244324103128  0.0854288149634980
  0.1626556386215189  0.3369516557085397  0.1681605720828739
  0.4109303295448848  0.4171033805907087  0.0011779573407300
  0.0788673839696129  0.1673945437943073  0.9173462131998132
  0.6634764518087881  0.4993715482888962  0.6663678662521674
  0.1640843092604586  0.4997492546656833  0.1697548544097209
  0.1639580262415477  0.9129064703731268  0.2500987817601901
  0.1639298383243682  0.7500510961602229  0.2499860178793635
  0.2447394731696019  0.1710308764862405  0.9196331479603630
  0.9140031974413614  0.6664832482683375  0.4172519668586641
 -0.0039494324051755  0.4218109169115880  0.5810718672114961
  0.0806632791233391  0.5821894926115538  0.6684512199216157
  0.0778516474122419  0.4142367457757453  0.8329989610114111
 -0.0025342494110363  0.0002696012514546  0.1641458668712310
  0.0762714812484821  0.4156252203984585  0.3344350449545213
  0.9134810712167535  0.8346114922888553  0.7524963019950148
 -0.0027580178298136  0.6659832509415087  0.5013855750506043
 -0.0035158354526955  0.3348979177875037  0.8342996551324159
  0.1616310726005334  0.9154658800486807  0.7527113786412030
  0.1621173817886795  0.5006690922028422  0.6671260287192722
  0.1647322717559357  0.6689437610669504  0.8321540782565463
  0.0853902609475840  0.5846964820627322  0.1661092144681139
 -0.0073601074834488  0.5022496974309432  0.5000121987056786
  0.9127362314362495  0.7491030316181739  0.1657928817180346
  0.2477293912611221 -0.0030530257281740  0.9126752105450084
  0.2428639686896278  0.8328910370227945  0.5840639191036716
  0.5797081905085565 -0.0012361740085944  0.9186258618507898
  0.8271952454096116  0.5004860505997348  0.5007912114315070
  0.6630240937372417  0.8339640154149012  0.8389154148256320
 -0.0044061450458094  0.8337173380038625  0.8349308763185136
  0.0797027907943784  0.2480962036834862  0.0005288552614080
  0.5797770267560022  0.7502850753751159  0.5007020366596955
  0.4936457076721947  0.7493367213742136  0.7499580641111312
 -0.0041063180428982  0.0831977304198748  0.4165891607746982
  0.9135795999830498  0.9168301020062913  0.4994433496024251
  0.1616919576763623  0.0003278980369658  0.5010684831629072
 -0.0065167513951306  0.0822453546375950  0.7508943828813588
  0.0787863773634964  0.0880709013333354  0.3340932867877217
  0.9125323508756608  0.9153828502268719  0.1642791793612490
 -0.0041942929263937  0.8293055689738629  0.3319875813746487
  0.9098110186574745  0.9152836411459059  0.3365983544381974
  0.0798506176316527  0.9160597447147482  0.5008276532755408
 -0.0045685584194497  0.0823822661520902  0.9180716285392403
  0.0794268407419549  0.3337720723427640  0.4179239241605720
 -0.0033809008994293  0.1652649391634068  0.1684169895424243
  0.0781242324591109  0.7508296385900322  0.6682494287622701
  0.1643979673233417  0.1670951610224058  0.1662217907429496
 -0.0043866365470363  0.0829671892789048  0.5826300721957727
  0.8313147727997797  0.5823340866096091  0.0848918529801705
  0.0755025673254974  0.2485786926578986  0.6657223256030075
  0.9152612601878675  0.2498020189605839 -0.0005722530410091
  0.7478799127781780  0.5002969377764870  0.5821558821704661
  0.0822449227803057  0.4162475085174678 -0.0014010904167828
 -0.0036151792190960  0.0830232029098176  0.0861997367282849
  0.0802625690208108  0.5860399931316603  0.3342356596803173
  0.4964223189216854  0.3334126491431985  0.1704498417650513
  0.9112975314043684  0.5851183190345918  0.3335596233832485
  0.9129491352691308  0.6661269833931959  0.0834938885508472
  0.2426969802219338  0.0830159569534932  0.1655319240347043
  0.0797777484427647  0.5872924689488993  0.5005927736148799
  0.0783103602451951  0.8294020473197041  0.9132708487691175
 -0.0028665931305071  0.2457915095251087  0.5840982234012713
  0.9106332177530797  0.3318765629331520  0.2486745064617415
  0.1620373514261546  0.1678834283381619 -0.0003946076130690
  0.9120682088003861  0.7491779812150605  0.6652861848776298
  0.9096637057837669  0.5850002463196363  0.1677452583260977
  0.9116204162711640 -0.0011065185812116  0.0864612668616565
  0.1632639765641273 -0.0011958349053459  0.1673582453590431
  0.8296043908810342  0.6655755844143286  0.8357180855238266
  0.9111638321871658  0.5870982549392553  0.6676722332910261
  0.9125331143395231  0.7498557090557532 -0.0002051828642967
  0.1622265716191190  0.0832680013887677  0.7495527273334235
  0.3299534923068719  0.8315710436079636  0.0001876216619987
  0.0786023334462164  0.5015770522636417  0.7463403310442881
  0.9139215288784688  0.0009885694772107  0.5825227224036164
  0.7460967389779186  0.8328154185026641  0.5871501205050501
  0.7502895485521913  0.6695032647258807  0.0831975820371796
  0.5762753894428988  0.6703642851842714  0.0796624636764548
 -0.0057311758483579  0.5843826320169391  0.9164431985915412
  0.0809493074404070  0.4150564879373783  0.1695549568942885
  0.9095900696325486  0.0022182068067235  0.2508219176847813
  0.3294525114574749  0.1671234758056349  0.6623747809146225
  0.9127354269547042  0.0001347096680597  0.4175343806825261
  0.0777394456043283  0.9170482294938038  0.6728859258748818
  0.3298086032139698 -0.0000157490892004  0.8358919590402668
  0.8284984763227516  0.9151428305998457  0.2509717739997159
  0.3297346162396239  0.2511225863615992  0.5822898550268262
  0.8298856448732032  0.9164418540994962  0.0835809256314366
  0.8303294163982259  0.7498059034298133  0.4180206318321057
  0.2451863977857668  0.0011485247930853  0.5837685945612796
  0.4145484196623701  0.0822438612125089  0.0823334475368641
  0.5814394951770545  0.0020827436868262  0.8299105888352567
  0.4135998978469212  0.2474687719164569  0.7491073889830412
  0.4965310316108252  0.5001422763819791  0.9113898116541923
  0.2462131544548579  0.4149212756466140  0.9148751111235466
  0.1623133170198248  0.4188686790575766  0.3344599173663624
  0.3317673973153302  0.9182316890638831  0.3338837974467150
  0.3302076395594005  0.3345920830301848  0.2495299180230857
  0.7429685855229040  0.1627516594886748  0.0001772804960243
  0.6617654809742533  0.7481011736023128  0.3313712354080449
  0.0817378271247242  0.8324906623322607  0.0033106992906946
  0.0807472422809811  0.9147303367676098  0.4128557040577991
  0.1627298245120287  0.2475767229563806  0.6628336964308411
  0.3326014460767445  0.4138561820620126  0.8314855911449656
  0.8297758591384571  0.2497523378785639  0.0023180766487571
  0.4941353243652201  0.3334569298889470  0.0829021039348745
  0.2459911609074036 -0.0032948047635156  0.0022509684947759
  0.2456845577030954  0.0841948395006933  0.9150431015100047
  0.4953419332349764  0.0840467001495293  0.8378963971132425
  0.4132179506741105  0.0005496853926195  0.0038644139723790
  0.3333863117620800  0.0814833798015270  0.1669040639746722
  0.2473928071220950  0.6649281479415862 -0.0031258739737630
  0.6627075411103782 -0.0005901190525143  0.2500766210579436
  0.8326129979021584  0.2501225933143425  0.8298418233415799
  0.4139617210283758  0.2508986858681374  0.2473022876963916
 -0.0864913386592205  0.3332619939565953  0.6679689449901235
  0.7468100495840428  0.1668224848542727  0.6657953315366695
  0.2460474385868002  0.2509719382849590  0.2510902926499068
  0.5793989407388710  0.6680142816546264  0.1667478063848389
  0.0829960540839380  0.5844627823834324  0.9144783039298265
  0.0781050825059002  0.5031714216001871  0.8352492781688403
  0.4996879788205393 -0.0022865430037570  0.4186180790337965
  0.4149470329025449  0.3331600685395758  0.8326861565530571
  0.1643551092518455  0.5029027719330705  0.4136850591584049
  0.5800077916023673  0.3337370807397995  0.3332550379297763
  0.6647142679597705  0.6658488614210522  0.5799358527295047
 -0.0892080200042185  0.7468536218316242  0.7545018975878545
  0.6618775218328611  0.4126504856274206  0.1688725908140387
  0.6631918373511753  0.6671116022714729  0.0841677631271936
  0.4095567382748832  0.1656865046676444  0.1662184212995450
 -0.0877031935497619  0.4182326589876888  0.2518328355835092
  0.4976955636767610  0.3352375758281937  0.4169862846968139
  0.3302453506098951  0.5832676276142763  0.3346802231553614
  0.3327440588330981  0.8339219019950805  0.5808511093963781
  0.2458078953252530  0.1705658912912338  0.3357406395696706
  0.8273466830325256  0.5039867795173661  0.2547863597921852
  0.1652267011674443  0.5005872207226224  0.0804621558125534
  0.7467339669432963  0.8329065085256522  0.3345109935924324
  0.3372972039458725  0.4183783780668534  0.3323526654214565
  0.3307375826014791  0.1688448508923755  0.7496033893903968
  0.6645236408743762  0.8331483217555646  0.7512561864780192
  0.0787698412875981  0.9168005045958943  0.5866190177019707
  0.4957359247742684  0.9182384558416062  0.3364370926658172
  0.9154165686293274  0.2472456066530312  0.0875753859867534
  0.0788925441315544  0.9167559624876167  0.9172566458182624
  0.1653826887948764  0.9167596913953344  0.6652859395069772
  0.9130410801007564  0.4979816919992848  0.6685659095037482
  0.9140149228881586  0.2497629264602798  0.7501995647199783
  0.3291846345704408  0.1662752807952339  0.2504648116236040
  0.6619132766099196  0.0849383506091222  0.6642181823091405
  0.9957266520882626 -0.0004660156029402  0.2501337968365997
  0.9971581120684353  0.5846619438883282  0.1679991577212287
  0.3311399415070727  0.9174697918204995  0.6670101406035304
  0.2466249975227068  0.9160009408392730  0.4203213742986808
  0.0785800067623519  0.4997983332137887  0.5000623574720837
 -0.0040543608474291  0.3333173020341504  0.5829799140106336
  0.8294027701097383  0.4170913961493123  0.6670365364025417
  0.7436739398460027  0.5815550810685446  0.0837449682291173
  0.5008074593474307  0.2474281935404334  0.0035075540593586
  0.2451664629499163  0.1688611234175056  0.8295785071138406
  0.9114727667190949  0.4221196435236871  0.4172750068362929
  0.9954757301923347  0.2526076216917970  0.3326093407268406
  0.3317744450470082  0.4989457469740908  0.9167578627256581
  0.6658128692871973  0.0850330659106118  0.3368510759263164
  0.5840874126884668  0.7482520723927547  0.7499041521927430
  0.5008410371788904  0.2521945987726129  0.3337597312785979
  0.5782807728352195  0.5800275099940253  0.0836761316515628
  0.3295334229204548 -0.0030740359209164  0.7493425299672872
  0.9963315199223930  0.9166768520252134  0.3337687035103968
  0.1629102619217422  0.9160352862448705  0.0001077456947204
  0.7467603895782182  0.8359417777822976  0.4991860844154650
  0.0807330080517475  0.9980177504346411  0.3336012740325505
  0.4971644463099865  0.4164992052243621  0.0001819674081715
 -0.0860219415462057  0.9171305607228206  0.2508925576437938
  0.9923136413967559  0.4179863715385710  0.0000257056522530
  0.6640915459387382  0.4168083062558148  0.8327371644432389
  0.8289419621031253  0.2489462051162042  0.2504081518149673
  0.3309130093610789  0.3336381240623285  0.3378467117930418
  0.2461219099247638  0.2507042799837573  0.0014533422208478
  0.1603190310704020  0.0837324548838071  0.9162208674758298
  0.2459135897381017  0.2505088307567355  0.6644278279294474
  0.8292654661060742  0.2492097601868812  0.0861308935840754
  0.9108714644658814  0.0837220509634543  0.1678842251221912
  0.9134505889262813  0.1654391208989429  0.5835937977472992
  0.8295548116605311  0.1644179146318021  0.8334921430851955
  0.9116012115218881  0.1660586043896490  0.2508116721667217
  0.7463345408843470  0.4166081920176474  0.1677478610513300
  0.8290118891465194  0.2492585777386286  0.4169214049123695
  0.1622059446401000  0.4173659556160111  0.5832238388171799
  0.9120318569158109  0.1659059757607508  0.4162813925660303
  0.7468144826154302  0.2503718167657925  0.5000590718454087
  0.2454960102612828  0.3359983821346552  0.2512850362968795
 -0.0059451099528615  0.9163421675792457  0.5843047008384056
  0.8313697959907221  0.0825140066847978  0.9167139204987728
  0.1617030214538924  0.2514715163152782  0.9163241195066348
  0.8283078632597863  0.5021806701751305  0.3357626435705604
  0.2444377738660806  0.1654642616467143  0.2503199327613523
  0.8281861091973745  0.4175367698956575  0.4170699787007632
  0.8288786965999062  0.3337105901794711  0.6672445327317396
  0.4961793965209491  0.2478784159383423  0.4189984625002097
  0.0816952968440192  0.1674144182281178  0.2488708172009549
  0.8291586900692395  0.3331510238346701  0.3336007059045088
  0.9131515464571545  0.4175268754601703  0.8342790867841886
  0.9135478173459541  0.2482495439541188  0.6644362474977160
  0.8293157214940871  0.0819267110504473  0.7507516094374334
  0.9134385183326933  0.4173673015330113  0.6656746970904200
  0.2460409622281631  0.2502867896470823  0.5007932474412339
  0.8297119968420681  0.9155245108997687  0.7509271413584547
  0.7464825876316197  0.3340496876010690  0.7506579378762618
  0.2462930405250462  0.2528572732428429  0.3382559542136936
  0.8293495505412150  0.4173123992809770  0.9165326586038468
  0.2463740135243004  0.1666837771254800  0.4192026057019373
  0.2474477819097330  0.5011783483666343  0.2509131095138361
  0.6635327246218058 -0.0016615035082934  0.1654806016419700
  0.2469636255626949  0.3343066267680320  0.4194575322145709
 -0.0050320563186974  0.9154671192787788  0.4185779254354739
  0.8292311649181554  0.5842655638374746  0.5834907441269354
  0.8284209668316100  0.3332072533024473  0.4994818948394552
  0.9128037520374477  0.1646510243192114  0.7501178334672535
  0.9110896472377755  0.3330664321837394  0.5811709061708326
  0.9155850324661771  0.2493296801164772  0.8355400134089674
  0.2458261031774371  0.0831746338037652  0.5008089594913732
  0.0799762339543807  0.3340548116039096  0.5823194554912028
 -0.0033396922919060  0.2502355892784051  0.9180907322935676
  0.9126734134715332  0.3337304490069207  0.9178589427471583
  0.8275118457176278  0.4186416470773513  0.0852781513266073
 -0.0034146709649762  0.3330240722725011  0.0008423487353126
  0.9101602519260876  0.4178880489696488  0.0019419038245372
  0.1617401168013227  0.0827594024520602  0.5828680238492849
  0.1606219486322542  0.1645376124881142  0.6666634366690715
  0.9132072582442938  0.0826769918368008  0.8340154550434824
  0.9122854723260987  0.0824616798763262  0.6665413781502366
  0.2440795266810178  0.0004723541947532  0.7498111477296190
  0.8298990601699407  0.9158150976894499  0.4186147678941178
  0.8283712039813103  0.0001218730672277  0.1676067990660605
  0.8291218532089923 -0.0003848992065086  0.3351173476992753
  0.8310734242418027 -0.0004370927549300  0.5013744542567005
  0.9127772998163065  0.0833293975462491  0.4996285943572706
  0.1626974084790505  0.3336947412787617  0.0000980733755909
  0.8306551541718162  0.1658607319025527  0.6661041734876954
  0.1638235701417995  0.5002503217298463 -0.0019484613732342
  0.1612221443496794  0.3336954398644055  0.8325996897547254
  0.1609360390340599  0.4166995772373482  0.7489054755389684
  0.6656067276124707  0.7487843728094387  0.7508218857146265
  0.7467542599263841  0.7495763809479176  0.6672010827998676
  0.7469254160496122  0.8331402102387120  0.9180663077756833
  0.7463520332313834  0.7493972867417394  0.8351239956728098
  0.6634985557172922 -0.0005277319079223  0.0000581272201969
  0.9117679544580785  0.4172534717303796  0.5005911178219292
  0.0803790811670118  0.2509033445162827  0.1675446601968514
  0.1623232813491122  0.2509756622574785  0.0839255964655944
  0.7466320675469358  0.8328001629602575  0.2496820382275750
  0.2442147044450272  0.3336414113314414  0.7476284978856430
  0.8303590722888518  0.7497135412166881  0.0837742715381196
  0.6623069585004467  0.6655351463921700  0.3352546919647074
  0.5781399111062793  0.7507748845302847  0.3346158704111757
  0.7459859430411703  0.8329835647492415  0.4172597889264610
  0.7471084894522768 -0.0014797533498420  0.2508495634482729
  0.6634173788289450  0.5015050587795925  0.8330826611109814
  0.8298235352058418  0.6671202162026900  0.6669321616422226
  0.9126572389377373  0.5010928038964091  0.9175430577410727
  0.8294813031295417  0.0822203252304010  0.0846942467606827
  0.7467149929941367  0.7501213479468498  0.0001449806257062
  0.2459848068492634  0.3314146815557128  0.9169345767021770
  0.1618355215715728  0.4160582796572979  0.9161529146189478
  0.7465472112728482  0.5843640002935465  0.8339359537646146
  0.6635907572958014  0.6684966167609423  0.1687171030981777
  0.9128462111497874  0.8320152723892330  0.0838945636644750
  0.6628449440761196  0.7519953137032718  0.0827805765219476
  0.3269374936169934  0.0829554244741545  0.0817501427882667
  0.7452278178995123  0.5007813078773192  0.4173774741938179
  0.4956907319839789  0.0015163244215696  0.3329764327985081
  0.6637173823476799  0.5000497109128783  0.5001605819267458
  0.5813130028915198 -0.0004243721157723  0.4180562229008695
  0.6637977702999921  0.4172096444924675  0.5831127695564807
  0.4129821827916628  0.0823065791160142  0.3344712279812470
  0.6634612334200463  0.5833225412159143  0.7501493571056135
  0.5817326467437216  0.1667643668527795  0.4180042424888241
  0.0812217060197972  0.6668077265856236  0.2500885281813014
  0.4972584228211397  0.1659830577542098  0.4999700378090771
  0.7462536230646043  0.3322547708033436  0.2510210644907733
  0.5806406758015904  0.2500857723754418  0.6661487524913328
  0.1633920899874006  0.5032041874023292  0.3325129217233007
  0.4984284179216157  0.1669206016850544  0.6658925981861922
  0.6622759620329941  0.5010839031191952  0.3346766678253719
  0.6634032598174212  0.3337085906087429  0.6669716160397615
 -0.0021728451333347  0.5005205501413889  0.1670824852688316
  0.1636276895404015  0.9160566282139141  0.9145683158891449
  0.1622877651707419  0.0839009490584615  0.0837171986810712
  0.5794176027774296  0.8336517998415360  0.4186575205471855
  0.5798000667464523  0.7497369992614020  0.8348469555306431
  0.2468358101637953  0.7536574064549506 -0.0006976488770003
  0.7474543912947823  0.9170726088548348  0.0003698497330254
  0.4974168818041728  0.5830831077035667  0.5842174739517183
  0.3306396165956537  0.5008862952442281  0.0012376463733382
  0.1617540810738298  0.7502581591444456  0.7496856108460594
  0.8311330946492722  0.8325223505500932  0.5012653441220705
  0.2455332925409002  0.7497435338754167  0.6673394469854582
  0.6617247861310845  0.8332622747938047  0.5019257635656666
  0.5798348927589676  0.4983815427864676  0.0849409985326469
  0.8308703441136842  0.9163678228993721  0.5843238475908689
  0.5801334217887840  0.1657137892683532  0.2500931542314889
  0.2442576060671752  0.2510837366329817  0.1656714519229355
  0.4965933303195340  0.0002442000534312  0.5024471712674440
  0.8283812597054432  0.7498967403475082  0.7511331889452997
  0.5796341827368350  0.6657929034453243  0.5835107043115312
  0.4130008022283611  0.0832592969126644  0.5008973359217838
  0.8307020802535501  0.0824963092870085  0.5821570735794741
  0.7449632708729561  0.5850117121603410  0.1689736860047769
  0.6635094835139970  0.3342242278217536 -0.0007542936564681
  0.7467856402966128  0.8337698760000496  0.0834219250762044
  0.9123689861024592  0.5839291803062937  0.0004700530503237
  0.5783601119930047  0.7521142125865029  0.1668672772189196
  0.9123274276762867  0.4176323345089865  0.3337081138765703
  0.7471146060277969  0.9168292539660848  0.3343474146164103
  0.2440483629038581  0.1674561528215461  0.7471613983953014
  0.5805747649547267  0.5003815951064222  0.7487838673220698
  0.8286916347160950  0.0840615652896939  0.2513458509662025