Cr H  Ni
 1.0000000000000000
    21.1670884124974457    0.0000000000000000    0.0000000000000000
     0.0000000000000000   21.1670884124974457    0.0000000000000000
     0.0000000000000000    0.0000000000000000   21.1670884124974457
 Cr  H   Ni 
 259  86 605
Direct
 -0.0059329228160285  0.2522550151346882  0.7512287147156805
  0.7470951966174195  0.2525448787140286  0.4967901494640599
  0.7453595973709286  0.0840896378986720  0.0019334115475012
  0.0805789748241001  0.1658108374226489  0.2502368672666145
  0.4147981195907959  0.4952481865274883  0.0787876231517058
  0.6614431512415978  0.5767796157660198  0.4159769649440586
  0.4151574794271027  0.0801868351779342  0.5018530354953392
  0.5772204697672317  0.1657804721547717  0.7469512609676279
  0.4117732112614040 -0.0018901081272560  0.5826687977175750
  0.7441263210529464  0.8307091812645405  0.5838415281959317
  0.9073022363472637  0.0825727097848949  0.3295733431616647
  0.4979549387469732  0.1656359212416864  0.3315525982840546
  0.3303386184768671  0.9166093227798943  0.9145942952945955
  0.1623291341387588  0.3357245961146738  0.1694107839907684
  0.4937135399658452  0.8337478267379126  0.3346437665933837
  0.7449757877203360  0.1672882488124421  0.4148433796757854
  0.4158662757250578  0.2502823589671927  0.1654312489190603
  0.0774499776706636 -0.0023005225855324  0.5828653444412454
  0.6608033916493085  0.1670924412123156 -0.0005389778739768
  0.1592357208830285  0.8302634177123883  0.4986659847184400
  0.9143406674727956  0.0861286620285208  0.6636923002278272
  0.8265939086799298  0.0792050890027481  0.2487683089129247
  0.4943987723485462  0.0830270949286748  0.7482504484565151
  0.7417802829335270  0.0842541458921785  0.6642912910656432
  0.3325835721707839 -0.0037298969334748  0.5002879908546275
  0.4108526065304358  0.4177136789605703  0.4992579646787587
  0.1658875600370809  0.1660968119356283  0.1642739712509124
  0.4112213969492871  0.2489931711637527  0.6696782594521830
  0.2448246025191876  0.8372547933684433  0.7496145969873804
  0.5748982636807436  0.6641119161630610  0.4136584139697927
  0.2453803056798830  0.9147613547845508  0.6687465389920200
  0.0768142291694923  0.9141642588221665  0.6641864324528594
  0.6629185080869258  0.8303869137499790  0.6638130269746794
  0.7451580028789072  0.0834256218350133  0.1657274026285180
  0.4123916240008285  0.7481670875169869  0.1645702245164653
  0.7465014535949555  0.9122027469828059  0.8305640613648008
  0.0791233756495302  0.4153810624656670  0.8320803165908313
  0.8275607524600297  0.1658306020050358 -0.0004872270474319
  0.8274997418792028  0.2516115318477627  0.4155656746854730
  0.4139991416299048  0.0816306971601151 -0.0056070497641699
  0.4137984676150758  0.0779595613341587  0.3295816064455889
  0.9122822397591248  0.0038876766687800  0.9167907098071870
  0.1632800523830348  0.3348632273788785  0.3314325034538552
  0.4955546705594521  0.0002283340511239  0.6648240237369162
  0.2454928537291879  0.5795318967206289  0.6643186989040670
  0.2418537158432053  0.8302733877125859  0.0774294547806869
  0.2457519674228806  0.4168474120608736  0.4982045671366515
  0.8313114857553243  0.7476229579288322  0.0800224557984579
  0.0829723115032529  0.1676916375730656  0.4162837882741578
  0.9108516555913381  0.4151515888152666  0.3301462534243324
  0.3290740253153949  0.4181524235366643  0.2486700462439876
 -0.0076512221924733  0.5828832732979735  0.2470926173555542
  0.2453810250790504  0.1672305274101368  0.0787179986628241
  0.4129163955976596 -0.0009394483074207  0.2479374254747894
  0.2441167066337024  0.3326726967760820  0.7484670613894019
  0.8284990365578279  0.1679564737525424  0.8332781832763815
  0.5792933627113181  0.6635096717549228  0.9121457823984714
  0.1673424991486905  0.3327794660069996  0.6663887138597280
  0.8234315002127769  0.1671735429876885  0.1645203768620918
  0.9116346529406633  0.6636768406011088  0.2478090957755651
  0.2452751826770503  0.2507314314011561  0.4991058516140134
  0.4938226797240326  0.0845745867894955  0.9178934460521916
  0.1601278923606245  0.4150986847704301  0.9150933919630201
  0.7463710652656723  0.9141733735344127  0.1646814779976340
  0.8280618356510037  0.4975459720341428  0.5024534671999525
  0.6624663745286270  0.9149827498814925  0.5839019550608113
  0.1633446667728710  0.5805971509506742  0.9166235400161719
  0.1585556293587764  0.6664154731679919  0.6653062108615847
  0.1583164788705527  0.7453109030840968  0.7486583288213624
  0.1600220083267080  0.7478467963627561  0.9163241504506490
  0.3285448550576682  0.8320706917932077  0.4993661844081188
  0.4927482798104967  0.6656665350947720 -0.0015601810316839
  0.4901538464596136  0.5817686662271006  0.7477166717859466
  0.0766266074693677  0.6634921168452762  0.2495511587083429
  0.8272152243370217  0.3326321871801366  0.1666940568216201
  0.4957605953298149  0.8319696819380270  0.6656551954619909
  0.4124176409395969  0.6635389689355915  0.7482663515407009
  0.6652088863199181  0.9120760589229225  0.4153191793223961
  0.5772823594583016  0.3327302199345110  0.9147307344911181
  0.0773585714005285  0.6670410910319590  0.4136697577029814
  0.4961770134035495  0.8317590436532427 -0.0005952189001833
  0.6613662442398514  0.7493000034590531  0.4169180661740917
  0.2448426296311891  0.6651034410966196  0.0819286918972239
  0.4958507232533259  0.4998473766334656 -0.0014133774676642
  0.9122545058231554  0.6606425642475579  0.9138516835311796
 -0.0058451114920275  0.6653463415091214  0.8322920032195811
  0.9131867037985820  0.3321480290313126  0.5822884379002747
  0.2451115314666125  0.6651477126468861  0.5783248443716252
  0.4131447193031399  0.5822438576064968  0.4999186244659563
  0.2460340450270211  0.5832132556402263  0.3315530289945302
  0.1625465093109639  0.5007485446733698  0.6639287145500217
  0.9092813473664733  0.6679689395993331  0.0809794749697671
  0.2455511368027461  0.4988995259977707  0.0815446120614660
  0.6608918370559319  0.7486115044286786  0.2475942628827535
  0.6607233229559837  0.2471717399182066  0.7508266011239233
  0.4945692140503724  0.4160610211400853  0.0827084195756049
  0.3277229607983719  0.4979008472723065  0.8303135735780979
  0.6620209845123457  0.4151029828870527  0.0810137410202590
  0.5778419990754685  0.3344827593376060  0.5846275998376468
  0.4120577464228019  0.7500398783111898  0.4996929941533674
  0.8275415547283490 -0.0020137434516095  0.6619193002007261
  0.4120006499319769  0.2511102967429795  0.3328299705466167
  0.4938738683671909  0.5816003600518792  0.5819319143537264
  0.6617740146033971  0.9110211061305544  0.7454496883058157
  0.5792914075524755  0.5818106228312449  0.1649048657892339
  0.7453427906064606  0.3333642560138567  0.4151642690795758
  0.2418812439644618  0.8314692188866573  0.2526775235299007
  0.4985366416697494  0.0820980633137719  0.4154992828179980
  0.2442315439591017  0.2489394882458591 -0.0023482286670561
  0.8262133562940945  0.4983035988524363  0.1653612579998961
  0.5792664577831518  0.8322534743134204  0.0814597066683168
  0.6616095074751733  0.4951344383107824  0.5008487046261560
  0.8263322935643354  0.2527137675160588  0.2484608877504185
  0.4946869395422063  0.4984014613754110  0.3311768321112774
  0.8295574560253114 -0.0008054658807586  0.4979877862542559
  0.2440765852146168  0.6652772987796109  0.7515050055122049
  0.7443955475437563  0.3326508872900510  0.9153383039442269
  0.6626780017819885  0.2519016586006440  0.5838113041305145
  0.0784410516975419  0.5839109620671377  0.3310611451907211
  0.8270870790434226  0.4982278780145474 -0.0024331498799676
  0.4936834447505297  0.4155653143014451  0.7507658852260571
  0.3269917491330446  0.3315555962225470  0.8318642227484275
  0.5782896180108732  0.3333303571083833  0.2475366256762803
  0.4104829113903432  0.3340451600256393  0.4168955373698831
  0.1625053105737914  0.4991845468866987  0.1657147273314526
  0.6574933349542456  0.0887059120380608  0.7503909648090731
  0.7433971458032528  0.3315829824026091  0.5829870068521533
  0.6603347661709539  0.4144895121231041  0.2480722837807612
  0.6627571247895866  0.0006461385145867  0.0009100480026094
  0.2477149035019022  0.3332135232900698  0.0780013267288872
  0.6620239899989906  0.0826426736990384  0.2471645410768318
  0.6616755147603844  0.4169922189698367  0.4158156370949066
  0.3274104706618330  0.4165235222995668  0.5821835938445061
  0.4149537812600732  0.6652083110139622  0.9159539195734107
  0.6587417375696878  0.0831333510999090  0.5796560995638521
  0.4957016318132960  0.8344849969589851  0.8315651626831881
  0.7440786908067135  0.8326054679615924  0.4156865227998387
  0.2463199446357797  0.6646815074589486  0.2508361173398369
  0.4128769611831448  0.2490472983605396 -0.0020148192965588
  0.3276123618435323  0.0814649812722426  0.2443919521793257
  0.6613211134842394  0.5850059644136759  0.9146634362768635
  0.1583972245402606 -0.0017034598254742  0.0003906332818682
  0.9112209192503523  0.2523065170996441  0.4973994023823093
  0.1617581238383611  0.5847414881133439  0.5816384067802282
  0.4963882333680991  0.6643730651023051  0.3333802827547781
  0.2455724354806884  0.4142427037185857 -0.0003013926832791
  0.5794457502104259  0.7513023103737835  0.4990953500584673
  0.4148900313700953  0.9160163136741134  0.1650656836854070
  0.7453280226022932  0.6631746695135672  0.5834967270403701
  0.7474295550884364 -0.0010700460033911  0.4148059972350209
  0.0767748730278499  0.7470799237561278  0.1666512701012532
  0.6645008002307617  0.5815755193125198  0.7482799662096695
  0.5787972383520816  0.6670804713689863  0.7476957909104041
  0.3278144546126489  0.6645629293116658  0.3321871408450603
  0.4920306490796090  0.2488654797933443  0.7470820080226097
  0.4950722292298173  0.4972407880477220  0.8320440164008768
  0.4128353796595379  0.5857560198687858  0.1672324167039000
  0.4948092493226730  0.5816933250240505  0.4151753032374426
  0.6597035693987983  0.2507453584812578  0.2475466648069962
  0.6629978760625740  0.5821310275565036  0.0811437587106985
  0.7449184815980795  0.7471720950550083  0.8317145722443520
  0.4920496211965492  0.2505200919077543  0.4117105415663344
  0.2429034902562208 -0.0015499453117979  0.0759240263145372
  0.2433200115383085 -0.0001410003915966  0.2504787459577143
  0.6611585579132538  0.1688348160390337  0.8318363650278956
  0.5801043112891225 -0.0001864941282338  0.2470326408299822
  0.4957710664865425  0.9145920910679418  0.4147056287048396
  0.7449125463594454  0.3330475981650221  0.0815239516560049
  0.1564467056191274 -0.0011631030991167  0.4987851298900514
  0.4113983571931323  0.0799594782842348  0.1701428647784367
  0.8287646130009806  0.8307763644740166  0.6621339306339514
  0.4949560099489214  0.0000750073571965  0.0015717757746819
  0.9119915734670127  0.6638041608842042  0.5837418821517131
  0.3261590769753775  0.0771110291561538  0.4178324441088923
  0.9120745360655076  0.9150574087513029  0.3310856890302895
  0.3290866170361735  0.8329123868603944  0.3355011016229765
  0.8288867457355347  0.1706762168190189  0.6671354530430201
  0.5775945905178423  0.0802834622341113  0.4991307744241438
  0.3280839155602471 -0.0001699307180184  0.8326499799344904
  0.5764534016896059  0.3349452967711286  0.4144822521902382
  0.5820897879192318  0.8314410249249680  0.2447676087393620
  0.5812865967427177  0.0825827414753691  0.1670082028732044
  0.0777837909659472  0.9155575689396983 -0.0007679604437203
  0.7446701204698828  0.6621922289181474  0.0817553076921559
  0.0771727382885749  0.5815634567394709  0.0019459455351142
  0.7434130989532777  0.9138708722574818  0.3325308354301226
 -0.0040272788720701  0.2474142052300311  0.2480984450082669
  0.7449334268295835  0.4148186975270399  0.6667056103219654
 -0.0100642539035042  0.4177163927600943  0.2499069641887168
  0.5793151343263020  0.4159801939860737  0.6669258259248555
  0.8265892742556457  0.8305056828206661  0.5015213561185425
  0.3289996690549993  0.7517086177815551  0.9155092680910980
  0.8262785178954176  0.4986061704907722  0.8311334058565565
  0.3290722557363774  0.9140248790442692  0.4154551449329985
  0.4936540641037726  0.4146810321574684  0.9109379600715152
  0.3298479396559095  0.7514536578962641  0.5773441165794845
  0.3285469827776368  0.1647649821092154  0.8321466849903548
  0.9118551293386601  0.8331846999127306  0.9142674183487028
 -0.0040068799539043  0.7471930434501640  0.2494424608090827
  0.2441089056485599  0.2482487143848408  0.6657857786321320
  0.9105318252470801  0.3325469375116373  0.4156988467856376
 -0.0056648685797155  0.3328611148881965  0.8327320232778515
 -0.0065052315017645  0.0829256678097980  0.5820926475051903
  0.2436591739604034  0.1652050365997459  0.2473764005109829
 -0.0018860446378755  0.8293500657613416  0.1652446025860625
 -0.0058159777372458  0.2505235293374863  0.9152626240572447
  0.9138530458520456 -0.0002908810909993  0.5785158587337800
 -0.0045189472215645  0.7473671917743151  0.4148721852695873
  0.9127370026045297  0.0000934615290346  0.0836152259014593
  0.8293959530104943  0.7446810806159244  0.7492227588265062
  0.1622777292463370  0.7469100404944096  0.5828156685291944
  0.0798542036468421  0.3349305174224745  0.4118704951493038
  0.3275640319840367  0.0819646510903019  0.9152599372909738
 -0.0019629683657534  0.0826681630692249  0.7496777657890371
  0.9122580650477965  0.9149407524536951  0.8317985640521343
  0.0732129902552314  0.3330793579789630  0.0795796900461399
  0.1623062538122785  0.0820771801153358  0.2477369122482377
 -0.0051370907929783  0.4978728110329466  0.6648815750514644
  0.9128072510279704  0.0820115847043967  0.4986205866860720
 -0.0049628798336285  0.2501004359916909  0.0808189693595828
  0.0778612036039072 -0.0009833904281240  0.0810514637448927
  0.0780115293921610  0.7473193502002448 -0.0014344952336449
 -0.0050459631380425  0.4973473031981720  0.8314541422085078
  0.8287221035290729  0.9158611806345477  0.0810280711396392
  0.1612040084523171  0.1652608148294797  0.8331778067941340
  0.0785597956064350  0.4994374128907916  0.4117541394285106
  0.0766124371115249  0.3332921808761721  0.9145521244852581
  0.9110539850038053  0.8313290291769685  0.5852430197690982
 -0.0054435000376766  0.0823813084625501  0.9166142898886298
  0.1617646209913375  0.0824190449011796  0.4159323195110955
  0.3244778630586279  0.2494871328871734  0.5826994974993241
 -0.0055711401135463  0.2511698878211788  0.5808909350310183
  0.0745606880350252  0.9150605023007226  0.3325411646180592
  0.6597922941885774  0.6668529995919535  0.3294963413175009
 -0.0050795292772828  0.4988979532721141 -0.0001643708261915
  0.8281550113699562  0.7462121431841690  0.4175910287841492
  0.9110059703708117  0.5818064510280148  0.3283672735905544
  0.0795737284438515  0.4176579931537783  0.4984114595642282
  0.1603087738673597  0.1642655443820786  0.4979035935983101
  0.0791594612351667  0.6655248187748911  0.5837472561671743
  0.1590628198943854 -0.0018522970216831  0.1642499766176735
  0.1623960467862511  0.1672970075289760 -0.0011156918638503
 -0.0061404353016831  0.7478429969452767  0.7496198434537511
  0.9107616419031141  0.3323141414074954  0.0827441319066075
  0.9133395978030404  0.3320112495621766  0.7503242167674755
 -0.0050689976149819 -0.0020015647944948  0.1645665414398750
  0.9123963165471360  0.3320711631757977  0.9137653632815731
  0.3293319702247877  0.2532563396978738  0.4150178918688577
  0.2473621283805667  0.6648772758767204  0.4143878342384996
  0.0781270259725246  0.1663649852017390  0.5802190637800638
  0.1654048864337132  0.4180892101093259  0.2486345305197331
  0.8287595281077360  0.5802570095822293  0.7490553905821494
  0.2440767102437821  0.0818162189901163  0.6664075469048315
  0.8288978128808669  0.7473209961054902  0.2483354652760013
 -0.0043542237167823  0.1673678317942359  0.1679207225287172
  0.0764786253501742  0.9162329289133333  0.8336374773980710
  0.0781299333339797  0.7472855315464334  0.3321494910523200
  0.6625359817964696  0.4147255992158095  0.7481273475030557
  0.6581651637778881  0.7490077022394457  0.0820189144124447
  0.2503320964922877  0.3342940882965990  0.1678168623619532
  0.6581911326753537  0.9148386802311882  0.8351457735185055
  0.8281278601523668  0.0839946131178205  0.6646877873088352
  0.6597982177840985  0.0007438747995030  0.4138518121806579
  0.0796238977707475  0.5047759019277933  0.5014269521563016
  0.7447033179570696  0.7498669705536928  0.0805380496230932
  0.3306602581340796  0.8310332426366789  0.2471086005928497
  0.7442824699285699  0.0834854404215958  0.9138809153120201
  0.9141897434406366 -0.0012287340055835  0.6664533432277896
  0.8266625131381694  0.1653385384935341  0.2504829243767158
  0.4113814949642718  0.5846729175367330  0.0784918626343687
  0.1635915817219798  0.9148167817054790  0.3327328499698101
  0.4955057355140374 -0.0032327239226320  0.9125051106935020
  0.5809363622702234  0.8321358160402410  0.3330689527453803
  0.0801553658243928  0.1665441596451760  0.1639829262194101
  0.2402622615330046  0.9158446843885397  0.9151446680985319
  0.2452010374084766  0.6652515861985041  0.6648888301719355
  0.4115733697132147  0.1645370522311808  0.3303858053962496
  0.5772697100606837  0.5803190000941032  0.7480288670759619
  0.2440113050604450  0.8299329542491497  0.1649821068318305
  0.3256378105929597  0.6629347709209324  0.9162896979573454
  0.3316478215615790  0.7495051206344874  0.6684101095054518
  0.2453781517330708 -0.0021217819786026  0.1635028802413113
  0.7457549347632449  0.0839210396360348  0.7512353373062042
  0.4943347616186783  0.2516180907890692  0.5029629063153285
  0.0766702487758309  0.3337675394906585  0.6659360541985836
  0.6616213587635438  0.6628538389247455  0.4158067986632304
  0.6626081718085660  0.5782317384248397  0.3266337429812498
  0.7436981571785479  0.0021695564041943  0.8339693412554277
  0.8295713046858406  0.8327418163891209  0.7508587510133690
  0.8310691990440390  0.8331921234029384  0.4140980940935641
  0.9119765481693889  0.5774775323285554  0.0809545147217943
  0.9085539792249203  0.8322052838376875  0.1648714395794982
  0.4118744871339152  0.0814863930936190  0.4158871550310151
  0.9937288581282279  0.5818850119300698  0.4998109404733711
  0.0742100222311050  0.3341089197475747  0.1677500030253787
  0.3273834899807028  0.0835649784143061  0.5040088124857501
  0.2445666531738948 -0.0019760917995859  0.4997979701229871
  0.6591498100201307  0.2505055945825894  0.4955516347032520
  0.6602708841317164 -0.0004235367219375  0.7487259830853416
 -0.0905415027964903  0.5822247550240722  0.4199188900155330
  0.3271424125595682  0.1653618318292668  0.4159311337739736
  0.4134472385044057  0.2484667037276141  0.5811435966863343
  0.3331066588818798  0.8306455315883978  0.0798474471734146
  0.9107225828425850  0.7467161993270272  0.9151470971193023
  0.2441929086877671  0.9144694596968018  0.5789945628195257
  0.3248552495098641  0.9147108255737967  0.1635330147074721
  0.5787930852571296  0.9152749112976689  0.9153979459424635
  0.9124027225314251 -0.0819082352109202  0.9188528860776465
  0.7465753621600815  0.0835017557097619  0.5770918666643361
  0.0750945105804171  0.5824373457776559  0.9133718173258749
  0.4126130300078358  0.4968098233224175  0.1678806573406092
  0.0787073290294703  0.4174503158806517  0.2492914991605061
  0.3264850156393129  0.2494360698317575  0.1649960782398420
  0.2448538733692113  0.5773687036748907  0.7522141847219709
  0.8282507407165156  0.4985271138370937  0.4108069824754165
  0.4962616064112553  0.4129983703102133 -0.0031546196514461
  0.7487949790580641  0.6627453994833813  0.3314047102694285
  0.9094310165208627  0.1655998137329169  0.1647103230488957
  0.5811718916580488  0.6660760904598343  0.0002908743806123
  0.3344618651352693  0.8334600233414020  0.7499968165540888
  0.6622964003582215  0.4944459221524454  0.9148827165868479
  0.9975684795330957  0.0814703431927785  0.3302812502297131
  0.4961365673394825  0.7446796453558471  0.8311544005778719
  0.7449413036879646  0.9146191776609404  0.9211216566059784
  0.3272475953873438  0.4978038407017880  0.9197969902644330
  0.9912212515938955  0.1658408722410643  0.4145049483543696
  0.4108348273182885  0.3384262308358163  0.3284255086356370
  0.2454244932839303  0.7510519147084873  0.7498377306172107
  0.4935343713805144  0.8319890260940234  0.2456685471383945
  0.1606892700133659  0.0006764738909800  0.7508304400722285
  0.1569556072004834  0.8344585827330688  0.7500955913673699
  0.0794472694631312  0.3305128045480878  0.5003957096019741
  0.0747816970025267  0.0790005734093623  0.4157525413526564
  0.5780540017907438  0.1694822273148806  0.4994512606497732
  0.8294728838142003 -0.0014505951068184  0.7521609288745867
  0.4118999999018210  0.0830212775420821  0.0823921689039236
  0.9105803929473421  0.0843153367856847  0.7519617312825125
  0.8279432207573729  0.1688475019776734  0.5777609927432031
  0.5780479713938040  0.6632144685559626  0.5026515312177400
  0.1609240951996429  0.3335538350739857  0.0820759834637574
  0.6632778716101912  0.5830711995730581  0.5039139098233337
  0.5731281946576468  0.1665631806561171  0.8359158175727002
  0.3271331187195350  0.0818260207487960  0.3309322745368777
  0.9150960411370217  0.8309325806182473  0.4963247152219867
  0.0790174410304050  0.1672385843440433  0.6700358557724503
  0.8278915388757025  0.4976542951681886  0.3292338560155958
  0.8288185083384273  0.4154945589982992  0.9152835913014586
  0.6619864176242602  0.4116248569031539  0.9149951962282773
  0.8274040534009749  0.5816690512531966  0.4166040726221251
  0.6607776042110287  0.5817092565200561  0.2449478981007642
  0.5772527413800281  0.4976819349877751  0.5835641750175229
  0.7444501582986821  0.5817985896071000  0.1642812128366905
  0.6609646427921753  0.3313958219216619  0.8311742491069186
  0.7443674713163255  0.4981702969452678  0.0814992054895150
  0.6615557360028315  0.4983241850213058  0.1637616811339203
  0.8282181037069805  0.5815736990703141  0.2475916775554324
  0.6618218772914723  0.4985472306776633 -0.0005101974267150
  0.7456518677934455  0.6657987586925181  0.2467353332252664
  0.9107686258786949  0.2501935381720444 -0.0011716390382082
  0.6634044830301110  0.6650429187051836 -0.0015502183223620
  0.4126404676316082  0.9161794509831003  0.8317605984344328
  0.8298215381092655  0.0836111806757428  0.5798811851350705
  0.6606015557363863  0.3318386903346378  0.6672227161666903
  0.7447070996837161  0.1680189089214679  0.9166540503743184
  0.5770249251839145  0.2538264417869422  0.4985038364289140
  0.5784421110701944  0.9149420898021103  0.6655008455970080
  0.6619420138023338  0.1665813954139923  0.4979042195276913
  0.4954246343795253  0.9160506745110721  0.7468798392934494
  0.7434438155307743  0.2512372692140726  0.3319960559623013
  0.5787980790402921  0.8327641035172343  0.5830290695506456
  0.8277057293246340 -0.0023219911717359  0.3317855516683411
  0.4129651513409234  0.9141891585564215  0.4990591057896737
  0.6619522574647178  0.2520515235368909  0.4134567326231751
  0.7446950121106344 -0.0016612699714936  0.2483782477977351
  0.4955922548803820  0.9152879600190365  0.5833974390232770
  0.5759891773165646  0.9152416514776985  0.8293065607896788
  0.7442296974175755 -0.0017464046741351  0.7474914075732140
  0.4126911867523396  0.9161506546842123  0.3324400187101617
  0.4949834997069121  0.9134875398342406  0.9166925707594591
  0.6617899649847364  0.2498144454502871  0.0809132956656232
  0.6607551393611844  0.3333137319904961  0.3316765776085235
  0.8279791339161683  0.6646831616439745  0.5009103922647914
  0.9105281658423539  0.5808345491941309 -0.0024105130887648
  0.0787420350412824  0.2502445252862404  0.6664063271628403
  0.9113333190434217  0.8314329462979025  0.0809124529978707
  0.7439658702992769  0.4153718200161439  0.1642334132045967
  0.7441319975206047  0.4147036777606166  0.3307758453042127
  0.7441559068902459  0.4978839288848533  0.2469212069918041
  0.5790397101575795  0.2503506834222636  0.1650141496858562
  0.6612179282844451  0.3333556436288286  0.1641862416011353
  0.6616804632934534  0.3323239919498688 -0.0013175126538162
  0.6621778077362076  0.2500405837678080  0.9158873215170824
  0.5777318030337837  0.1666697861275878  0.9186120060044779
  0.8287970682415249  0.2503467451332698  0.7498210923852008
  0.7455418145649023  0.2500158144056589  0.8328449899786255
  0.6608557723784102  0.1677875479137609  0.6647734619847830
  0.7446042746834158  0.0827487909882842  0.4954379703062742
  0.7433202359437289  0.1691401038347504  0.5811698387330498
  0.6621787419969971  0.0831402635313612  0.0825445172572919
  0.5770393030449582 -0.0024050072983041  0.4156381157734076
  0.7457620367937188 -0.0002864982919406  0.0833323136505595
  0.7454140311383964  0.8330748123475318  0.0819613562855564
  0.7457584039999975  0.5813745632949027  0.6661908425540940
  0.6603242325184727  0.0844452195716865  0.9175274126184120
  0.7451188969121857  0.8307222574804812  0.7475392207316179
  0.7446466403681161 -0.0018679564900848  0.5809036771451557
  0.7446025110802541  0.0827333810858385  0.3315792444204991
  0.6618546555515714 -0.0009688894388437  0.3299542297465160
  0.4964100072618137  0.9167705202897418  0.2475656451902253
  0.8289644109136320  0.0004870167558241  0.0006377318866730
  0.8278598780581956  0.0829325974926145  0.0831280189875002
  0.9115531841461815  0.4152020968228766  0.6664603134378462
  0.8278347140699857 -0.0016310016934613  0.1656263565988653
  0.9112894730786431  0.7471950891695764  0.8306550756396198
  0.7444495107423185  0.1689833161225985  0.7489296001670073
  0.9102923496282248  0.4991571711869101  0.2477851052247900
  0.9121973164578752  0.6635184598272205  0.7496422784626909
  0.6607429704167748  0.1671208449774003  0.3316764249794185
  0.6620971701448712  0.4983694832224502  0.8299636237299611
  0.3286387514527260  0.4992934619129760  0.6645446642021733
  0.9118421491355959  0.8309541088663026  0.2495971587194392
  0.9094795853072909  0.5819863839893682  0.1652216666761700
  0.9114777690431509  0.4967579839664933  0.4143562949127763
  0.8287484966761429  0.4152477864713651  0.7494233919048126
  0.8272174766560432  0.3331094147146302  0.3309357519378867
  0.9120148595313649  0.4148787103206232  0.4995897536357283
  0.9104842779857609  0.4157020419199554  0.1650236495446975
  0.8282156061792112  0.4982331603262971  0.6669455807685412
  0.8282042564241100  0.9168102442729307  0.4150122063074649
  0.8287402015581110  0.4150951301801817  0.5834919203830730
  0.7427186520224416  0.3329557591367756  0.2476615349832069
  0.8280151003154438  0.4135704675278790  0.4161178954971219
  0.7438085291606226  0.4968430840974933  0.4160007063202571
  0.7457420477901836  0.8310870568116605  0.2482831968181777
  0.7466686375996087  0.5804229064696319  0.5003982495773310
  0.7439788879977189  0.1669494680448781  0.0821722705287508
  0.7451954366939353  0.7480683946488644  0.1654247456263831
  0.9123081529774650  0.9165327494718024  0.0016549948245173
 -0.0057095861790749  0.7477577052344724  0.5826626806482753
  0.9106656067324007  0.4154899292162481 -0.0017778624401291
  0.9132443922272984  0.8309436930193783  0.4131247194329021
  0.8273567567996216  0.4152070436805325  0.0814037358765036
  0.7435855247136820  0.2508201539381346  0.1649530167657270
  0.8277832646687429  0.2499045195299572  0.9162966196413384
  0.7421196296441278  0.1673304688241961  0.2497292404035660
 -0.0043992552773107  0.1672985712597648  0.8330463531010288
  0.9138937791279054  0.1680241238252873  0.5807234866438913
  0.9131404059927379  0.0848277640366012  0.8349172929040481
  0.4100728032197533  0.4153019232731398  0.8311404050276332
  0.9109779525871475  0.9159195645862563  0.4992041032866256
  0.0778709715092206  0.0838027817164977 -0.0006031499740879
  0.9118805918328170  0.9136790619051161  0.6640128605890030
  0.0796224862869218  0.3328122855203060  0.7509907773244533
  0.9119354599287436  0.4163219682676152  0.8324590833828026
 -0.0055207250689387  0.8308198489041847  0.3312961411672954
 -0.0053080605991425  0.6651799782531121  0.6660746329928956
 -0.0051012300092441  0.4158725554170942  0.7494402527256981
  0.6616802503401852  0.1668050083942221  0.1653334471743568
  0.9110437752386064  0.7461654706470868  0.5003038807380978
  0.8281791187035786  0.6653323394669635  0.1644955394174144
  0.4113641850157722  0.3309808295597997  0.9134175489307014
  0.9116892459578529  0.4978829049135370  0.7491853274516616
  0.3293536207212010  0.5827316427686731  0.2480503158536891
  0.9121984948943482  0.5814076441357043  0.6662491708790860
  0.4117838195420535  0.5813016919216074  0.8324586999657897
  0.8287389141910655  0.6639769909705333  0.6658902615971097
  0.3291382429014099  0.5002775250042425  0.3322799897418893
  0.9098516134640353  0.5820002164803367  0.5022924315727929
  0.3285562945380465  0.4998207225403564  0.4991096568363720
  0.8281562912054852  0.7470234478011727  0.5829025585789362
  0.1623293752556163  0.6651147682136043  0.3319833227277807
  0.8285601792336197  0.5809240510557678  0.5839588147347639
  0.5776859853811023  0.4978566203436687  0.9142325919590367
  0.8272653066893093  0.7476958912413284  0.9144280614183093
  0.9114409054735200  0.7474996004661738  0.3316252349027021
  0.4129520095678784  0.4977651023762524  0.9143800189957504
  0.7458211175673219  0.9155292743639611  0.6643641737516572
  0.7452693514297251  0.4150752816351194 -0.0017316416701390
  0.6633735691541978 -0.0018322480506510  0.1647798055978016
  0.9097720280263191  0.4965025075747574  0.0818104987195328
  0.7449453118565146  0.4147812426805015  0.5006568195592233
  0.7446515250132746  0.6639881006596172  0.9140279675924061
  0.7442425137654204  0.2505206903386242  0.6664438923268567
 -0.0049454708780423  0.8316370741546657  0.8328275444314138
  0.5772538546330680  0.4157783361421367  0.4996799278048429
  0.8276352991014858  0.6647013711939987 -0.0023102267364913
  0.6615248123751299  0.4954603351451755  0.3313171033824076