Cr N  Ni
 1.0000000000000000
    38.6049019937001603    0.0000000000000000    0.0000000000000000
     0.0000000000000000   38.6049019937001603    0.0000000000000000
     0.0000000000000000    0.0000000000000000   38.6049019937001603
 Cr  N   Ni 
 1596  50 3725
Direct
  0.9763132873099055  0.9351765252813596  0.9079154207893528
  0.6713577159537644  0.0936737019261455  0.2743830600557392
  0.0847682585319779  0.6170366481894833  0.8917266233114793
  0.0179070883696054  0.9808591091677216  0.3362885983900618
  0.0010852938235929  0.5484645188913232  0.7269431272808604
  0.9160527588844047  0.4572570362731998  0.6590676704549270
  0.1619232966734222  0.9001934891720171  0.4238221032321216
  0.8790356405116219  0.4094053913634525  0.6544956542807659
  0.7955135468041792  0.4748689213812646  0.6187095086316000
  0.8685158117330412  0.4222718526757141  0.5929199119838420
  0.3019915733667048  0.7428957142838652  0.7189659207337553
  0.7704198941947263  0.3820894904191392  0.5611861178219170
  0.2615995939674738  0.7502809536508344  0.3166320561854913
  0.3048263880415995  0.6275693660576245  0.2522517705816003
  0.9301203844755473  0.5682540405976336  0.6444981726565209
  0.1987548840853053  0.6289542622129974  0.2160042399744445
  0.8601854818152704  0.4368016142068907  0.5361358759966368
  0.9677983198374402  0.6183563236703952  0.6484787630402836
  0.6395217834290133  0.9560531563137170  0.9012269409065491
  0.1983085538778748  0.8666461970603985  0.6621180743455990
  0.8331762413558478  0.7292554261235890  0.0608524332447168
  0.1934392378639344  0.5575562733871916  0.4620631187402732
  0.5566406544416064  0.9869452629978326  0.7542354094400195
  0.0760868725089227  0.4616557755149948  0.6023876736016524
  0.5115171283421351  0.8182275220105050  0.8292551271596503
  0.6604126931172190  0.8664342033296725  0.8097202437375418
  0.2874624333695530  0.7003325184832677  0.9436314234508548
  0.4509200384364761  0.8242939440678795  0.8104186410899721
  0.3015737300150664  0.8074240993468836  0.9416288320062848
  0.4010123152462380  0.7858863646609832  0.7442601532719009
  0.4997856535819281  0.8300809963908937  0.7685591291453480
  0.7910366843368365  0.8136535793609463  0.2512956876511880
  0.3402982296163286  0.7798718822598666  0.0046506944296712
  0.3059322360559224  0.6782249827323602  0.5165941911206424
  0.3281433581840545  0.9035123202770541  0.9793954150956212
  0.0407393879231267  0.5656032016700735  0.6281491113284718
  0.4657648901472486  0.7185209537648819  0.5481384489591800
  0.3916597014300822  0.7654819558247631  0.5801911664467968
  0.0440825490580158  0.6677308898160585  0.6453868289641164
  0.0511729080163534  0.5529318973796471  0.6888534277846856
  0.0384901186525229  0.5985426979374219  0.7315357932929244
  0.2527392575561115  0.7715767701746192  0.8646504972017433
  0.1694434562894788  0.8359649288090630  0.8256554452877345
  0.8901010333868651  0.6558427263131413  0.4378270476346984
  0.5974875039380978  0.8387061950658363  0.9638116322322048
  0.3786034356882279  0.9078360730483453  0.9362008393814147
  0.1373863555248048  0.1661784488989588  0.7246137971904210
  0.5237725377257165  0.7512713115301100  0.2900015258564938
  0.9616427677221430  0.9691119047300264  0.2667391257320652
  0.7599876138587238  0.9085459293530141  0.8386221004300689
  0.6135473167924725  0.5383897231273287  0.0395697928819471
  0.2306265587533277  0.7956616545375421  0.7421143494071201
  0.9715755746308469  0.8327487932660755  0.0444969350668369
  0.1332567879588883  0.0507740042964500  0.8010109517759975
  0.4726328974770047  0.7341514842155560  0.7217286578089281
  0.9274372992205515  0.9849382624026415  0.9863758563584493
  0.7107611472855014  0.9039187322064116  0.8757628031687840
  0.2387493949956451  0.9456205224829883  0.7691693538800747
  0.0619869263470452  0.2161389824303081  0.5032658287846588
  0.5214246396415999  0.7744538263733757  0.7864390837151249
  0.2592443972103005  0.8899183006174871  0.7888638154620086
  0.9837735246051351  0.5370783328386008  0.0539343285845340
  0.0173815957172803  0.8248381342434697  0.9477800920302712
  0.7635253272915148  0.4265115059100619  0.1810892677654535
  0.6227513583937264  0.6909981226817020  0.1139026807713261
  0.8227339087754910  0.5040429502694485  0.2337913158077271
  0.8998002089779582  0.8929715243571286  0.2131274233624947
  0.8057210704613571  0.3192202688202348  0.0628916987059527
  0.6059735013532409  0.7409060535731611  0.9289637727380816
  0.8408742144597090  0.1819938554523425  0.0664241922943581
  0.7583975852114406  0.0107359074628329  0.4634486533025846
  0.1180087494130852  0.1926803625649624  0.5978568148728842
  0.1133701571043159  0.5101652464183595  0.6072940721243121
  0.5673655153049489  0.6751866231551852  0.0433636383098606
  0.0238902946175678  0.8131842235395154  0.0072415556382595
  0.7935664463347137  0.8430740704264231  0.3590518262370505
  0.7770791988876365  0.0913326389608907  0.3104156348896733
  0.9458882904099732  0.1827481194336951  0.1033571248817840
  0.9054243699787762  0.6392161857697731  0.8252207400741036
  0.9253588203916595  0.9983599511428347  0.1552280321772935
  0.4725168165268196  0.8001591839940587  0.2029366724053419
  0.3115046545960909  0.4560008378181982  0.4681901313858020
  0.8258383402449235  0.0304095089379676  0.9940979756081912
  0.8156425273678334  0.9555197403229618  0.0790191792147008
  0.0640975357978025  0.9885153176633548  0.8782999219811278
  0.7208870189933798  0.5666123090040659  0.1820426963313156
  0.4457308498890024  0.6398986419621477  0.6745588081110130
  0.1487358003407576  0.8909147720402392  0.8074468922869024
  0.9019288751646318  0.2582424902642610  0.1211122675563107
  0.2395073802493331  0.3636872742183355  0.7842654565823539
  0.5385256495996984  0.8501735554285635  0.6632868658762332
  0.7172931487045142  0.5027252604406385  0.1977655109878714
  0.4511620329049657  0.4280870431024418  0.9589506969243047
  0.1650625320090962  0.9085044872919051  0.9785732919073518
  0.4164010703335652  0.6101473447032544  0.8391963578145665
  0.9717536540988940  0.9217383517972028  0.1367015736643220
  0.8843554334744601  0.7061493448868685  0.0335967222515430
  0.3760167750458961  0.7583098066080014  0.9074913671028907
  0.9334172848710394  0.5991580351296442  0.1299302845069566
  0.8374471267187374  0.7375391760640732  0.2316598987546207
  0.0113169148216161  0.0155927355181421  0.7082502625557691
  0.8806066771813263  0.5357192520893623  0.0206691483774914
  0.0688499051042038  0.0515101478112439  0.7778417552771286
  0.9098501644925180  0.9186598977152396  0.5531464554078545
  0.9074387852716491  0.9344512769866383  0.4873918159738722
  0.0508655835890545  0.8048868179032653  0.4604029405031140
  0.1849000829099136  0.9269976431593820  0.5516699083832294
  0.1892578229203195  0.2400197176540421  0.8957760560243488
  0.8052097378476176  0.3350090800482673  0.2300557579480293
  0.8684220386433263  0.4266336372900271  0.2169906549630284
  0.0908338607777746  0.8728625751856143  0.5846907394486218
  0.8647195905733344  0.3806932221774887  0.1751925082679816
  0.0773334593764076  0.2078314798411958  0.8068642346891091
  0.1483811712091087  0.8743655015441610  0.5522148360027291
  0.9179601166441098  0.3975540314275316  0.2449549289937131
  0.8462435644911724  0.2433149743505400  0.2779512923788117
  0.1100772577943196  0.1040692627288632  0.7809246618182272
  0.7243161121553818  0.7844680528069244  0.0084018905656374
  0.1693288533296190  0.9912842674792639  0.5296039650520211
  0.0016046299361729  0.1964084418581801  0.1758374265824604
  0.6048615109083385  0.9526896415201067  0.9976146630255950
  0.9510028902874356  0.2119141488460892  0.2089690894533556
  0.7401220450517272  0.8275631609119034  0.2853746022340222
  0.9560361636807435  0.6767697063734885  0.8921241580274867
  0.9157465983294036  0.8160886738363282  0.9702614936620536
  0.7232830741143725  0.5970830706859921  0.2873570474300619
  0.1490884233736977  0.1558344335485138  0.7872882084889582
  0.0891790708035169  0.9333279584075754  0.8902968035299200
  0.0238984893204944  0.9297066914463156  0.6114252335628144
  0.1092032450773629  0.7787349707150728  0.5938048730782226
  0.1104073410551995  0.8112216941284754  0.6993994406568270
  0.9974647781238288  0.8248885178977957  0.6525004610112126
  0.2960356147634488  0.3887828286844337  0.9130274598826994
  0.2568625665314114  0.3196124167589621  0.9684168439358306
  0.0492112308545569  0.8148066208276001  0.5809369991486620
  0.2485807147671935  0.3522049345713128  0.8448679942338556
  0.2355316226148513  0.2448916971303467  0.8540311880250094
  0.8278394329614939  0.7387644729993667  0.0017670966331190
  0.3801835371936739  0.9377409750356438  0.3057101672763742
  0.1978246655795416  0.1593570734642393  0.7475798848844349
  0.2240714208496791  0.2568754571824978  0.7941185084932026
  0.4773323391748261  0.8288301543299178  0.3109017630485595
  0.1260766942509536  0.2124834615262613  0.7675991324839685
  0.2416123729184008  0.7835902345279875  0.8036293214995043
  0.2917671321552591  0.8205803678698003  0.8709647404053190
  0.3242002987065128  0.7182173516021768  0.8425487977363073
  0.0210663452747560  0.3666428395486123  0.1781945788162716
  0.5357130718084325  0.9097349588848203  0.1359773437323523
  0.9921610389607392  0.7272494768664954  0.8959537233328744
  0.6101874107112574  0.3759765634868134  0.6261166359018476
  0.8728121559388742  0.2892711116425389  0.7286387912965735
  0.8703607994368728  0.3203186624751137  0.8362963463239850
  0.3547968585098208  0.5800582966296023  0.3390205376926013
  0.8115719560074414  0.3297759601578623  0.8157995434881700
  0.3503259429138341  0.5352159232395168  0.2943586940003862
  0.8857754441006001  0.4287018499909578  0.8229504453553388
  0.3567327853149633  0.6133712551412730  0.2155410315901695
  0.7468725132424576  0.3693067919184426  0.9013043887521937
  0.9160183181651967  0.3572214230921706  0.9011504264009799
  0.6719290380773069  0.0889067672582090  0.0378507411989788
  0.6852623230127753  0.2246179205032654  0.8486718824616372
  0.5936937242351999  0.3496416070514567  0.3228270898618487
  0.7630629995538966  0.9397478088606077  0.0072717754967285
 -0.0001300674424718  0.4444239699606446  0.9685790431297917
  0.5532031736798046  0.0880073171808767  0.5449417885155098
  0.9713922002973213  0.7195644743839160  0.6686009798751116
  0.5076573888141905  0.9811056703060544  0.7973632463147409
  0.9453441732829710  0.1667085406614339  0.1669009773587574
  0.7321332428845823  0.7042152937090387  0.3163767544085140
  0.3568680270724978  0.6172688438509597  0.8172267820573521
  0.7924519224783358  0.8075261093822189  0.4853018603133891
  0.0709171740160002  0.7327554094036784  0.5913207848725226
  0.0935443281939145  0.7043804782379568  0.7120592245867393
  0.2429869822188262  0.4556452506672611  0.1078416894759767
  0.7856648270186875  0.4900125037067086  0.5617216786628254
  0.6473529445985136  0.4259412213823328  0.6321365111635254
  0.6952777999986298  0.4322736540546594  0.5948925456821473
  0.7459111403526029  0.4695177093591389  0.6601194274028658
  0.7722089723868065  0.5653216853477071  0.7055759703718842
  0.4843920915528381  0.3684209993787312  0.4623828403028115
  0.7366889191235797  0.1590872935953203  0.5862540185805574
  0.7418041224599972  0.2639565493021038  0.4093851845638937
  0.6091568568490834  0.1248447998430352  0.5431748839690071
  0.6302082705442942  0.3449639716268553  0.5204287838386997
  0.2061322265654044  0.7648651147099528  0.3548144489020438
  0.7365835224300888  0.1952086090111168  0.7012214652116798
  0.4864436633604843  0.3015236374134638  0.2461429353468521
  0.9747115001750599  0.4840835863049452  0.7847684865724819
  0.9314064511595905  0.4659278624707648  0.8849537691748436
  0.0519034382999457  0.4493659743650071  0.9290744688528305
  0.5340726791055901  0.2720637212968896  0.2722152090417828
  0.3969630986502813  0.4573445985424222  0.2763109579054707
  0.6879793414020664  0.1595009881875399  0.6282351700314508
  0.6555741351060169  0.2268769052959170  0.5580472496473451
  0.6635198751742704  0.2137783746330542  0.6193669083018082
  0.7741600521397922  0.2125579497188452  0.5955327988543381
  0.7101887736425203  0.2212648097746992  0.5822276294918816
  0.9439306883678854  0.5228488854642938  0.6029518357799682
  0.3987977690853667  0.4727244661568005  0.2164403816580290
  0.9732630206379044  0.5870585780953849  0.5458828946861013
  0.9556501516199851  0.4781837213549703  0.5587739276284275
  0.7902274266879595  0.2334743225483439  0.4352205609299368
  0.8160878291101403  0.4484236425098332  0.7411925733428540
  0.7856771007134847  0.1857394256852515  0.3917492867204272
  0.7300673922051933  0.3616347797203515  0.6689503725489735
  0.6697396868333950  0.3688661537650272  0.6477033021114936
  0.7800679274913981  0.3675272108804871  0.6278863051417671
  0.6828051011406909  0.3237413156245921  0.6060651871410453
  0.9828697429792275  0.6067700848588663  0.9730901410155048
  0.8582791090290687  0.9633935445545154  0.4609410992164600
  0.9490553884618231  0.5750194866741571  0.8717280433024460
  0.3229301033193021  0.8569447986007256  0.4777690067428317
  0.9000201243087578  0.5374519155098360  0.8055008016848171
  0.2691685744942472  0.8250157995721481  0.4763300108911025
  0.3667829461370665  0.7678409308449549  0.2913001020406971
  0.8737518650375000  0.4735893038954299  0.8668103011598207
  0.5768791585800752  0.1599997738991804  0.6496749769838600
  0.2119306686743047  0.8323748994696952  0.3385411001968676
  0.6380188782048283  0.1543974976709099  0.6712022936051453
  0.6255775848226716  0.1647360239853896  0.6096531566763542
  0.1547439395891517  0.7352662140717956  0.3418032603523126
  0.1434043642593445  0.5680719699792687  0.1006770573675336
  0.4514188024024835  0.3152413122967447  0.0462874695195286
  0.6942265883035118  0.3403128030198914  0.4270485033950638
  0.8636577152001191  0.5174997397269570  0.9112618170933664
  0.9189049464261909  0.5100122526110966  0.9268373185562647
  0.9725251989076020  0.6890988067726103  0.5630718838826652
  0.2331347372084727  0.9750412504335465  0.5484121461581931
  0.2664626925726744  0.7841824216236366  0.4258761266262004
  0.7861290798377257  0.6361110028949279  0.4639767111730699
  0.8435332940583351  0.5121608551613058  0.6835309977665783
  0.9280265027862149  0.6006044395998819  0.7483767338374562
  0.9058235082895436  0.8732022851416495  0.5031002034242844
  0.8424992878922121  0.5448291092632370  0.7869271139213143
  0.8985365011550752  0.2297535406336740  0.4700941176597030
  0.7507060455442212  0.3369658137666803  0.7942844740462348
  0.7026594122410807  0.2985219310930663  0.7294914825576702
  0.6423809337303601  0.3067626771996733  0.7068309997467391
  0.8758744037731907  0.1829483231738093  0.5053707696189464
  0.5886513692668457  0.3074761076143990  0.5174766721557629
  0.8699045468015734  0.1211099136209967  0.5275380652021581
  0.6454235386919965  0.2730530337938713  0.6010194159356742
  0.5447145898046868  0.2333620808259414  0.5745909087329497
  0.5567551197085941  0.4529702651214631  0.4404420084810001
  0.9224544642082517  0.6104036966599172  0.9522070052489757
  0.6647746496756313  0.4526981143391203  0.4769207503734795
  0.2669074705451954  0.8451006700343993  0.4124949362690478
  0.4632020353795619  0.6256357829761182  0.4177219258175059
  0.5114246593489091  0.5498107888340518  0.3989394077397194
  0.3085215030182140  0.6584529125741347  0.3580128985965151
  0.5926859177773282  0.3817182879667360  0.4299553960779880
  0.7124592763467005  0.0063030948416833  0.8996516334138498
  0.4047219052164235  0.5306569494840994  0.4289511104079990
  0.4560961325668099  0.5339008895548210  0.3298076259564054
  0.6751309472261369  0.1149362959021246  0.9183336659978697
  0.6969619182628528  0.0608674076566980  0.8816839851259757
  0.6217132072677001  0.0800422173466648  0.7946045824431313
  0.5620757762570840  0.5347623033238993  0.3643888633692650
  0.5699128851114343  0.0420920594578927  0.7291524250639494
  0.7897216698035792  0.2510566371873051  0.9285856324652547
  0.6048706979262324  0.4413506237623243  0.4071914827279023
  0.7394673744376355  0.6145538353058185  0.7200014511244228
  0.7471688310621993  0.2151387173363916  0.8732198911345145
  0.7576850059414700  0.1401543111892685  0.7174286648179830
  0.7210787477317979  0.1229102650162149  0.8200341805739261
  0.6493875060969492  0.1426314582783151  0.7349928613113128
  0.6963058923697625  0.1463611563765120  0.6941153956484657
  0.7317991414618366  0.1351125267593857  0.2184159054760648
  0.6086501748387423  0.0563413291059086  0.6270827525717793
  0.4769048368682312  0.0204988211562303  0.6012159508541904
  0.4355282563507625  0.9600999466423750  0.5472240183951145
  0.8260496028891676  0.6718360954367457  0.6807147865524436
  0.5104967335476623  0.5347756519182759  0.4589254534836752
  0.3617701059482310  0.6726985666760977  0.4280714163465774
  0.8094384456981681  0.0883416856887848  0.5723352381247139
  0.6356300494241325  0.2628024350555533  0.3729379329817121
  0.9227433088907318  0.7151010879481821  0.7080564501992044
  0.6807787024003887  0.1868113802789755  0.3586952558414324
  0.8647157482723339  0.6903427020732306  0.5803517463281801
  0.8556318096769782  0.6212772132761644  0.6664070311040360
  0.8177979673034830  0.0515636332706859  0.4062536904785385
  0.7180408188639732  0.0986495653301431  0.4111941529051705
  0.0453430186120746  0.7395245845628106  0.0790836944030279
  0.9683200454646382  0.2123493069295571  0.8248796349477228
  0.0279108933983390  0.1704045564756302  0.7406383271633147
  0.8798092443979771  0.1247613334291993  0.7589520229945140
  0.9167000948505613  0.1425081426941763  0.6564067212733049
  0.7882449043281561  0.0378077585141338  0.6909318994345681
  0.2418239284261965  0.5375106605660476  0.9763733540896352
  0.7041809612413509  0.0122604010170674  0.5600261563112406
  0.1438668632779965  0.3978134626081703  0.0299231341866764
  0.2483285892123472  0.3614024844556700  0.0133042686897249
  0.9451685558107650  0.2368714662312348  0.7045881218153827
  0.6178298264906142  0.1931995741239618  0.4497627751906320
  0.7648446872337462  0.1206215384710319  0.4828840047815227
  0.9059843437541392  0.1535347473975482  0.5938100579625750
  0.1927412053779042  0.4884570372275452  0.0759213200921653
  0.4803639978608535  0.6607472355142887  0.5134398902372911
  0.7686749212666862  0.0317205934391751  0.3328119324062077
  0.9109852164825848  0.0567552526415288  0.8416631863202350
  0.4340039196843403  0.0526909147975163  0.9614436378551048
  0.0219852356317183  0.8617188371787382  0.0560772634469104
  0.7825811607227150  0.1669570637726384  0.5397505596997747
  0.4744829698669674  0.1946836941201240  0.2216300061005952
  0.9136131010309121  0.4921622569790084  0.7634916277365305
  0.5108351700116220  0.0430507674137924  0.0510522972445477
  0.4654395476847289  0.1205631644729818  0.0690395102414031
  0.6984569899297425  0.2021626750987756  0.5252876842762501
  0.0064303561889982  0.4134459366934692  0.8646390564208476
  0.9589488778649793  0.3752716456047132  0.7989017312184926
  0.9389131786265774  0.4010798200698305  0.6744865355098411
  0.0211932334454278  0.3355697293547537  0.7141299499738931
  0.9098843747200996  0.3377834789454886  0.7321285226333724
  0.5608992379180296  0.0120248287791774  0.0777435166323959
  0.8239344323872356  0.2514243244175262  0.6638575167765468
  0.8623489732413714  0.3011091043052847  0.6676263268775334
  0.8529804135118485  0.3145865801608564  0.6068160867661313
  0.0578350044307643  0.8755420756927491  0.2125396533790727
  0.8405762692624796  0.1604466781431417  0.5706042339119206
  0.7544328995312068  0.2376958097996533  0.5321703233500642
  0.9865258098086136  0.4390623758687771  0.7412397166276929
  0.4147003480051551  0.1122810348261110 -0.0006934591015459
  0.9916960007068699  0.6931916968776564  0.1280233647837558
  0.9513308047013459  0.3562180317643365  0.6294448977885801
  0.4852860528964603  0.7550678227402321  0.8881813934289108
  0.1493777667952296  0.6768175093669251  0.1262245215614095
  0.9598429516807123  0.3143176237244715  0.5222279931521147
  0.8477219854875665  0.3297958184837930  0.5441533044577019
  0.7949779599182065  0.2925141254566115  0.4180221069847325
  0.5710499285394447  0.1039206435847645  0.1683838525087123
  0.5174625542714512  0.8545070689258101  0.9359196329351223
  0.6016831955225824  0.9929201499653371  0.3569147859760531
  0.4345384452408403  0.9320320611631221  0.0077466940341449
  0.4958274638486691  0.9357574954647033  0.0242772724493425
  0.7870801690515838  0.7189283474652273  0.3887799943604353
  0.7419630062849751  0.7823259059108761  0.4690787757984916
  0.7866913220966565  0.7817282994253139  0.1430123982944036
  0.3385571875394021  0.0060811371613273  0.0020482264993284
  0.8044833518900650  0.9329188818317794  0.4504604084989741
  0.3340295249615907  0.8920247748377499  0.0426050342351957
  0.3588230965276358  0.9639451021557257  0.9197684761576358
  0.3696875978257814  0.9197811079379677  0.8755971363905938
  0.9168787279330772  0.3646986220397909  0.1396180693548587
  0.3090236902295063  0.9278504090291024  0.8545322088056156
  0.1353988074117458  0.4524033043014574  0.6217797906020596
  0.6197219108171613  0.6603158957159093  0.0076376025100837
  0.5195517062867295  0.7566075346707102  0.0617009031299123
  0.4166166329460902  0.1582684722995768  0.0430859683811524
  0.4716561562551383  0.8364406040138099  0.0800748595887941
  0.9177760003129306  0.1745643596118276  0.7624247190990366
  0.8459169879225651  0.1943548468379783  0.6796472834304806
  0.6231290837390600  0.1039167737961223  0.0719158976758652
  0.7792197165749654  0.0830574229873907  0.7347689616768324
  0.4938122274274745  0.3355340739134835  0.1221588399924694
  0.9958454643989313  0.6560397866882942  0.4791719477238149
  0.5934289515916636  0.3183219424812835  0.2181285179483339
  0.7757491396946508  0.0588936896629519  0.9633193498256352
  0.7592854508418024  0.0590147665057700  0.9030361821166623
  0.8136942216906958  0.0977649550921122  0.9125602184188690
  0.9811954838443131  0.3184854083242384  0.8153688662077062
  0.4291975718511375  0.2429774166127957  0.1368550541721629
  0.8769040152654302  0.4411126070116309  0.7610846162193859
  0.8774490160089435  0.5455549152540623  0.5235996593775992
  0.2433637991897129  0.4680719707835559  0.0495499846714940
  0.8728059216841978  0.9593537197193607  0.9800281337309742
  0.8239529514571513  0.0410089197203549  0.9301921574430349
  0.9894151412569852  0.1424708279252383  0.9645502617460651
  0.8805175353599854  0.1590667467486891  0.8633812215352001
  0.9993797561402249  0.1458626563482256  0.9031136282868097
  0.3708073133133880  0.2385439216234254  0.0629808888795336
  0.0723875910639076  0.0918354867410302  0.8841532309792159
  0.4701451867572248  0.1380088612299772  0.0115298776663624
  0.2446856332186051  0.4836939717266212  0.7102701421224259
  0.2896634443867246  0.9516981325596148  0.7287129691113783
  0.2196227506403347  0.8091024423308156  0.6801030404073516
  0.2963013406682901  0.6239964226196871  0.7950274168588067
  0.4425640031176738  0.8920927635145397  0.0687479477316055
  0.2802330891323593  0.5676769388883912  0.8189161174522167
  0.4481322492821870  0.9552537491010992  0.0583888876235884
  0.0777165348849256  0.6950869976537936  0.5454121126155069
  0.0179726092175511  0.7417253414541227  0.5667405508000071
  0.7992716110074752  0.7403448127115503  0.5038049139553056
  0.4400259113346663  0.8582945834422631  0.0155292413955371
  0.3293326070634583  0.8713024017941484  0.8738748395755971
  0.1499135071520654  0.5278138274847340  0.5061550514048350
  0.7466072263895166  0.8889032326224975  0.5047443369667663
  0.1872572177780360  0.6136997956060311  0.6103500406244281
  0.3746104874176618  0.6614031566565018  0.5906258896056086
  0.9821179668013270  0.4851731004865246  0.4618382514025127
  0.2590011823657374  0.5925147701838068  0.6952595939664102
  0.7825330129535213  0.7216187886604388  0.1583730433577798
  0.0654088580110133  0.6413920389748758  0.7685891529776164
  0.9385104610385977  0.6402441859848668  0.4034535332488668
  0.3337081859303310  0.6743294704017812  0.7984229939895210
  0.2860778051512911  0.6678705663281801  0.8391747371749819
  0.8328509869250195  0.6403102001692639  0.3676999000941002
  0.8830734600237242  0.6462780130905396  0.0434301993505698
  0.1097712135836541  0.5779449207321598  0.8137675187578378
  0.2488582422103344  0.9028232988333861  0.7266336760524370
  0.8960421473968069  0.8138167240658806  0.2884265093766145
  0.9379320225570422  0.0883029831113508  0.2454736925069838
  0.3203127518324101  0.8291701831813904  0.3746541647522455
  0.4172999326315837  0.7894115011825863  0.1318354571494988
  0.1093307713902366  0.8774696492361034  0.9095193430793214
  0.3670737718043529  0.8211947605892359  0.1083762330741418
  0.9473750193437382  0.8335907354775143  0.1320280399595962
  0.8463186610264929  0.2273881474735251  0.1112173741549711
  0.3485999398020698  0.4884087373925503  0.0225102170085961
  0.9897010770129036  0.6461272538779174  0.0790357697962345
  0.8869102070460556  0.6948038279850758  0.0896589218535690
  0.0257319154380202  0.9226795775531260  0.0420404712886178
  0.0596240813844261  0.8379554747664301  0.8446349896316440
  0.2956151111618351  0.9998472359104191  0.1687217762051680
  0.8922973118293158  0.8036846038105253  0.1208560113188108
  0.8649554643461902  0.8942203234625143  0.9897542032924475
  0.9444471518352836  0.7528400887881322  0.2054225307569765
  0.3526366844029423  0.5151173979263568  0.7974935891503607
  0.4623070989784318  0.5126199142155076  0.7791609012145388
  0.2327844798111367  0.9565220194383020  0.9902103062265415
  0.3248749085617162  0.4520791327602111  0.8551325153808443
  0.8846641161614207  0.1246469336353484  0.9870489956580611
  0.1765256622541482  0.9744545137472393  0.3919645170979842
  0.2204756345688307  0.9274148227571080  0.4352075690650029
  0.1997935606059760  0.9292500673584453  0.8718483894372770
  0.8896991381712775  0.1525282594159330  0.0940185881311818
  0.8902255999536899  0.7606666528617956  0.0777397413828167
  0.8504306073303866  0.9073954910942029  0.2450036455311602
  0.2531407496193357  0.7085051389331681  0.0431767232308490
  0.0617328526985186  0.7114028732475283  0.9775507193665881
  0.1085177206565912  0.3675779489876323  0.5143827025287701
  0.4253221048795922  0.4629974318184213  0.7743322841298053
  0.5198472515554451  0.7404311932522805  0.1215221637550175
  0.7671920504539764  0.9865958691678750  0.0491486737551635
  0.7775252388664774  0.1229803740578852  0.9457942993212790
  0.9959645153716692  0.1678029627880897  0.0701394651343036
  0.1723754212180535  0.3499019585542691  0.5970079932513608
  0.3482704366832363  0.6200203659367883  0.5542479568932051
  0.3377282388344975  0.9517227386787988  0.0265447865680008
  0.8645104724636300  0.9221914123035803  0.1010728462514698
  0.3114216184801368  0.3121321484391411  0.7604970678153264
  0.2497851958994842  0.9695803743994361  0.9375501381709961
  0.3342977932394296  0.8772290656404819  0.1029617237633557
  0.8365564789939516  0.7710721489009232  0.1091596795637642
  0.2708058743897194  0.8768511051694982  0.8520449731771473
  0.0458889754010865  0.1205313009587972  0.1580413136901451
  0.3929484537504093  0.5012825372737969  0.5908581779786612
  0.1062278271457080  0.0698073105234625  0.6733627472184669
  0.6090744714550945  0.3104851915551615  0.9791852331913806
  0.6632518169114422  0.4408751631095313  0.0847408452109680
  0.4396112991481083  0.5889791216115644  0.9665360470931131
  0.8227892361229717  0.4874301501616358  0.0691016472906025
  0.8256048800124318  0.5026803377026925  0.0111295431619556
  0.8768097053624406  0.5189435453959880  0.0779643579297608
  0.1516545535170868  0.3093522669814509  0.8193170749440346
  0.7788239012803010  0.6406564618478340  0.0060356586268259
  0.9682781001346819  0.3506410059256106  0.1089461605145887
  0.3949584427725441  0.9176222273195971  0.6011775526160156
  0.9677529317227063  0.1486205932840617  0.6186868152153751
  0.9100878355460043  0.3189737872110037  0.0988961672964337
  0.9042623854478975  0.2748605104738627  0.0596223956130836
  0.6293111860071896  0.8167001099255699  0.0815324463490324
  0.6787934328248916  0.7997329397724844  0.0450781820132547
  0.9389314456877673  0.1538521340044798  0.9976080447528310
  0.0327398187178603  0.3405597039118905  0.9401955772848937
  0.7091598898943300  0.7895690747562615  0.9491849020803016
  0.4095304139462599  0.0587231631804354  0.1839303775070593
  0.1403295216698130  0.5059028568294195  0.8925687864704984
  0.1074213652286837  0.4448080265678540  0.9464342315580299
  0.1028356113341772  0.4570591470022946  0.8875309034633649
  0.8288245688982181  0.6000676390517677  0.0962741267390193
  0.1446559518999644  0.0394525002332623  0.8655326006866294
  0.1381702820025095  0.3530991326289426  0.8628704024655771
  0.4767690845847645  0.6029782587785786  0.8614384587964969
  0.2231390737191843  0.2909908213720825  0.8964354445904770
  0.2143691357040015  0.4542612972426007  0.8733787332836758
  0.1843471173078153  0.3917109502462325  0.9304609110191382
  0.0272404178939032  0.9514800739718452  0.1464292913048388
  0.0450520472759041  0.3255127408444641  0.4953610211871768
  0.5771470235906266  0.6129993486176032  0.7799737838476910
  0.7906980637919513  0.7939391303717863  0.0745555303618685
  0.4950519920019682  0.6783891991348323  0.7399700778826731
  0.9110788982712781  0.8446566911938025  0.0803621887908860
  0.1413503414929511  0.7732473098862174  0.8848328522838907
  0.0295892891604389  0.9095144332000952  0.6729686997515069
  0.3804058103550595  0.5773217072505682  0.7386222114702572
  0.1237598716218263  0.3115363172063103  0.5300418146788701
  0.2413684936565468  0.3305607423925114  0.6777118356674131