Cr N  Ni
 1.0000000000000000
    21.1223449635788789    0.0000000000000000    0.0000000000000000
     0.0000000000000000   21.1223449635788789    0.0000000000000000
     0.0000000000000000    0.0000000000000000   21.1223449635788789
 Cr  N   Ni 
 259  35 605
Direct
  0.7502389502053525  0.9293283380198055  0.6657728453518411
  0.8319416242270015  0.6644288206686767  0.0124283624557714
  0.8324159329470061  0.5709119041022581  0.9182444075081211
  0.7491455873253543  0.6638187368173716  0.4155458539989893
  0.0021532839475403  0.7476299931105276  0.2519885262850866
  0.6607462915976232  0.6558515718744741  0.6654892503122454
  0.9177554204109363  0.5059776534988476  0.2509547667072960
  0.8327826965717495  0.6573037849371376  0.1648426460207559
  0.9170541795570237  0.0022863915623296  0.5803762984117163
  0.0858126272249052  0.2502759917636255  0.4997066147326207
  0.0882982420845710  0.3327431953662277  0.2493959813566067
  0.0031697372065023  0.0831063363348236  0.0886481746017810
  0.1688347777478751  0.9183528971059587  0.0838919635948696
  0.0909286089495477  0.0831675924665947  0.0006130883122544
  0.9199910942136208  0.5904515549830263  0.4988126443396332
  0.0033787335317201  0.0852783608406119  0.4156739525632054
  0.7469749414735087  0.1662656053154358  0.0839156724900436
  0.0862791474974315  0.5021943786763085  0.0823979809685086
  0.8321889528293025  0.7493024490775311  0.0791422302281203
  0.0026287255520326  0.0002289438774678  0.4936303247088096
  0.0068459033726148  0.9110004012624633  0.5800999345188579
  0.7487310446862063  0.0054508692780956  0.5781486197499934
  0.9198151289034933  0.0849053800481173  0.6663698055685204
  0.0066428208646669  0.0040836296696088  0.6696193116982107
  0.9248120309759860  0.2509516890085372  0.0041235758657085
  0.9193876470373545  0.1652753514377285  0.2507469347871039
  0.0118372170379605  0.2523664820520346  0.9156093555784738
  0.0874062662047186  0.1687276493073556  0.5824659179919781
  0.1699434285346330  0.1697758754878270  0.6648099763387090
 -0.0020467982318519  0.7476254634366614  0.0840654125742690
  0.4138944027840790  0.6680686978430479  0.2441723913417086
  0.0848416837250584  0.3354105367690410  0.9152259060223642
  0.2498997857346249  0.9174716574842732  0.4989225704948721
  0.0050262134838605  0.0842457990598663  0.9113136812180522
  0.1697059192576755  0.1696170871410243  0.8330326207291537
  0.1676323689122444  0.1663454736896406  0.1669055685859446
  0.3256488725088327  0.6661712836059892  0.3338993871440499
  0.5023476720156559  0.6665351316363091  0.3324793890534902
  0.4130931731889100  0.7507890087832206  0.4991863205902827
  0.4929001340894976  0.5818953931657129  0.5833815673978827
  0.4972579470893339  0.8352233078728435  0.1659997535822388
  0.3310868826038630  0.8352439703403183  0.1660047996223698
  0.1694976159748647  0.6636432100416739  0.1690902396786685
  0.4109328818706597  0.9148438512920718  0.0018902789774329
  0.2493632719388226  0.5835640526034064  0.8330212393423926
  0.5804810877242008  0.6667380046585478  0.0837968737126506
  0.7462272601956550  0.2487465360378557  0.6740079927886047
  0.9209554814037364  0.4168269943967533  0.3332655706023050
  0.2493559994432152 -0.0002451747009218  0.0836748736279743
  0.8360021234211470  0.7454009210475854  0.7481666422149890
  0.0045497931886010  0.5798747142791598  0.0831832783083545
  0.9207350064433750  0.0120749301780101  0.7480306810760851
  0.0882354645540633  0.5008447040041694  0.4171166458127775
  0.0872388102065444  0.4983289239775833  0.5851266235992103
  0.0870600203236523  0.7484077481329880  0.1730453498720020
  0.7409576880587129  0.7480048982592064  0.1662512009643692
  0.1659127570499818  0.3325185123345230  0.3325076003738551
  0.9186711908002095  0.6577418921641589  0.5829016797787154
  0.7464609736638885  0.5849865629946287  0.1652685493200695
  0.8330271233401750  0.6649752610898462  0.3315848177590568
  0.0881208611796876  0.6662559778534840  0.5835856867572686
  0.8333390562322631  0.7485324102100791  0.2580788306165946
  0.7495908371117547  0.0023005874759295  0.7502280245271793
  0.7491159261549510  0.0011352480125929  0.9179206526684142
  0.7471446731668188  0.5826773150971579  0.5010509941779110
  0.8322364202810436  0.4284270774690344  0.9163523576748924
  0.7514264856386987  0.2446323063059976  0.3338855774366732
  0.7474208462153253  0.4166482720167021  0.5079245004957879
  0.0849357077439158  0.2519187184754743  0.0019940829078133
  0.7447079905415971  0.8353411555524041  0.7525741580896380
  0.7503151075974461  0.7477654752780432  0.6617739875488160
  0.9199761368516620  0.8319196586406478  0.9284612763921180
  0.6631777850372245  0.7450746426189837  0.5755918403826237
  0.8372526313972900  0.2480234668081327  0.5848193610878052
  0.7453816552361227  0.5002804997269588  0.7487394239484318
  0.8323708209966669  0.2487500517636253  0.7479486464080046
  0.9210049315674373  0.3286963246774841  0.2500694836479676
  0.0862945290528783  0.7490602009442918 -0.0047568836086325
  0.0034083973113519  0.2521667145927842  0.0845436800917383
  0.8337436938786992  0.4993773918675545  0.0000789808080106
  0.9242336719251072  0.3413897144363512  0.9146728250893652
  0.8304961731682973  0.8334456743287676  0.8456155356597531
  0.9206341471792386  0.4197625089774381  0.1593652838947966
  0.8394196153091101  0.0818091130208892  0.0858450865041017
  0.5773850238844349  0.0001947707074237  0.7433441439475034
  0.9188613634356284  0.4146666515991480  0.5087827143451166
  0.9137599856003349  0.0830355468398057 -0.0005615105574811
  0.0864774266506040  0.5001454982766255  0.2500254035252834
  0.0878254000877842  0.6678807590303439  0.4151827044421885
  0.8331818917397734  0.5731100045403892  0.7473917575265229
  0.9172819825591402  0.9239617334084073  0.6613855535158351
  0.7481029041935804  0.0016101875386126  0.4144363798356903
  0.9186060544549944  0.7478004112566414  0.4890855805369891
  0.8326903334155503  0.9184067577102579  0.4140293255222476
  0.6614817558086401  0.0801920804785625  0.5831654182281334
  0.9184884032573235  0.5029095720476837  0.4134014979639817
  0.0049171733072135  0.4999229072486183  0.6660808970614673
  0.8314543460555963  0.2497624858757657  0.9088329141812360
  0.9214944882063025  0.7449880742000069  0.6678787693742115
  0.5726801462993697  0.3314491631429803  0.0816721674263343
  0.9261007944737376  0.8309869500391117  0.7520799178046768
  0.8295751459675380  0.9260895045255606  0.7504046484948296
  0.0855624679531369  0.1651422518910557  0.4168370894871334
  0.6608742078858246  0.2500880083895886  0.7493209334939125
  0.8331683053847575  0.8347540949057909  0.6642475928913188
  0.5766820171950324  0.0003584686565736  0.5835757185833541
  0.0020452238749871  0.9169111003681932  0.0853323657858979
  0.6631969992761368  0.8369544666227169  0.4887228116568271
  0.8341664086255832  0.9158764640353627  0.0789680298998294
  0.7429221738698404  0.9144872211964737  0.1689126982142856
  0.8361478479402061  0.0083910787858802  0.1709187247363812
  0.6596533701577394  0.5004584997768996 -0.0008777651276233
  0.8346210823535528  0.8319535234974080  0.1678509880011375
  0.9171401293648942  0.8359802902633173  0.5736073239208429
  0.7477519050241979  0.8334806208768931  0.9190690926727769
  0.8323516543875514  0.9161155817940149  0.2574994754603452
  0.7458887793604231  0.6564445311684390  0.7509384280078309
  0.6545908956539251  0.8366648906636001  0.6667359735066437
  0.6628077029941416  0.7496919531078697  0.0834343834043983
  0.5779949978800967  0.5832502047088237  0.8344676318376189
  0.6620047021120411  0.6630772822834418  0.5033949587630059
  0.5788677371212615  0.4180239958565949  0.8321198522090580
  0.9196317466416687  0.9208716171762903  0.8415464207376699
  0.4143592306661866  0.2502602410877699  0.6662707175536786
  0.0847353136900400 -0.0005142473558176  0.2518187446583596
  0.7438404966829315  0.6632411310496301  0.0825855369151017
  0.8320210441875899  0.3364765310015272  0.8210196916038783
  0.7424975097686898  0.6624614571394165  0.9202925391027232
  0.4145427548380285  0.6672676222087124  0.4218095421204105
  0.5780923705022363  0.0816920079214772  0.1710388521080377
  0.4948432544024805  0.4993164305425960 -0.0000004183697916
  0.1689753667456895  0.4167558674189271  0.7492683957897740
  0.4948932962929238  0.4989782442104144  0.3333490463421033
  0.7440927737766033  0.2511561484923716 -0.0051643898186690
  0.6592862116265689  0.2461851211731425  0.0846804615354229
  0.4124997765813150  0.3323943200554765  0.2521906406704724
  0.6630712818577997  0.1558948535154421  0.3334889175569163
  0.5757151395577189  0.2468284509108530  0.1672838253462889
  0.2506713340891339  0.2505156366695470  0.4995039022898561
  0.7513001269073661  0.3420196477924360  0.0846559051286132
  0.0114872445198334  0.9199922990201984  0.7479682043340132
  0.6600225447929271  0.3349948516722824  0.3400545109756229
  0.2491735388537808  0.2505666933374961  0.6653210179957234
  0.1696294918699895  0.0009976080748414  0.6671445060134394
  0.7497013915956151  0.2469856951587858  0.1761720730757896
  0.7477710645587679  0.4230638905446969  0.3301583695357586
  0.7507036648747711  0.8336080710947800  0.5729171017469334
  0.5786627707764904 -0.0028145212490190  0.9227162628947112
  0.1659496975024996  0.3342064110749852  0.1680600363137614
  0.6553542128635503  0.4176581673670625  0.4166614495642263
  0.7474250177225458  0.2463472813847833  0.4954339259150388
  0.2489998003405122  0.0830377744783022  0.3314533632013542
  0.9183382061982994  0.3255181191741835  0.4182990314566229
  0.3308358320759845  0.8357729706820141  0.3331360770208376
  0.6631501397684357  0.3321712663210715 -0.0089538481244960
  0.3303077089854353  0.3325933212177509 -0.0012684375495007
  0.7460985426620662  0.5819879683749739  0.6652959724303190
  0.4141928342998614  0.2489176741548635  0.3342247814898750
  0.4940603831517479  0.1640332975637201  0.5009535687067884
  0.7498361651094488  0.0793821368577243  0.1724002691476786
  0.7483364999761650  0.0809142605665624  0.4983850669203564
  0.2493539748501798 -0.0001154715841892  0.9165646135181483
  0.5704647959063138  0.8365273525523765  0.5824621543777428
  0.7518460069522028  0.3335096508299573  0.2430473394086407
  0.5711313967768817  0.6660296069142847  0.4166049987707523
  0.2516753608618842  0.4975750967080193  0.4168390147829988
  0.6610485988743179  0.6667868305227450  0.0009795109022385
  0.5772949294823614  0.8339375095724023  0.9179811051411692
  0.4966923767499521  0.6672969621810582  0.1654408869319593
  0.6633359269699602  0.9146632926060043  0.0837356499519356
  0.6616905070854868  0.6649749370454783  0.3270452448199387
  0.0891284224889924  0.8334052315779584  0.5814984751002553
  0.5774614343153343  0.0009891767735828  0.4148880031786182
  0.2501331180800613  0.2526069204406061  0.0010421282856762
  0.4963996858887686  0.8368572087596937  0.3327338698146070
  0.4108551044870544  0.0823315712028525  0.6654767463717509
  0.6629745280588567  0.8355796365052520  0.3339307739052391
  0.6567343511967323  0.7475696001684549  0.7541340975973856
  0.4121093322630818  0.7493992790395378  0.8332406823632719
  0.5794129460907963  0.9080169423927364  0.8350404793282586
  0.5794173412996090  0.0826337707063594 -0.0080083784965346
  0.4055669950465257  0.0828694395775256  0.8330072090222732
  0.5701667225283955  0.2479530523451341  0.3354956704076100
  0.6636096161189703  0.0820896753577626  0.0817618663867987
  0.4966372267745137  0.6686751863091562 -0.0002659019571249
  0.3322940033730388  0.3320117620162262  0.3315992081215264
  0.6618709984829185  0.2492404535875446  0.4262628102549060
  0.1671718923557526  0.4164518053924428  0.9161931142971068
  0.5818211665604428  0.0848907338290719  0.8351594120052463
  0.4936589600746529  0.0841626579326617  0.9246383439505490
  0.8334956910736531  0.3424807391238083  0.0022682789506360
  0.3320526030995883  0.4992678559167676  0.1653575127380513
  0.6596505680461727  0.3361106188826535  0.1652982134772331
  0.6629727499104781  0.4269942967858873  0.2505227138088307
  0.4094277720752064  0.2519724591094857 -0.0000270075256882
  0.3323564712396098  0.7498985406973422  0.0827042747042508
  0.5818375932784534  0.2506983857612616  0.8302191798702793
  0.4932390463840007  0.7497873086998829  0.7521970531315113
  0.0849028154244465  0.5810533318660246 -0.0006780950013345
  0.8405737860835344  0.2490721435262237  0.0885955628989617
  0.0028284462055047  0.9170649610467572  0.4151833937920617
  0.1680937419796615  0.8311824341072268  0.8346200171167034
  0.3318476282256782  0.3323314640095750  0.5007157099957955
  0.2502989865232867 -0.0004727564378161  0.7505468619966948
  0.3304876105647809  0.5829116486419825  0.5830978893573447
  0.4927051661882286  0.6642471658576067  0.6664591271574748
  0.5771399277502434  0.4181590336995402  0.6662817886621182
  0.4120664086225582  0.2517422540074546  0.8328010916541074
  0.4134154955071770  0.5838393072837866  0.8341846926935004
  0.3306454224330729  0.1669279469427501  0.4999703736853421
  0.4121358301132852  0.0819962057761353  0.3331011270131867
  0.9225115243314470  0.6621882246069726  0.9177173301375684
  0.3294042688342617  0.9162956891533506  0.7488397585085367
  0.5792287657721854  0.9137832925945005 -0.0003421825747010
  0.5785839601779369 -0.0005349016951433  0.2486607028776786
  0.3306113758849911 -0.0006351547527674  0.4989178577523076
  0.4138332483753670  0.0831003791093531  0.4998108780073542
  0.2508583349338643  0.5824042819585160  0.6656078179795726
  0.9196673244742168  0.1652440318682724  0.4182645035742127
  0.0854072946774224  0.3327008856495771  0.5836538898608979
  0.3314433984549172  0.9181117613373467  0.4165259133079028
  0.0850212760507425  0.0849383624809664  0.3343074099030724
  0.3289595226093776 -0.0019848090472798  0.6665662663562535
  0.4133039404434076  0.4170815011911660  0.1659883086763493
  0.2496907779678622  0.7508491697456968  0.4987683806567275
  0.5759718872707547  0.4177390059994331  0.5018944513166961
  0.0039126800338399  0.2499283267549313  0.7474688134129523
  0.3309732050259193  0.8301389439928315  0.8345108641925288
  0.2513739184386418  0.4994819379442604  0.0818699519894215
  0.6573690804129798  0.2477502741678518  0.5842192671610617
  0.1684306537560167  0.7488559358515342  0.4159415377133829
  0.2490934528544291  0.0002879587371451  0.2504814204677284
  0.2461865518891779  0.2498677947608023  0.8324309075055037
  0.4120174089564415  0.4175619705848479  0.8323757699855429
  0.6611474340276535  0.2485211131534153  0.2448962676891559
  0.5810819120097066  0.2489842399249209  0.6664362242189441
  0.7481331558480184  0.3285900386290414  0.4239979337943777
  0.3315640082295623  0.1657512213875919  0.1672600190313357
  0.1732609263856251  0.7488459872651548  0.0848323483471240
  0.4958575894756080  0.3337787487501065  0.5026090067053138
  0.5782730050539734  0.1744024058724495  0.0819908186546937
  0.5788666192428098  0.2500259796721240 -0.0016589017493910
  0.5743097389907615  0.5005862980532563  0.0823593963648976
  0.1678495724696762  0.7499958977233029  0.2506040820437599
  0.2510320838251782  0.1674722370713442  0.5830021841488160
  0.4872825345881011  0.0830517616374315  0.0815199531751959
  0.7460557491325671  0.3397656324817773  0.5852427154629394
  0.1702356452899976  0.0006695903127073  0.8352637377912645
  0.4931801216754401  0.4990505718755980  0.1643214032236520
  0.3299109376030548  0.4992813618806517  0.3345831958210712
  0.0860100921819474  0.5816451800663182  0.8329126754056155
  0.3313210599509324  0.4990957250817706 -0.0002723054930052
  0.4906673274434109 -0.0042195560156225  0.8344117886375141
  0.4131945368235237  0.5005669928031647  0.7506565968968261
  0.8331730936159272  0.4189622126561896  0.7474945524983030
  0.2505708783540015  0.5831415304021188  0.1678109479710310
  0.2510298834918661  0.6673859984928227  0.2475894107486224
  0.9245763569855373  0.9155828926223198  0.1687997712878917
  0.5767367757943415  0.9175580459947088  0.6687827063579651
  1.0025277669757553  0.0819737362395788 -0.0000313374726120
  0.9193661201302074  0.7453489690371746  0.5765171080455662
  0.8319631198201582  0.7439081153678293  0.1686960162707923
  0.7449901292300907  0.7453042149679721  0.7555411179729667
  0.8326257015366861  0.6607026478742787  0.9242693671141690
  0.6597320810338793  0.2430855426172802  0.3370721242809652
  0.8346418913465610  0.2518516583917739 -0.0003952726410473
  0.7532198410741985  0.3334465623190767  0.3332202835401259
  0.8321428469112206  0.3408595419845796  0.9104952787252306
  0.8395365994280118  0.6578793512507556  0.7499632911690370
  0.7440752081114855  0.8410731929043294  0.6618624418533997
  1.0050299321918474 -0.0006824567827072  0.5817985455063113
  0.7507398060990584  0.2540255629406504  0.0870229525664783
  0.9185329386559394  0.5036196639298676  0.5041293499835657
  0.4140265474049440  0.6676877560503377  0.3330419875236566
  0.6605182903326988  0.3387693454811277  0.0771379767068930
  0.0855676475464566  0.7496291553910592  0.0836622548284821
  0.5825237519408381 -0.0042947329883614  0.8326782497426972
  0.6590451876320726  0.8364283381460729  0.5748877412326624
  0.6585945127661427  0.3395856984097622  0.2517123864457601
  0.9208200827597798  0.4127586001581905  0.4212756589926639
  0.6571205228201416  0.7436675994886468  0.6648946179962425
  0.9242087491322731  0.8342132922441589  0.6610942190263196
  0.8340232414798777  0.8364911369838877  0.7562211139027419
  0.7475485165362338  0.2493853682388246  0.5848196630079346
  0.5745820884227794  0.0829873439888396  0.0816463713933349
  0.9222759137121310  0.9243635713398750  0.7523473586238190
  0.4928913107266139  0.0863061293933329  0.8351366684816925
  0.6599965889559206  0.6662139707010345  0.4146709285463616
  0.9238037802248703  0.2520172090554546  0.9136276121841851
  0.7519759678735526  0.0793387575287412  0.0818532727862194
  0.8334934590418543  0.9206894881268015  0.1680016243905126
  0.7441609984600529  0.4207688156096827  0.4204832674180439
  0.9234280556244367  0.8304545625269943  0.8430340075760940
  0.9187473207047784  0.4172240461688973  0.2453631852036112
  0.4121350683057489 -0.0017948450517062  0.0833478156018883
  0.3310308137550591  0.0003636262644863  0.3328884921579532
  0.3313799069208604  0.0828295690246544  0.4164928349609380
  0.4959530519565208  0.0000730864030990  0.3325378976227598
  0.4122322725820405  0.1658892000343891  0.2505237501827886
  0.4132811500271563  0.0005001886424728  0.4157401952562089
  0.4131435403383498  0.0000054529556405  0.2500597489624717
  0.2495114822524540  0.0004632139874746  0.5830019773954445
  0.3296220521495808  0.0843947143104192  0.9169202113055200
  0.4950624715576494  0.0828081014894397  0.4159936208752483
  0.2478894864159368  0.9154354156896357  0.6662267365121243
  0.4945923767846653  0.0830165380085992  0.5842011932010189
  0.4127987055332998  0.1683033020737903  0.7494152241759849
  0.4103782686035897  0.0832769598965291  0.0000492050680010
  0.4115925801742443  0.0004168142565541  0.5830338816503371
  0.3301955714873699 -0.0013231749908840  0.8338394465028042
  0.3316898664429613  0.3331174516618105  0.1680325366956960
  0.3317966514614475  0.4151402021686291  0.5831177452313875
  0.4126820139203415  0.4165628200636747  0.3335844529213706
  0.4151725608026900  0.6677418673325496  0.0836180040243083
  0.3330936188852279  0.2504500238901231  0.5838991004962625
  0.4137917362884804  0.7497284873966703  0.0011520394975191
  0.2495868118506882  0.9167542282000276  0.0008450124288439
  0.3318491877671004  0.6656956410317068  0.8335099107614230
  0.4121036539910409  0.0823705232716681  0.1667833749163134
  0.4135196404912290  0.8329903448281940  0.0841869368793859
  0.4941939900138730  0.3318748204274442 -0.0024303173735026
  0.3312008434760070  0.7502775349767191  0.5821751522214680
  0.4117567891419875  0.2500879038514652  0.1672898572450659
  0.3311318409942757  0.4990499371137597  0.5005145569691269
  0.3302965977020253  0.0842872193654809  0.7484987513557871
  0.1689337407913199  0.9170238855355017  0.4155541644416065
  0.4936290630102519  0.0835007221176780  0.7461889336554544
  0.4134246456350356  0.4154409887639328  0.5001050743431668
  0.2496301851012899  0.8340208596117652  0.2500310528711607
  0.2499112561955100  0.0007041333689334  0.4148003046538228
  0.2497688101483478  0.7497558211048260  0.8334685471291042
  0.3323390395836279  0.5821462808673791  0.2491134316089049
  0.1683943272588684  0.8332626997463194  0.0008953404025614
  0.3302755913765000  0.0835742110952288  0.0839770903328823
  0.2495519359598482  0.8322990365649366  0.7507702825510205
  0.3300002348929308  0.2508210439272863  0.9157061217836460
  0.3301239755198640  0.1686839694224249  0.0003379240464463
  0.3315416573423575  0.2504491113549634  0.7495004865250426
  0.1689147478471973  0.9167651096729782  0.7511071527608919
  0.3310465926923215  0.4159810498049216  0.0832504519350696
  0.4122331361813866  0.3331098803918375  0.0831102858746526
  0.4126071954032703  0.4163893575845665 -0.0002961424307386
  0.3313623966025835  0.2499016330636595  0.2511619196996770
  0.1682364470605073  0.7481702032716212  0.7507271496252566
  0.1691386645453344  0.9161678334747183  0.5820950388558237
  0.4131075775588581  0.2494391173549818  0.5005640134369342
  0.2496354050127265  0.2502633247634520  0.3332797154812311
  0.2493967340979401  0.4151612750478545  0.3333569543580822
  0.3309949335474209  0.5832745504542108  0.7508470937806659
  0.3315265707784762  0.5005269628092204  0.8331450969697010
  0.2497654639854132  0.8332277260021241  0.5819385528559936
  0.2501524406365882  0.4997062375957374  0.9157684429444956
  0.1691601097504399  0.6655998358593470  0.6659433383231858
  0.4135708273328453  0.4999341631091920  0.9161146984427792
  0.2497501838037786  0.7498798341635070  0.6666727381202513
  0.1691602960566648  0.7490409233734842  0.5819473521476954
  0.2499148832574925  0.8339393516718661  0.4157243938813839
  0.3319436621045221  0.4149810101613587  0.4160734385171529
  0.3310165992112005  0.8330340303682821  0.6664515104779860
  0.1676909989825867  0.8338155459253402  0.1679158947263188
  0.3305134430356240  0.9163908902936944  0.0841714694182962
  0.0041568581194566  0.7482325620456168  0.4152397564758582
  0.4955818574639558  0.5830994317151653  0.9170637464544714
  0.3325667058333271  0.5832466347741937  0.0834050372760944
  0.0857812059893134 -0.0006871273492539  0.0849806625136217
  0.4141480097643795  0.5835659609617383  0.0004306494933990
  0.4139206107908937  0.5833614850872521  0.1656636986770451
  0.3322646383969210  0.3330448633137592  0.6675079145629472
  0.0030937448018934  0.0878281930567709  0.5815619914624691
  0.4135400762227111  0.9158346605179031  0.1665483424626755
  0.2505982834346004  0.7512464843625498  0.1670622765187472
  0.4109808377916875 -0.0017176212397890  0.9183647075661069
  0.4133323211634977  0.4995967063692404  0.0822477657327356
  0.1672265355947269  0.8334714970195692  0.3330235334440889
  0.2500438257662290  0.6655987254925385  0.9163891917513691
  0.3318367768213716  0.9170603056728768  0.2501124653436292
  0.2495205681232953  0.9171194016622247  0.3325077696031766
  0.1680485421090420  0.6646281241811579 -0.0001605452670758
  0.2497098053027110  0.6673528227169574  0.4169022443930244
  0.3309618552105730  0.8345125631363264  0.4993113280758852
  0.4124435400403190  0.9179637311276352  0.4989365358898914
  0.3317431007303970  0.6664525373293478  0.0004064633495129
  0.3309928063370031  0.8326803213314472  0.0011359411768327
  0.4136370431168829  0.5781863661975799  0.3334814405918805
  0.1682000515824583  0.4994655837952327  0.5000967121806869
  0.2506962627693825  0.6664265438560726  0.5833691529833304
  0.4125131677451168  0.4992932307882104  0.5841665641629696
  0.4126017291623197  0.5823888308939340  0.4998993305628545
  0.1685950508343717  0.5828685286245404  0.7498445322001021
  0.1693447793979757  0.6664837438537990  0.3322294000913357
  0.3307257855526665  0.6670330647296139  0.4997375514188895
  0.3310261235928017  0.6658746673213499  0.6662868262885618
  0.6604161705635152  0.4180636101788521  0.9154657511645932
  0.4119713725242106  0.5828279161978368  0.6657425575010112
  0.4138853150652428  0.7493696672195037  0.6669422311967019
  0.3314497021472655  0.6675667939011706  0.1659697468906069
  0.4941907608201517  0.4169884401581332  0.2499096065173969
  0.3307182831708714  0.5820425115012899  0.4171849315676622
  0.5778141466392052  0.0814541864573595  0.3327552090633997
  0.0860359974175552  0.4161440918505470  0.6662525577016859
  0.9186533894218027  0.9166696083590208  0.3336747274424155
  0.8344394919076832  0.0012592520387098  0.4964608999771197
  0.9183010768149619  0.8338169971817901  0.4139757153499253
  0.8335814543645323  0.8331894205752144  0.3339548542121060
  0.0041814128264106  0.4159010320121809  0.5840323520253163
  0.2497045128019392  0.7493889132483079  0.0008973858255663
  0.2503018036851672  0.6656192764578499  0.7502665091930460
  0.4123096508121690  0.8319972049658508  0.9177317800296884
  0.1689806182549006  0.4992719130694220  0.6666338492780413
  0.4935351059171578 -0.0026649695989577  0.0006336773550565
  0.5792087286299096  0.1688401306956387  0.9160024442171746
  0.5798391004041988 -0.0058909654790602  0.0826574194407031
  0.1687004871356652  0.5824748820200680  0.5831178574492327
  0.4954443130568437 -0.0009977764495237  0.1663106465414666
  0.4946393752230477  0.0818897217910944  0.2498065834134946
  0.2499601322493656  0.5823382637119674  0.3330436633090571
  0.6628913016286639  0.0814633384865924  0.2498496054540963
  0.4125229483273256  0.4166073476071143  0.6677576517983080
  0.1684166286787690  0.4995272330141330  0.3346818790805828
  0.3316964093023326  0.4164351646531295  0.9158563805535866
  0.1688140398829619  0.5831389611636081  0.4165143695051417
  0.4115602963535147  0.1676966564362000  0.0828569703448097
  0.4129564304057451  0.4984371950726308  0.4166043413947720
  0.3316665207989331  0.7488257236968848  0.9171013827700176
  0.3303925244916897  0.2506745948463586  0.0845067337537271
  0.4935121306406106  0.2481403923298752  0.2503605488171606
  0.3314380123424620  0.1655452622553004  0.3328755078367898
  0.2493246988866394  0.8317596714344897  0.9169383572482029
  0.3323355073594296  0.2497884572539326  0.4164160516435964
  0.4957252584811828  0.1668295429177313  0.6669133732162130
  0.3319023296178021  0.1680055880186215  0.6665942345025612
  0.7467484337685090  0.1599933306793596  0.5832724684845435
  0.2502648719125353  0.1683014453731870  0.7489886764319614
  0.4132788903825457  0.4989308067881954  0.2496281798968498
  0.2494315360801736  0.8334503069863159  0.0839359285081320
  0.4136680509188154  0.9167843903135313  0.3323314659811419
  0.2509414873455516  0.5820871051672638  0.0006205729151626
  0.3305730608841909  0.9169165894232347  0.5822939439823260
  0.8336238977562458  0.6608405437142870  0.8370615000859987
  0.2502154018514315  0.4999524788472876  0.7504244019988554
  0.4113719566421106  0.9168118657680076  0.6663199590396627
  0.1682894066917364  0.4999192552031766  0.8325911494531149
  0.8293381353857668  0.7477092107676160  0.5780623264814697
  0.7500681647619087  0.0836626764551564 -0.0060672702459185
  0.0046593960315899  0.0019723193519128  0.8339194959174090
  0.0865786166485393  0.4997235683966608  0.9153728214687757
  0.0867325256779365  0.4177975639551976 -0.0000661152730251
  0.0048927526703064  0.4190762542979001  0.0842913691505326
  0.0035427146062423  0.3374107698771204  0.0015067435669654
  0.3320604250532532  0.5832470342241678  0.9163401289406131
  0.2494362813553143  0.4166581994655508  0.1670715843729151
  0.4928765868695434  0.1658259313966965  0.1667821637470933
  0.1679824467083603  0.8313951320198891  0.6656170070856827
  0.1685975365654264  0.5819479578719283  0.0832037876366758
  0.5768223452590763  0.1642494491490842  0.2495452457359550
  0.4950256113661601  0.1636039020371282  0.3331443297578412
  0.4943715392724141  0.2485213023325534  0.4191420028924069
  0.1683065076452056  0.5002549593519621 -0.0006530816689374
  0.5760084142024762  0.3329394219428613  0.4198704556062667
  0.4129587286586803  0.1666082568469319  0.5833584349481480
  0.4954085968533127  0.2493029683726698  0.5841316624275897
  0.5782302469588629  0.1650649393641447  0.5836643056610110
  0.5768954045475816  0.1645256541973721  0.4183707180977719
  0.7452460376265724  0.3355307145775887  0.7481003441681401
  0.4966201234122409  0.2505272440985377  0.7493910554878290
  0.2488222535872618  0.3336456999962069  0.9154646875992721
  0.6612275586619190  0.1624921999580150  0.5006761403236069
  0.2493201144528809  0.4167930885189690  0.8323952703573806
  0.4935118876458969  0.2504193280597461  0.0824254395810640
  0.4952835606153793  0.1734805264620598  0.8329732670446808
  0.6597819908674031  0.4180757398546189  0.7486263135654624
  0.5782046495620938  0.3333034394951216  0.9133512039759503
  0.6623398093615378  0.1645697885978807  0.6676039636865707
  0.4952645985196135  0.0012005070636952  0.4994322496871043
  0.5764695573035207  0.4996039665127661  0.4177244370357950
  0.5780642569382737  0.3330802364684446  0.5848004762710238
  0.3328549396277870  0.4165415085593344  0.7507414453214069
  0.4966913216376477  0.3331844680931394  0.6675792783519812
  0.4944993207927286  0.4999864452685296  0.6675530890688945
  0.3311595145114739  0.5000083009323589  0.6674135300083093
  0.4946348247397122  0.4988026878115457  0.5014968733741397
  0.6636693724930455 -0.0007215039616283  0.1677943128098101
  0.4946697318128678  0.3331539900325642  0.3346979361011776
  0.4955342128785935  0.5842851715516559  0.0823759947382857
  0.4140934925883477  0.3330961624981265  0.5842913646367521
  0.5782247625367127  0.3340689330558536  0.7492528495712959
  0.7475892742414482  0.0815395142505742  0.6660373178921094