Cr  N Ni 
 1.0000000000000000
    21.1223040260605686    0.0000000000000000    0.0000000000000000
     0.0000000000000000   21.1223040260605686    0.0000000000000000
     0.0000000000000000    0.0000000000000000   21.1223040260605686
 Cr  N   Ni 
 259  35 605
Direct
  0.9964107819868314  0.0026512524537471  0.1705339236413001
  0.4993922445585878  0.7483677713719860  0.7474228038137664
  0.1575619781104625  0.9265258359390376  0.0829605234771992
  0.4184244055940088  0.9177319502304881  0.3369766993863570
  0.3317921398657654  0.9213265050042457  0.0850530886376523
  0.4961725270213908  0.9195912685891245  0.9092039338070302
  0.5815976767560431  0.9166653096065559  0.6540728432050210
  0.4994544661782714  0.0139659294084925  0.9995265842146984
  0.5827251032758395  0.1651835928711946  0.5823768405570524
  0.4993167813258712  0.0842718725026956  0.4171709080074107
  0.2505945104717528  0.0859158875854142  0.4992848352427552
  0.5010042461549981  0.1670272136854395  0.1695575742762890
  0.4159719192541310  0.0023005656086773  0.7470668697627867
  0.1641107776110081  0.9189242135346861  0.9127460127459089
  0.3332197384585686  0.9183754099292532  0.5822101045073179
  0.6683727541309332  0.7506919235570131  0.0854819272079432
  0.2545532180898569  0.8313875727231114  0.0846708807302876
  0.4104480021316669  0.9195961370754648  0.9954386203975690
  0.5830152736586179  0.8253628102495182  0.7466627538750420
  0.5925896139177671  0.9186574970479392  0.0047592958750537
  0.3320746930956654  0.1640634274706158  0.1694409832107238
  0.4988750844985506  0.7380685855722475  0.0834897226451062
  0.5874851237058683  0.8264266088712690  0.9149820581999898
  0.4987596725087364  0.7398197410496240  0.9151456030786125
  0.4137848021554791  0.8286472013608871  0.0819934439937769
  0.1651299515561458  0.6599764219144658  0.3347990382419840
  0.4154030582787368  0.5837657634488168  0.6648816936159895
  0.7484264320272130  0.6662499673441834  0.7482405770780655
  0.4994891546655230  0.7472062576862433  0.5817623666886338
  0.4216484017575272  0.9178986405254631  0.1757236326889484
  0.0818773254012120  0.6637615031429066  0.9067364380631928
  0.4168028166445866  0.6653952557394760  0.5824559091183074
  0.0830731018068963  0.5838716347458649  0.6656226220605498
  0.4992877035107630  0.2429532292366601  0.7497282727623228
  0.5005609479133705  0.4222040554228454  0.7496366472659984
  0.5833427629871966  0.4179389770605657  0.4929450775080388
  0.2426574469069004  0.3303863910934842  0.2513872798618441
  0.4984016881532565  0.2493709142695959  0.4162795893683182
  0.4141373365034531  0.3321990038288479  0.9095778102072360
  0.4990745167081972  0.4949914687225648  0.1683261283196077
  0.7488014845724978  0.3338572782591700  0.4144985963876425
  0.4994555447426621  0.8326653172036800  0.1788446343761902
  0.6651417864446834  0.8317034597623550  0.4995323225452182
  0.0805668748436174  0.8348918915098626  0.9113222604153079
  0.9153961499229203  0.1673597303170908  0.4155870167434434
  0.9927001733586587  0.2499028402299469  0.9172279467455643
  0.2451685472894034  0.9200655773534490  0.1750704252944818
  0.1654859460961064  0.9246360159340834  0.4190889893683404
  0.2583768616417092  0.9180206635234854  0.6640519352093883
  0.1652236732434058  0.9210135073493878  0.7544395463591838
  0.1653411453174145  0.8293712933753962  0.6618389073691975
  0.2485157510046534  0.9197293219136053  0.3353717620368105
  0.2512967660035269  0.6656314244161936  0.7485686980918770
  0.3338206306717583  0.7479466541189631  0.5826884426457821
  0.3335778134265004  0.7493399366306875  0.4174569240031859
  0.5842306044139945  0.9183218967925995  0.8287419850605129
  0.5940469755966294  0.8329135106509838  0.0827446188724892
  0.4986782177111094  0.5837719142011220  0.5804953957277312
  0.5008170666040783  0.5079948975294488  0.9993295186467541
  0.1650862116021133  0.7466626861215842  0.4237616608075044
  0.2484614865401326  0.4998062637416888  0.5820225447702176
  0.4995322112561976  0.6726985527474056  0.1708331787408612
  0.9958674977676286  0.0028786029990554  0.8326979789031673
  0.5840350910345486  0.4161230823381128  0.3340194608251328
  0.5820845650867879  0.5009202452081698  0.7485171565148182
  0.5827540808586169  0.6709741447012371  0.2537938510718511
  0.0824916649111246  0.5785128227773932  0.0002617611969833
  0.1652952131611622  0.2495588429190268  0.4177292277935006
  0.4162198613129280  0.0848201550637784  0.4983817009514873
  0.4085703623499911  0.5839971269151802  0.1703929014941096
  0.5824532011306053  0.5072278940848899  0.5824783017932014
  0.3342488847247157  0.8335527235588978  0.8305977925355317
  0.3312208492082706  0.1647303724613204  0.8323278979411576
  0.4945144699497198  0.4225773713645951  0.5817823693816827
  0.2475825462098258  0.4997188538747769  0.4178948643460935
  0.0868588300059910  0.4956480474369987  0.9135967633485588
  0.0803133256870670  0.7581677923708873  0.9960873057337798
  0.4145195163993858  0.5832851280766229  0.3377241824498218
  0.1654699695414382  0.4157552897318753  0.2518862038438908
  0.1649458853022706  0.7519638399379508  0.0836107088388321
  0.5007074301490261  0.0842196684884289  0.2523444381259265
  0.7485268842038089  0.0845394639822405  0.1679934839586094
  0.4121948405735823  0.4179328172719203  0.9992150964428683
  0.2521237833417045  0.4152864835250976  0.0002165256281222
  0.4160766543870508  0.3319295660172992  0.4157344202411594
  0.3327852823827461  0.4200563811786491  0.2529939995817457
  0.0827267729882215  0.1659772007172899  0.5818966305297735
  0.4995806512424872  0.1655660216887117  0.6643248845297157
  0.5009175601846747  0.4186420974903653  0.9095850623909145
  0.5851141803460078  0.3292016023773264  0.5828258705395843
  0.5845118493653604  0.1646277250406758  0.9167226159667701
  0.4977728776676264  0.5866244643700815  0.0759025755407066
  0.5817830772585241  0.4954213704259662  0.2505029355604411
  0.4095878714579696  0.3325343502772853  0.5811108317848530
  0.3321876003569366  0.1668077844282236  0.3360379617044597
  0.2505831344785553  0.6665863271993285  0.5836421660742672
  0.1651867254067844  0.3330539011348196  0.1712089857747729
  0.8316247731920176  0.2494761848617985  0.0835639037413737
  0.1715762821828586  0.6667365546798738  0.9942307329771616
  0.5075338471946677  0.9188641041625866  0.0901893581600423
  0.2485396338279630  0.0041767094182894  0.9139406503532908
  0.1670953261935307  0.8357851665068281  0.1753099195363852
  0.6667245798125389  0.2498055511012999  0.2500403066860451
  0.4150903096701073  0.2400512820141485  0.0006901574388805
  0.5006076252647752  0.8329268405183736  0.0019651616692027
  0.8316843097997045  0.4169043457429092  0.5745257334623913
  0.0013246857868499  0.2490098432121370  0.7493892290856643
  0.8292290559929673  0.4151611360715545  0.7536073768884312
  0.9199335845987002  0.4151464692519876  0.6657639467156926
  0.9141414005901413  0.1672212220039365  0.5826469733742355
  0.8308116120495667  0.5078107582026270  0.6648085794897963
  0.0811605224851839  0.5824943754191763  0.5013392473802672
  0.7480790448148568  0.4142239189181194  0.1695053765229911
  0.8271459963355491  0.4988632296572226  0.9934883900680379
  0.9149537150156730  0.1612467458094107  0.7508367776704618
  0.4082968339006560  0.3330648066637011  0.7515028482784794
  0.9153930090066059  0.2529467230640650  0.6605368654430553
  0.8291968717193843  0.3285177409524090  0.6636864643607127
  0.4977277129188906  0.5007401975297787  0.4975383698929582
  0.7486502824135157  0.2488793965840578  0.1684851698466004
  0.7466993529588333  0.2501478295451361  0.8353177940583880
  0.9144510572074165  0.2498118033785423  0.1687526691304225
  0.9136861855182911  0.2504828410349607  0.8400252087668537
  0.1721865907490217  0.2490395838150629  0.9177942453641439
  0.7491032927636849  0.0853803810717509  0.8335772512045740
  0.2458478825482890  0.3317895931587072  0.4169772456238540
  0.7488151434146848  0.1651542320374583  0.5830432605755888
  0.2484391657347045  0.2476257730100043  0.0015329058022527
  0.9993172111202351  0.4921037766568477  0.0013974836192495
  0.3251133185776943  0.3312029756552995  0.0010473497121635
  0.6672450422887714  0.7493827327912201  0.9156377174179650
  0.7464449624865563  0.8325673246381252  0.7484753576387128
  0.9158232337279062  0.8263922822280376  0.4171743567707463
  0.8260433292645100  0.9169305126022722  0.4182621403090087
  0.0770964178240057  0.9165817364661488  0.6673454993695219
  0.0793090103426099  0.0037122768696923  0.2516572008631539
  0.7494308864059607  0.8324472774416051  0.0851925552356698
  0.9912130015744639  0.6717547082219069  0.9996803077316075
  0.9970795850379174  0.5830731743761616  0.0895136644604192
  0.0764073060627817  0.8363256304459649  0.7506022738802457
  0.8289397245358006  0.4998067146788525  0.1716210759371954
  0.7419108792690329  0.4185954494839416  0.6661078652859777
  0.0834068965208873  0.1575882114573493  0.7488828330724461
  0.4154364673895464  0.5829402256721917  0.5000432245223360
  0.1662637682288688  0.4892054001733285  0.1697328405767484
  0.9969585474992334  0.7468015370389549  0.5848422053508705
  0.9035089347000044  0.8346332174804112  0.0838249710674459
  0.9975729427610069  0.0843189243267883  0.2503720967264285
  0.9132896712378739  0.2499927773745197  0.0019268873544362
  0.6749839814132708  0.9189719573069441  0.9155550658369493
  0.9143342091559886  0.3386718013830454  0.7491976138010804
  0.4997499314228454  0.2479253032649185  0.2505475948851427
  0.9967495969894478  0.3301303946574646  0.1697883752606331
  0.5039882942610834  0.3298695085134502  0.9972407265583961
  0.5869954225880727  0.5850302203820619  0.1645776913710633
  0.9157009992744674  0.6676693860329671  0.4158182930079098
  0.5862556013310416  0.4189694030567922  0.6727900752668523
  0.9982756544958128  0.5850641107853256  0.9095105442049541
  0.9132583780014598  0.6658627424024403  0.7493958330677818
  0.0759123594590665  0.6707355781773539  0.0876234316140121
  0.4986527578493176  0.9174468040844541  0.5819717217795446
  0.7492564258265713  0.8341716933312695  0.2530360463269714
  0.7423138490435633  0.9155967351546404  0.6639649570619197
  0.5823755028815026  0.6694232109841407  0.4158943799866584
  0.6656495856687970  0.0011187886942756  0.3348072856142666
  0.6684554638083653  0.0020912318136820  0.0018308204939960
  0.5845690054078156  0.1668587408315280  0.0848170628908707
  0.4085472483255058  0.8334210360733815  0.9148139243773639
  0.3333757333753192  0.1667257148546412  0.6644393320593603
  0.5000607377758848  0.3328295345429956  0.8447917187427536
  0.7493750629257206  0.6678339578272353  0.5819313295132161
  0.7488435266241208  0.1676190334644432  0.4157213941204777
  0.8285940983063084  0.4113095945219553  0.0865478734839960
  0.7482553150376007  0.0863759499163434  0.6633790188235954
  0.8301516033596201  0.0870793502774912  0.5820725317892602
  0.8299779747244452  0.0866091161764897  0.4160936788984231
  0.5845738320001622  0.9166192249655144  0.3361551888221628
  0.9974125726861074  0.1679548785660658  0.1684959040905999
  0.4940927776886455  0.9193863491323142  0.7477180337138556
  0.6732451092153614  0.9179030993758938  0.7478459506246309
  0.6646926230037998  0.0014415286010558  0.4985539441204004
  0.0010365169032655  0.9186814780513509  0.4166969762699166
  0.7487181837659025  0.5848118787590947  0.1685320945032179
  0.4163199309575729  0.0852183078380699  0.9998108150983025
  0.7485194802872307  0.9996186271039775  0.2523352924741871
  0.8291306857158096  0.6668997988026644  0.9985035526474270
  0.9965584293555797  0.8316408212278711  0.9937786735616344
  0.4993279329784315  0.6660516856530385  0.9978735950157287
  0.8300899128427386  0.7462311441909056  0.5830894233006668
  0.8303798757767165  0.9170538031329629  0.5751167607739315
  0.9186741916431888  0.9169790189148620  0.6648688840893512
  0.8312309470105477  0.9165749071596728  0.7520225871546529
  0.9142016380420759  0.9174803652954878  0.5076564490300216
  0.9138684809052670  0.8338656730783329  0.7499718725166779
  0.1655014374730301  0.8386852952429384  0.3322707115823832
  0.8291414476591216  0.5840861973372811  0.9147287082654552
  0.8282324636698792  0.4166459247949619  0.9158295309890765
  0.9151692050801693  0.5837629016143369  0.4988697196282298
  0.5880175110290798  0.3343106411407552  0.7498070332563477
  0.7492668757307922  0.4161626829899441  0.3355751859336273
  0.6673181625626216  0.4177485496541540  0.4146370344579209
  0.0725873010028151  0.7491652087341107  0.3315449069183431
  0.0840299688206669  0.3427519816895047  0.9172777666504994
  0.6655948410951481  0.4162549545200633  0.2526760100238105
  0.0814641141335219  0.6648864013450571  0.5832379745523353
  0.3311322210135793  0.4169486628881680  0.7486254907586671
  0.5811516304967131  0.0871258457498821  0.6635876747646599
  0.0815146961842092  0.0863271448537874  0.4995635771322701
  0.1763577318173830  0.2493907774228241  0.7480008551161177
  0.1643737877026567  0.1668967970495713  0.1678742443227056
  0.8310304354940661  0.0847608528600937  0.2513765430833333
  0.1661612264633970  0.5812446552206183  0.9059794561266419
  0.9942716251561843  0.7449756607708067  0.0863867212475029
  0.1661678714770488  0.0087421537930057  0.6643021667370782
  0.1662513110062076  0.6675712322218849  0.1736036634357386
  0.0824626066534821  0.4135980438272420  0.0041389962585653
  0.0824917022847143  0.2504310717729785  0.0075614906918656
  0.1640853226896992  0.5797758061436730  0.2609965618284472
  0.9966839284111429  0.9205945784660831  0.2501399504030597
  0.8320062260050894  0.3328459740869588  0.4990094877099333
  0.9142285708474409  0.1669216273209045  0.9176210684845345
  0.7504922633851490  0.4988301506868227  0.4156685887358611
  0.9993838782952122  0.4181087735214754  0.5820334316981707
  0.6652622672921726  0.4152875996063287  0.0855632009618637
  0.8288384415034409  0.0027476317732592  0.1706084867950375
  0.7468822121174621  0.4999524912760004  0.9178111705174827
  0.1668618725828717  0.9196431278449450  0.5743413113632535
  0.2483869191884182  0.0118760634883288  0.0824116257634011
  0.9984953354789619  0.7485871681257555  0.4174824404671274
  0.0817333757667231  0.0837160221708838  0.8333676963314233
  0.8302353762205030  0.0023219100121630  0.0009630766628961
  0.2491884881452781  0.3336923809010992  0.7479229627134419
  0.1674830947887442  0.5766904145890750  0.0842511944321239
  0.0830470571610308  0.2496031585648731  0.8319727712736528
  0.3327599320741825  0.2497721873608731  0.7480725257202413
  0.0787624066449804  0.9196440430259890  0.8312350132492665
  0.9971730229705180  0.0025634633260965  0.9988930867511764
  0.2488884757227202  0.3336271408551121  0.5816403315271601
  0.9986678999634483  0.2500079377761739  0.4171835249436950
  0.1648426360335526  0.0015360322267066  0.3375966491958489
  0.0001815891461628  0.4988353464200552  0.8245687988712626
  0.1666366179841434  0.0830874321028196  0.7473456520893361
  0.9967346633018890  0.9243911326329660  0.0841417096010761
  0.1649182838854596  0.5824168867640528  0.4183732179683324
  0.7495031558624198  0.6655050410905626  0.4172333153166525
  0.1674887929288778  0.4879574460136687  0.0005717274297033
  0.0783937882239990  0.8325489259279152  0.0818681169650856
  0.4154397143404118  0.5833841708234553  0.8305208683017059
  0.9980631023464464  0.4160034864187432  0.4168810353008154
  0.9983634661677947  0.4075886987169930  0.9166248321459264
  0.1648623816813941  0.8335302241735612  0.5099655178784892
  0.0790559542471577  0.0826210469710561  0.0009515779894798
  0.2495972047272185  0.8349188520721463  0.2540581598244656
  0.1676733443611706  0.8332604903718839  0.8388190069511897
  0.0834463429518982  0.2489059011449422  0.6556389925396535
  0.4200545218682803  0.3307345659428342  0.2503214306056123
  0.9161063742281046  0.4981460733745712  0.2508946074720708
  0.9131136967488154  0.9173293767803171  0.8332012052690253
  0.2571441634520379  0.6656926388858740  0.0853734476911499
  0.4967618539630863  0.8274185723036178  0.9122647778905552
  0.9973277528377832  0.4950099228417857  0.9117013124047978
  0.3334694448901385  0.9202847324206516  0.1749416298228330
  0.9934377269984951  0.5815143374259542  0.0019972515437339
  0.3316059104083508  0.3322710714448288  0.2496156488242742
  0.1618300857566855  0.7482137101485746  0.3354410424813257
  0.1674742701823939  0.9197938000478518  0.6630349427141612
  0.5857133898887293  0.4189784197509171  0.5824900555193369
  0.1696761823686546  0.6655372985954008  0.0848964267884319
  0.4194633052969786  0.9211881692114374  0.0861805167656029
  0.9135937201505929  0.9167593307394093  0.4181744676006601
  0.9899529306779807  0.8362369629387001  0.0833223274282421
  0.5862880067921148  0.5833942483814009  0.2544520281659530
  0.1657851888565671  0.8391710900019446  0.0837764769542087
  0.8328314482065234  0.4991299864538407  0.0827007257030610
  0.0828899429408904  0.2519392468149360  0.9205261396623493
  0.5053513687375073  0.8261401623010495  0.0918407924649243
  0.4961639811920176  0.3314948799883927  0.5807201282663614
  0.1666184190966722  0.5772210334108465  0.1740945352875570
  0.8309462938529379  0.9184096731280580  0.6635932836971702
  0.9120795271660476  0.2492608382692626  0.7499717655619930
  0.5013743875657359  0.9255759900910174  0.9996128351755283
  0.8307373461234053  0.4183674703887856  0.6638328545454794
  0.0807293402735382  0.6697439911601257  0.9956015071191893
  0.4967798138614670  0.5837141613640092  0.1654140378682386
  0.1652294505998680  0.8365400339080595  0.4221909487560174
  0.2446312827338226  0.9238424210371964  0.0810390572125844
  0.5025023818793429  0.4195861510515820  0.9995887952110212
  0.1734912650005771  0.5750642239660260  0.9934149756888889
  0.4984231149410158  0.3323634291463484  0.7553300663298140
  0.0896053971594024  0.2494517280996200  0.7431514385190752
  0.5879624141856699  0.9179598154480660  0.9159383936773209
  0.1655175044065207  0.8299144052093032  0.7511499874050657
  0.5830244849536593  0.9160419079578400  0.7405126283946616
  0.4141786624687259  0.3277673734597684  0.0006075769908866
  0.8321879634321091  0.6666547790497499  0.3348879589602493
  0.7496996969942163  0.5848434219816695  0.4985421888958837
  0.8325186194611048  0.5010516419754074  0.4986782204361850
  0.6661662395945855  0.5849268124510613  0.5815042137407390
  0.7491754606458007  0.5020994095979454  0.5808300845714611
  0.6670985290344671  0.5841960068708916  0.0853705966103498
  0.9114178950867527  0.6665936092714377  0.0849755092540375
  0.6666890744162769  0.4984426426929123  0.1681985512575952
  0.3337000427674597  0.5816323322227347  0.2548480182798031
  0.5826669087877945  0.5845733352905090  0.4970074296346475
  0.6660038793122418  0.7480597132841215  0.5807417377255478
  0.6674820234066250  0.6688111993402253  0.1689736802561364
  0.8298912717469039  0.7494051679715993  0.0845052404846373
  0.7502068998436041  0.6675530717054772  0.2518374559116657
  0.6673719109369785  0.5841939917750251  0.4166811662858428
  0.7481294942244422  0.5856091470516248  0.6653379345314916
  0.9989367520318553  0.5002131416614521  0.4998381179392952
  0.6653784340468001  0.6666192715528149  0.6651166722898592
  0.9980510968396225  0.2493856327425777  0.5811483320320340
  0.7502606822858896  0.0024011482042806  0.9164017078500997
  0.6660029537949033  0.4173325332567263  0.9161254509814030
  0.8314279063363063  0.0842768666369140  0.9169983111042144
  0.0825279381990703  0.4170134592488781  0.6634333578441467
  0.6658355421494515  0.2477492558932093  0.9173022672665311
  0.6661883009379641  0.7497696966097084  0.4170837209359907
  0.8313214445034636  0.2499776289989911  0.2504365896230901
  0.6700471605157654  0.8322978416362247  0.9993014901403220
  0.7498171107258386  0.0838622923825798  0.0010863354714990
  0.0821755851583883  0.3343384874798895  0.5812147752567082
  0.8308140361173869  0.9186017537809449  0.9165599418529009
  0.8300598840928618  0.6671049313797821  0.8308392833970021
  0.7488602802557823  0.8329156842115539  0.9153089482350567
  0.9999155013546863  0.3330717343123852  0.6630743322115932
  0.0814198537708560  0.4167722057158662  0.4988594065580544
  0.8316136837602223  0.8303836517796206  0.5007663238430836
  0.6671049103436375  0.0837102740617024  0.2515365722966830
  0.0844389803052577  0.4156478517935928  0.8295325255911274
  0.9080917562211162  0.4984076624344151  0.9149877485692811
  0.6672018862450365  0.5840684265457418  0.9151439707984407
  0.5849185726669391  0.4188509019665524  0.8330239530011202
  0.6658833199923037  0.5849409697953574  0.7487071556586489
  0.7484152081399689  0.5019206603597868  0.7497377555064001
  0.9986102477949496  0.5833567020987988  0.5839997058815601
  0.6656892457441292  0.5018381543306931  0.8318037362153962
  0.6654378958923277  0.0848566857995192  0.5815263440451278
  0.7471417593068796  0.0019189291704456  0.5807058716576736
  0.7483276267255971  0.0855670277639468  0.4986799179092948
  0.6663119218621980  0.0029756026172889  0.6637010332060553
  0.6659596290871178  0.0851726916776324  0.7485879711670570
  0.7509306986105958  0.5832362510587935  0.3358415807399725
  0.7487080959533784  0.2496364825722463  0.0014763091020051
  0.5813285048521641  0.6670698939094558  0.7483705753977429
  0.5861394506996991  0.9171553152159017  0.1707352956601446
  0.0804723513208233  0.7499462692494918  0.8321330488830301
  0.9154792782382233  0.4157111241572833  0.3348939043361351
  0.7457977572052717  0.4142553766920985  0.0010595983224663
  0.5831351380059027  0.3325640904854231  0.4148041337484528
  0.6667833157862560  0.3315536496033759  0.6665093066093476
  0.9957999641767962  0.6665166706154184  0.1698548786119068
  0.1654388412004260  0.5826852330311471  0.5829624153229432
  0.7473956619589068  0.9171554541109377  0.4990468759056453
  0.6684443524639400  0.0028903278733205  0.8316424246621390
  0.6655226370360726  0.8301289998142681  0.6626161063550443
  0.5825738519962755  0.9168547912483143  0.5003192424066621
  0.3350784828939598  0.8325534466578099  0.6643523465690769
  0.4138526909917883  0.9190803321724865  0.8309196004695854
  0.4994856392408145  0.0857632358021441  0.7483037904522468
  0.6669167069061426  0.8336884779063074  0.3354239779080767
  0.9982770573004011  0.3339078820522220  0.8320864907643776
  0.8292194488231860  0.8339264426699021  0.9995316743832512
  0.5855217447707897  0.7482809121236423  0.0003981061719454
  0.0827129534007408  0.5833936006846272  0.8285184515365144
  0.4978952024614846  0.8317369194984114  0.6633540756592026
  0.6681543514475171  0.6673222586010374  0.3359993793557013
  0.2500786587733079  0.4160900723335715  0.8306727316664768
  0.6665637734039147  0.5036972592096275  0.6666800496637296
  0.8250553006995659  0.2500031155233070  0.7503964293952584
  0.7481620370180645  0.5841838577666371  0.8322564694328688
  0.9131054423224551  0.5828833586082451  0.8309187184884300
  0.7484304574518301  0.0026269490144309  0.7485187666920150
  0.2512937796672217  0.6658805317741449  0.9123529585256397
  0.6700671644663515  0.9181419732229810  0.0871540174741331
  0.8301442222274596  0.9196344883151164  0.0849244379742072
  0.9137696731674937  0.0845005556346719  0.1682766489388035
  0.1668927966237761  0.4982080540853935  0.8291673396920283
  0.6668612895276613  0.9166214402068782  0.2527016299698336
  0.5838691720222584  0.0069189348348730  0.9145002883050199
  0.8304106608903273  0.2493293404884674  0.9177578624413260
  0.5832269684721397  0.1668353672443868  0.2514583653826289
  0.5831238615520661  0.0844769928225774  0.3346461244488335
  0.6658989234154099  0.3320659318365839  0.1684173934709449
  0.0802153142504507  0.6651953359306109  0.4188531359330234
  0.7488589307384371  0.3324819234394894  0.2514129835800580
  0.9159522439136734  0.3330016637392431  0.4175249589774714
  0.6661968814862083  0.3319960886635545  0.4968216353433508
  0.9969208506616752  0.2498387522173522  0.0852518866183777
  0.0811986024477990  0.1677526908228771  0.4176928922082032
  0.4164748172556990  0.8341788479315556  0.4179565118821100
  0.3322614680636272  0.0047630657341778  0.9985538508398304
  0.1656440179412618  0.7471007181455506  0.5840780702321168
  0.1625219402331931  0.0847175357409267  0.0842253344448871
  0.4161682261070610  0.7492250469090223  0.5003749380208943
  0.3330221965167440  0.6656972159281277  0.6652152619571086
  0.1630100536286547  0.0029005699103987  0.9975784579505191
  0.4167128882658288  0.7486612012232624  0.6647440126872549
  0.0795462617103951  0.9186386671231245  0.9972247006645865
  0.3340086771284153  0.9185010322770815  0.7486726149396646
  0.4165694390187755  0.9168368298357602  0.5002559477532983
  0.4169312537430904  0.2466616656510353  0.1682670217346676
  0.4982829743186578  0.0029211789247603  0.8305895074963731
  0.2462367721021883  0.0856822523074805  0.1697651576921199
  0.9161156490159654  0.5006573935608040  0.5815904008595414
  0.0805618082836315  0.1671789062421243  0.0850032590016060
  0.9130323738837297  0.4163225813165443  0.8323017581278699
  0.9066254226480389  0.5836754578428182  0.9989622062017365
  0.8317250340555495  0.5827782348897551  0.2517626337526372
  0.9205318404395680  0.4961993806375322  0.0857542733977373
  0.0816753749745439  0.5011201469564435  0.5830474940467955
  0.8302506476815497  0.1669819988129623  0.8340183585144657
  0.0812616051864261  0.4152824275123984  0.3354186906289556
  0.7487956097591952  0.1666025509956095  0.9167058966333919
  0.7471761431827879  0.3327127448493518  0.9174904448436048
  0.6663581116100172  0.1659104847225214  0.8328359557242880
  0.9985901690268509  0.5002916569017335  0.6657589273757366
  0.4181043962597317  0.0029374213871311  0.2544561739898346
  0.7477794576074971  0.8321041889013530  0.5804371535687860
  0.9974310471199628  0.1668281124313408  0.0020194674284496
  0.6678681563205981  0.8331172881859866  0.1703566148836038
  0.7482642729821009  0.9173393903263416  0.3349949376577430
  0.6663312283060916  0.5024273946638032  0.4970693843863013
  0.7496225608467332  0.7510153399945587  0.1690259045233642
  0.7480231815563164  0.0015033801942316  0.4174260685409470
  0.9144672927645376  0.5837552813316624  0.6664437044643884
  0.9143118445490449  0.4992575537717979  0.7489858898203536
  0.8326362144776304  0.4166279507820849  0.4171250152904311
  0.6675465939050058  0.6682590260795025  0.9998585733016205
  0.0801046317413898  0.0010533314577921  0.9156213804559793
  0.7492146976005080  0.7502866165555206  0.9997006565409885
  0.9140950028412616  0.1671336441515165  0.0848128716755548
  0.8304090395931667  0.6665174872687158  0.1691705539578583
  0.8291806058239335  0.3330670969634577  0.8350054505043393
  0.9140165316577240  0.6657084496544274  0.2517080039009140
  0.9160055039590396  0.4996952040972306  0.4176649877889344
  0.8333584833389909  0.5837888555941310  0.4163921787516069
  0.9983381518364580  0.2491476214947869  0.2511434128078982
  0.1655079360610119  0.2492874169616506  0.0854918478737941
  0.7471151668852916  0.4170607284979024  0.8340629257762366
  0.7472344171296680  0.5853332354960749  0.9999760774501975
  0.9118824978662611  0.8348790017403744  0.9158112576008903
  0.4164945234096419  0.1652416704983438  0.0857092375649657
  0.5818465040165105  0.1669132204408102  0.4156376978239605
  0.5823046059400706  0.2491960646761368  0.3332564652388770
  0.4991954929610593  0.1670883040440682  0.4984015362747191
  0.5833572259777761  0.2491431292240769  0.4980832946792956
  0.7483763186847520  0.8337487915431504  0.4185290331323128
  0.9126398849361903  0.7498230576781131  0.8307574003514754
  0.9132120401846712  0.9185846234916136  0.3299625047788171
  0.0807832968246730  0.1665214554837391  0.2511686805601282
  0.8300814723906612  0.9172867261803508  0.2515840193486743
  0.9116262311845419  0.9192483496558030  0.0003485650594554
  0.9975254241847457  0.6656320822262294  0.5008655642101325
  0.8319544159862564  0.7487823380345507  0.4167836779034146
  0.8326215385783640  0.6662088048722948  0.4985617020647230
  0.0800672438831462  0.0020787809819967  0.7488421556276880
  0.9974984076020967  0.0834497209436710  0.7484249548240022
  0.0755712695178120  0.8338343048875163  0.4182467630155292
  0.7482424027205159  0.7482522033148666  0.6652518198420200
  0.5840999717671665  0.7472861973463800  0.8313537784160322
  0.9139700138459385  0.7484425018720512  0.6666881728338199
  0.0811430477337463  0.0024789490957260  0.5808255681432370
  0.0803473329956224  0.4142639005261078  0.1699886735255922
  0.7432001161189837  0.4992363773072637  0.0837648987090690
  0.7484509455766993  0.0845512727403000  0.3339545217956975
  0.9987478659979145  0.4133531387582413  0.0869916185980559
  0.9141749563091991  0.0846406016093454  0.3338829932532147
  0.9963364444463015  0.3325515854201981  0.0031173850644519
  0.8305271123872676  0.0032575632595804  0.5004686179933573
  0.9126589203388928  0.6663395090722245  0.9134674445792662
  0.8309259764696201  0.8287731684977669  0.6650999256186995
  0.0819151546454917  0.3319046153781445  0.2515446427845923
  0.4175360454257851  0.0853158016205060  0.3350374798165550
  0.4147760471485495  0.2500770361644892  0.4980311392482840
  0.3303361145681939  0.2467081609315719  0.9165535906030479
  0.4997564668601306  0.1664516106933050  0.8324902002007104
  0.4147588459001618  0.1663938758072285  0.7485092988375163
  0.2472355974202594  0.1650994787472177  0.0850634799796139
  0.4155044079400262  0.1660244410042875  0.5817988498036423
  0.4989827419203287  0.0011455881413861  0.4989582597376915
  0.6653434643147531  0.3322096776634776  0.3329291551671554
  0.7488678641284846  0.1666578616157940  0.2507012630843140
  0.0814002034877506  0.4996482311065489  0.4176961091577064
  0.6661867747866991  0.2487194991980185  0.0848123205017107
  0.0815755504191183  0.6649962439756814  0.7479475316415306