Cr  N Ni 
 1.0000000000000000
    21.1222929881137347    0.0000000000000000    0.0000000000000000
     0.0000000000000000   21.1222929881137347    0.0000000000000000
     0.0000000000000000    0.0000000000000000   21.1222929881137347
 Cr  N   Ni 
 259  35 605
Direct
  0.9987817625913661  0.1682020245454280  0.8340254389153110
  0.2524612600571874  0.7505549743390211  0.8340091832521912
  0.3331811582435650  0.1663147867035221  0.9991677731516283
  0.6650722971690030  0.7493853412006762  0.7516185349445379
  0.4173381081948878  0.9171795751763800  0.8351343975801953
  0.4982416765294097  0.0838869032999186  0.0823300024416451
  0.2518404397016002  0.1681273587638660  0.5868868115341450
  0.5803239875023172  0.3251227410394876  0.2478225779561184
  0.2529186963776364  0.3315792632286155  0.0796059094371618
  0.1701856047887225  0.4152344121486590  0.2485611058297335
  0.5862235490861091  0.9137679867406303  0.5034392744799657
  0.5806424170832997  0.9147730312318252  0.6696257704910821
  0.0873680882796253  0.2516863980509245  0.1613720635700181
  0.2525549005372436  0.4976417196269243  0.0813676903974566
  0.6625672373943937  0.0059465948723055  0.5067645016485740
  0.3352088958555442  0.3337734240821035  0.8334089927466870
  0.9139755387907139  0.3316847770437288  0.9153469093140005
  0.8251293591084030  0.5017789780542397  0.3324020404063729
  0.8265065636614923  0.8250875809406435  0.3329408757102921
  0.7445923894454776  0.4987197248208381  0.7525785738516936
  0.6643471869049669  0.5817533712963737  0.9172827327847094
  0.7468404986224486  0.3315145216349340  0.5882938424985551
  0.5806024320664477  0.4156491609108374  0.5103528821787016
  0.6640929555786236  0.1670707085836793  0.1617876327766161
  0.4163857516019536  0.6671961509188294  0.0813903083670955
  0.0019644385012939  0.0845138064520568  0.5906609147736906
  0.2504896543665320  0.9268784410176857  0.1636459998392651
  0.4173799693493731  0.6654216835662248  0.7515177674970186
  0.4989648526365980  0.8310246803619835  0.6687549298550468
  0.9976605890737454  0.6678390821502660  0.9949743643092024
  0.7467317965000897  0.0023255706354724  0.5968463988075452
  0.4969752837416825  0.1660038809357355  0.4980661633348465
  0.7469049493260482  0.5846871730208733  0.3330674060139900
  0.3342775538650312  0.4966049059706092  0.5015955829622738
  0.0849349918320293  0.4921531898816324  0.9144080800286948
  0.3339629573996069  0.3353627914073143  0.6708437658698583
  0.4981643068608072  0.3349385718695209  0.6712980103434303
  0.4990309138419732  0.4984642838039430  0.1570878929382384
  0.4982835278472167  0.5823678203917220  0.5860549112258229
  0.4983333826835697  0.5817260527498196  0.7505504414833593
  0.0847562772676545  0.5732757666783445  0.4996901293866506
  0.3331565420132452  0.7503777034927475  0.9154233109793489
  0.4989495076365629  0.5903960932412099  0.2478818502735594
  0.4147248455987357  0.5778129097816196  0.3325939222272026
  0.8265676358899282  0.0935931763205753  0.4158708116903221
  0.6631684029363561  0.2487577715926964  0.4187099847108237
  0.2516896699694103  0.2509725576638300  0.3324972550140167
  0.5872929959335728  0.5035113827501061  0.2474535410446527
  0.1685680505961003  0.4145911031373826  0.7533792795397738
  0.2536020371656132  0.5820738825702055  0.8340421973010170
  0.5802457930728185  0.4176635811649815  0.8347087559018949
  0.1668949615201762  0.9996476565564471  0.8340890157540335
  0.4950687441139787  0.0779745765048834  0.5883354444765437
  0.4159981039189499  0.4995688636922441  0.0796505850678924
  0.9935297990225546  0.8319978440624550  0.5031161786968030
  0.4147562535176473  0.3302334701632054  0.2483830309566584
  0.5808548676833853  0.7487620664189506  0.9978623805912595
  0.7467787108455175  0.3321917992396028  0.0788314519145146
  0.6705736692559146  0.4146037038022664  0.4200799973512033
  0.4147705040667653  0.2491995232163193  0.3316672417845365
  0.1695378648226084  0.4144565543952565  0.4165793452443926
  0.6630856444567730  0.0879090840618620  0.5915303650548670
  0.9193444421814648  0.0004284112886101  0.4167559091898339
  0.4931400261236925  0.9176755174316817  0.4132078889770782
  0.0771940293123607  0.0033184276839682  0.4188339117055925
  0.5806596607240574  0.4165169780738959  0.1565381548878768
  0.2514851195192012  0.8359063257526224  0.4168735099231194
  0.5823481353634825  0.5049763799666087  0.4181358085233601
  0.4921995450135716  0.4144276846701025  0.4161927383628298
  0.3327607801609637  0.3336902051644868  0.5007025895347694
  0.2483801297802623  0.8348289764670693  0.2520355887288203
  0.1671213801867365  0.1668556365451088  0.9988611076415486
  0.0841120384811624  0.1686724892147718  0.0765539970798550
  0.9125358049056862  0.2504511077576815  0.1607601305043679
  0.9136016372072294  0.5805083827528347  0.5027146928872610
  0.4979969711791314  0.1681271818901122  0.6767970450525049
  0.3347224910470795  0.1664194295553847  0.8336336712621841
  0.3336000378303702  0.9992901366442688  0.8345666572030911
  0.6743085362897935  0.4147371951663641  0.2460240489442089
  0.2516808194764359  0.8367915618042736  0.0744264941843091
  0.9094140405317259  0.4143425772970716  0.1654378729162245
  0.4966865877389006  0.7491770191036714  0.5856281845396504
  0.3324902865744692  0.1694626271849525  0.5011490677154291
  0.1718907271150634  0.8350979081230514  0.4984833136844782
  0.5843220738754970  0.1664584343765760  0.5888861577145453
  0.2524555889934220  0.5799846767123141  0.6696045096679993
  0.1628201230697127  0.8345545436119839  0.1640401153698485
  0.4146013386421561  0.1667318239822118  0.7530712359369826
  0.4995866465444220  0.6674832836256240  0.9969887766654340
  0.1775402894414892  0.6671829991526436  0.9993207527888405
  0.3327590710542783  0.5000506745912376  0.6694747901321968
  0.0845474560733053  0.6634507736987116  0.4105032849796271
  0.3260727602787102  0.6648107531123257  0.3308956062056114
  0.3329112246672924  0.5829783775755755  0.9160258586550204
  0.5865359975410576  0.4139852345148304  0.3324483266539027
  0.4154165914362187  0.4154308120007206  0.9988783130453218
  0.2487686847276282  0.6670902126535065  0.0806385336437306
  0.3306580976499174  0.6642328281754282  0.5081517348845787
  0.6639511008508908  0.1670186516544590  0.9971961377328129
  0.1675664172079162  0.0843291448369076  0.5865380353034559
  0.1699911932010977  0.2504492240396122  0.5873336969707295
  0.5804715341551371  0.4164631894980634  0.9992593704371429
  0.7454082521237572  0.4978867336764578  0.5869335813222983
  0.3411408525301497  0.8352536853316969  0.1638774397539906
  0.4063268840512608  0.1677192734330084  0.5855302388474424
  0.4987859233261628  0.0830774483859573  0.9159744094731672
  0.5810841803479818  0.0923238555660881  0.5014753408881452
  0.5807019508923246  0.9179930401711439  0.1642450074179416
  0.2517067870807720  0.1667390693066691  0.2468667073174766
  0.2539464439592576  0.9188020077810618  0.5018541374139877
  0.1663077246435880  0.7487902752224587  0.2504189675278068
  0.3336364791835734  0.3329868812354940  0.9990123948670141
  0.9990019730692844  0.2487539259443601  0.7539256671168497
  0.5803809999420818  0.9172933119891121  0.9978156686650433
  0.5816824148717176  0.1664685054877680  0.7532255597316161
  0.4902949498018753  0.0038420181114948  0.5019341164809330
  0.4151032133862650  0.3352800968293500  0.7531686344655723
  0.4994162284377767  0.2499164461963162  0.9151083128930910
  0.5798571612462052  0.2499399905647325  0.8344252440868387
  0.4104075937080539  0.4997843153774721  0.2496044734270045
  0.5806162961405326  0.9169641174317215  0.8343410848396676
  0.4978758768670469  0.2496555752930399  0.0809838710848512
  0.6642400459606090  0.9990535750750809  0.8332220017740840
  0.7447170994000712  0.2478398915047490  0.1612681388282460
  0.4178235740277114  0.6658391988730750  0.4215448284871032
  0.3313904541902178  0.0016346763890069  0.5013859807030923
  0.0847749707963523  0.4879926453400673  0.5864062432830933
  0.8288583851703770  0.4978307620712046  0.1642580646273246
  0.4168002138169745  0.6645958463295730  0.2434562340965253
  0.7461277000924256  0.2492937573489219  0.8339259322396531
  0.1750335343225814  0.5810480749447764  0.5870770973373295
  0.9989425117720637  0.0013757316242052  0.8338948615605739
  0.9138293023630116  0.9153737195378733  0.9955800616488545
  0.1663226998850961  0.1682221802309758  0.8329448160958294
  0.3319583215646151  0.9999348360377556  0.6720292612046271
  0.0849621424711882  0.2497677928348733  0.9972510360754129
  0.1685443799104230  0.0025538815122548  0.1630855766889473
  0.0916116060067930  0.1722198044667745  0.4170020610286370
  0.9140113204944381  0.1784399302488662  0.4175196083178891
  0.9990551504235968  0.4108871092239594  0.4185509271693631
  0.8310685557060002  0.2500746451530566  0.7517844186847604
  0.9126374663414276  0.4969797752365967  0.7572928092322352
  0.9990368957397251  0.4948446684542308  0.1669118659839660
  0.0004163847300634  0.3219269382160825  0.1629395493830642
  0.2573398531392598  0.8343077497674215  0.5866761690938640
  0.5836338073748042  0.6667462831987764  0.4192173613955620
  0.8300011407042935  0.9121879848796381  0.2416190811298299
  0.0020522443902159  0.2585744271217993  0.4181850964516224
  0.0841835036973080  0.7586655315277154  0.9960390922964846
  0.8312010383408959  0.0824454988160073  0.9168384423891438
  0.8333675967622433  0.9153824891378791  0.5985804388071837
  0.9136703579429384  0.8354374840560098  0.9131917079517426
  0.9154541541215294  0.8337828454867094  0.7527968396562873
  0.9149070890929965  0.4972310083589437  0.5792743800968375
  0.0035934762022743  0.6633821659678524  0.3349986545149463
  0.9987774149831891  0.6699534699527201  0.1710951971626968
  0.9989486567809113  0.5768924755205025  0.0768361338247499
  0.6653011441520558  0.5841722589611141  0.0797819735324228
  0.6645746286370954  0.7463476693549098  0.5880768027397203
  0.6703497580224438  0.9132406931636285  0.4165077311581578
  0.9114876489447473  0.6639567646470116  0.4276984590996550
  0.4994586182370223  0.7503242435682127  0.9184075968642594
  0.0842135336803451  0.3317660323533534  0.9159826029873823
  0.2413722000298599  0.6625266625843661  0.4183430298253130
  0.7481666439842207  0.6665873592023303  0.4184485333557438
  0.8275869292588521  0.4131770953089274  0.4261449310325812
  0.8308376014778047  0.8245834465902750  0.5058801546651378
  0.9149880089173379  0.4069738270628754  0.3345905734408380
  0.9987926817753618  0.0028536297480588  0.1540312370016823
  0.0046209059593502  0.0924698204111063  0.2461644697020514
  0.1688773473176836  0.0048763473584947  0.3280721486150280
  0.9139644576189597  0.7584829688119782  0.9954531896638810
  0.9128401882910975  0.5818795573464540  0.8326639744865421
  0.1749901264637054  0.6647440829882550  0.5034508624882904
  0.9129576678642274  0.4982087632604180  0.9135805067568011
  0.7469285310048661  0.4167731459425751  0.8321269004965913
  0.0849466675373039  0.5823454543504778  0.6779811210394396
  0.9139199274719533  0.4102650935023976  0.6703149066798058
  0.9169408407326376  0.0847873821220756  0.1524045477022843
  0.8289935488907987  0.6645738480371970  0.5052806802531790
  0.1675972926728599  0.4150486068095250  0.5862761367386115
  0.5790552775879373  0.0883564368018341  0.3305523070830568
  0.0002945777930412  0.8332244688677021  0.3384500888247531
  0.9997989619670697  0.9186034181173481  0.2475181189155272
  0.9125635282463582  0.0878947805158078  0.3310592637448310
  0.8305546986664080  0.1701195119634618  0.6717564795179857
  0.7458696914117953  0.8349390026750604  0.9155617174027886
  0.9089152399523943  0.6667106527342490  0.0862843949588142
  0.9136714068852381  0.6645177918541434  0.5846617303541636
  0.8282203897317630  0.9127413530009520  0.4191704536239781
  0.0832593055769780  0.7483602697733281  0.5011245154266858
  0.8289312031974724  0.6667534842485157  0.1625341510452848
  0.1689916685244660  0.0012743081233019  0.5058800557334320
  0.0011104963649206  0.0029803036158592  0.6701605251614275
  0.4980674162354739  0.8240671078559567  0.5047093830179338
  0.4162768229360119  0.7559862248050262  0.3311178589306659
  0.4163331647380600  0.8352328079516250  0.0810345775778424
  0.1699111086769262  0.0934713886794586  0.4172782335446625
  0.4163530269834601  0.8323841576069555  0.7528657000753258
  0.2509158255652706  0.9198665293405306  0.9991401987503664
  0.4954577345500631  0.9147983566417424  0.5943372924159231
  0.5812267795001852  0.3247862866712359  0.4167160240823001
  0.8295608475095181  0.0024976215334008  0.3312799757112664
  0.8247760037659151  0.0887248841179333  0.2470412011946197
  0.2488393598012539  0.4959536605259196  0.2498613768957683
  0.8213562009588922  0.6681580579272586  0.9966852481316198
  0.4969304592373153  0.1679654546512813  0.3311308394356393
  0.1677586212887753  0.2492044900290207  0.7538399304871095
  0.8242184316084151  0.6666622333555285  0.3331839741109047
  0.8366792037329676  0.0017039025098907  0.5114468108513169
  0.0011013089481152  0.8359147895590882  0.1608348826541920
  0.9142894647687476  0.0019050617185527  0.2449533161573666
  0.9124679211900908  0.6654681333185702  0.7525333826585873
  0.7458161493388977  0.1701607147473895  0.4173090333689343
  0.7410583864444873  0.9118931961566376  0.5031090305614300
  0.6637235760304120  0.7460339475799390  0.4173154951447485
  0.1683024818575396  0.9257725903191695  0.5880241208304595
  0.7365536921432182  0.0021185383830447  0.4161745507158482
  0.5826555169067842  0.9176170800645862  0.3245469000896223
  0.6614109884685958  0.0006404347913155  0.1623503406379550
  0.7448623148657167  0.8343729636715562  0.0813074378285930
  0.4987446915313233  0.8335361965508026  0.1648024898190563
  0.7372424172884522  0.4142901549768082  0.3343475273958071
  0.5002108562051528  0.9167224332150943  0.9167109739783157
  0.9136822247041293  0.0828942766252838  0.9970415915128671
  0.0930121651949249  0.8341553249087873  0.2486299947924070
  0.7476368238745625  0.9141165844870993  0.6686603119670952
  0.0883497779817525  0.6642888791344954  0.0871925606802827
  0.9981715759504847  0.8341791156476488  0.8321579255634781
  0.7441065839749745  0.6658292900560151  0.7519742501125996
  0.9142633503482274  0.2515091119955292  0.3345858876982255
  0.0834909143493788  0.0026654948796283  0.5889102600863100
  0.9148259431486448  0.2520555600465332  0.9937359065131935
  0.0890011766478771  0.5795239567093999  0.1648796552254200
  0.9122016755936450  0.5874993274500292  0.6694277018937090
  0.8274597132419635  0.4146899371231260  0.7532854649044671
  0.0045840456522056  0.4939969672741587  0.3369490979573413
  0.0847954765915127  0.6679434677777998  0.9074553255149880
  0.9134398235552316  0.5774344694809272  0.9970133533145922
  0.0832912501650085  0.8345986255250314  0.4102384978930321
  0.9113502290562854  0.5814972772597262  0.3339870141366387
  0.9100245149566697  0.4973256350268473  0.2412128157790079
  0.8336773089541081  0.0029673615115758  0.6691244150488485
  0.0859718373601092  0.3283342976392281  0.0802641270458236
  0.3337796046862504  0.0022617075265203  0.3310779839203659
  0.9091640288803615  0.5814300668818531  0.1646064582862976
  0.7488537745884826  0.0831383887122619  0.8346101427573565
  0.0833785409681727  0.6682158255757605  0.5903437906109952
  0.0848686697670346  0.5774905557949946  0.0017930698906267
  0.0818206411205104  0.7495215074224566  0.6704406413236151
  0.3343349659230682  0.0016515889776067  0.1643821326328322
  0.0812612874222052  0.8334979055720043  0.5909084940588730
  0.9154030280733395  0.1815698847579260  0.2479233753519214
  0.8308575836539075  0.0849715906181877  0.0765509402605197
  0.1667321098445929  0.9185896299075574  0.7541519235135538
  0.0058326525934208  0.0837097626133637  0.4182654817777234
  0.9142344539983250  0.4155096932884987  0.8332871569302109
  0.0848915111444871  0.4988340449806573  0.0801103530675567
  0.0889786850728868  0.2517079308345506  0.3316119836639258
  0.5762482013768817  0.0044761006791383  0.5020504536318127
  0.5849660134696429  0.4131032357045398  0.2439410696150120
  0.9163364738142832  0.4943696947576263  0.3328359753552766
  0.9141923962581775  0.0939979928471181  0.2405639450257774
  0.0860614197519016  0.5786887333026818  0.9103450743211169
  0.9996800564099481  0.5825855720095592  0.1696712371899586
  0.9991542497600283  0.4076076546497725  0.1636301264689666
  0.4949871180224274  0.1680435347941404  0.5869095428262072
  0.8338478133565742  0.9110971221332708  0.5101916629314386
  0.4176303319793406  0.6673416535676303  0.3314573280613670
  0.1661338993085991  0.0052969223835296  0.4162203772334922
  0.0849273069843771  0.6611227479493231  0.4988744848404150
  0.0853562380519526  0.5766024567147056  0.5904711854030749
  0.4974977077207405  0.5022452181475183  0.2456748739769838
  0.8235054486332298  0.0004398643764942  0.2398949673552701
  0.8278236622555332  0.0038777257565562  0.4204445450874812
  0.9989431232515869  0.6705283615316460  0.0840250740123084
  0.9160830556605503  0.0890241147490936  0.4216700407122473
  0.3287826054121047  0.6656420331710794  0.4208962492465776
  0.0809576787201177  0.8371634429486691  0.4992724337637536
  0.9157254225484152  0.4987242466928181  0.6677607804942580
  0.1704159056330304  0.8364799223589688  0.5892567282802275
  0.4928306709856923  0.9123136731786283  0.5048121790598610
  0.2521227921254428  0.8357496525798370  0.1634465192583103
  0.5821386287128818  0.9144330369032477  0.4122932309884865
  0.5812449786867954  0.4150812670636244  0.4218926860020827
  0.8248183358103781  0.4107853168970561  0.3368485893739220
  0.7490483973254423  0.0038004534641257  0.5080376637175028
  0.9079290669365591  0.6680494295789139  0.9936740897512919
  0.0049023310997134  0.0052565637400622  0.2425448910912447
  0.0892022308163385  0.6699504269078094  0.9968993924430801
  0.8302574878961764  0.9110843067903794  0.3296937768587217
  0.0043917736805915  0.1725159213543567  0.4233092054121863
  0.0024704661683655  0.8303546103711871  0.2493955406083979
  0.9144413921136836  0.6689376333925272  0.3380246253167314
  0.9988045585593792  0.8324704544540140  0.6713021477386319
  0.6631053868693237  0.8341827408155630  0.9981778426826277
  0.5802377290894879  0.4166420543473461  0.6682701181811852
  0.5818935749129790  0.5836133162106862  0.5029497646800064
  0.6633855469098193  0.9169998927647919  0.9158364707579186
  0.9147014157343168  0.9176577945425325  0.8325489465959587
  0.6633984030130796  0.8306599333029253  0.3308656620828857
  0.7450036473582835  0.8281788853026859  0.4184968891343940
  0.6624331660640836  0.9164351335368520  0.2455231357733000
  0.2506733082814191  0.9186086071677977  0.3311633068584526
  0.6639281018105083  0.8285808101344798  0.5043405634375326
  0.7462798800366488  0.9158969798475122  0.9982549737308374
  0.0825695260003537  0.8347557996160361  0.7525993467777125
  0.9992163623990713  0.9180786247213867  0.7527386898026119
  0.2508329375676083  0.0835383950166878  0.1634302138228206
  0.0861897688490825  0.1683751182537492  0.5885798289326203
  0.7468264618234238  0.7480697192131096  0.6701297008325835
  0.3331177481149589  0.9178541157864972  0.4142101824668041
  0.6633955364965375  0.6661583252847501  0.8334568815763420
  0.6656094741322932  0.5022285842215202  0.3340932344296644
  0.7454543464482308  0.7522199135324258  0.9981886443615630
  0.1686277796113263  0.2492716373353360  0.9159506501167184
  0.7463154843439546  0.7506335110474091  0.1632593301978892
  0.7460741792987378  0.5003291819774132  0.4198983653947597
  0.6619143503432607  0.8342021024643388  0.1634053576648629
  0.7466403176908651  0.6668710853324096  0.2477378661655718
  0.1683336397153208  0.0869253206871304  0.2464991632403311
  0.6650385962775140  0.5820132433803695  0.5860837517997901
  0.2508870344056585  0.0022698876686912  0.0794605230388597
  0.6634254027434324  0.6653293046212246  0.6696164597132745
  0.1677635354581542  0.0841202513448361  0.0797544255880423
  0.2514132190739639  0.0867815867448384  0.3309380397045406
  0.1670227383943353  0.0009486331498136  0.9967794475601218
  0.7467723516435965  0.5828026595105953  0.5034116699035766
  0.9143132255748080  0.7475696087912186  0.6706893133908284
  0.8321537774822867  0.0870272680113462  0.5900866589630145
  0.9991229068195937  0.7525248601597173  0.9126445727771217
  0.7473717607707910  0.0920208420853684  0.5050486365395522
  0.6639550321085871  0.9152355151404231  0.5893833048078426
  0.6637313789632078  0.8335563734981397  0.8339890924422602
  0.4173654302356964  0.9176353854686478  0.9981297433554075
  0.8303405225410813  0.9166231414918469  0.9146836845671060
  0.9149082555275878  0.0002380547923984  0.9155677410289770
  0.8305861963993841  0.9991681368785756  0.9973063226741200
  0.7467984702185301  0.1669373729354867  0.0786505883593593
  0.9152864453911571  0.9987545882482491  0.0767347467792225
  0.9141131734129120  0.7555376467103833  0.3338907641490310
  0.0860055944371100  0.9194800718716818  0.1632002717084270
  0.0910415606803815  0.0033407362997984  0.2469064606658587
  0.0812708810511255  0.9242184611283565  0.5034941151311186
  0.7455164792371488  0.8303688198951434  0.5882377767328877
  0.8300962972289728  0.8338460668378123  0.8319884239259391
  0.8316014724139346  0.0009301219175916  0.1540991484875758
  0.9160018032925401  0.0863848837598614  0.5103346453332263
  0.7476562194464946  0.1675518231658414  0.7538254246814823
  0.7455685400409122  0.4987243434812478  0.9157782558794504
  0.6639652382183705  0.4992084452330357  0.9982389567087017
  0.1673933758089332  0.0843974442824924  0.7543097345010844
  0.6644001035622966  0.6665325417479910  0.1629494595339745
  0.1670170752660368  0.0845063000683710  0.9149365867647034
  0.8268137439029692  0.3240241382661966  0.3334975776963875
  0.7474093937139676  0.5838709464551639  0.1633858026348997
  0.9181014749930014  0.0027397815718743  0.5911438754582816
  0.0004181499464237  0.0038418143233318  0.5058715939188871
  0.1674134137830377  0.8345711861650278  0.8330356189986786
  0.9160178569653913  0.0020569786658310  0.7521212007846234
  0.9150235292689800  0.0837703852454067  0.8342381986756799
  0.4157688397738009  0.9172091161546345  0.3316495070317895
  0.7484845998525250  0.0000475807697811  0.7499908824958965
  0.9985637996625170  0.6672623219994985  0.8311664437111920
  0.0827867815481402  0.0844046028147638  0.8336278172915855
  0.3339208561962393  0.7493198730662207  0.7525597051270752
  0.0003220903852546  0.0863213930380094  0.0766829125380185
  0.7447692615515062  0.6664276918526558  0.9152496008420724
  0.6637925919381381  0.1685551576387503  0.6728988067799788
  0.5804563831679297  0.6659034991580859  0.5862922881948260
  0.7459900067254012  0.5825028768730810  0.6688974629106236
  0.0844233526460964  0.0868817959444698  0.5047534557062145
  0.6646947515321675  0.6669540309797058  0.9982576202350526
  0.6638516633567083  0.4992663226182932  0.6688855441082621
  0.6637190651028286  0.5825657542983146  0.7517108677936457
  0.6626441953940700  0.4993604178008021  0.8343952640917464
  0.5808349213575805  0.1662324764665075  0.0800237739562361
  0.2513178416885891  0.0862153035309696  0.5030173216337436
  0.5810474443463427  0.4999965145088301  0.9173541541829924
  0.6640983474002038  0.4998096158809078  0.5038520235664636
  0.0825185966767875  0.0013417193306495  0.9146111248084988
  0.8292852568372422  0.4143489529141364  0.5861347769210493
  0.7465732981465631  0.4158821878975504  0.6693193498402930
  0.0837186602364134  0.7518373586167308  0.8324961690613394
  0.0851092999419325  0.0860837989031300  0.6715504176579602
  0.7462674207592477  0.3322471141649358  0.7527700210698626
  0.6642937080786787  0.4154593511398821  0.5872232149349251
  0.0823904126018067  0.9191266545785182  0.8330143019739537
  0.5811613391533087  0.3334819719240592  0.9163512178473477
  0.3326439011562644  0.5829086886302312  0.0822312168229944
  0.6640257533199239  0.7508780406884423  0.9159387107935002
  0.4166312540316019  0.5005083705424206  0.7516150573914345
  0.5807859604349548  0.0838976151028802  0.9984675955573366
  0.1706429066060650  0.6669984102149067  0.8323593524613893
  0.0852793914409243  0.4125403736430807  0.6709656543430770
  0.7472924820452862  0.0830223129402702  0.9971505539350261
  0.6619641366684285  0.0865796079101170  0.2465039712745211
  0.6638978261985878  0.0840927819980046  0.0797932524870348
  0.7449632728029943  0.9167511900416796  0.1622200307780746
  0.7456787094088519  0.0004003221528845  0.0796334431487778
  0.6624077340013809  0.0037267269563528  0.3300520627711557
  0.2512009654713740  0.2511393654922975  0.6701936285702582
  0.7450545860977769  0.8321018900425151  0.2457661680289399
  0.7449724735263279  0.0884280251539301  0.3323123394656713
  0.4062590623015642  0.9173708605600791  0.5018565634047530
  0.7465919748823128  0.7477866910503755  0.5037957674944847
  0.1680412868649054  0.1679751822987331  0.1625989692543374
  0.6639551512294732  0.7512732067560134  0.0811871331720603
  0.7378291764789460  0.0023494552678510  0.2464388901844898
  0.0004649608668844  0.9165540010818699  0.0789612943142011
  0.9953292052507137  0.6642934159238040  0.5025872309966448
  0.6631703729609607  0.8311708649978217  0.6697287776156186
  0.0843923777299793  0.9201382898626148  0.3324228050040169
  0.9989776900105460  0.7482903716664255  0.4181523957016090
  0.9997265359464499  0.9183166283639641  0.4170371379782002
  0.8284402901617552  0.7503463551914182  0.2464026962499019
  0.7450817940744704  0.7483069568594890  0.3320578645751586
  0.2513798146176179  0.0027239457544197  0.5873432790251593
  0.6641029480606988  0.6657987355726812  0.3331665195605197
  0.5811912728301596  0.2487247622835611  0.1618881596047520
  0.0861461048340237  0.1701836444303311  0.2465516886157816
  0.4159966550043575  0.7498191748838712  0.1644445751013427
  0.8300681835867725  0.7485204084697310  0.4204682849150458
  0.7465710866773341  0.6660024971137317  0.5867428999125358
  0.5810940988268716  0.1660390460075069  0.9156744677089215
  0.4156825992268169  0.2484927198543120  0.9981144853586242
  0.7468614952778143  0.2501385670404650  0.6708061822826189
  0.6644571155590447  0.1665416839398186  0.8349386000991603
  0.2508205420039707  0.1659800946889927  0.0801179997836243
  0.7476067595036525  0.1660590178204939  0.9158625642028382
  0.8301226720947925  0.0004448315039070  0.8339301815063479
  0.1700911196201396  0.2498942970192026  0.0800573453655039
  0.6650152074429783  0.3306577282245556  0.1615366953966486
  0.6635976563090169  0.2493563814090458  0.0791410805552066
  0.7460745996278431  0.3328905565307049  0.9150308885515434
  0.2507522547412137  0.1665763243614971  0.9151324919091001
  0.5794817719936934  0.2483482801472108  0.3319979660744217
  0.2504173181527114  0.0013402897795539  0.9152524793148931
  0.7463750218312712  0.5016297114677842  0.2470218321268365
  0.2515884287148699  0.1692597648699217  0.4168755013488766
  0.6647677047282021  0.3280026890642915  0.3328647790053396
  0.4963777494062758  0.2558484898484785  0.5879106510215475
  0.2508328136134428  0.2511685822538522  0.5024385781020384
  0.9141695716449343  0.3309659730159310  0.4208935153856706
  0.2515128961895851  0.4151716562310110  0.8344049229868429
  0.0854648538095044  0.3331925850733389  0.5869209124189950
  0.4983022637869104  0.5002874444170441  0.9997847053790193
  0.9147468114831065  0.8325172731173399  0.4183892317533934
  0.9222761221820653  0.9184308842444778  0.5034135199091347
  0.0843396485192349  0.8365768238759164  0.0806026341568521
  0.7476301549962141  0.4149589443113876  0.1608939184304192
  0.9967109481466331  0.5828268117773949  0.7521030905119648
  0.8299807397403651  0.3324930425161149  0.6702659787429553
  0.0837749597152488  0.2498619085160356  0.8347317998225083
  0.2507192755084576  0.4953049186800782  0.4181265138048354
  0.6647913540744161  0.6652135462112783  0.5028734524260383
  0.7457713330582794  0.4143835316832872  0.5052303247613618
  0.8283722998847346  0.5819770789028714  0.7518471849496323
  0.2512596620692079  0.6656653091709842  0.5881489954434036
  0.8276535911686643  0.6656637347596076  0.8326772868370450
  0.8284441406993845  0.5001796009008236  0.8346181158037527
  0.0848218065234262  0.4129957152559915  0.5009323186659551
  0.0854424449555073  0.6641919116906605  0.2505838732448945
  0.9144867409114028  0.6666180534814274  0.9073814097963906
  0.9995973571373762  0.5788681862428973  0.4188604552047553
  0.0006228127932826  0.3320733167885708  0.5041145904245069
  0.0834587918014822  0.8356782829561414  0.9134993897192203
  0.8299995228955497  0.7482167220361932  0.7522433366525595
  0.8288774896654835  0.8342845023164163  0.9969521641094846
  0.8290312765835213  0.5813951036511955  0.5862871683204783
  0.9127315601895744  0.7511717427965509  0.1648421297186744
  0.0852513853770867  0.4946998217449909  0.2504162215983531
  0.8302256731519140  0.3329218375271111  0.9962222475250680
  0.8313767487748278  0.4145686788411345  0.0792365058749454
  0.9133629230984873  0.3309385646250014  0.0782775361202800
  0.9140391759230887  0.4153301578089071  0.9954003359558761
  0.8290816353663635  0.3311149741779121  0.1626945184411737
  0.7454676243725612  0.3287634143710038  0.2457519161730397
  0.9137135764199782  0.3284748486938075  0.2475248537131347
  0.0854021141644749  0.4144000486489194  0.9983925839093092
  0.9142856556272502  0.4127364504467991  0.5031125702760025
  0.8279835527364389  0.5839145650472911  0.2480533888360382
  0.7466206393218393  0.2492762390498437  0.5052453809915178
  0.4973162212707811  0.9993386236933562  0.6712452820236827
  0.6631243881964347  0.3333711969369037  0.9975603494035379
  0.4974521424128420  0.0831724427768536  0.7528478666178621
  0.1672610100088406  0.4953408654336471  0.3334949650003956