Cr N  Ni
 1.0000000000000000
    21.1670884827563590    0.0000000000000000    0.0000000000000000
     0.0000000000000000   21.1670884827563590    0.0000000000000000
     0.0000000000000000    0.0000000000000000   21.1670884827563590
 Cr  N   Ni 
 259  35 605
Direct
  0.4156972862453060 -0.0037445880697305  0.7441146880846548
  0.2508880931791632  0.4153601382083076 -0.0067833667467930
  0.4984913011353448  0.3315953597831807  0.0038535840837806
  0.0825720743499557  0.3368114721568203  0.0799846942413505
  0.3322106219185954  0.7496000971540964  0.2464770159074553
 -0.0018198384834474  0.4204305419351491  0.9126315967483249
  0.4976178399336331  0.6659132235140742  0.6644443303920995
  0.5802986310908503  0.6687177955311403  0.4145508449185156
  0.6622571700879332  0.5846504569001495  0.5811414953838047
  0.4972906453417970  0.8330688259687534  0.8329250009779243
  0.6623792904377589  0.6659340141848885  0.8332910250405230
  0.5819369354914904 -0.0060236940664375  0.5813187326653392
  0.4165661731684789  0.3321181758299331  0.2478964591844677
  0.0803294419866667  0.4162118138680068  0.1560737260535897
  0.4967607664495644  0.8307942874731867  0.4989450692536522
  0.4173125756051674  0.5855277697243129  0.3285101831645602
  0.4168492954627008  0.5860147630571607  0.0056414403622138
  0.6647640697481638  0.5853450242614963  0.0807877627731843
  0.5855698355646128  0.3346424256389909  0.9160669501415527
  0.6629938331182043  0.5845228881800745  0.9161276340292800
  0.4102319919849006  0.3316458798825184  0.9142920078674599
  0.5000485745747882  0.6680076596089271  0.1653712930115593
  0.5077302297960528  0.5849304191158656  0.4157163540218654
  0.4143756848897319  0.5021005338893338  0.2503466196355725
  0.4999518798605326  0.5009585139093514  0.1654477278950877
  0.3316562745708138  0.4170658602144574  0.7486206742397764
  0.3321554715788334  0.5829996585818185  0.7468380196584353
  0.4974954808194557  0.5005243227092258  0.6651549163788596
  0.9174926065040736  0.0778659776916393  0.3287601814616131
  0.6638821195598306  0.9156996318837454  0.9158490495838393
  0.6624938471228604  0.9137244123175622  0.5832346121541850
  0.1670233246547794  0.2579339061383235  0.5843528348112339
  0.5811847005419798  0.5830106903733934  0.4996040409493267
  0.7482585710815487  0.1563427533684393  0.9146476586534421
  0.9125162939274191 -0.0024446756836202  0.0781454909092393
  0.6617653830252892  0.0794084447194201  0.4179397544837538
  0.6589559220994129  0.2456926216058849  0.0818681443551326
  0.6694429020072024  0.2474073130522689  0.2479040905164937
  0.7463034804074686  0.4251936617447851  0.8298542837352830
  0.6621375007847492  0.4180473371664436  0.5836040278983075
 -0.0028873441669996  0.3335859836704535  0.5102949717751227
  0.0799238261255734  0.1743391082893920  0.4179608066538316
  0.6655152406817709  0.4158822575142652  0.0776560642321522
  0.6633336678317862  0.4176030144399899  0.4161866443132368
  0.6635916659742975  0.5855952134393153  0.7515717858146603
  0.5828050365683589  0.8315638779227252  0.0816716735023779
  0.5807529977741041  0.4185381079165824  0.0002449882637307
  0.2517521705558724  0.0822307213901601  0.1650586987494671
  0.1727441572412268  0.0839312629785817  0.2425199929923389
  0.0817857934586048 -0.0021922881312890  0.0717730010853275
  0.2605593032015130 -0.0056863124909021  0.4159118704177107
  0.8314812326960543  0.2482472378409133  0.5958213206832736
  0.7480167642226802  0.2474388247910139  0.8223863905632453
  0.9132819693318410  0.2463251385768933  0.8283236548356184
  0.6642039993457128  0.8310836114142395  0.3298177266359347
  0.5821412274408173 -0.0026993599510607  0.7489255577554704
  0.1688288678986656  0.5840837457485230  0.4155766473571501
  0.7483607630250074  0.0774855193334742  0.1648642788454769
  0.5804674274676949  0.1587496981004294  0.2461918357026962
  0.2528858658129771  0.2489422723981077  0.1653318494332324
  0.7472629295029966  0.3354769758068104  0.9172109883643779
  0.5819300001203637  0.5843935796479306 -0.0008625636308009
  0.8299514808399953  0.5005579433839332 -0.0015892843912705
  0.2516300118096160  0.4166488855691961  0.6670279918461229
  0.7476626342198107  0.1635560729015852  0.7476093875905491
  0.2503695202482684  0.1667014040248541  0.5842975771841168
  0.0788063010170453 -0.0055799688651393  0.4177418656590252
  0.2497231238708092  0.5852521245842600  0.1651771180572634
  0.2478412669094342  0.9129156523007640  0.0028117979405942
  0.7469548755963498  0.0795627542250502  0.5067997218833570
  0.2480498732816812  0.0837102063841715 -0.0036170645513317
  0.7407223012696975  0.2494229777223393  0.5070539557897182
  0.2522747983613031 -0.0049271776296397  0.2456411910971112
  0.4139773016903339  0.4943431711404948  0.4143325640024995
  0.2509024445363862  0.4167100127495669  0.1691161910125640
  0.4981851578345584  0.3336138251779898  0.6657019039297665
  0.4158802061501203  0.3350185376977072  0.4173993260071808
  0.3338003633023495  0.2540977853817931  0.5830257661474928
  0.3319181870548209  0.7485234770089298  0.0825981159435952
  0.3337071299119588  0.2500357916470027  0.7511321250762411
  0.2503645437268150 -0.0027544219725751  0.7507639100496326
  0.7525231629648347  0.4167643233007021  0.1656974743188708
  0.3336706177726414 -0.0045062028179670  0.3302532122921323
  0.1658449516554049  0.8313727343917310  0.4996315246702154
  0.3397815696393439  0.4162789231705940  0.0823492835147465
  0.4162448725871528  0.6727493199984468  0.9148549356263005
  0.0833625051003076  0.3271597872883326  0.2478260555797040
  0.0793570184055379  0.0812887134161449  0.3311358543641894
  0.3324179420428503  0.7494119578761470  0.5835283222350796
  0.2495507505561050  0.5844079963971018  0.5003183306183470
  0.4979327700276461  0.4988948559012503  0.8314025282771941
  0.4160049356878237  0.5839683025604261  0.5058284863544191
  0.0824614391597499  0.7470823671400163  0.8322915227064371
  0.3315983030801836  0.7483120469735975  0.7474122689797500
  0.3244634180967754  0.5852173668877357  0.9144480607110860
  0.2485489765055804  0.1656955805687243  0.7507702934846889
  0.1656369928203532 -0.0018018982245370  0.6762595120127480
  0.3340704664857065  0.0770978071067858  0.5847957737388136
  0.3262874611095127 -0.0012666801347135  0.8308623130902589
  0.4145742785764894 -0.0034054478059975  0.9205895215284244
  0.1646374289088721  0.8297708340661035  0.6678623488827944
  0.4142286830584768  0.0793346796183604  0.1644362278421158
  0.6555388505940120  0.2480070723241664  0.4162603929817300
  0.4172257045794399  0.0879154726464717  0.8314986885081449
  0.4149724228007847  0.8299416807607487  0.9165676725135705
  0.4159929530472942  0.9142210146659362  0.1644732181043412
  0.2525671704715527  0.8296243461716977  0.2458205847572321
  0.5789631219505571  0.2491539162538488  0.3378991048443182
  0.4976576350221968  0.3337778708662625  0.4989403187846686
  0.3340310512014878  0.9138752327365780  0.5843656030350552
  0.4241422508056825  0.1659552776654265  0.5830452418411883
  0.1678818255236018  0.0844868048036944  0.4183860029437750
  0.5786638569313604  0.1657824748465377  0.5843382151183946
  0.6628139111697686  0.4163718088396087  0.2538847930371307
  0.1682090103227423  0.5018741848663445  0.3304341158802565
  0.3327636382781725  0.7486499681789039  0.9159512067022890
  0.3290743155833920  0.5853947941840083  0.4136938824245142
  0.7449056060306337  0.2490309754248358  0.6653329844197717
  0.7483349027702780 -0.0043339287458926  0.7489307117585262
  0.1663595961130468  0.6655408797942669  0.6659483844107762
  0.2510347329605828  0.4163271512410192  0.5009712213665967
  0.3326341028322993  0.5004933288487096  0.3309770185699922
  0.3329798199545429  0.7484425761612463  0.4150441277358471
  0.7476824964146055 -0.0131683488250768  0.4167807128492173
  0.4989702164500149  0.3324466035595691  0.8266716635340529
  0.5797920345273514  0.2473830308894623  0.1582425518026895
  0.4968470596609583  0.4173729063390142  0.0800855254349187
  0.7501758946892150  0.0769034121275406  0.3272695224302759
  0.1671916984693919  0.0836287623567254  0.5836795943032667
  0.5750999760967458  0.4153283297558652  0.1645716177168590
  0.3361739813620489  0.9133896384843153  0.9174535516536674
  0.4156878455369195  0.9131222615362636 -0.0018698186249632
  0.4169964065650331  0.0820140547146322 -0.0033188942841359
  0.5817962910942074 -0.0026022776968515  0.0812748569475342
  0.3323886334915225  0.6684814609035167  0.3308963277110380
  0.5797590557379665 -0.0041406126078649  0.2482539106579814
  0.4151240408980256  0.1665977296953106  0.4154159306202069
  0.5796276565934226 -0.0089862419246054  0.4165002690588035
  0.3321495840948981  0.9125781743157901  0.4150529372690032
  0.5810566855459834  0.1656348612608019  0.7484448439049687
  0.5811136746152461  0.1623169680910680  0.0836421102620566
  0.5793837567846142  0.3382302965538563  0.2508098448899535
  0.4152961524180314  0.4967587424992434  0.9136221907334585
  0.3321238816491652 -0.0022998648937216  0.1630369244546500
  0.8288050866103998  0.4184939897395548  0.5851845110498912
  0.8327178383150933  0.3344319177507287  0.3313250221901775
  0.9158472904021471  0.6657241204387375  0.7499223548078435
  0.8286591509559923  0.5852055270264744  0.5818597622384802
 -0.0008939884875722  0.5944644156795105  0.4158213071237499
  0.0846422215615398  0.4193285763376447  0.8376318594736656
  0.2510516462096042  0.4166416998772177  0.8305741628950963
  0.9091729084620979  0.3342267417347274  0.9129006689968517
 -0.0028352382022838  0.5025881600178802  0.5104725836953050
  0.2498164723139015  0.2480633157051824 -0.0045274935952166
 -0.0006833692797347  0.5832384810214880  0.7485645451313169
  0.9142465235919809  0.6667964714993011  0.9138595164205543
  0.9145256220853617  0.7484343208787014  0.8333743533508914
  0.8313218325496018  0.5846314031115034  0.7492513215997189
  0.1719770177578352  0.4161531575214527  0.2487160914223841
  0.7498971497679171  0.3390894825000178  0.0810674258274676
  0.7469214937589584  0.7506358025242491  0.5007855594292133
  0.9111984254554285  0.6664449878084292  0.2459443132281775
  0.2495376796967777  0.9136147480874253  0.8279819419051120
 -0.0032543493083483  0.8301345481588746  0.6677731855760208
  0.9128912994489609  0.7483022646184861  0.1638947525839507
 -0.0023089821836888  0.4188092670664724  0.4149923883817570
 -0.0005818192048295  0.4936101335198686 -0.0015988184306664
 -0.0071437695359214  0.4177011079943840  0.7473317375708420
  0.1676356412079517  0.5838104659050525  0.9151467164519167
  0.8301648007787354  0.8332098663914648 -0.0027003463074348
  0.8306424178768996  0.9126269251904651  0.2462919976688956
  0.8308747125140337  0.9131323427621542  0.4144581503462779
 -0.0010118187503589  0.0814525585015864  0.9135992344254341
  0.1688391443609683 -0.0059702352237708  0.3234029398092355
  0.0825092428591648 -0.0065689516049713  0.2482559444983714
  0.0845928245278538  0.5056504900020270  0.2484053366566757
  0.5809023254100908  0.5842088624522305  0.3313566665300825
  0.0872457830202164  0.5049881702603456  0.4171254527404180
 -0.0032085423780607  0.2427251278619236  0.4170931444372050
  0.8317262210362109 -0.0035081121857596  0.8331208800162366
 -0.0060974509897870  0.2437474147581978  0.9111290308048271
  0.9122224830656079  0.1636535043355715  0.0817818775710265
  0.0813169169551586  0.1738410631019945  0.2466472923867037
 -0.0091549039295029  0.0808389495659267  0.2457335930766970
  0.2528143236858797  0.1669211188671900  0.4168261155085041
  0.9227567125138808  0.1645959362278813  0.4177292147909894
  0.1653174269538943  0.1655004770084457  0.6752077700823842
  0.0809657786980426  0.1657540119322717  0.7499879077392866
  0.0823714162701509  0.3294479985877578  0.7489532042577383
 -0.0005989372121822  0.8303531109880397 -0.0010857569753224
  0.0747557628335857 -0.0050194261806380  0.5860938198255510
  0.7467441252720843  0.7490987303960805  0.6588588682549087
  0.0813229031553101  0.0852668568059361  0.1550596475791065
  0.4148873278192287  0.9091455992997157  0.8327444888603586
  0.7472177692215557  0.6602941712050302  0.7484888088380444
  0.8332722262672602  0.9140647058506829  0.5850133342534910
  0.0862639320707839  0.4182466675491396  0.3324130464069749
  0.9135318054378258  0.8374002208801714  0.4154141873391231
  0.0855453861813517  0.3292092321928932  0.4174381274698214
  0.8312422132263425  0.5001028227828581  0.8308841842837353
  0.9068200560966582  0.3366989329814568  0.4158136533734774
 -0.0086732147406333  0.4170647323341872  0.2482512390746228
  0.7459630267681286  0.6660950565003889  0.5829143797798583
  0.0815051097961255  0.8297045226990830  0.0770286841299856
  0.4981392355978508  0.8316918150768766  0.6659345222355274
  0.6633886999690111  0.7491281478813709  0.5820660356074556
  0.0817939845955190  0.8331089289076131  0.2453591877254589
  0.6633582995657603 -0.0056470035435205  0.5030991808269266
  0.6643605605327005  0.7485268169582278  0.9132101743261103
  0.0806985742914961  0.9144883041904863  0.8325096194966805
  0.0835767808661762  0.5068280042657302  0.7469994528053182
  0.6649493548627911  0.8313185732255256  0.4992184030271802
  0.1677803177356879 -0.0045171737423355  0.5018865666103652
  0.9117281096369894  0.6617769956475873  0.4147384206346322
  0.6650750100665175  0.5853769769474519  0.2497609122182630
  0.4994825944833835  0.7506767693151376  0.2465566692292587
  0.1650111181504536  0.9030058700703097  0.4163866042717346
  0.8299561836103081  0.5025046934074084  0.3319079045321495
 -0.0036805188734345  0.8317073151412392  0.1622929262437104
  0.8313097311626336 -0.0021154425544075 -0.0021430874130864
  0.7472182311062300  0.7477864932228581  0.8376345848691324
  0.7454715125605911  0.5852388641737699  0.5001560209157211
  0.4983657229060869  0.6680505155792710  0.8317309517179546
  0.7471427452185253  0.7495253508184225  0.1640838602839457
  0.6583796937843386  0.7470302312071234  0.7509605330697229
  0.0826564275813611  0.1618207281614879  0.0776835191241431
  0.0815751188408968  0.8312352393502286  0.4170559618171878
  0.0824463127519403  0.5821982465557349  0.8307348487564614
  0.8305009183008583  0.6671359939390488 -0.0016666980389968
  0.8318272720544047  0.1591892166424023  0.5072305641087220
  0.7488403290229162  0.2488651988561566  0.1735855636745018
  0.8318461608665201  0.0802069376417042  0.5858975467943403
  0.0861936075697966  0.3355061517171422  0.9119833900943263
 -0.0022624168150285  0.6686297707560762 -0.0037812773855901
  0.4895827642606958  0.2480702590002685  0.2485725327369574
  0.7474504032389548  0.0806717726179188 -0.0021343940951465
  0.8333495289155382  0.2541341805332383  0.4171944297593012
  0.8374401163764628  0.2474460434227605  0.0817024487475878
  0.8289811343613299  0.5017112250584110  0.1658961014593683
  0.0828138926889497  0.6600881516704346  0.2464497647851491
  0.9071607665670645  0.5024131527976173  0.4171170074142522
  0.7445000445025082  0.1643149911527466  0.4172108805363380
  0.9110678166613249  0.3338293112724388  0.0829613651066464
  0.7481129177699805  0.2456146927355328 -0.0018339625649566
  0.7484766480655454  0.8373966521702256  0.7493106104074095
  0.8343035097907722  0.1603363067934956  0.3258824229494756
  0.7471201612772442  0.8312322685945333  0.0810139941085494
  0.1672325336712325  0.6661226248603053  0.5002590748861444
  0.0868309062364601  0.6650191962304671  0.4186653302317851
  0.8409100149936997  0.2479655052048985  0.9127185536361363
  0.8313538214032870  0.9149435086469166  0.9143180797423826
 -0.0011920309595825  0.5853012362654332  0.5823310928635492
  0.9152390190882737  0.9151424001961731  0.8333956722732682
  0.6640785673227522 -0.0015300299042427  0.8308785530214355
  0.8335360807115099 -0.0058801851712639  0.3288196426974097
  0.8403837263165364  0.0723469252202162  0.4126348043570431
 -0.0114472632397993  0.0805876848761339  0.4155175199636725
 -0.0032063279898743  0.5841009103102097  0.0871640016554601
  0.9159214408357350  0.7492416162610014  0.5043090610569047
  0.9958239477676614  0.5078656564007047  0.4193439882443965
  0.4126333301267857  0.5844346713124240  0.9168198641391071
  0.9952378408776927  0.3298978686583230  0.4194937023166114
  0.5748606941150857  0.0779346316488732  0.4160284613359710
  0.7479551053896364  0.7493901998809170  0.7482003265735183
  0.9137670725885738  0.7494399087867739  0.4153426251739447
  0.4181234981430340  0.5836951793003179  0.4175921702227728
  0.1701340257798990 -0.0081240832947168  0.4133965985849142
  0.8353359969749240  0.1629441258329332  0.4152512370841351
  0.9995971252131343  0.5811546210650281 -0.0012301846479275
  0.1611785986903577  0.1718715952303881  0.5856284610007633
  0.7481200135179480  0.2483676759518150  0.0866110839938533
  0.0821116044284317 -0.0046742019309685  0.1579070909852403
  0.7507473597379990  0.0737887425659616  0.4170171801419784
  0.1644047665461681 -0.0048076071948938  0.5898233170848387
  0.2518988458036923  0.4170723193649377  0.0807461577045263
  0.3380569900197289  0.1655254573538290  0.5837692556783859
  0.1713594418167160  0.0853021686808854  0.3299031475448574
  0.0765537973644567  0.0855615205919293  0.4209369126504565
  0.8296832919822317  0.2510482598026652  0.5091499360308500
  0.2460026334607257  0.9136794001594930  0.9157423305350396
  0.9978133598238217  0.3315126503011770  0.9161948956593753
  0.0818035422811829  0.4175620965564196  0.7482938198574530
  0.0831679985121008  0.7466856595230184  0.2472096465068519
  0.4173213579428068 -0.0008088024711423  0.8319236771153943
  0.7464532552772705  0.3377790891077491  0.8276547690379348
  0.0812195941533588  0.2493549851239666  0.0785892528859140
  0.0801019712344104  0.0852686848979370  0.2425860408586539
  0.0813213345093842  0.4162866222597528  0.2436340255384050
  0.7422815088101715  0.2541042662617238  0.4157133687331006
  0.4980809538518969  0.3299667159326444  0.9150261657888827
  0.7495979318715680  0.2449187168603890  0.9105233997387812
  0.5796682102954340  0.2482759686183930  0.2481936640233803
  0.0898392455757362  0.4169169167755126  0.4218200605905262
  0.6638504294202191  0.4199330679151724  0.1659228296817038
  0.6637555082158275 -0.0028879929842863  0.1645098629112951
  0.5804376095462447  0.6668515982080142  0.9157482665149673
  0.7482001869341040  0.6647931069025281  0.9162679522171185
 -0.0016926962232315  0.8311165889806824  0.5000061367557864
  0.0818033510196023  0.9120019856912678  0.3300847131402350
  0.6641607908449364  0.9150093561479381  0.0814501894720655
  0.1661968405973652  0.8307075121874078  0.3304023699461612
  0.7478338950681847  0.9139552232677084  0.1634232024089710
  0.6626962879449753  0.9129196126239217  0.4156996065590312
  0.4143437453372592 -0.0036436571292722  0.2464338582050914
  0.8310962685945815  0.9136753358222183  0.0800150507126437
  0.7459721260535545  0.5033057959535174  0.7475870464002228
  0.6633942095774005 -0.0048824767731548  0.3312983976277399
  0.6648442142463046  0.8323558071132163 -0.0013883718745954
 -0.0034940398330386  0.4180185688957289  0.5852967279571147
  0.6652275177773599  0.7498509453013538  0.0813873781582942
  0.7464810818060440  0.6672414415041975  0.2481704115152430
  0.7459452646642807  0.4190432692874005  0.5012414844248017
  0.7464969196207220  0.9132736081943984  0.3298800234353561
  0.7482679569222639 -0.0046734213600766  0.2471843457825928
  0.6635453309116512  0.8323505510808364  0.6653061001356307
  0.6645688838439596  0.6669567088576352 -0.0021905371521703
  0.8286301799182885  0.5853536290047107  0.4158720735082456
  0.6635018731703909  0.5021280729818054  0.6648051633632688
 -0.0018912321646042  0.9112666889300318  0.5855188161594610
  0.6620614424105262  0.4192066191671968  0.7476425768989070
  0.7473439028208902  0.7497561759357477 -0.0026427164347382
  0.1655755842119151 -0.0002420598235476 -0.0024317850487072
  0.7464031060470210  0.7510669439781467  0.3312417206365694
  0.7466070069969933  0.3405543885680415  0.4165933176130743
 -0.0019542790464038 -0.0040536277926261  0.6686163287367165
  0.6646627770676634  0.5073244888371989  0.1651484980295434
  0.6636748649212745  0.8325365989802717  0.8333655651251559
  0.7472164674834442  0.5837752957517788 -0.0013928740852056
  0.2521981232674662  0.0815141469543234  0.4991700448939815
  0.1637938362316104  0.8298293996436190  0.8321340287253977
  0.7484832212042822  0.8328072749905684  0.5836172980888056
  0.7470296386406440  0.8337147114040512  0.4153611117626642
  0.9147216457475867  0.2492582975451589  0.3309039952084474
  0.8334810805814515 -0.0047224148621958  0.5018488576234177
 -0.0009469204654757  0.7482117366347464  0.7504746542222874
  0.9149433790837423 -0.0043201840975375  0.5857053461768390
  0.9161925006196012  0.0779146266934435  0.5043182016894365
  0.8314680818798302 -0.0040767641673757  0.6672972228282320
  0.8303574619749873  0.0786739047861683  0.7490792326333523
  0.0835917564689821  0.6668305625866960  0.5835674962896613
  0.9147777554695435  0.0788394528310312  0.6682146244398565
  0.0826159056274554  0.7490053519555440  0.5005085571044195
  0.9151504636959729 -0.0023238503604952  0.9152682008055905
 -0.0012906449861469  0.6659854472712982  0.5017720635870825
  0.0834112478036211  0.7479357197307985  0.3362251745452137
  0.8331724977364211  0.1627210546129685 -0.0023505752148736
  0.0819815489908363  0.6655137624431414  0.7490558024606879
  0.1713904988399267 -0.0030586937418823  0.1621227546146729
  0.6646570726326576  0.6669702297758835  0.1649179650372819
 -0.0010394610439322  0.8308671787649899  0.8326340155966233
  0.6641638195554096  0.6674877536331694  0.3324708829059928
 -0.0012839505040377  0.9130512494834588  0.7504373769184808
  0.5809683620183469  0.7506689581470166  0.4991624560492127
  0.8364686622402686  0.7486287452942434  0.7492617302194068
  0.0820905233955922  0.8296855180265316  0.5849735093597395
  0.5795619296293395  0.6654803791709407  0.7485710302475453
  0.5820809917997803  0.9144133069610874 -0.0007131821872538
  0.7473617709613267  0.8328807618040232  0.9157004679652531
  0.7470265870472335  0.9150356333045343  0.8330178112363317
  0.9141612708946396  0.9131625794899217  0.1617752047258497
 -0.0014003508942316  0.7488041278232602  0.9145149631796551
  0.8309328074379697  0.0803773517200889  0.0810937950649460
  0.9143388670474875  0.0808168721980069 -0.0028358796373308
 -0.0011675737882026  0.6659150425703098  0.8323149484152854
  0.7487032600987382  0.1610222882538969  0.2479552869393400
  0.5808769890782858  0.9140501026935244  0.6664815325787550
  0.9138414748631583  0.0799227507021848  0.1619586518901480
  0.2537366259301933 -0.0037780750333404  0.5842324411575499
  0.9137337436260079  0.4188871627618180  0.8303393502999543
  0.1651168045650816 -0.0023987774035004  0.8314270498691372
  0.1648623147112398  0.0817342042025255  0.7517455274316893
  0.6636010395118624  0.4182129564632396  0.9164646785258661
  0.1637466947934396  0.9124076853050705  0.7503151976810413
  0.4146088748555232  0.1637787954571690  0.2474501805441020
  0.7484958320392956  0.3345896354795493  0.2507284150112401
  0.4897930334679422  0.0797398082033740  0.4145743938797455
  0.1667030848475319  0.1650815222630434 -0.0044599076918044
  0.6643852670104869  0.3336779150304923  0.3331919587615917
  0.2485531453903553  0.0024329343924019  0.9154186121545276
  0.6627101361187294  0.1638097193681654  0.5036534648733392
  0.6646405821750478  0.8324514968574021  0.1642894786867146
  0.0821368056401902  0.7481822682989613  0.6665499538930376
  0.9142973593598860 -0.0054451217554274  0.2450514075215683
 -0.0021640267492551  0.9122585671510560  0.2460138178009185
  0.9137032424769518  0.8311982361204362  0.2455915497097542
  0.0808652383736259 -0.0016769490614020  0.9145621403916221
 -0.0026240201072570  0.9133180600004565  0.0784857443994757
  0.7476328328202916  0.9145342531386211  0.6660115356547912
  0.0808600689828946  0.8302625070319164  0.9147467646736648
  0.4989043512852754  0.7499464003825749  0.9158609496527970
  0.6645736554490831  0.5011839769631796 -0.0006272202408628
  0.5802874117034563  0.7492105642254563  0.8327454835340252
  0.4992355883011575  0.8318601974146201 -0.0004639379302380
  0.4991837276023470  0.9155227133595972  0.0815846507236725
  0.4997347389599823  0.7499355047295827  0.0828226017269764
  0.6646190228104248 -0.0019931815719741 -0.0012647425051621
  0.4989832293201504  0.8324028828441821  0.1639519737634599
  0.2522348494028457  0.2491488641794946  0.3326993863871970
  0.4986751016689293  0.0801343844020599  0.5841186958673839
  0.4972212525709007 -0.0043257755389284  0.5006102365147475
  0.5794300358258395  0.0802961179942509  0.5046302069083796
  0.4984252078745328  0.9129652672747092  0.5833254181995506
  0.2499347665191007  0.6655565007649703  0.0816737805934997
 -0.0045864491630690  0.4177792654315283  0.0822747009572053
  0.0814360446560726  0.0815800476426245  0.8316331036103739
  0.6639447808258931  0.3324657691840771 -0.0011828005790668
  0.7457893949734941  0.5023359799967104  0.5825300907830239
  0.6628642813784329  0.6677729645142262  0.4977592938556347
  0.1685542608002648  0.0835405039727274  0.0793448968161015
  0.7462344095915096  0.5835554779492071  0.6642882702807912
  0.8311752655106704  0.4178012133015714  0.0811566443247682
  0.7473089126282648  0.5015401303374025  0.2497890753645479
  0.1653025845191713  0.7481515272536797  0.0806509905530992
  0.8310484427588539  0.6649612296373090  0.8332431046167077
  0.6616663638117510  0.2478862378333296  0.7470103167741150
  0.0807178287638880 -0.0037971255638409  0.7509682832235272
  0.2495859527170457  0.0816447067646837  0.6692310172128558
  0.3348433415793623  0.1667149138094151  0.3326885910226067
  0.6643930131233090  0.1639420466089463  0.8297012535940032
  0.6623431371242259  0.3343062387918881  0.6649448408204144
  0.4138265070142044  0.0804481078005286  0.3312237813144092
  0.2518507655392971  0.9119573527126024  0.5011976053809138
  0.6601020148470691  0.2468034282894945  0.9152373521053548
  0.6624667323886204  0.1638868248479272  0.6662748320722716
  0.7461470016471312  0.3355421334890318  0.7412173429512162
  0.7456255078871314  0.4202939339953401  0.6645492364072345
  0.6587165138826596  0.3331718656715836  0.8297292385354414
  0.0800317733444921  0.9127490725238148  0.5019473267532034
  0.2577666303288892  0.0817683852764085  0.3326062198507553
  0.7471102423192246  0.5012515930764958  0.9160420482253693
  0.5817204437975043  0.5020784288233356  0.0816457142358421
  0.7473971026502223  0.6670168107350871  0.0810005986668965
  0.7481756008597842  0.5012804367959165  0.0812145822493953
  0.6625088059116768  0.3352350934755053  0.5016064759079162
  0.7478574642524854  0.4184840590187470  0.3325227713090310
  0.1651009866780237  0.0821300981564085  0.9141809539276314
  0.7463277103179446  0.5840901934692239  0.3325754408371012
  0.6620555032770352  0.5845850477778933  0.4158984745655245
  0.2501660244281861 -0.0002583698928770  0.0793771674830308
  0.9124392759654196  0.4194251926408856  0.3323102093263479
  0.6639726190260228  0.5007125358687182  0.4994802724806489
  0.5801514457291743  0.5835556019710935  0.6659653316022532
 -0.0016757388930997  0.9138890117538019  0.9152778492302934
  0.2508050653631850  0.6670608825553394  0.2481317691213678
  0.9132530207648015  0.5000210809048573  0.9149044275789638
  0.9122281840232752  0.4183853337813328 -0.0011474926691054
  0.9141432835004658  0.7482357992657158 -0.0018503133408524
  0.8305071178224962  0.7494643800485937  0.0803437248911732
  0.9125143028779849  0.5842081209039045  0.1650099770997220
  0.4998163539725469  0.5843069776724135  0.0831026819054836
  0.2498136168395662  0.5009793078648059  0.7485743870182239
  0.5011982593310714  0.5835286323887300  0.9154883005205969
  0.4165927213393548  0.5844190432037970  0.1662099075116678
  0.4997426010986109  0.5843366616610411  0.2482715310646297
  0.5815341440915736  0.5007698013870915  0.2492249252225929
  0.1640217694108797  0.4159771166374247  0.0810784972359550
  0.5820705136947675  0.5006020516985729  0.4163614558816251
  0.1674149494925608  0.3324833363818423  0.8322013924677449
  0.1678864190104959  0.3331465582063396  0.6674031145299889
  0.6638214331319426  0.5013142332782369  0.3328253293700399
  0.4987127398491663  0.4997037537519807  0.4997649309975550
  0.0817618975533791  0.2490453470999264  0.8317664765271332
  0.3342873387539559  0.5010252179261157  0.1660423980444045
  0.5806414873509120  0.4183538171993457  0.8310952094129839
  0.4967208690155843  0.3325082459218032  0.1626877296778618
  0.4964713173837466  0.4165437446962853  0.2495058518447553
  0.2510683089431867  0.5017891091105513  0.2474588461057054
  0.1678040207813579  0.5840206090871001  0.2480432690765942
  0.4965901938726300  0.3340186561248558  0.3339471689359693
 -0.0027287805838917  0.3332756245152611  0.3287746918620140
  0.4973578589445778  0.2496942884723049  0.4167797658591019
  0.5805395065204036  0.4170841950771903  0.3336943919677322
  0.5809241531853685  0.3349548093763787  0.4171119446913573
  0.4978704247098540  0.4168524273290640  0.5831343472755128
  0.5800467380979291  0.3347626639251582  0.5830847486763393
  0.6640693406562210  0.0807599073063498  0.7476886489560277
  0.3328465884085217  0.6671642753201495  0.1648608258927063
  0.4152211945861075  0.8310756411290767  0.2472533211501592
  0.2497383908063081  0.6684354643436851  0.4160351863934400
  0.4167870917474520  0.6721477965729363  0.4160752186329471
  0.4989644600783635  0.6675159904854667  0.5007826944949725
  0.2486535033069819  0.7488006658441561  0.6655622263891068
  0.4991054341270931  0.6687631375095268  0.3295090709705127
  0.5816727226287465  0.7503410886437525  0.3312367161400400
  0.3345995824900356  0.3317444376386091  0.1653623833645461
  0.1680765623533322  0.3317848612941433  0.1643589864496743
  0.2498803476735897  0.2484556296498531  0.8311636862009677