B  Cr Ni
 1.0000000000000000
    38.8178767765091450    0.0000000000000000    0.0000000000000000
     0.0000000000000000   38.8178767765091450    0.0000000000000000
     0.0000000000000000    0.0000000000000000   38.8178767765091450
 B   Cr  Ni 
 106 1596 3725
Direct
  0.6159129157062003  0.7606223302824526  0.4784836747674873
  0.2113634903624732  0.9655011832265465  0.6498138752623791
  0.8389347024037161  0.9434034898730710  0.5732890296278103
  0.9143287634412315  0.9994320341022886  0.9298160153759316
  0.4587030449637783  0.7268732498511308  0.5042765534610080
  0.6966585303582502  0.3311032829087539  0.9788011050166129
  0.6926725876643958  0.9745092748773454  0.4472599915766980
  0.7426584888493146  0.9422671916439669  0.2342929574748675
  0.7330500493244051  0.8405721099180491  0.5157434865071843
  0.7654400011199963  0.6328750061223004  0.4448485135699195
  0.5754467839840615  0.4725620094130971  0.6551392717702652
  0.9369484752668649  0.9458205591308575  0.7267058468385791
  0.8460325341521950  0.6473036861305753  0.0123000455763338
  0.4435421638356811  0.4819749210177038  0.9372275513249011
  0.3607015143581807  1.0328457304554757  0.4484313400381282
  0.0615197733336034  0.2835399225454198  0.9437283246186805
  0.1816512457084717  0.4405132436811007  0.4841003718081360
  0.0936027675230008  0.4446262654549961  0.5111256192176993
  0.2924151444197243  0.0706264510035966  0.4237546231444402
  0.2706733866747630  0.0543425098507382  0.4633252936527101
  0.3215590523232250  0.1065758983464382  0.3552747971915722
  1.0069537908476871  0.6771218194264574  0.8956280530325261
  0.1110391448797633  0.0731913360184403  0.8867116000294971
  1.0558175942032775  0.7652622306253790  0.4567446558194044
  0.8426481804705082  0.7287159000465671  0.4544164732518607
  0.7656543459107451  0.0250812769635828  0.4522102647457557
  0.2180237069774753  0.9916013582438206  0.3526342227386895
  0.4818105208044188  0.6035512529342533  0.8884053380988217
  0.9836434152666124  0.6898387858738959  0.1268209311659674
  0.7484626291096257  0.6271330090536527  0.0168610750061704
  0.0210046746219555  0.0490186641078171  0.8619455990921967
  0.1664848652691235  0.9654821823115721  0.5564711227930554
  0.1233763138851155  0.7762925994261147  0.5267824177962224
  0.9622892912334070  0.7131209007248605  0.6139922167542705
  0.6607592798218737  0.8428025321126220  1.0243112971290129
  0.9424380150213247  0.6930947275804231  0.4341124326877251
  0.5400238456930292  0.5138141852822437  0.4853870393400038
  0.9536437472166287  0.7950311470477983  0.9557413573948504
  0.9085962631693675  0.6162923047249670  0.4908095724210620
  0.8606560978805317  0.6234358422917665  0.5474279944280317
  0.2762609225849040  0.4068281394569371  0.4180392774639319
  0.7228449589857615  0.0464442241273898  0.6723786443684003
  0.9377604486445514  0.6634587111166810  0.5030118299973895
  0.2216302458638168  0.1171545709351054  0.4536743776582390
  0.7831774910130892  0.8459635484432830  0.0716124532784254
  0.8802521810467658  0.6010948831640006  0.9439121421905943
  0.0260974974415897  0.7397631469136008  0.4800057563719652
  0.6611959377180940  0.6305910168282833  0.4667749553517316
  0.0142143347260232  0.4308091039270653  0.5426702028566320
  0.8220686082216558  0.6877912033057234  1.0198357676517558
  0.5561002719016646  0.0014517404727882  0.1315760692347785
  0.3067074497171957  0.3710621280198686  0.4909818803390121
  0.6929755526102115  0.1198229860065362  0.5905216205845442
  1.0308443435001076  0.2721739080276432  0.4239819055475705
  0.3821443930099950  0.5990761706916272  0.9005702172126018
  0.7608847735480055  0.0141642900427793  0.5398476208163049
  0.2355446823797316  0.9458320334267635  0.5251207730522425
  0.2790733361895804  0.7232229245824227  0.4958720350465797
 -0.0504500969472134  0.4291571436995091  0.4620548414943061
  0.5634859967549043  0.3782784049020454  0.4630342215967105
  0.3177424941501432  0.2099540410332687  0.5114287600409848
  0.7690730661065733  0.5693771458414320  0.8881055105758741
  0.2220351796249119  0.0736157887461047  0.3298804755310362
  0.3396811865360255  0.6505949602873918  0.4645229787345491
  0.2614311736061438  0.9749946141039255  0.6041724023772370
  0.4368902055757661  0.6659641270888105  0.4421977224967889
  0.9006075335314407  0.5653333681445134  0.8561060572032675
  0.7203473823624673  0.1706899971343864  0.5344053128581012
  0.9354340315011160  0.6133849513317979  0.4538523617032303
  0.7472020789834571  0.5945915611063586  0.9171645122812787
  0.0050238970855903  0.6725276452566914  0.9802383303510748
  0.9129468910646850  0.3916856972540211  0.5222976415976465
  0.7818633460351001  0.4189239946856866  0.5259508383519943
  0.6552111702113383  0.2180405569242656  0.6168252099479602
  0.5334177909950403  0.0496565376105954  0.4052837912005375
  0.8715622804762024  0.6544770204895517  0.4216805538333938
  0.8118352302765538  0.9769741447586558  0.2459098384295738
  0.6709166722533094  0.4293097075790910  0.4853817741509945
  1.0113005079439432  1.0343610313481300  0.9563876568559464
  0.0915815376779750  0.6264160739675642  0.9691940315485795
  0.5495161054920388  0.1337317279534853  0.5577083096316540
  0.7831557270214623  0.6730510033912078  0.5069002029555995
  0.8537364169462590  0.6306407206637660  0.9232184148839608
  0.4802263425242880  0.0322530811673256  0.4728002609585000
  0.1860441766051729  0.6176312558976704  0.0582761961260350
  0.4532130985325085  0.8494611095285506  0.9611253750914220
  0.5713114858933916  1.0468439845392250  0.9593393474454364
  0.7922380736400582  0.8039378070199213  0.4620776065846883
  0.6539123124394410  0.4658503551065131  0.4652167667444787
  0.0070462394879248  0.8283484819023798  0.8740545038388429
  0.3393947440607660 -0.0075574186457110  0.3704741197912269
  0.2121380235432763  0.9463713606998023  0.2643379481162738
  0.0438436935890886  0.7331146216954390  0.2978176182472212
  0.2963821467439792  0.7925669836943842  0.0532179855471795
  0.4699676896589630  0.4638453336890069  0.2153849417516602
  0.3170905432887048  1.0152412685894603  0.6756965798988220
  0.4214783902505739  0.0887203293427670  0.3372618634056787
  0.4839742264025332  1.0229435381706116  0.5480652648906578
 -0.0310407995085085  0.6607982142379448  0.9182460246703857
  0.5956457691659008  0.1836277877014505  0.5484128642748167
  1.0184623329340929 -0.0331791610045600  0.9010705632007719
  0.0616238536617828  0.6274671563195122  0.5243632245132862
  0.3768745990347728  0.0096948120678887  0.9385582952982769
  0.9837349396706768  0.3437840529891905  0.9732602447396520
  0.4057409841086542  1.0033231080624407  0.9750695181172315
  0.2184203505408882  0.1799506324344918  0.5169377120204356
  0.2373126120801297  0.3242129804038519  0.6776156029623407
  0.3423447850142285  0.9753006913902386  0.8497487589489661
  0.7612532099364909  0.4646697218664905 -0.0012845833660798
  0.1189257771057437  0.3042074308392141  0.5258121071216296
  0.3502371298542752  0.9637293851267921  0.9114714828903777
  0.8673430847086500  0.4546672601917540  0.0936375371617036
  0.9426028785876824  0.7848735353716351  0.0744032642351964
  0.4055897857024702  1.0581249648790825  0.9518230605353829
  0.1483612424567496  0.3024016729119267  0.8167763594227350
  0.3858651053110807  0.5596122011850513  0.8046206294355842
  0.8286004823929233  0.6604812109948445  0.0684884184356186
  0.0234340132601960  0.1022959174362602  0.5268779532558797
  0.9536245785628400  0.3033968606782949  0.0621983316433694
  0.4644163333051781  0.5455880286049776  0.8848908138870432
  0.8840635228898918  0.1050193049506336  0.0404782617308551
  0.7951060846059701  0.8924950666930537  0.1680081639620380
  0.8994790958871484  0.8881974814187560  0.2019576183451645
  0.9898389490569810  0.9001866068940478  0.7046455924192822
  0.3520591306065128  0.6305058460016462  0.7248189838120357
  0.5821564081417057  0.6313379406042544  0.9448889720818613
  0.7817020419960846  0.7167409568544998  0.3816288948248129
  0.4279661727431224  0.9658538011793477  0.5989823234723426
  0.4005445688298202  0.6222353316779141  0.5190013062683256
  0.1415185953180097  0.5244236548186130  0.5098778433022126
  0.2821313321792109  0.8433848836743648  1.0249935906395542
  0.9487029915734355  0.2435768054739818  0.3131145173968268
  0.9353834716305004  0.1062420876073563  0.1785706774278028
  0.5881844994958678  0.5972101941093700  0.8394438558080599
  0.7903127430644578  0.2424950171123148  0.1422997855234735
  0.6752662891306231  0.8048230450783261  0.8232509098790352
  0.7931217709831236  0.2729736724900060  0.2470381880399303
  0.7511508046530893  0.3657005721142134  0.2017005293438956
  0.8245723693148631  0.8634013068374112  0.9760674067943967
  0.3859194509246591  0.5106661263777001  0.5368200546327138
  0.6549566295044009  0.4565639593446570  0.2511499127731583
  0.4808277130215280  0.5584013378088444  0.5596558383675038
  0.2301365011876856  0.5235275868330975  0.7530313410326842
  0.4684335445326251  0.8301850475517046  0.0765929206572002
  0.5168569580440884  0.7517530419896911  0.0591935587287727
  0.5151303361660953  0.7018606222035856  0.0190052471968334
  0.6167619076921164  0.6589567956846244  0.0047264063520669
  0.1339092125656109  0.4472815415339265  0.6201969370182254
  0.9735487534018404  0.4690577601255890  0.0699601617393724
  0.0384316127285326  0.5602348851232943  0.6338993281613741
  0.9193059173121160  0.4902070879621450  0.3297838466702542
  0.0211274899093605  0.1337282774805827  0.6331696378347208
  0.3313881721931171  0.6563707021580578  0.6005060214548532
  0.0972175019318265  0.5830250381307704  0.7533434763497234
  0.1985427830826868  0.5620649266604102  0.5731130658860121
  0.5921484795900998  0.8699021032993414  0.7861174536161282
  0.6838726388224995  0.0242776965403726  0.7660756683559670
  0.9375646572056240  0.2087166977806734  0.9765031624923818
  0.9277243115992273  0.1844747301486825  0.9248388889223687
  0.6144610580497809  0.0447534031930919  0.0846207068857868
  0.8250253245207084  0.1450104505302462  0.9011630434277295
  0.0096616839927942  0.9329292045116371  0.2823172999171369
  0.7831394822365499  0.0659820631816448  0.7898729371237172
  0.1050402632852469  0.8417014984689019  0.2337313680501755
  0.7119756717380167  0.0885065015611716  0.7078563262887984
  0.7387612139958661  0.0020118767782217  0.6402722285220054
  0.6308014000318315  0.0146253227488112  0.5959854724955882
  0.0957397875254588  0.7340717468864202  0.2069046116124759
  0.1970295493226729  0.6869764302827183  0.2002046181077466
  0.9658751517723758  0.2413873016837580  0.9277502768426977
  0.6885278768060566  0.9196910768482878  0.4697088840911992
  0.5457859562633672  0.8948435030739638  0.9343452916591014
  0.2232311326174326  0.6278176205368812  0.5110265182227957
  0.8668018423612753  0.5061380042454053  0.3638527677772598
  0.9213049930650807  0.5211406669475145  0.4360221735635835
  0.7069413541866354  0.4409402606610326  0.2158280162860848
  0.9998466157414054  0.5393535239223037  0.7346520457941950
  0.4203142445267640  0.1753919382683604  0.3783968309300508
  0.8354813580814042  0.7368966476991915 -0.0016864194048140
  0.9821634243550159  0.6117896799364551  0.2014849890984577
  0.9704580115738699  0.4838526864388174  0.4671356002651771
  0.5501574033194999  0.9822943857113317  0.7500981545309112
  0.1313853604742474  0.5131281843895499  0.8326278069201242
  0.1403331069620596  0.7375192304022391  0.7705229280196030
  0.4906353499115705  0.9897186124118396  0.7277041401102997
  0.4637105394119730  0.4458966508578034  0.5719203787474343
  0.2383071588982276  0.7790631308599157  0.8002068746676565
  0.8288646673338117  0.6910284593618656  0.4078458799495929
  0.6029420665498756  0.8903268455630304  0.9533057505312004
  0.3539521099113677  0.9664814674811292  0.9664868302752710
  0.4665953997185367  0.7646159939750116  0.8236167220730103
  0.3996769123481166  0.7511111576973558  0.6389810988421302
  0.4291961518599932  0.7139093854456001  0.8215798489956115
  0.3576360426743952  0.7326850628498038  0.7397736857988995
  0.6555986981644958  0.9875580192164101  0.2424403850259726
  0.7869258131896557  0.6820913547335139  0.4488599988437529
  0.7742880480079056  0.6557119281214214  0.3935408392517015
  0.3702348976516684  0.6886111517626179  0.6953752146391788
  0.0766721946463995  0.6098198862565566  0.6353941115812682
  0.8200051855335910  0.5827013121058711  0.3786951224883595
  0.9249168207201847  0.5326933939425745  0.1485605001975538
  0.3674199529336853  0.7201764847416264  0.8009784868741374
  0.7175486338914321  0.5977046925147631  0.2830064529048714
  0.6072855137124507  0.5344492477713542  0.2683185504781250
  0.0751131432787834  0.0391282089395596  0.8488960003717808
  0.0340025169177663  0.0455719458760706  0.5422189501578157
  1.0418913437023631  0.8789920320949269  0.5583948915451158
  0.0481094230795193  0.8177253539416857  0.6675191052097568
  1.0010163880649878  0.8282747849234042  0.5542726861036710
  0.3389388388562528  0.3217963023413947  0.9834336216852556
  0.2937472263329009  0.3839007730919858  0.9142130707277460
  0.1564756500364049  0.8131011156193942  0.6541630377584354
  0.2693329599932799  0.2899571760372743  0.8598601560749907
  0.2316530442013817  0.2393417998763896  0.8541378172561508
  0.8543859564763515  0.2088340709955692  0.8410489572232811
  0.4291091949207156  0.9195458920558051  0.2617460291891824
  0.1098862193919584  0.2529674543204593  0.8096204411569031
  0.2210494487730602  0.2509221131096733  0.7931979427160178
  0.8921751095069932  0.8121574728487366  0.2800186151455195
  0.4790092403181356  0.9031288918147818  0.2259713229527159
  0.9493329430402978  0.2587846925672034  0.2508747576593203
  0.9066474316214969  0.3334874508277431  0.2655841524798367
  0.8966098534005950  0.8889620482476811  0.4323969932536554
  0.9468139033213938  0.8749979916363997  0.4004623533738926
  0.0580644324002985  0.0816489809954517  0.8851848467520055
  0.6052077590270438  0.4879116192137181  0.2251832435935474
  0.4920289707386645  0.9767046770051482  0.3762614211665394
  0.0681018298856002  0.7238498657020178  0.5821894129238266
  0.5422007754692831  0.9615311869657021  0.3401139857192099
  0.7210466802907114  0.6434269136878848  0.3247248754776469
  0.8192801625563793  0.5509931863734914  0.2752971068739175
  0.7709067176318516  0.6120345671454707  0.3500551624832622
  0.5706718187434926  0.9256773769609949  0.7683476637744855
  0.9847381649270712  0.6441296453463055  0.3062217611944535
  0.8164421075298798  0.5359752919141723  0.3356827067953508
  0.1594712838935159  0.7111165016346935  0.8938565810281616
  0.2290650994130455  0.6931039975737135  0.9801638223545555
  0.4599113041784298  0.8961265561869939  0.6823207724564408
  0.8601993036226235  0.4100500109628948  0.2796751975311835
  0.9613406609097216  0.3656037822943417  0.2745999490918477
  0.9367826104618258  0.7061182837576963  0.3819827344126090
  0.9555544572895407  0.3036662273505296  0.2950968103106086
  0.1215363492123533  0.2067154724597417  0.7644611270537861
  0.5295478080405391  0.8709737253452344  0.2530253818771424
  0.1703511536992923  0.2113846953937351  0.7256915827508826
  0.9584032713089150  0.3355479183811764  0.1687573345946949
  0.6085235788361286  0.9999656469120913  0.0415167670185362
  0.5949067833837085  0.9019920716384067  0.8936014824754902
  0.7256379965268570  0.7049878567343020  0.3102860839647780
  0.4961860430930371  0.9362795606499256  0.0196722157083930
  0.4515022698202861  0.6571059650599520  0.8372637330783739
  0.0867563084055473  0.6286355794154511  0.7928080311378837
  0.0189219267755763  0.7233584290344860  0.6183655764164291
  0.8731257738188445  0.5638744651149742  0.1216536738941799
  0.0918258063289005  0.1446500852962046  0.8215124277582396
  0.8813045375580200  0.6739064352375477  0.1475581574327451
  0.1887168894949216  0.7419443413263398  0.7335590344578383
  0.0417072508544251  0.7119770294134411  0.4254184062944435
  0.3393765420797945  0.6593640043578392  0.8588906273500316
  0.3289779532315590  0.6698574192119191  0.7986101363702708
  0.9732679116037559  0.5536978564318854  0.4489787008596275
  0.0731383627099928  0.6428884841025648  0.7345432993117064
  0.7788339766737128  0.7197799376041304  0.1532223979296934
  0.2442792671093595  0.6327921980726816  0.7388469626066199
  0.1170828963042726  0.9755707240143051  0.5790985688489878
  0.7250092321890598  0.7830424698491227  0.0014105736792402
  0.0411290878762767  0.1051026616266000  0.7566428401807956
  0.8506291690820336  0.3196487179030783  0.1945050033423375
  0.8309257152619357  0.7226370561416123  0.0600446144972242
  0.0706169084180137  0.1690825535340971  0.6986954650484134
  0.1464369027828069  0.8570158370331508  0.6982769973212766
  0.9934447815038698  0.1511490478951275  0.1271051306349973
  0.9457963512655686  0.2126434567415454  0.2053897045552842
  0.1714779590428518  0.1789504371539344  0.6194087036657562
  0.6270458847154841  0.6475239171986520  0.8429360099860168
  0.5691737179644525  0.6213181437828798  0.7134764505983070
  0.5213766507370233  0.6160551406227802  0.7500750437699384
  0.7102171724641447  0.4878703393627036  0.2591916963957357
  0.9079272538143783  0.3492890929100576  0.2034045061021705
  0.1390745527690504  0.9190048661086769  0.5854223480764698
  0.8571211826306285  0.3637453722461281  0.2367323202976477
  0.9440550895432253  0.8598486494748163  0.4629270527052815
  0.8423781954340690  0.2224085598580390  0.7802070187991749
  0.9641011082941578 -0.0115093740569975  0.8954034661768866
  0.2424184104439653  0.5650636149811441  0.1371439118133338
  0.7063584386322173  0.4815335696796538  0.4837596205085879
  0.7390288513426643  0.4316810214055989  0.5580968109132062
  0.6422618296472743  0.3917402992479637  0.5188346483902975
  0.9363816564088107  0.7082777755339681  0.9222810669467517
  0.9529149440029877  0.6696156645989121  0.8711151361946341
  0.4557181961730178  0.6232765277543391  0.4159123703529288
  0.5041156019884970  0.5936459188107737  0.4455362547649749
  0.5022682193142847  0.5491428635393962  0.3997138418409361
  0.4976195741719763  0.5341006266254890  0.4593297198894207
  0.9134670680485671  0.6063546731972426  0.7054048312808111
  0.9036043168743780  0.9489083766188841  0.4149700191035069
  0.3780694090359574  0.7105128452852733  0.8606511223180974
  0.1911415575914724  0.9802039243385047  0.5055349720611979
  0.1220512978105334  0.2409795447736944  0.8683052289038996
  0.8154023580562665  0.4559512747886111  0.1905394285178754
  0.8667907450090836  0.4718042853732685  0.2600304313411642
  0.0869290913972059  0.9581767512505178  0.5137389120753839
  0.8193761359588657  0.5651601963613458  0.6689087880837273
  0.5986168724426438  0.4422057018671905  0.4032434517141703
  0.5405394529707737  0.1836628869647831  0.5333135578311096
  0.0415171013210850  0.7176563261758310  0.1345774377935229
  0.9340210137529543  0.6984880570920075  0.7573031179336629
  0.6810835809635265  0.1812415547733966  0.3547428546172560
  0.8770122363893609  0.6755437048963221  0.6322653721948125
  0.9020965942328667  0.6172799186868413  0.6488120883641961
  0.8567678489401339 -0.0012038177158752  0.3291222512723180
  0.6893210127233558  0.4291488401345779  0.5930594331182117
  0.7755593946814247  0.0730501306632010  0.3604636943064411
  0.7513902669962804  0.4195722559725176  0.6158997091835268
  0.4814692660651008  0.3675371011961433  0.4681212884238649
  0.9461472621098792  0.3825177366085507  0.7361721968049026
  0.9679652292231563  0.3264814184536362  0.7526517378766816
  0.9075923608858280  0.3342317971112219  0.7321969075226741
  0.5961144779534133  0.9791514617669809  0.1739416739636534
  0.9181473570309004  0.2902193762311772  0.6865151201110556
  0.8886151272806873  0.1941389145626398  0.6350441972216829
  0.8469115628597259  0.3112600160424705  0.6040819570767270
  0.9413852602525782  0.7670294324087310  0.1386629904978658
  0.8135403115065226  0.2171120354429871  0.5551154277122092
  0.7438320619075248  0.2282838159604478  0.5338178103318602
  0.9841127193227623  0.4326774311997303  0.7420631985492211
  0.3552855402200801  0.6902566632694033  0.3650999995706859
  0.8848367686103673  0.4236967639826181  0.8233851863904613
  0.1437350977110133  0.6714495194003719  0.1288591792497430
  0.9384852115229647  0.3662041741170517  0.5672887796282403
  0.8421685655729113  0.3217668375950392  0.5424565376447348
  0.8463927721436897  0.2525518852709744  0.5005910472744233
  0.5762522553236736  0.2106301173637231  0.1936893593748718
  0.9344346127535965  0.4283681448101331  0.7817240002526133
  0.7903181121097125  0.4691588095741999  0.6224718482448159
  0.7686246389502870  0.0256655514764049  0.3159799371904929
  0.9626239582133934  0.7630812460869472  0.7041732246468932
  0.2574225242280948  0.8869708820438096  0.4648821210363128
  0.7901105357637316  0.2421104104143968  0.3714895644741096
  0.7888148072203700  0.2275564696594589  0.4335626852152791
  0.7747050301222432  0.3942259769306691  0.7360043512067364
  0.7354511085458877  0.1970901653369967  0.4248395890998338
  0.7247599587959350  0.3585545311129024  0.6658256141437746
  0.6036276923811358  0.3721376123962753  0.6266090451457420
  0.7151827863353656  0.3733552786316223  0.6025136866786708
  0.6761663167971796  0.3221943825397859  0.5998572760125430
  0.9910965353505237  0.6009226590520208  0.9750019070133747
  0.9111280350983493  0.0077066948693243  0.3954874481107238
  0.9573625613351363  0.5666415179682964  0.8757167723669029
  0.3177289435394090  0.8519230828080578  0.4777391415065675
  0.8621794527310594  0.4809935497286442  0.8072513180075818
  0.2600016277777267  0.8259707490347150  0.4652474826276032
  0.8972978941966462  0.3463321312921088  0.6719597482305537
  0.6344419681812637  0.2586430803598710  0.3722385586829796
  0.6365846550254056  0.2704947976178002  0.5972924910203994
  0.5683328802529825  0.6833967196283626  0.9833674150905578
  0.6319406022108869  0.1511835626285757  0.6651181481639288
  0.6868917399711113  0.2753007369394987  0.4419673747950493
  0.6916784089567503  0.3367720292140132  0.4251407642563820
  0.8652603258012309  0.5136258102960581  0.9102157215512151
  0.9217033228085435  0.5050730596449869  0.9322169058842014
  0.9244488783950369  0.6814846759701220  0.5928121013794790
  0.2309030425374072  0.9609937831882542  0.4693169232356853
  0.2079752634444907  0.8618781213288383  0.4402945903446410
  0.7681833034474740  0.6430538018786034  0.5526114557930742
  0.8400157727903926  0.5079490934389754  0.6857422039701936
  0.8905357256748372  0.5434459553459056  0.7513954411039777
  0.9356684361187523  0.8398175609929039  0.5301469642363162
  0.8302045989935533  0.5527396487521610  0.7285677488858945
  0.8419853003035032  0.1971220558264418  0.4579538741104913
  0.0167332731291924  0.3636040609736906  0.8181289810501572
  0.7374302189285000  0.3462552837440744  0.7280329511327799
  0.6363621035658760  0.3033374229443490  0.7044976687170456
  0.8188732888303839  0.1065340488219023  0.4563492506692672
  0.5757365194217661  0.3115365062469597  0.6831967845506682
  0.8660450303878336  0.0751930972078901  0.4767480240961431
  0.8488753064550743  0.9236322241955925  0.1797556160383379
  0.1903368015422821  0.6429734331584891  0.9763127218504394
  0.5595508690688277  0.5677724008374241  0.4725506321611491
  0.9059705993411901  0.6529548880450579  0.9184197638235214
  0.7306936380775914  0.4195808098709223  0.4944196397356909
  0.6986463238304341  0.2960113440450923  0.7255375121968755
  1.0065577903898910  0.4086956561252967  0.8639994679472789
  0.7134742989204298  0.0910500782272678  0.4855082974719659
  0.5135150551504112  0.0883225798533991  0.0950261324122785
  0.9231452646665821  0.4410427287085735  0.7221696405594691
  0.1079371251309774  0.8725554536546479  0.3407104062235990
  0.8749792432059690  0.4046163705429662  0.6550767095988371
  0.7634353657453150  0.4048525222611871  0.6766244446823212
  0.8616146817141253  0.4173190636524263  0.5956600798682641
  0.7638849881008588  0.3749850670845237  0.5574058748740165
  0.2048911447931545  0.7813758775160996  0.2907511388691048
  0.1932578792311517  0.6266570523426065  0.2161328147797717
  0.9302137884468574  0.5630555178871506  0.6547138694167394
  0.2953092395944076  0.5806569960899925  0.2064856571454869
  0.8289055186404052  0.4489450535692399  0.5320024624525422
  0.9664159046853775  0.6124879943981206  0.6627418833989659
  0.9780033159600597  0.5681268821346631  0.6153458669869307
  0.3861011078175712  0.4094090526476623  0.2326945282570096
  0.0061040736740184  0.6246392335528115  0.5534651278559330
  0.4343723569942217  0.3506293613062227  0.1562893156299908
  0.9861702107759076  0.6847664583663697  0.5208835676699205
  0.2567706627523826  0.7974240292918306  0.3600591597120994
  0.8089585328130878  0.0379440733819605  0.9175630926400600
  0.8618269432621517  0.4507421017686388  0.7018705565056269
  0.6222065130821105  0.1210493983311176  0.2386461414054741
  1.0119412457697554  0.5660501385873966  0.8999535470210729
  0.7174523124354746  0.0303198799662301  0.1858394496033069
  0.8516595571735220  0.1774956404306711  0.7360623174282516
  0.1890899007909486  0.5639224915036676  0.2326935150134976
  0.8007572909945275  0.1432073456226805  0.6702916505272267
  0.3395182245159614  0.4556052331416903  0.1447045726628214
  0.7465741239602340  0.1083531419704526  0.6035294789505207
  0.2853990294612715  0.3754451053849317  0.0981987934468408
  0.6687932169875422  0.0965226742384994  0.5330040580755276
  0.3385685767042581  0.4111090838770323  0.1038091091686373
  0.5908062326669203  0.0280222775949738  0.5492304506087479
  0.7442917894810949  0.0475794375332411  0.8953007725969991
  0.9765929956913764  0.3462057314488351  0.9195549016679971
  0.9905739378265044  0.3012245045115362  0.8785193889316225
  0.7429782278634735  0.0165974668907507  0.7881544304953453
  0.7525179261462751  0.0033313989364040  0.8514649550742712
  0.3974819574940729  0.3269241941883368  0.0747928666452055
  0.8106137194390840 -0.0052615969378715  0.8741685704893771
  0.7862976341203874  0.3502422059610320  0.6874462617177596
  0.6270035233133175  0.1803991794522315  0.2220361808292163
  0.1935651406699643  0.5236923683610090  0.0189334569903702
  0.8195683722845857  0.0858945625527785  0.6855645432924493
  0.3289945226601630  0.3476781905559890  0.1259213443193628
  0.8029358272377202  0.1739639889335921  0.7767643498177574
  0.8334859109924230  0.1022930968083316  0.8562590268483634
  0.3725590465129294  0.2744516290324958  0.1066984783827337
  0.1804545331228811  0.4235905653444409  0.0385308860561841
  0.2456157117220394  0.3605421522989699  0.0137270188405555
  0.9405889030988664  0.2319456560210609  0.7025439797038122
  0.6888359564013725  0.1448890062752096  0.4906382681701119
  0.7319405939526822  0.1346798948610180  0.4418513240760151
  0.8504874594097548  0.1480214162803687  0.6274008884529674
  0.8164332430453793  0.0216324916116790  0.5313836347080122
  0.1867808737744633  0.4856601091485865  0.0794333905765360
  0.1376454696312389  0.5636795999450797  0.1016610631139626
  0.4729734177247202  0.2279067074621697  0.0989839202450851
  0.9424196344983728  0.4784834095476609  0.5626293030084429
  0.8901236653711208  0.2274374118440531  0.7406000722862386
  0.4687173830930710  0.1829906135281446  0.0541986406206480
  0.8398116746773154  0.1920454333107283  0.6760618211706541
  0.5168465849132867  0.1217766736851167  0.9726519143653440
  0.7658044041599243  0.2130297619712308  0.5925912059296640
  0.4674332768351853  0.1666310889053926  0.1136489533162371
  0.7298682016155866  0.1617338182120301  0.5880098661707458
  0.5642916455316002  0.0739341229510129  0.0589586838298359
  0.7534637343702389  0.0543743774642820  0.6225946246901662
  0.7449390113870469  0.2687639309930820  0.5768088052475315
  0.0637546464975478  0.9505708590049826  0.3541327633552295
  0.1004309689218713  0.1288226532599193  0.8820141053129400
  0.8609150027831467  0.1344538215841956  0.6903372233727776
  0.9864787948610710  0.4776531916424824  0.5281096243740644
  0.2296289994957289  0.4696369866471167  0.0448855500066881
  0.8922630677425627  0.7802395678186962  0.4029886345129117
  0.8524915136200448  0.0436200128868612  0.8747820329843111
  0.9906703926576150  0.1914576629840087  0.9444520993068816
  0.9330254118072027  0.1439090017191901  0.8790426653337772
  0.9891080374582772  0.1376208790741819  0.9007558888319868
  0.3582769788633185  0.2515921024504225  0.0017286249649323
  0.9292388151687820  0.3093330376669106  0.8567149803187103
  0.9417728771072080  0.0974664078588894  0.8333248068138691
  0.4147614335013724  0.1574790208905515  0.0388236810413499
  0.3566203972338018  0.0843681936699676  0.9868475080224005
  0.4602857714063108  0.0747200222423847  0.0228353218498871
 -0.0030014756192138  0.8103320983419801  0.0904627542646207
  0.8358098643530705  0.0287406608832557  0.7031289476205771
  0.9879598762659934  0.7028342961898488  0.0665163216187322
  1.0014028887968169  0.2549969001906193  0.8286669569015446
  0.9518627356888379  0.2186626799356498  0.7610416206081798
  0.9203869791352104  0.1252800323287193  0.7112329201629440
  0.9091252516208376  0.0045666565595076  0.7865642658915866
  0.8662016539525862  0.4398424980773852  0.1542308008162718
  0.9618176066849626  0.4894626824352137  0.7274028022397573
  0.9452328156883210  0.8114605564854590  0.4159421686202085
  0.7841837072300522  0.7823029245026507  0.1392905565263222
  0.2849342475985981  0.8591340793476799  0.9717909493174534
  0.9967678722950049  0.1971156466201641  0.1729592980948228
  0.3706649623329398  0.5548221861766564  0.5780934532616259
  0.9384052707897946  0.7204095927118586  0.0961935113745527
  0.8863749606241479  0.1506823104748468  0.0889153588609710
  0.1969265164792395  0.9136760966155717  0.9330365588739152
  0.3235613925637177  0.5174724798753574  0.5113569316628863