B  Cr Ni
 1.0000000000000000
    38.8178767765091450    0.0000000000000000    0.0000000000000000
     0.0000000000000000   38.8178767765091450    0.0000000000000000
     0.0000000000000000    0.0000000000000000   38.8178767765091450
 B   Cr  Ni 
 106 1596 3725
Direct
  0.6266136535651763  0.7581824787099458  0.4750171923461899
  0.0469197472398188  0.9096373487265899  0.4607207791683142
  0.2091087940738653  0.9070100242801680  0.4686139323279431
  0.5896156703024601  1.0190117372679883  0.4331428190099412
  0.4572020953935709  0.7216004197793532  0.5056636467753509
  0.5401600016560343  0.8490808139829494  1.0302020675889367
  0.6133804761035755  0.8183607045106200  0.0198698229970429
  0.5827371910360283  0.2479273022670546  0.0239010840651728
  0.8595237853620743  0.8080660799215881  0.5650310190195642
  0.2215026883578933  0.1035969481103698  0.4389897614020782
  0.5747820297509100  0.4741103902414868  0.6583714029359899
  0.9324517139736088  0.9427161211379812  0.7327734954170017
  0.8737267637732881  0.5989334265709643  0.9451878589627238
 -0.0366653944712980  0.7483445697261285  0.8339270044102830
  0.1163547734278064  0.9627177013406857  0.4755366592791467
  0.1164513217564165  0.4728497050173271  0.5178118991475842
  0.1805619544282010  0.4475919296163873  0.4827480257165777
  0.0525834370214313  0.6997885871265226  0.4150441606149808
  0.3002046924094863  0.0657404524814368  0.4286439934540511
  0.2561098335835819  0.0015406518870148  0.4538836918823322
  0.3151089415560523  0.1134281610258889  0.3553631259162520
  0.5659195222051562  0.8517836181622336  0.9374113118461186
  0.2127317671029120  1.0042774619871253  0.9263749749429315
  0.1233625947540250  0.7766181197319563  0.5270272547375832
  0.9308356371780245  0.7539248083532271  0.4200201392181870
 -0.0419765960347149  0.7088436002023826  0.6072848734150025
  0.1167912979496830  0.1332810838147478  0.9344120598836333
  0.2190474948533750  0.1908206264651950  0.5223198248736091
  0.7592602707222089  0.4328274656305749  0.4006867308520226
  0.8703887237853491  0.6533967441698438  0.4249599611930537
  0.3562421224594580  0.6185484884434107  0.7705780678573089
  0.0824642367058787  0.6660213787336958  0.0578768508059717
  0.8508612800709353  0.6157751185547747  0.9108926115909095
  0.2352597025392059  0.2407700419406949  0.9947344237191660
  0.1218108699226779  0.8723608522769064  0.5046781687492837
  0.6004945958517669  0.4305484599900011  0.4614464196154586
  0.6088788930377780  0.1191903103069005  0.4572226447762733
  0.9041002573460550  0.6176758102944110  0.4978771442261127
  0.7524141127571947  0.6617921019888189  0.5097532131312127
  0.4231898509068396  0.2209519773244004  0.9728239469922549
  0.8780522432497291  0.0412949917256456 -0.0691556627812774
  0.2569065279121309  0.4263335593659692  0.5092239308519263
  0.7374928620397260 -0.0068493261009621  0.6270176864759481
  0.9011642728187663  0.7040535112637472  0.5415774410016856
  0.8959112231588684  0.1842773608532907  0.4751599003882350
  0.0339551199017979  0.9208700451705084  0.5415085731484802
  0.4443218771316890  0.1534377255438137  0.5090760494196275
  0.8373814360176596  0.7609703213822591  0.5020834220870553
  1.0514822436850750  0.6896537600368274  0.4863454610063746
 -0.0318457836237015  0.5830880895351466  0.4980762103104228
  0.3076522137035850  0.3683770355205424  0.0240252588023498
  0.7970385639374276  0.8600328167101049  0.5161560011920959
  0.2154353144392620  0.5150606359161187  0.5374154721872864
  0.7620833339856790  0.7948405761591165  0.5337886182639333
  0.3753483109983314  0.0087658242031094 -0.0612793157835052
  0.6761657732178047  0.0587607964862969  0.4400409150542179
  0.0845100014177474  0.0466148482988892  0.1403794970786802
  0.7656071767567434  0.0118709117797949  0.4543882628312729
  1.0172514331716156  0.7774094018047540  0.5276548675975405
  0.3571376797731699  0.4199797035542470  0.4977714637512647
  0.3085662092881423  0.2778487215843886  0.4985921504027483
  0.9012959670343769  0.7105888195126746  0.4845495080842064
  0.2440244616708850  0.0864439083348543  0.3414682029691530
  0.3571137102165621  0.7033868123032050  0.5152490325817544
  0.9794771231471415  0.6710988582926697  0.5436524103496898
  0.9779300193496379  0.6608858747373185  0.3971159733114116
  0.7821206840904238  0.5823640980887106 -0.0362098665920880
  0.7227145878540634  0.1762336914350629  0.5369262830894870
  0.4627513900955083  0.9765071053632156  1.0091177500403847
  0.3860129276045673  0.0624457424824453  0.4809473452254457
  0.9962109007822444  0.6732519344419201  0.9730258741437871
  0.2696853708353453  0.9891737503099971  0.5536986302124833
  1.1100586997007469  0.8856988825785456  0.5449401013738032
  0.6585612683804345  0.2167438037442537  0.6177295562507110
  0.6630046539221175  0.3386529362033733  0.4891007659195347
  0.2177252102443881  0.0554933946420134  0.5343319624074842
  0.6961841154106024  1.0084362351469274  0.5040282087535669
  0.1001933720351374  0.0740061679155780  0.8859990841038187
  1.0565634682212635  0.0788684094273394  0.8935538248654803
  0.5886497855597450  0.3228975449433001  0.9961498604338487
  0.4049525887442661  0.9997735685218462  0.9717761445675862
  0.7202042248084478  0.6491122334560039  0.4824295014738500
  0.6966143054661278  0.1180690396775515  0.5903790525968334
  0.8428298003286259  0.6793113925208398  0.9673920944449789
  0.2341600257380425  0.3066662763691196  0.0590297857809602
  0.6901800898172045  0.0526487565257596  0.9268590675146950
  0.9273882900594659  0.6673716481550149  0.7292030590243057
  0.9980099375161819  0.7217490477449842  0.8246556671014604
  0.7926684593404305  0.4165291244115493  0.5295312185482478
  0.2289055143718761  0.9209361636802122  0.6078338188308928
  0.2162411107982396  0.9481438341738655  0.2926681499485326
  0.1998079933779276  0.0289037113959146  0.6148997382072763
  1.0088703023609549  0.6917544578954836  0.4071432552263427
  1.0055177914677302  0.5929426287378617  0.9263794703839208
 -0.0110271482523696  0.8601686313420686  0.5114031440896294
  0.2249311745891558  0.9590609073390504  0.6405840447242955
  1.0432958553437794  0.2096712400136717  0.5284590460926287
  0.8618906870520275  1.0095805219828551  0.9594756212003787
  0.7538549396089002  0.0749774819838185  0.5075478845021728
  0.6173251606006886  0.9328945433472986  0.1005232661838320
  0.2109010956938797  0.0174695945452932  0.6931397820656806
  0.9023844809271244  0.6829351102855987  0.9246189703399541
  0.6020111663454905  0.1846272327175162  0.5505816635870566
  0.2127166757493580  0.0146640855196901  0.4545858919780121
  0.9388746392436983  0.0433302461885753  0.9800759538719108
  0.4780009693223103  0.9725563055149403  0.5111990815846480
  0.3084348376144033  0.5936997368752052  0.6580593511361539
  0.3497214565865275  0.9641442093378618  0.9104423576971273
  0.5565836743269500  0.9947099605849594  0.1384731957975188
  0.9118134489847300  0.9934779496511332  0.4600565873749619
  0.4058679022026085  1.0545365753913813  0.9549768311684788
  0.4440103479138125  0.9318630556335007  0.1155940902905821
  0.0652379475193701  0.0463767105907407  0.7713116792011291
  0.8301985660466242  0.7028621735417698  0.3481909542465673
  0.2783188500511852  0.5623512149794027  0.8177062454655207
  0.8862061409675768  0.5737438151353315  0.8919931402545866
  0.3525547205537964  0.5122146976143662  0.7975657262204898
 -0.0026834183349435  0.0255447974695748  0.6437419616562723
  0.2837945897493382  0.9497255191693115  0.7238761790167222
  0.4081652106651458  0.7710770651465840  0.8042947458549471
  0.4083554453507184  0.8060820317193566  0.9133491175346640
  0.0942293899960943  0.1086302499485296  0.7148812970034096
  0.8482287936210287  0.9060937216014349  0.2438586711039645
  0.0938974390822781  0.6756817787235031  0.9945449869462967
  0.1325200179812784  0.0327957202582101  0.8687745934051023
  0.0449741199407403  0.7541645243839064  0.0120916061243981
  0.3419978684336004  0.9759623630744657  0.8497662719638727
  0.3041696482708864  0.9246941780635515  0.8496175562774455
  0.8399016323415767  0.8136811846167568  0.1515629816636798
  0.1327496661155753  0.5256451370851787  0.5014000998144137
  0.2848226102923712  0.8568146641698164  1.0275576349563269
  0.1704380802967504  0.3461293041093455  0.5912804349646769
  0.4542272779658075  0.5222405265493832  0.7175218101311629
  0.5175566232411379  0.7348778731538689  0.1218215499305093
  0.8186171024898518  0.9656999361198916  0.0095527916619350
  0.7817627278774377  0.1467851904518399  0.0532254110235099
  0.0906779258421323  0.0633234667515637  0.0756688836640044
  0.2185667170441013  0.3836959178326971  0.6582001315317356
  0.4126345687282791  0.6056551316259580  0.5788402496641118
  0.2360328194786970  0.9391678022894236  0.0551841907351871
  0.3478347578511652  0.3595555739527073  0.7656865082614733
  0.3430569329040991  0.9817825653119794  0.1291135447339396
  0.2319783259349127  0.5242392689056751  0.7521247071154628
  0.4672406052206474  0.8307196056389471  0.0800186904794431
  0.5187027895259325  0.7479067191997151  0.0623040714129879
  0.5158363326227651  0.6878497128626100  0.0768260279514303
  0.6166320177454072  0.6405823282036360  0.0666922650504072
  0.1365416123814115  0.4478526072815782  0.6248093316341909
  0.9726031002688311  0.4712326449193069  0.0691627731373092
  1.0029369290467147  0.5069477635241958  0.6286149111574484
  0.9188248873219532  0.4889077668074832  0.3292004563637674
  0.0890228462178486  0.5965488660744708  0.6935739676811231
  0.8395520036041754  0.8259705803001257  0.3198465971144663
  0.4134473503255410  0.1782897619161802  0.3761043116548560
  0.4334284479712993  0.7155541508237666  0.8210620876869867
  0.5952850634488518  0.8713332053368117  0.7874711133284454
  0.6854050214481252  0.0265794015569110  0.7670883106040066
  0.9400095051279528  0.1994727260271024  0.9806456652815791
  0.9185321101928215  0.0777629014852964  0.9433198956565417
  0.6147051038144699  0.0421775964214984  0.0845209056555735
  0.8341082131113018  0.1410538796259716  0.9582138004211329
  0.9534873914840590  0.9027633682255858  0.2745412174312825
  0.7856010784629747  0.0676506847834716  0.7924857780492034
  0.1051095566835813  0.8409822004854064  0.2322231854479808
  0.7633634989961887  0.0932863407128654  0.6668973077781098
  0.7210040521193803  0.0388974575141099  0.6589020255896392
  0.6295766827222736  0.0116232276937983  0.5989498332556366
  0.0961053631431491  0.7335742995792984  0.2055423853288745
  0.1969787376142351  0.6873673631599734  0.1978393387166339
  0.9068985862742389  0.2481792714837315  0.9012391102711965
  0.6915374180979886  0.9108217034058111  0.4752185725874575
  0.5414129874744564  0.9404596976406966  0.9792834030926069
  0.2594121033078596  0.6950998276151255  0.5000739903662511
  0.8661349090548669  0.4897442432580807  0.4248856735289847
  0.9252944301554228  0.5209628507177736  0.4374849923847717
  0.8660059058683008  0.9186104419939233  0.0948718258619225
  1.0017675388043115  0.5402067959005976  0.7322997702875965
  0.0989313512199203  0.5838227352649034  0.7523090901517445
  0.3616899404157543  0.7328380582344273  0.7404753267588583
  0.4695439192648739  0.7657429673375612  0.8247713447041429
  0.6560476477031429  0.9843038060272233  0.2442106202322451
  0.8334413562740578  0.7274001107803513  0.4575246317320221
  0.7738501072609696  0.6418406835022755  0.4623689380960259
  0.3731376202995756  0.6872009823263345  0.6947802089997208
  0.0649246655614762  0.6549783609925141  0.6744586821066881
  0.8710891322891275  0.5507157531133227  0.4095509973654245
  0.9239937727413855  0.5333769306158236  0.1464353190686047
  0.9804562226606788  0.5954636248791514  0.2623453941177223
  0.3727896105699648  0.7193961047475075  0.7997182973912027
  0.2409399294227368  0.5740633458490690  0.5316933046115339
  0.8686239311883375  0.7731310082052932  0.9536622928831151
  0.9718020789104159  0.4811113140903240  0.4662318303218463
  0.5508422081268817  0.9853907599330715  0.7491819182269562
  0.1449247384910156  0.4664567423440729  0.7892127221329616
  0.1900357248548759  0.7426566056273880  0.7338646492513747
  0.4921203481878795  0.9926014240159764  0.7282060435684403
  0.4660228160132406  0.4459748913256810  0.5713583971898526
  0.2009595585261345  0.7295701297731786  0.7951333267484101
  0.8874031823819499  0.7107200521731235  0.4258569950432557
  0.6558380105568111  0.8744738097851597  0.9752641294344858
  0.3601405249893612  0.9622020615790314  0.9701962783266621
  0.3412126916070358  0.7586392881187819  0.6170594427345941
  0.7852923448819019  0.7827202310987065  0.1423039414459151
  0.1885460768197437  0.9225641863353853  0.9892261776551365
  0.0708663744911197  0.0444007955842118  0.8490791903928735
  0.0261376422386865  0.0466214776951325  0.5413610264648033
  0.0237198787368659  0.9244349106697742  0.5985398252908410
  0.0497951643932123  0.8155305994709220  0.6701664189146292
  1.0022277815321519  0.8272934243836907  0.5582717967583780
  0.3282453724782479  0.3153976839915766  0.9976173638118438
  0.2957353910384478  0.3852507482814327  0.9108486130408877
  0.1586002241091203  0.8152469902395619  0.6556044791178546
  0.2717961135742729  0.2906843960699158  0.8594196879691401
  0.2343740009848012  0.2392046963533637  0.8536121046631133
  0.8560900792354297  0.2104768562373046  0.8408276480564366
  0.4275451412644361  0.9177082184442446  0.2646452399700732
  0.1747418767873343  0.2456061797616416  0.8304731045511968
  0.2224511736418098  0.2521194968935213  0.7919810387966821
  0.8982341142532031  0.8733922120020196  0.2673929309604760
  0.4742070013602033  0.8418897746877176  0.2461608046089481
  0.9487139674796005  0.2584178468455146  0.2463712069633757
  0.9034966696689246  0.3339497465214790  0.2635457063300507
  0.8492758109858964  0.9183866421550452  0.4093548318579882
  0.9506038844580192  0.8719816190406822  0.3997194016271945
  0.0479632310550172  0.1082882206004451  0.9874454103974969
  0.9733486706185938  0.7451032664726912  0.7747414686277103
  0.4858512823020392  0.9627505013773185  0.4513434813799275
  0.1356737505702493  0.6338850650295662  0.7556452399141593
  0.7175221858966749  0.5948145390765605  0.2847570581764353
  0.7156870137598517  0.5783546976986014  0.3452005551768800
  0.8183461875755543  0.5490860162503458  0.2760602965858715
  0.7704838809397629  0.6103887653243264  0.3549634052034259
  0.5828351444493132  0.9172330984388561  0.8305007142718696
  0.0386877118811995  0.6734603634264765  0.3162800326588077
  0.8173782379035383  0.5336612367764477  0.3368512023152374
  0.1756942230131121  0.6979773885056553  0.9580948691430833
  0.2319731378362672  0.6931427539166003  0.9804363832330503
  0.4645103974823783  0.8976853878636197  0.6845931544295645
  0.8587781175169217  0.4103790253932111  0.2776958655522478
  0.9605606769965020  0.3653768896287079  0.2724692779587111
  0.9347433558414278  0.7021131290135233  0.3914438639114738
  0.9004317133273166  0.3197883749584740  0.3248248592731915
  0.1244570902868285  0.2066061727964879  0.7631513691248891
  0.5286294852859262  0.8706753068105515  0.2550359527780076
  0.1725716240437955  0.2121022203879130  0.7242287383901902
  0.9567883946449433  0.3347331827211718  0.1661697072644430
  0.5549440502280537  0.9674852359937680  0.0293150254710064
  0.5943599525025278  0.9057701816649968  0.8917131677218970
  0.7224569610744020  0.6571533618153267  0.2680090192621445
  0.4968733607233428  0.9345721719289111  0.0202047784972082
  0.4572278002000485  0.6580059917453990  0.8401350980026290
  0.9674684780094287  0.7627111601149450  0.6136349953169613
  0.5959143430509365  0.4413231276928026  0.4025238646954017
  0.9319306472514121  0.6421491514835111  0.1746770097829455
  0.9563806734126639  0.6705242187592471  0.8908741038481884
  0.8862331373614430  0.7361930170482723  0.1324767614361275
  0.1799386722692156  0.7558781628897030  0.6734335754824159
  0.0920281839587292  0.7389865285085386  0.4364412030190993
  0.3748690420593339  0.5998911096594698  0.8875180605596569
  0.3338786189549379  0.6701144564297566  0.7963971746347055
  0.9745779061825897  0.5550069325344275  0.4484806358258592
  0.0807785027363001  0.7439180971814026  0.7496584546718816
  0.8300209452588746  0.6890448146083329  0.1828833077625010
  0.2454721772690317  0.6337397733097591  0.7367816098681946
  0.1275550569958368  0.9268286687049334  0.5154645899234892
  0.7223887276441641  0.7817058505175667  0.0052051197138631
  0.0250789046905231  0.1634726163366385  0.7380620914560249
  0.8521687011450426  0.3332911226097358  0.1294541067640299
  0.7810110595800023  0.7610012264173194  0.0317613986916011
  0.0726577421746013  0.1683051124105266  0.6986884996403990
  0.1480425015922093  0.8590350063508267  0.6986023813741546
  0.9934528233379699  0.1515823632614601  0.1272577899100833
  0.9504592490022606  0.2726402362099165  0.1855652198517776
  0.2838545335667500  0.2789835395584477  0.9170763127331835
  0.1852057886618794  0.3840287230904132  0.9289770450815349
  0.0423622349410438  0.2720382334014373  0.7279086020115674
  0.0015271113583893  0.1921770722925668  0.6165354575475314
  0.1344193603032041  0.9314977999796229  0.8486208884199573
  0.9499618219807986  0.6899344403086607  0.8320985899730439
  0.4551742165726932  0.6239058871214321  0.4154217995359073
  0.4504315668443396  0.5638114652141882  0.4339785075426537
  0.5533777330014725  0.5326144496474214  0.3613307267960194
  0.4964656885127626  0.4843768954839338  0.4134444219623656
  0.9151996884458862  0.6071889629172942  0.7142916697949175
  0.9064321969167969  0.9478952303020876  0.4161055470008307
  0.3806235350900921  0.7103334202694018  0.8605081338124778
  0.1693549127280706  0.9868846423209999  0.4940168292433794
  0.1267682142155642  0.2405952219198894  0.8681875153890146
  0.8122848125595804  0.4561869958194875  0.1886097403211288
  0.8650000558998855  0.4718367083529129  0.2586881142691636
  0.0637572334734913  0.9464706281301849  0.5006608911240672
  0.9059894036437810  0.3496645619397169  0.2008417851104118
  0.0951575611946134  0.1442498511647255  0.8209476422824209
  0.0817987400847681  0.9278371150334880  0.5650239484866828
  0.8522623544942262  0.3493418725266338  0.2974477048708670
  0.9535897213868180  0.8558718805690114  0.4654616736419315
  0.7961510142770148  0.2185658186767787  0.8203205454156678
  0.9580970525633876 -0.0117423970648032  0.8966160560860393
  0.2409375062050486  0.5657859358684084  0.1341651533777851
  0.7099384370418693  0.4818466453121523  0.4821266740397442
  0.7444263308475970  0.4313852870755422  0.5570395160978511
  0.6484093899303650  0.3919494039734619  0.5188332259550202
  0.8210042758223807  0.5660913751190167  0.6683551949408214
  0.8683604462001301  0.9643800729842541  0.1389956646193376
  0.2585934323889449  0.7947746138708707  0.3582035169421415
  0.8143960986425746  0.4784471172624747  0.8455194120436643
  0.9186698529494913  0.7227277881559001  0.6449454814046441
  0.6780366621673266  0.1809237119265945  0.3535159993672988
  0.8939155226981855  0.6302446193620771  0.5960025136080170
  0.9032349875555078  0.6170084492269274  0.6574291149897252
  0.8050579266503698  0.0133890306965378  0.3673810851023572
  0.6945380686295727  0.4296731662055012  0.5936509269829655
  0.7786265772935692  0.1331013833814914  0.3452779727643349
  0.7548120159385617  0.4203046818761987  0.6165033899777548
  0.4837808919262094  0.3583237985346343  0.4697184665062314
  0.9489396674900265  0.3828182173942051  0.7388877186218124
  0.9704256948645632  0.3254091779097771  0.7550000027824735
  0.8759597092153831  0.4366241964052708  0.7639286277225290
  0.5960834157294096  0.9766255338434048  0.1787580798254843
  0.9207419080348084  0.2899436097618443  0.6864502803421161
  0.8931058952056062  0.1944731633389245  0.6349775735660723
  0.8493517291415139  0.3106354448255611  0.6035579548937293
  0.9411957819496758  0.7661447531964984  0.1417977831556566
  0.8168305107776718  0.2153031940729168  0.5542829545178074
  0.7979395385516606  0.2179222827973740  0.4932804493170759
  0.9868574778940099  0.4320386644931271  0.7429498685504016
  0.6297502099158990  0.2573345300707421  0.3715036000738588
  0.3101862486868441  0.7472956672733411  0.4428148967924076
  0.1438739887825488  0.6729136182892395  0.1250035085869818
  0.8427333664048089  0.3199453690021414  0.5424704318147886
  0.2588454912549745  0.8202779442119272  0.4648827874024032
  0.8458533349528885  0.2584642810776517  0.4999483715679701
  0.5767620873569053  0.2096659545523775  0.1927702471765403
  0.8858630870222804  0.4240698129135382  0.8234502834781995
  0.7935879033396389  0.4706309974173102  0.6227738871540078
  0.7655447236716877  0.9767608309284505  0.2694328481196446
  1.0153404082236777  0.7780219537651241  0.8329973741489568
  0.2623954544161218  0.8842966945532545  0.4524068835421431
  0.7873270260258266  0.2417010542984886  0.3732502674843766
  0.7846407152153386  0.2287604293216418  0.4340844471592613
  0.7769357870987247  0.3952428266796852  0.7368301581056869
  0.7446246518244201  0.1864886715018403  0.4854955114533926
  0.7282045065182258  0.3595203271474828  0.6666160425943024
  0.5864210069917876  0.4332261758507149  0.6153806003276895
  0.7183400136854450  0.3735802810530994  0.6046447882022314
  0.6105477397639245  0.3421102988768272  0.5181487849367116
  0.9859234509032533  0.6107973446416124  0.9743083918893526
 -0.0371648085934905  0.9949554536141019  0.3612617997789844
  0.9406495889446828  0.5788050464139904  0.8214088507550735
  0.3092824858280135  0.8478083218248029  0.4726601389516231
  0.8430423203786102  0.5412005917732677  0.7885417709111019
  0.9384893124471098  0.3646466823031155  0.5727320317028913
  0.0419438087811946  0.7196867825900667  0.1351059972724192
  0.8992776698977606  0.3463849932654690  0.6716060137097060
  0.1898973491907049  0.6397482980345699  0.9777337986354551
  0.8181108228846766  0.9810614823313581  0.1763282369479931
  0.6351350269256538  0.1525765165305068  0.6650031632185821
  0.6802429437713507  0.2713145904041350  0.4412681624004884
  0.6839507599620600  0.3327370035169459  0.4304197918747782
  0.8271974820774465  0.5693615115272802  0.9257378040392357
  0.9207919517614155  0.5084305358107047  0.9302391829830178
 -0.0053426711718271  0.6678503221087111  0.5955612244786193
  0.2853393805001733  0.9752090421877061  0.4989601223612594
  0.2148444331722618  0.8739935081116165  0.3760202138147278
  0.7710513392232118  0.6439205604083225  0.5579450176949217
  0.8039316701791110  0.4571589030961182  0.6810222057456636
  0.9244631037035723  0.5919518203956342  0.7716219882740790
  0.9432909594473775  0.8384215116304689  0.5317582112796131
  0.8315289013969672  0.5529024399574181  0.7291892615588960
  0.8404256119914743  0.1967375539623622  0.4560725142285785
  0.0188534689683975  0.3621686008580141  0.8215111171599264
  0.7841373290062847  0.2312104261722338  0.7608000344117528
  0.6495632840492660  0.2590589493542648  0.6574980496833688
  0.8179862822995345  0.1045416614796721  0.4591135900418370
  0.5782301224376806  0.3125233076122733  0.6817827406975500
  0.8629514983295993  0.0705997523968697  0.4772594605301348
  0.5771733099637605  0.3226339938854030  0.4498318756321421
  0.5663581394839519  0.6779060791994137  0.9836055852378688
  0.5593339463175213  0.5639026300297632  0.4691299563883610
  0.7218503438184732  0.3453379722416719  0.4972521816163408
  0.0097395534681796  0.6240440093467625  0.5458221218651609
  0.7012494076548712  0.2976433639796133  0.7237880912125443
  1.0071891530178958  0.4056941883781764  0.8652489344568025
  0.7061759994448055  0.0937897360999188  0.4761988305149418
  0.5185690716727779  0.1316125114248475  0.1406593788863068
  0.9268299014677898  0.4408995880573902  0.7233896561642562
  0.1092902881242098  0.8726266824844717  0.3379654308464575
  0.8778645770749378  0.4035054253772690  0.6578141413906140
  0.7660861999291276  0.4063747475484660  0.6769037101497958
  0.9020476143299991  0.4666866048920846  0.6029100692488540
  0.7689198026214946  0.3758367080307425  0.5612984870537451
  0.2057457036568983  0.7802264623848371  0.2883035041882678
  0.1919144888461366  0.6253765475981375  0.2135808897310925
  0.9321867503578325  0.5617427253120350  0.6562225280698686
  0.2435133821154983  0.6111238971038874  0.1788239458253680
  0.8481342442711319  0.4330700967353393  0.5376939256342100
  0.9666651815218534  0.6078804438529920  0.6498555494112542
  0.9824609059879698  0.5651198467128059  0.6105079638468590
  0.3856944287304606  0.4119352338591017  0.2321706578537580
  1.0528864600116952  0.6317627782414597  0.5065198975438511
  0.4335335619853032  0.3492704930049857  0.1553729486347056
  0.8460250755271281  0.6732218365069674  0.9135033045767710
  0.6400916397389868  0.2708220250216587  0.5985423349758610
  0.8227470255802707  0.0372451337879180  0.9260073988845434
  0.9194168282807004  0.4702955703749551  0.1634972005311175
  0.8224109897375436  0.0864041744229732  0.6879803147712948
  0.0493794701405128  0.6094188758448204  0.8955562171916339
  0.7166516316100223  0.0283150679707683  0.1876468117652556
  0.8858746973887374  0.1081937217896033  0.8155124295627278
  0.1879225773270694  0.5656563410446708  0.2295209753119812
  0.8043553289575368  0.1426200307883436  0.6687307102568532
  0.3390044536855404  0.4575330117745957  0.1425231217837206
  0.7513745916400336  0.1048804072999944  0.6010942446365730
  0.2854511025235343  0.3807182612019653  0.0813645718004538
  0.6697607419536528  0.0962853551323188  0.5457056462299905
  0.3867740141556320  0.3809796123263329  0.1298279764408084
  0.5812283398330206  0.0273984747848408  0.5531305469869386
  0.7467764695221938  0.0497964812620999  0.8964868953464467
  0.9662548443203575  0.3933708261328187  0.9690841388433346
  0.0515287449677104  0.2915929374853085  0.9113930956998815
  0.7155464707349538  0.0872734006170034  0.7054000757771719
  0.7563651924912864  0.0064942490507478  0.8523257839380491
  0.3967774470825418  0.3247638376691644  0.0047124489758775
  0.8182730885348419  0.9798495721841924  0.9426733847129044
  0.7896538610978460  0.3503493862568590  0.6888041173632072
  0.6230854768977654  0.1331530790053236  0.1763343456743581
  0.0645179493440692  0.9504156339628929  0.3540209584963552
  0.1863110838559961  0.5724178066364716  0.0026998144448040
  0.3301216234886223  0.3503001474012143  0.1220088451520327
  0.8825482113350299  0.0542944630332148  0.9873307822073076
  0.7649272156189809  0.0495932234072430  0.6228954656661564
  0.3747626796869999  0.2708092775591450  0.1097458450748839
  0.1254845885450358  0.4253682660251312  0.1919310006036445
  0.2480059705561011  0.3629820808205073  0.0150581898636126
  0.9427506141044001  0.2308278819657850  0.7021285820510207
  0.6300753827925492  0.1744526537871245  0.4534561988866723
  0.7207139734596462  0.0843683357468689  0.4080889406124659
  0.8432402590610983  0.1910916173166157  0.6742672309603659
  0.8142078286882792  0.0096811650217852  0.5378242096511398
  0.1808207545005398  0.4266104765412007  0.0948055940540962
  0.1904232530386839  0.5963150642975570  0.1064620202865599
  0.5311443793017322  0.2858107047374239  0.2099482523373281
  0.9473471971252088  0.4732434994099431  0.5636210903230280
  0.8944422890369139  0.2272331916497557  0.7400807562251599
  0.4190794816287564  0.1946950601976414  0.0893832677452842
  0.8310386306336333  0.2041490465617667  0.6139650413498556
  0.5303981120694459  1.0619616664489540  0.9360573211718491
  0.7336090053100991  0.1608022067740342  0.5887952961916910
  0.4686041358764886  0.1638580571535733  0.1158004693509059
  0.7038497401489053  0.2130394667089999  0.5794221558965827
  0.5651424923967234  0.0725753134509310  0.0587980304634791
  0.7949685121573010  0.1870567393314942  0.7145387338219021
  0.6178543603245766  0.1057484534356892  0.3041043758790712
  0.7488424971904546  0.2709105399991621  0.5793831624715651
  0.9028700068281132  0.4985921378421475  0.7070913276950270
  0.9638873332539706  0.4890631451905523  0.7281439675043665
  0.9886111054518137  0.4689753349806501  0.5266761195172612
  0.2358554130790730  0.4729368740456660  0.0420448845163137
  0.8838943440201936  0.7593241085295632  0.4664095524770814
  0.8577331012325399  0.0462486724579506  0.8763067633860124
  0.9888179748302969  0.1892481415326641  0.9429969459779117
  0.9380915271254324  0.1449231402199995  0.8780632332607312
  0.0112176321799270  0.0868555946385967  0.8602078723014357
  0.4193913060411704  0.2682106578252038  0.0170478835571739
  0.9299840933851249  0.3063090037091813  0.8591864445307199
  0.9639903154471653  0.0834151830269355  0.9007768037018413
  0.4159046074105310  0.1516347386630676  0.0420724152047781
  0.3543907970328751  0.0168908418291832 -0.0090357807556963
  0.4607732801973022  0.0730266511914171  0.0245662585483552
 -0.0030089790575282  0.8126655435109997  0.0921019410656614
  0.7932218448401586  0.0244367964607882  0.7491795770916648
  0.9872767661179477  0.7068968369331602  0.0622560929504871
  1.0049414599894546  0.2541990142021358  0.8282396524815993
  0.9545952452934824  0.2182263906031665  0.7609230790763518
  0.9239916034621066  0.1239885089937790  0.7136237800862995
  0.9117225426005997  0.0066397072358550  0.7877565691095305
  0.8718260933999602  0.0890753739341320  0.6461027757494324
  0.0571293388665097  0.1284532078957253  0.9268306171682111
  0.9423006690512149  0.8101688582735070  0.4177052115274588
  0.2850445471151546  0.8534539438748137  0.9696885382102206
  0.9705509953784970  0.7136636429768325  0.6633862000933669
  0.9964089658591913  0.1970617335958701  0.1703802635174896
  0.3744230997436261  0.5535041899561475  0.5786911245896281
  0.9366103308444118  0.7208072092486895  0.0980944776801005
  0.8829495499376768  0.1043953053516330  0.0432519155078292
  0.2005371719806320  0.9132573959246280  0.9348150660453658
  0.1785601352358289  0.4416322115333696  0.2648767369429371