B  Cr Ni
 1.0000000000000000
    38.8178767765091450    0.0000000000000000    0.0000000000000000
     0.0000000000000000   38.8178767765091450    0.0000000000000000
     0.0000000000000000    0.0000000000000000   38.8178767765091450
 B   Cr  Ni 
 106 1596 3725
Direct
  0.6300373735812224  0.7601903237447430  0.4760972699186954
  1.0194522015434755  0.7134852798125394  0.5671578330227393
  0.0977528250891411  0.0706098508549676  0.8871804688155434
  0.7201539987250157  0.9506938871005556  0.5416008206275668
  0.6619333577534879  0.3403771325188944  0.4911206892816411
  0.6578715547771965  0.2177276488708707  0.6180774982502649
  1.1070959943220178  0.8844821743211561  0.5428255196795744
  0.1546670934252906 -0.0422759449793471  0.6885207319610844
  0.9956192591566903  0.6730983124117887  0.9732338802872598
  0.3209794679779751  0.0574436182541341  0.5179233357994629
  0.4664241382815705  0.9756188640407361  1.0106288516880297
  0.7207919737814260  0.1767126440377806  0.5384514586066398
  0.7878347293148089  0.5865067840277327  0.9561559779650746
  0.5170302553747491 -0.0061486637322140  0.3489045571739240
  0.2218320040808620  0.9595848474891070  0.6412773175743340
  0.3593586659673752  0.7031249248308489  0.5156567617946245
  0.2450179669593936  0.0872910305560196  0.3425006308215200
  0.7572905285272992  0.4229499056333893  0.4596519391924793
  0.3084584533297940  0.2789954904193927  0.4984621763999116
  0.3570788044825317  0.4230273245223634  0.4975080876115733
  0.0169682298397697  0.7768318952298344  0.5234658490648597
  0.7627075048161206  0.0136306034158107  0.4533900169167738
  0.0842566481714610  0.0467623496182897  0.1404337729986800
  0.6791809825402940  0.0189665900763104  0.4858918771449430
  1.0425268175893188 -0.0034193303264356  0.9736153300794229
  0.3755104702733907  0.0082445170959283  0.9388897834538634
  0.4048905968527038 -0.0000506770786138 -0.0276955001032009
  0.7207448397056017  0.6508503016231449  0.4815214051404824
  0.4908546547290479  0.9738672192394983  0.5120138450545140
  0.2090424374540782  0.0182145731866520  0.6941878328972735
  0.8598979811238416  1.0101543175300145  0.9597444406238931
  0.7564045311333532  0.0766293734273030  0.5082225728076041
  0.6971395993875035  0.1228255545728129  0.5886616738771442
  0.2362177927337577  0.9530367370528007  0.3148191786876636
  0.3571667544101240  0.9386224762430663  0.4497402728726749
  0.9433769575452037  0.0422671293934358  0.9772954932121619
  1.0434101436948249  0.2098423587928065  0.5286617465932602
  0.1903523547131571  0.9266486596098106  0.5697265863089039
 -0.0128094615662930  0.8620242052764739  0.5098260852977572
  0.1961572551051445  1.0278211853822785  0.6139184113790629
  0.2120408738909551  0.9452198554752413  0.2790467109275285
  0.2241912088442428 -0.0762433141771967  0.6079658108217563
  0.7927656576206832  0.4169023430597564  0.5292984271529969
 -0.0026024909929347  0.7209366316748512  0.8250028997263193
  0.9268301364721226  0.6657443860895191  0.7295325975887155
  0.6909785630495791  0.0486007548261406  0.9234305342449121
  0.2322356597651435  0.3072508753359051  0.0598390678028684
  1.0051961034013277  0.5923437217467977  0.9268368297638460
  0.2443857118179854  0.8356932331336303  1.0015851801390441
  0.7501168536460235  0.5878580783002162  0.9840541875512321
  0.5866605548425426  0.3207654588623467  0.9971166911134539
  0.5310672531111126  0.0658361914417420  0.6022034900177820
  0.6022740148378563  0.1844933130568321  0.5505523523784589
  0.5986814570710778  0.9399662180902385  0.0710272042421662
  0.5898101522361683  1.0225129948477496  0.4386188476598707
  0.1246009813276671  0.7755157885416702  0.5257142724773021
  0.2138778097115026  1.0040275510632322  0.9275990772866248
  0.5699942608090178  0.9843411102437210  0.9932387719287211
  0.3152732984082711  0.1141064354457957  0.3557052192580575
  0.2536411985204479 -0.0001155185744010  0.4531167620284156
  0.3024090495511068  0.0658669019083546  0.4303641306125408
  1.0389362535092623  0.7196068466650994  0.3607178130225489
  0.1822797592265259  0.4475018051884780  0.4828943417772589
  0.1178497424857195  0.4732474229843519  0.5182822108003852
  0.1181871846036971  0.9601309701095996  0.4748945894946088
 -0.0377223282741985  0.7472321107997636  0.8344482668736914
  0.8764600285286106  0.5983534647308689  0.9461946089431191
  0.9314353390684615  0.9420734952007689  0.7322821014806701
  0.5745710309651512  0.4729692303276138  0.6578155869060449
  0.2208916610046391  0.1017359330570288  0.4389211348264210
  0.8597476678293069  0.8073202033049737  0.5638286801349819
  0.7037725346175198  0.3507677528915630  0.4071584626031042
  0.6178417140293679  0.8145066816000608  0.0247326984442722
  0.4746587947125403  0.8201247259646757  0.0128212508316257
  0.4593004881201089  0.7246740262332901  0.5079249096374504
  0.0489543127078662  0.9087749605683807  0.4605486479038757
  0.2169899375599893  0.5153705141597489  0.5371448815359486
  0.9000170743488850  0.6830823446478250  0.9268076559967072
  0.9312375480698183  0.7525242103821377  0.4232504041094168
  0.7965350970016054  0.8581426961498564  0.5133803713763726
  0.2098090998874348  0.9059645599277384  0.4699167560546553
  0.2191687022465406  0.1895215809903835  0.5216591226934739
 -0.0434023905231952  0.7082976189927521  0.6093259779889150
  0.7798637507980799  0.0216054933569047  0.9457121411371948
  0.8078213143014359  0.9957395013741063  0.6924894337289891
  1.0567443616025030  0.7056744511117564  0.4710634049740051
  0.8402353391511235  0.7588464993826655  0.5013136360889450
  0.4445607612005822  0.1555659868251867  0.5082171495188549
  0.0335591985774558  0.9226270469782475  0.5411695707562629
  0.8966445001260339  0.1842728197435395  0.4747077687689422
  0.8999897730622820  0.7064831246507058  0.5445902628599367
  0.7234282304521386  0.0466012283660150  0.6697088454305995
  0.2590010979468165  0.4264933284090560  0.5087941189907588
  0.8785927570965155  0.0413669368970009 -0.0684651828029187
  0.9218030643359851  0.6218873451408000  0.4916208097279126
  0.6720966899213249  0.4316747926569158  0.4864713585902304
  0.7538236573606042  0.6624756945354585  0.5087261631811956
  0.8532163367602366  0.6162623372795346  0.9138335490405749
  0.6545795437622387  0.4677286349313729  0.4661130059331868
  0.1236519423166672  0.8689310703674216  0.5047634893272368
  0.1150103727415658  0.1306135808673989  0.9354420076874381
  0.9418287030385050  0.9299608069679445  0.5519916196477342
  0.3645544644609328  0.6104384391953501  0.8340863646214376
  0.8706606174672513  0.6558966677868716  0.4238177947526148
  0.2685257744841140  0.9875654026971438  0.5562801937601737
  0.6030231266257553  0.2624729209315712  0.4982928379670808
  0.0058511991636119  0.9160791601632262  0.4932469655063523
  0.6384348636487173  0.3332853249666304  0.8094823636144419
  0.3373452761537668  0.0102957216622501  0.3194019279447718
  0.1102766972072256  0.8595088004092994  0.3976453075929980
  0.2507333665576437  0.6904656372999133  0.1027214437060224
  0.2620903099236214  0.1430136823657057  0.3408224887455007
  0.5170638652623128  0.1392324084263414  0.3710636876864439
  0.3163685589123228  0.8261540236965783  0.3696412723672334
  0.2121715464493769  0.2442178418988823  0.2899330950024711
  0.4632526541090261  0.1554149232501428  0.4068309808154114
  0.0823397106743065  0.3727772860694664  0.0127861871073647
  0.1171964667818756  0.3820393450017625  0.3808743577903762
  0.0004822047931902  0.2437916930501906  0.2130212794679509
  0.4105853769511211  0.1197158824329540  0.1661604703331867
  0.0758743851601924  0.4732707182297667  0.3322332320912518
  0.0728576952095554  0.4590385725870144  0.3897588275177578
  0.4563460173526279  0.0414803301250914  0.1466387548005345
  0.4576814796724474  0.0593219472090477  0.0865162231321592
  0.6360485025038832  0.8193055012074428  0.4776613030746766
  0.5105629664751832  0.0717004426403003  0.1563180175699635
  0.5160490480889915  0.7242943216324786  0.5153618030206919
  0.0352123601078401  0.6291039901157939  0.0496351810156535
  0.6435160384193800  0.5908291551154713  0.6019470865908380
  0.2401035511929557  0.5443263194181506  0.0289220632887103
  0.7596621223101618  0.5857567709828237  0.8438380196292951
  0.0354181156165291  0.6489465955185170  0.4396430987724123
  0.3890256741014138  0.0071108223793718  0.4562449570379872
  0.0834649760373015  0.5804085329473408  0.1331362999827224
  0.1316869040807149  0.5025072484606737  0.1139549476457464
  0.2814655943483567  0.5819090011378725 -0.0164108625811681
  0.9183892683129794  0.4562005393084537  0.9954822610963716
  0.3733541598782235  0.8723864892453130  0.3178718475658427
  0.9146419633012028  0.7776158210949160  0.9166393110672247
  0.5233779689800897  0.7758935932421205  0.3959071372776672
  0.7575181937542399  0.7396585633294288  0.8659557792072669
  0.5999403698837703  0.2535166670544366  0.6989523134849127
  0.5201489556393154  0.2268977633395638  0.0000358712585691
  0.4171194158725769  0.2144251925590768  0.0212283196999584
  0.5041206342752222  0.0810779953314013  0.5218716040868755
  0.5276647663830997  0.1366732068890215  0.5276422999351509
  0.5192064483686796  0.1173694343571552  0.5826644062437046
  0.5726801231324469  0.1566559876558996  0.6464776623536910
  0.1474983447863734  0.7314452359208394  0.1108378750461228
  0.5996040142491070  0.2212325253580182  0.5964093728702284
  0.5502056096652873  0.2477586552390474  0.7384441233058963
  0.4008253743125130  0.0278226512876806  0.0778666163680697
  0.8936769287823971  0.2596538489015729  0.8463875140572504
  0.7831919188506442  0.6797985417355412  0.8892795215868650
  0.6119322850707305  0.5239489277486095  0.6594851794795710
  0.8401067627116663  0.3155303216079228  0.4854490661400330
  0.7352593799728985  0.6438211128444299  0.8239098041462726
  0.6385296735082270  0.6007051333358244  0.8009960254965071
  0.6793467473755549  0.6193932129864358  0.6991604337479930
  0.9453469314476702  0.2299556906510029  0.3734742728841024
  0.6029327361033653  0.5700501035326644  0.7016728003675763
  0.8393995743483260  0.2125074791397660  0.3957120940594300
  0.3087837810113593  0.0800264975184828  0.5723448047196982
  0.7464910491953731  0.3622957378903882  0.8992944664860768
  0.6002292330586586  0.3154210826533496  0.9085081278093677
  0.5777530444288818  0.3422416437011720  0.7899789132563676
  0.8539546664975541  0.9503872903951557  0.5095120110902021
  0.6505976315748002  0.4421864296104424  0.3104366151746924
  0.6432554463538437  0.3811330508630708  0.3311969187528390
  0.4476032417127254  0.1180747543290785  0.8905298319374293
  0.4299237566767643  0.0140061349737289  0.9159324871199670
  0.6910445547438751  0.3184117343544331  0.2553799977443887
  0.3463489842997937  0.0755147786914452  0.8690587903598040
  0.4184995974578257  0.0239126408439788  0.8464528297460434
  0.8344757661724121  0.1650689334053716  0.3518966175465936
  0.6735451130749428  0.2309931719091372  0.7802198791415956
  0.8945991067872238  0.2949029892949775  0.4523795395881715
  0.7924321163066553  0.9445826635658700  0.6043331647148521
  0.8972115568183786  0.9443042741680279  0.5827657652385781
  0.8635144328322879  0.8928693401172193  0.5895771990354873
  0.8017299267540066  0.3980415769200161  0.4340128550484157
  0.4482658196470571  0.3393783753050434  0.5775518869421846
  0.5632033029220453  0.2338475885105374  0.8019202955900274
  0.4587289051475520  0.6573044034506806  0.2935359130824465
  0.5069304304398919  0.6080984116882934  0.3805738638049950
  0.5217636101130405  0.1514225387984971  0.6875158223486283
  0.3825129613847931  0.0611411100581901  0.6589297038904213
  0.3997898207878617  0.1399931131287113  0.5362395962267661
  0.4192044745150107  0.8864646646033536  0.5005880517115702
  0.9675495783604102  0.0258465614092238  0.4662697179249026
  0.9681743370961380  0.1298770411516196  0.5022245872689944
  0.5235418552498752  0.6055485381131871  0.5594572230778601
  0.7274288057617957  0.1171953988665733  0.5406068892660704
  0.7382969554903486  0.7460099305021253  0.5842101190594990
  0.4739125559877960  0.7315605384016852  0.4503623610633128
  0.8861577282367176  0.9638584776159567  0.7506565536748291
  0.9403001349988904  0.9472389531776483  0.7872740227564674
  0.8704091535373008  0.9306739499625800  0.6940387638734583
  0.9112036614711453  0.9706756169909474  0.6887259350572207
  0.7015081829155572  0.4423546784463574  0.4411467326973474
  0.5937716671722997  0.5559743626434713  0.5364647296855045
  0.8157966766814668  0.4361956183906234  0.4799998277814182
  0.4030833318900660  0.7457968544229642  0.0268271769754173
  0.2435325124233546  0.5265174036331371  0.9799382307217529
  0.6243425921312037  0.4514312750027686  0.5099387752636416
  0.5181502996439395  0.2878842758930327  0.5555735930126323
  0.3698316041962121  1.0060600852253880  0.6828177888455234
  0.4433657091824932  0.0544045317715483  0.6806721469488846
  0.5116532318412851  0.2887121165685074 -0.0140697732481451
  0.4855534130133764  0.3578151992368792  0.9828680164927504
  0.5556239748527115  0.0835193845144899  0.7668874570550038
  0.4366557489866222  0.3667806081339795  0.0931985330441287
  0.5672339941211378  0.0719494681744368  0.8301195508669762
  0.4878547624925213  0.3468684904908712  0.0597236480084718
  0.3910892094977588  0.3934014593550296  0.0626716115324530
  0.4439044706973753  0.4263018483391933  0.0649346630643334
  0.6571640805811773  0.1585122721536507  0.8955862492661191
  0.6766021833090968  0.1505629982137899  0.0169677094404314
  0.3952523517904546  0.5051548942119974  0.0908241635882723
  0.5270792339946891  0.0231090822370944  0.8277288871217703
  0.5859174959067800  0.0165199572894825  0.8485147241406208
  0.3934252434565161  0.9871357053875839  0.0304372838237397
  0.5679061072861534  0.1098927078255625  0.9339435133266560
  0.5184394729592443  0.0678414417537978  0.8701097629684730
  0.3541390371466216  0.6458388551569537  0.0883267627219218
  0.5708109194099202  0.6120719001269387  0.5190797095317418
  0.4499821894631347  0.5350495849967474  0.0996452308372262
 -0.0100182523849397  0.9556711731430956  0.5400900416305562
  0.5955146393781588  0.4185922699964605  0.6728406406131122
 -0.0516012941542143  0.9036942588089545  0.5031494550674160
  0.1319179943328757  0.5200108297469659  0.2811907255491590
  0.3157067900413624  0.2424168849780905  0.3269089663771306
  0.4223421750349717  0.2925829421236978  0.4069452699993578
  0.3696418186210249  0.2727690071780023  0.3358785910569679
  0.3245366796926724  0.3265772066132120  0.4806257180071041
  0.3238234482881779  0.3502205245193075  0.3493637118152058
 -0.0065775775427466  0.7508222333147445  0.3356917463758863
  0.2810059307553244  0.4284461865501165  0.3617673376117539
  0.2364566384937669  0.4870877725301270  0.4371771057989677
  0.2849940553713985  0.4743142713594050  0.4058184937940241
  0.1800288939171556  0.4731418250207277  0.3694488595587813
  0.4141404035068281  0.1482820327096221  0.2732304910866349
  0.2378110187833118  0.5204882721832760  0.3172631205959297
  0.2929533127552520  0.5804402818626029  0.4353436151948011
  0.1852432454085572  0.5654795067899202  0.4561844153395037
  0.0853449507513569  0.6286830313347996  0.4052579060441464
  0.1433908741568732  0.6592161128515278  0.4136187816041947
  0.1020241557183128  0.7309721521849007  0.4916211346193817
  0.0521715460837666  0.8128184222152709  0.4499021959626401
  0.3085136320520086  0.1340295184708690  0.3011467055777354
  0.0724390024688275  0.7723235727344923  0.5393441565502820
  0.3971914590240916  0.3330652532234833  0.6175509528081221
  0.7224238407941703  0.5244264227255073  0.6424099084854470
  0.9640491438524442  0.9662609310737608  0.4834454269877241
  0.8193810001283397  0.6808732529958935  0.6223315957611234
  0.7471127192920654  0.3803505839394057  0.3688192426963767
  1.0040458336651459  0.9841982552650872  0.5933731464185312
  0.9424261509756261  0.9849973533344564  0.5783475651774024
  0.9691414964422078  0.9574215957581566  0.6954904291248761
  0.8769740122125195  0.7989602156601259  0.5110139828331024
  0.4639586016259959  0.1291513762328202  0.5521279637275134
  0.4819814115607438  0.1037293484512547  0.6829365662518034
  0.5441350687837548  0.0965220791915229  0.7043323956898786
  0.5829621027074450  0.1463566751466790  0.7072633449029279
  0.6203080114851781  0.1184722694214937  0.0072268523464603
  0.7707146214069935  0.0435608918795355  0.0245065409088284
  0.5852126790084696  0.1789030357556768  0.8132244107583152
  0.5788985145102338  0.2262101238416613  0.1310818980306837
  0.7347624449843152  0.2575188535981272  0.9004864331234156
  0.6644524499916556  0.2301733149545918  0.9400362117471883
  0.4797464162554906  0.2385201602498249  0.5506728384244302
  0.3007112163984386  0.6597467461819296  0.1263826589021232
  0.3274113746790244  0.8238237179749899  0.0521866646160767
  0.7646267646486147  0.7047038426505843  0.7652239366017671
  0.5638442443430898  0.6389676792454697  0.3901441001704084
  0.7604438294411784  0.7737534878138748  0.9676957873846154
  0.6953756053106076  0.3562462963305570  0.9398138835323037
  0.5755392584311350  0.2223132919010797  0.8658171590042650
  0.3701656548476300  0.3071814152958149  0.4432839073653598
  0.7750365162915828  0.6367676150909666  0.0050199667373303
  0.4852305365887049  0.3651918866456079  0.2230873150623518
  0.5337031582516025  0.5570654384534554  0.5164375958028650
  0.8173615458391049  0.8022796688657059  0.5305918251311929
  0.4712205276810342  0.7908929251453370  0.4338412693028797
  0.7813118702078884  0.8304729262632926  0.6880497410696720
  0.4242890696227574  0.8696100112492092  0.4502202253609371
  0.8248171607147823  0.8821205184373667  0.6920282719915415
  0.3069410951504166  0.9196706043725935  0.4642820171144219
  0.8548539438225699  0.9007549987213782  0.8132566620737617
  0.3412148469901965  0.0115049412259415  0.4970938146993535
  0.8719567649063094  0.9900722572640225  0.9055982246151598
  0.9151878377375828  0.0251152981544041  0.3332183036470268
  0.9701844549941853  1.0324645404979189  0.9299673206639271
  0.9396275615379776  0.1553122907994378  0.4574610137426314
  0.8777349508944240  0.0897551845402282  0.3350233878358247
  0.5833742388292007  0.6691382756981026  0.4970717018144442
  0.8906508640068836  0.1975183341961999  0.3600677500272106
  0.8408929716202663  0.2617702356381034  0.4400314683165935
  0.6980340173050884  0.7282679680460517  0.6825223415610046
  0.7389824729047646  0.7806478906696931  0.6868081191924459
  0.7396218304897264  0.7640781879727081  0.7438551095398556
  0.7747809114663999  0.8120500131282398  0.7458740804441778
  0.6127393498942756  0.1902195098116306  0.9318775519387631
  0.4445053884817254  0.5338427778587432  0.6582012393669272
  0.4288293894753228  0.3946335783388539  0.5638937443325009
  0.5372997733740346  0.4257381244651496  0.6515075671635570
  0.5276203481384285  0.8740059385684951  0.4833196876884881
  0.5846377095004116  0.8691681806814930  0.3899906214539199
  0.9904671972322429  0.1561502927545850  0.3551780713136228
  0.3782152915299326  0.3196371924550486  0.9547060213101261
  0.2118416688005030  0.9623579570508543  0.6951354015919491
  0.1631994368202857  0.0546289687852345  0.6939404688086215
  0.5825108534793063  0.7286442089521205  0.7029598697932200
  0.2752551458844308  0.0931776231635401  0.7840103745901724
  0.1531272338107004  0.1034667561060431  0.7375729735790890
  0.8978497991266501  0.3056367374927045  0.3878059410129571
  0.2152892541548281  0.1315473557934663  0.8674021132095230
  0.2744242661088226  0.1228716251557721  0.8902604023840500
  0.2545654974000663  0.1245175537714795  0.9966667882386191
  0.3611462784987241  0.2116432058716869  0.9598756861784449
  0.1856786953205637  0.0380785793018233  0.8246070106490435
  0.5178080521610431  0.4823878740406700  0.6356446475951648
  0.6200038520258637  0.6863383113877869  0.3383803584885580
  0.7774556674516208  0.7173239900943037  0.9913106579615106
  0.5699552343652302  0.7177137562420574  0.3135317176774272
  0.6692401094578442  0.6837532409352000  0.9033756319399336
  0.7132215625071354 -0.0020154091371362  0.0802648302808480
  0.2434431175959543  0.1948658995728953  0.8095806770328784
  0.5742143122846259  0.7457778775119304  0.4195924699138505
  0.2418708283140102  0.1616243889419199  0.7022887342995665
  0.6162045537241105  0.4213651436901431  0.9044500651241439
  0.5559464946930512  0.4298841779726227  0.8815458919592037
  0.1184199173448486  0.9146799463359394  0.1489588944302179
  0.2282541634781044  0.9260993171189297  0.1214385124809173
  0.2417968453071714  0.1270124634954727  0.5966096837124536
  0.7263824569215959  0.1177897206156255  0.0444041795635229
  0.3008722318677632  0.1227984363259149  0.6183661183626612
  0.3288579596560851  0.2187166375112819  0.6677945347252989
  0.3797202585813855  0.2567155906314662  0.7348818163782147
  0.3913890667136366  0.2443686199324140  0.7965214324083445
  0.6294901669121098  0.2879606856320658  0.0217499795726299
  0.5006783606772519  0.2747086830918457  0.8826274292071873
  0.6004483014850163  0.4095651230340975  0.0707847233727633
  0.5283295208920958  0.3664234970275542  0.9419835028949778
  0.4956657335490953  0.4545935320523349  0.0823961068853194
  0.1257553637632604  1.0161093485554076  0.4683288734549587
  0.2409831172231061  0.0130959904741100  0.6448092489355288
  0.4186483023526703  0.3064180773819139  0.7412860914530269
  0.4084211648116042  0.3203033511530025  0.6801867631309718
  0.2045910889091733  0.7796269272392872  0.0600525801130253
 -0.0005616801694536  0.2607175390697243  0.3821363212239483
  0.5354663504588674  0.8213491829541465  0.4995023727912354
  0.3027448363355679  0.1884021624701958  0.8303616297177489
  0.2285302263930120  0.8836306397209099  0.0841390008571631
  0.5498745354765050  0.0088569680414262  0.3885398354818743
  0.5129875106294040  0.1822268785830037  0.9549396807898844
  0.6317024343044353  0.4677100785768988  0.6752785693307836
  0.6925997819693478  0.4606835147865715  0.6998560051201665
  0.3453189939706297  0.5665255334464930  0.1709513161412136
  0.6450897460966342  0.4542222955089433  0.7374060855253228
  0.4045666722798062  0.6279265231163826  0.2841319374675804
  0.7825522707570568  0.5472344967638743  0.7669131274624443
  0.7538529811253706  0.4844615580641502  0.8244530803012093
  0.3032456053586091  0.6884568472011550  0.2330470393585586
  0.7687720931708303  0.4545860078611637  0.9450714824546033
  0.0734627335181856  0.9440914126730930  0.1213632562654099
  0.8773884721015045  0.5965349099189736  1.0012968392524015
  0.7889159954399004  0.6714945152514294  0.9518935227251432
  0.8245674979161359  0.7173084845934293  0.9472813042695264
  0.1522665145584232  0.7784797784374025  0.1558921395645419
  0.2065997608584899  0.7941754199908952  0.2283414467187928
  0.8669592881934375  0.7368768222708666  0.8486580331492733
  0.1596011914046217  0.8390410358484488  0.1380731643335073
  0.8574270984129073  0.7496991253507773  0.5543741418867553
  0.7991093672353439  0.7468366036264662  0.5420723565606926
  0.1650803801940157  0.8846409728375616  0.1779963487091412
  0.9820220215945358  0.8852954923853981  0.8598181302499489
  0.8325252344858861  0.1349033689782476  0.2471688711472024
  0.4092169341749817  0.6887881695865707  0.2685539013111568
  0.8933678606775201  0.8258864672552195  0.6708746368011795
  0.7428376093624445  0.6081971150310026  0.5183317638558070
  0.6986837003573385  0.6991455366978901  0.5796768756292633
  0.5790946580979452  0.2439146247850689  0.0665192080641074
  0.4885987310088410  0.3802290900890706  0.1621046163720031
  0.9432494036548197  0.8412714369783639  0.8536481205002673
  0.8960015888099873  0.8000769741920399  0.7907136036471916
  0.4396405721556175  0.4117662128088891  0.1330209818521615
  0.0656839108479799  0.8175001961777528  0.8995366212690393
  0.9527569825981725  0.8276529845287227  0.9179772959676260
  0.9897793764233368  0.8711444770179719  0.9216085595790555
  0.6645317608235528  0.4998187717632941  0.5161556036140886
  0.5029490344211168  0.5500638729169210  0.1699931924760976
  0.6940778364345475  0.5974517620430850  0.5576215195953304
  0.3425681748558156  0.5209062368174127  0.1256488739569633
  0.3491203006898947  0.6133319227028822  0.2139342656808294
  0.8355102951610581  0.6544175155073632  0.7437753284806259
  0.3549409107198989  0.6741733599935743  0.1962233187826318
  0.2526837164879754  0.7177896428991226  0.2085006906372833
  0.7847587816863220  0.8003945784509329  0.8072863895364365
  0.8451863761056392  0.4067671396820197  0.9254500577970149
  0.8554742170674429  0.7619796805061791  0.7270650541136852
  0.1812399737370610  0.9893811559161604  0.1983403929298851
  0.3596704632142994  0.1341548976762964  0.2021403946636089
  0.5064663064846391  0.3916465735576330  0.8145336736676396
  0.5722542584750033  0.5374451341606409  0.8650005109561442
  0.3831098531595765  0.8253880503780008  0.5610357747920603
  0.2193777345106473  0.8981915843219699  0.3108008535445707
  0.5571716495760518  0.3685126758122041  0.6665088407266357
  0.6272528596776716  0.3476416518461710  0.7504236236884891
  0.2758527986844899  0.9176223442207871  0.3311970966848496
  0.4984622262076688  0.3748567394734693  0.6452551377549725
  0.5677049294357643  0.3243296715042312  0.6219150458167239
  0.3632947051096900  0.7813656627401132  0.2280815621191294
  0.3628189225583558  0.7657379175242617  0.2873945001621412
  0.5114312177341145  0.1986362374799188  0.7329009433883288
  0.3618745784958228  0.7494052249480274  0.3488056926985844
  0.8831217983519601  0.6513844797230752  0.9752873734084739
  0.5930588903722264  0.3800388470362522  0.1980572132620114
  0.5528378318695005  0.4364280955412440  0.0462152417269914
  0.8777790716306564  0.4118259124510637  0.5016254647459882
  1.0042289794641424  0.3547147222324344  0.4738726894273165
  0.8150650648341706  0.6092178784119207  0.4830637681164814
  0.6191134683934387  0.9305943633849434  0.7261589578658123
  0.6773251357246112  0.9233044388018488  0.7472937217282590
  0.7295201398452654  0.9605294745176243  0.8129045192973330
  0.5512108478474934  0.5020145312932284  0.0295371253050856
  0.5063658754849567  0.7701620948981938  0.0006372447114588
  0.1707587138296608  0.9527607304607557  0.3913548973271331
  0.7386419950604780  0.3457002448493680  0.7288240938265947
  0.6652446732621301  0.4283474018605099  0.8618361644894672
  0.4865593373134602  0.1688100484575485  0.8930163869902611
  0.4734716291587224  0.1808115567345434  0.8340946872970025
  0.5563287675038493  0.1172306689308096  0.8723720544035319
  0.4834377593150799  0.1357285929243496  0.7894062446525709
  0.4451767603154447  0.0869619769128486  0.7861937307704613
  0.4113523827804350  0.1554288603399714  0.7063494532234427
  0.8750505186918518  0.0418990340098299  0.2912115417952051
  0.2112802497794401  0.8589652579331057  0.4355452953913120
  0.2703197829198542  0.9024457770809716  0.3919308369952164
  0.6410474483666433  0.4031214749433250  0.9741356481318248
  0.9193376263534980  0.9720586750128064  0.5212730054787477
  0.8339564225694792  0.9453449258683796  0.5591794956335283
  0.4185492023631013  0.7636866596270752  0.4195569151656494
  0.6754127511865307  0.3841109740251679  0.8159632462048554
  0.6010382903276258  0.2851355600345263  0.8043621043037378
  0.6873658475417301  0.2746039661900655  0.2129962411551223
  0.4778719931267830  0.2678861314181085  0.6559979098666684
  0.4275100544775958  0.2336945425712148  0.5885347871488845
  0.7334839999339727  0.1968755515216718  0.1946273442744530
  0.4487628644554806  0.1745372926645195  0.6059938217581395
  0.3795933406659852  0.2003785727701969  0.5247312104562341
  0.8220816033137999  0.0249364211653832  0.2193327726303549
  0.5579484147037699  0.5792982779305569  0.4074073805421573
  0.2105504472692504  0.8213484883433738  0.1042195872879988
  0.4686709927546734  0.3436136556946014  0.8089599064853155
  0.5173797309517136  0.7523137982546436  0.6217811308265085
  0.8408260664159463  0.2433889766320511  0.2721849049295981
  0.8452288940326197  0.2910623768020584  0.3159660990369600
  0.2091003205244364  0.1088384765385294  0.9294226144546605
  0.2506814691437363  0.0784467606141119  0.9520831826982908
  0.8687462294630954  0.5384603938717313  0.4655973453961325
  0.6758513094201206  0.6154498578853016  0.4922863005007198
  0.5821056279956043  0.8828960091040278  0.4998548349136071
  0.6258074334795226  0.9627141468280019  0.6057740561102867
  0.6138626364821301  0.9753138834488024  0.5392432265892896
  0.6742851657469554  0.6995953945902091  0.4084539520923137
  0.7346701583097107  0.7100861324910627  0.4804643357399236
  0.4425756643386991  0.7716546795980812  0.5413388005419206
  0.5927591566274976  0.8682627699806400  0.5634985814038066
  0.5499228516593131  0.9834371418577548  0.5162850930218709
  0.4324127883037464  0.4777207333797245  0.9416695471328771
  0.1317596134920476  0.1275893034079296  0.6155300133663050
  0.1300927198199580  0.0547757089885721  0.5145471829819456
  0.1427926158409777  0.1136024501474319  0.6770853501144589
  0.5168938504149554  0.3485613949196790  0.7687789228829526
  0.3099612207282387  0.7669246008935753  0.1569006261099515
  0.6517434841605698  0.7091097940920795  0.7817060492186850
  0.5626412648120291  0.8061042013338150  0.6256300447685932
  1.0241244687842606  0.0067728034806621  0.1977249837537206
  0.4932545092619478  0.5709908868069784  0.7213828067340551
  0.2154861135520049  0.9005245519963135  0.2480438149341215
  0.3799582885937556  0.8025011245356046  1.0127050714532773
  0.5309168962798746  0.8438234790098009  0.6626423903563264
  0.7137705109172762  0.5638774957040246  0.4059797914893760
  0.2706541953281253  0.2574355402863659  0.7525170515263840
  0.2354632111136577  0.0763319890191903  0.8882729004274476
  0.8053541915204286  0.4137799521939876  0.3720733777083933