B  Cr Ni
 1.0000000000000000
    38.8178767765091450    0.0000000000000000    0.0000000000000000
     0.0000000000000000   38.8178767765091450    0.0000000000000000
     0.0000000000000000    0.0000000000000000   38.8178767765091450
 B   Cr  Ni 
 106 1596 3725
Direct
  0.6195680487924137  0.7645013771673946  0.4794467452032239
  0.9417688626932240  0.6925974283971176  0.4362445259802852
  0.0218824837704903  0.0502183926079725  0.8606957818562349
  0.6612979574595550  0.8424681710462064  1.0246755403322261
  0.5347311972753200  0.0511232291423793  0.4064590303431819
  0.6610063911443101  0.2185985316042356  0.6170902852446414
  0.7872034962364949  0.4184244452193758  0.5273769978137892
 -0.0587664292345491  0.3590088560648944  0.4836280631753427
  0.0008242821730518  0.6702955684805046  0.9761393928344479
  0.7570541148818857  0.6330258272450014  0.9289620610773808
  0.9345281280335082  0.6142254121696477  0.4536524741799455
  0.7203305398544133  0.1713696832586580  0.5352261332655442
  0.9041184674025872  0.5652466536905176  0.8529619511685702
  0.4363819213413602  0.6651632867289323  0.4401045422543079
  0.2572742851141284  0.9735611699247724  0.6035748328073232
  0.3396973515858663  0.6494798405482552  0.4638909175683650
  0.2220754461303754  0.0735491337675314  0.3291519510464269
  0.8925018999652015  0.0340029961989581  0.1719533741992412
  0.3343920574352304  0.1397334159505520  0.5282223558107226
  0.5653230105780732  0.3786122849743551  0.4636791137648407
 -0.0469945723359426  0.4317580413979519  0.4617099235317701
  0.2792280397806236  0.7234247851142692  0.4949451172970626
  0.2355936783570023  0.9463852361220684  0.5241754855070202
  0.7600165043890822  0.0142656842175048  0.5384968393834775
  0.9149130036901073  1.0030514787263141  0.9311368485459032
  0.9764870067079466  0.6628143978625247  0.6258817003812603
  1.0313140046475961  0.2722815181994929  0.4235556973924667
  0.5893280934939141  0.4620113813740705  0.6482905405575244
  0.3156684379123007  1.0156631521355390  0.6738628342521397
  0.8726732251308307  0.6552216639987302  0.4223542586658934
  0.3815280899992385  0.5991756934273713  0.9004372097380554
  0.8503439801359199  0.6172859943012000  0.9130979639869566
  0.8718546465205363  0.0012922951130947  0.2472265880297677
  1.0147865786371832 -0.0349362519462149  0.9011213874572274
  0.0909925753508644  0.6273912248474630  0.9684452235922039
  0.5491502888811863  0.1340779098242056  0.5575259394015902
  0.2158391654278419  0.1882245785155323  0.5262375294507708
  0.4699006175645977  0.4639339239599100  0.2154173679020821
  0.4199363585276444  0.0890050524742349  0.3372916703971405
  0.6538836571771766  0.4655676666056814  0.4649631199647548
  0.7911746383988133  0.8022525481200283  0.4625388730053177
  0.5703047308997573  1.0465509513453259  0.9597513964766972
  0.4526030266351497  0.8507216342965235  0.9628229162329041
  0.1858029890973556  0.6178629064148176  0.0583494850449453
  0.2963047846086615  0.7925066069149521  0.0533510113770384
  0.0436062020947798  0.7338893093004251  0.2985489944470277
  0.2124443286540009  0.9464148200844588  0.2640809253420710
  0.3397848491913660 -0.0073820393630367  0.3708927752590211
 -0.0063741788243086  0.8192139023901426  0.8561470147942711
  0.4798142178160706  0.0325527274263421  0.4726404940917384
  0.6715815108884712  0.4289587880038477  0.4854939802590191
  0.1672611944061681  0.9655793418078393  0.5565530538699497
  0.7507262822879732  0.6228513692720630  0.0168511403483569
  0.4052607789941916  1.0034404563155952  0.9751639098057445
  0.5947474942905131  0.1855035507167641  0.5481820009979853
  1.0545105418726211  0.7641794834149962  0.4573570232291030
  0.1089065034343859  0.9887836969762415  0.9482251724342006
  1.0111132674866972  0.6781975710774337  0.8953019155830658
  0.3222646268487461  0.1054148735650268  0.3552882365855226
  0.2715596696963378  0.0539310453599784  0.4617896098996729
  0.2951001633490082  0.0674543746147400  0.4233515061110755
  0.0926133802733573  0.4442540049721004  0.5114047726576688
  0.1831910409334487  0.4446770531593093  0.4839648712237173
  0.0615261833210091  0.2829261653459438  0.9437496922774712
  0.3616947136221164  1.0339481533494610  0.4494075095044490
  0.4415775748614863  0.4813420191580598  0.9363981115967861
  0.8469952963904032  0.6480169092397235  0.0127109099385784
  0.9374334122822824  0.9459581357680317  0.7259703093514548
  0.5548446649843778  0.4865844784955286  0.6599415092507768
  0.6123771962845126  0.6353823294937356  0.5036439976858303
  0.7020685518253682  0.9674794674383929  0.4515510090987572
  0.7406318174276509  0.9423805090112181  0.2338981407226002
  0.6797988783394654  1.0069158980528468  0.4576208897727396
  0.6961542220433891  0.3310192559954827  0.9786645953107328
  0.4629954271245150  0.7292423606433546  0.5028393971729029
  0.4951818642557758  0.1927403402189136  0.3133880740856760
  0.9833799706914416  0.3438932548574439  0.9733363345476824
  0.4848355161795054  1.0229482054290957  0.5483916268726885
  0.8398959790066656  0.7270516278055207  0.4559325199901173
  1.0618723665266085  0.6260765673237982  0.5242341749409396
  0.3767598972214341  0.0099596694005199  0.9386203385283637
  0.4813278077516049  0.6040313331398088  0.8871876488974515
  0.6931118866449485  0.1201360925571045  0.5913444451271479
  0.8222984644189515  0.6877902496987489  1.0211491760443545
  0.9218232349528397  0.6226786754672380  0.4956177463763509
  0.7230409824753330  0.0455231837757229  0.6729858147451950
  0.5116993183770737  0.5481102900903218  0.9624147612580239
  0.8596994306099824  0.6227270562772358  0.5445356295759466
  0.0127989300408213  0.4300107005256427  0.5426623195395506
  0.6652060595852107  0.6312710640230446  0.4690014753208420
  0.0248952345783828  0.7396096255028847  0.4809513996363198
  0.8774722719968449  0.5995997095937856  0.9442300685116778
  0.7831610089904879  0.8456702112188013  0.0708594913972963
  0.2244133870028787  0.1166416292295634  0.4524269986947155
  0.0174431489709729  0.8345328598441440  0.8904877424342142
  0.9587544144481667  0.7976688877273265  0.9546994124298237
  0.5408062919224061  0.5136570224019762  0.4865939730211532
  0.9144195194420124  0.9591612739482053  0.9219463927605662
  0.7674804548706136  0.0261753158579078  0.4528629744199816
  0.5557677824398242  0.0013748369179933  0.1312245703334980
  0.2380054120819297  0.9423925625191368  0.7671419357484024
  0.1237856376366901  0.7769353364984435  0.5263553616083693
  0.2176165457705911  0.9911060125264101  0.3525347608997020
  0.3091398111934046  0.3743070097842265  0.4928411041695597
  0.8390278552793237  0.9435284790599568  0.5729528823369047
  0.9895265234797881  0.6795462916626455  0.1253035074515548
  0.0791187887518989  0.4703158095247936  0.1068080857042677
  0.7095242832093225  0.2816900261151042  0.7867774189135381
  0.8215276553051931  0.3115844734808713  0.8737815144150068
  0.2092803569630974  0.2524805676704438  0.0568092151712472
  0.2000324463994362  0.7173957473124560  0.0760818004706937
  0.0223767326559677  0.3921734309258151  0.0472563196434011
  0.1659210928483371  0.3975912402643041  0.4589724726360276
  0.3126158905244572  0.8273348309177537  0.3683729489872525
  0.2464876919213529  0.0494524805096873  0.0769445132426248
  0.2703473648340288  0.3552465017309769  0.4524581644696892
  0.0835997264288605  0.5320766930990777  0.0918327799780556
  0.1605194917157543  0.2581708983528470  0.0959999413807106
  0.2493421182823786  0.0656313691521709  0.0155321339727889
  0.4407344135618565  0.4251307157360964  0.3047823751678626
  0.5372341249434768  0.3332620944542147  0.2538799945691985
  0.6883446966217754  0.0667708037257026  0.5838242069022540
  0.6783621729886703  0.1657500243451745  0.6255703927396397
  0.0262259320584254  0.5063018496667633  0.3058167099437469
  0.0803592676706960  0.4867358065751265  0.0465175837882946
  0.5512896730361303  0.0507449519791758  0.6643268711291598
  0.5178182613578509  0.7290543197914779  0.5138948040076659
  0.0306276474656942  0.5472203124752433  0.1263202499847307
  0.8821414997164091  0.3023768955049625  0.9014342890885184
  0.2462765607376936  0.5364219431254359  0.0350729197236421
  0.7579544778874461  0.5845876224366472  0.8402818484019646
  0.9719668716209376  0.5074044226457092  0.4024098250853704
  0.1335865552280449  0.5854196788243431  0.4935776086374814
  0.3437327104126599  0.0509539862406362  0.3661231101007459
  0.2211297521213491  0.3186536963195415  0.2087616638333797
  0.3395176832650919  0.0131201086035499  0.3169090063634312
  0.2641918202435987  0.1967602202290802  0.3799065737508046
  0.2101202551903452  0.2269406180461699  0.3528985547990848
  0.0199056209722760  0.3891386017967938 -0.0109290777646125
  0.0008013448128127  0.2439837280596179  0.2157156478131847
  0.0342549893566507  0.5639916133507015  0.0679024194674646
  0.4011468578424453  0.0294536415988695  0.0734964785744708
  0.5192252979534080  0.2300961253416255  0.0024134860060017
  0.4565756442568054  0.2530338404359327 -0.0182087074643675
  0.5075649746450605  0.0629513964111016  0.5168440260217980
  0.5115503250227281  0.1230136862203024  0.5173272209725358
  0.5198698782669531  0.0974403964291182  0.5847348143965080
  0.5734433267327927  0.1576644749667653  0.6488285408258063
  0.1536998173360570  0.7939660383956518  0.0968858051723534
  0.6127674231701102  0.2058093252129816  0.6484763773531047
  0.5491998363273648  0.2478385212966503  0.7397855648141486
  0.2060812557954300  0.1856916375555457  0.0756210412262442
  0.2516105421289602  0.1112541386518862  0.0573445472398354
  0.7310928507528529  0.6801069240379847  0.9188373240209471
  0.8550582424861410  0.9862118934953994  0.6734474193685357
  0.8437793134152805  0.3096260877448476  0.4860650230714458
  0.7352030322186752  0.6442447333297003  0.8190038267451657
  0.6379946144809707  0.6011389814193497  0.7992658787078029
  0.6289685435197639  0.6134015238575175  0.7370442903809878
  0.8947493495530895  0.2407123082624641  0.4098619153233125
  0.5998745583859457  0.5692255685433130  0.7020510863219069
  0.8904275322848207  0.1822855258164779  0.4231123614586484
  0.3711817382400404  0.0675823984176491  0.5972536754959793
  0.7467015423716826  0.3656842598338738  0.9004277966876467
  0.5983751595537908  0.3191928742157130  0.9131304852835755
  0.5773285210811461  0.3410226184882173  0.7912495588629184
  0.8599503847150629  0.9111523165741270  0.5287454924761762
  0.6527060667701623  0.4413835045908476  0.3122938576316273
  0.6475184732122442  0.3796979667572858  0.3315174306473647
  0.4470888015337794  0.1177801544880580  0.8932554871105355
  0.4777861957058372  0.0162953639647033  0.8693382095212283
  0.6908526601409533  0.3050183325900201  0.3173344115696091
  0.3957888665510460  0.0812801440568807  0.8278029360100355
  0.4177814207153144  0.0237343547945189  0.8470621659860065
  0.8357201744217886  0.1646874982249351  0.3519572789690947
  0.6353487882605887  0.8247528677452007  0.4749538497207286
  0.8942152034418175  0.2856471626660204  0.4566353609938740
  0.7952436474162283  0.9478136235072715  0.6099956614953653
  0.9121531663673996  0.9730727555605939  0.6819148417636807
  0.8887913794218868  0.9610509542433603  0.7466620686705852
  0.7038645261570655  0.4417641607712903  0.4423353802095716
  0.5914285156392857  0.5564209692253813  0.5360901649435705
  0.8665524551262841  0.8961582736298322  0.5914133447785219
  0.8138198652905961  0.4401789997088754  0.4803590182090424
  0.6047436168362926  0.5181520373781687  0.6599286325917021
  0.8949733451201295  0.9456427178163772  0.5690177705232310
  0.7949336781773569  0.3371313533521908  0.4549440405050041
  0.4565129244766073  0.2908287855528638  0.5353190377323233
  0.5231193360759457  0.1846409300955686  0.7956984070221323
  0.4599780654088623  0.6582764471360751  0.2945920227826883
  0.5107190502357858  0.6269426127249255  0.3206195678139765
  0.4605609716951042  0.1592848335372400  0.6689864875110053
  0.4226051992208766  0.1107149456297395  0.6613136267918590
  0.4161054501851875  0.1257063416387070  0.5896414144021427
  0.4225813430970933  0.8881784157687616  0.5012752416982502
  0.9697272404204342  0.0369937519449321  0.4077175482585724
  0.9895813694001573  0.1319315376696975  0.4223186334430961
  0.5672624899821783  0.6126745245016979  0.5207585700212173
  0.7255300131860538  0.1148633551588654  0.5439470521863241
  0.7390914766454151  0.7479749507638546  0.5787924589677789
  0.4700559315209345  0.7463626243156650  0.4439572367313844
  0.9894304186884650  0.9452264024392590  0.7503747435640385
  0.4873291710332222  0.5728614680926893  0.7230052071074362
  0.1026331628255760  0.8632786276532503  0.4075186037521564
  0.6120366073421459  0.4933226836287611  0.5539236466865378
  0.5131847072393472  0.2881361264296141  0.5551515513065646
  0.4163051753044721  0.0103377339633243  0.6376146443953918
  0.4447347739780627  0.0524293429367320  0.6788536595512116
  0.4982351966314821  0.2953021998230560 -0.0044655509530839
  0.4525408240183688  0.3158951468193246  0.0345485619221996
  0.5558724243457700  0.0831826571395961  0.7690243006438441
  0.4431190043145904  0.3600053593583027  0.0862772455968036
  0.5061877500572031  0.0786813588525775  0.8096489460114582
  0.4970122027420580  0.3441493790173381  0.0493919568875334
  0.3950720090126179  0.3911169761855606  0.0589762626635149
  0.3921552585045892  0.4391637568335712  0.1056208050877374
  0.6570809842762290  0.1640097331631675  0.8980319504118111
  0.6715671275698750  0.0999632702039417  0.9724214096438607
  0.3964958602547287  0.5036780725815431  0.0887710647747625
  0.5261393727777323  0.0217554547534133  0.8287049975614997
  0.5859078278953650  0.0152363024279398  0.8518038591397027
  0.5399403039269496  0.0097948674484846  0.8921754966439520
  0.5663571673246912  0.1036905358842145  0.9345328239813484
  0.5796287062780849  0.0588300192497267  0.8975630258211328
  0.3475071026990449  0.5794038822939804  0.1096992372817010
  0.0446967049906364  0.9176495743736615  0.4945119108678995
  0.4512403066890078  0.5337942462274888  0.1018434689813925
  0.0200667078613628  0.9423989004253178  0.5436232977743055
  0.4067328847553034  0.7498671186283680  0.0265399886344988
 -0.0025549396730505  0.8902687618865662  0.4709833850107762
  0.1797888310232877  0.4421139352388935  0.2682087807271992
  0.3672286198401031  0.2102398562561248  0.3516024804940720
  0.3687509223351845  0.2585822147026944  0.4037700867417259
  0.3712452718109336  0.2704950832405614  0.3366677891681846
  0.3241703336134796  0.3318433189522100  0.4132051890152672
  0.3759161189137071  0.3155600630362668  0.3785218104053825
 -0.0067598249377352  0.7518802754007626  0.3348252363612312
  0.2312023087943818  0.4417293285972944  0.3988520913768454
  0.2366631113754470  0.4872223103981569  0.4389835686952576
  0.2861529678218691  0.4733219273596033  0.4062845230814015
  0.1308360927429364  0.5046945593129134  0.3451448214190351
  0.4127742596348525  0.1485080632016985  0.2714674223019549
  0.1828075301037456  0.4884373979104475  0.3113307118772837
  0.2385673285357943  0.5474225198804320  0.4238175648943758
  0.1822037303521853  0.5627815305775081  0.4559358442518058
  0.1357455073727300  0.5983982081005391  0.4351686522624644
  0.1429355162875302  0.6605207797263134  0.4183685297945103
  0.0823297440949726  0.7307142861609640  0.4937650628642809
  0.0470126349557946  0.8186612235101386  0.4531024269271348
  0.3124512275062789  0.1949580432756552  0.2814273461511226
  0.0465936958026476  0.8516936925912939  0.5080651633832961
  0.3568469746322228  0.2817411856568452  0.6136883128880477
  0.4376443940840485  0.5342522983889324  0.6589907827962939
  0.9756032234951394  0.9461601501203879  0.5032426066938533
  0.7735505105234919  0.8438193328828738  0.6246089755215435
  0.7517345596366500  0.3809223266694900  0.3697730609031263
  1.0074034875628450  0.9816194162176555  0.5931106473804472
  0.9421955384695487  0.9888248101461423  0.5805040350005195
  0.9582179506209745  0.9757386477459689  0.6343124847240004
  0.8827550669841336  0.8060105627476506  0.5054474669448410
  0.4949907945483188  0.1520360656437284  0.5683894093875133
  0.4836539059167220  0.1034267983203647  0.6831122830371800
  0.5454011471796615  0.0958395933846614  0.7052470092768156
  0.5842657091494942  0.1459917490146501  0.7086098886494704
  0.6207660360906658  0.1210312556639854  0.0061315029768683
  0.7732573431015060  0.0433135637643807  0.0228456237771071
  0.5856312402154092  0.1786888987833704  0.8155819388485072
  0.5744356310100227  0.2025153289024776  0.0208538415858915
  0.7029457238494551  0.2066929695633034  0.9071521421147396
  0.6603000723450949  0.2191965804657922  0.9423975055624364
  0.4730487648626229  0.2341286552331391  0.5537817478534514
  0.3057307686793804  0.7211586293673297  0.1123371651730231
  0.2077114241633248  0.8090351280814603  0.1653970585210535
  0.1259751536333475  0.4441667681926683  0.3620869440573141
  0.4106286450241681  0.1189119888065207  0.1633948198417389
  0.1195692055968846  0.3801124726742128  0.3807560845004063
  0.5190276234539261  0.1229272067053031  0.4466721247571853
  0.5221002855594200  0.1383415189766880  0.3716887973951508
  0.4703066169372899  0.7985190126092595  0.4302821057219030
  0.3638846481357828  0.8957971146385897  0.4788862455566151
  0.8276076436865691  0.8814242487339734  0.6921137354713194
  0.3110493858532649  0.9107387588105884  0.4515194653080637
  0.8571683848868965  0.8992077786807356  0.8144081415829062
  0.3432393864347699  0.9564574492274168  0.4561762911466201
  0.9268357326278338  0.9930524991010213  0.8459350104838759
  0.9147797090536968  0.0242413935130010  0.3286388379805751
  0.9670318123682957  1.0339707094874282  0.9330950645215985
  0.9331726336069999  0.1091971395255168  0.4155536863615709
  0.8795689709605171  0.0887436896305484  0.3337919518087740
  0.5814408726927288  0.7174510758414095  0.5402666668141164
  0.8912854402587266  0.1964067930182109  0.3618727072427031
  0.8429242054321174  0.2576956909129066  0.4416985986030822
  0.6994268592254193  0.7294325033391099  0.6790629560018242
  0.7418952966605075  0.7813652155498295  0.6836130954626636
  0.7378233169558818  0.7640546519371898  0.7412024600761404
  0.7738729048342458  0.8106358437452713  0.7444438685951538
  0.4396303910284944  0.2935011571832156  0.4699637387385386
  0.7993844066908180  0.7727856873257994  0.7042265517677599
  0.7798292019633148  0.7118971520808237  0.9867506832925461
  0.5439742102119054  0.3945679865925789  0.2351863654798317
  0.5262608600101457  0.5621685424494627  0.5178680408793395
  0.7811419967714935  0.7987538068384897  0.5788980471540558
  0.6067023824746818  0.1956031119537199  0.9322973236974184
  0.1335890912784962  0.5514100314714730  0.3912999816370876
  0.5226411143594866  0.2165626674261121  0.9020754843670450
  0.2422203359752296  0.1945834221881975  0.8099123495287504
  0.5267613976095097  0.8775515766774489  0.4817209893719990
  0.5806124449834759  0.8549166806602200  0.4513422500761853
  0.9934857504502496  0.1523460686998856  0.3582382777771557
  0.3816766999666841  0.3198773806349482  0.9502225576601434
  0.1686976412845454  0.9642242561392355  0.6853033761284669
  0.1622150876819397  0.0576004010401360  0.6941280507499467
  0.5803282112608061  0.7291183006773126  0.7009974157234825
  0.2751536467846174  0.0931381300184557  0.7847661146841456
  0.1525156238347134  0.1034122193235360  0.7397351380644245
  0.9005284313609614  0.3036889905800408  0.3925009424823627
  0.2138132300744603  0.1323294738547011  0.8678358847724260
  0.2738839807419954  0.1231852686285854  0.8920626715457303
  0.2553060866021618  0.1534709285580679  0.9316908905973912
  0.4115620000091617  0.1791246867991254  0.9717758774125671
  0.1880066143274767  0.0377345868234470  0.8262299888313106
  0.4737258884718799  0.4320770761156681  0.6318660055237411
  0.6511249578628309  0.7090843666367002  0.7793226065726463
  0.7216865671308459  0.7237213395307794  0.9619172512732475
  0.5148933988008489  0.6874318280325804  0.3043755507575163
  0.6704528411372974  0.6854240276095925  0.8982717752454656
  0.2296509068856019  0.8788303206774148  0.0814803009995615
  0.7139063268449320 -0.0011591417994622  0.0792720009840943
  0.5783931325788243  0.8108687876410398  0.4032918477802143
  0.6143430590417982  0.4260859253742553  0.9029583747489422
  0.5322368321088246  0.8228362145488155  0.4995090990367019
  0.5555585241944068  0.4315263671616398  0.8808688589835718
  0.1781253018665690  0.9441115654896932  0.1550417500807615
  0.2292016693536451  0.9259223080952697  0.1158070829419774
  0.2871282838515026  0.1373542780793293  0.5612315408698083
  0.7251503725038690  0.1191642894337182  0.0435845507853016
  0.3013827084829247  0.1221919496385098  0.6200542375405136
  0.3282401768191481  0.2173249733930843  0.6701963305496914
  0.4007957088161919  0.2000385110903814  0.7532443507841375
  0.3903226447737408  0.2438047550275756  0.7978396861334790
  0.6693012262647895  0.2778461629856466 -0.0208584935191929
  0.5004535712152535  0.2743527080663450  0.8861356929015269
  0.6012054749308170  0.4067484225055242  0.0747966683353476
  0.5289875136137259  0.3688158756565461  0.9416298665336504
  0.5003029101028235  0.4555426282314772  0.0836172748737105
  0.1750588722197366 -0.0033830978479590  0.4393154679814481
  0.2637923678594958  0.0679120022018282  0.6141532772932462
  0.4175873464592577  0.3066895977703207  0.7421697884132501
  0.4069467967729860  0.3194820140513666  0.6815598971347708
  0.2568231772784801  0.7539859886113160  0.0850113703417228
  0.9967339847189123  0.1955544755558936  0.4000998652446203
  0.2525423329209626  0.1142301956637529  0.6598350541878052
  0.5381690486875028  0.4299254075943986  0.6523118077397640
  0.3013678577923297  0.1884839933689189  0.8318086247534590
  0.6684289903552461  0.0754594599602481  0.0960069343268205
  0.5506672709675755  0.4560950028746075  0.2168058495009028
  0.6041957460029315  0.4052873971740136  0.7338781117361928
  0.6926538088832874  0.4596646328161674  0.6992029909736419
  0.4015550226982189  0.5954460556046911  0.1800227197486815
  0.6418881637411206  0.4534356312949253  0.7372833201625912
  0.4047020575503908  0.6270235390436126  0.2862999546500745
  0.7807800987785977  0.5451764926212708  0.7659147067075462
  0.7522083392742418  0.4823224016379675  0.8256957629717150
  0.3533815876910938  0.6575152085969826  0.2600465997294391
  0.7599548678302742  0.5768237373902100  0.9088958163552339
  0.0611795085407057  0.8855637251410106  0.1420610987087151
  0.8776570025883814  0.5952746705668160  1.0010637721295750
  0.7696540882116318  0.5993806413064610  0.9670592372911240
  0.8295290450227458  0.7279419892864630  0.9412557244942957
  0.1529631762540049  0.7792699665119002  0.1568431387565091
  0.2063206717379795  0.7951440401812273  0.2282295558212538
  0.8842025840148211  0.6888781777924947  0.8002000610958198
  0.1601396570178457  0.8390968748520219  0.1388706135212075
  0.8526695711707717  0.7501133210355923  0.5530569605290935
  0.7881309364355794  0.7564163314098162  0.5381649842444612
  0.1653944390117163  0.8876980314389908  0.1802087274761407
  0.4262663193736045  0.3935743574194706  0.5647458234689935
  0.4509742167835715  0.5504081878020917  0.2692084862159260
  0.4074363342528344  0.6886308422182460  0.2691476918381225
  0.7430549665318034  0.6008512123249335  0.5251264678448893
  0.1281313256570493  0.9584248973931233  0.1895483541971755
  0.7009569197193514  0.6989851425241348  0.5768877824538340
  0.5785117106388779  0.2444786018838692  0.0674066942467876
  0.4904302783581398  0.3794828736127043  0.1636021460114873
  0.9562821857677281  0.7908959416640317  0.8030405001903937
  0.8987681108352040  0.7981994302852385  0.7880197674335142
  0.4418311458908660  0.4064522353731428  0.1345056547634568
  0.0254852071692686  0.7755234391036456  0.8880130958490109
  0.9624769403752612  0.8246710114953102  0.9046152875287712
  0.9916180560228252  0.8727157104593429  0.9231578430648310
  0.5977665703236673  0.5206488792717333  0.4945063783134270
  0.4492974188829129  0.5196364009432074  0.1611059173238687
  0.6922331816973267  0.5952243240959166  0.5647426986391110
  0.3438861004879402  0.5180766625208296  0.1251193181954083
  0.3499367118982101  0.6111467787278273  0.2159207256809332
  0.8369193248298570  0.6539016360440418  0.7386376758872804
  0.3543527823378504  0.6724533219136183  0.1999872854558155
  0.2524124216880931  0.7190537184315230  0.2102575934661501
  0.8009244010726416  0.7541172808798271  0.7632036639531017
  0.8451891576747149  0.4068128845644830  0.9251604096999516
  0.8561667870356953  0.7628476298928013  0.7231117031506853
  0.8947937371648221  0.8292598271602938  0.6690965287689035
  0.9857192279448908  0.8782430661430448  0.8601571170348727
  0.5039413696998155  0.3925797482877975  0.8154285237168698
  0.6862647941410580  0.7594119649997138  0.7810310258115317
  0.2203275684847085  0.9352076091761053  0.3643658513388233
  0.2172272355801795  0.8913086360022398  0.3162112300235598
  0.5551164962820269  0.3677589728214254  0.6680925114902889
  0.6153475279396148  0.3572897396027964  0.6882732030570512
  0.2640531587973615  0.8607024484846469  0.3448619852066478
  0.4962983465324450  0.3765610567610687  0.6469587293135617
  0.5656321502270791  0.3239562502040911  0.6207646636891194
  0.3632778261048277  0.7823418875708936  0.2279139126149493
  0.3614577662631915  0.7662763256738098  0.2875040668946424
  0.5113057282403144  0.1979148969907835  0.7347769435397713
  0.3604443359659314  0.7519654736426958  0.3491924082228337
  0.8925972526901381  0.6485507829743643  0.9752329267054481
  0.5942127483279246  0.3792614213971703  0.2014856157991373
  0.5534364744816743  0.4851357004724853  0.0933552433718820
  0.8740309086795482  0.4133924673891214  0.5063469351433044
  1.0008227694792744  0.3536991389570821  0.4826033314148218
  0.7975422479710877  0.6250277892589714  0.4797903371282381
  0.6793346755724602  0.9236562997245659  0.7485575030579235
  0.6702390679480204  0.9678963749969003  0.7916923384917661
  0.7308829597247842  0.9604299742410045  0.8126978029134445
  0.5547264554309609  0.4991303909980630  0.0326522114681333
  0.2150015648768430  0.8198851519751037  0.1029907944201566
  0.5103586400280484  0.7611825041183271  0.0013759824114735
  0.7136076793702818  0.4330672107383455  0.8217753918406606
  0.4895187758879950  0.1685699156763736  0.8973240043579296
  0.8245980898773340  0.0419795778823489  0.1593299771698403
  0.4741922554239310  0.1810531692122009  0.8368719192767768
  0.5575291842347784  0.1160325029374152  0.8750486669334604
  0.4849249412010920  0.1350997775043462  0.7910389307454800
  0.4454123196901822  0.0865447141964561  0.7877784747072187
  0.4338411024203147  0.0983322452912634  0.7234526581179739
  0.8745784208967147  0.0412215238292748  0.2890585895729736
  0.2225851438823691  0.9852148106233145  0.4084927462330414
  0.2686495366713685  0.9065222266511528  0.3935531272502810
  0.6461940154894501  0.4045958481028812  0.9748332822160318
  0.9240375964811572  0.9759377659560691  0.5181822492828891
  0.8468473329729097  0.9638802947315205  0.5208804014042209
  0.3636255458216252  0.7980449600517859  0.3933402202084991
  0.6752647429998460  0.3853148668433330  0.8168899950741009
  0.5998981011238028  0.2857202740960715  0.8066324143775661
  0.6886468947510179  0.2728492023689409  0.2124180530764244
  0.4767192958903901  0.2670344102340516  0.6584142814671767
  0.4259196926856220  0.2315588850167218  0.5918240685666475
  0.7331937022045920  0.1976782930990908  0.1944668215507817
  0.4479036456192458  0.1730487871557622  0.6101026933300953
  0.3616177716438945  0.2100429169141869  0.5165617473049056
  0.7255829982792320  0.4201421236573197  0.8837652390198534
  0.4375127608933699  0.7705501197635005  0.5425420745329563
  0.5576955753835406  0.5803491020335216  0.4102877138934381
  0.5350299995253786  0.5898597048768581  0.8810529754280964
  0.5663329834327692  0.8095150220436785  0.6251864170267123
  0.8981805947648440  0.2730322020030175  0.2834461917856811
  0.8476709657645580  0.2886835332529846  0.3180867661345205
  0.2089193717856253  0.1104951532219991  0.9272181577139740
  0.2525143170280484  0.0804003942609600  0.9513123669114697
  0.8650756785824489  0.5374494444443728  0.4681911391390517
  0.7199579563551000  0.6144447214096279  0.4527782645622603
  0.5834242363300438  0.8913798025124806  0.4959731200035472
  0.6300828276737915  0.9634797829684100  0.6100281030534197
  0.6193483582830163  0.9765763511822312  0.5417909221231135
  0.6755769066259609  0.7028505614693169  0.4065021526932706
  0.7406471579559812  0.7174466558840156  0.4744577133044449
  0.4930681772689471  0.8282901566166656  0.5416157320483547
  0.5961153439556105  0.8698784147897384  0.5643745337084974
  0.5315223195453977  0.9355455721726392  0.4691666875592301
  0.4455580686085075  0.4287136899900182  0.9560503778874375
  0.1638255805682440  0.0248919879520372  0.5790122169761265
  0.1857379551616494  0.0891626356211653  0.5318500987548512
  0.1425530164518204  0.1146834591024053  0.6780049544323917
  0.5275549360980626  0.3038239838212853  0.7241113719464412
  0.2769184179825762  0.8365355375322550  0.0872739022303326
  0.5203707496978938  0.7561842482402166  0.6211359996133332
  0.4674246592288783  0.3443429022308950  0.8099409118194039
  1.0281065247823153  0.0028286768618989  0.1953792101649991
  0.1738204909162723  0.9322467562067834  0.2223732128770479
  0.7201009836399285  0.5234945627134198  0.6431289406743491
  0.3585270326820934  0.7700742074695937  0.0590089761994720
  0.5305769176796538  0.8431809453592369  0.6606522164884955
  0.7629716238550076  0.5339317197456626  0.4322860737232206
  0.2581856367962618  0.2687661008835143  0.6919682430208911
  0.2346668039276665  0.0739788327738412  0.8880243804353567
  0.9119017854829552  0.4132930134285903  0.4072155692248161