B  Cr Ni
 1.0000000000000000
    38.8178767765091450    0.0000000000000000    0.0000000000000000
     0.0000000000000000   38.8178767765091450    0.0000000000000000
     0.0000000000000000    0.0000000000000000   38.8178767765091450
 B   Cr  Ni 
 106 1596 3725
Direct
  0.6189410986342309  0.7649688024540993  0.4776013792886707
  0.2169522305677086  0.9897883855395179  0.3519621503082325
  0.5564344577601894  0.0011551438180925  0.1313382481485389
  0.1231462874491241  0.7763135413304175  0.5263738804246696
  0.4624909730710432  0.7298896595347716  0.5031372009030098
  0.6965600976233166  0.3311152370463910  0.9790522804389779
  0.6791969247478538  1.0065139136084200  0.4578605255680923
  0.7451022736258209  0.9425270035911691  0.2370951691529141
  0.7021284745327655  0.9671390957415378  0.4518091768232680
  0.6134822332927714  0.6353995254093102  0.4982929747811977
  0.5551575602158338  0.4868754159681696  0.6600838135188597
  0.9375163020091259  0.9453692696199056  0.7257412671917716
  0.8472590274428932  0.6481366703055536  0.0137950221058651
  0.4416744874947941  0.4814489939435490  0.9361891364504260
  0.3774007390992317  0.0071443316887010  0.6022989851486014
  0.0637849002925557  0.2828513690691782  0.9427986511735682
  0.1888182461484342  0.4453393928617945  0.4830547672870670
  0.0935742263964240  0.4439752488271397  0.5124626263038342
  0.3004992436691364  0.0604168590984867  0.4226076084664251
  0.2737241685647347  0.0521778153524457  0.4606737792120700
  0.3244236347335068  0.1037116104668456  0.3548407911886294
  1.0104695911010597  0.6776252242110757  0.8956773302339782
  0.1085374183377575  0.9889201829376149  0.9468778273834122
  1.0543297026425587  0.7637317996845736  0.4574980670745463
  0.8418498075499290  0.7246160210563807  0.4568383243937882
  0.9425575211105476  0.6902241875389146  0.4366668401909072
  0.0250240537824321  0.0418635130115365  0.8642935297539949
  0.4813798463502989  0.6040996779871624  0.8870786503023148
  0.9895935014823368  0.6793280557556084  0.1256692606899696
  0.4199240900207244  0.1355740625992146  0.3897016553355458
  0.6718862872337820  0.4289093557538913  0.4857584382020859
  0.8738725908158277  0.6533850311369013  0.4222637769813254
  0.1673206136226818  0.9655082923481063  0.5565185425337452
  0.4679264488491962  0.1315840548971363  0.5739944574942398
  0.8717207647019494  0.0116098020897338  0.2465529336397002
  1.0313280015802060  0.2728098117739143  0.4238850441719312
  0.5410583805908028  0.5153430188504541  0.4873216509196705
  0.9566962398751688  0.7965016532749472  0.9549128292415665
  0.0176598813962460  0.8342622998728114  0.8907518274457414
  0.8833278366691936  0.6036562343061288  0.9491257324402335
  0.0247721180975820  0.7390960874938880  0.4808959588605678
  0.6536149150383991  0.6253954364451844  0.4684628146292840
  0.0131585425734689  0.4301115862081010  0.5434176842644642
  0.8621027813371815  0.6233565148803389  0.5455742273483769
  0.5117914259616620  0.5482506301491020  0.9622861788313576
  0.7224736657021756  0.0452905242034494  0.6725752845530975
  0.9255949899314223  0.6239958742747185  0.4972097759537237
  0.2264752591025252  0.1130705370783715  0.4495399729915237
  0.7831106023735006  0.8458098941402326  0.0718377842324914
  0.8225218803903145  0.6876601415321676  1.0205755492236288
  0.6616205845698809  0.8427466850676321  1.0248051802249303
  0.7510578736412998  0.6234019569820307  0.0169019405380937
  0.7679014627381028  0.0259352408362335  0.4533459262107916
  0.3814523020878463  0.5993821210652956  0.9002325377660564
  0.4849540444933790  1.0262144743979760  0.5515370267377689
  0.7613947646927923  0.0140530062894560  0.5401992279408451
  0.2356926533976864  0.9463564092010538  0.5244937476367202
  0.2788446767003139  0.7233532047100784  0.4949354455002920
 -0.0454989261355283  0.4313025855845961  0.4611895590652020
  0.5479660943104506  0.3904341981245130  0.4513890515213326
  0.3321550755913612  0.1381687362779866  0.5276494148738509
  0.6103853535507398  0.2625367426653747  0.2728818663138287
  0.2220998963647509  0.0726275571031784  0.3280822998472703
  0.3397459817669677  0.6496835071657712  0.4640808771507519
  0.2579593397278093  0.9733353827171299  0.6039706943341364
  0.4364319166008557  0.6655485114809844  0.4401690355951132
  0.8799699289375139  0.5678699525674864  0.8696701907141984
  0.7198772672670631  0.1703299465439803  0.5350526353883803
  0.9349601001681942  0.6137989278389969  0.4541331053135422
  0.7574924589976972  0.6327393338594366  0.9280866383145339
  0.0019663379554253  0.6708210205942817  0.9769802440861057
 -0.0582801509746858  0.3591320628266070  0.4842550709187027
  0.7872937142938559  0.4178755082453037  0.5268652206091705
  0.6610593864355908  0.2187590320792082  0.6164169325523832
  0.5384545333991287  0.0553249109673583  0.4143525480118570
  1.0134814417198026 -0.0364137952479019  0.9011223546713456
  0.2896401763595197  0.4028908037959689  0.4733090008088278
  0.0905059751713656  0.6270970691368478  0.9683613110478650
  0.9132499902230586  1.0012088873943303  0.9322580000950926
 -0.0426309367667749  0.2695240864189971  0.9695931513777032
  0.4058016136572388  1.0034976125106652  0.9751442845339581
  0.5897248738627773  0.4623689151671021  0.6484717303291682
  0.4940868813388497  0.1930060835923204  0.3129473600996877
  0.4830572864670240  0.0110649381886784  0.4553264652738715
  0.6541624190239582  0.4654668468063894  0.4651468651873858
  0.9932240727641681  0.8191465823835785  0.8568603419842448
  0.3397708256151712 -0.0074374774201821  0.3718561015174788
  0.2118570117255471  0.9457657790957569  0.2635578046659569
  0.0434220454920887  0.7336511730824530  0.2986987261586601
  0.2960538900796790  0.7928164919271956  0.0530344518784451
  0.1859304548246987  0.6177456867388599  0.0585718372035852
  0.4527596325891476  0.8505599624570056  0.9627766787162778
  0.5706241416312435  1.0462810043651196  0.9597454252307404
  0.7154535010592894  0.7719189162477779  0.4599564166346666
  0.4700373358220878  0.4642549410021172  0.2152440043478656
  0.3100466531486498  1.0137957677563327  0.6790635293620124
  0.4185337691656403  0.0903145986257640  0.3336519108015105
  1.0627950126974881  0.6257836602916800  0.5237696689062961
  0.2377122631463961  0.9404532050409894  0.7667167773207368
  1.0470981644198267  0.0075671098733378  0.9655626978663160
  0.3768982025219038  0.0098894364319487  0.9389642283034196
  0.3193160336959295  0.3808138964634278  0.4996869675107460
  0.8384693996828101  0.9434004555539640  0.5752750307788578
  0.6943803425847288  0.1196823602252669  0.5920971956218567
  0.5923098866712793  0.1891953750382571  0.5472715897303762
  0.2151513845198067  0.1937432562480778  0.5311675488759944
  0.4324718188795272  0.4461527671285802  0.8404817749783337
  0.3419144745886313  0.9751775137862092  0.8510310210927778
  0.5209018089988744  0.6168563126269166  0.7486017228957810
  0.7150429514908322  0.5493443285480429  0.0152054681668022
  0.3502104848776539  0.9635288288287287  0.9121870954328634
  0.5691493558436276  0.6216353531708506  0.7130146663866888
  0.7651118015929068  0.5158272440005165  0.0405671352763675
  0.4058743810676069  1.0581161815286784  0.9518616404336768
  0.6258019008384161  0.6476722189020329  0.8420509825321362
  0.1592364913704632  0.5427949426381101  0.6729094561735287
  0.1719455484340918  0.1787634639364671  0.6197094572410087
  0.1218180874097869  0.4905576447045538  0.6684899446100893
  0.5657184343519085  0.6537744103203466  0.8192478785097883
  0.2153272968719621  0.6034952583111728  0.8983642604056494
  0.0609470083356788  0.4982973211283154  0.6503426735873991
  0.7882504429365227  0.8255972110098988  0.4178081597950723
  0.1104554813501327  0.5039685999832783  0.6098328097446872
  0.0747463570543098  0.4539447730293997  0.6032821163789144
  0.4447180248901026  0.9513411618164526  0.0537106690830466
  0.0109078995250998  0.4660843302229595  0.5890285128289653
  0.7805914284361422  0.7168332858415029  0.3826783888942870
  0.1617304104125769  0.1917363731629510  0.5614983785755686
  0.1074608864994747  0.8285758774960913  0.5353862837925175
  0.1430601523699074  0.5236422473970732  0.5101156299360701
  0.2823329064558144  0.8430153965676548  1.0245485744238398
  0.8755311403788135  0.5970561875079784  0.2253892020837706
  0.7891798166012726  0.9861582810303694  0.4901685232877191
  0.2290183501362811  0.7595753364811131  0.6345075824887861
  0.0600073843392285  0.3480110571034347  0.6092245804119812
  0.3240631840387683  0.6020421636564351  0.8862861000058121
  0.5822434475629218  0.8711378549975383  0.1541043235898779
  0.6903356192373473  0.8808481655218195  0.1221088949524903
  0.6851110646341428  0.8397562381438490  0.0775512545426137
  0.0950557215534955  0.3962275886678305  0.6155388252248175
  0.8577026942490655  0.3659625008232514  0.0044149011489661
  0.6829305404615080  0.8270301910788340  0.1445137247731999
  0.2292349316544124  0.5237153511594247  0.7536123110199685
  0.4694749891127840  0.8280258138624440  0.0755779775029912
  0.5170602358330313  0.7512725239487289  0.0589404185239202
  0.5153912081909757  0.7012045962729774  0.0191554711019127
  0.6167439114701236  0.6577404843200477  0.0045315457031092
  0.1328157064365417  0.4464889460055734  0.6214883891864588
  0.9724931293645571  0.4708479430519987  0.0695768971043100
  0.0386808691666949  0.5593003436238644  0.6338096946140062
  0.9199295814674334  0.4905648774791004  0.3293552163924539
  0.4325720567324389  0.9485437827452317  0.3671236887601816
  0.9427620103383831  0.1817088339511053  0.3293831678957567
  0.0966504500520125  0.5824188138127269  0.7526861184636342
  0.3541169134069950  0.9670469598968434  0.9671867029990017
  0.5921433799880843  0.8693611086481623  0.7862861307734936
  0.6844452620229671  0.0234015613264115  0.7666776157733309
  0.9379269814773008  0.2133174022250786  0.9734093710681267
  0.9287428515176899  0.1820816210266990  0.9245168485069715
  0.6148650740387820  0.0443632687677316  0.0847338164422107
  0.8255903368423041  0.1435729034977832  0.9006639884639699
  0.0091810296902360  0.9331979401191417  0.2821324843107000
  0.7838527549412070  0.0649962677344495  0.7902367980731464
  0.1049069578190639  0.8416851427444320  0.2334254504256315
  0.7124726173685835  0.0874203446265506  0.7081438088806592
  0.7391754221941850  0.0013991669809329  0.6404994101322019
  0.6298956981638707  0.0155365609139563  0.5976137034314641
  0.0956334720348485  0.7346027385917310  0.2069379428861020
  0.1969696207827440  0.6871618679446895  0.2000396947250436
  0.9648523225639495  0.2383903145226964  0.9261387095020717
  0.6866811209312130  0.9167856939840908  0.4716916911860486
  0.5461314694067592  0.8942817484961300  0.9344536635921250
  0.2241039311509251  0.6282268838897263  0.5112069980108120
  0.8676222356858236  0.5058969502590694  0.3650930043581835
  0.8708044234405206  0.5536390249025459  0.4086151917075938
  0.7568777863302465  0.4083898082718949  0.0118220337322303
  0.9992839085159815  0.5386359099014744  0.7348692508302465
  0.4206420067899879  0.1882639912168668  0.3770715250082701
  0.4664399073447961  0.7643645535472005  0.8237269374078826
  0.8310581263989540  0.6897296941466131  0.4088677606782505
  0.3991417517294073  0.7510593248619626  0.6386416132938177
  0.4298852437049144  0.7143370806602573  0.8219902802151458
  0.3570769245136476  0.7321410472127917  0.7391645653047755
  0.6563281397056790  0.9876156978611544  0.2433820417287102
  0.7872802891018005  0.6741269114661954  0.4466429068329182
  0.7749418845842735  0.6549449821397167  0.3947287525113846
  0.3697318286170513  0.6885244414091036  0.6944708387734627
  0.0769378070325184  0.6089633328333413  0.6349409860051975
  0.8199028684527657  0.5826340908308826  0.3816277401531633
  0.9244823444216539  0.5335204238865229  0.1488964122677641
  0.9817926117166305  0.6120297268748579  0.2026232595068486
  0.3665295549105436  0.7199796700790093  0.8004377275095822
  0.1985371999191378  0.5623289127575990  0.5735444581350682
  0.8340501095770324  0.7372564006907021 -0.0022386075075346
  0.9729390986125793  0.4850864517063076  0.4665941061501149
  0.5503212541805731  0.9815700926725088  0.7509443134976088
  0.1308424300774232  0.5133210903333277  0.8328907340138397
  0.1392684994705653  0.7368076033316847  0.7703003639495375
  0.4902928171043564  0.9889674227133056  0.7289051494886867
  0.4636959138046581  0.4471047286218458  0.5724360907608577
  0.2381033158502913  0.7794334447416650  0.7999563864722690
  0.6034793838316972  0.8896762307480219  0.9534372180277452
  0.0792277766417094  0.7133469185706832  0.6419500275409624
  0.1678397220108282  0.7970167370961537  0.5525291798047840
  0.0777545151834506  0.0401269898578168  0.8422483660779025
  0.0341309182092942  0.0454075245650968  0.5416769570190895
  1.0423033989497195  0.8792197113644326  0.5573499744423286
  0.0480474709904939  0.8168883171990079  0.6661656303636633
  1.0004773763084875  0.8278919728389990  0.5532619569299183
  0.3395471169269749  0.3220172742975406  0.9828523515317487
  0.2938313683130825  0.3838250697138927  0.9142796155548749
  0.1563518995424373  0.8137158982705810  0.6543208791732484
  0.2697346834179009  0.2899409739573665  0.8596526933501731
  0.2321602031983210  0.2393474752353162  0.8543015493025431
  0.8548415885910249  0.2078153619757883  0.8412493203792796
  0.4288005619270943  0.9190856416529085  0.2610658088104067
  0.1104655663248462  0.2523548761194595  0.8094107123467064
  0.2215592567054133  0.2507737497968377  0.7932619154415452
  0.8918043350761501  0.8116937171151156  0.2816950025682212
  0.4791127615716239  0.9021157442412859  0.2245042472264591
  0.9494303749955042  0.2592673437378359  0.2497100315896914
  0.9068103310907277  0.3337094414628602  0.2649797752479577
  0.8968983389943509  0.8885930434046774  0.4327892083448859
  0.9473256707110184  0.8754272494329894  0.4004285384183778
  0.0623864778313530  0.0775634490292773  0.8859031875384838
  0.1436093694642828  0.4338134690133923  0.6841004432581628
  0.4924730349210650  0.9756682582410573  0.3724202635509936
  0.0688872658966436  0.7231618390354220  0.5818401357194632
  0.2849919180859459  0.8592028705563310  0.9717247388934785
  0.7216490343392730  0.6428775526731628  0.3273867608359681
  0.8191091544366990  0.5508569231742221  0.2770520694241371
  0.7715543401412491  0.6114718398431103  0.3529395703011581
  0.5707920790438363  0.9250725179772056  0.7688332557740404
  0.9841860736953162  0.6443291195534064  0.3073935389418709
  0.8168174237543766  0.5357866003016113  0.3387377629748203
  0.1588045010923816  0.7110980426581284  0.8935766521679114
  0.2287908276482239  0.6937730061652010  0.9798307008210143
  0.4595081328109830  0.8961894047532276  0.6821390167784002
  0.8604265738552385  0.4102492099063824  0.2798969407977945
  0.9614956704765151  0.3658543718957666  0.2737951866681514
  0.9366131961794015  0.7064410323194946  0.3844000677758742
  0.9557394275496630  0.3038972042781901  0.2941344603708473
  0.1221919162754808  0.2061388443417077  0.7641810294056469
  0.5295325344934528  0.8709963029382373  0.2525976733928566
  0.1707769395806084  0.2110929752704501  0.7257846048052046
  0.9579242113036321  0.3364034396395774  0.1677647616311582
  0.6090190647013861  0.9996064905115265  0.0414254000589622
  0.5952714928627755  0.9013057114271595  0.8938576215337700
  0.7257149906457784  0.7049903323157967  0.3117641140324400
  0.4967539302977477  0.9361559581893620  0.0193933743123678
  0.3904016657881139  0.6634605825213555  0.8186567608955262
  0.1084141219809818  0.5707032241017683  0.8136066337790590
  0.5418249870169012  0.9626527416531454  0.3397429940727358
  0.8730874768198231  0.5646564599396250  0.1226408195386294
  0.5022265171702381  0.5497136076811732  0.4011389030132868
  0.8815770753589298  0.6741985717522475  0.1485213797562299
  0.1877733925263490  0.7417212503147782  0.7333466204930540
  0.0407454510301986  0.7105317447174782  0.4261250032200991
  0.3392670264340958  0.6597377627345061  0.8584968878341473
  0.3287753573449326  0.6698632126660388  0.7983157652859533
  0.9743613331538902  0.5512483355460107  0.4481441811464005
  0.0726640439790713  0.6419959697802937  0.7330005907053598
  0.7790227434598820  0.7192196592623147  0.1542330127571902
  0.2437083752546773  0.6327586974525788  0.7388082608732465
  0.1184842696213314  0.9757841206279827  0.5793018287802890
  0.7255372718053791  0.7815499704389944  0.0023018361401938
  0.0424488959424586  0.1041954924025816  0.7565242843720581
  0.8505482613391765  0.3200765708239577  0.1939650762430845
  0.8316421514615847  0.7226781083574599  0.0606267802780610
  0.0712578131514088  0.1682123406450791  0.6976456330418079
  0.1461499027735303  0.8570150601240173  0.6980771136005733
  0.9931576417171235  0.1522128465811141  0.1269978804260780
  0.9461393549633951  0.2134995524169913  0.2041782747561839
  0.8330526483106689  0.7346388747554027  0.2268760831906570
  0.7876976080093901  0.8279408733395426  0.1858454428276012
  0.5930992425480958  0.9797511588074553  0.4152643502625549
  0.6110898470419622  0.6916019462650465  0.8819933588599965
  0.2511423141586165  0.4651652827021463  0.7727588440403719
  0.5048547911087203  0.5943803380490875  0.4456483222516603
  0.4971016340233969  0.5347178674349529  0.4615368922916161
  0.9130590483793782  0.6053855783257308  0.7048524748000904
  0.9025781050438733  0.9497314664913189  0.4145963001316975
  0.3776889913931861  0.7106301326036292  0.8609996431831165
  0.1907977517039990  0.9798295719893922  0.5053681885873831
  0.1228781528043631  0.2409091123928445  0.8678484537856125
  0.8149855620491654  0.4562679424242230  0.1912138204590240
  0.8666524794455903  0.4721152666923372  0.2606242312729556
  0.0871098387437032  0.9585256404235547  0.5121638155765946
  0.9076447866308633  0.3498921425692077  0.2027306411997854
  0.0932929200192739  0.1435769305149860  0.8216413360583052
  0.1397320135327902  0.9192649221170454  0.5855741007358153
  0.8571341160275935  0.3639960205593848  0.2365249604430059
  0.9426073942623039  0.8598728175226175  0.4636760392878197
  0.8428635628201464  0.2211518869554436  0.7805056972994914
  0.9581411384084995 -0.0144199920796635  0.8983849045493407
  0.2421200260450665  0.5655769890702514  0.1369746110623719
  0.7075667583580436  0.4795105800545754  0.4836771664652424
  0.7413897085248876  0.4318454148590052  0.5568344483721508
  0.6439079785466512  0.3894629783328875  0.5192072721868958
  0.9359635971798509  0.7101380145451316  0.9250637193625866
  0.9531433784784983  0.6671431928567630  0.8892214878185882
  0.4565137635604783  0.6226044235543469  0.4163276023211148
  0.8188125600752585  0.5643175707761040  0.6689140385371066
  0.7177845478915512  0.5976440455549178  0.2848737961372048
  0.5384103294610073  0.1911619957717027  0.5267783177748132
  0.8972314211137807  0.3449381546714387  0.6742209830859747
  0.9333888434674340  0.6961328549581031  0.7595474665745668
  0.6811056867918260  0.1810704267317682  0.3551241499355210
  0.8766553267874057  0.6745805335786008  0.6313042764471334
  0.9018253701407083  0.6174155615636263  0.6461710001586859
  0.8554590999709305 -0.0010843510645332  0.3298569441113509
  0.6915770523787214  0.4285631048698618  0.5927532597654996
  0.7740775982350925  0.0724390925016548  0.3614774956068300
  0.7522706594163662  0.4196354940668616  0.6148943156313492
  0.4842198383712323  0.3704167800695479  0.4672036108269996
  0.9457646466584245  0.3813670286400030  0.7377334781382713
  0.9679821900497771  0.3251343854978449  0.7546014716739680
  0.9075498682492155  0.3328395814664946  0.7341338180387795
  0.5969247728115253  0.9782070942222892  0.1735990316121899
  0.9183737279354161  0.2891885765274670  0.6873100788608251
  0.8889723361248985  0.1933431504547821  0.6355695199968467
  0.8475756697661470  0.3110229978330756  0.6045073558824621
  0.9415107357409359  0.7670307131938705  0.1396329644256318
  0.8153020347905547  0.2164674712729538  0.5540945479344312
  0.7439915374096431  0.2280245060662868  0.5335865337361694
  0.9834329703092054  0.4316230036445505  0.7427269667624966
  0.8849112802057671  0.4225335785926795  0.8246450305716481
  0.0410768160572379  0.7183974162532438  0.1350213945827318
  0.1440090244501648  0.6718529598082955  0.1291651166127758
  0.9385291409280472  0.3668700453984253  0.5771527081301201
  0.8435000823153808  0.3209131453740445  0.5435452440865971
  0.8481632800394195  0.2499989188190969  0.5019147696460931
  0.5762421319389389  0.2105924281151862  0.1922627355500696
  0.9342339417042569  0.4266631869137792  0.7832665637151252
  0.7912593417885844  0.5013868131594419  0.7248999253612504
  0.7683133683977174  0.0250202619249998  0.3161085093685603
  0.9627932918417061  0.7604272973930711  0.7018652415418164
  0.2583065849994624  0.8877264125453077  0.4636858727618699
  0.7904721685772573  0.2418362076061647  0.3714396206586198
  0.7888443457970110  0.2270967753769032  0.4334275909261688
  0.7743157122640697  0.3922281992356503  0.7366781577023573
  0.7354897732197174  0.1967799352978792  0.4251594980898376
  0.7262334462002594  0.3571918633441213  0.6671120465413103
  0.6052389402454699  0.3701050178689958  0.6259329663239470
  0.7167933693121801  0.3724706713343762  0.6026856896171364
  0.6771856762110623  0.3209588698146392  0.6000023226161239
  0.9899422774942006  0.6035544069225689  0.9752111701957850
  0.9109481019400412  0.0078303751851770  0.3955294391732881
  0.9570193102782421  0.5667288330287056  0.8755322928391994
  0.3175204133019851  0.8523215342758678  0.4778613215387347
  0.8619499575698232  0.4777536255584356  0.8073581700829473
  0.2598181071044747  0.8265684767714764  0.4652496423725702
  0.6347927028439921  0.2586035182224675  0.3728456995898694
  0.3551674219573991  0.6904500061569542  0.3648990839758456
  0.6360880095629705  0.2671417488447488  0.5966295857489460
  0.5686953450493071  0.6833840141251488  0.9833778921829150
  0.6320216580230916  0.1479966169908233  0.6647139850060346
  0.6870231889068110  0.2748121562002737  0.4420240544534665
  0.6922579049986068  0.3364202758272172  0.4252977379436417
  0.8617891844502849  0.5193538868761766  0.9094353181093129
  0.9210998602798403  0.5052013997010035  0.9318809442152194
  0.9344748222610159  0.6863767246575473  0.5950267595513263
  0.2294924344150495  0.9607017279614275  0.4687527795180251
  0.2070721586818718  0.8613869125842197  0.4401761821435454
  0.7710796629059385  0.6464631855196763  0.5546806003965177
  0.8398942310111126  0.5073707691816264  0.6862802027416798
  0.8902353580933704  0.5412733728878585  0.7520341211018612
  0.9355416500929479  0.8396156390130337  0.5296870589148943
  0.8295536906496641  0.5512118520035995  0.7285602031743257
  0.8410426973869557  0.1963426719290502  0.4583424497643487
  0.0161852829796021  0.3624279155015448  0.8196171308735462
  0.7374652757288168  0.3442099233634084  0.7292743590856229
  0.6370285210879673  0.3018506205311953  0.7042736416021493
  0.8188152371568169  0.1066067515271258  0.4569602927697746
  0.5762901335707701  0.3102932251670438  0.6820880903888313
  0.8668532249956493  0.0762750640276135  0.4780371631777359
  0.8495185222619662  0.9238354489606401  0.1815614713116047
  0.1895998831346720  0.6432839849027377  0.9764893427512420
  0.5559594901184401  0.5677798768467072  0.4711237667328271
  0.8999159196196275  0.6513462439369262  0.9219995090338109
  0.7323276139583725  0.4194587411800841  0.4945287479048114
  0.6990680520164233  0.2944187664173748  0.7259103480765687
  1.0062710499173275  0.4074340657860568  0.8652821227038027
  0.7124485872389241  0.0908817831392161  0.4868360586477501
  0.5138519410716434  0.0882433850724993  0.0946837000073521
  0.9228700669524816  0.4396594626775722  0.7227077688239967
  0.1073665966310805  0.8722264999348253  0.3404859773491741
  0.8748573138440252  0.4044974677527493  0.6576633856032404
  0.8150825810215856  0.4120671366671254  0.6372375899697315
  0.8610934500498307  0.4168766934893937  0.6001495978075065
  0.7659302032555075  0.3751728475099810  0.5576379415799244
  0.2048232642734156  0.7811614671822958  0.2904603169160964
  0.1931778175869948  0.6267532847880753  0.2162637390528954
  0.9302097629943301  0.5634862086168405  0.6552781363716982
  0.2951868084197093  0.5809442234043966  0.2062344172811299
  0.8421524619022492  0.4397779719427320  0.5354384726102123
  0.9661606481044153  0.6121312608041239  0.6622089785063390
  0.9785952777116877  0.5684946619221499  0.6146234015952804
  0.3858153470659099  0.4101376901403304  0.2319039892648837
  0.0075638196314395  0.6235206917387697  0.5526950679729110
  0.4341710859362284  0.3513712164858448  0.1553456220480557
  0.9861968152121473  0.6865824622919675  0.5203289627181235
  0.2567194550482144  0.7973708499327427  0.3600680843552793
  0.8085139569637529  0.0370060957830435  0.9182512129272785
  0.1006032410177413  0.1271102810908539  0.8840437955932726
  0.7459840866368165  0.2683863834512019  0.5768232416286038
  1.0112910200521208  0.5660964537632499  0.9001611994611415
  0.7180275432513645  0.0295952736652735  0.1864871371938480
  0.8522856652357701  0.1763558488171793  0.7362164068562388
  0.1886103415748057  0.5642109587503970  0.2330740528653482
  0.8009537783270009  0.1422658903126220  0.6705626841980139
  0.3391245001902544  0.4563217929233070  0.1442717927850676
  0.7471583697197502  0.1078151488245581  0.6038922099151536
  0.2850845988617818  0.3762523670470314  0.0981519816711122
  0.6668010258678605  0.0949262536153525  0.5316398383853058
  0.3382786819939197  0.4118470870297790  0.1034436778142755
  0.5846769784152019  0.0270333740410446  0.5517942449999115
  0.7448629537888580  0.0467698050642501  0.8953753864909676
  0.9789107650755271  0.3441960352232496  0.9258464197440984
  0.9899446534998687  0.2997794630081549  0.8813361783500044
  0.7437153368715516  0.0157089296190471  0.7887171412305418
  0.7534424487109727  0.0022523327633917  0.8519064161979990
  0.3982270072981149  0.3277287379683653  0.0736081919695323
  0.8120775044863707 -0.0060610952870644  0.8747065844944441
  0.7855952127883178  0.3487683896913901  0.6886907145585413
  0.6277194359648259  0.1793765589595234  0.2207781788274682
  0.8199786462290723  0.0850877440646031  0.6855494355069313
  0.6220233705176280  0.1208486672715880  0.2381289321152761
  0.3286236560815576  0.3484453260785701  0.1256210742450269
  0.8034539396569897  0.1728395853739610  0.7769799859446715
  0.8339904931476433  0.1011685059104434  0.8559723692049181
  0.3725166376675368  0.2753096670804552  0.1057524098299024
  0.1800596256097214  0.4239126999452077  0.0384982392207692
  0.2458319701249513  0.3609793105961641  0.0134995323306287
  0.9410605929316276  0.2308966120746970  0.7029327018999396
  0.6861909116543456  0.1451453768243816  0.4911742914526230
  0.7308204285847830  0.1341754185431072  0.4429507669757843
  0.8509240395558333  0.1473952646262132  0.6275992010209092
  0.8169435200340802  0.0216799544990388  0.5318860527342189
  0.1861932508658029  0.4863181764951003  0.0792818287945159
  0.1372816439410891  0.5641777064018892  0.1016081439687267
  0.4732088201698443  0.2283912739311400  0.0980729823392162
  0.9412373580476624  0.4801988539086442  0.5631675031271767
  0.8906198492843127  0.2261818589439986  0.7409749822969246
  0.4691908446970624  0.1831870588815761  0.0537022659237957
  0.8403471013198592  0.1910580135809390  0.6760752797436116
  0.5171521160206908  0.1218125962558062  0.9724509589415452
  0.7663671079070606  0.2126507163622335  0.5925482510929652
  0.4677053112614237  0.1668841949105943  0.1127390259546083
  0.7302502883996987  0.1613791539741911  0.5886448607441483
  0.5645947097567602  0.0738724638962954  0.0589404216578796
  0.7532135455053798  0.0538912468369417  0.6231382225497842
  0.0632495808526439  0.9510306640635590  0.3538055416129024
  0.1931995748006620  0.5241514226935013  0.0189188270770684
  0.9615965194553956  0.4885189799998156  0.7277453966876474
  0.8653325628061506  0.4407519585419735  0.1546664645521842
  0.9296255635972863  0.4512993374651339  0.5093463887069577
  0.2291668409823185  0.4701503617501965  0.0447354983899189
  0.8952939833603246  0.8425286790077560  0.3877925688881967
  0.8530901091380617  0.0416464846182757  0.8750543739129599
  0.9933721071573025  0.1904236064248115  0.9435546086329601
  0.9334510553531434  0.1425432107784394  0.8786687066977547
  0.9895131164201083  0.1354213274305280  0.8999303315067002
  0.3584914396736805  0.2521722081140350  0.0013399922814920
  0.9291992273641659  0.3071586198158666  0.8605295490482411
  0.9432704799371476  0.0957504669578734  0.8331883064725468
  0.4151859892928738  0.1578757908003967  0.0382931076253512
  0.3568202477899804  0.0846233043936493  0.9868681877011517
  0.4606194198293524  0.0748023739664410  0.0225816381636776
 -0.0028512986127676  0.8110929150791560  0.0908466683102477
  0.8355618217974778  0.0279085110422416  0.7029258448551902
  0.9884550460262775  0.7042182928356047  0.0659531433696568
  1.0019486982956127  0.2533263071112185  0.8290374403580570
  0.9525993386162254  0.2173135663318294  0.7612881953648158
  0.9212073438546612  0.1241360587676768  0.7113940705966361
  0.9097285713035337  0.0036822810479581  0.7858496857553773
  0.8617127816606559  0.4491689560906698  0.7022132418598346
  0.8613981986989584  0.1335053465924120  0.6904916689812891
  0.9443653809551208  0.8119058269412469  0.4171335512689233
  0.5997706512771426  0.4419986404158227  0.4041192461700426
  0.8674540230042793  0.9656220321153768  0.1381227029941494
  0.9973385647953166  0.1972272219395706  0.1707624909211753
  0.3697122366411638  0.5550323708659947  0.5780744571729670
  0.9389834989832598  0.7212481078643654  0.0968973427707134
  0.8869585022829551  0.1511186899051130  0.0885303705121283
  0.1974739993048742  0.9141695010726355  0.9328909556865959
  0.3014023823401513  0.5059738227415832  0.5118443439961551