B  Cr Ni
 1.0000000000000000
    38.8178767765091450    0.0000000000000000    0.0000000000000000
     0.0000000000000000   38.8178767765091450    0.0000000000000000
     0.0000000000000000    0.0000000000000000   38.8178767765091450
 B   Cr  Ni 
 106 1596 3725
Direct
  0.6230108299610676  0.7650178900346981  0.4755228614293638
  0.8793535730751181  0.6842792958433437  0.9354486599575376
  0.5412451000371401  0.0672027442807976  0.6130488688893165
  0.3829272387503856  0.6001345334748145  0.8988199921835462
  0.4772169563183595  0.0732938271426359  0.4319023047985513
  0.6614863803312391  0.2151234925205793  0.6207061453309338
  0.4220774670118180  0.4872271083832326  0.4872365268862410
 -0.0595186524730629  0.3609350416846543  0.4852160733090098
 -0.0000308961702591  0.6647935913829177  0.9773040780235470
  0.2474088743618560  0.7078342078147489  0.4807189950148886
  0.9303903772262756  0.6195367659096661  0.4601837354047913
  0.7238417302569354  0.1705681304806262  0.5372486730228393
  0.8960258548037162  0.5647377057831845  0.8581856771277848
  0.5463360425384240  0.5163835215347408  0.4084925110967957
  0.2481768828475045  0.9760223864035469  0.6063724078323713
  0.3407556773888001  0.6620922548172539  0.4739876217386378
  0.2164422446886906  0.0718324142159446  0.3268983531433307
  0.6103715158873749  0.2629455710262864  0.2746325754987492
  0.2805790845484827  0.1407645561685678  0.4648674980787134
  0.4785029857751514  0.4234779475118549  0.4843297491486637
  0.9727072579552921  0.4565916085633376  0.4681256372662986
  0.9564442320276194  0.5466902452232071  0.4216300334025673
  0.2384903464090216  0.9460205088639044  0.5221531596389620
  0.7537616662384737  0.0162150357395142  0.5460134189989374
  0.9136333510923809  1.0000984123991683  0.9302819311570801
  0.5627022719701762  0.4501917413579374  0.5644672055575448
  1.0162451641950669 -0.0334680563707844  0.8990974119255255
  0.5893598263181946  0.4576510026368529  0.6501045955862733
  0.4232025400380071  0.0880674229597049  0.3376979314926156
 -0.0424306249898769  0.2856709803654942  0.9634301626179493
  0.3764139667305948  0.0102888556015088  0.9377596221376604
  1.0542791292323652  0.6236181860360321  0.5234758483026031
  0.4840064983658863  1.0270058911437081  0.5476735789606427
  0.6927160144480974  0.9422704705769795  0.3343948174529072
  0.5924751295727944  0.1828165924357106  0.5516950783675967
  0.4928086151342674  0.1957645962761357  0.3120896278516959
  0.4685531813078867  0.4640214372182696  0.2164098323048789
  0.2402930549390560  0.2217805371686442  0.4690154922805105
  0.3135810769507316  1.0126997399361910  0.6758875097550952
  0.9562023140691568  0.7279077893037827  0.9723449925253453
  0.7188389172482487  0.7814663033181937  0.4615979392810356
  0.5697838945146065  0.0474137825505279  0.9611763765491871
  0.4531847308816598  0.8482056508800428  0.9604368195565239
  0.1885519786182040  0.6162617431852291  0.0599791505852014
  0.2985484953046453  0.7911541861286315  0.0511724385341799
  1.0415398849657600  0.7358297329149501  0.2982802007068967
  0.9527880919178153  0.1810969076315759  0.0370873349110673
  0.3409254202804258 -0.0081562996936640  0.3687725392323164
  0.9909036109849984  0.8198612370445101  0.8538659417478393
  0.0184716475240187  0.7096892022545043  0.5700542330677779
  0.4040708379126303  1.0030979480984950  0.9737340681362927
  0.0920154264987386  0.6250021602698901  0.9683871363746136
  0.8734786547560532  0.0148181291054461  0.2395108845418112
  0.1910582337509210  0.8514597107464953  0.8570962724911455
  0.2274435698893656  0.9884262844868655  0.3379450402229516
  1.0585783618323004  0.7678581789996547  0.4540652574779232
  0.1076378512224924  0.9901105087612170  0.9461596466291397
  1.0112579081191406  0.6760281495758174  0.8933985020545805
  0.3220730138826933  0.1122186225535339  0.3523903969930048
  0.2730058590583958  0.0529418099398993  0.4643379458608968
  0.3189193123363507  0.0588470407460073  0.4175104948045491
  0.0909049998841824  0.4462197588170797  0.5113933094607021
  0.1789875748715756  0.4444395756632699  0.4843071612722956
  0.0657179424789485  0.2788953213632936  0.9411034170302216
  0.6989725957148792  0.7422081171741925  0.3241560876680976
  0.4381015039379489  0.4807133517654339  0.9371949266505010
  0.8486180662701702  0.6477935965552233  0.0138414141750085
  0.9374400566656200  0.9472218152365693  0.7245906865948667
  0.5544720883461762  0.4822064954979446  0.6644011077585072
  0.2418721472290535  0.8205486174775916  0.7094663593844939
  0.3200774450232685  0.7304526248610529  0.9883567359865774
  0.6931231568673902  0.9694051815055880  0.2134927439617050
  0.6941088858612283  0.9676064339753196  0.4439489680180910
  0.6951309843754470  0.3316708932790050  0.9804869616245977
  0.4565257166244829  0.7349805237800912  0.5053617830616135
  0.4526156011356530  0.2345546815710798  0.2320719598118268
  0.2595055062040313  0.0767421127361768  0.3372658576768688
  0.8806958068569705 -0.0330589487982985  0.5101411244812790
  0.8340014361785970  0.6965988063487902  0.3964897947686027
  0.5508036063576920 -0.0062756540364070  0.1293003195821723
  0.7627844451523216  0.0145694293488194  0.4499583054681209
  0.4830172902843199  0.6023892531700116  0.8851730750263260
  0.1253052510264705  0.7771859816528047  0.5252545909446558
  0.8229276970466904  0.6861746422015096  1.0214691347197933
  0.9017439570640881  0.6181443926156097  0.4977245962874399
  0.7262628087764803  0.0467894743233865  0.6765197545302337
  0.5124074223488225  0.5492673376060031  0.9628587681362580
  0.9574822889846011  0.7271466099445563  0.5105557085068152
  0.0098001239218430  0.4364901675781768  0.5411415610884205
  0.7684966389579517  0.6392327894219006  0.4486538665646457
  0.0301551414037904  0.7405487228897822  0.4745497062723050
  0.8821461198523446  0.6012824276819076  0.9479493181057990
  0.7827214645975988  0.8468338172517499  0.0699857174917487
  0.2171689636764402  0.0292005147928637  0.4111717058465366
 -0.0069312769473621  0.6762273962497413  0.1240570169731763
  0.4862528145967341  0.4914129909803703  0.5346950021576030
  0.9610784129148471  0.8024251335126917  0.9539884007598040
  0.2931454809900745  0.9053602974748314  0.6119686433575909
  0.1689181300654374  0.9631639829106584  0.5537298928073050
  1.0291287146273076  0.2722424684691725  0.4232749499665708
  0.7459062258143316  0.6203509770947986  0.0163418506589145
  0.6740098714796117  0.4290831266204861  0.4867978268429158
 -0.0301124379804157  0.3570809000073210  0.8430801756092283
  0.6638334634770565  0.8454101787581878  1.0246158190659662
  0.9449168863853770  0.6994097363596500  0.4337116249815586
  0.0162193043601478  0.8314591820411780  0.8892444194092912
  0.7736631517655600  0.2847426753300072  0.9614703320166225
  0.3126596504597910  0.8286923493481210  0.3675044302386005
  0.6829025165091415  0.2270592520340704  0.1703245540138581
  0.6797641308770578  0.1817432568762624  0.1250911641829406
  0.5161295368060548  0.7371618400027544  0.5120099100993373
  0.0214384981261744  0.9597669901824011  0.1496567838810313
  0.7870826874920474  0.1967172472508663  0.3284474056902574
  0.7094831271441987  0.2806135246308732  0.7881542325524336
  0.0687934682468225  0.8972154698163480  0.0771445168325663
  0.5040276758646339 -0.0057424313831642  0.9974582294335576
  0.4689275319137940  0.0806814099210286  0.5650019497003074
  0.9660358435299432  0.9355464703579872  0.5706908985287437
  0.2612368492983995  0.4815245759632136 -0.0008041165287158
  0.8337312660953001  0.8378070063112326  0.8703360565449851
  0.7698440013324604  0.0150489310191903  0.1489447500753600
  0.1193145538814714  0.9491977665354655  0.2573419566716248
  0.3121305156778007  0.8140013888570098  0.2004030949952878
  0.4134796918612055  0.0857005704181019  0.2835042011425993
  0.9195935264995067  0.9300741216851636  0.6218685020391237
  0.5188020540621509  0.6102743645362653  0.5676022093100292
  0.1509106253472434  0.7461792689464735  0.0497106107079127
  0.9298911020633442  0.8859219869974786  0.5805227620448584
  0.4734573119883398  0.2131677369275631  0.3920171023097803
  0.2451833526525506  0.5365781234888893  0.0350908146140486
  0.7605995029227907  0.5831558106537661  0.8355893673907849
  0.5026372636098185  0.5488483060364295  0.1720152807408117
  0.4668009660229096  0.6745833842464054  0.4485187276201797
  0.5806775163613324  0.4917730809056317  0.8220781196250682
  0.5913898408597124  0.4472837590788454  0.7769728423658112
  0.1886464691821424  0.1629264675330010  0.4548034035349002
  0.4428918522627944  0.5003356460278423  0.9929513234830876
  0.4545272676389673  0.5950714215113725  0.0852367006342081
  0.3059114298411088  0.7363531667024029  0.0445984185797240
  0.6657156549915476  0.5681789732081562  0.9876036520080274
  0.1565685357890474  0.8163600747392554  0.4946732427674445
  0.5622629338555337  0.4840498212336559  0.6101399238299952
  0.5185805235895898  0.2301087424372559  0.0032977017352873
  0.4558493510691520  0.2524277322895956 -0.0173819930082281
  0.5097465873346938  0.0669188481608332  0.5181141213558301
  0.5101810265017835  0.1239582008960475  0.5191768184451137
  0.5225930077330639  0.1089363525161817  0.5791607372665954
  0.5752410749304416  0.1562839160610349  0.6481000751059562
  0.1545525200054671  0.7932239029225657  0.0963339813559232
  0.5475895100372333  0.2118579720342689  0.6364990091672749
  0.5492866555972046  0.2465445868720954  0.7412385848951539
  0.8860350940169099  0.8462754158134599  0.6076112403120612
  0.4821750191313859  0.0025332758090037  0.6629828824737565
  0.7341927949974190  0.6749550498624117  0.9185975768070899
  0.6760505241413390  0.1506824368087109  0.5624408719313125
  0.8450453117404155  0.3039647447740607  0.4929661734275323
  0.7370880616443978  0.6416243291023562  0.8148444782408388
  0.6383269904634490  0.5995888104543716  0.7943693997236391
  0.6317911556389157  0.6116953189609766  0.7283479111308309
  0.8945369759406117  0.2376693883307534  0.4130715784208714
  0.5958524585124576  0.5653848631085453  0.7077012392798891
  0.8909194742024877  0.1771727331989726  0.4263294154639587
  0.3744390577633460  0.0735325210032861  0.5973942633406174
  0.7465053361437284  0.3645600406922288  0.9035082718717489
  0.5982816282676604  0.3185182452887646  0.9144130730721430
  0.5770515046688841  0.3392935861168497  0.7929420113551249
  0.8609735473141341  0.9166026031917079  0.5229035310349262
  0.6512842262548998  0.4419932508939006  0.3158204966732495
  0.6459496120378969  0.3804457813654484  0.3353002034185529
  0.4474142762763825  0.1169223153796879  0.8939624593228354
  0.4779687712488920  0.0154383166975819  0.8689453664062876
  0.6907249602665703  0.3055889267943049  0.3196150263721689
  0.3960632212392626  0.0805524924410682  0.8276017265655146
  0.4181138529025263  0.0230560742809780  0.8464071091329284
  0.8383515116158201  0.1814449142865846  0.2923314908159292
  0.6200944670803109  0.5075180743572618  0.7236893974814347
  0.8944450501562285  0.2838552644104393  0.4586760671204563
  0.8164028390693501  0.8979277697170225  0.6270549439265891
  0.7423593660171161  0.7545077901933085  0.5764210178793688
  0.9930171295675861  0.1299621525159151  0.4175601638549796
  0.4690152478926767  0.7344640304745225  0.4478494922889524
  0.8890476848506220  0.9615287964155073  0.7460640569845012
  0.9891541272958362  0.9453401183534068  0.7487166703613292
  0.8529954309423231  0.9886999608620449  0.6694288151431333
  0.9115426428836644  0.9748093546711309  0.6807726953217396
  0.7039812684548220  0.4417013644900309  0.4439395463221035
  0.5847906247117768  0.5614403129272622  0.5380775674844507
  0.8666267446280880  0.9031275035576599  0.5856375133933159
  0.8211822943570893  0.4390715864031652  0.4819604486845894
  0.6027302470262600  0.5150761939104798  0.6622197727592357
  0.8984664668630220  0.9477372922675825  0.5651370624631069
  0.7941604963991540  0.3385380939657189  0.4581517383948612
  0.4572884201508239  0.2874585047903998  0.5374837651815133
  0.5231222570320264  0.1834662896646461  0.7970989552601841
  0.4593117204840936  0.6585199107235987  0.2926412492835819
  0.5093319787586249  0.6266342842563835  0.3196018615786326
  0.4610584259662718  0.1582367244525859  0.6701041344167941
  0.4235274137241436  0.1113051902171410  0.6610302528296617
  0.4176359014354538  0.1255030186203376  0.5887115433993952
  0.4220806915633699  0.8918339506638441  0.4983549696440636
  0.9686077534008107  0.0395420708083395  0.4125446505992252
  0.5655681542684650  0.6202485674327751  0.5274704427373187
  0.4847905785352999  0.5687050780295687  0.7253581081946427
  0.6296498759894349  0.4960925360013236  0.7831617826318605
  0.6162859277306393  0.4852290068542487  0.5526180503747375
  0.5149426148914276  0.2835259848864821  0.5581876672184899
  0.4239187214488411  0.0106060854021690  0.6418396248595379
  0.4466040401741013  0.0531301497734624  0.6807865768554919
  0.4976615726376992  0.2947545962009959 -0.0037451276514193
  0.4518077797798262  0.3157319002119697  0.0343905672294142
  0.5564260491668251  0.0823703796368912  0.7699773699525578
  0.4423941468751860  0.3595242347337800  0.0867501743440690
  0.5067356021294338  0.0777319706699466  0.8101261200997625
  0.4963952844914077  0.3440202566020987  0.0496614967820253
  0.3940681388415790  0.3906055640079332  0.0596551264616251
  0.3910811748778226  0.4384671164900454  0.1067291653709033
  0.6571292046379200  0.1629271450602211  0.8993701039625445
  0.6711956960109122  0.1008958505099623  0.9736971068192692
  0.3956109866087315  0.5030491217603908  0.0893131109151400
  0.5263993653416077  0.0207492208206207  0.8287095085974395
  0.5861888639728055  0.0139216165970050  0.8521025531558299
  0.5402120783219011  0.0083394828849119  0.8920148634233709
  0.5655192457004273  0.1031970645343826  0.9356309038487897
  0.5797557982718525  0.0574785879661433  0.8989447011922276
  0.3469377444335340  0.5784311340914051  0.1096896841077019
  0.5567653270248051  0.5204272733563283  0.7027216249171273
  0.4505838950049571  0.5335004135828443  0.1020428788524822
  0.0215851297919773  0.9414680351885063  0.5424769756035192
  0.4132880006499644  0.7520800950828549  0.0230379936522750
 -0.0008756662989684  0.8907419540133028  0.4695930688170207
  0.1783270151662960  0.4418483530048604  0.2696823995739979
  0.3675463621149486  0.2114016392093150  0.3528476209026643
  0.3685277418715521  0.2567757633250085  0.4053717740930370
  0.3704275405172376  0.2718793672400370  0.3386381313901489
  0.3236885149443972  0.3364484789987427  0.4180009611217987
  0.3747978765112608  0.3174510182923675  0.3830631156575784
  0.0423672185816682  0.7244340897327716  0.3606340424361471
  0.2293526387877748  0.4432175569218372  0.3985985656421919
  0.2375536467741728  0.4861832764301175  0.4399526521582989
  0.2864943000925361  0.4749980178372450  0.4090335121671601
  0.1290137172276901  0.5048987841306019  0.3456559680059690
  0.4126424669628012  0.1463187082673204  0.2717880428043076
  0.1816404556639562  0.4881781558704453  0.3115208048206950
  0.2381770801684167  0.5478955475610834  0.4245264166969451
  0.1820674348064528  0.5638325963353792  0.4555913971598500
  0.1342639203540017  0.5982272959634524  0.4349204568414654
  0.1427152027653265  0.6603765864568671  0.4174986426271656
  0.0850889740094628  0.7322972087151363  0.4914251366683089
  0.0494009717685238  0.8224341404216673  0.4492764800481324
  0.3127565137179235  0.1946401726252975  0.2818004369245721
  0.0482700223359912  0.8541857522383235  0.5058941074242681
  0.3567500113834072  0.2806670489990621  0.6143289134118360
  0.4360108941268268  0.5310348345534222  0.6609482596406404
  0.9776170087090171  0.9434382999588621  0.4999358695025460
  0.3433324786737462  0.9581140678760933  0.4556844607300098
  0.7507648970843376  0.3811026020473204  0.3720396759931173
  1.0073272163449563  0.9822520305189643  0.5931465715578295
  0.9425191381126986  0.9950121522338816  0.5770181943425243
  0.9586338835932300  0.9773603902447708  0.6315149868518795
  0.8327500765253135  0.7703332268358162  0.4940331738456847
  0.4894179346814417  0.1580440138246172  0.5702881749708973
  0.4844196148669234  0.1032814569941224  0.6835828325824365
  0.5461632817162108  0.0953748695094079  0.7065553120984058
  0.5848975461713157  0.1455414186124745  0.7109382355040759
  0.6207681017269803  0.1212827764065531  0.0072091390934357
  0.7737283755285964  0.0445745031513131  0.0231263043447941
  0.5859181921372493  0.1775752509046787  0.8171708560363755
  0.5739101503790076  0.2022627723342225  0.0222787331643009
  0.7019016647259476  0.2074225529017375  0.9081231644690605
  0.6605596548112710  0.2202755442553617  0.9437567885418442
  0.4742396751185797  0.2305446831897775  0.5557579214581280
  0.3053013730478181  0.7209224919576239  0.1115578522578067
  0.2077800057603949  0.8096000907775799  0.1640637354375621
  0.6900641945806524  0.8776604437512867  0.7028575057148111
  0.7072202718271547  0.5800986500189781  0.8780044790229616
  0.6800070200372086  0.5342750938429166  0.8486278118600719
  0.2527300740154186  0.7036474470242277  0.0404669882079794
  0.3026874344186208  0.6256572274425258  0.0263169543436419
  0.8565439060672908  0.9002497962740410  0.8136766474724801
  0.9264170350797047  0.9927376368335109  0.8468452669834663
  0.9266227216180816  0.0147643727233340  0.3158024871897306
  0.9688649052798398  1.0300168218488261  0.9311889880332022
  0.9377784552924778  0.0993818097532858  0.4067725869436122
  0.8823889701018627  0.0876622648591211  0.3339191349572392
  0.5832972436371738  0.7210032117468712  0.5367555444982393
  0.8917468851187413  0.1945798255705853  0.3640003059312090
  0.8427098457211164  0.2567107613096071  0.4456807172084494
  0.7021611045230663  0.7311155169360344  0.6754128333815573
  0.7443255361043039  0.7834793144558858  0.6816641393707764
  0.7403462896329831  0.7634161352834926  0.7386095987677435
  0.7749081122879552  0.8117934634764011  0.7415843577455379
  0.4372918507671204  0.2882985195348449  0.4720613137951846
  0.8009741031829603  0.7743256003694877  0.7006286374193256
  0.7823478365318676  0.7094816935063551  0.9853398784289467
  0.5428372216489928  0.3946374782762267  0.2366740340227442
  0.5099801556799711  0.5813231182080784  0.5167888379692172
  0.7843141441320296  0.8045580494651288  0.5782476840790208
  0.4700298669472824  0.7951269840773388  0.4291245010851602
  0.7746068204546414  0.8484093530413250  0.6226744596438524
  0.3628418528837767  0.8977106986694451  0.4765936930583636
  0.8274319898792671  0.8848412913352123  0.6904335894469181
  0.3051166133352989  0.9162181113693461  0.4512625810494142
  0.6066161423173551  0.1958342815642473  0.9337196034270390
  0.1327574538208744  0.5510903722667395  0.3900170721979496
  0.5506522633126585  0.0066542134584213  0.3856041327284702
  0.2420400816151287  0.1945452194734122  0.8093219943992170
  0.5286762035743947  0.8736307462105964  0.4822305352719116
  0.5799587809055384  0.8543493336565090  0.4490370398645067
  0.9941724015096638  0.1497507697057664  0.3570774168081089
  0.3809664358151479  0.3191005963548356  0.9506315293485523
  0.1661247631763403  0.9635330129363211  0.6862286720954938
  0.1610951059136817  0.0582351673821319  0.6938912227070340
  0.5803259839643129  0.7282095676243503  0.6983099635738725
  0.2751171291233084  0.0933069152874886  0.7844380204344998
  0.1525461770276320  0.1031128972144928  0.7387901924236612
  0.8991895760692303  0.3016427991646817  0.3964995459108666
  0.2139890140450834  0.1323892265919827  0.8673127788543680
  0.2737006204653035  0.1230903794602216  0.8918111058507582
  0.2553144533519626  0.1536277350192174  0.9314248879517484
  0.4110005750908283  0.1789673562304737  0.9723073209023148
  0.1874262029243921  0.0379528140641025  0.8258806816998788
  0.4727977441306827  0.4292408778950474  0.6341194398052612
  0.6534256110535768  0.7078955736560283  0.7752402105876665
  0.7231186478223561  0.7231556173311471  0.9605343130950859
  0.5143611281979870  0.6874468179249447  0.3019910886756742
  0.6733289328245595  0.6833883922641321  0.8963216685186647
  0.2301894325744162  0.8785248389574922  0.0807792946357450
  0.7153370139931570 -0.0011560333504245  0.0783238530776116
  0.5768026779204294  0.8104800517435093  0.4014079747094593
  0.5281719332341828  0.8154095000990288  0.4978644972405080
  0.2520713088998156  0.1135020722491266  0.6587897402800963
  0.5547559684948854  0.4302478329889914  0.8824835716718247
  0.1788069860345689  0.9441717559636826  0.1518137392142073
  0.2292653195902996  0.9259222496654695  0.1148158566584473
  0.2934293507279213  0.1345830493878547  0.5554919156950191
  0.7251389805116135  0.1199987131317317  0.0443438681705403
  0.3012607821782500  0.1199336236338191  0.6211965227094127
  0.3278529341080551  0.2164730867027864  0.6705934421235029
  0.4007185077655352  0.1991470295655041  0.7540946625321920
  0.3901880039509598  0.2432872565173139  0.7986548643648680
  0.6689670791792504  0.2782053689732648 -0.0187301555741353
  0.4999841528407567  0.2735519969813335  0.8869725806552429
  0.5997979983411917  0.4067942982894809  0.0759451331273978
  0.5281822861381898  0.3680775930965507  0.9428809130155151
  0.4994261104746003  0.4552300335302041  0.0845351276882498
  0.1764308452519645 -0.0041192488321102  0.4349744691521032
  0.2640450245274502  0.0664739188197989  0.6147720032965045
  0.4171441761540268  0.3057240373551829  0.7430157560846211
  0.4065972801212536  0.3183023961596355  0.6820232288442799
  0.2577830163530284  0.7517182430823240  0.0841223215328964
  0.9964752054091586  0.1929132089503675  0.4001549144328528
  0.6138583477725938  0.4251355876447387  0.9044798974877634
  0.5384344115502436  0.4266085926732896  0.6539590824104506
  0.3011703822029111  0.1882456080853219  0.8317340285194965
  0.5223263049423746  0.2156713417666873  0.9033626075408719
  0.6692709734783870  0.0752819029397740  0.0968448862167900
  0.6037154814568120  0.4028098293040196  0.7355060048093377
  0.6920705822775004  0.4571712243979894  0.7014049020245159
  0.4014414946895336  0.5946042290686606  0.1797566454632719
  0.6410048641735040  0.4502601491775984  0.7391800151490434
  0.4035011304849552  0.6272748201498846  0.2845518440203968
  0.7786056967662374  0.5415020021206405  0.7724061131503048
  0.7517145085731820  0.4786635814913503  0.8287643894106378
  0.3528416333269935  0.6574760392584191  0.2588059744416255
  0.7599848106229090  0.5744373334004853  0.9032465494880171
  0.1182221719092479  0.9136133341941395  0.1449645387987412
  0.8206807869370712  0.5630678218767713  0.9913850116939338
  0.7667094839685571  0.6054784986526136  0.9612220325824522
  0.8307277270658683  0.7248964167972293  0.9397028864663746
  0.1530724161709320  0.7790538606148415  0.1559610364817854
  0.2060793495029154  0.7959468736696808  0.2262040297898226
  0.8834986037946366  0.6903653886316085  0.8003384527756889
  0.1600376600759538  0.8391077379842473  0.1375674689606867
  0.8557760771137533  0.7548068934865105  0.5535480977499068
  0.7907248888233291  0.7637391830535353  0.5349735855938046
  0.1636446166884251  0.8887728922849485  0.1783006667109774
  0.4499927424681189  0.5501610674409335  0.2691458129812960
  0.9845641427263152  0.8783572713229197  0.8594699206420781
  0.4068984496669079  0.6890770735344965  0.2666221903174235
  0.1288756147695737  0.9563783716610436  0.1848419531352675
  0.8953400042274912  0.8318876164384493  0.6679589156592308
  0.7021192218285517  0.7050433014249208  0.5725586308044227
  0.5778410124181782  0.2446859052436183  0.0687900366738831
  0.4885103027278079  0.3795478807757361  0.1650328799824996
  0.9567234718173857  0.7918450569928741  0.8038576969925857
  0.8989752525256316  0.8001985367209570  0.7875024029669638
  0.4405119075572875  0.4060237569461619  0.1354820943591067
  0.9754189919760247  0.7571611316914763  0.9260457610641679
  0.9611470529200822  0.8253086154329712  0.9025010389746927
  0.9905344843290309  0.8714536954188037  0.9213176495652419
  0.5990602111666412  0.5222414852836145  0.5014381760649869
  0.4484114380452063  0.5189726549738841  0.1615695069804384
  0.6867261340487395  0.5972684943888951  0.5723374472983924
  0.3430602356089597  0.5172205919455289  0.1259579171758964
  0.3495322798327289  0.6105291240828875  0.2159880095469350
  0.8380339291877694  0.6563520691234787  0.7339049655149604
  0.3542051278916670  0.6722460051027258  0.1993794331536620
  0.2521322423135999  0.7190431725717752  0.2092082058391089
  0.8248009775135736  0.6981383396811728  0.7785281921693542
  0.8450909459260588  0.4050617723501410  0.9291078130685420
  0.8567294509691146  0.7658447085839387  0.7228190407957157
  0.7383828078248655  0.6082788770360810  0.5329904609202131
  0.8344315641555426  0.1368815584180952  0.2477484261111947
  0.5036947462649690  0.3914197045182432  0.8168437190125138
  0.6886393415649499  0.7579846372624696  0.7775463438690062
  0.2203346288480690  0.9342255552439668  0.3584985206303667
  0.2158370026508640  0.8889785838935453  0.3147869492602113
  0.5557622662212077  0.3648681571165884  0.6689701788729219
  0.6152647680735785  0.3546600458963481  0.6896326651389502
  0.2638818552842545  0.8610381190482499  0.3439638156219015
  0.4970818463231025  0.3741067146432884  0.6483769555310666
  0.5665300553787005  0.3207100950265360  0.6224923852788976
  0.3629115514631088  0.7826034390667008  0.2261776183674573
  0.3607998116198960  0.7668505372978253  0.2856794882384929
  0.5117305589263901  0.1967561972242048  0.7361219753902114
  0.3598984098828204  0.7524792065130207  0.3472190556060255
  0.8945956509072666  0.6495182472685147  0.9784183752207595
  0.5922959647872890  0.3795254046946288  0.2036755008196928
  0.5524097321816624  0.4853272973230134  0.0932169289981185
  0.8773941819809594  0.4100905049340165  0.5037847385240884
  1.0005692097494752  0.3531681481653410  0.4859788271978060
  0.7910872030236658  0.6135461213330955  0.4940957724628584
  0.6804597581043376  0.9229027475268734  0.7470615707926008
  0.6705282040274130  0.9669958985453490  0.7912693578827876
  0.7309170852545384  0.9598139663194786  0.8116792371433257
  0.5539422325150400  0.4994117760922916  0.0326474059031219
  0.2154137671916695  0.8207455212601930  0.1027052924863033
  0.5148953438384408  0.7612629513014543 -0.0009420232429554
  0.7134672398412674  0.4308591761412216  0.8241872813336767
  0.8241964173277956  0.0447017593655849  0.1559940673141688
  0.7256799528472266  0.4189412625608245  0.8864683446028118
  0.4742477334103373  0.1800466806472893  0.8380013031612855
  0.5575864305849334  0.1150035032329705  0.8765377062271449
  0.4852084663449935  0.1339828451760715  0.7919458775583808
  0.4456043727539629  0.0856830752292430  0.7880213985058797
  0.4340214730173282  0.0977747165563547  0.7239659142191751
  0.8778284457409143  0.0448881448028096  0.2894391424575908
  0.2282001228502202  0.9780902446146074  0.3980721414678562
  0.2678246388682027  0.9093153711900137  0.3938647786287882
  0.6444980736293467  0.4054886048234719  0.9760042107690401
  0.9341702219481993  0.9745869095751707  0.5186519214393140
  0.8365520246122699  0.9628968254364785  0.5433071664691104
  0.3640716248972738  0.7974677588838243  0.3924877528813693
  0.6748895289411635  0.3835655100662188  0.8190406101005704
  0.5996008751784344  0.2844749766309358  0.8081240075669709
  0.6884233525948171  0.2730295810104081  0.2140258284434626
  0.4765003215334677  0.2653871178759240  0.6599094211084674
  0.4255672047306104  0.2301663611239684  0.5930648069666034
  0.7336770427815189  0.1979326497261532  0.1952758963093968
  0.4469968539311486  0.1724926852424138  0.6117306601897117
  0.3604528104681549  0.2102308079042121  0.5160531580619924
  0.4895551286767015  0.1674161536552088  0.8986431153405576
  0.4348485323367649  0.7753064928032539  0.5409573846970260
  0.5523340248471892  0.5766719002625955  0.4147842654089176
  0.5366317167586733  0.5887639956337571  0.8803875904603814
  0.5680877501323699  0.8104891842821896  0.6233745630793629
  0.8979920265502090  0.2727075738536990  0.2858996952793333
  0.8471319108519285  0.2877858547657563  0.3212844281406625
  0.2095180540277037  0.1108324841986138  0.9271924921655492
  0.2523205985805890  0.0798572109572104  0.9509212363506244
  0.8632862419427659  0.5378046364468300  0.4756112029363741
  0.7203846407143095  0.6135697167853896  0.4607391927933862
  0.5822003065214647  0.8950054160003517  0.4933401626483739
  0.6288362168176000  0.9656002551443691  0.6075833952295804
  0.6208893902912972  0.9776718455263401  0.5370646357409575
  0.6740057165224819  0.6987299126987785  0.4093965102919271
  0.7391136649000934  0.7253952357681718  0.4712483801040253
  0.4935668160689626  0.8313884779226209  0.5386719128863767
  0.5962922639098210  0.8714535604262218  0.5631331351125894
  0.5352478197024549  0.9354521418577475  0.4682758695876890
  0.4447921219167314  0.4280424894100998  0.9563064156499322
  0.1588993728036247  0.0260308593849766  0.5836160291299622
  0.1326042225534150  0.0593740376889607  0.5175587817874900
  0.1428037790089194  0.1150127016582427  0.6765295483491779
  0.5272791388576554  0.3021512041666088  0.7258832730413415
  0.2777918158413495  0.8359191558308469  0.0849397539648623
  0.5190342885629791  0.7571593418292136  0.6191815731135913
  0.4546409918890769  0.3542887049891918  0.7491312310993232
  1.0287342374040631  0.0023803432646428  0.1900124164686007
  0.1718807362120977  0.9319412260324258  0.2208693869683870
  0.7178549864346802  0.5225367879184615  0.6474495574306228
  0.3594942835967451  0.7694314516131706  0.0582903239526110
  0.5316028768620772  0.8436321107713869  0.6595174597543348
  0.7596818654697223  0.5279142940030682  0.4405648210601731
  0.2581488163524817  0.2678897056208544  0.6912044525184190
  0.2344673978612425  0.0740143131076682  0.8877788092557827
  0.9103689025772450  0.4120369063494215  0.4074724081665262