B  Cr Ni
 1.0000000000000000
    38.8178767765091450    0.0000000000000000    0.0000000000000000
     0.0000000000000000   38.8178767765091450    0.0000000000000000
     0.0000000000000000    0.0000000000000000   38.8178767765091450
 B   Cr  Ni 
 106 1596 3725
Direct
  0.6239309294604964  0.7624740394960041  0.4764643575886414
  0.1794615784178346  0.8225271175392393  0.5445487618731947
  0.7504917781479887  0.6230101189073682  0.0162519173346114
  0.0477462554570237  0.0551119655323775  0.9469466074050530
  0.6815746809079107  0.3244280851957157  0.4730956356723235
  0.6546456367397627  0.2163589803358196  0.6170264372638702
  0.7590132928292340  0.4231504179690425  0.4594248883357332
  0.1556020639914307  0.9555302420840409  0.6943774751388568
 -0.0017504574556457  0.6744688607216123  0.9755142621697359
 -0.0788876491106706  0.9957734499093167  0.9331960067581826
  0.9394697861472591  0.6187514370735631  0.4639166414493557
  0.7182704688423674  0.1764138274979074  0.5378551893060812
  0.8909503559282663  0.5756859878419258  0.7988464272247928
  0.4050802699931983  0.7950146607324788  0.5091327675398680
  0.2190619685055208  0.9580693875533847  0.6427474426647376
  0.3546813051245205  0.7082617317569425  0.5201813013592252
  0.2459180147428252  0.0880023421355977  0.3403681050076475
  0.6576575317880020  0.4659200152072772  0.4645065241877154
  0.3156495718678207  0.2055044647502879  0.5143117031737587
  0.3600026957662265  0.4248433735298205  0.4974290633586847
  0.8222951184138642  0.3534150871602698  0.9653288239222553
  0.8250024493723136  0.0737194529009460  0.5150145106045171
  1.0338061958593623  0.0311066367173356  0.0684990369496678
  0.6847818496913572  0.0178789023676469  0.4850525976539885
  1.0050068578954998  1.0391646111348245  0.9583925666574203
  0.5918023566421837  1.0215590785546260  0.4463656478515855
  1.0434278833498187  0.2082681874471844  0.5319458663601893
  0.7181681354378008  0.6515062805680378  0.4819518838339120
  0.0115145876282570  0.9688081177169137  0.5247255161660871
  0.2695631896994574  0.9913710865074455  0.5483048725575774
  0.8739277935354843  0.6566459168170391  0.4271506973214382
  0.3771195434026678  0.5974462010663588  0.8980885187256739
  0.0731351716831088  0.3469089235864627  0.4204516440890427
  0.1824324893055581  0.6210941470671186  0.0557221954028263
  0.4204518649301854  0.1799020241991188  0.4344288467066685
  0.4528088751529373  0.4792542302015283 -0.0051613820504267
  0.2468136558401824  0.9092455125235066  0.5785563225690746
  0.2511544279979919  0.0704322205944212  0.4248446190349662
  0.3288459338627014  0.0349536374618497  0.5859193893319553
  0.5897679234535396  0.4289198319567588  0.4571141952710989
  0.7707741240572619  0.8024757146081647  0.4549387839534722
  0.5710534249921172  0.0490097682281593 -0.0368215331448585
  0.1099956836715532  0.3428719723501526  0.0579882207094176
  1.0147504915756302  0.5970624791057817  0.9314353754784048
  0.2962661574004766  0.7934894668014346  0.0523238154761098
  0.1434172567173950  1.0203719403245113  0.5628720186458394
  0.2128108663233501  0.9424257464787079  0.2787336496395074
  0.2192832119125022  0.9188900912318139  0.6138134627971168
  0.9814600840135391  0.7302984853101276  0.8228009937137905
  0.8530963989126147  0.5958614477880683  0.8199921669318591
  0.9570952983005561  0.7088571058372845  0.6090499550838185
  1.0145566555313881  0.8644682807358869  0.5208453037753920
  0.5996775713603484  0.9423409491195610  0.0572129382127030
  0.7636599317642560  0.7979867493589253  0.5333220564864228
  0.6021980967068212  0.0165412792018469  0.5941780972457283
  1.0620685511777217  0.7662773687824996  0.4536732758516753
  0.1038116602443405  0.0695092433125499  0.8893564569985595
  0.0122754035948669  0.6835739467988396  0.8922409070812167
  0.3168439976834767  0.1212226854001297  0.3507724111503937
  0.2749065113370007  0.9984684601603172  0.4638561507766285
  0.3004911951656564  0.0702312393152475  0.4251630859170988
  0.7474095884659008  0.6225159346010679  0.9333866607365527
  0.1829033719364519  0.4416662471239708  0.4829748287167129
  0.0649648377078037  0.2828034751161095  0.9448333685016210
  0.1200411054887391  0.9577734241805297  0.4761598097415102
  0.8876557819235287  0.1305818976200514  0.4326891881299037
  0.8468271932751423  0.6518416187192867  0.0151237321582406
  0.9357090864893565  0.9468177843859968  0.7283946829774541
  0.5746843307785318  0.4722450041150489  0.6563232359498602
  0.2226933744648946  0.1075905649824905  0.4380947664839797
  0.8146595832987026  0.8593430885131220  0.5351098766697593
  0.2829316303026279  0.4003407050469078  0.4743848006869994
  0.8729822334449597  0.0503611261038448  1.0078546795268457
  0.7017857409313166  0.3321699376662521  0.9816886045501898
  0.4573800559243173  0.7277586414766209  0.5090560678174632
  0.4817334929780303  1.0241116463709825  0.5474461604537594
  0.0133036977719737  0.9669237768996246  0.9024884650632111
  0.1048411999948991  0.9888738055740385  0.9487844105106222
  0.9394122014086125  0.7532039929906981  0.4207816870894391
  0.3754181723833426  0.0101933957924048  0.9392282890944939
  0.9837710261736259  0.3418770988359525  0.9750652459272086
  0.2145067360782073  0.1938488002982245  0.5293512301504485
  0.4059159955984548  0.0024419757140717 -0.0268614943555493
  0.8222282256298143  0.6928709619707698  1.0256184191163440
  0.8995988084820408  0.7070906785259489  0.5408694633787307
  0.7289267113294997  0.0471850602271269  0.6698063191596596
  0.2597681628401462  0.4236306623472493  0.5086084328960608
  0.6120766330230539  0.6343015741301598  0.5037595936834551
  1.0228241025543212  0.4192944606033488  0.5537660197670331
  0.7520550739237802  0.6636761855669783  0.5090103012983168
  0.8285728142600362  0.7619010517315614  0.5079697223057695
  0.8769028960190688  0.6007672902714356  0.9453875049674916
  0.5704807676290965  0.1329509214798031  0.5597438275189575
  0.6951157741387316  0.0567486679770671  0.9281331641621184
  0.9834175276497122  0.6908744662086217  0.1275033712405582
  0.2598652756036280  0.5984672494402609  0.0333876650704992
  0.6741493007962982  0.4301537205599030  0.4857510177885210
  0.2068181093953047  0.0149560652121195  0.6922308720595899
  0.9468890428494702  0.0862836007611427  0.0281024928493416
  0.7581353205743938  0.0172687823891623  0.5294226396903442
  0.3660463818104313  0.3664122340527632  0.9810274879569898
  0.2377108432696819  0.9507579853425711  0.3141138144636753
  0.3119863450274258  0.3679193927262875  0.4903489444521282
  0.9702880962335354  0.9600672243809266  0.5410714050879589
  0.6957055716366989  0.1206199101717544  0.5877396780384107
  0.9048429202744716  0.6187132799324090  0.4968111991862260
  0.5117575500922656  0.0728987002444889  0.1568161080319733
  0.3139327799263479  0.8273041621331662  0.3700694914401770
  0.1054680436605756  0.8599539116482932  0.4051705709222703
  0.0351794686824222  0.6433070404579220  0.4411634823682858
  0.5141770588560337  0.7265949799571163  0.5156987679966017
  0.5182836052579062  0.1386734382793614  0.3716965228560494
  0.3886528878110413  0.0084599292900167  0.4509325599914172
  0.6378830074455255  0.3337422717346661  0.8093940699570414
  0.4648568930464506  0.1561322487514593  0.4084347432009827
  0.0844680614603341  0.5797281178661592  0.1338400296584113
  0.1199584306100148  0.3821668941931023  0.3806510349701896
  0.1317640495798160  0.5019381472723060  0.1155049504654426
  0.4114734862867818  0.1183944090417421  0.1646981673491335
  0.2795034954328299  0.5813654424263902 -0.0155529490222076
  0.9165040613118290  0.4564006295985831  0.9957272988625102
  0.3766205210158647  0.9034946795104744  0.4241260504282355
  0.9145587251763424  0.7739815932024090  0.9157639832051273
  0.5229881698319916  0.7777504913245710  0.3964176933538683
  0.4583037220943390  0.0582448857437822  0.0843697848862793
  0.7576445235542528  0.7407488431605856  0.8656824494061151
  0.1992995410472118  0.7181778569852102  0.0750127576525824
  0.0769299333662314  0.4739072499390455  0.3329594178153827
  0.6431049022901093  0.7224100545445532  0.7216813597711611
  0.2468629212357784  0.5368823914214266  0.0316949838296187
  0.7587559049740109  0.5856181476348966  0.8424866171677040
  0.5992525269596033  0.2538204287906957  0.6976227262525481
  0.6421680993958844  0.5905710647213436  0.6014769310566807
  0.6720359825745570  0.2329780854969445  0.7791870123652013
  0.5651352031660573  0.6112245891966194  0.5195503230184479
  0.2454928353591286  0.5315243639935514  0.9761317156668858
  0.5747937021588492  0.2215814235976065  0.8613746841504042
  0.6969181417699005  0.3616042054200794  0.9358772909672476
  0.7600247483234041  0.7705792103192469  0.9687754050810989
  0.5703312951101691  0.6845864763443846  0.4341619391563480
  0.7642551248789113  0.7067812364064860  0.7649753319318799
  0.5631439536775377  0.6264142038991057  0.4538049979563772
  0.5200806150823460  0.2308913694046534  0.0013228407688651
  0.4593378370407687  0.2510704264538994 -0.0208481102125885
  0.4991708079056272  0.0748136162092760  0.5240058395807933
  0.5263574320820807  0.1420359368064602  0.5306063029635757
  0.5180465103243242  0.1132161132860938  0.5810518044125486
  0.5724238115950420  0.1568797393422398  0.6497575383562965
  0.1526327125270403  0.7940997611176270  0.0961121525512629
  0.5971915894157440  0.2217071959279569  0.5933467144912240
  0.5494375463732014  0.2475951819568145  0.7380825848164509
  0.0741214313038186  0.4603143754186017  0.3908716113391659
  0.4062044104034866  0.0731307297757306  0.1196903241226815
  0.7284377821424760  0.6764732431179369  0.9234376823926775
  0.8488229454349447  0.9859178072515911  0.6675068615479909
  0.8405718507956946  0.3140992728054121  0.4852187186222668
  0.7354001418930217  0.6445419022009218  0.8223479712835126
  0.6378785318812675  0.6011994520492481  0.8003409644884282
  0.6782163159348775  0.6204641443740463  0.6986338607703766
  0.8917167428329141  0.2449060326819437  0.4066822538029722
  0.6021060071748134  0.5703173153390649  0.7009201318833768
  0.8876341365132886  0.1865662335896059  0.4208350881092499
  0.3692654847729304  0.0719321490492601  0.5982414272845133
  0.7459071954316761  0.3652526711511770  0.8983926996754430
  0.5997721624380291  0.3171753337224651  0.9104491585277893
  0.5770754497664256  0.3426731494605621  0.7883353182939873
  0.8643038128920476  0.9539517936662417  0.5134509483829134
  0.6510590871300745  0.4422093108825732  0.3108403007603984
  0.6445512967099032  0.3813316865628157  0.3305400526207722
  0.4465178730358259  0.1176149418155767  0.8928511558569597
  0.4278500665487722  0.0125367068565203  0.9146711164665723
  0.6918492107851053  0.3190990253836786  0.2549551517773762
  0.3948259895119123  0.0803946528683056  0.8278345086381375
  0.4169204407483862  0.0232793337531099  0.8469524337220231
  0.8337615607099791  0.1655322185681952  0.3532069806268630
  0.7161293611403352  0.6705123342205278  0.7005975145601764
  0.8923813309114728  0.2904845084626277  0.4539197686125542
  0.7926681038091167  0.9473280369476531  0.6057329687973240
  0.9130096881984893  0.9709321494705904  0.6839627078146890
  0.8874793498084431  0.9617176134476159  0.7459736050403734
  0.7043475006515308  0.4416336469173521  0.4412407330966341
  0.5933064312650627  0.5549215557000545  0.5357249738641874
  0.8654210343624332  0.8912243453553196  0.5913495133501033
  0.8175882271995174  0.4373274307595379  0.4801522098638306
  0.6106470869551613  0.5241128931410324  0.6595375910726352
  0.8947358929537401  0.9406306024943709  0.5712034689519613
  0.8027230900303305  0.3990520499813147  0.4331412717939958
  0.4588499877997593  0.2921920160414576  0.5315033481280934
  0.5228697528038185  0.1843816704010003  0.7943627370739622
  0.4610115415532737  0.6584631044680249  0.2930356767243395
  0.5106533425476836  0.6271085032425636  0.3191734803199084
  0.4582987786700021  0.1593259758802960  0.6670347795308530
  0.4208440656789413  0.1106198880158114  0.6610207074809930
  0.3955504728513402  0.1427311945832597  0.5304719604961905
  0.4230000962149004  0.8895645508894138  0.5007015433831381
  0.9699048537559244  0.0258600001967891  0.4660404225211040
  0.9853500918487653  0.1433651693599194  0.4223748878638144
  0.5214104100297067  0.6053849743262920  0.5599370479854662
  0.7275266907042909  0.1150454144825182  0.5414460615565503
  0.7381095056438853  0.7480698394626009  0.5846618930498999
  0.4714674442572427  0.7328230742603665  0.4513062123053650
  0.9394953569011024  0.9486799042406019  0.7835530077585465
  0.4046784096194792  0.7502666318437564  0.0264218124517653
  0.5874837254160551  0.7022619567364232  0.5995045900440465
  0.6243633593798510  0.4503515662866028  0.5052412185927473
  0.5185844079564417  0.2847705476925561  0.5553184906454316
  0.3691833461204425  1.0025155052507313  0.6841394354402972
  0.4439552642676510  0.0537667112145585  0.6805984314323866
  0.5058441631347547  0.2926938436327519 -0.0139650037704556
  0.4689882916195275  0.3117880244011189  0.0226015762866750
  0.5548294485086819  0.0832405935564322  0.7678532096403703
  0.4383509929033126  0.3651298983085791  0.0966091997163546
  0.5055165832202193  0.0781563490100055  0.8091227978817014
  0.4910282436820637  0.3471653736331616  0.0610912392540920
  0.3928959694441434  0.3924500707251142  0.0665947454013109
  0.3918579576232276  0.4394074602559958  0.1089436459976078
  0.6556113315412492  0.1616418736587741  0.8974806189948792
  0.6766589759761198  0.1500430105189948  0.0179527392941665
  0.3967161768212168  0.5028651995678524  0.0908361012062747
  0.5256098323452135  0.0219761410284684  0.8285476961377634
  0.5844097421331851  0.0147203234730754  0.8507109971916537
  0.5385501085477833  0.0092586467876880  0.8920034017604963
  0.5658661756725791  0.1031216136072908  0.9366447012225575
  0.5173248600496483  0.0647424867940805  0.8714472614070188
  0.3473165207449173  0.5808152421955444  0.1077666153229910
  0.6570530311716648  0.6800175315670998  0.6805384066425876
  0.4507549144452766  0.5338730782644799  0.0997445145164329
  0.0083824271695035  0.9191389765355452  0.5374325684132282
  0.6449976662260261  0.4226738214788410  0.6308688247533378
 -0.0021773859609356  0.8893757911353675  0.4745170646643774
  0.1838088230059446  0.5036391733606719  0.2485164649515464
  0.3670337307625791  0.2112737800019688  0.3523029853976146
  0.4251753106099578  0.2901579404055809  0.4063066778132921
  0.3710298094322568  0.2720372340489342  0.3339236406947613
  0.3260781342093206  0.3166928245037092  0.4810359271586720
  0.3257087690379417  0.3471155694093330  0.3488894809094794
 -0.0063394478912506  0.7510280763752564  0.3367178266730921
  0.2317248041659213  0.4415887977566828  0.3988216588085892
  0.2370641312642361  0.4880932172087658  0.4365447764589159
  0.2862565365338244  0.4749934156281965  0.4039130680839596
  0.1811910338718170  0.4729875112401767  0.3699301580582155
  0.4148237885164526  0.1485092478203417  0.2727497982132880
  0.1832999907097867  0.4893272420798969  0.3091389846683438
  0.2928510042625599  0.5817311615572366  0.4331532457360758
  0.1854919921763040  0.5629689791530342  0.4551693918301045
  0.1379126620254363  0.5962181716232885  0.4311400680999607
  0.1429436095029665  0.6587235858775324  0.4163536121123754
  0.0804028443125644  0.7283595801167905  0.4892019210865953
  0.0507089201353876  0.8190013161509863  0.4532266113806522
  0.3130475796055079  0.1954730633587610  0.2811720519920183
  0.0584135638138693  0.8295530266725657  0.5162158432070800
  0.3974695759867827  0.3320213725768157  0.6175942295734294
  0.7214618262023609  0.5250052096384388  0.6423875553442282
  0.9693229805068906  0.9621471001612765  0.4857493222521724
  0.7800695465500567  0.8316362005117641  0.6890121593475292
  0.7492509626049136  0.3818942603768594  0.3679635309976410
  1.0059027465956472  0.9758954738365873  0.5821690258521915
  0.9403068203072936  0.9880840557899779  0.5769221281895102
  0.9720037661389348  0.9594424847301536  0.6905629467010530
  0.8748703709717252  0.7860584457616209  0.5009833883309274
  0.4963054725528371  0.1797561288411425  0.5665999865971695
  0.4821094985985547  0.1031272018152241  0.6819369617960646
  0.5434175339525390  0.0955335054172957  0.7046715360357515
  0.5834694744367412  0.1458354404780093  0.7082830089963985
  0.6241256546681213  0.1217391805981707  0.0068634592046343
  0.7741858743142913  0.0429859411069152  0.0219565728161423
  0.5852761089180523  0.1783002351422198  0.8149540469269394
  0.5741204285613148  0.1825767787335450  0.0848394816304308
  0.6995674673515800  0.2083882806120923  0.9041654225785387
  0.6597018947819625  0.2177515893667222  0.9401986051351758
  0.4769234518380612  0.2363999134828484  0.5511891811541072
  0.3046127358228748  0.7210649015833145  0.1104778974527702
  0.2082936894137756  0.8087707178384912  0.1647266443613537
  0.4611966270319315  0.0728396814444745  0.5690810039148467
  0.0236953745143210  0.9235288640674623  0.0421273106968279
  0.0159381973448026  0.9462394205161722  0.2194882127804533
  0.7388774656447751  0.2581942902374398  0.1783489183814823
  0.8035421977433147  0.6256254361597903  0.9070054429912913
  0.4715628491740770  0.7921925690613015  0.4332893016978460
  0.3679408394662893  0.8903887983789717  0.4820015681462436
  0.8239992640517296  0.8818325627433993  0.6925738501225496
  0.3232138644709009  0.9212986334816018  0.4631696635689039
  0.8542944545586334  0.9006988923089052  0.8134506581237143
  0.3320745512909197  0.9795302840876188  0.4455684174930600
  0.8739945777443767  0.9879508844119355  0.8995713964266112
  0.9168536444010268  0.0240123721955976  0.3309522513000134
  0.9533473261059708  1.0392692278124398  0.9411600361587319
  0.9316519785197508  0.1639392199230334  0.4554781888575541
  0.8780460237055034  0.0905258563807126  0.3359372809977925
  0.5776481479611010  0.7151837851873124  0.5400541017675344
  0.8888030373386882  0.1993116314744470  0.3598021929656480
  0.8409004051529351  0.2611182876416328  0.4397676199835095
  0.6973822105253830  0.7291245192872283  0.6826396704058750
  0.7391489453497705  0.7821522282049673  0.6873357508259665
  0.7394183689347434  0.7655629881554641  0.7446024496408812
  0.7732670011084775  0.8136009978782617  0.7469395968980292
  0.4302791572969862  0.2782913554845255  0.4686771022622864
  0.8073633415221368  0.7259625773127807  0.6644256379463414
  0.7791144103211393  0.7134031151678738  0.9890442484649363
  0.4861254284385171  0.3649804022535623  0.2246006630472543
  0.5324699318142526  0.5570383706846435  0.5162359263998179
  0.7794732460096619  0.7946792472874307  0.5861730358442909
  0.5997800714980908  0.1958140127172107  0.9328414034572517
  0.4427616039126174  0.5333023147960233  0.6568394075557907
  0.6699778829671447  0.0745231573347600  0.0958597041122372
  0.2429440454001887  0.1942800417758346  0.8098280238782691
  0.5279581443178362  0.8759969822986242  0.4826044072235781
  0.5820211900879072  0.8528635943297305  0.4512764746937363
  0.9907887699460866  0.1562607816389389  0.3557105419744767
  0.3821851062337474  0.3202440583940811  0.9459413565948532
  0.2150095966539166  0.9573263421565608  0.7000474950611570
  0.1638986296408158  0.0548098642508775  0.6926343077413719
  0.5823408456960059  0.7287167930065265  0.7028368697587943
  0.2745452010876544  0.0927213435510640  0.7839744390576471
  0.1528346413268943  0.1029809032393458  0.7381419742026619
  0.8954458030511995  0.3072116323779941  0.3899778946660172
  0.2143210234534030  0.1313319649989141  0.8681359603022349
  0.2738928133989211  0.1225759162972558  0.8919546888220483
  0.2567686365491266  0.1520893767464174  0.9331773859273952
  0.3612904824877630  0.2114032615498511  0.9590720076867065
  0.1859606200619782  0.0375728491040685  0.8253341999119429
  0.5159617277225114  0.4819785852693338  0.6345973976098553
  0.6204588431311063  0.6878865967786651  0.3383721488525269
  0.7164529847828761  0.7214401402510745  0.9657342497252597
  0.5150257091398414  0.6875336085141490  0.3039683240345124
  0.6700240960057275  0.6841860381146033  0.9030742628554040
  0.2283022442069474  0.8800577119845678  0.0825678553318901
  0.7150144608174308 -0.0014067135040509  0.0796072306938650
  0.5737483145196343  0.7644439771275310  0.3580171773810480
  0.2417735315976735  0.1606437298213083  0.7035807569651910
  0.6153764116514262  0.4234254974300904  0.9017994999309975
  0.5559727504421789  0.4304734716579728  0.8800717116121611
  0.1769595776420378  0.9436310287527624  0.1556503044218598
  0.2286295069779751  0.9258517410103531  0.1195770897910007
  0.2903958366290613  0.1372559957680216  0.5572691178102159
  0.7289720340075708  0.1183381684057605  0.0438638110034120
  0.3006026114904359  0.1217713199714077  0.6194679271691514
  0.3287432634677325  0.2172249341029516  0.6682254874543612
  0.3895080370754932  0.2102910486096249  0.6899000971880990
  0.3913756659360700  0.2431379073555729  0.7966409798792449
  0.6740438658748649  0.2782211003690836 -0.0186391913196813
  0.5014145619016991  0.2743623071049365  0.8821331222873305
  0.6012204848810802  0.4088478880434536  0.0704187122660788
  0.5292317659286913  0.3661856229421955  0.9417151586718312
  0.4999120781888453  0.4569461562148114  0.0824064465509580
  0.1275131758897613  1.0143258406382558  0.4676069363001086
  0.2864818885568374  0.0121919926458686  0.6061749421209313
  0.4186725586666731  0.3058055973823673  0.7398262648776727
  0.4082060749754753  0.3196106405328963  0.6786996359182261
  0.2554652763580376  0.7538721519314781  0.0830664904924847
 -0.0007671121605125  0.2645441459962885  0.3814586433246259
  0.5349324236029313  0.8230189936990199  0.4998586847692871
  0.5367556128240308  0.4259176328696350  0.6496739780691081
  0.3024832326836298  0.1876496865643557  0.8312853795149152
  0.5480531678738133  0.4573828246643353  0.2137598282406825
  0.3599050508533438  0.1333603943099513  0.2016122334391044
  0.6059407160218754  0.4046968865597375  0.7329594617657729
  0.6924109895258601  0.4610785630902684  0.6990030427667812
  0.3459429293344576  0.5650441870203284  0.1695428530047863
  0.6432517039741992  0.4541848977911126  0.7377562079744547
  0.4048062106864544  0.6272037388354164  0.2843453308579500
  0.7816554383142509  0.5478072093819309  0.7663499895241153
  0.7526185382398053  0.4849472281550862  0.8237030022602976
  0.3537531764440456  0.6574537766085249  0.2580754687986508
  0.7689973874206222  0.4615310458891867  0.9456837123979674
  0.0606978144750839  0.8855491365391855  0.1428586726701010
  0.8780704860113469  0.5991223246814001  1.0012701642530757
  0.7853116248273770  0.6665095657229430  0.9455362634028867
  0.8252154953293996  0.7300136743469759  0.9444459827636126
  0.1527665245361301  0.7789510677472629  0.1555322642296494
  0.2068163583862873  0.7947279994236995  0.2267801215896429
  0.8683589775670433  0.7365302430951485  0.8481456898305509
  0.1596685952721371  0.8390378714316580  0.1374394388410719
  0.8541622473844973  0.7489447965439910  0.5577030241166901
  0.7896580724997357  0.7489000802757538  0.5460226349542104
  0.1651603270731075  0.8847574049522137  0.1778577803739367
  0.5483751454071335  0.0068363401510994  0.3860329068434039
  0.4283356957598010  0.3933639609740863  0.5618454101878610
  0.4081134676641241  0.6882890726305817  0.2676583570336932
  0.8932475680084875  0.8277627792101724  0.6710411648179513
  0.7411659147411350  0.6085323205421299  0.5177788697548867
  0.6972687267531968  0.6997433247674857  0.5803306738344254
  0.6346084116590577  0.2730755269913103  0.0822039495064514
  0.4893319771141670  0.3803632275430955  0.1634774893545217
  0.9311870020107968  0.8504766927998813  0.7861930021725705
  0.8970681601745166  0.7999241056069691  0.7913265661199435
  0.4411892508382445  0.4115315605243926  0.1367714297136106
  0.0635732337254279  0.8185740999101176  0.8978887519610989
  0.9520354813712293  0.8257537979567344  0.9156546833033327
  0.9879755620063133  0.8704386691953906  0.9218521959860939
  0.6073239770791149  0.5214211264030929  0.4955474732691622
  0.4483658851454763  0.5196009531685600  0.1596889923476919
  0.6925695291691798  0.5971369821323013  0.5569543047275752
  0.3431592239304472  0.5175646825242117  0.1257546907816748
  0.3495987483048418  0.6122313763957974  0.2139017247687137
  0.8372368197123210  0.6555322002302615  0.7432341135636338
  0.3548757571455086  0.6735614738975330  0.1975946650747382
  0.2524714260549441  0.7183329382155387  0.2085906856540539
  0.7985603922570765  0.7551033153832887  0.7669274354778561
  0.8451355368228142  0.4093138452843002  0.9250722455523189
  0.8561129843643446  0.7634269703012030  0.7276698547866554
  0.1251618215200938  0.9602100498610621  0.1898249913222664
  0.4501853644104107  0.5511112375007606  0.2663731627445863
  0.5061111643756221  0.3917659907073867  0.8133833861988300
  0.6379974608899999  0.7553310175572797  0.8234377118537048
  0.1721436699099137  0.9505407546329722  0.3913237265223149
  0.2176101147302835  0.8940798853094515  0.3137130994553645
  0.5572354089332643  0.3682556819198754  0.6651772427476957
  0.5671336810128740  0.3546337743826252  0.7277450109049827
  0.2650534673083523  0.8574360171088032  0.3438093415371774
  0.4978574107917704  0.3748898798235751  0.6432182854533395
  0.5663442381490933  0.3239919375930241  0.6200135793381728
  0.3633540717833690  0.7816063825402999  0.2277813621796644
  0.3621133818157331  0.7663845086516432  0.2876144028654726
  0.5111777159730240  0.1973433006066350  0.7333319788558089
  0.3618311925954285  0.7513096095574047  0.3480486234998377
  0.8899428619290056  0.6516199924044442  0.9725404475794712
  0.5934182685122643  0.3803873422598985  0.1989253930148694
  0.5523441615923549  0.4860954764460887  0.0902218520233395
  0.8785128399396165  0.4115953840246898  0.5019446442152976
  1.0009854363122968  0.3556304073717533  0.4799695538792763
  0.8152029621673874  0.6092643393396741  0.4817002086863806
  0.6788777168245268  0.9246784004944004  0.7482258149558689
  0.6694445309501060  0.9689782350399129  0.7913815552828534
  0.7301260859114636  0.9626805007630828  0.8127745207460576
  0.5508459533219545  0.5022801524321009  0.0296232074243982
  0.2148870607561729  0.8216646214851028  0.1035646122120494
  0.5076450024342701  0.7647278863600380  0.0020780607466570
  0.7376026852936794  0.3463999685608867  0.7276478556147791
  0.7247704721549789  0.4212433066174063  0.8822577984229442
  0.4883590995793319  0.1682513398226619  0.8958684792464107
  0.4737802112884227  0.1800986389929760  0.8349378635370334
  0.5565076383987969  0.1138731794737001  0.8741273787911956
  0.4843192549294324  0.1350691733712851  0.7907629875473482
  0.4444631572370872  0.0857499186356226  0.7874758814749290
  0.4111491300083244  0.1538639045321329  0.7065900429756731
  0.8737770791153423  0.0424545930142132  0.2929705826877677
  0.2199357929145985  0.9195058460844769  0.4261017809979624
  0.2714465845997346  0.9032897125868884  0.3933253567726144
  0.6392291238818715  0.4051414574921145  0.9731634813578689
  0.9206322390800319  0.9841043744213777  0.5195681436038982
  0.8301145354109958  0.9535879637535243  0.5575961819398209
  0.4178355583677811  0.7650002563133589  0.4205520958787742
  0.6747538498136614  0.3850037128324156  0.8148145027947370
  0.6008174266817458  0.2864543265189732  0.8042613732587610
  0.6882837746501267  0.2743231222319232  0.2123269730546975
  0.4773208305690544  0.2671448573962897  0.6563705982278899
  0.4274483535256679  0.2309599829826050  0.5883460986061421
  0.7339314091050904  0.1980123698229684  0.1940435471749483
  0.4468008371231805  0.1733071172484824  0.6022462869710510
  0.3737742903102309  0.2018616955299090  0.5201653516476865
  0.8221963851371330  0.0271885001068426  0.2202557352234810
  0.4390506343442718  0.7716667891470576  0.5450876153710363
  0.5576329478528902  0.5799733037141757  0.4069897179536471
  0.5393287507241235  0.5887663848314498  0.8825472670996303
  0.5653469249092116  0.8078716188245575  0.6258001668480110
  0.8407137986093662  0.2439395378881516  0.2731205051971915
  0.8442692553087656  0.2899648350555679  0.3155547152529245
  0.2102789483332549  0.1098809778152814  0.9285258276078645
  0.2524661516369418  0.0789097710024493  0.9522506822138435
  0.8706849297388455  0.5391850515594739  0.4689203959000506
  0.6641270303945970  0.5791091928873301  0.4416818075831939
  0.5828675021532198  0.8852930637867858  0.4983081075866336
  0.6275142350481752  0.9661606837177865  0.6069868433296146
  0.6158778318759006  0.9830652839781542  0.5468401979947780
  0.6742232119615621  0.7004705217787193  0.4076598449414674
  0.7323214981068091  0.7109366525857539  0.4798569516503421
  0.4941903401950318  0.8265120044005514  0.5420218462820112
  0.5949275117576448  0.8696569729436747  0.5645044312168026
  0.5548041697872247  0.9793626851555188  0.5149561684704719
  0.4325450140551458  0.4784678803969348  0.9410437588534550
  0.1427535512998593  0.0791597398842994  0.5695350999090724
  0.1317217250974661  0.0570506331344193  0.5145804717659072
  0.1421767932960953  0.1134631024597759  0.6782713286614361
  0.5169046519670686  0.3482646302772097  0.7673380132627217
  0.2767624474322727  0.8368830550467361  0.0870321665403252
  0.5176132154634522  0.7535435734783668  0.6223646792787437
  0.4691227074641959  0.3431680770691626  0.8067144717777512
  1.0263122223762995  0.0051024433963679  0.1970709481019478
  0.4926894976961095  0.5709978449542720  0.7207450500359139
  0.1608229200418556  0.8703026019304759  0.2414520215444186
  0.3561117466640732  0.7694833991385772  0.0576762654022534
  0.5314392835370785  0.8434419862531723  0.6625294017304370
  0.7145653752791699  0.5644905970661568  0.4063967950284520
  0.2706989555486120  0.2567034142362540  0.7533178634054917
  0.2336146158889818  0.0733821651748017  0.8883772911444868
  0.8538571395706072  0.3836478442192021  0.4011978079679409