B  Cr Ni
 1.0000000000000000
    38.8178767765091450    0.0000000000000000    0.0000000000000000
     0.0000000000000000   38.8178767765091450    0.0000000000000000
     0.0000000000000000    0.0000000000000000   38.8178767765091450
 B   Cr  Ni 
 106 1596 3725
Direct
  0.6166481068990225  0.7603853388854014  0.4786387682476894
  0.7664720360689401  0.0242339485083467  0.4521944515462887
  0.2371958126654267  0.9514218109312860  0.3117142290023902
  0.5558216112579387  0.0013642349902226  0.1318689905495213
  0.5333444593239465  0.0540889664577491  0.4038017871756978
  0.6548165538988877  0.2178851272960599  0.6167300494404055
  0.7817080729950804  0.4186953470389004  0.5259504141918108
  0.9127116134650681  0.3915612514244526  0.5222569819159312
  0.0016586002501759  0.6704773496383548  0.9765988133649768
  0.7476053348129961  0.5957274035735778  0.9163588321514577
  0.9361020812076083  0.6126214302287495  0.4539777041428272
  0.7198907627006706  0.1705008541381430  0.5345702729848436
  0.9019879217067241  0.5671080075637115  0.8544280245619895
  0.4374068840003735  0.6656412779744877  0.4422024979230560
  0.2639140282564862  0.9772358122859649  0.6041701140124902
  0.3406644210633367  0.6503669006399785  0.4646796019018721
  0.2272805659855834  0.0796261266429650  0.3348398429938699
  0.7697971722538854  0.5694987584537444  0.8881546428290563
  0.3158805304363378  0.2084786802223517  0.5123863704487327
  0.5631602789890625  0.3778454051884069  0.4632520403860305
 -0.0506147061299915  0.4292118233718654  0.4617733436692100
  0.2797932597665401  0.7232725427089146  0.4957086950154024
  0.2366582217245064  0.9510901235067225  0.5221126441584238
  0.7572038954505094  0.0136831950786769  0.5370262768548347
  1.0112329385351333  1.0343670252706751  0.9564031431599586
  0.7482656700431767  0.6272194960407875  0.0168518430259764
  0.9432919804463803  0.6925766440412108  0.4345581306295947
  0.7833022811966212  0.6733388088029951  0.5070188631291613
  0.3169364564572550  1.0151135667272519  0.6765660738268225
  0.1667851033843582  0.9663769532963358  0.5544061980835373
  1.0318668965152589  0.2746463639467866  0.4248498050388583
  0.8119492917944268  0.9768680501147253  0.2464324894671139
  0.6606925399201831  0.8429317762431395  1.0242511685173499
  0.8725237762746145  0.6543534582290150  0.4218979758919911
  0.6708086303174190  0.4290687110707513  0.4854228538860700
  0.9627233131341707  0.7117298084129724  0.6158999319566931
  0.2155799888104031  0.1891475998361969  0.5271122358245303
  0.5288924520007149  0.5423781980559207  0.2674415182114203
  0.4201686980593540  0.0887223655646339  0.3382511430977197
  0.1854549437891781  0.6182084259205163  0.0573899048382812
  0.2961778424877714  0.7927014826894813  0.0530752045810769
  0.0440692035092893  0.7327618647362789  0.2976149853049902
  0.2118962178810478  0.9430070769872946  0.2757404876095793
  0.2411363666122869  0.8994901656986762  0.5795037137115032
  0.0075895263743790  0.8286102709695091  0.8751344795421487
  0.6539167582822516  0.4657470326759094  0.4654246418677551
  0.7926403508536927  0.8029701804926617  0.4619062451463941
  0.5713763364494950  1.0466615783459252  0.9596059025727921
  0.4533289363863920  0.8491996112660037  0.9611421854903331
  0.4791934221996008  0.0314514645622940  0.4722039162104603
  0.0209794444353482  0.0490222757834234  0.8617300959962044
  0.1261472573935117  0.7791898096533160  0.5272517970023666
  0.3073440331153077  0.3719973926914736  0.4909035599869882
  0.5492770934440183  0.1335324886604564  0.5579889510535770
  0.4056096353157924  1.0032538612653419  0.9754322003688647
  1.0555198819890435  0.7645036705925641  0.4575925413148276
  0.1111233157596654  0.0732811575246008  0.8870207655852607
  1.0124534674987311  0.6782086618849172  0.8965504904353780
  0.3202729611275248  0.1157527718666099  0.3527232203148580
  0.2812246538754717 -0.0046757266378270  0.4667034871311134
  0.2941006485686000  0.0550918602009973  0.3939481536100168
  0.0938028634534025  0.4446712956299925  0.5114358649186855
  0.1817963976402207  0.4404049008320482  0.4841331253735766
  0.0614091341689749  0.2832728500678123  0.9438388719924723
  0.3451597670143099  1.0478296638185889  0.4724047502754387
  0.4436434869428381  0.4818788642609624  0.9373905009512530
  0.8458442722908583  0.6476035298512582  0.0125414029409343
  0.9376687315639597  0.9457043245354325  0.7261093032763068
  0.5753771885350436  0.4724874092193998  0.6552146509432766
  0.7654952444298060  0.6329487942581972  0.4449642480409293
  0.7343104869171896  0.8408539760424123  0.5162693691684681
  0.7425292101557605  0.9421462661380341  0.2348017239302190
  0.6931937240990913  0.9777343865744803  0.4468059727137373
  0.6968543799743644  0.3310551149611283  0.9789125134285976
  0.4595881366528562  0.7266205203022652  0.5038382162975721
  0.8505466784564110  0.6256369330318676  0.9186339936004150
  0.0905208410924512  0.6267289248847621  0.9680880705439528
  0.3821456168187597  0.5988675808877912  0.9007666296337757
  0.8429979279609687  0.7287551045466788  0.4544112158010763
  0.4828916655677963  1.0222030482796021  0.5478461751542270
  1.0181157658493878 -0.0331994569516533  0.9008527779708283
  0.4818765740623230  0.6034429371830787  0.8887649785841687
  0.9835503041303677  0.3437691693299639  0.9732095198039077
  0.8217847654601032  0.6881983989973803  1.0208449352415452
  0.0253922253342053  0.7386290275199962  0.4803312886651033
  0.8764458878119588  0.6003009312077811  0.9449289962095310
  0.7827851897271751  0.8462634269251739  0.0718103320837201
  0.2234325022213428  0.1081367426979662  0.4422017804034581
  0.9389613166352355  0.6630387499009042  0.5031240310762921
  0.7234323803127085  0.0464897868598901  0.6719176949812171
  0.2765830420218629  0.4074902739433329  0.4177101255385603
  0.8610406975255329  0.6237848436033828  0.5471077509525335
  0.0141193329419071  0.4301353931424773  0.5428291678125476
  0.6613537059513509  0.6303860179993198  0.4666914405316668
  0.9099842510910898  0.6165182372052662  0.4912058921282052
  0.9532376527954918  0.7954362700433992  0.9553262462030562
  0.5397646958020792  0.5135419958625037  0.4856994093607028
  0.5948159295844260  0.1831408034300346  0.5483880389995577
  0.6932299326669730  0.1195294458711346  0.5906414943459576
  0.9807113828832149  0.9701723111609836  0.5383099033251210
  0.5303286722005432  0.0876623029468299  0.3732221743707091
  0.9140217368394373  1.0000022603540730  0.9298871750890710
  0.2104327250519747  0.9671327744511239  0.6521988501575249
  0.1765244427393436  0.7130014002477609  0.5160501914356272
  0.3768135608304567  0.0095340434947902  0.9389659978278566
  0.9343882767236684  0.6598430873436997  0.1152742310291581
  0.2793020489811648  0.1869584639795241  0.4444739236441316
  0.6869953585748950  0.3394863896518889  0.7677524978722293
  0.2485292798200266  0.6402181018973704  0.0593899903304908
  0.5334631493385302  0.4567780691603209  0.7583514390838861
  0.1997812242863867  0.7174389280387530  0.0755229601140874
  0.6813596501235335  0.5378453306106169  0.8448653276879444
  0.4103900195805649  0.6389078923487893  0.9996071972087675
  0.3139770005453746  0.8272014809435427  0.3693484253052020
  0.7105594728037965  0.5796059354749052  0.8822475911233310
  0.6924119133217790  0.5260854338471203  0.9069879533105266
  0.6902730273939720  0.8767311796135919  0.7045383176467075
  0.6327296574346080  0.5343843528434172  0.8851318007338382
  0.2052770201867246  0.7992178285889153  0.4604164018143713
  0.3524730422905667  0.6010831357674916  0.0543931328253406
  0.7072389612958614  0.4402644440578570  0.9855588913612947
  0.3528023432555911  0.6465168153361506  0.0928415142739920
  0.3635438163871764  0.2398805923390355  0.5666818325632390
  0.5906233051413882  0.7170345863653763  0.7602450977858445
  0.4125055583173104  0.7508080216267502  0.2521452088404907
  0.4073512498946189  0.6742594262913840  0.1034301060448637
  0.5153440312697124  0.7273732441743426  0.5119246089087315
  0.2044859061029247  0.9147863801906549  0.4893955294388652
  0.9350934154277948  0.4606684838170832  0.8868307244190473
  0.2464149138189831  0.5360293970091370  0.0347136265675927
  0.7607739564476480  0.5865019804571900  0.8369391138818164
  0.3746875511596199  0.1369859933197234  0.8113702482204485
  0.6591350276416449  0.8159748144170209  0.5380365401058783
  0.6979413176064366  0.3488855148030826  0.1316484251122658
  0.7161900157269032  0.8530587569494408  0.6035315662265210
  0.9584605893240475  0.1994880249925114  0.4983874047064838
  0.2309112052006936  0.7286859214074328  0.5262048746391336
  0.6500511157192299  0.5888168925711135  0.8614540694683028
  0.7875027531830395  0.9186524872825024  0.7265800629712627
  0.5519167119480130  0.4714037565275617  0.1537939525847230
  0.5697474645808865  0.0557945916594404  0.3609791644085316
  0.0335007243241271  0.4689117152818928  0.8091311781799488
  0.5192143771650951  0.2302042544001345  0.0026280098697284
  0.4566895222650780  0.2527403778352946 -0.0180476815114130
  0.5068884563035818  0.0621856326383892  0.5173492130104396
  0.5113811609456914  0.1226774412872119  0.5178905000525398
  0.5195512023393870  0.0961882047714685  0.5847348599285215
  0.5728294172224833  0.1580320135217461  0.6493028137691239
  0.1530629837618174  0.7935631249809799  0.0963922528642675
  0.5964636923224994  0.2231202967161612  0.5933271887387187
  0.5490499433418553  0.2484476850527063  0.7399115123509648
  0.9554334039828258  0.1558328985020811  0.5475630402989387
  0.1011458755163600  0.8024366989011541  0.4213740065839889
  0.7316884450736315  0.6773706892197277  0.9207543986917964
  0.4228887245082758  0.1108670872149625  0.6619921536009220
  0.8430359530343836  0.3108273988632276  0.4855231167632392
  0.7371532963638082  0.6446105760170769  0.8195254264669792
  0.6388822588629354  0.6017677080454368  0.7999209928307400
  0.6298069872423493  0.6142112929290845  0.7374894942771305
  0.8936541397362200  0.2432868920814243  0.4095825170190222
  0.6007738667587437  0.5705433323183983  0.7022025088122341
  0.8882177199320983  0.1852263692497400  0.4223834291195646
  0.3703239465382653  0.0672551230755079  0.5988816378791498
  0.7464597549926101  0.3666015143141050  0.8994969565051939
  0.5983197384536429  0.3188895930612620  0.9130261149820077
  0.5775198650837556  0.3412773440193312  0.7916381392246912
  0.8612450548106813  0.9145654028529762  0.5243959557365397
  0.6519235019126897  0.4404672110506190  0.3123750514551319
  0.6463004831470690  0.3790969175893117  0.3319342059804914
  0.4472715826688202  0.1177394814958866  0.8936305782455014
  0.4778178379270214  0.0162610514937702  0.8698287827960736
  0.6894440443713231  0.3047213456852546  0.3173683416964840
  0.3959319367656095  0.0813685789965490  0.8285454243176177
  0.4180059375639732  0.0237379880728477  0.8478911648920743
  0.8346363889395406  0.1659147475786374  0.3521528702577781
  0.9853831246615158  0.4651720846330770  0.8476863396940133
  0.8937288865429698  0.2878322061625805  0.4571144034518564
  0.7978643474348093  0.9488614827882621  0.6048981404994439
  0.4151683915494351  0.1263837651857395  0.5919827208897513
  0.5109050879841965  0.6276495388876671  0.3209193412383356
  0.4230375278243734  0.8905044914911446  0.5005805630802748
  0.9705614867564630  0.0353162189411996  0.4048386963834736
  0.9865441252757476  0.1398625877785509  0.4231769902324137
  0.5694439228695964  0.6122818695741389  0.5205474686014787
  0.7256673633666888  0.1143776281933741  0.5434431780525241
  0.7395703850045677  0.7477709709320509  0.5778115569972803
  0.4694985781393067  0.7448413005889530  0.4444916219728772
  0.8892478303249912  0.9618638345823171  0.7467699512262833
  0.9895119046039468  0.9456487142368272  0.7498613499149707
  0.8552800474133212  0.9869672519765595  0.6733377450562050
  0.9123033936213670  0.9729485701120421  0.6822065069556826
  0.7030530145804558  0.4419609084770277  0.4425287098778520
  0.5904963749571339  0.5557830605973985  0.5367187313977456
  0.8655364941967122  0.8990213228160968  0.5897014835120798
  0.8086367707204699  0.4413315310054965  0.4775651220055795
  0.6086730238219056  0.5241577790748552  0.6599272782347150
  0.8945242501537746  0.9455899483198565  0.5726669265623953
  0.7936510821679553  0.3371340984550226  0.4543494413334395
  0.4557561266600559  0.2908466999284487  0.5354797037212955
  0.5229550575911481  0.1847965774274603  0.7957418239165778
  0.4599020079104680  0.6582306256006121  0.2942858085536721
  0.4601932365430822  0.1598568498748620  0.6683093641619509
  0.1337324536714690  0.5511039531232678  0.3903690042524952
  0.7217321989383958  0.0751254257848793  0.2306440228375897
  0.6210751392903249  0.4461244922901279  0.5067036946178403
  0.5126192656665663  0.2875729752476326  0.5547722305720876
  0.4163996907167106  0.0104292560723305  0.6379825447844457
  0.4447066090079562  0.0523233629851045  0.6793747766496471
  0.4983040129840783  0.2951588731147650 -0.0040266358015572
  0.4526855720215582  0.3161938066442596  0.0349431648535191
  0.5557132885787855  0.0834819033035722  0.7687573502668988
  0.4429803731057971  0.3597948630850957  0.0866130465869104
  0.5060521160889220  0.0788334485990600  0.8097098351567857
  0.4973602037470186  0.3439798266831857  0.0494785726623037
  0.3950956381624466  0.3908032438248057  0.0592410562532725
  0.3922017927032246  0.4387454182767584  0.1056038618176951
  0.6565742602005263  0.1637953137313689  0.8976179125151496
  0.6751130961952753  0.1500799667301144  0.0180302915124574
  0.3969816862593960  0.5037752866399678  0.0893477944729099
  0.5260953735102550  0.0218234999873656  0.8288575515129037
  0.5856313634239494  0.0154487486585070  0.8515671657814436
  0.5397913551867081  0.0098374778892008  0.8925722845057872
  0.5670038626922164  0.1036207796293818  0.9346541233668348
  0.5795008939439702  0.0589462209362209  0.8971633077532101
  0.3478603166796264  0.5787714975739697  0.1107173859572174
  0.5173504761750457 -0.0680402543200697  0.5214723890535894
  0.4519416804384618  0.5333437574085504  0.1025964846323350
  0.0214192893084968  0.9337887521500857  0.5329515171303740
  0.4392822142016162  0.5337525253367145  0.6596347014538122
  0.0046282458383527  0.8896500728572101  0.4776552216914141
  0.1798550550628966  0.4424935976964078  0.2677616569030307
  0.3670356004507424  0.2094456235005476  0.3541188837446623
  0.4246939880012705  0.2889889991264298  0.4080778708993760
  0.3713968574465686  0.2705039141263388  0.3368433468880154
  0.3240580946394153  0.3188463352863942  0.4841907395897568
  0.3742969665063880  0.3161526951288777  0.3789528601371794
 -0.0050128014419736  0.7511119024524376  0.3335925000116486
  0.2323419282549252  0.4412564411446155  0.3993923751353661
  0.2363459939961540  0.4876197001241850  0.4374219828147726
  0.2865550191152726  0.4745303075022503  0.4022779828398903
  0.1308317779293898  0.5043625846224500  0.3449643573535450
  0.4130711281429541  0.1493233017430027  0.2723393635677384
  0.1829066990457866  0.4880663762413618  0.3111341031132699
  0.2388541858478004  0.5467148134297597  0.4235390753240700
  0.1819095551003681  0.5633757956004608  0.4543818190278318
  0.1367466503118888  0.5980950623098285  0.4328359909999004
  0.1428121037465153  0.6605518529933694  0.4181692393087785
  0.0805013710214647  0.7293291297911800  0.4934769393537956
  0.0473725518201453  0.8191375055019443  0.4543178188990661
  0.3122134754694814  0.1944589539727872  0.2821685109687593
  0.0524450219021916  0.8449261933044925  0.5116576740566185
  0.3955646162108108  0.3324315479120677  0.6190078469622492
  0.4889944754760310  0.5730562140815011  0.7230038794416302
  0.9676216081048147  0.9368670744131461  0.4981833354526497
  0.5794834615570531  0.7143025167202822  0.5385513570584224
  0.7505181810545339  0.3811179574726454  0.3695721384690765
  1.0075084074663572  0.9806106396207565  0.5866632086543802
  0.9452685466898206  0.9907924428170062  0.5775618038773322
  0.9587487650250699  0.9753580653165630  0.6324226953812813
  0.8840689343782213  0.8065189398741930  0.5052460311220979
  0.4949307359731384  0.1512602987747033  0.5686718933051794
  0.4832979756722332  0.1037440172578248  0.6829716292712116
  0.5450552204903070  0.0961832535990276  0.7048246604648825
  0.5837986763245241  0.1465454554125596  0.7083959494951322
  0.6210506200831658  0.1210911367673124  0.0064914419325199
  0.7726212558294624  0.0435706914604031  0.0229038520123746
  0.5853958080123194  0.1788984075567245  0.8154570010035970
  0.5743573306188329  0.2020670734575232  0.0214148415025125
  0.7028669583404239  0.2065410238409626  0.9072273814629960
  0.6600299127439001  0.2187738882527043  0.9422558705320688
  0.4724282678664515  0.2339084912183071  0.5531036476823740
  0.3054275199385721  0.7210226066699028  0.1119099615634534
  0.2076282009642448  0.8084922449861158  0.1650600448905391
  0.0835912274092834  0.5318544077538817  0.0913779664196561
  0.2458290026235317  0.0486697176566472  0.0790679942807677
  0.0228769691669217  0.3915093721848674  0.0474997439321692
  0.8211680108528175  0.3124616229840946  0.8735254100241612
  0.9245812385320991  0.3404757853409558  0.9639188676452243
  0.8792603658911994  0.0890210295604778  0.3352121342181134
  0.8894558158984830  0.1979090439472508  0.3614874674050186
  0.8420537038738863  0.2587586768973338  0.4413022600366133
  0.6994466506436549  0.7293831263510250  0.6787495275818579
  0.7396862609498324  0.7814253805882683  0.6824895425457450
  0.7397042537773870  0.7650264141210531  0.7409543989699356
  0.7752904652851628  0.8111181063518909  0.7448524715283888
  0.4352695890297522  0.2885558521830467  0.4707228564541970
  0.7907838755508347  0.7874773558813775  0.6411106661118089
  0.7803919444616603  0.7135004931443885  0.9866549584510473
  0.5427741093783772  0.3947070773493245  0.2346627147292728
  0.5266015179863652  0.5614767410881364  0.5176626501161284
  0.7813288241569513  0.7994636671608470  0.5786019026579811
  0.4717236410473286  0.7976031975885726  0.4302314875039070
  0.7739675762741433  0.8435285576041637  0.6237492064472259
  0.3697793383997184  0.8935118301230823  0.4804497244593578
  0.8271891784808296  0.8814289924152836  0.6919654691324545
  0.3240001772276428  0.9184740000752810  0.4582338015600467
  0.8572212827438932  0.9001629276071944  0.8144671590901547
  0.3307159097944646  0.9768621610045005  0.4405967534863850
  0.8705614278378626  0.9876291242539147  0.8956952308051073
  0.9153680122433087  0.0235460145115585  0.3309486869045556
  0.9629927245528935  1.0329399117815130  0.9318791469990598
  0.9287633719919369  0.1128149014775254  0.4168460874678031
  0.6061045641464240  0.1954274855706777  0.9320469204947494
  0.1716636007955404  0.9290904211546560  0.2203331732324600
  0.5229132526790005  0.2163706362930449  0.9022492405465681
  0.7140493790921010 -0.0014079302754687  0.0794482497450461
  0.5284142412366388  0.8762222854379202  0.4821587143132728
  0.5830072101973920  0.8539351907499005  0.4517960129558532
  0.9913664694854974  0.1529805195847803  0.3575950124643902
  0.3815320835166578  0.3198503016947358  0.9507988233080148
  0.1648923755959714  0.9639313150506388  0.6856491520995484
  0.1622059315593048  0.0567100384454537  0.6934125968536989
  0.5814334153842352  0.7294261644803330  0.7009166955855967
  0.2751901205065107  0.0936943846749022  0.7860374575357908
  0.1525772665279041  0.1029272085160984  0.7386957990821005
  0.8988152240301321  0.3049416400804551  0.3919267923356577
  0.2134106072816149  0.1321082362500985  0.8686199045286669
  0.2736724569768874  0.1233775047086663  0.8931662923417513
  0.2556552907868844  0.1550084185092778  0.9321201459724128
  0.4120019090151108  0.1788392924183863  0.9717079842627350
  0.1882366220467019  0.0377791316291024  0.8255168306537786
  0.5158918484773168  0.4832085407805771  0.6369849110929748
  0.6523725653045512  0.7094671794929185  0.7796633691516723
  0.7209109803607333  0.7252745955417957  0.9614119327171429
  0.5148907212039830  0.6876762199012277  0.3040531787930826
  0.6709166828370120  0.6853080539887739  0.8985191318531142
  0.3013225049228280  0.1887097000402045  0.8325918797668661
  0.2291128091155672  0.8787316647391100  0.0825412775070799
  0.5797269325489316  0.8110188604193151  0.4033171818492724
  0.6146808962559618  0.4255831861823791  0.9032481752406419
  0.5333669133299966  0.8217005631998731  0.4994027875790434
  0.5558090027781630  0.4316489235337382  0.8815505383853367
  0.1767077373932820  0.9436368978245812  0.1554661568116402
  0.2285613072601573  0.9256649721241325  0.1183897795485572
  0.2905161999379369  0.1356342865677663  0.5578482522637405
  0.7255592479311288  0.1188941981207765  0.0438147795448988
  0.3009177143848696  0.1235673488461205  0.6229850116984915
  0.3284122723181720  0.2178674978496174  0.6708225753980571
  0.4008561918705539  0.2002898025808511  0.7533697192109275
  0.3903967055240622  0.2439050092830732  0.7980316512054459
  0.6693067906787580  0.2779089226556772 -0.0208064093736535
  0.5004587775714204  0.2742083835353444  0.8863015903148230
  0.6015665160711279  0.4069900615387945  0.0742672443986029
  0.5291873063094279  0.3682880924341012  0.9419319388715055
  0.5004730436600260  0.4554094653840636  0.0834246785592751
  0.1782193513333181 -0.0010696844137215  0.4352731692842303
  0.2626298761361039  0.0690504578913501  0.6163862601514881
  0.4177246683256452  0.3066802664690643  0.7424449299999281
  0.4066716160555942  0.3194734085495743  0.6812331748180487
  0.2563302566971292  0.7539345633469736  0.0845257072285366
 -0.0005468031744026  0.2609024041086196  0.3830829051341306
  0.2526060599704721  0.1143006963869731  0.6606501917218465
  0.2422075848544473  0.1948279751462328  0.8105851057960287
  0.5350281885989178  0.4268217912927261  0.6522315069513396
  0.6682387172951354  0.0752732700043933  0.0959498258740087
  0.5490073160544093  0.4552919133304035  0.2161058536339437
  0.6043436433090201  0.4052151734679618  0.7341559823001904
  0.6910823649690200  0.4608514760517765  0.6988581327315864
  0.3472815204058179  0.5642267710760940  0.1709563449718003
  0.6423461109863328  0.4548176660337166  0.7375134732683210
  0.4042122136348878  0.6270537973619693  0.2859899807035968
  0.7814619886869179  0.5464471671583025  0.7655761873432477
  0.7526804051995480  0.4830776329492860  0.8224699933419737
  0.3528835417860763  0.6572225093830590  0.2597159751689074
  0.7496265143600348  0.5238825059198586  0.9212840042872890
  0.0604265216081540  0.8852252013990572  0.1420672846003385
  0.8775525234618236  0.5952226083255417  1.0011444303708501
  0.7601635381740033  0.6196933716181163  0.9609825087528333
  0.8294133086988265  0.7289770990174880  0.9419200284353036
  0.1527061874461808  0.7785221447568550  0.1563551619372410
  0.2061874558265874  0.7945084089471628  0.2281655551383192
  0.8854536879523527  0.6909304889549523  0.8014704948606910
  0.1598611562815567  0.8380989287618603  0.1381842585498709
  0.8523689151725550  0.7492149434276132  0.5518100877521888
  0.7869617368549071  0.7572896222749219  0.5378515147042401
  0.1645380116374197  0.8856433203965547  0.1792974996573988
  0.4257438567162297  0.3932077194792623  0.5634692078943224
  0.4494775419895771  0.5497020554442482  0.2684205105017828
  0.4073666252304404  0.6880530276032754  0.2688220193292686
  0.7425236125293456  0.5953759744380821  0.5232660349126211
  0.1259534962339446  0.9581378207346770  0.1904069230535530
  0.6998688718820562  0.6977303539789365  0.5767881154433796
  0.6340780800531886  0.2723418530678307  0.0826420061625669
  0.4903609874418958  0.3797266455103778  0.1642270631830429
  0.9579671258509798  0.7936279251456722  0.8082092135971093
  0.8998899432949505  0.7997934223783675  0.7901322051659444
  0.4418902682018499  0.4067273563355648  0.1349350485896338
  0.0656150204776048  0.8196892667550518  0.8972117659645682
  0.9579472167582468  0.8276454681931652  0.9087187315581069
  0.9919186296633644  0.8709343452609576  0.9189924099050579
  0.5958222256368362  0.5191265079129324  0.4948220165019690
  0.4494125543711385  0.5176141177044868  0.1622398452785785
  0.6919388712819347  0.5938054497107683  0.5630484356791935
  0.3443486680077061  0.5181754468815843  0.1248350833592638
  0.3493980754939070  0.6107327448608229  0.2154665371811190
  0.8377940570699268  0.6553333931992784  0.7384638674140804
  0.3540728731932261  0.6727407435743618  0.1996166296518984
  0.2521861913240750  0.7186645366982954  0.2098882948073549
  0.8017937590811873  0.7551170646556036  0.7633923463117794
  0.8451918005304989  0.4072302488961403  0.9245486680851429
  0.8567845494842896  0.7635277718422914  0.7239123813614934
  0.8941491556220834  0.8288304356654490  0.6699467597576836
  0.9824732448736500  0.8851672625353322  0.8593203163598059
  0.5041995682825142  0.3926294326852199  0.8158545250913022
  0.5198973769737512  0.7556725894903823  0.6203713731270263
  0.5096973588360239  0.7612524995928861  0.0011761785887904
  0.2170688339569454  0.8959689878754986  0.3143642345215252
  0.5548612065608821  0.3679866893101684  0.6682720265932771
  0.6144209093508263  0.3600399956599342  0.6879079157211582
  0.2638818694820259  0.8585106336609206  0.3435742910478704
  0.4955310484825069  0.3753685755845020  0.6471477977929582
  0.5649322700458776  0.3243880135531476  0.6207054056834088
  0.3633568079431029  0.7821007761759472  0.2278740269511927
  0.3616647246418048  0.7660599786305183  0.2875481785160692
  0.5109885497530426  0.1982024679235040  0.7345616572251698
  0.3609086583320901  0.7516674381878963  0.3492321796658144
  0.8906881688909070  0.6480129996039240  0.9743003154121604
  0.5937619410760955  0.3792720212276153  0.2013843806297370
  0.5535716118695392  0.4851668719021466  0.0927961230563460
  0.8680080544316321  0.4210311069696517  0.5086895962920535
  1.0068804959042268  0.3523341898263509  0.4824256774754597
  0.8023090919333329  0.6235679539520683  0.4852340800883670
  0.6795792395624822  0.9241832592234951  0.7478118568692897
  0.6699943865754536  0.9683790964002120  0.7908792004870634
  0.7304692554890408  0.9611856777192882  0.8118186111788017
  0.5545567165069190  0.5002409481613737  0.0317784521037733
  0.5570924914975591  0.5801255453153947  0.4100421345034886
  0.2148430155085767  0.8201406614273141  0.1029817417048195
  0.7141170654487138  0.4340023871163289  0.8207377797883676
  0.4896277751573327  0.1685219083924248  0.8974924208422860
  0.8230469476876836  0.0431746651395649  0.1582569437647339
  0.4742282230761458  0.1810768196907077  0.8368924225189579
  0.5575953408286433  0.1159140259465835  0.8749930580555630
  0.4847975801860900  0.1352903400641261  0.7910321831714846
  0.4455800181486326  0.0866675617845262  0.7881836226826311
  0.4339011436785356  0.0985253690984439  0.7242081931145197
  0.8746105039589871  0.0427618650109287  0.2914716873536666
  0.2252563342704090  0.9839261495644441  0.4034966200836401
  0.2701678128228065  0.9026479127086657  0.3910593046940405
  0.6465973090697320  0.4047308131922516  0.9742710302031062
  0.9245293262275494  0.9724344489521606  0.5205089129753890
  0.8421192172308600  0.9636177439917238  0.5355211389876570
  0.3645998104719551  0.7974253805623294  0.3934874778913867
  0.6754883397490729  0.3859793458795300  0.8167960818861004
  0.5999965741504978  0.2859263517138542  0.8068124922378341
  0.6879825698533021  0.2727129893451542  0.2124803401570362
  0.4760179263777198  0.2671555991269282  0.6579848471982315
  0.4244921683757565  0.2321501309907466  0.5896014564737986
  0.7325390018433139  0.1975965320631531  0.1946014166983692
  0.4474004648293862  0.1741717798138683  0.6077587775528925
  0.3712516423445948  0.2011395391339134  0.5217944543399162
  0.7258072173755328  0.4216071440513331  0.8820183658744111
  0.2229051801314020  0.9334717520964100  0.3630651881590003
  0.4378115906617139  0.7716998491879948  0.5418535470042788
  0.6873880362793970  0.7598766398593888  0.7809971769588514
  0.4675678285434213  0.3443011393892893  0.8102869612848139
  0.8972120091440721  0.2735463958203344  0.2832527700788869
  0.8464364171487821  0.2893877783046395  0.3178227640944511
  0.2108417107164166  0.1111138675160313  0.9295645045752177
  0.2529904129748937  0.0778319843776201  0.9529041348778835
  0.8645381683158805  0.5397611403844800  0.4674962532509992
  0.7134722633495000  0.6120270213196950  0.4464949131254938
  0.5849130974769504  0.8889693401956561  0.4967193366449666
  0.6283955023096662  0.9630280273750962  0.6098544404967291
  0.6175158666200909  0.9764706356858232  0.5397305034829791
  0.6760073760495180  0.7033325477796466  0.4066273598335439
  0.7426524863949077  0.7147421876289279  0.4743131716355452
  0.4932346959060406  0.8278086001256237  0.5410199538657929
  0.5955310502526114  0.8692530459870491  0.5631731089120210
  0.5337646952600714  0.9348138807699206  0.4697480289115313
  0.4461292072390785  0.4274859670959793  0.9562382795692231
  0.1628805807559584  0.0246080686731501  0.5775921739401080
  0.1863262554985344  0.0905057524563402  0.5299742675042425
  0.1431064967956392  0.1139582155461417  0.6776808542379523
  0.5275811060635214  0.3039552371310486  0.7242848610188267
  0.2766410829583160  0.8365010033921980  0.0872695618136634
  0.5656818792046397  0.8088985535057330  0.6245165102586931
  0.5356583316823673  0.5901529307514470  0.8810612565128321
  1.0259997013283011  0.0033786148131442  0.1963178682902588
  0.6417384123661042  0.4215480249926065  0.6307377657923469
  0.4062340872966032  0.7494135658996043  0.0259684344936564
  0.3567959756552025  0.7695573414403390  0.0582933044464938
  0.5308389888813384  0.8433240868783810  0.6603152985069970
  0.7620065899604780  0.5344307044726992  0.4293599683934253
  0.2584562179356021  0.2687819897335913  0.6924483144860749
  0.2329087067389583  0.0744786454411468  0.8894754371865781
  0.9116763075465244  0.4128557737555011  0.4103116800758928