B  Cr Ni
 1.0000000000000000
    38.8178767765091450    0.0000000000000000    0.0000000000000000
     0.0000000000000000   38.8178767765091450    0.0000000000000000
     0.0000000000000000    0.0000000000000000   38.8178767765091450
 B   Cr  Ni 
 106 1596 3725
Direct
  0.6226982107277944  0.7625137193594420  0.4769612216446686
  0.7631436156884651  0.7998470470641397  0.5295817220355314
  0.1041088029056818  0.9867705374800981  0.9463744255794022
  0.0143047461840807  0.9683789269714632  0.9013191391714451
  0.4584313397164044  0.7280317263156515  0.5084325814488005
  0.7023217532662325  0.3324737523603647  0.9814705403915434
  0.8740710079944216  0.0506326395312621  0.0071344318898985
  0.2789834359944352  0.4012543906711994  0.4734217686620748
  0.8555274765171754  0.8064987108363190  0.5624866528701798
  0.2219296192493403  0.1073730283569848  0.4382980050510911
  0.5739522368548865  0.4730161694408326  0.6560107247441100
  0.9356005389651560  0.9463668581033103  0.7295149405901720
  0.8447313917876467  0.6509976029164369  0.0156232152997918
 -0.0072420003451835  0.7238681616284531  0.8219632493529349
  0.1186620143963096  0.9562895219997547  0.4728983018878555
  0.0674904108993746  0.2781915026048596  0.9439161187524923
  0.1822123639810442  0.4454090551798214  0.4833114048654444
  0.7446546200705398  0.6250966248936084  0.9400213582925389
  0.3028281217960258  0.0651354350221953  0.4232898224757399
  0.2703698077900445  0.9979072951391618  0.4630570591495926
  0.3159672324899498  0.1212098828813967  0.3504078311833240
  0.7250153104055265  0.0620855058620821  0.6294937590700267
  0.2120006286810764  0.0061327231274798  0.9296269727298172
  0.1235393940050943  0.7762072823250371  0.5260968543858696
  0.9375970594881059  0.7512890215021519  0.4213650083655340
  0.9841573581784299  0.3414354248724116  0.9754131328991962
  0.6023469133291808  0.0161236204668332  0.5933198359264009
  0.2229847525491332  0.1833290102152267  0.5176533088957486
  0.9042300440811076  0.6193015342772606  0.4984824523058847
  0.3704971983221447  0.3707823119330454  0.9791803707043064
  0.2073665361043264  0.0144935758979686  0.6927137690244781
  0.9479561172294055  0.0856911582469389  0.0270312786573564
  0.4060816485009503  0.0026040427250385 -0.0269761633286828
  0.3639377868383593  0.9442167589209128  0.4548638258174311
  0.1593687564330937  0.9443640144001166  0.7072566473133154
  0.6954416992645660  0.1218115304937649  0.5865730629736298
  0.6733200024047359  0.4308074904966220  0.4860968709684458
  0.2601438390756013  0.5984268924650015  0.0332404329569867
  0.9835517134999797  0.6882647640189322  0.1233807842868150
  0.7304552270272409  0.0432220138572772  0.6721225570339932
  0.8976649147535072  0.7076304489655699  0.5447451447535278
  0.6954778162421923  0.0561252277883997  0.9281725141264362
  0.0553896439324453  0.8963741518347847  0.5267032232371456
  0.8760043036449000  0.5972809689114583  0.9453921361941454
  0.8307411130793158  0.7575322567357966  0.5061877045461683
  0.7601538073080638  0.6661505626034415  0.5089788238803377
  1.0193103954114100  0.4193820144341628  0.5541043427975855
  0.7046603158848793  0.5831814902181797  0.4941152201601716
  0.2590684356957411  0.4246680042578241  0.5074990005488117
  0.8207833119083618  0.6917783558496521  1.0252934070375286
  0.3755641701371967  0.0104847019074817  0.9393397676914763
  0.4827245126483405  1.0251440351988610  0.5493068133495924
  0.1828031838967026  0.6213964718286217  0.0550780393201644
  0.7567296617846130  0.0179567291797010  0.5305317847809229
  0.1166652923359225  0.1315844236484175  0.9363026555345422
  0.6860775774961168  0.0182941021526165  0.4859820378265391
  1.0319397127481258  0.0317183222648857  0.0725619623227163
  0.8241905072151905  0.0739076651142021  0.5146174624228581
  1.0480598813698554  0.6876451625173661  0.4916256641240983
  0.4725418835246429  0.4186093572637897  0.4770598935430261
  0.1966274196598499  0.2649511450975551  0.5185178898272965
  0.6557753397582967  0.4661925282470633  0.4650165996655746
  0.2458523727016841  0.0872937829411213  0.3416166952197746
  0.3545878110152501  0.7077005427515043  0.5193770846674968
  0.2212936857061802  0.9605309502744533  0.6447910514479672
  0.4071353200306804  0.7934870096953212  0.5103981180998636
  0.8907005213673415  0.5751747396572666  0.7996103338953117
  0.7184764295292517  0.1770376109955631  0.5376396425524345
  0.9342318850659803  0.6157333184328658  0.4617768696714645
 -0.0771999199353840  0.9987447597614572  0.9331016822213364
 -0.0033927343928752  0.6742408629302806  0.9743035034869114
  0.1381043182304508 -0.0333811234460538  0.6774317906187693
  0.8524114915565970  0.6135865770096032  0.9122448045039818
  0.6552801851433178  0.2170363279043256  0.6168006105002880
  0.6778610702184199  0.3260814118000502  0.4737165974380808
  0.9001708258634258  0.6821320322370658  0.9254640194001503
  0.5993739211821761  0.9423146122431559  0.0569671951518999
  0.2375120951234364  0.9510847733071507  0.3136738942221340
  1.0359988717190431 -0.0045142979380194  0.9828216048094037
  1.0157402158717546  0.8762272037353549  0.5208134651528381
  0.2144852241460920  0.5124697195250184  0.5345746163211461
  0.7236852137893781  0.6546099553538179  0.4824610365349222
  0.5895197598085977  1.0205764860085538  0.4447087656809641
  0.8524871449496244  0.5941803676645055  0.8210665547149214
  0.1400242283546659  1.0197052718493487  0.5604704747682918
  0.2964277411695991  0.7937990150772560  0.0514514894267792
  1.0161356283681204  0.5975807556054753  0.9314470078784246
  0.1103319028988850  0.3436890725710128  0.0583735329933921
  0.5712499021891126  0.0493675080862281 -0.0367440374868194
  1.0128114693845462  0.6831077162964428  0.8917589028655698
  0.9325970473626464  0.6545678788008180  0.7904485725248002
  0.9583338547354182  0.7489446432794520  0.8344949913832557
  0.2240242670235122  0.9209124902172712  0.6181094065205079
  0.2128931146571104  0.9422352374750621  0.2781303597929239
  1.0312313901792678  0.1556081258834705  0.4767656578241120
  0.9664734475519458  0.9614920386002987  0.5415920310803316
  0.3895035250885603  0.0452023571571349  0.5401020591530017
  0.0726665112235569  0.3468108504166366  0.4213648441296889
  0.4613057287860472  0.4127170318207419  0.0098936134607066
  0.4156229655830425  0.1782622610745188  0.4353708333040407
  1.0435181031137606  0.2116962302534922  0.5324763636816646
  0.3779342136872960  0.5973059240834971  0.8973302948018211
  0.8716320907434268  0.6551808685998449  0.4264293934330827
  0.2668807802073865  0.9885377360452015  0.5494463093942403
 -0.0423043130538143  0.7105723471651405  0.6081590253212382
  0.2393131987270238  0.9030454667493260  0.5791068081588190
  0.7078741095240516  0.4888729750359880  0.2582350200167936
  0.4060351585905241  1.0568682005429384  0.9534726625449437
  0.7503849815922039  0.3661568467894943  0.2013008739473225
  0.5190519943583281  0.6136046085396154  0.7573290213906537
  0.7803285692181424  0.7194374796456894  0.3822066730269969
  0.8168211763846793  0.8624403139802372  0.9787645262037588
  0.5684112483030379  0.6199801914936030  0.7164112898608322
  0.3414801119687887  0.9737476181185877  0.8508622754625270
  0.3876335532473146  0.5098094780427456  0.5359994205527283
  0.6252819528719575  0.6449393982610977  0.8421343001870459
  0.6527539888842311  0.4578224713685400  0.2502228491235158
  0.1718745913205830  0.1785670204280676  0.6171927246039084
  0.4850821066561200  0.5541550327100743  0.5572559452147740
  0.5666659332419012  0.6520438757260044  0.8205112248226282
  0.1827061708263107  0.1339241718203082  0.5760777477912420
  0.4336144615413469  0.9476678900316122  0.3700280634007035
  0.9407690654543152  0.1850781433820716  0.3279493030331567
  0.4448063629510331  0.9524733416542095  0.0563147003650334
  0.6061795885317695  0.5343898166110035  0.2665958248213774
  0.4353155054820519  0.4445034780438571  0.8357892460823796
  0.3500081073188305  0.9627529069897273  0.9113294654413885
  0.4029356030279817  0.6197423140360431  0.5154344550934219
  0.8103575964719598  0.9757090442204047  0.4875488968342346
  0.1336931487659571  0.5207541290013066  0.5082402136768751
  0.2832285978480754  0.8460256855257732  1.0254721980989341
  0.7170983807204852  0.5509431398657489  0.0144997331932077
  0.7749672090709923  0.6285366252942084  0.0685059178376629
  0.1616021739789262  0.5421980775157568  0.6711046040854862
  0.1235985159115500  0.4909475353995862  0.6652047771218502
  0.2159193946918445  0.6013901618145464  0.8978862999122496
  0.0636173969079741  0.4997892468932789  0.6474233541253080
  0.8329641507955238  0.7983758153245062  0.4600522566834513
  0.1125555384937536  0.5072100758386096  0.6028111416209607
  0.0779173296012890  0.4564709943155258  0.6010321803434423
  0.0131239019796219  0.4651551285844235  0.5891377252198919
  0.8751946433425319  0.5974938666750699  0.2253977572140106
  0.2324820323506718  0.5220846797307742  0.7521211171978164
  0.4682753492922509  0.8299013012823185  0.0784883981302922
  0.5155168572827515  0.7536044626799105  0.0591881009499279
  0.5129074392204704  0.7071160814052202  0.0146648804030543
  0.6227571789844915  0.6643714835432463  0.0071416691507181
  0.1344418093818727  0.4484640225880316  0.6191025292199100
  0.9723840075565694  0.4705499542939723  0.0704949784267809
  1.0016844978114590  0.5088809471215179  0.6294771196753759
  0.9189122266099293  0.4901001140736871  0.3305809534601365
  0.6518621133189467  0.4258606058368898  0.1462200249139381
  0.6036311709698544  0.4898431518367053  0.2234262572515005
  0.0985941372609916  0.5824976391505581  0.7514481273790314
  0.8382788541142530  0.7375411259561280  0.4554526975885417
  0.5920267586273124  0.8691017339396563  0.7885583993175892
  0.6848877977828035  0.0231701087114111  0.7679719373563312
  0.9374511422774510  0.1903445955693980  0.9787070213808003
  0.9258578684011028  0.1930750849209583  0.9215131895780638
  0.6156656381495326  0.0438383545962770  0.0846301809432960
  0.7760457893621933  0.1409597863452005  0.9395065483588062
  0.0123523566122580  0.9323149890673879  0.2836407554164808
  0.7838463682837016  0.0664424509757966  0.7902515637974086
  0.1063284686882551  0.8405826392866718  0.2326400607528588
  0.7585352899493676  0.0928663021367502  0.6638015082116546
  0.7310411730047954  0.0060548372006288  0.6293616967821153
  0.6574004173815601  0.0132599834556167  0.5998195097407016
  0.0961207355695234  0.7342265005404824  0.2060954733970788
  0.1971325142452928  0.6873141640425141  0.1980650676330794
  0.9700283935362636  0.2423416317737435  0.9243495210633950
  0.6901008207043043  0.9196689877327164  0.4690905242659363
  0.5467755861535073  0.8952220008291125  0.9352896496317037
  0.2422705654757416  0.6396517183750428  0.5166720967229457
  0.8661212059908616  0.4904158845529344  0.4257900416302914
  0.9203460439387587  0.5213495950585714  0.4373118061051481
  0.2475136479348359  0.7021469669855605  0.6511807188641278
  1.0016759050339084  0.5390427401770080  0.7323529557229621
  0.4163307299057859  0.1802387330652493  0.3781738814795060
  0.7753008965663998  0.6563067446155463  0.3986071227317108
  0.3579884918043256  0.7305706655541870  0.7405779621176997
  0.3700444690066567  0.6847063451203618  0.6944035736842272
  0.0790303834295301  0.6105628017336654  0.6337641361566283
  0.8765522622202973  0.6121197655798850  0.3898587687330374
  0.9236183762049985  0.5338501071271287  0.1483710583250417
  0.9812766639739445  0.6124220331971316  0.2024760557319517
  0.3692710597542906  0.7155478646388646  0.8007908579919846
  0.2037009536021884  0.5626852401586566  0.5747061832651744
  0.8670333439208366  0.7742093932739763  0.9540452725340787
  0.9697699070759623  0.4844695094491637  0.4687785630321093
  0.5486445603595226  0.9823129200181951  0.7492907016927063
  0.1323351630801589  0.5122872633647841  0.8315000864520526
  0.1396182986359770  0.7362551020799207  0.7709883534150435
  0.4904755119951615  0.9892174852629019  0.7278754284465178
  0.4668459407168882  0.4426859113749679  0.5700722218426939
  0.1983822594557116  0.7281697806895258  0.7945094093901762
  0.8889022196499432  0.7120183573318720  0.4245569655672980
  0.5989363808843694  0.8930489003952172  0.9616952831814043
  0.3551095298942722  0.9681124578796715  0.9686146186052628
  0.4665947679904864  0.7632413785852380  0.8255307030797097
  0.3997900120637177  0.7489158622752681  0.6392590677509483
  0.4298129034985767  0.7115522300820730  0.8220762170785006
  0.6554329131969110  0.9867649642601589  0.2430020845909076
  0.0161419617062746  0.7212123185650002  0.6179301318939083
  0.3233024199220626  0.6015665521735944  0.8830735601067961
  0.0710400437333376  0.0391427568246397  0.8460438484002415
  0.0290310486741318  0.0509405581346017  0.5383705554534083
  0.0236533316181594  0.9253705002958733  0.6040379223542163
  0.0473916279240585  0.8156626835809753  0.6688847842128923
  1.0001456159382605  0.8290611006606978  0.5560143820409386
  0.3461070364866930  0.3154520879317085  0.9832804178512321
  0.2971863581042139  0.3827625939350464  0.9107472128215301
  0.1556076115118392  0.8142533964177843  0.6553078380730843
  0.2717186002589799  0.2890333511090418  0.8578692760594477
  0.2333195766253472  0.2381862616927052  0.8529693838238818
  0.8544782914999535  0.2101296537984214  0.8390573395893905
  0.4297839719742303  0.9189302488721927  0.2634351311053338
  0.1732648576737477  0.2449195260232537  0.8308628486566805
  0.2215505585880022  0.2511680310004700  0.7923522131066023
  0.8920381898737675  0.8120381692654737  0.2838613339842333
  0.4750376862688750  0.8426295967487099  0.2454020822044566
  0.9483190645908830  0.2592646995142410  0.2478693492274303
  0.9038939328714740  0.3356667379066594  0.2627529338860123
  0.8483842409428026  0.9203744646326044  0.4082251197822548
  0.9502883124163852  0.8723842351420321  0.3979309659662142
  0.0612902303391664  0.0794315903834739  0.8881017360824400
  0.0602446826348251  0.3496592020672838  0.6121356217538251
  0.4879781708403780  0.9628428585017157  0.4451492075324636
  0.0194772653134971  0.7682924751301466  0.5745125157682451
  0.2847004010276409  0.8567451871857242  0.9718598622595980
  0.7218472258810669  0.6421937100376265  0.3286082575619516
  0.8182948916137555  0.5508591029051081  0.2774615513061562
  0.7717827817920619  0.6114331203030645  0.3562248070311829
  0.5811901132446864  0.9137128771695595  0.8302135494577015
  0.9837005886026006  0.6437026671597617  0.3081540878568460
  0.8169443105637347  0.5348763082286945  0.3378645331434209
  0.1610039137580393  0.7094836697589990  0.8955274563584995
  0.2303990407528977  0.6927401669405534  0.9790172991973558
  0.4604942490636750  0.8948444785297713  0.6834701125402795
  0.8582596762416446  0.4118299433250001  0.2775287732489093
  0.9599263450643920  0.3668192318724481  0.2724329671894802
  0.9357929694987007  0.7041044171123775  0.3869082914377638
  0.9524537765401785  0.3055972640717545  0.2919637036400343
  0.1232507581804223  0.2066786964455513  0.7643992146859698
  0.5300589720907499  0.8714990927164071  0.2542318257496146
  0.1718660272775183  0.2116208921897679  0.7247436100014558
  0.9567757008215644  0.3358571937388700  0.1665286342817236
  0.6108558468626895  0.9996401856579257  0.0404307575251198
  0.5930595466008898  0.9012951302345464  0.8954505010030994
  0.7223880393074477  0.6589207822477485  0.2690112556774460
  0.4959645509573893  0.9381440916454992  0.0211429543133643
  0.4544356577627945  0.6568513365828861  0.8375931948324996
  0.1359544727636286  0.6334020390387162  0.7542070378910242
  0.5506952711944593  0.0201486480162673  0.3198282628713917
  0.8729037644439361  0.5645790108641191  0.1225260953248201
  0.7422275633649237  0.4295850592472497  0.5595721920077911
  0.8810766938333151  0.6751942994556238  0.1493396102524957
  0.1876050946374749  0.7411826542265428  0.7340345917812460
  0.0974815281964091  0.7374791077185950  0.4351432250299502
  0.3394150033849503  0.6586940762219686  0.8574504835882810
  0.3287990359990459  0.6699909874474240  0.7953390487803719
  0.9736754433345793  0.5496391562657159  0.4464028895556610
  0.0901417485536657  0.6993298244711147  0.7059509968158847
  0.7789529895740831  0.7210997402199741  0.1568720320787031
  0.2437606555786317  0.6318170797144197  0.7356674723987943
  0.1150778840546782  0.9894954986509433  0.5163615895403405
  0.7201748907972733  0.7853361561699790  0.0045204126402159
  0.0433250664487947  0.1043862582016007  0.7552494858793257
  0.8522965630226195  0.3343057984786673  0.1298809871163455
  0.7796508521194000  0.7639229473280690  0.0308846983472658
  0.0724645749767183  0.1682476582490312  0.6988573767723734
  0.1447376381916490  0.8561029528692911  0.6982523247623191
  0.9937751363890602  0.1517101193762407  0.1290268617030433
  0.9501822011347009  0.2735612334117692  0.1865525502259399
  0.8063244179795560  0.3786467845304298  0.0377380372976200
  0.0969144641059991  0.3974834427814298  0.6160792271272235
  0.6908420465807269  0.8407195407238682  0.0797368942714328
  0.6936455550937781  0.8825695363956431  0.1194712001575142
  0.5854313909691743  0.8712716485987695  0.1532038798459940
  0.7082241644423255  0.4811095973347612  0.4823698511783012
  0.6449747758093702  0.3947040053722768  0.5184523525128563
  0.9467021858023125  0.6890849750702929  0.8318034850694168
  0.9563909585135640  0.6724138809585888  0.8923237236135670
  0.4565028577861027  0.6264717592924272  0.4149499100966349
  0.4510101088394569  0.5659240192848978  0.4328906073146887
  0.5017288971263254  0.5507329037014028  0.3960173215077545
  0.4961861784516533  0.4895630179540907  0.4111051460086902
  0.9154489650045710  0.6081150794985185  0.7077879962732435
  0.9052582615223554  0.9509636941731816  0.4137984038963582
  0.3792320277706461  0.7065022548820372  0.8610929436043520
  0.1757176385858079  0.9848800457593728  0.4949528242750288
  0.1247340787727896  0.2399765007552485  0.8687689711745193
  0.8131836025108904  0.4573168605317501  0.1893687509444253
  0.8650553295447295  0.4730305216296615  0.2597987610096142
  0.0697707290322182  0.9421906758150417  0.4996725344119450
  0.9064982272534702  0.3507324994446511  0.2013128232188152
  0.0931791405411515  0.1428678720050990  0.8217813139439898
  0.0992540248083174  0.8686875554298132  0.5794855495216208
  0.8556027658606076  0.3656418019905782  0.2358318899819393
  0.9475443379784100  0.8574431466200489  0.4570677182023230
  0.7937913517355046  0.2180909501069298  0.8188812538739649
  0.9606362995000194 -0.0110294026323952  0.8931807064118034
  0.2410076456910849  0.5648895345937879  0.1371609160820274
  0.8201416976470489  0.5659495578708095  0.6691784144553524
  0.7180058964836571  0.5978822184753145  0.2847576243718296
  0.1898277280312204  0.6390559349615217  0.9766792706007933
  0.6314997022223374  0.2591866376880376  0.3709411963194454
  0.9148404558671062  0.7231821330015901  0.6458786803669139
  0.6789316342534972  0.1815418932142897  0.3543467769650771
  0.8939601576664123  0.6328401954897388  0.5943720045505972
  0.9021887105064830  0.6182210722805166  0.6539958669511529
  0.8558838854392915 -0.0010038880404929  0.3292152859713820
  0.6931989321715021  0.4291050055509076  0.5933494185977287
  0.7791523832293847  0.1340811157449989  0.3445328586458333
  0.7549853509341156  0.4201403684763589  0.6166070841055818
  0.4801098971134666  0.3667069565538476  0.4618967857468932
  0.9471367597156611  0.3827070203016005  0.7395304358955397
  0.9691260338063170  0.3254404764798071  0.7555447632866042
  0.8743392025872573  0.4353876907499693  0.7643350864309216
  0.5983638528412989  0.9765318219080653  0.1779854740434334
  0.9187384655443588  0.2897376955049178  0.6870010477510059
  0.8898736127731354  0.1941101722998058  0.6336698227420251
  0.8480967401056564  0.3111400331545280  0.6035956085208762
  0.9408893549722295  0.7672527017278936  0.1417782492219141
  0.8149978183494812  0.2163800683118479  0.5538727794217982
  0.7484107283410106  0.2275289715888039  0.5351559146798082
  0.9864934224593469  0.4317087968585502  0.7436028091838096
  0.0408651733487872  0.7189166516241702  0.1353586648689915
  0.8976071151143470  0.3461026380819500  0.6730210482001294
  0.1428272543657269  0.6724607148648024  0.1266992731369633
  0.9376388459657063  0.3668315778854763  0.5745524769347127
  0.8437030988201039  0.3230208785302228  0.5417931645507273
  0.8493852677474217  0.2572903998257688  0.4997302759383553
  0.5771163829650205  0.2106328036745886  0.1928091587100015
  0.9355122344651257  0.4273202185345207  0.7834210291748213
  0.7931679919067149  0.4698911939484953  0.6228784123527481
  0.7679951548620014  0.0248579488051834  0.3154502561131694
  0.9625523156731587  0.7583976950619200  0.7073910553100127
  0.2610220169404173  0.8885115445029851  0.4643264520944126
  0.7872134668763031  0.2430885875109682  0.3722468321634941
  0.7851487183620051  0.2293201069870952  0.4320845772174179
  0.7758489887359699  0.3947673670800947  0.7365592484608412
  0.7412751073569287  0.1851518259493555  0.4874488589553578
  0.7265186466364766  0.3588039502491113  0.6655400470728579
  0.5858965104732351  0.4312832621998261  0.6130971992318621
  0.7175279937194793  0.3734363231248983  0.6022972987705626
  0.6094178874513344  0.3444643118169556  0.5183018527025264
  0.9862208559288888  0.6087135460510400  0.9770845573495337
  0.9122568948033964  0.0112691932413805  0.3954236588732163
  0.9538169542976134  0.5649735774293698  0.8747565610213824
  0.3175761910959147  0.8538526763064173  0.4771115093058061
  0.8617898748087124  0.4797262083669124  0.8076542746210252
  0.2620671731570867  0.8231769068007925  0.4649764039095818
  0.3571275638957125  0.6890843675919528  0.3634122643655702
  0.8254336293778927  0.4310916648825935  0.8036570688884468
  0.8187048732762251  0.9813256675553306  0.1759090300192435
  0.6333352616492719  0.2580770045709315  0.1417099237926412
  0.6326561378905601  0.1467376031978133  0.6611084847804850
  0.6819055883499749  0.2753574282182917  0.4388810702670154
  0.6386033243424153  0.3695229843849322  0.3975401268615089
  0.8623278743674138  0.5139411239900998  0.9108568271254389
  0.9208908763799655  0.5055671790167514  0.9329147112465291
 -0.0058601734900480  0.6707978088197222  0.5894043213304713
  0.2223987897076734  0.9667332165178202  0.4668574685464951
  0.2118519597631544  0.8627054108274346  0.4381208307308165
  0.7682786807196532  0.6451053994908337  0.5606023416597863
  0.8026477334444984  0.4567162249320206  0.6813106178142092
  0.8918766504404460  0.5429419304232249  0.7514995144735168
  0.9374741050947198  0.8399741759684691  0.5318964929481571
  0.8307620114444406  0.5531450132765640  0.7299310283475363
  0.8400722731331205  0.1983168752911804  0.4543954476255886
  0.0178715698040225  0.3619401712037453  0.8205637636623498
  0.7586539158687778  0.2891075610936460  0.7436329620674940
  0.6375591623999077  0.3020381496631638  0.7024288821948242
  0.8173585251688584  0.1046933416823833  0.4620315863747635
  0.5779271373494905  0.3101156278429831  0.6812647647612287
  0.8677454048754993  0.0760540466995550  0.4766469907083313
  0.6704778108975621  0.2007496695408635  0.6729758818036771
  0.5817189274885520  0.3262819177549516  0.4503656285158524
  0.5585430412246548  0.5674268646412209  0.4679385296202508
  0.9036784550995869  0.6306341188280972  0.9134147962532572
  0.7291003541391089  0.3469382223795645  0.4954088920525841
  0.6995429508897215  0.2962842966899049  0.7226429052064917
  1.0070783913449677  0.4066252895062901  0.8653206733930975
  0.7114896777708315  0.0983819703115615  0.4818711604536351
  0.4606841103757395  0.1040539828130495  0.1294220137034880
  0.9243254115087718  0.4405462347148442  0.7245514987189923
  0.1098163925698557  0.8723542561824906  0.3379896266313121
  0.8761512169197778  0.4038377696354701  0.6588246414779764
  0.7652558682010013  0.4055771118692210  0.6766874123417521
  0.9012506777126346  0.4680952905464117  0.6042504250918554
  0.7681248333307785  0.3760158202690593  0.5603120613206235
  0.2063345041632299  0.7808707040976810  0.2884702709452863
  0.1919401654716793  0.6261163002179654  0.2144796651373082
  0.9320261093763702  0.5625574083442840  0.6565995001246425
  0.2431968876713286  0.6111476756662299  0.1800514500466934
  0.8495731574389914  0.4358030229674623  0.5384100876435309
  0.9660788164452453  0.6097516631108566  0.6502474569302370
  0.9820902532077265  0.5673517356376313  0.6095494625515016
  0.3848919302457432  0.4123864204067052  0.2343454218850980
  1.0310131413793600  0.6335147050762225  0.4959211755242702
  0.4329261089478369  0.3495635494799918  0.1578325348894655
  0.9941549858551598  0.6801115596237139  0.5224423273765377
  0.5663646954332251  0.6778314423835442  0.9839764915204278
  0.8208770132915215  0.0393302509666842  0.9206174276200463
  0.9627811496685303  0.4888400960859014  0.7288462619446413
  0.0659675087449987  0.9490798768359832  0.3539429465794853
  1.0100628876214615  0.5604887214026821  0.8923941382476771
  0.7171918058962827  0.0293822090910254  0.1868668437273270
  0.8724549751079443  0.1205111813127791  0.7501141113489201
  0.1879333064297556  0.5655263394691804  0.2305200290549787
  0.8003813386140356  0.1424385972871152  0.6681622854978384
  0.3386935710731622  0.4563398962048588  0.1448654673200567
  0.7479879309324730  0.1056196073161717  0.6038319886294006
  0.2743762557843341  0.3791721749064774  0.1018548282639202
  0.6686910852654864  0.0979332664353441  0.5364191022565205
  0.3861531234427068  0.3813936992996067  0.1320343800891970
  0.5664208507295998  0.0248822919015683  0.5485149181055292
  0.7449625978819302  0.0490531709265533  0.8957151796475841
  0.9643959273149050  0.3928420719563438  0.9681832128364135
  0.9892499775543790  0.2991977482952807  0.8840704089772865
  0.7436895594562862  0.0161163244154737  0.7889889050536144
  0.7543502892205634  0.0053864250755070  0.8529298317574695
  0.4154115066215261  0.3211349036456331  0.0632409509161295
  0.8142542144805800 -0.0033120345436713  0.8750058915856479
  0.7876447046052805  0.3495551952332847  0.6885044748107984
  0.6267717741841879  0.1815451318393309  0.2203405064351245
  0.6175200571240048  0.1073683851784722  0.3034055198395834
  0.7489166559061886  0.2697533653170535  0.5774559242195078
  0.3229817947149377  0.3498123829368176  0.1273290294491430
  0.8031554555654066  0.1738816559174846  0.7760277954513329
  0.8431307705531133  0.0939942072725787  0.9162536135607856
  0.3705123291824695  0.2772911544326376  0.1042266923025985
  0.1278999862032176  0.4398256288599833  0.1317300257729831
  0.2549227340610368  0.3633566838766210  0.0106893994613049
  0.9414996528210806  0.2314190855904025  0.7020407558054645
  0.6279664395247603  0.1836355082939665  0.4516250403609899
  0.7292690896412340  0.1361069785618008  0.4420105408622805
  0.8515166410469235  0.1474233312506607  0.6261241693883252
  0.8161647957306272  0.0161540796580080  0.5324487687359403
  0.1855709921647790  0.4855148194075777  0.0783127129951841
  0.1361564363829829  0.5646214269054269  0.0989363915786033
  0.4782690912998149  0.2724231969255381  0.1421683745213761
  0.9457414248289142  0.4758418982534279  0.5648736095707657
  0.8925640083933720  0.2270791302028366  0.7390826055384219
  0.4693741294382201  0.1829079181600626  0.0530300413871597
  0.8403445969348207  0.1907158963388829  0.6747135134887983
  0.5241930710433720  1.0550880930585407  0.9330998781178615
  0.7747272827563669  0.1701748763949542  0.5420024189813865
  0.4678927425152610  0.1665175431283178  0.1139937701922909
  0.6997965269856424  0.2163600182025460  0.5791663281315024
  0.5661857152508000  0.0747019507878246  0.0591553747516225
  0.7749179066818257  0.0480558904432525  0.6257963688573367
  0.1940178205784452  0.5250030071105257  0.0163305714873676
  0.8206318298123086  0.0878574770038343  0.6852625713028518
  0.8621608017377510  0.1347006763690115  0.6891305744274567
  0.9015984255882034  0.4990078613170270  0.7089979326288623
  0.9897596982246709  0.4621540536724120  0.5307431818869199
  0.2289636418418432  0.4700671630780451  0.0418781645430981
  0.8873432567165762  0.7791461767336836  0.4097119896873187
  0.8557512057284609  0.0457172110551479  0.8754427433483573
  0.9869756182099798  0.1875727602702171  0.9434451409563829
  0.9346046029132697  0.1448029681220149  0.8775562625874586
  0.0056915779419258  0.0848548124386458  0.8587557508014273
  0.3586576592581778  0.2492963230344806  0.0008990080156748
  0.9296279453677525  0.3051384149774730  0.8614386780688579
  0.9449733301503918  0.0976532233438981  0.8333771675363072
  0.4159083510532395  0.1556465240416446  0.0386225301898300
  0.3542775191041851  0.0203618317197246 -0.0086770613624796
  0.4614287015607750  0.0749121257084079  0.0231757994597477
 -0.0037038412586559  0.8113142464364880  0.0922517177632633
  0.8404339899582416  0.0272105398879186  0.7054914987696896
  0.9864593190616552  0.7062708784068022  0.0653731919677911
  1.0041202242043048  0.2530172875042967  0.8266389942720783
  0.9536225302695522  0.2181977728217999  0.7603015353153345
  0.9219091567777470  0.1248591203792744  0.7107313892166578
  0.9100100676825649  0.0043581110044694  0.7855141983660164
  0.1013174949514335  0.1290282838679539  0.8832377977561120
  0.9196369279754640  0.4709314016281276  0.1650052753954296
  0.9432854617500079  0.8077551257540074  0.4204313598415600
  0.6029794226341501  0.4829214389701819  0.4507031665813965
  0.8690172989368984  0.9659986970064128  0.1393315328543185
  0.9963552829293753  0.1977812316358121  0.1721111678016130
  0.3745856328999317  0.5524781556292612  0.5784314083145260
  0.9375876369257728  0.7212738764592135  0.0978199838919607
  0.8899590064782810  0.1013205010692743  0.0362966565566729
  0.1969242579529216  0.9146074628099834  0.9353237043290681
  0.2914709384780496  0.5703513830192087  0.4962384410400040