Cr  H Ni 
 1.0000000000000000
    21.1200000000000010    0.0000000000000000    0.0000000000000000
     0.0000000000000000   21.1200000000000010    0.0000000000000000
     0.0000000000000000    0.0000000000000000   21.1200000000000010
 Cr  H   Ni 
 259  17 605
Direct
  0.5796506869437850  0.6664810011373266  0.4149841170325341
  0.9134715305184230  0.2512400362402394  0.3329984052524023
  0.2467269619875594  0.4160065039306777  0.9999233212670825
  0.4951497607182304  0.3354626146155316  0.4986688078491547
  0.0784669892730123  0.1672316008063804  0.4186261687799187
  0.9960489493923335  0.1645450400933216  0.8337561066877579
  0.7420034361106593  0.1633152835934150  0.9160427085910233
  0.8328435946544213  0.2509702512844911  0.7474917926318130
  0.5786972832292538  0.8322378565689397  0.2495444172782885
  0.8284176192381999  0.3389251118842751  0.8335500819278043
  0.4957236056040787  0.1652954203624105  0.8312792621674762
  0.1614200074023845  0.2503207382698708  0.7494523030245479
  0.1633746474350385  0.2512788494812281  0.9158965112689756
  0.3296581645766857  0.4165371121193224  0.2519532996147432
  0.7480742540863126  0.2524799322043908  0.3324900651749477
  0.2466286480988789  0.4157782059877819  0.4997543626409821
  0.9945444156477271  0.0844178677451715  0.2531253776855021
  0.1615980942681135  0.2509520125291275  0.5835166507307750
  0.2465754766381835  0.9158171972983873  0.6647853697625634
  0.9156843402845400  0.2511302132420485  0.0010385546313804
  0.8311406381407410  0.4164295156194947  0.7497400124137316
  0.3285903762273252  0.2492394359482973  0.4167655091660041
  0.5783387024147598  0.2499378311965299  0.0016313580817830
  0.4113681905484328  0.9996993265544732  0.9174762809032292
  0.8283056374590539  0.3346444090371519  0.6669797686510178
  0.8294245206845711  0.0848621876325084  0.4160234591227238
  0.3320491989195865  0.1657720661020599  0.6648263089562315
  0.1611738408692552  0.0810735026268467  0.5813497797133563
  0.0780562657944784  0.0002085238141767  0.4164812766608904
  0.5784377300747963  0.4170080860990548  0.1692057562640462
  0.3311829789234592  0.2491598332253827  0.5839372281051176
  0.9120908851791134  0.4162431698089246  0.3323131564127028
  0.9165239841790760  0.7477737822573201  0.9990020109074313
  0.9134775591612119  0.9186575871525288  0.8337496783172317
  0.0806543539659638  0.4990136800005258  0.0832823424397642
  0.9150133916473695  0.1674682900067884  0.5833689539600719
  0.2454336333461271  0.7493271728364664  0.0012885269192994
  0.4960613748911591  0.3326547521255554  0.3339550630795816
  0.0799240380024273  0.1666333989968999  0.0833510995975701
  0.8299096566387034  0.3351056623740885  0.3335747284272901
  0.6610917644242820  0.4991065785495731  0.9998203473050210
  0.6623592818053242  0.4180205207471522  0.4158043387540625
  0.9964910695364786  0.9167402036446214  0.0850085629647488
  0.9121612572961804  0.4165322635232361  0.5007893836108460
  0.1625589627673796  0.0812923240668699  0.7491633726492979
  0.3291952259260366  0.5837262385889367  0.9122797819867348
  0.6625105795759779  0.5814659740149163  0.4155562402168754
  0.7460592678550443  0.9988627137337657  0.0852745105989971
  0.2437179330930239  0.0830310255830719  0.1666209614739176
  0.6640694431838821  0.5827871982851686  0.7522580829644272
  0.1621279190781917  0.2493674246899442  0.0833337698632444
  0.7467149651634619  0.3328600649553994  0.2511609465704335
  0.5799512879080662  0.6660300080155760  0.5837631463923617
  0.9134044192357696  0.9983387151007505  0.5822953992350238
  0.7467896141241209  0.4159485258175367  0.8328571556363384
  0.1638770716545632  0.0001676665317869  0.4999908502768594
  0.2465710039552206  0.4156147563289531  0.1671105227622744
  0.7461949895304258  0.4159227577814292  0.6669492135401985
  0.7476993715528467  0.4992519466778565  0.2495318584780071
  0.0793679017840663  0.3341005683261307  0.4179865974824034
  0.4132327503786040  0.0840123601569649  0.3342802132193142
  0.6633190475924315  0.2497343556669547  0.5814444450150321
  0.2463121324261244  0.4200588183050443  0.8314739199558281
  0.4102323806123979  0.8330058033020433  0.2525496069896371
  0.3299090490585521  0.9157249198713178  0.5830175293689230
  0.3304829275880613  0.5828726560134883  0.0860821763654669
  0.9978251456555630  0.5006704707932479  0.6665358102001874
  0.0813844088788342  0.9171705418198927  0.3338844352601662
  0.9954761997318018  0.8321385222758858  0.4983071855474874
  0.7454778049474688  0.7484417840839707  0.4990171133229866
  0.2465736428175435  0.8331710144956882  0.4165571257655025
  0.1636928524899043  0.0024886952586771  0.1674008269163335
  0.7469713236786084  0.9172082407289951  0.3339344709269789
  0.0788955260945344  0.7489671616963278  0.9993817755572088
  0.6635413800745219  0.0825387279728857  0.7500307729144300
  0.9960893440585856  0.1666017489463801  0.6650884445050601
  0.0796594678990840  0.5830680279004666  0.5007432324317650
  0.2443721762492884  0.4997207406029183  0.5819868305482886
  0.9974100418029970  0.7491214563391515  0.9158127565491816
  0.7462997483600265  0.7485049203214208  0.3334307799004018
  0.5801083973678551  0.8326622154102152  0.7499619566424559
  0.0785290507451984  0.5861016479476636  0.3356030552109044
  0.2450385502836867  0.7487547884399504  0.8329604515018754
  0.2453534415609833  0.6659400342269781  0.5825927603882426
  0.2430906053815007  0.7492524038159425  0.6655824304978933
  0.6629420982751878  0.0008456616497499  0.1677877876216646
  0.6598207731719091  0.7502602673959869  0.0822046543268914
  0.1627302924368809  0.5814132487566801  0.9162123505551577
  0.3295218855697706  0.9158398806974121  0.0837270448749202
  0.6644226229154433  0.9169071304090637  0.2499282800948219
  0.4968776225060656  0.3361130518293483  0.8298989340827179
  0.1630024907446514  0.0000441974301493  0.9996632067447311
  0.7445891418541372  0.7490983419135425  0.8351366825952501
  0.7476165015437737  0.6670553549262455  0.4160804977017333
  0.2468967172569584  0.1669821178326779  0.4172213007864354
  0.7462152276362007  0.9166366324577101  0.6655053568096124
  0.8289462444829098  0.9160540826916190  0.4160938046226455
  0.5801516757833652  0.8311454253426550  0.5842120923328021
  0.7481047035435460  0.0844119988020311  0.3349851051851788
  0.8286996121963790  0.8313444427057630  0.6670227439959051
  0.8296360391261954  0.1676621458624735  0.1665599897708675
  0.4973962806049820  0.0820282846315289  0.4161424365857041
  0.0798533664703089  0.4980244217476553  0.2477659984349527
  0.3290607111183467  0.2491960894558943  0.2505694339601514
  0.3297846271132497  0.8374245827535544  0.6637854224018603
  0.5792246377783982  0.0825783392018881  0.1677357849783681
  0.2457487431807010  0.9179037470293070  0.8333305360432441
  0.9976381432134385  0.3343106343635340  0.6667836745916479
  0.5797101466663767  0.8327881801688086  0.9175300319741486
  0.6657230803112267  0.6671853904897282  0.1662142146598208
  0.4121096335344831  0.8316108760596822  0.9177150185313566
  0.7467114086998424  0.5009425555103416  0.5843675753034390
  0.5803644135726304  0.5002024863057017  0.5837747069631706
  0.9975246937698510  0.4999626799252163  0.3328249763101510
  0.6617485147386821  0.9990581848468157  0.0035935565694044
  0.2460356792161557  0.6656041710102355  0.4177847086401071
  0.8296257641372999  0.4993036185016734  0.3330860347927376
  0.1635367720131909  0.5002157860635187  0.1680617182154194
  0.1605177203966609  0.0003033883470394  0.3348310154634246
  0.7464344668522346  0.9177699253881791  0.8343618503293846
  0.3309325738796369  0.0825332265654813  0.5838058090502311
  0.5794226364663971  0.4171270400106913  0.6664622850421520
  0.9119911396767538  0.0810110207992463  0.8315006764337175
  0.4105816914587886  0.4991164723093741  0.2509002700464036
  0.5779247409843618  0.4163965866608902  0.8322342211924533
  0.8302668609073118  0.5841340893440619  0.7500872259503507
  0.6597258703479688  0.2473590309537201  0.7509491215346588
  0.9960588772132102  0.9166268839364464  0.9152960423229832
  0.0789567966775040  0.7490366943195029  0.3322065902587849
  0.0782580303796242  0.9179611378633483  0.1673538317548209
  0.9161747206251991  0.7473020841919504  0.3321727196545223
  0.7452121707509930  0.1686164861104656  0.5814438269104341
  0.8306405950945482  0.8314534111475096  0.1673034058976041
  0.9147864762692104  0.5006308484174412  0.7501446571236067
  0.9957774338216032  0.7489628887864377  0.2505434588379736
  0.5786931857970247  0.4181925873938399  0.0010451882915513
  0.3293756805752100  0.1658274963338200  0.8337661788620702
  0.5804120575727357  0.0002145162875367  0.7504987327712561
  0.3312710465186812  0.2498837956902683  0.9157210016080697
  0.8297477011837846  0.9987378337198151  0.8349124989982102
  0.3310684909787436  0.2491018159591209  0.0838911225393248
  0.4958951987634416  0.7516294103916404  0.7506993267513632
  0.9959352725357963  0.1676191683824533  0.4990294451194740
  0.5777653709435481  0.0839884516659765  0.3345712933362051
  0.6616824279150295  0.1650612751604319  0.8354035242224949
  0.9958997019576105  0.8313005269057117  0.6678238014374323
  0.3290713060529503  0.5834350141392651  0.2506956851121796
  0.3287359840730152  0.3331024527092641  0.6655475584570363
  0.1605549812366148  0.5825409104124967  0.2514512314635228
  0.4946304132561095  0.0005017477878951  0.9994519067230971
  0.9132834648953216  0.0851900539732326  0.3335332428665805
  0.1612299385917236  0.5006743579352851  0.3330497814628572
  0.7466012293651003  0.7500546374158633  0.1682491783977673
  0.7442393343637370  0.1635165449987734  0.7511924417969391
  0.9964351981916845  0.9164662215101862  0.2503781125074641
  0.5806960133251524  0.9988423778377867  0.5813087486860019
  0.6625210892867115  0.9169355013291267  0.0844611227042998
  0.9971778438962334  0.3327764346770305  0.0009349521249269
  0.8301802568533307  0.0829313130490089  0.7484800278994330
  0.9133748442377808  0.7503449276864694  0.6668218717338719
  0.5786264096462124  0.3334362735701978  0.5837103362979467
  0.9968783702588081  0.0853239870195126  0.0865824174398908
  0.4123451532950354  0.9996988841348208  0.7497353909621839
  0.9134490880946660  0.4183506419747219  0.1660772348192302
  0.6629964457637771  0.5007778160259997  0.8323136772260076
  0.5788432502212437  0.6674177582470245  0.2491839242058204
  0.5801775218143670  0.5000581801811033  0.4158327075162514
  0.4108200656815922  0.1679906982148977  0.0845748205271915
  0.5779112847381062  0.7492784847401802  0.3327118685959932
  0.1624359631002643  0.8337570656589708  0.0000456084278438
  0.4961419215979646  0.6663660827368665  0.1672952366704716
  0.4956387911960909  0.3338568292819927  0.1676170310660175
  0.1638513000950511  0.3326579486572237  0.9991186345696408
  0.4110501632889071  0.5002698646430214  0.0837661827852741
  0.4975841739084926  0.6662984950048535  0.6670112588552275
  0.4130253769508997  0.5001504985693346  0.9162094001167247
  0.5790424515531878  0.1681545572203686  0.5816507996538380
  0.6626488550821393  0.5845495275926728  0.5835334335191570
  0.9958780503118443  0.9986190111966148  0.6657097270541130
  0.4976255265571788  0.8322819108894446  0.6679953104644946
  0.1639616344886050  0.0814108128158289  0.9165544796904951
  0.7466196283621060  0.1701919864012821  0.4165235791690906
  0.5773934940049406  0.5844677383865444  0.0006876460932966
  0.9957443290484850  0.2513129954599495  0.0835938559976854
  0.8282161909006707  0.9975733412109153  0.6650755744013778
  0.3287778307392867  0.4164597662040989  0.4171362331968150
  0.0800058243471121  0.3333451331148345  0.2508203278369957
  0.4952258485789920  0.1651716792587557  0.3338545276175948
  0.4113767007533951  0.0009005286917250  0.2504653096430386
  0.6635471905494376  0.7494298446180211  0.5835253017700157
  0.5789278657342452  0.4994135343784736  0.2494366378703541
  0.4139542634205767  0.7500895287036708  0.4997799352463915
  0.1635549498567381  0.8322899915171776  0.4985659894780139
  0.8301083067249198  0.3358173624987691  0.5007846232227495
  0.4960029825811317  0.6674755068588019  0.8322994250433157
  0.3295514389580840  0.5861493872795541  0.5835480853221702
  0.9134064263537990  0.4175383641722028  0.9995806996733505
  0.8304355951734570  0.4174434901777354  0.9181457051976141
  0.6639938626967464  0.2506678565805074  0.4172978109449816
  0.9959457107995778  0.5827792805918219  0.4170332787023098
  0.9972082660959691  0.5822564695882724  0.2499411400642783
  0.2451553463641416  0.8339439826713796  0.2505478674963996
  0.9949900600250861  0.9994623797701868  0.4989828962802937
  0.0806347456538655  0.5002968785962765  0.9175253711603993
  0.0791684314738423  0.7487219576587961  0.8343464287556622
  0.8295342667463435  0.9995650333698183  0.9995436024747461
  0.4136286420223133  0.5837727412518071  0.4996628932889542
  0.1637942714433039  0.0843374889434636  0.0837219160722447
  0.6633023831101729  0.1658736568967351  0.5010715717558567
  0.4964400614794050  0.6652557813051891  0.9996208419926078
  0.6589983443906899  0.2497432104261237  0.9173551772563843
  0.4130805660586837  0.4156917010378796  0.4985363159053214
  0.6614248490557794  0.5824061529022105  0.0837722773798848
  0.7463668102663524  0.1663967134731340  0.0844281368029720
  0.9164197878007511  0.6662303965755983  0.0817429796368034
  0.8301374250709475  0.4987794575666331  0.9994682822356523
  0.8308795701217019  0.8343823685189792  0.9983139979547769
  0.4939751281852804  0.8335970899977179  0.1677952107747396
  0.9960050825493871  0.2515617082428471  0.2513447562536869
  0.9150114841078743  0.7492307096646972  0.8352499215986279
  0.0776208922188499  0.6676449893792429  0.5832995611281161
  0.5806264955184810  0.9997763717071705  0.2491105124897630
  0.4954743164335635  0.9166766657233387  0.4170745587612177
  0.9969591872270870  0.6655123419843546  0.3333304060662039
  0.0804352541964951  0.4142997716174361  0.5003902558096218
  0.7425768009068218  0.3335076713383749  0.0839900674507367
  0.4961416398399711  0.3346198132158030  0.0045574106940836
  0.4941424252278310  0.0776542073216651  0.9191809015215991
  0.4981650606513514  0.3354471234531894  0.6645034480409012
  0.5779122921698736  0.2500099171358339  0.1677049789791815
  0.9964973634219607  0.7487914464656413  0.0821713019674338
  0.4132175518519534  0.9160987362503781  0.5008140276553639
  0.9131523553337076  0.7512734134411553  0.5001770592135161
  0.5807216244290937  0.9989948759369369  0.4168802997697610
  0.6630759593477346  0.9997315337932610  0.4993087176528430
  0.8271755489728714  0.6670364081247058  0.1679664824481307
  0.2456021632033087  0.6664470890780343  0.0831087750954188
  0.3303531232996976  0.8329835757724228  0.3335788061993006
  0.8296170559212753  0.9166097526013012  0.9156227120054303
  0.4118469519758183  0.7502935999238332  0.3320051943486506
  0.8297981032862256  0.6677877439206821  0.6672052392286305
  0.9146015573352482  0.9174966653251183  0.1657720524912392
  0.9950383669281694  0.0848495199155956  0.9103615412635067
  0.2458010990786507  0.0838869290930597  0.3345329031372934
  0.6621868161733900  0.9160630395988556  0.4155196864236986
  0.3279350114852466  0.6663285586949445  0.8332550997199899
  0.7486814046448822  0.9973176010999837  0.5828241954230680
  0.4103482163093782  0.0006940248689753  0.0836063493809882
  0.9973101975258689  0.3330253445236394  0.8340503380830278
  0.2465554663246054  0.5832361802704326  0.5017973144467828
  0.9962024554629797  0.6668835225728090  0.6671105762389005
  0.6613816075523119  0.0843760279778120  0.9174871978728292
  0.2455814935556694  0.4987569632065499  0.7489922788722523
  0.4128513071787100  0.5005117557956055  0.7496137480122211
  0.4975975197924298  0.1646539775214983  0.6648753524344813
  0.0785023519459273  0.4995094775578659  0.7500366822310487
  0.7449467926649097  0.5825925498924189  0.8335737326162826
  0.4132538705496806  0.7497640251143187  0.0000410055570375
  0.9128739517937167  0.5823393459863199  0.5004545093339892
  0.2424183746807238  0.1654181720094026  0.6664840476597518
  0.3288085539528147  0.5832077397137755  0.9995099918680868
  0.2474962549163922  0.3296394640307889  0.8314896634460403
  0.4941587706381960  0.1675807264860849  0.9209736180845601
  0.3325551163510501  0.4977575390647211  0.5841390946037179
  0.3320558652486634  0.7477030181881986  0.6662384714735696
  0.8325558807927490  0.3337947211972514  0.0839277230642062
  0.9961624817438570  0.0840378896480632  0.9987511888986406
  0.7470564444466496  0.7511979441653143  0.0814882143976264
  0.4940343012372126  0.3336911920579030  0.9174654526857523
  0.3276188767709181  0.7501974794563269  0.1667896029024235
  0.7474938326992835  0.2525888998120089  0.9192703555270318
  0.8330601244223573  0.1671951437316403  0.9198953433555023
  0.3287120504963850  0.8335252556976519  0.7540902875011252
  0.8296994552762501  0.6647952750981445  0.0806845162262463
  0.7463959984113355  0.2507391469237351  0.7492464136280906
  0.8309471488286075  0.2490132824072469  0.8361976020681803
  0.7468414405176890  0.1675986301997127  0.2509278090989473
  0.6634720549947710  0.0845098485369495  0.2506079824356306
  0.6617911755064638  0.1664376079720423  0.0010656801843941
  0.6634404630454572  0.0006164867232528  0.3330407281800893
  0.7467840158151275  0.8317520717665130  0.4152363201555800
  0.9130006374700612  0.8329569488406036  0.2503647524224120
  0.8298850293485188  0.7498406246063182  0.5826940922466257
  0.8303930902165211  0.9161566601237208  0.0831200262301119
  0.9126323779199380  0.6664414851136238  0.4174226804998682
  0.9128391879146631  0.9166550201194489  0.3334188960422309
  0.9954667669996640  0.6667515711173593  0.4998971859279304
  0.0796158855250790  0.6675089652576205  0.4183818414121263
  0.5789737349897230  0.0826959806182205  0.0016299864089928
  0.7462273857589684  0.9165588747176177  0.9996262888516598
  0.0800029043355867  0.6662240336873075  0.2486961523194259
  0.4968346832615262  0.8338688152749310  0.8339191151487528
  0.6631223940709237  0.0826955950298307  0.5831470773299816
  0.6624190949312184  0.4176544313751511  0.5832723868675542
  0.9125458545199299  0.8325437622712066  0.7511667535340318
  0.5789366253049004  0.3337415635668983  0.0848311803457976
  0.7467668833324526  0.8352141031821146  0.0830377993299050
  0.5787254920420133  0.5003832765101053  0.9164939781148720
  0.6619182838494735  0.7500841796052762  0.9170548609952962
  0.4952320769675171  0.4163825950124694  0.2510919848796402
  0.9132975696025396  0.1675620021314712  0.2504430665726243
  0.6625536763989016  0.3341500590360713  0.4998034255404722
  0.5780265570127113  0.2491177684807793  0.8327154615295632
  0.4956469439037941  0.4178217188435960  0.5822654280335252
  0.8303442536805513  0.5839701268245348  0.5837905281139101
  0.5787528849360171  0.2511965422802249  0.4990753403530462
  0.4129129624312410  0.7497777136289137  0.8338518538786845
  0.4133241322496753  0.5837594682107367  0.6672988202171111
  0.4972863552749853  0.9162648303044625  0.7500622098522964
  0.5793691089856903  0.3333505850808586  0.7492847821946731
  0.4132250844578096  0.3327050937177151  0.7484092140096464
  0.2457332506038085  0.1662742591499693  0.2510652610482401
  0.4118399808367641  0.2502249166658491  0.1680038057323813
  0.6625598590717451  0.1668053993244009  0.1672276452384571
  0.3295361449296609  0.9990671108610011  0.6658330471594464
  0.4971182107626059  0.5836921663246298  0.4159271339949306
  0.3307176098979996  0.0828597052829724  0.7493588406094175
  0.1626701703851296  0.6665642907484415  0.0000282517196314
  0.4141070740905595  0.9170701119253617  0.6660608877152326
  0.4127973519960969  0.5834616219265657  0.8321613205283808
  0.4141792857150123  0.0825583573885078  0.6662297815301687
  0.4123984662789151  0.9161913573698153  0.0002279461485994
  0.2467167682107044  0.2475231370614411  0.8325473191756658
  0.2453339648147614  0.9165470551624330  0.3341251122838525
  0.2462981693626865  0.0830205232832530  0.8328285680783387
  0.4134982636888672  0.0834343233333154  0.5003480137024954
  0.4134458994825941  0.0826087187892684  0.8325375522915411
  0.4115634512313772  0.1665753377605352  0.9162987992879424
  0.3301167191458738  0.0003332817523641  0.4998938544286363
  0.4126086658657764  0.2500478427132420  0.0008760000168521
  0.3297643751278185  0.5004366595953263  0.8323893128634379
  0.5787068159086434  0.1658660249985098  0.9175323903261231
  0.4966486419736020  0.2507541196127834  0.5832039639147203
  0.4965325547853272  0.5006578829621603  0.6659558296131360
  0.4947784596904011  0.4996272328170266  0.1681756169126457
  0.4963531227199725  0.2500103483473607  0.4162088807261328
  0.5791879447895385  0.1652795059067614  0.7500050193240519
  0.4976216195912230  0.0822409770473444  0.5831346146561519
  0.4955315915443193  0.2501534672955946  0.0852815726867917
  0.4963823014251616  0.2497585960761091  0.7487001803996000
  0.4959759811627342  0.2499148183028960  0.2506079632470479
  0.4955460039063687  0.9988952020087168  0.8337499388248688
  0.5790554015714354  0.1663160703597126  0.2506607885283160
  0.5802995910765855  0.0825537716527746  0.6659622813135314
  0.6614436466654426  0.2500165428842753  0.0848284532090575
  0.6623228662082645  0.1661380651599894  0.6653847731581604
  0.6624525754049768  0.2496941712396631  0.2505230838875005
  0.4132123811678284  0.2491243432908166  0.8314189678386578
  0.6611187425791022  0.4171251659766499  0.9165650484332368
  0.4121783488340884  0.4170738266400998  0.0008156655225936
  0.5791039661867633  0.3342033738035113  0.4163743118887081
  0.7471467616824464  0.0002214668900394  0.2500622952809349
  0.7456776336063899  0.5834283925001157  0.4996820883284950
  0.4965440408685077  0.5838310146225338  0.7500914825715583
  0.5792052120320764  0.5000114511696074  0.7498632991484023
  0.5802791744420872  0.7491300821739076  0.4999639624479555
  0.5797654963010855  0.4172995569396680  0.4999711295633044
  0.4967780011810097  0.5834764879025136  0.5829847514311233
  0.4966694448783416  0.5005910193949287  0.4989632084297316
  0.5790775945710279  0.6666033928593116  0.0848209488179624
  0.4122964941253232  0.8327417014051920  0.4168222406488771
  0.4123513653274094  0.8329365739175699  0.0832962490979759
  0.7457743360127356  0.7508525564910566  0.9981982973196805
  0.9133183414550273  0.6658706866822094  0.9159424341824678
  0.8291507769810917  0.0833282752814138  0.0844338340170806
  0.5789478555923682  0.8332091438593037  0.4155455110857383
  0.8302955157188237  0.9998423768647086  0.1673413824379490
  0.3294331597654004  0.7494314042406481  0.4169714327778134
  0.9137477287478265  0.9168802497053339  0.9999568445557832
  0.5794301675151089  0.4173938146435753  0.3326733043804988
  0.2457613688710565  0.5826217962280430  0.1677433821876990
  0.3292080367263180  0.3328475085199070  0.1677732524561400
  0.2470748799668487  0.3326313271919832  0.4173335583246832
  0.5793809233347618  0.3341824706113419  0.9169044738298858
  0.4120210101796249  0.3324367817222707  0.4162588216685812
  0.4954964579905698  0.5829800348463745  0.9157129556531790
  0.4123897488937355  0.4160545610769235  0.3343211779721769
  0.4959738693718311  0.5002802460463720  0.0006000545232282
  0.3299016501247931  0.4146115124389366  0.5827566104984362
  0.5783263080470721  0.4998137196526387  0.0837291277111285
  0.4137387766778631  0.3329707039005871  0.5831106006102350
  0.6608592609026339  0.6662516687634727  0.9998176921466240
  0.4135511038260683  0.2498889041498925  0.5000582911058290
  0.5791286651936801  0.5831352970415294  0.1673922243298167
  0.3309338000241896  0.2488854460188071  0.7484702992200949
  0.6630147248040329  0.3340187109920003  0.3332642506741081
  0.5783597808827652  0.1668385583058564  0.0848904295766507
  0.9129265705656865  0.5828645496408000  0.1661159827288531
  0.5798715940352519  0.5832372236091196  0.4996266747912729
  0.8295068596715256  0.1638725143537277  0.8320761833318685
  0.9128227008867131  0.9983463710698974  0.7479969691664723
  0.8303432285191833  0.1686472261890155  0.3321227972316648
  0.7474426401557126  0.9152604641722250  0.1671999904856373
  0.5774704086570771  0.7494951806859175  0.9997801832179481
  0.9129279837297598  0.0005065135692356  0.2508203088916271
  0.8290194433254817  0.5820382353924255  0.9167359154784769
  0.8295828309703889  0.9992690679786227  0.4994708213035504
  0.9127086326195567  0.0834340610197829  0.5001776304169425
  0.6615470788309095  0.5826471359390422  0.9165806611921437
  0.5792812775244197  0.5833793909425979  0.8326948882888126
  0.8309048334322789  0.9138888266426199  0.5818604902316549
  0.7450740905957978  0.4993933941127468  0.9163537318008432
  0.6636671321377495  0.5009099856099645  0.6673301530914750
  0.7467083980703287  0.9995326643514874  0.7494528850399541
  0.6629673583974666  0.6665070801477648  0.8334877554399639
  0.9139107629332125  0.1666525438305718  0.7485638946209017
  0.6625389193513209  0.4172161529856150  0.7499609494584444
  0.5781242007711436  0.9166110682522826  0.1665984420075641
  0.9970150480531447  0.8327225920815643  0.9992681715703627
  0.4947353333582574  0.9999190200135332  0.1676328588918671
  0.6626474597025316  0.5004150645457327  0.5005226867980128
  0.7460479019243877  0.5825111493164504  0.3328758491761027
  0.8292704878711192  0.2494874625561994  0.0840144397229131
  0.4970225662181607  0.6665004548566675  0.4993566571334808
  0.9139137768134112  0.1669215969749263  0.0844961236281204
  0.6631235850232177  0.4998065126191137  0.3318761454880910
  0.6628939938004202  0.5832840576727000  0.2495322568886812
  0.7465979120381676  0.4171841591403238  0.3328326291631405
  0.8292183010938942  0.5813456292387116  0.0825994906626535
  0.9957655325593111  0.9155406184584972  0.7489027872146307
  0.7429270521367867  0.6643425430849870  0.0813387388570062
  0.9962584414736677  0.1683302477185099  0.3347073221309377
  0.7469044606892865  0.6672159661601109  0.7509393954773730
  0.5796861170062308  0.5831803555504408  0.3323876973084642
  0.5785882291340781  0.3327104674805894  0.2506805512787922
  0.5795258122340077  0.6673841241292845  0.7504573856491568
  0.4124827626214612  0.4996287368411674  0.4168572451706750
  0.1622629927609304  0.3331493777815883  0.8329493565656337
  0.3296212445952066  0.3326847517922984  0.5001550497198098
  0.1623486032272233  0.5832552101077790  0.5835689410081066
  0.9962560441242969  0.3344940415518710  0.5001265724752568
  0.0787016473741461  0.8332075115438347  0.5828231666845188
  0.7450210220077437  0.0007799779149002  0.9189687446583952
  0.7464624502170643  0.0840025836872201  0.1667041469907488
  0.9143165022972818  0.0000215564363530  0.9176754378609643
  0.8301515104463840  0.0004688061666410  0.3333807605946942
  0.9124582233153502  0.0837279228501942  0.0006248087350111
  0.8303045424774183  0.7490718074637214  0.2507904632833852
  0.7467127265004215  0.6665362402579570  0.2504792381568702
  0.6628017695617876  0.7499092752015393  0.2503939167172976
  0.0797841251181663  0.0841961277414876  0.1675872233000565
  0.2459967399846060  0.0817448972440665  0.6653771357476376
  0.1624253215803587  0.0835703501057464  0.2519272223101880
  0.3292206038592391  0.0836098644856491  0.4163881423771765
  0.2460087834086299  0.2494262212568030  0.3342993190669498
  0.2464341405467090  0.3323611753314636  0.5833087077149188
  0.2459638553848333  0.1661879161858044  0.5823606583658834
  0.1630987458256400  0.1658347819663434  0.8323744602819493
  0.2462770601558528  0.3321318338496853  0.7480113289786131
  0.2462431301505527  0.2497739489706015  0.6660484531965812
  0.2462797089930322  0.2495744064663865  0.9993703309554697
  0.0789621304702696  0.2507008178500704  0.3342753004782580
  0.1625004821587577  0.9999117115592899  0.6656706629547948
  0.2459574489353587  0.0839800970863906  0.5006955384159392
  0.1622832648365837  0.1668822836790693  0.5006450365627596
  0.9966189300230316  0.8321900670203021  0.3328996449717955
  0.6618154792421326  0.8338495617390017  0.0000072760631199
  0.5789794034589146  0.9154403658531646  0.5003040649211288
  0.6628971091599714  0.8324046161669796  0.3335719339750892
  0.6629326996893086  0.8322507480651178  0.4983985239781996
  0.6626346730363145  0.9151801180428197  0.5824542081573165
  0.7465704003650603  0.8323351059794188  0.5822943855193444
  0.7460819760861243  0.9155144190070640  0.4987991928081137
  0.4145728403017618  0.5006392318796586  0.5820283478505333
  0.3300517461704505  0.4175648364234250  0.9157248626191472
  0.3291303994728739  0.4166941625665894  0.0838509063662924
  0.1627435216337457  0.4164850865209921  0.4175723642273044
  0.4121149143823648  0.3325747382366700  0.2515298561952915
  0.5809266269754593  0.7487467686742593  0.6673709470764659
  0.8303312882427805  0.7493714546913952  0.4158818413322715
  0.7473260777628798  0.8328599512501945  0.7515980377075253
  0.5805552474929370  0.9162949191439954  0.6665101469038719
  0.6625225594134825  0.9167648592293298  0.9176093626618881
  0.4957421590889982  0.4172827090662489  0.7486038337976191
  0.4963439472443621  0.0818809052395666  0.7495307615502473
  0.4141576340082810  0.1663369912478108  0.5829254508601176
  0.2462313198443912  0.4161932981297242  0.3336380333779120
  0.2464939017049113  0.3327380692293413  0.2504679781557924
  0.7462211466698589  0.4997112125028920  0.4166866385708811
  0.3285889894960045  0.3324388543238880  0.3337817958712841
  0.4128815773600267  0.6669933643985074  0.4171716189762280
  0.3286490327717230  0.6651518034522864  0.6666539966697528
  0.3296529518238135  0.9165578629472573  0.4170774490417146
  0.4101952911439837  0.0835382938294884  0.0012047113975393
  0.4121434075206397  0.2497454407144705  0.3338692574086753
  0.3294657132328799  0.0003623936581688  0.3341916771258780
  0.3301422832078576  0.0830183758054862  0.9154509028312153