Cr  H Ni 
 1.0000000000000000
    21.1200000000000010    0.0000000000000000    0.0000000000000000
     0.0000000000000000   21.1200000000000010    0.0000000000000000
     0.0000000000000000    0.0000000000000000   21.1200000000000010
 Cr  H   Ni 
 259  17 605
Direct
  0.5813491873753710  0.4990967233811723  0.4174146568046897
  0.4989427055594505  0.2503497854780177  0.5836452558124318
  0.5798217828356286  0.4999465112700024  0.5853254006137500
  0.5803240807575897  0.5845844515925194  0.8350033742034609
  0.6616455578489371  0.6666253958534892  0.1666476587110001
  0.6640482441317098  0.5801870852070310  0.4176727431369892
  0.4135719408859936  0.2479525805665530  0.1671678804809336
  0.5814682988103890  0.7493719591601504  0.3335667119302448
  0.0834893645440921  0.0003560751484369  0.0839821186146054
  0.4979283477233993  0.5827590618771592  0.2497506969250940
  0.4965775148108111  0.4160350767173099  0.0822717182549061
  0.1635410552256452  0.1681541031706044  0.1658464822993230
  0.4965779974138061  0.5841556543968708  0.0828208854967394
  0.5804894919067959  0.5831553038681330  0.6676008947897041
  0.4135393485754406  0.6663651126171684  0.9173935704978567
  0.0817695560567019  0.0008957966649151  0.5831331401256342
  0.4978617772787426  0.1669863526361115  0.3332144541518722
  0.6667468881454079  0.7505063706025444  0.5830852622384433
  0.5813469052803564  0.7501975439531667  0.4962559475930988
  0.4976039711958490  0.7503309975285953  0.7509744787724327
  0.5791902109050672  0.1670519539857871  0.5830972687912596
  0.1653635128648367  0.0816454633540842  0.9166152477732170
  0.0818306336530517  0.1679788659872789  0.0854943964993923
  0.7489185773685126  0.3326653912790000  0.5845916002594423
  0.4131847531517943  0.9999001493841498  0.7496167395560226
  0.5820763863420114  0.6654315922159209  0.9172931030890632
  0.9145956629686641  0.4178481622057184  0.1658716872664175
  0.9150804799478637  0.2509684984742495  0.1677581583066225
  0.7486515186495920  0.7511665556448999  0.0005685794916447
  0.3309795994618993  0.4991668713066383  0.4989621504971943
  0.1642730026745716  0.4176110295300786  0.4174905073517274
  0.9150931626967174  0.9165237125697075  0.6663824268064130
  0.5810756221844585  0.0827939683715106  0.3322764698496607
  0.3306463720537169  0.1678383738654758  0.1657214918869513
  0.4986975836841609  0.0839784342786323  0.2523960514544275
  0.9964199753763412  0.1681140317628463  0.4997848758749301
  0.9978341191480327  0.3343550534455233  0.5016368718590647
  0.6635017214950819  0.1655466403660898  0.8327153125946815
  0.6659679114590497  0.8330422614385412  0.8327983973152894
  0.7465061810857055  0.8336054068490237  0.2488170491009199
  0.8348143547365164  0.9177343156002937  0.5841130751199700
  0.9979621171759359  0.7499024808303778  0.2514857096914428
  0.0811953297609412  0.2501679174322990  0.1679455379498227
  0.1637949242717089  0.1666145572045569  0.6672597434376065
  0.4965913110800916  0.9165084707243353  0.2503766106730304
  0.4132065956920511  0.1672181241459048  0.9187742027761453
  0.5788229347099567  0.5005665538837819  0.2491662189468043
  0.1656542273076994  0.8339495842197215  0.6664069093637776
  0.5808263977878548  0.0003365539561520  0.5811124649869921
  0.8313121096462790  0.2502201257200881  0.4156237403690320
  0.0777377390271730  0.3320175949668352  0.0849075137494893
  0.7471191446964629  0.1645808904664977  0.5846848595898860
  0.8310419474123345  0.7504793682330146  0.7516057692012067
  0.9144902698977864  0.4164691959651750  0.6680898238991929
  0.3308557305609129  0.3313720829236596  0.6671923859936351
  0.5804208965126992  0.4156366560176465  0.8348184346135219
  0.5807561959273367  0.0002759660060375  0.0840223670245706
  0.5804636476364845  0.9980815872948190  0.7516078581469068
  0.0826361953149460  0.4978821783675557  0.4176901306016523
  0.9156999234819082  0.9153751138312820  0.8339669905314836
  0.7486800216583394  0.0013171929552955  0.7502870884421848
  0.4106587164566197  0.8349271729948903  0.9192421202594646
  0.7479761494272396  0.5815886152969351  0.0000181139278938
  0.9969689109184573  0.2507143745474705  0.2513011602562966
  0.7479040364878708  0.0824370126856638  0.6675867160248690
  0.9148063057934535  0.5845570058213411  0.3361942652214476
  0.4137461922154197  0.7499979560759784  0.5002997231252924
  0.8319307587216265  0.7493755239381377  0.5816902135364276
  0.8330911189169542  0.9990663631920889  0.1679419203105976
  0.9982318436089723  0.1669143465016024  0.0002569213509635
  0.6664031420406801  0.2515412526939068  0.0839731692805512
  0.9984405003952921  0.4992706258931498  0.9983516390691796
  0.4139425845180281  0.9178136796772051  0.4995760553150412
  0.9165151635426874  0.6645302212149000  0.4174527555351048
  0.4985619479835513  0.0829837892785216  0.4129342348525318
  0.6645882563483434  0.0838163440249850  0.5849780923773169
  0.8376953410172306  0.6654540614677963  0.1626129032458199
  0.3298249584472301  0.9155064866989745  0.2497339620237119
  0.6644703424416719  0.9151911036099299  0.4159906291230596
  0.9155310156293383  0.6651915962338468  0.0826308212939884
  0.2456477648614877  0.9150288633545804  0.1671382127337030
  0.2488120895807230  0.5816592874063988  0.5004118831881428
  0.3312756996360426  0.6670487708071128  0.0000446607968532
  0.7496358606202091  0.5841389646752007  0.8331879185087719
  0.1633271697132331  0.4984987716481738  0.6663834287402333
  0.4994016790745528  0.1661792217081093  0.6663529691682423
  0.4148819654590236  0.6705695827372812  0.7489046110816210
  0.9148035309581780  0.5832203745688146  0.5003291323123856
  0.6645763331142633  0.0816072955376727  0.9162587840628114
  0.9147855749037556  0.5843093206428434  0.8332063065677254
  0.1635090331801873  0.6661305037029899  0.6665900442515518
  0.0808851387327188  0.4157215142453675  0.8310268364309438
  0.4140684750771595  0.8337078472167796  0.0827336228137573
  0.7490011591014459  0.0005360623365673  0.5874794328714632
  0.8318818804978882  0.4165000331868628  0.0824990156693139
  0.4144149802911228  0.8329452899796631  0.2503726055959841
  0.3322651637111773  0.4989519121799837  0.6667132708171121
  0.9190660652347922  0.5832322097312370  0.1650893805674543
  0.1643412881358116  0.7489961354220606  0.2499024723800781
  0.9151549756419973  0.9174038099698471  0.5007061509696382
  0.9973703321268914  0.4163809542704483  0.7509136363352502
  0.9994275440101930  0.7500645069680962  0.7499302890361064
  0.8318085311548732  0.0007927543470388  0.9997007746712584
  0.4149861726411950  0.5831612330573781  0.4990335904153014
  0.3314192187084493  0.8343014910038722  0.0001035101131499
  0.5816407545449682  0.2501192580967346  0.5000498451791003
  0.5800181543015610  0.7490181548614793  0.0005469827325126
  0.6652553455247850  0.2507328636992532  0.9174544448975636
  0.4966835233250948  0.5836300501091245  0.4173412154748344
  0.7492509575719531  0.1662927032650546  0.0870405094572752
  0.9970284801769937  0.6649853207871355  0.1658480537368789
  0.9989446822205941  0.8331150844952316  0.9997016207626354
  0.5815739820548969  0.8324909104264075  0.0831587589560571
  0.9143750465449407  0.8350575995820326  0.9147660958190437
  0.9977112740680305  0.6672126040522487  0.6673887144609673
  0.9151439735931861  0.0815979735714774  0.3331871847407092
  0.4143303062889617  0.8334622349129160  0.4172816272443810
  0.0818441930390104  0.6652184927439073  0.4179196646926603
  0.6632999654551420  0.8325867895771026  0.1677910340750836
  0.7481166876632086  0.3321081319026913  0.0813186266146058
  0.4965371489466416  0.4161615155665344  0.9151849624406839
  0.9156458246733629  0.9164937489703711  0.3336563611216534
  0.5820495594336362  0.1675742977696889  0.0840349972849811
  0.4993731937816912  0.3340180809757730  0.6666986478277218
  0.5807987011316019  0.9173634824643163  0.8330123818203065
  0.5820642316907833  0.2511821027508357  0.3337381650083520
  0.2473822998647417  0.6668928623750978  0.9190627047256246
  0.9158747081550641  0.4166702941916797  0.8323296362567671
  0.9159902613949439  0.7501803396812284  0.3350451253871339
  0.3314343589023698  0.6667468042854270  0.1665943126179992
  0.0831555754981632  0.8324536438725409  0.4170956868052979
  0.5827625325803738  0.4169846309649285  0.6678380932432794
  0.9153806908832494  0.4168584694398312  0.5018102616400583
  0.6642311786471621  0.3334275835056861  0.9978314960144348
  0.3311884379945469  0.4984800932857489  0.8351909471475790
  0.3306531311542168  0.9183546415043105  0.5826024905883740
  0.9976333418337484  0.8341149977445519  0.6651580591209937
  0.8321978348267032  0.4164947509068427  0.7500722738019804
  0.9156435974157093  0.1669510862823666  0.5835766787349749
  0.4962030932367730  0.2481915654843484  0.9148811889963540
  0.4995099537585455  0.3324120409982583  0.3334920284810942
  0.9156419528450657  0.2482812626605214  0.6669228004967794
  0.8309631491144962  0.3353839706374574  0.3338042649072568
  0.3317623415853080  0.1660978963939678  0.6646059712625907
  0.6647819680010254  0.4170801493352465  0.4179994661580348
  0.0827471987778182  0.0009036627329043  0.4160618402471993
  0.2482372028020907  0.4984584218057505  0.9168939922179540
  0.7472037760085258  0.5017458591464353  0.2492640589248186
  0.3314597141954614  0.9166188105697080  0.0835706411774589
  0.2466863365930491  0.1672246343895682  0.2518192070783709
  0.0813953635108950  0.4989961274849026  0.0828615655523021
  0.4138385442676827  0.1683206686072157  0.0842869583095276
  0.2498877230453991  0.4988771342315225  0.0778861303636963
  0.3297880347426422  0.9991695138654370  0.1656287408515599
  0.0003142475745320  0.9997787448950254  0.0004083010715412
  0.6637723833924885  0.5001845994664960  0.6683813448756343
  0.6641519366334071  0.4988912634329952  0.9986377895648955
  0.7490687500398429  0.3330626634152188  0.7516375505415654
  0.7489886037321984  0.1653605351819148  0.2499306884483353
  0.4153281740957075  0.4158767739963737  0.9997857000458668
  0.1651925259774376  0.1656049057255545  0.8312768192896474
  0.7466590885539172  0.4997169556002976  0.4179457726967857
  0.8361385459343439  0.1667033144218512  0.0002250178053423
  0.6652104498865515  0.6666713391162092  0.6677297666605782
  0.2476336160130534  0.2509959542812435  0.9988488722233990
  0.2488176731964480  0.3333318559345305  0.2503149232410249
  0.7488126951245335  0.1646178511001012  0.4147865957709971
  0.9152085333089980  0.2504429100096390  0.3337799877662878
  0.2492600929699446  0.4166296308025996  0.9987000592232699
  0.4997949578586450  0.3314945377264852  0.5008184503092226
  0.1651666781236494  0.1689390737110155  0.3322507294824937
  0.9147262846482153  0.2476738962214721  0.8334695060895958
  0.8332086277825759  0.0813618292965833  0.9175521830355128
  0.7475034980506635  0.1634722308272996  0.7503903398673034
  0.4154154354069411  0.0828417348824018  0.0017977901540158
  0.7485823854560256  0.3331421350975754  0.9168415156239119
  0.4996460599668183  0.1663295838621350  0.8346803119843026
  0.2486409371496663  0.3322356856697764  0.7488024458945468
  0.1646487865556612  0.4168609038281624  0.5842681078616278
  0.2475201929395830  0.0832434144774784  0.8326347852383095
  0.8324758102937659  0.0844707013305851  0.4147225542876823
  0.1633828932188284  0.1680667217167083  0.5004820314003668
  0.6657732644473736  0.4130640625876291  0.0795763153382651
  0.9983831453512036  0.0828546031863531  0.2504072731858815
  0.0809815154089125  0.9166054987643789  0.8334786787235691
  0.3304425461992279  0.4156736143794040  0.4169939974898776
  0.9973158043355376  0.4179042276234459  0.2500327822765019
  0.2479619785356601  0.0002826226801724  0.7503898910819848
  0.3320451345322196  0.2477460166259147  0.5840051706626882
  0.9144980234522616  0.2486088747522718  0.9993361612584974
  0.0829369594315960  0.9166526560160727  0.1663142029486162
  0.3306701299658676  0.2503755203008343  0.4158322629906302
  0.3308436444973618  0.6666739174940798  0.3317527129029268
  0.1624384682982895  0.9996837547938084  0.3350390421716762
  0.7493223413360237  0.3332910114815223  0.4166652839494811
  0.8322506086438224  0.1666741626090571  0.1676912740030030
  0.0805440917883584  0.5005203267218411  0.2496911443617107
  0.4150355400710111  0.8326266639040439  0.7492147523434038
  0.4136783805296924  0.0847941227636570  0.1671783673903889
  0.2475456534114752  0.9170438247078625  0.8328460937732678
  0.0812904220421801  0.3330255720431028  0.7504731608441251
  0.5810897800633015  0.8337371310885843  0.7489017701483384
  0.7427297149874050  0.5799079078184556  0.1667168283015413
  0.6633387152169793  0.0007873242648661  0.0004900863335787
  0.6646411335356910  0.7509407715527507  0.4179732488648771
  0.4977070549050608  0.6661533023788271  0.4995136083688861
  0.2497462234863075  0.4995553373857847  0.2534688270497430
  0.7490621983312605  0.9172680602769712  0.0019379948731934
  0.8309970725868356  0.6657677195293350  0.3385774420907668
  0.4157401514448842  0.4157651319648206  0.1666235388873237
  0.8299619200957139  0.8337651126980409  0.8330914725678830
  0.3305223550632463  0.0835281589426138  0.5836695521285197
  0.7494491373135829  0.3342174788520126  0.2511377844973833
  0.9985509667047832  0.0831799786414754  0.7495991465771533
  0.3316617039743320  0.4983193998461764  0.3335654128681345
  0.9987209390134040  0.9161527711488775  0.5817644078425924
  0.8308986931547433  0.5829105502353680  0.7514516414103439
  0.5817234028147168  0.1667507352957206  0.7513352542129781
  0.1635401762292648  0.0001050578141263  0.4993611603554988
  0.4936376378448441  0.7484077857650173  0.5807038501523807
  0.9146743658928925  0.0020956804690259  0.4151462043646726
  0.7482377819120414  0.5009665703742967  0.5852127390600494
  0.9161635010436578  0.9991192459745623  0.5822349398435492
  0.3305472321100374  0.9986871041667773  0.3337687998531651
  0.0803349841416155  0.3337243709537872  0.4178072385461458
  0.4975354543101455  0.9996839012552193  0.3348558301473933
  0.9173785305396602  0.8333971368396185  0.0812113772637545
  0.3298768432958740  0.1683303364061051  0.3338544946214884
  0.3306007343155543  0.4994974434474216  0.9989592577984125
  0.6634498667233695  0.0824449847823690  0.7503590927728894
  0.0816963330424392  0.9996376582985912  0.7501885067218610
  0.0826987299386347  0.6660205701067521  0.5860029794095452
  0.2496512099431608  0.4166178259829190  0.5006709570085711
  0.7493322247387308  0.9185221169752619  0.6640864074999471
  0.6650443271285997  0.5833314107332319  0.2495012142171395
  0.1664895781782544  0.8331242582678188  0.4993134512011371
  0.2476509533960198  0.8332418114576480  0.2497456001287090
  0.9145688041099661  0.7478776155098394  0.4986774687298510
  0.6649129048325532  0.8332781851897041  0.5004777314252307
  0.2466141866728256  0.8319902123234524  0.4190917919935943
  0.1631103794047868  0.9989692238135836  0.1662217773685400
  0.7493346595599982  0.0019079766031376  0.4115309720073546
  0.1640441148624139  0.7490327593769474  0.0825654291016023
  0.0819890040535030  0.6671354947932374  0.9148382096971852
  0.6639544322584252  0.7528839522808308  0.7517377020044518
  0.7476634560326274  0.0824503272396866  0.3320515358272442
  0.1639451954408742  0.6653778838577419  0.3339241845599033
  0.2478910550837509  0.7526312733514425  0.8331504895000811
  0.2472883704114769  0.7489328505655778  0.4994760791528608
  0.3303861608074817  0.7496839951657861  0.5827707987660470
  0.6634960769829213  0.9989546127059498  0.1657393854487074
  0.7478864602123760  0.8332817261598461  0.0836828129901396
  0.0805024667946213  0.6671115002715086  0.7484570856131361
  0.3296841046146647  0.9991926559481028  0.0005190845521419
  0.6651610180942877  0.9155900240160618  0.2485294823776391
  0.5015291001695799  0.4999412225319448  0.6671871844258218
  0.2463370627816306  0.9980916135687419  0.0826391853121994
  0.7497606500417479  0.7512074462299619  0.8329104582272707
  0.8325428312388798  0.7493219579057983  0.4157046343473559
  0.2476087628537397  0.5832642855003591  0.7495469609130790
  0.7472284699552925  0.1658622703109372  0.9984019783296589
  0.4154276998827557  0.5795204237603919  0.7508032963967645
  0.6626678992091957  0.4156318495012112  0.1699102672830015
  0.5019437526844454  0.8352503062721058  0.9175079358042828
  0.8309031544803538  0.6674730664625925  0.2506542722886421
  0.1648540283558327  0.1700873882355187  0.9196490706426710
  0.2476331222717890  0.6645078838997410  0.8299066237381750
  0.0812711191238546  0.3340717826851220  0.9942493765445093
  0.5807140990392544  0.7505251590449113  0.5836860376338961
  0.4107943257813150  0.1669048616142947  0.8297521377876289
  0.1685075634482603  0.3340451570634634  0.0831724933221250
  0.7492095264244271  0.6671037727911411  0.1659889696818531
  0.8317509357125856  0.7555582806189951  0.1657867378891771
  0.7477372743438802  0.9997902451332368  0.4994372515321962
  0.8308166838029625  0.5802095998975149  0.1650565097348017
  0.2488420938797078  0.5009475418629640  0.1657137670614772
  0.1635094678485404  0.4990859579094546  0.1664959486027776
  0.9969703654061123  0.4998817433511546  0.6677124912622521
  0.0813923443552374  0.4990520821929255  0.5847178449416797
  0.0807099867448749  0.3332957650192564  0.5840447080675855
  0.9973071872252698  0.3329298192070751  0.6675647026396057
  0.1647376514334135  0.4163623610892355  0.7496949090464721
  0.0808468751799804  0.4157930879460672  0.6680345681638812
  0.9967425896290810  0.3320344803727338  0.8324919854919801
  0.1645947262495746  0.4172851034769962  0.2502082957145931
  0.1640325386810752  0.4987878575858390  0.8332750149725757
  0.9999125235502595  0.5822297004274776  0.0811140653621532
  0.9975974385489664  0.4158673322267876  0.9149754233173784
  0.0819104563670382  0.5828208855542220  0.9994536509972389
  0.9990121395440478  0.4999835647804168  0.1657303638364900
  0.9163949460372964  0.6657654381604076  0.2515683523367607
  0.9981911172204952  0.4172791639833814  0.4174590306763429
  0.9981173070924826  0.7503423995176303  0.9161493389138478
  0.9973540219356044  0.4170367318226301  0.0834302170121483
  0.0820310056746474  0.5830796971221399  0.1661397701683965
  0.0821230786443997  0.9167494647171069  0.4993757410646465
  0.0815215541186170  0.7499130000261320  0.8330207374456685
  0.2487940323770953  0.1668962795655521  0.9173499725166878
  0.0812989706209586  0.6666965170102188  0.0833344627456032
  0.2468938780648706  0.0003237046080027  0.2506614143734441
  0.1642793911612509  0.6673560723288918  0.1662599082917147
  0.6659966322063603  0.3324516395327299  0.5009112814204199
  0.9990104268449422  0.7488332041513243  0.4174139932235730
  0.9147127410038993  0.4164062758678995  0.9996377300012607
  0.8305533803438613  0.5813483106512789  0.4185127626418960
  0.8315377540238706  0.3339385003878433  0.1674642070048843
  0.0825285909110226  0.5822669946546554  0.5007548417740522
  0.9145576649425577  0.4175493780627277  0.3340551286278179
  0.1637512456344329  0.7511952869958023  0.7492470024247010
  0.8317128200600139  0.4180154532568692  0.2499653325055843
  0.8307885000195101  0.4169074181006584  0.4180629054552305
  0.6664923800122445  0.3331551828910153  0.6676624104931550
  0.0817781175316718  0.8319612368719085  0.2503774328087071
  0.0823714527191022  0.9156023059748929  0.3343686071777446
  0.0811177073796911  0.7488349752524756  0.9996606383720902
  0.0830376095672258  0.7494033689567720  0.5003992069106971
  0.1642435741592550  0.9145250835883822  0.0821026187277017
  0.0824303966288191  0.7506940054156441  0.6654153943949236
  0.1649502865725321  0.0837593488685868  0.0833693255578835
  0.9989840034883118  0.9159014105751194  0.7496367927652561
  0.1642723376605784  0.9995121883014980  0.0001216599287307
  0.0814465672807872  0.8337058756558442  0.7491519044225899
  0.1640384943713926  0.9165319875028833  0.9159259575325278
  0.1642723378248440  0.9170289015169724  0.5828903516019145
  0.2473333857564195  0.9156485422727707  0.9997936785766275
  0.9982582832542684  0.8335146136105430  0.8333249630313515
  0.2467221001610947  0.0008693357594771  0.4163803455738140
  0.1641384906579196  0.0848647644538534  0.4166069196064184
  0.9986840639449682  0.9165814337683352  0.9171656556217780
  0.5824687823078823  0.2507579396984304  0.6672962219620741
  0.8325802018704751  0.4158028430305267  0.9155335142683044
  0.2478682336189275  0.6667606399171569  0.2496848423180628
  0.1630080841053101  0.5823172920841817  0.7497578342121315
  0.2489597547737801  0.4976358067458070  0.7492251620594554
  0.1656000374591205  0.3337427834201593  0.9986838762802802
  0.2478781826908145  0.5817855998598014  0.6660254492353928
  0.1647531846329666  0.4182190695904939  0.0829322975603335
  0.0803446840199969  0.4992691804135482  0.9157061933921040
  0.2475881070269489  0.2501835380429038  0.1680057540755629
  0.1642769610171895  0.5828344254317700  0.9163881072406792
  0.3314588856273595  0.5826283224314018  0.4159940885485287
  0.1648893275007390  0.4163483521159652  0.9157522110844295
  0.0816875565967156  0.4167462717656262  0.5009844125678035
  0.3317881589768101  0.5823434846113131  0.7503089429018324
  0.2488749394165385  0.4993137351209896  0.5841492100674096
  0.2482553575249421  0.5812803192964203  0.8349034066463730
  0.0801525288994648  0.4992296821924919  0.7501433698863245
  0.2481932624065521  0.6670581304587855  0.0832568942828066
  0.9988813787984027  0.5838569433925513  0.9163988622911979
  0.7488409276389634  0.4163159590318780  0.1662616627044517
  0.1642117290575338  0.1677738607225221  0.0022652358827045
  0.2479474172039238  0.2491044107887789  0.8318939199437496
  0.0811570088946526  0.9170243300270148  0.0004885537691138
  0.0805883144397748  0.2502920822025061  0.5003590116078349
  0.9985804722625038  0.9171784585179346  0.0829392681506523
  0.2481490257254787  0.4164399605265183  0.8323213076050532
  0.0816815770209432  0.1669394724207713  0.2502480516158638
  0.1647461292161201  0.5821750206270137  0.0822836194287653
  0.9974070177694750  0.2505288889883664  0.4170311106483431
  0.1650337039752457  0.5829382581203776  0.2500651888882663
  0.9983458491153047  0.2498502554564089  0.5836693597146262
  0.0809329697474460  0.8326966463735425  0.0834274669168047
  0.2485632795878383  0.4160281116671907  0.6663644371604176
  0.9974340507295131  0.3348918993609135  0.3339591122082968
  0.1647664615944473  0.4992972236386800  0.9990913149861882
  0.0809036217278898  0.1681399817624462  0.4167574536211133
  0.3328054732651333  0.4988802222016936  0.1663110706408016
  0.0812032216929524  0.1671669496513581  0.5830082132926006
  0.1635447325227759  0.2503389394037384  0.4170646589054870
  0.0818636077336128  0.0829186658207240  0.8330938780482754
  0.9146499750594440  0.5003251417039806  0.4184082911683150
  0.9157421937295535  0.5001172503807043  0.2501017312861112
  0.8316656705123670  0.1664181466805129  0.5002514519419610
  0.6646141044744329  0.4171531128784042  0.2519614991826877
  0.6663427398996992  0.2503972281825592  0.4162814347477070
  0.9154136543204370  0.5001835029632862  0.0818702202051299
  0.8313660437324775  0.4999794367013608  0.3340517313507770
  0.6649863592038471  0.8330357752141326  0.0008233955207305
  0.6647086983840772  0.1667534351381268  0.3331109180439178
  0.9161292692971952  0.0829184474775998  0.0011891573758434
  0.7490623601111390  0.2504860557525042  0.1675971704421957
  0.4984941370535280  0.4995799536677740  0.3332544395363329
  0.7468210397820632  0.6661938229133703  0.4177010269095824
  0.1642377850290789  0.0828077598165532  0.7498966147652285
  0.9146170508177337  0.3322406065743981  0.9153626040805032
  0.1647479646420421  0.9997076162467496  0.8330424729148460
  0.2472783047324552  0.9994974171445068  0.9159274316105402
  0.9979845154204757  0.1662179311950646  0.6670933414263764
  0.9154632808768463  0.0824077221197402  0.1670057950778859
  0.9991097481974478  0.9987910709657074  0.3336165769846171
  0.0820372802253579  0.0843161063228204  0.4995608749032925
  0.9978574252810143  0.2493413954070512  0.7497045638090810
  0.0817489473615082  0.9165941621442947  0.6660966130454785
  0.9153324029866023  0.8330589664541098  0.4170661779854139
  0.9989483622421852  0.9994521847762728  0.8330227045854324
  0.9993942108363617  0.0015204089514417  0.4989821152853606
  0.0800122199456930  0.1663739910842192  0.9165683403746010
  0.9986681837540886  0.9994852704929911  0.6668660798734504
  0.2476559268292839  0.7493108847288583  0.3335564350946993
  0.9165230460289080  0.9994446288716499  0.7504036590649942
  0.9986444542984028  0.0838154956813176  0.4159928491104266
  0.0815537507261925  0.0832125359035858  0.6665406715042764
  0.0819849054819405  0.0843855276433625  0.3334241282614613
  0.0813977361896583  0.9997641590844817  0.9162956189991457
  0.9991352417284158  0.0832583314738807  0.5828720156649420
  0.9153704809226504  0.3341241136395515  0.4177342124519864
  0.0815720969006974  0.0834142775216430  0.0009320515612059
  0.0802006170179732  0.2483311700406742  0.0010290746102471
  0.0808245558908297  0.4184744968462711  0.9995066392155993
  0.0821024231640931  0.9996819934055692  0.2506970265038458
  0.9145427188217952  0.3342913604718019  0.2502041319507468
  0.0821116408076949  0.2494012424588443  0.6671072143857574
  0.9980131068198358  0.1674475503910998  0.1677405370832041
  0.9973608176637204  0.2495460258554310  0.9160446846143758
  0.0803548725457232  0.3330931836183939  0.9127103557445955
  0.9960451612481034  0.3330484414812119  0.9996579117751595
  0.9990827769017183  0.0833018203635396  0.0840531948752395
  0.9968178351203922  0.2497280226508460  0.0845163540184185
  0.0001503537507794  0.9989449627696425  0.1668879144376410
  0.0795719238509537  0.3338936469610245  0.2504394084281524
  0.9982821728846171  0.1663125425224714  0.8326963233451727
  0.0807874271062296  0.4169158784923314  0.1668118488539476
  0.0816248593872357  0.2492953631580539  0.8317684924774713
  0.9990025931300315  0.0826775550513063  0.9174908577101003
  0.1655706299949336  0.2503942175176382  0.0838899244407477
  0.2471789799424221  0.0826916179661656  0.1673481184531139
  0.8323820057301289  0.8328422978816742  0.6662578456048422
  0.5799423508658771  0.7501357245311373  0.1665839307815953
  0.4972296539933574  0.8337223238632240  0.3334666108555697
  0.7480094624979530  0.6664237451339906  0.9164915919754184
  0.6642563032975742  0.5839235530282866  0.7515962573105774
  0.7481223823215296  0.7505474982986133  0.6676402445706665
  0.2482340047743808  0.7500153789208508  0.1665124520432453
  0.4145085335500683  0.4156617313866055  0.8330741306382448
  0.3310731876495952  0.5834403368778601  0.0825713896413087
  0.0824033014568026  0.8329245758265668  0.5832503311298398
  0.4147106163009103  0.4995876159150466  0.0829675966129390
  0.2481209277964501  0.8337181737793536  0.5824584177256573
  0.1646738878849685  0.9165048527740564  0.4168241380507326
  0.4128747934136931  0.1668612109182637  0.2508046019837165
  0.3315829328639162  0.7515227844415504  0.7499171988330451
  0.3317727158866165  0.6678912501917071  0.6667137771531628
  0.4144272244893033  0.7510691893894543  0.6658796604927424
  0.3327159678463492  0.6680191387146827  0.8343731218421312
  0.4972684563558818  0.5838068741075576  0.9168660295549247
  0.4135661833023702  0.7508475671361462  0.8339012072592069
  0.4146169498835591  0.9183048747366571  0.0005633302838810
  0.4136675875985539  0.0000437460650835  0.2511592655765555
  0.4141885847943733  0.9169998352065046  0.1672753325791506
  0.3307998219398993  0.8326920272603504  0.3337870172732955
  0.3307188523833577  0.8335036827905014  0.4999313354518237
  0.3313006987091290  0.7504249232784150  0.0827712876770369
  0.4156626620825464  0.1662170075398413  0.7469264680272558
  0.5814278543634840  0.2490413055834514  0.9994032846717887
  0.5789382964210903  0.4158200501315338  0.1653895686228337
  0.4988061143862660  0.4159349339096616  0.4173438292399480
  0.3294115314633508  0.0829338911811145  0.0833281383476325
  0.4972028006892367  0.7492715190967777  0.4166609597903380
  0.2473372433119143  0.9174080686152384  0.4998319007272488
  0.2476681681285568  0.9175822606119276  0.6657879906182782
  0.1646738233823302  0.8339765861854241  0.8328525804267668
  0.2476366110877662  0.8334431286268830  0.9163199658510368
  0.2477568758953692  0.8344789259211801  0.7494958519904801
  0.7486987719627308  0.4156175936284416  0.8332249986247143
  0.8313719623866400  0.5814079550050940  0.0802351647489923
  0.9162746516875209  0.5833952741746498  0.9990497717752945
  0.8316532828661726  0.4978574998519054  0.1660246531493259
  0.8321470671731634  0.5818945274607018  0.2510473951555010
  0.3297762753673676  0.0830374055351780  0.2504595831972222
  0.3312488460660369  0.7504534837463684  0.9169202796962174
  0.4140849474697003  0.1667684624704156  0.4164652510284891
  0.3312069334397369  0.1672223946968429  0.5001809650028222
  0.2485368074511140  0.3331775431315726  0.9160896672414556
  0.4152913982360755  0.3324478701443142  0.9159931766262365
  0.6651574036929045  0.3321930937293009  0.1667251280352749
  0.9146218926001057  0.3326958838037926  0.5843037778742441
  0.7478484585577079  0.2497903247157360  0.3323504172847692
  0.7472495831665588  0.4987799172268094  0.0820333634224157
  0.9147985984110858  0.1671470572140859  0.4155505242676522
  0.6642774972181400  0.5830509451444507  0.0816624720324455
  0.8315740577494376  0.2494330844735576  0.5841292036043586
  0.9151805240134661  0.2500974639879833  0.5005638796351843
  0.6649763873701613  0.8335836535571912  0.6657752092606847
  0.6623303733966540  0.4993324792024075  0.1651645978786125
  0.8322289606738528  0.2506099813707234  0.2506815680907603
  0.9971493585349662  0.3342166201090018  0.1672703070049230
  0.8318084069316880  0.3324824118173594  0.9991724140818163