Cr  H Ni 
 1.0000000000000000
    21.1200000000000010    0.0000000000000000    0.0000000000000000
     0.0000000000000000   21.1200000000000010    0.0000000000000000
     0.0000000000000000    0.0000000000000000   21.1200000000000010
 Cr  H   Ni 
 259  17 605
Direct
  0.5818076961587393  0.4991807818072673  0.4162846303251864
  0.4139474911939175  0.2517303568132283  0.5028876603147164
  0.1646800840060741  0.1669861447332386  0.3330529968092620
  0.9149664863511389  0.2490106502436238  0.8312962479338131
  0.8326294328020675  0.1678179896538020  0.8327131965249421
  0.7490337949715099  0.1670619770240579  0.7495465815848543
  0.4148393726691462  0.0005422919511165  0.9174563646593098
  0.7490872318334890  0.3337289186485339  0.9184653794598985
  0.4143686323295813  0.1685278877185788  0.7512668191010439
  0.2480016350814951  0.2508471883406466  0.8323542969734907
  0.2486049623684468  0.2552765825207738  0.0006564474478876
  0.2494160107269191  0.3321570142323834  0.2512838535591577
  0.7487959025746249  0.1659093922418727  0.4173337395367863
  0.9138283261758433  0.2506276531392074  0.3359277195259965
  0.2476637406007298  0.3324561240012261  0.0838693201608978
  0.1649745091750365  0.2506003820120369  0.5827306943712381
  0.1652599689973235  0.1679914577748910  0.5019758620020064
  0.6673935995343604  0.5003624336923348  0.9995489377744122
  0.9976975112113265  0.0845679227182005  0.2511563516732611
  0.3332501965050646  0.3313516028348189  0.3334444801536463
  0.9166960171107933  0.2492875860643837  0.6672751806560882
  0.2486353187152423  0.9986900492032603  0.7505502224947910
  0.2490688615509277  0.1688571792401265  0.7503513534506029
  0.9141520617046011  0.2497349136751441  0.9989402016161791
  0.0825478161577039  0.0009027895459913  0.4175180921394953
  0.4157793862331988  0.2488134327157343  0.3335428576152463
  0.3319392189904572  0.4169368279241976  0.9163246004940715
  0.3301204644503772  0.1670381108974205  0.8337220774624248
  0.1649204009472159  0.9165904679273950  0.9168302961071851
  0.8325402752834881  0.0839659873053209  0.4171317555950488
  0.3325509441070001  0.6666180447011267  0.3332178435514061
  0.0832391925247824  0.9180692119325553  0.1648861890792932
  0.3322233881960590  0.2508141671594223  0.5826460274524582
  0.4993534172074484  0.3319812132436340  0.3333134220865721
  0.0000747704676208  0.0000563655028719  0.9993811270257901
  0.8326433492154725  0.3346542178958334  0.3334166934431347
  0.7485637568833506  0.5814771819081176  0.0007947022126287
  0.6657828646199975  0.4171553463308886  0.4161941929918351
  0.7487922547273136  0.1675260568734274  0.2492378409261521
  0.9146961086811417  0.4181493674518038  0.5006269964555632
  0.1661575716315967  0.1666518047326223  0.8337527788429161
  0.3319418431133616  0.4171844641002926  0.7495253482639392
  0.7467956067939958  0.5007404308966237  0.4163989539475914
  0.9983237939712215  0.8325816565146363  0.6679590120088448
  0.8324308971913734  0.1683964652002986  0.9995895218121423
  0.8324364535859614  0.3342987658212784  0.5007066542047639
  0.6643778765148466  0.6667401267275911  0.6675134150214150
  0.7495268681303511  0.3338657982476809  0.2499379688517508
  0.6663682272501062  0.4166896501204432  0.7507764274832195
  0.9986283569725614  0.9165054407733951  0.5842266087810052
  0.7478119398466346  0.3344874917485209  0.7513892036077267
  0.1652026045829025  0.9999466756997256  0.5010764743982216
  0.3325743957464560  0.4170545093092600  0.0847150315654604
  0.7483229012024599  0.5007907530997570  0.5853409408315101
  0.7489415844322692  0.5006818436805334  0.2474539514313208
  0.9143571891756009  0.3342343083713089  0.4180606828663536
  0.1643293446390220  0.0857827882593376  0.2509182259454897
  0.7504817179991958  0.3328036350587480  0.4169362159412369
  0.4150326296567444  0.1688738081869717  0.0826132332599174
  0.0831656686235084  0.9155560650567715  0.8338091682486897
  0.3324237845368079  0.0881673033244730  0.2490011710383049
  0.9994653028467728  0.4167123690801901  0.2505959187026090
  0.0809778160523924  0.4997399915211699  0.0835946626058778
  0.3333310834775445  0.4973341046115969  0.1655328313336600
  0.4136401026205765  0.2506697148540641  0.8335130825902362
  0.8309825914712169  0.0847472195037412  0.2496851920398423
  0.2479641384100249  0.8314515357634367  0.4187868754959987
  0.1639951527071398  0.0003513718059072  0.1669888900749697
  0.7477934345219437  0.9991596872180339  0.4167692593655348
  0.1656414690373784  0.7481448434768362  0.0842881550885914
  0.6661590880851513  0.9169367903982361  0.9153050748417945
  0.0835087886941749  0.9994355296652843  0.7508556187746445
  0.0820261916301375  0.5819851955251713  0.5013262511300994
  0.3328293864823731  0.4976233688158977  0.4996392518255128
  0.7487306723882268  0.9179702712828465  0.6671257220264479
  0.7478685358976553  0.6647643543563940  0.2489002669932090
  0.1654801601351090  0.8329686726134268  0.4997475811803421
  0.2490536427199691  0.9132192060138039  0.3347468545690291
  0.0823790513758898  0.6673088902043259  0.9159162009710103
  0.7475452021801327  0.7487439505914267  0.4998879179385748
  0.6634459250245643  0.7491868181176886  0.7501276278526543
  0.2491548976252874  0.7491657744200627  0.6661981910948520
  0.2497457047436602  0.7483010853684623  0.8333849355585015
  0.2479312758682330  0.7519297551634339  0.4995060473343288
  0.4998573073264458  0.4985180331909460  0.6674250927128814
  0.7509424965073125  0.0039614061889976  0.0792888394180629
  0.7478772286437728  0.8281410510693499  0.0803726221293465
  0.7444527720767322  0.8336640646180674  0.4168859198325451
  0.2486645504908644  0.0795379140133516  0.0021914426278128
  0.6663955823612558  0.9163718510173404  0.2472874556866877
  0.1657548931939204  0.7482263423532326  0.7490904050123944
  0.2456862251753456  0.9992980311454305  0.0845523311508889
  0.7491265167980782  0.7490963381121966  0.8331861580592119
  0.1640007164100730  0.6665144281440996  0.3314031559480062
  0.9177599776704114  0.9140965943609590  0.1651646761887602
  0.9132802090265147  0.7484192605635582  0.5010264077299859
  0.3367145205185559  0.0019095545321360  0.3358714704952399
  0.1638027048748550  0.4172511681391136  0.7493602554486328
  0.9170311280361191  0.0003695405389413  0.0801205620885815
  0.7493922803479136  0.5831425361365646  0.1665217842118726
  0.0823642994395040  0.4999529476024624  0.2490013100456320
  0.6657255626143246  0.7501322296518952  0.4168756265418691
  0.4152518773116085  0.8313048066441995  0.7500023187879759
  0.1625876242134940  0.4980084982900061  0.3319838683469034
  0.2490779094126830  0.9156013721859662  0.8337386772638289
  0.7494797338840870  0.6670364908780451  0.4168169706615168
  0.6659093654938548  0.8318638654943028  0.6677717446901453
  0.7482419337123657  0.9163926326585787  0.8343139719753204
  0.5811433833614178  0.0876101085817293  0.0018041474616621
  0.9163610484212384  0.9981808496034248  0.7530669840765210
  0.6642804609169914  0.5841907645961885  0.5849145516427728
  0.7494793694121006  0.5019196154078446  0.7517847825990894
  0.9165124458044326  0.1675636046096143  0.7517706051791663
  0.4986743698171506  0.8318774762838597  0.5028587645309684
  0.4141490784355875  0.4173923448360501  0.1670211983349704
  0.7497694864432697  0.3333841265137690  0.5833995411815769
  0.9160575916284054  0.9986078090651326  0.5844089549962070
  0.3318265827463637  0.0822389172628108  0.5834625929651999
  0.6665592131771001  0.3342391562323133  0.9985488380527394
  0.4173845700916945  0.0860607457978916  0.3329225342739632
  0.3316824782723164  0.4982110973133584  0.3323170851891019
  0.3316275543654945  0.9163158689769537  0.5841391208228972
  0.3342274099430536  0.1672155182487051  0.3340676189573910
  0.6646727263354472  0.1666971819237455  0.6675458642552311
  0.8329487329845786  0.4165947352564066  0.7500834442810930
  0.4140480710710488  0.0045521835894076  0.0832889528601862
  0.9145262774736863  0.0015776189244216  0.4157175037002272
  0.2483091258228051  0.4989568805742038  0.9132565734498604
  0.0835980452331130  0.8323388853728353  0.4166887817640387
  0.1615380999893193  0.0011859208743314  0.3333527241620248
  0.9158187977726397  0.7488669339758240  0.3343579828059474
  0.5817835662372621  0.4170699945599989  0.8350474651331234
  0.0835405180804862  0.1674752203645508  0.7507756579533513
  0.5813042419746837  0.9998195893331397  0.7510835339634423
  0.4131200918136619  0.1699349844849469  0.9138838027460067
  0.9168572771983996  0.9166922937322378  0.8336225476938484
  0.4988055501513965  0.3342537855235839  0.0008430393372258
  0.4146857401323966  0.8321612723885029  0.9191901160784874
  0.9982609374990942  0.1663362020500500  0.5021949859687285
  0.5809631072000871  0.0846957019142930  0.3324726953912471
  0.5812548336022060  0.0828061851478176  0.8341411852348416
  0.8311626470047883  0.8347274160339787  0.6679861895351211
  0.7458371157358106  0.8333424831985113  0.2477835453887030
  0.1636523003639530  0.4991353667774887  0.5004091717522327
  0.9147927784545481  0.7479812292008692  0.1666471553092256
  0.3322160123973448  0.6649015572116468  0.1663007552733125
  0.9149263496644241  0.0835148717754353  0.3356477629429035
  0.0823565749463056  0.4162253806022360  0.3326121181962704
  0.6640784755448382  0.8323730276905166  0.1655143505010847
  0.5820378513194977  0.9171822772380590  0.6705113312093345
  0.9149074508480981  0.9187948558669141  0.3344718669077875
  0.5815120324100763  0.0001116572005481  0.5857886483412231
  0.5817019352309837  0.9174877677869364  0.8330833166881128
  0.0810021323195738  0.3320114906608454  0.0825124079339536
  0.7494616972580014  0.0844183887677327  0.6679134622957292
  0.8320632768305356  0.7491171732126072  0.7507465006045736
  0.5802976932509610  0.0820169951485175  0.6674200307021301
  0.4168444263955235  0.2502587760659086  0.6665100847140297
  0.0806633722283016  0.0825269831764812  0.0000958490630367
  0.5827826725606637  0.0018304233002663  0.0830406787760313
  0.4141686465722878  0.9993807192626342  0.7505958984227871
  0.9150526021527748  0.4174104550623580  0.1657116883818315
  0.7483257059635179  0.7493085203897166  0.9989223711480262
  0.9151915907106090  0.6657062200516777  0.9158016166325817
  0.6665090787967050  0.5809906541264430  0.4163994619723120
  0.5812543617808493  0.3352796521056471  0.0829293846764757
  0.5827164909397939  0.7484946983723091  0.3337077250177091
  0.0813531180897909  0.0003574737292359  0.0839381189424438
  0.4986442325908300  0.5823274839762583  0.2493271949201810
  0.5003392687760384  0.4159858848883782  0.0819888989455492
  0.1638758522742884  0.1675871994130738  0.1668777698416544
  0.4996565236675022  0.5831523823033696  0.0832190954854246
  0.5814713078664365  0.5834967659204409  0.6648693527005329
  0.4146304885487495  0.6642785175115410  0.9174942283450829
  0.4987180016712749  0.2510084420414490  0.5834113706105574
  0.5813253072397783  0.4991516055654184  0.5835155977862014
  0.5804756168384424  0.5825539596606437  0.8385298654436487
  0.6673279138279494  0.6647584882641021  0.1676742385077427
  0.0835444477686721  0.9999627751461195  0.5831871793829333
  0.5813438099402641  0.7495229780769137  0.6672872767272310
  0.5814697260451029  0.7497401638418304  0.4989910757159199
  0.4970438930523324  0.7494889790718903  0.7517797828360947
  0.0833571224420054  0.0839286168362882  0.8322041322028250
  0.5804110673296266  0.2516972254932237  0.6660532677755291
  0.5024606111059488  0.8329470568740501  0.1623676852175140
  0.5825631745572893  0.6639177872374591  0.9153415315154367
  0.6665472478807190  0.5004220355884209  0.1678104334930213
  0.9154697695182287  0.2507510292149815  0.1674159452912255
  0.1670910746228984  0.8302667969058940  0.6684152519387733
  0.4136455017636905  0.4190357516116849  0.4997387662704506
  0.8304668399544626  0.2487636002464048  0.4193210095233208
  0.4993550300493627  0.1684508382430022  0.3341832625307055
  0.7479889673154811  0.1655963167684258  0.5865016566329546
  0.9161271145802018  0.4169574828153191  0.6668619671864338
  0.0823515966860760  0.2492695821516831  0.1673244173947813
  0.8338923300016486  0.4169484786162925  0.0836630456327177
  0.9172141215342677  0.4168805979882224  0.8331097569629199
  0.1641447645441385  0.6674275839096325  0.1661736446021427
  0.5827702733532327  0.2511972070798970  0.5016327619403941
  0.1664206587381676  0.7495110547639455  0.2501608792282895
  0.5824954438069535  0.2519351736589823  0.8350569695029328
  0.9982139862889858  0.4167452740437456  0.7500555473822866
  0.6654075070274559  0.2493950411052470  0.9170066158286700
  0.8325444403702982  0.0007497485309900  0.9998577276754823
  0.0844689721105379  0.8330754846512879  0.9144493684932168
  0.3322280971116062  0.8324116314016002  0.9990871607656390
  0.9992021428567640  0.8320019410144911  0.9992128401520829
  0.4991138142166584  0.8320584771894405  0.9995068723084350
  0.4138700843463560  0.8329445347444704  0.4177145896066446
  0.4987023761053830  0.5812114966927786  0.4157897031918213
  0.7499950599968935  0.2519397574652453  0.0007271739435061
  0.9974607557092152  0.5820902340152075  0.2503566516927086
  0.9974765592348350  0.3334170080256325  0.3336766004063588
  0.5821245494781940  0.1684185768950118  0.0821019051402135
  0.5823961990086367  0.8314951252675239  0.0820741124024486
  0.4988080392947842  0.0858197100867871  0.2483915464606593
  0.5820274800888997  0.2514596587365468  0.3332402373963589
  0.9149587747698571  0.6674883375992388  0.5831418294155936
  0.9961079403359383  0.3345346200942327  0.4997737620620947
  0.9163632296257284  0.5831914763523905  0.1661475007936101
  0.0820462561836680  0.6656396710296738  0.4163110167521124
  0.6655486393518919  0.9173551786248271  0.7519800564852541
  0.9993123782253271  0.8322210409194701  0.4992709730596734
  0.4138454271125638  0.4981861151617560  0.9169882985192074
  0.8323398513347856  0.9150989784860734  0.5855483752182598
  0.9988619215689805  0.7502541438875370  0.7492300289525580
  0.5000594142364631  0.3327046409769469  0.6669540489199060
  0.4989871827830379  0.5812003668148614  0.5843232096160839
  0.2483298971675871  0.5818046437989541  0.8343666146849756
  0.4153460596812570  0.0014046153208597  0.4170644549743544
  0.5820542675912880  0.0813535307933905  0.5017549566039509
  0.8320701649374518  0.6659406735730206  0.1661401985261744
  0.4190600190058014  0.0009085774133124  0.2500189409644057
  0.4133005168934520  0.8316581739542457  0.2520064271127494
  0.9987130980835516  0.7496168717323369  0.0812323617791947
  0.4992227690208904  0.7474471888465327  0.4169971453248102
  0.8316895533608138  0.6663782402099766  0.4990154605644770
  0.6654611016815982  0.0849601705193107  0.2478175442375925
  0.0814670363283856  0.2519848559350303  0.0011549639933565
  0.7504058438961551  0.1685935239484544  0.0811910314766946
  0.9991451495153095  0.5000368281393578  0.9997638543285160
  0.4986365414158001  0.9200171359590193  0.4154139071111827
  0.9152954847616070  0.6659187404603648  0.4175313815700707
  0.2474967193006023  0.9166501573721922  0.1654285741124960
  0.6654158948834720  0.9177698065645694  0.4171118453580581
  0.3323807915030306  0.4983068654381066  0.6688772325384772
  0.3350375478935560  0.6655755544616020  0.5002918638551441
  0.4163027416128929  0.8289543449210389  0.0793862707235467
  0.0820939650347051  0.4998234207185674  0.9166574688860859
  0.1644464916214380  0.4994231242859268  0.6681595501172470
  0.9172865562318745  0.5841395934982555  0.8340522510946625
  0.7514901203351964  0.0861057383149233  0.8323228890138041
  0.9985796075982323  0.5000171740586161  0.5008004227639974
  0.3318014698244053  0.6670960259796442  0.6672144879067485
  0.4979432567852730  0.1676505329412222  0.6680155028774942
  0.1661074486806572  0.6669905580568322  0.6687322408129636
  0.7501144281881056  0.5825289579006151  0.8329463348009306
  0.3318178131140075  0.6646847405184784  0.9987724741812701
  0.7494688587427971  0.0001138868087764  0.5852434429128156
  0.2473922216844661  0.5001217931602684  0.0040149856891532
  0.9145431035507288  0.0033148430725450  0.1691989137882687
  0.4154291915646470  0.9161542162335348  0.0825750316055454
  0.5807541361136032  0.5829324695720812  0.7513684411370214
  0.5002108640724802  0.8333271567347112  0.4168403393192167
  0.4979207133379085  0.9203920190745623  0.5044247425976186
  0.4144102202494844  0.8315945585277446  0.1656920103129550
  0.2456566022169726  0.6630699004858024  0.4993740439366605
  0.2485825683454043  0.1673052725189378  0.0008862077412255
  0.8349519305170942  0.8347888820481218  0.4163915859046259
  0.3316850193209676  0.0003291878020628  0.2491407414104150
  0.5823956055225463  0.9972827421736088  0.9992298078076394
  0.2489389831674463  0.0010589868591412  0.3348275580906626
  0.7481382308962631  0.9162377395501128  0.0810142615128659
  0.8287046676918918  0.9164473066288710  0.1660285937614508
  0.9994439595783037  0.8327417876263602  0.2503647482542500
  0.5021716049045274  0.8319964854448486  0.2515358598643043
  0.8314170388317969  0.7501346201817917  0.4149550358237468
  0.9147793005987362  0.8327414493746981  0.2499506337948079
  0.8321454422863982  0.6665084629315440  0.6671588662002852
  0.6658815119513241  0.0015609527195115  0.1650849695783231
  0.9984140127062031  0.6660088948709074  0.3337902908426004
  0.6669336425454662  0.0019144915501048  0.9988166968098162
  0.5823979425447477  0.0014430856638724  0.9143994840808176
  0.9977573621369998  0.6662859589531347  0.1664888859667696
  0.7473375973157553  0.0013943490831603  0.2491077992551348
  0.7501681303885789  0.0854075624924847  0.9991472803299852
  0.6652364050751541  0.0013104279798490  0.3326566421155295
  0.8312304260411126  0.7508225947678320  0.5845255360532174
  0.9985149233871909  0.8333334575133392  0.3352809773067388
  0.9973974742722825  0.6661811881514713  0.4998484471203347
  0.6663460256201398  0.0855443214843366  0.0820397970493444
  0.4973272504210857  0.8331844331549014  0.8343204416899459
  0.4983740432060490  0.8333479734379158  0.6682397089184234
  0.3318865164544402  0.7488069568906951  0.7513303691839631
  0.4969838240202429  0.9168617328322036  0.7516094347534867
  0.5827972583762296  0.5000100404315266  0.0835441698467592
  0.6659803386309877  0.0004986013923751  0.5011897686559973
  0.5823452215265321  0.5820864378920895  0.9998796269447673
  0.9152462919120198  0.7503583200201493  0.6667333909287513
  0.5828275687321824  0.5823144736594139  0.1666369858504586
  0.6641791360347563  0.9157087523650213  0.0813598493903963
  0.6663692320010869  0.3329271292703524  0.3334630948980919
  0.6655018255928981  0.7483060472682669  0.9163433698857297
  0.5826780185603754  0.4162376352435437  0.3327405199030353
  0.8321054387249863  0.1679753096581653  0.1662241375257283
  0.4975786020029274  0.1678824975678522  0.9994438252169335
  0.6662184913452154  0.1678976825161199  0.9996995530025735
  0.5818832672270938  0.3332083091943076  0.4172496831184800
  0.8318890656133876  0.5832627182973368  0.5836991231621979
  0.5816836037488943  0.3332083841555605  0.2495613703381322
  0.4149801572692493  0.6661035840630872  0.7496836042883945
  0.5820168170186465  0.1659483682191636  0.5838240268898190
  0.3314107972739451  0.0831433648535527  0.9168863476540690
  0.4138954832164641  0.0838675235668557  0.8336048446257097
  0.4153866591160907  0.4988701078101578  0.7499175290602484
  0.3329982021629701  0.1675782369448710  0.9998253170005124
  0.5826142262803068  0.3339080860245440  0.7518436687170893
  0.4984932786612910  0.3336574472905234  0.1653117624563689
  0.5831119054948165  0.4167887801869601  0.6671389802188261
  0.5832041338289397  0.4175277561775526  0.9997843920405595
  0.4990585167257009  0.3335824720222403  0.8344490168658690
  0.4980670206737984  0.4153880808088734  0.2495187144363082
  0.4149524423069422  0.4174263008462698  0.0012933334231617
  0.6647742131888377  0.2500578502873200  0.5837621830112695
  0.5825487869314043  0.3344100377914729  0.9177569538086788
  0.4984780013000670  0.4169908073811360  0.5838489098868446
  0.4984409768148746  0.4167433351742305  0.9176609333772763
  0.4987289437926011  0.4997802424071421  0.0004111498308589
  0.5824600947518433  0.3346790693135575  0.5828078114600741
  0.4970759511531886  0.0004494695311852  0.8339512584612350
  0.4998036827972466  0.2510122467362610  0.7510982825578444
  0.2485962499789986  0.0834703590909172  0.8326669891352005
  0.4146783773646335  0.5818560506494730  0.8342812970668215
  0.4987772012977821  0.0015788810872762  0.1647884153099714
  0.5817613668525299  0.1669756165422330  0.7509410436582065
  0.3322734139607270  0.9161247226755460  0.4173934917374294
  0.4992283413419450  0.2502195057770376  0.9165110650624603
  0.4143574443018349  0.0831498120514211  0.5008582363102504
  0.5818497497194668  0.1668861875398457  0.9161147052727979
  0.3316833204877154  0.9997255543532590  0.5003975342664666
  0.4987558717642290  0.2511687297765843  0.0824631825761973
  0.3319118627526607  0.9995738585293209  0.6676736513899202
  0.6658138609003399  0.1680567054175453  0.1651775439893313
  0.3314019531025887  0.0833330822378566  0.7504252467072346
  0.4152102111732622  0.6645195544984904  0.4166517057759965
  0.4141869949806343  0.9166033742085505  0.6677240233289654
  0.2489102466384373  0.7484351079974965  0.0002842064071347
  0.4140161004351944  0.0838402069955588  0.6682223223809626
  0.5822843297377261  0.4998288927668151  0.9172002569963266
  0.4148361253064565  0.7492402737671396  0.6671073396469692
  0.4978145679874922  0.1673821105208222  0.8335658700516485
  0.5829372140060917  0.6640314695198669  0.0832689956122091
  0.8334925559359525  0.9156896543087787  0.0807889812132724
  0.4975703902895754  0.7483967585839593  0.9170648280131539
  0.9156436403818008  0.8319222807951754  0.0825452883390663
  0.8319991275026927  0.7489521195333154  0.9158350958501134
  0.8311868795756576  0.5005271395162056  0.5009574085016620
  0.5844147088099151  0.8337791770288310  0.4161641315407140
  0.5823052079589313  0.4983086140979641  0.7510881555118921
  0.9161672527926150  0.9165649407208608  0.9991620125723646
  0.5830606997425130  0.4173521713811616  0.4995621012951368
  0.3325666267317862  0.7487881340700490  0.4167797144584133
  0.4990570906050084  0.4995197559245688  0.4998511386330172
  0.8315064062686146  0.9155136122973655  0.2501998557863304
  0.4136126319142320  0.9170483692196040  0.5008530275665890
  0.4971331259421156  0.5822587320115971  0.7505575172090504
  0.8321151122208263  0.8326760857126898  0.8332391760344681
  0.4147812371987067  0.5809061367470735  0.4995677727910548
  0.6645194603421427  0.6651478271031513  0.5000530388318233
  0.3322099150313987  0.8325726480813259  0.5002737234605898
  0.4979771776023056  0.0837974167995809  0.5845920401653819
  0.4992815368995367  0.1679608624432786  0.1650047889162413
  0.4990858492879944  0.2506603299698298  0.2497179346744185
  0.3323982678990656  0.6653594045137916  0.8343871909913481
  0.5828947986302928  0.1676884981819733  0.2486317763047068
  0.4975282437333709  0.5820824862285995  0.9176227103609168
  0.5825669936093052  0.2509958148195710  0.1649215282809373
  0.4148767105087032  0.7492837509056305  0.8346822058138447
  0.6658956079014721  0.2506009150917474  0.2492465697833794
  0.4153019595603684  0.9168461040338152  0.9989678575211289
  0.4991444806636925  0.1668281379521507  0.5012793746451376
  0.3319426045553233  0.9155277550512333  0.2500111623270512
  0.4996827898158723  0.4163020068394097  0.7512307563815516
  0.4156920715866219  0.9174898017768459  0.1665201112299540
  0.4987644156415120  0.2506320696470107  0.4183201951478823
  0.3322293425788103  0.8326724398044928  0.3337540612410616
  0.3317519927047206  0.7480003782940460  0.0820981466691943
  0.9152923777295499  0.5830431784899029  0.3338591168131017
  0.6654881299778432  0.4994134611659733  0.3324390186381661
  0.9155273753215428  0.0826341321883890  0.5009937366455124
  0.7487408081909971  0.5834054172916474  0.6670981766939661
  0.6668464983514064  0.5824868683861223  0.9162792397694918
  0.6657660981457706  0.6656293515514536  0.8337272772504074
  0.6657736087698077  0.4999645116447711  0.8348355459462288
  0.8322514908795585  0.0001945404939910  0.8334664842216105
  0.8339334429297701  0.0830932650351426  0.7498574162409221
  0.6652522616576279  0.7475772412468267  0.0823156369707211
  0.6659807278172276  0.4998785424091596  0.6675633652555054
  0.8300518716372712  0.9998562571787663  0.3321161594215427
  0.9160370841054684  0.0836871733211025  0.8327499365095355
  0.8318650573635445  0.0000076250762025  0.5009840971420960
  0.8336620313383091  0.0843893618448926  0.9161608500158621
  0.7500183969299909  0.5002152889092533  0.9165652730187488
  0.8313274948415451  0.1668272059717423  0.3332395419103852
  0.8335673588900140  0.0000270660893438  0.6686612410789621
  0.8328162160998051  0.5830085021180180  0.9162088184914150
  0.6662821020208978  0.6647796007405193  0.9987340150367588
  0.5825507035204212  0.6648395026565367  0.4168098778180978
  0.5820286006853403  0.6651350202786579  0.2494355602472899
  0.7484133915427291  0.4172356697739859  0.3327900462425720
  0.7487073837510565  0.6663702762014788  0.7508533230668654
  0.8321028715277163  0.8314751053540044  0.9981933939997134
  0.7486529148794845  0.9160897403518302  0.9978065390020791
  0.9969437724063305  0.1673312300959308  0.3339761950265239
  0.6657260148884261  0.5001381658324320  0.5006162351248372
  0.5821525775078539  0.5822902722653729  0.3333099590830579
  0.8331578467756963  0.2520353713226121  0.0836514843916962
  0.5848509031541014  0.8332271403427058  0.2490154435139791
  0.9154956119540801  0.1686054829473690  0.0827589712895278
  0.5819631540308882  0.5820835336170891  0.5002797756885083
  0.6647144392886162  0.5823900820559490  0.2507348856597827
  0.7489310817461002  0.0846942830047678  0.1652179169900564
  0.7491202634960069  0.6657927833440007  0.0827502918023179
  0.7488331307250793  0.5825397615347770  0.3325299201198478
  0.5823662864315441  0.2511083872216244  0.0000136665109173
  0.1656946725587986  0.5820116679871765  0.5837516169990334
  0.5806672888090217  0.8331735762655726  0.7520215594834648
  0.5811636882027009  0.4994606826278761  0.2490427059629554
  0.8320416880421622  0.2503583061168214  0.2499291959818490
  0.9982099994565913  0.3332387520532394  0.1668571924736690
  0.8335253546579464  0.3333180965224848  0.9997306957643599
  0.6661615853354373  0.4171256476393437  0.0833421681362513
  0.7496830851288412  0.3343522441649279  0.0822474075104752
  0.8320702640574045  0.4175425409775327  0.5845800085502972
  0.8316877352528840  0.2511032498948634  0.7486930685371751
  0.6664436819314369  0.0016172501219013  0.8342291297749974
  0.7496852473887062  0.1679814801154928  0.9163998273904880
  0.9158425112808147  0.3335958922399270  0.7497581700390148
  0.7485141743737581  0.2500698387218901  0.6665727270254986
  0.8327028438571317  0.1666162838967646  0.6680735583595576
  0.1652477678308791  0.0838275881458931  0.5836844676103918
  0.9988273143539033  0.9173282484513120  0.2502987242741322
  0.7467638407993792  0.9171356583834762  0.1647793212231765
  0.5827449717987274  0.9179115487232075  0.5012431938300878
  0.6651890082471810  0.8340298160004053  0.3325370711576566
  0.6640671494268623  0.8344853451082428  0.5015389440658469
  0.6652895217695335  0.9174358474315577  0.5855586804738653
  0.7475999615967585  0.8325214379651369  0.5839842152586813
  0.7485046449448950  0.9172135417428650  0.5014076704440065
  0.6651782712444843  0.6654567272216321  0.3336686774143676
  0.5808597706758544  0.6668834556048893  0.7518664412943712
  0.6645617740889862  0.7491123600783300  0.5838639179076883
  0.7482483397066484  0.5828853574749486  0.5007698459017873
  0.7484761506004103  0.8326126099100710  0.7514749588678554
  0.6650303192367397  0.8325278751129186  0.8335048876818338
  0.7488577993224971  0.8323998426507789  0.9155028751996765
  0.4160252725871038  0.3336390518295774  0.7500053068997427
  0.4974669920710020  0.0836960258466650  0.7520390003302306
  0.4150968319437442  0.1671601316590339  0.5834430244445341
  0.4150820334554570  0.4996926651578882  0.2501751680205710
  0.3314324217952859  0.4158985007552665  0.2503939437705205
  0.4150561763241777  0.4993861008861240  0.4153539589024777
  0.3315401795541209  0.4164008966836575  0.4155872997156400
  0.2486541576047964  0.4991319864551087  0.4160696042244304
  0.4148848242101914  0.2510347712193408  0.9997970473337545
  0.3310820677388142  0.2515082862593284  0.0829643881593381
  0.4987986510272695  0.4995146833807333  0.1661257334739435
  0.6648725046721264  0.2506763961660501  0.7509846120203698
  0.3321888819112361  0.5819385843299201  0.5837943711520908
  0.4154138550625194  0.4995951911020522  0.5844165885006287
  0.4153723670500441  0.5819070534765011  0.6668578926585016
  0.3318474954911238  0.4991537798678899  0.8330198677672122
  0.3317030304759437  0.5816606442720208  0.9162785442077950
  0.3310332768210618  0.3339072009019127  0.8329692460646808
  0.3320127153866663  0.2496193636000501  0.2498392553658584
  0.4154551984667532  0.4166523762714456  0.6668246261825739
  0.3320521051885267  0.3335624630429878  0.6667424649774711
  0.3322059157122066  0.1670343058672363  0.6667795023496016
  0.3315539885654186  0.5826252927043217  0.2501299960082601
  0.3307228827811597  0.2521414339849991  0.9168750567298033
  0.4970179914541344  0.0849230312630785  0.9162482628912413
  0.2487429748926694  0.6651992870542063  0.4150664382938656
  0.3319609067915114  0.1677929866789163  0.1647627354472558
  0.4155153257318279  0.6652342473154019  0.5836454729256825
  0.3322515588508449  0.3345920354065806  0.0002735998224871
  0.4152571232408392  0.3347362937366877  0.0833759804352111
  0.3325671412124608  0.4992568407914907  0.9998243603022879