Cr  H Ni 
 1.0000000000000000
    21.1200000000000010    0.0000000000000000    0.0000000000000000
     0.0000000000000000   21.1200000000000010    0.0000000000000000
     0.0000000000000000    0.0000000000000000   21.1200000000000010
 Cr  H   Ni 
 259  17 605
Direct
  0.4939401122299465  0.5831076094679177  0.4170469051773755
  0.4969743069516659  0.1672920672681950  0.4998969331022990
  0.6639073974453873  0.4991421551418161  0.6661342303362022
  0.6640796729441235  0.4991893134057960  0.8326994166225663
  0.5806215208803813  0.6666490568785584  0.2496814528696165
  0.5817318061429146  0.4953282155954243  0.4182008438931277
  0.4979174139701408  0.2502563880647277  0.0850167875201777
  0.5798631313925188  0.7484498562463375  0.3327950327949796
  0.0790558187777509  0.9158016880097286  0.9997942684975466
  0.4977451164269164  0.6667598269384196  0.1672278701981835
  0.4135469115400768  0.4169925710143321  0.1682345121490849
  0.1641352567166845  0.3348752702139389  0.0002318794474048
  0.4983799322204995  0.5862510973938432  0.0835127365064852
  0.4965415009534734  0.6663010566204470  0.6671970784035682
  0.4129485630738602  0.5049766970174443  0.9171844412327470
  0.9959693750859941  0.9979791024548217  0.6660526381610761
  0.4147152584636271  0.7493807731101672  0.4999549497498319
  0.4966586072071274  0.8344352708164899  0.6673660423151269
  0.1631159734771212  0.0831292739883420  0.9154578268522464
  0.7458345703841718  0.2498664354866296  0.5000223146403605
  0.5796770476230840  0.4164797246680119  0.5006948566358207
  0.5810759130158369  0.5848332934059779  0.9981557188357105
  0.9958261606703365  0.0813950750362304  0.0829532623844393
  0.9927876809652709  0.2514311637611629  0.0831138698479233
  0.4128183058701509  0.0011089933181072  0.7498713359408786
  0.3287518225302686  0.4161329194517971  0.4177074445985946
  0.9134796322971261  0.4181127691425643  0.1664916962261510
  0.4972917148958359  0.1658228124928587  0.3334368839308580
  0.8310453430080593  0.6654306631586641  0.9995721653990428
  0.6633518193157298  0.7499588856498204  0.5840583596923438
  0.3291132886055448  0.5844224016398609  0.2499090537010624
  0.9976143282996027  0.8325834820906561  0.6675973444783366
  0.5804420638829138  0.0843062937742675  0.3339606654067607
  0.3307508816301720  0.2505903697741640  0.0843970882118124
  0.5802809679365546  0.0002867494868026  0.2508150047952430
  0.9974338327580020  0.1676077924012288  0.4987741691779376
  0.9975642670633202  0.5005539670142204  0.4998479059429638
  0.6634365910226437  0.1669227597021327  0.8357319462730618
  0.5809048906092953  0.8326733515750510  0.9162463353626804
  0.7479854977175888  0.8329506588864567  0.2516033670897615
  0.8307661381763747  0.9989784358502014  0.6661104607274883
  0.9968208049887928  0.7492380693849927  0.2492107447184079
  0.1633960907428871  0.1667351026632145  0.1674806037266412
  0.2462576930735242  0.1660208838676583  0.7497008718408188
  0.4963790949600000  0.9154386539019239  0.2491350502543267
  0.3315670111673170  0.2510639556482925  0.9165302902185812
  0.5798046948242359  0.4998512606312170  0.2495088446661687
  0.1646556093024928  0.8318025599720901  0.4993463001252556
  0.5808363267055883  0.9995149863324985  0.5821132859864597
  0.8291901340024258  0.3328026122200181  0.5002021910999930
  0.9961631918275178  0.3338116402380006  0.0009180982884363
  0.7492939384023499  0.1676294578921003  0.5819950389932690
  0.8316413279990740  0.7501877511980350  0.7506105881740663
  0.9135328707874809  0.4160924144525310  0.6665950624911003
  0.3289201836651357  0.3331571138193375  0.6669346126160989
  0.5808097263845587  0.5006779381482706  0.9170059570534109
  0.4956458767987350  0.0010466053580049  0.9991207086965898
  0.5811607220114973  0.0010360030148740  0.7508377967402580
  0.1630301018376908  0.4995310013202316  0.3331632113100582
  0.8304647165568482  0.9989730567592138  0.8342464632716912
  0.7463051403441027  0.1673530642717523  0.7509298919475669
  0.4969772900908023  0.7514948905230431  0.9144706411250850
  0.8314386411203222  0.4987094251750636  0.0001396637566090
  0.9964504144039784  0.2507648809358795  0.2503363687171274
  0.8315286026723131  0.0838112315313291  0.7500647763547460
  0.0797025900348400  0.7507461979947320  0.6668525065591400
  0.4127104151058453  0.7496013234935042  0.3324170438968493
  0.8318842602261540  0.7498956338114116  0.5844108768708182
  0.8283037442313300  0.9150668523402677  0.2496308757989880
  0.9965122464592744  0.0836261521448376  0.9157894256871756
  0.5799785190435383  0.2499528720528515  0.1653939712164565
  0.9991356528373058  0.6679873274892550  0.9997229000848851
  0.4132515305208038  0.9175776195317884  0.5007541370950450
  0.9135233665045072  0.7494820789618741  0.4994180932831982
  0.5796825605706791  0.0026270622681984  0.4159519470472555
  0.6639049237372529  0.9992549341574893  0.4994363945843887
  0.8297689117021797  0.6666073941969478  0.1670940961976083
  0.2472595377678638  0.7511787308853402  0.1670829821641828
  0.6641546198899577  0.9144129395487284  0.4178181598569287
  0.8303499481558946  0.9165316395968488  0.9171579400912779
  0.3293363585536246  0.9157580822663208  0.2505696431124462
  0.0795430729479209  0.5002361066099379  0.7489018988353248
  0.3297441501537209  0.6671676804055090  0.9987992258525725
  0.7470782553593368  0.5819041301074022  0.8333027827740401
  0.1616962851686754  0.5827122085431061  0.7497621094476434
  0.4970006936898682  0.1653829985231003  0.6669685051949910
  0.4128762342465208  0.5012850087500732  0.7486857812833906
  0.7490108299125340  0.9992904122760963  0.5828714978302875
  0.6633338219583397  0.0853506833493919  0.9171314628250092
  0.9976177455628804  0.5820608842796977  0.7493916092330846
  0.9143882383055452  0.5831206913005529  0.5007927887057660
  0.9958884291496547  0.3341629538867346  0.8334988196659935
  0.4143652543007031  0.8329657078206190  0.0847328334566749
  0.2453243109167483  0.5823002177673361  0.4999049834363313
  0.9966113236197582  0.7500784243450386  0.0833089405010230
  0.3298292716945710  0.8324800608881572  0.3343366360849974
  0.4131318120255997  0.4156769206288964  0.4995632327393881
  0.6634684586874261  0.2499287705131100  0.9175587045735808
  0.0783125587278667  0.6643009066282278  0.4171464946598932
  0.7474379234127579  0.1670625214622428  0.0847565372176940
  0.4122247510182263  0.3280257318695979  0.9178991495432900
  0.8294994263856861  0.8330244332541458  0.9998328127920300
  0.4967125199547415  0.3339496327659911  0.6671831588153132
  0.9126640958204421  0.7492817182176743  0.8324879549877152
  0.3293659410420869  0.6671354951005056  0.8333067805540449
  0.4931512205337174  0.9155897139207833  0.4182898012312806
  0.4125356224975398  0.5006516849850008  0.5834913201148406
  0.7468639018622688  0.3338999895368216  0.0805932832021769
  0.9135415341681127  0.4164385513423791  0.9999902733877638
  0.4960797917495072  0.0811543111037704  0.9176809994013062
  0.9141613077969223  0.4172496119377350  0.8337751340771044
  0.5791719918379425  0.1673795077963167  0.4151408596422975
  0.9962442701163245  0.5829115667302242  0.4174618785480596
  0.9122482604419466  0.5842047190367692  0.1653952824648054
  0.1642030440864791  0.7484458857354018  0.2506101263129771
  0.9139094488454912  0.0842067534870800  0.3326318726913428
  0.9966102007848522  0.0003730760929605  0.4993015103063705
  0.0800447872618796  0.5014556710966698  0.9176131546633196
  0.7463597895410062  0.8320266465978307  0.0816218011893296
  0.0796661524422818  0.7485799833752262  0.8334302119347462
  0.8303302079052173  0.0006590510668827  0.0002034534938809
  0.9966762117171281  0.8320416593321954  0.3325128415093814
  0.4138760733798407  0.5819289204987322  0.5001844341699455
  0.3292912448676190  0.9984361051140537  0.0000807016716955
  0.6640974219262789  0.8320009880373856  0.9984658940406074
  0.6649294476730362  0.1666034219591248  0.4971332572596345
  0.5799188432014293  0.7507329018012854  0.9990005106326540
  0.4959681043461723  0.8330525338694086  0.1662626601979617
  0.9155736207967541  0.7501477395233624  0.3318602082110015
  0.2480189451352170  0.6662379350412081  0.2515121060281984
  0.0802096416773661  0.8330374346875459  0.4160114785036600
  0.5798176491309394  0.4159723599094675  0.6672756499420922
  0.9982748134070235  0.3339188926838794  0.4995939937210473
  0.5835288993491229  0.4176116029549586  0.8340263697640806
  0.3289855863444686  0.5830728073853249  0.9170157020786783
  0.3303881889957197  0.9187913224458588  0.5840387391840037
  0.9137789752312844  0.9182684460506846  0.8343616526304966
  0.8306943031379186  0.4991888432727184  0.8327614821371153
  0.9154661470579094  0.1676476400263880  0.5832790642398096
  0.5786613288242288  0.2488740970181424  0.0018626103172233
  0.4965831175402349  0.3335829268327496  0.3324413062525092
  0.9156792794118188  0.2500346481529741  0.6648314268302334
  0.8300360167791020  0.3347965683113337  0.3334348406409210
  0.3315788212763358  0.2506883393957646  0.7483502540290837
  0.6630162905110755  0.4178614272714526  0.4163708980937910
  0.0791361538661994  0.0000002413647755  0.4158964822755668
  0.2462986194233159  0.4196655697984822  0.8328868233741029
  0.7484202839702041  0.5002451756109437  0.2499195514738690
  0.4121994071337872  0.8343839477051166  0.2495207773564388
  0.3293179447780154  0.0829060586390635  0.2504308756322459
  0.0795322266608547  0.4997018166123148  0.0843716315274385
  0.2463879245093971  0.1674830366246665  0.2503871891308080
  0.1609708521791566  0.6669514249672533  0.0000641190721344
  0.2463386966509127  0.1698705368880642  0.0865798904490594
  0.9973721972744367  0.0002676190576882  0.0008210167048404
  0.6640804083613475  0.6656394553978536  0.6672069572177152
  0.6641442828769252  0.5820731335337960  0.9152236017673304
  0.7476221451777316  0.3331714070911233  0.7498734908727455
  0.9144319969574582  0.9998756357515329  0.0837850644544751
  0.2459550768775998  0.4157749838921406  0.1675729799109522
  0.0791203637321796  0.1660704454629844  0.7494050784210778
  0.6674184172158072  0.5827737425972002  0.4177059405303096
  0.7474194881973718  0.0005743763766990  0.0833840183222006
  0.6635492922912161  0.5822775404862045  0.7499690896879908
  0.1619215187027813  0.2512545888922766  0.9165086964284604
  0.2467094849349492  0.3329800639363499  0.2508890311241688
  0.7481428370121711  0.2526436084273617  0.3329508149073564
  0.9147002223207631  0.2511466312831209  0.3326841072031307
  0.2451321866122220  0.4157843908895078  0.9998513661079984
  0.4963182100055365  0.3349925407912283  0.4997780103061493
  0.0792243125134549  0.1670633151795489  0.4176887176365889
  0.9958554855431204  0.1662932579351062  0.8333828865477262
  0.7466178365332481  0.1666048312197584  0.9161515546482372
  0.8305852243203931  0.2500324985882881  0.7504185262125836
  0.4963048416681616  0.9171220558234449  0.0837384634159055
  0.7476753143582272  0.3333346829377384  0.9176352094660474
  0.4967949367804058  0.1653632852432296  0.8343797648503107
  0.2474128977743309  0.3314986184011818  0.7460862822195506
  0.1638213444173362  0.4162419185512893  0.5823547489204357
  0.1616319435829073  0.0827206956667091  0.5828820434281098
  0.5808648430908009  0.4171745757993496  0.1686152295069148
  0.9963094992566038  0.0831848221920674  0.2510272296297079
  0.1617223605455244  0.2497580246461629  0.5831568785344780
  0.2467372219329269  0.9181333766818646  0.6657501321619222
  0.9975423170647967  0.8328028500092612  0.0001737051079859
  0.9152446727377502  0.2501195758418200  0.0015496197387106
  0.9134530697047580  0.4154423466230641  0.3331653908884781
  0.3298169913327152  0.2506091844960081  0.4167513566567357
  0.3306406911398102  0.2493768530626918  0.5850479261748970
  0.3303755204748802  0.0815849488311590  0.9162153017772142
  0.0806929815791791  0.9171394255032508  0.1682792779485156
  0.8313192079196331  0.0850124694000336  0.4158796950109945
  0.2464905331355646  0.6650581793873946  0.4181367988793416
  0.1613252792651555  0.9998553309251211  0.3351744569233064
  0.6633162785554931  0.2526574008626658  0.5827776705455107
  0.3303588381260867  0.0824316320657338  0.5832837648433752
  0.4124740799187960  0.5000655017504192  0.2497813597153332
  0.6647992632660030  0.2489270378595558  0.7509116817109395
  0.8306001392412065  0.4992842354853528  0.3331104394191916
  0.8338742164141540  0.9163390691064346  0.4159612008495100
  0.7474608890493620  0.9181673543132289  0.8343591511794753
  0.3297209914071328  0.0842445703076123  0.4162858690406886
  0.9130110009125186  0.0821265020528035  0.8343240277618806
  0.9976816750452637  0.9157706004123509  0.9175355823500940
  0.8307800115411800  0.5813598336188751  0.7517772709790708
  0.3308420211549983  0.5868053261715028  0.0814334708494622
  0.5798441519503409  0.8311367875044652  0.5842640355485927
  0.7481864566141093  0.0833426912729418  0.3331219322850761
  0.9149039712380214  0.9172055031928785  0.6652639840880260
  0.8302411282065774  0.1677373616055340  0.1662777075297063
  0.4976554250949012  0.0009276275741685  0.3329770279390511
  0.0797904211536600  0.5010990855563271  0.2498321851639935
  0.7477847145295226  0.3326392274909795  0.2549405084554160
  0.3292527458189373  0.2500747670555526  0.2502899227072354
  0.4134950514517099  0.8336701981900231  0.7487669855877922
  0.9148315758361778  0.9989847134253781  0.5825822211361712
  0.4114127712272508  0.0823737896388055  0.1669162312879912
  0.2468208942156616  0.9174904286556479  0.8324389174560206
  0.1646000772224711  0.0005551159701952  0.4996833283326725
  0.0795891471266800  0.3335242553245534  0.7499714574304409
  0.5799748980658433  0.9178473157243459  0.8333095080017140
  0.8318197160363759  0.4987306358922578  0.6673213812536994
  0.6638447051778352  0.5831955681800938  0.0818815065714565
  0.4140102171312592  0.8328812103761006  0.9167407935340841
  0.0793522242601867  0.3334484847205126  0.4178709289539634
  0.7481409225230237  0.5833689025846180  0.5005830104617751
  0.6626444064714869  0.5836405129348811  0.5850380279663765
  0.9972987276279069  0.5003031631214054  0.3329125681068720
  0.6630870314061562  0.0012078790161165  0.0013328580228774
  0.6655371907513975  0.0840810177648069  0.7504360478097883
  0.9969339924114209  0.1667589374197846  0.6666330945535927
  0.0792381993307189  0.5823145580327008  0.4992472249534206
  0.2469034139379142  0.4152464267984389  0.5002359534631318
  0.7482907154597211  0.9180128482001030  0.6639838258326638
  0.7484166281541546  0.6656342280449908  0.2497646507255178
  0.1640220442351379  0.5830077239919212  0.5828866911744670
  0.0806501310032262  0.9152389838787679  0.3333615400163160
  0.9968148696609649  0.8310205630617103  0.4990019469158378
  0.6635974159340293  0.8314435167782368  0.5014848114123397
  0.2464083895769826  0.8334452225392051  0.4184362196999419
  0.1629984629112402  0.9985215523658788  0.1682653100326489
  0.7478173852412460  0.9168100269830840  0.3304575731106157
  0.0801826787316948  0.7501905183026571  0.0004320985879969
  0.0798988426147736  0.6666781085737811  0.9165482162390849
  0.5812151698541188  0.8331246786612890  0.7497121346741766
  0.2474767656138069  0.4989691589498046  0.2498163731173837
  0.2462352313228471  0.7492039474021313  0.6673900463030720
  0.2480515073285195  0.7489090484256334  0.8332767429659581
  0.3284009153721260  0.6666156703539040  0.6698643022383952
  0.4116538963907063  0.3313352835385842  0.7496075672209589
  0.6632835339429310  0.0027258820490015  0.1681150477932269
  0.6654392082517944  0.7502962497873492  0.0821969575936450
  0.7476014767521634  0.8291109981864250  0.4171870100179947
  0.2476468411565563  0.9175460145485500  0.9999302875184475
  0.6648839172410457  0.9154943048160312  0.2530662347198540
  0.1626707387880731  0.5835112855016056  0.9170345548661902
  0.2466401303873458  0.9954199307238427  0.0816268227297626
  0.7490169554077679  0.7482413855391609  0.8317341668327626
  0.0804638173298259  0.5818766720259750  0.3324489805079583
  0.6631155601372286  0.9147831692509587  0.1647915800071492
  0.0828602771737049  0.2502659856995684  0.0843095598719005
  0.7485505856717344  0.9153114244624613  0.4174158544275818
  0.2464416268601886  0.1670042038830117  0.9961179845522766
  0.2457190139140336  0.6679739379851822  0.1621731386952959
  0.4977725802380178  0.4958616588607332  0.0829846898915403
  0.5787397699913076  0.9151858407885891  0.4169224788282487
  0.3292106234567364  0.6658605579301343  0.5801980316545958
  0.2453187624558399  0.3304095629887300  0.8352288776606601
  0.3290692724650575  0.4960147372981288  0.0828743365112698
  0.4932315002792684  0.4162317437242155  0.8333449488559794
  0.4124655494821767  0.4165530934542431  0.9179411939711142
  0.6617215004856793  0.1654236682030886  0.5845120845246256
  0.5808540100758395  0.5834708967470162  0.4168987419866766
  0.7466391709179279  0.3334440160277156  0.1678173152560817
  0.3296409699115654  0.8300995402165184  0.5832123657228039
  0.2462021048197307  0.0824273097135284  0.0824209237845119
  0.9970480102666300  0.4996601107202222  0.0007390781401857
  0.1638179792220883  0.4997540180429785  0.1677424528939867
  0.9970315014642784  0.4994978777823624  0.6660224661668142
  0.0807054597524197  0.4994712660550659  0.5833145675800476
  0.0805790603713393  0.3336706312240668  0.5825997257726251
  0.9975818464367145  0.3336047659179412  0.6671448535440496
  0.1629841760847522  0.4166784482476016  0.7499441967150549
  0.0806832313794906  0.4162297745162085  0.6664441501764541
  0.9962564567614443  0.6662012917009559  0.1663586087095548
  0.0806833828962945  0.4986736209258322  0.4164731141457956
  0.1619525707398649  0.5004379759794769  0.8332286908596367
  0.9967349681863835  0.4170741371535607  0.9170385874600481
  0.0797017722252622  0.4166063871391020  0.8331572150357959
  0.0795431653642084  0.5833543189492927  0.0011442144158615
  0.9964184072129858  0.5002811698769917  0.1668650896579689
  0.9967801593419112  0.4173132971984904  0.4167848733018364
  0.9969698379466916  0.7499799481462488  0.7508727460491476
  0.2462061112304138  0.9997193334259854  0.2510464134036405
  0.9126167158582712  0.7493321957745608  0.1665388224575535
  0.1625630257560446  0.0816666362168350  0.0848790797044529
  0.1622841863775632  0.6670244257173564  0.1670338638933056
  0.0801686874148415  0.9991304556709504  0.0840837850119813
  0.9970393865163449  0.7484797310646161  0.4161861483869662
  0.1636271476442446  0.9158117357144444  0.9162409009664800
  0.8303950836664705  0.6662331563943589  0.3330240420329228
  0.3308661154958186  0.9152560713264307  0.0833720095261626
  0.0798864075294913  0.6659540719069974  0.5833348814598642
  0.2466923558275380  0.0002445699357927  0.4170536782164587
  0.1632590210436646  0.7504414624909876  0.7503472118777327
  0.1624905133222101  0.0832193513617025  0.4172732801504231
  0.9133210402022630  0.8329388683628063  0.9163596470249218
  0.0804270752144816  0.9163815134848662  0.4989027898406696
  0.0800945018369813  0.5828198495112069  0.1669680021077618
  0.2465253511919858  0.1663529605969342  0.9148979884036667
  0.7473124622605366  0.3337023701050442  0.4167483823200737
  0.7466306509702771  0.2493041854693764  0.1665835906176687
  0.1630140625869535  0.6664802828169121  0.8328449216918191
  0.1622112286382187  0.4169653173883481  0.9167590795247028
  0.9977719056053119  0.6668794684629217  0.6673518896024623
  0.3296831653000939  0.5835069328669844  0.7502377805628683
  0.1635260209717302  0.8326242360103977  0.6669463597678548
  0.2463649384831360  0.5833702590115999  0.8334239907582240
  0.0802690638336169  0.8331966613813102  0.7501998376990037
  0.2463311349818584  0.6672039911775336  0.0801846898416537
  0.1628238665084115  0.9164764859243812  0.5826494160773202
  0.3312238511667214  0.6664640309144266  0.1659990030894542
  0.9966724764109794  0.8327520214584203  0.8331909597069894
  0.0804931799011012  0.8322641222036428  0.2499881670253888
  0.0809133327615735  0.8319053616406101  0.9153790872489727
  0.1637683058182710  0.8321502254730507  0.3344104204858226
  0.1629088041072879  0.7510182371833621  0.0826108441880087
  0.1626460081916839  0.9157067401646137  0.0835397478104289
  0.0801254850739601  0.7496469452489286  0.4994639552497830
  0.6641546259885932  0.1671544140437429  0.3337717343198622
  0.8311792147160295  0.5831441739719097  0.4170526060794800
  0.9976420989181527  0.4997028232979411  0.8329852635388733
  0.1630311879115988  0.4169024157622095  0.0839395670399156
  0.1636502234138978  0.3337842979904597  0.1677802992979175
  0.6641002683293503  0.7487597032818395  0.4173831986499285
  0.3301450504896712  0.5824769707474696  0.4171454558388571
  0.9138811325337651  0.3335174905701089  0.9172941349696999
  0.0805783088152100  0.4163110644627735  0.4999306644031711
  0.9130168174719726  0.4988547335543098  0.4169193025781626
  0.2463545504432984  0.4993115904900803  0.5827755200311618
  0.8311897554997077  0.4162604588208870  0.9171385151317248
  0.1633147352883627  0.4998171976965960  0.6663213555447951
  0.5793831248919760  0.2493493811611182  0.6674394261236867
  0.1627762711746857  0.6667625443704945  0.6672204111076179
  0.6636236643056231  0.3328687664905420  0.6672675490331181
  0.2455203064818866  0.5005957569530036  0.7501627821696457
  0.0795557212209294  0.2497757234110136  0.9990794832028028
  0.2457865332267385  0.5830998065723831  0.6673157127871124
  0.9972650264937507  0.5829098553710161  0.9173758983051417
  0.8304765782873323  0.4173535596925677  0.0834612931902438
  0.8296041756917488  0.1677777245061275  0.0014501550339532
  0.1634784050538274  0.6655235789201472  0.3337535002649669
  0.0792033942244785  0.1663166474303187  0.2500762684778279
  0.0804787798400432  0.8335476177750228  0.0845107481160182
  0.9967982969291549  0.2512225529675127  0.4167192003110572
  0.9967954461857945  0.3336660157747007  0.3329817436542810
  0.9982692826610355  0.2511351674753712  0.5824452587347962
  0.1632412711806167  0.1671095218240758  0.3335920316086336
  0.2458204617921193  0.4165498563835040  0.6666350666889748
  0.1619017757268703  0.2499343896044705  0.4168020895219345
  0.1626723116700940  0.4997004376336483  0.0001905151188477
  0.0789083663449783  0.1665356459628978  0.5828153645912904
  0.4975274030204339  0.4147213583111520  0.0846891702121162
  0.2467974434313934  0.2480035897251888  0.8324927062033899
  0.1629665837618392  0.9987521556343246  0.9995628111032384
  0.0801544211181963  0.2499415794298448  0.4997954862444765
  0.9971853652038581  0.9162125773812859  0.0831416043622260
  0.1622104795335490  0.5820789586377938  0.0831003806482943
  0.2457924740434115  0.5003254070160131  0.9170804170682426
  0.9136382300536868  0.4999887478634787  0.0832100053584517
  0.6634609922010207  0.2511381384203323  0.4162465851580014
  0.8317156958292115  0.8315450258897791  0.3335861404875851
  0.5781473358595761  0.1675095762196870  0.5823519000852602
  0.8309324276938506  0.3339124926495843  0.1669744875355039
  0.7473649056131024  0.5008495509068818  0.0826188515764593
  0.9964651416886487  0.4169848093825521  0.2495610025010079
  0.9134665354887825  0.5835414746291918  0.0003820742982258
  0.8305769945939450  0.4172604778088120  0.2496937596758500
  0.7474142536917460  0.5839438791762763  0.1664242160495701
  0.9963222777799943  0.4174592963394463  0.0836745019167698
  0.8307433653658577  0.5825976684355564  0.2499828663315638
  0.8305801008556034  0.4164856913133363  0.4170783532881451
  0.9133473901065207  0.4997613078621703  0.2501475001441272
  0.7465862374969954  0.4181676658078388  0.1670072689412293
  0.8306868194657836  0.1679696627561637  0.4999104159663127
  0.6637185982986945  0.4172772861735372  0.2506013056110701
  0.5801121537887201  0.9167866421768697  0.9996356633591300
  0.9958347791280671  0.0827999184678374  0.7497764144453559
  0.0792073893042561  0.3343433032389354  0.0829883955122417
  0.0796117601500921  0.9990967194736696  0.5817941830533930
  0.9965910686173604  0.0005354016723308  0.8343274584441357
  0.0795538866947453  0.9994855811776668  0.7496708543247989
  0.0795014303275906  0.1665632878100153  0.9165414282014972
  0.0794020803518564  0.0828393385690735  0.6660075945667739
  0.2464630261963093  0.7490232995601591  0.3344413757856456
  0.0805386534131350  0.0004469868059948  0.9159943212667436
  0.9965262641098467  0.0839887118746695  0.4160932210818312
  0.0803134536245227  0.0833095455860214  0.9998836717381632
  0.0799070466730771  0.0838125633031268  0.3335703958375979
  0.9140159761773481  0.3338788858734827  0.4172867029855566
  0.9974506130712211  0.0829660930628499  0.5829295024751343
  0.9967398014428851  0.9992888543365843  0.3331260307089963
  0.0794841599289128  0.0833231874151058  0.4999898914538376
  0.9963688897803302  0.2504768663393070  0.7501413170917358
  0.9137059073772273  0.8339873344975327  0.7507840376865605
  0.9148545643468926  0.9154580263001593  0.4999029348933852
  0.9145178919613287  0.8321271329535702  0.4163980572011985
  0.9966248547154476  0.2506116751292621  0.9167198253394389
  0.9962302761777952  0.1662128828032591  0.1675453725370864
  0.9139507698015973  0.2500951493982056  0.1666960570079979
  0.0793783609109794  0.3333667709649802  0.9172620763113201
  0.0789565993974072  0.3332154862017527  0.2500938253681108
  0.2465631233782720  0.2510181436252025  0.1678551581488115
  0.0801858118904596  0.4172860543721062  0.1666951390220418
  0.9967505611382429  0.9997362646858087  0.1671866086629459
  0.9967090673518749  0.1658328833748388  0.0004112411964044
  0.9136685727758844  0.2498892210072466  0.8334695999482050
  0.0793627520823286  0.1653385120902344  0.0837789719308169
  0.0797112060103038  0.2497640620183946  0.8326695794151422
  0.9135686763756317  0.0832548973439866  0.1670637583726508
  0.0801015024989333  0.4168463546832662  0.0002559482355427
  0.0800149809083162  0.9997296112419850  0.2508893380823870
  0.9133768640099104  0.3337344668539990  0.2494637777548321
  0.0799424022544312  0.2498567315586131  0.6666817538799537
  0.4966478773943711  0.4998719508198269  0.3336081704649633
  0.2468327027809318  0.9171942526283287  0.5004613049604463
  0.4966907850681720  0.5012845310853929  0.8334868151231979
  0.9964370972986750  0.9157117965336293  0.4170278158600567
  0.8310072751132239  0.8315065657757621  0.4996864488630874
  0.6642783149224040  0.8338357235630420  0.8326938422972650
  0.5792957593644773  0.9161969646585365  0.1658760691847619
  0.8305515448903603  0.9169142433212720  0.7503221730269164
  0.8310655666965882  0.8339506230089160  0.6671282813545566
  0.5809830660467608  0.7496282652199571  0.1665647756795131
  0.4956403802784345  0.8331035575831243  0.3334530865853756
  0.7482150668660563  0.6660676608809373  0.9159924598793727
  0.7470858084176494  0.5823739817312729  0.6673146138954088
  0.7475643409636922  0.7497092819210445  0.6667944031449273
  0.3302383885941740  0.7505827234837817  0.2510036285969061
  0.4109568907084286  0.4171602819270914  0.8319018592575073
  0.5815900148324203  0.5835269406487028  0.1663618695772968
  0.6631992950580344  0.3340560359456982  0.3329672520057426
  0.5803431628986518  0.4175869808106331  0.3326954953641703
  0.5792015899605424  0.1664351412890460  0.0838126450305914
  0.5798221143447134  0.3337691044939427  0.4168034562632166
  0.5796848528858559  0.3332197612554739  0.2495334161997547
  0.3297183774022613  0.7503340140788221  0.7498284387955737
  0.3301662571287109  0.7484854348284808  0.5835701465092770
  0.4138757899976805  0.7490431020614956  0.6675126229384746
  0.2458018454259006  0.6668854415980737  0.9166683626793956
  0.4126976714388362  0.6668812362506631  0.9164033139096694
  0.4134218829864308  0.7505799591152068  0.8326766886209773
  0.4966690969323735  0.9162361317677422  0.9167046524537918
  0.4131292496667208  0.9995149076906884  0.2507681498169465
  0.4123571974240991  0.9181553524363366  0.1666941286932323
  0.3299987935473364  0.8333624066447018  0.1674041356961545
  0.3304598092395662  0.8327333228879453  0.4987998846078991
  0.3302526470777838  0.7507225083845025  0.0817979998414892
  0.4137912714249565  0.1662297996190943  0.7496336692343636
  0.4970543566884141  0.2493448163689190  0.9171891696426382
  0.6638002315545755  0.4166470427911689  0.0836969376170273
  0.4966515102222023  0.4163092044008247  0.4161828472659743
  0.3302065361093961  0.0827089632203945  0.0839659639273933
  0.7479595845502087  0.1679251926398258  0.4156401755033868
  0.7476202230536966  0.2497525203484509  0.6663639797008583
  0.8308960296134447  0.1669876933097592  0.6664723524292852
  0.8301310898331563  0.2509362370075629  0.9177302775766547
  0.7467931717214550  0.4163062929203071  0.5003049000364792
  0.2463719501515937  0.9997671614459099  0.7497194838738971
  0.1639906905618285  0.8331251905153179  0.8327086574720082
  0.2466691201569019  0.8333359866480265  0.9154168470838613
  0.2463441447292264  0.8334283783802250  0.7497422757210147
  0.2464993176478895  0.0820520978921611  0.9983309692832493
  0.4132355188777945  0.1665300966789972  0.0841354091183778
  0.3293897411277296  0.1674781780278223  0.1673592065381052
  0.3302283467992477  0.7505883906956343  0.9159827915951684
  0.4132796642440004  0.1673172158568531  0.4170218480066578
  0.3296789387153788  0.1665624598486972  0.5001321812413527
  0.2469162952370594  0.3333127168380898  0.9181843271843652
  0.4976120105145233  0.4166474199160602  0.9171393428111813
  0.6621312943123108  0.3333133706138737  0.1668871060371599
  0.9139382010345897  0.3335786952602788  0.5829223294385678
  0.9144118459777613  0.9998680290858519  0.9188451095243075
  0.8310118560378924  0.0004018736429603  0.3325960021237299
  0.9129097323507820  0.0844179684892720  0.0000745393725408
  0.8302862828540586  0.7492874162062556  0.2501963624955970
  0.7471920867709912  0.7492184736230023  0.3327485021639152