Cr  H Ni 
 1.0000000000000000
    21.1200000000000010    0.0000000000000000    0.0000000000000000
     0.0000000000000000   21.1200000000000010    0.0000000000000000
     0.0000000000000000    0.0000000000000000   21.1200000000000010
 Cr  H   Ni 
 259  17 605
Direct
  0.5793247246742265  0.6668841119327463  0.4160040566737065
  0.1638523881652643  0.3323789890487582  0.9997551663214085
  0.4098724570657054  0.5008584144994803  0.0842053392049108
  0.4965551353788527  0.6662002095093409  0.6664656254343622
  0.4149816287531194  0.5006202511935037  0.9159571483058335
  0.5791356839075573  0.1680490809507718  0.5812777508627519
  0.6626040644083145  0.5848471794754491  0.5838030697868357
  0.6622752802323579  0.5023823183433704  0.8317293356208472
  0.5793859822775279  0.6671850773397511  0.2489306501750699
  0.5797836440714230  0.5010907628962488  0.4169538773090261
  0.4109511278909783  0.1680269719528833  0.0857413615575000
  0.5778166447289254  0.7489485417771320  0.3334983907762019
  0.1624295471427066  0.8334032708674033  0.9995875224179401
  0.4955631971855911  0.6668073883738341  0.1669603434435931
  0.4957853993533057  0.3347806044925554  0.1686157485569537
  0.9958907985588989  0.0000426577884968  0.6652106903284840
  0.9971349956208370  0.2539832137059412  0.0843385587339638
  0.3292531915955979  0.4160414135980666  0.4179121848635167
  0.4953511965668621  0.1650298621523970  0.3340657699957307
  0.6635938916080510  0.7486083666305936  0.5840317171088653
  0.5782250589968474  0.3336644580315001  0.5835964023992218
  0.4126366309905811  0.7493640411015774  0.5001191165970171
  0.9948178369347338  0.0801224773766152  0.0852025200542626
  0.4963686435095884  0.8331423341671624  0.6675618030425536
  0.4121012651740288  0.9997105297775076  0.7493382692998474
  0.1635379225720106  0.0811893556514356  0.9173325261386394
  0.9127682886877072  0.4186477395692118  0.1662245517366787
  0.7466000951150255  0.1687946280484115  0.4171452904330782
  0.6620490509809842  0.5839583144992488  0.0828562511326514
  0.5824443161981719  0.5838938203196006  0.0013923537137833
  0.3291673650987725  0.5836984548523377  0.2501390301394852
  0.9975127960910181  0.8333797872655162  0.6677973702898042
  0.5778525963310950  0.0837884807561422  0.3352260829124776
  0.8299105322723729  0.8314968302517995  0.1670644777452455
  0.5806944656695149  0.9988905201663658  0.2497425093790190
  0.9953737167999757  0.7493727323158663  0.2504858307404536
  0.0816450022769524  0.4145294037952426  0.5002255543634669
  0.3290639282295627  0.1655890276978718  0.8334442950959677
  0.4133682709339809  0.7505606091876378  0.8335115870084705
  0.3311724121644005  0.2492998981818620  0.9115304479222891
  0.8283226188941910  0.9981725630053062  0.6650516110664255
  0.3315208827070318  0.2485950337792222  0.0876410556997720
  0.0806260499274013  0.3333941129421046  0.2503839784875029
  0.9123171448270815  0.2505353307068655  0.5010666439052449
  0.4116233182978838  0.0002489076721989  0.2507560141311594
  0.6628725817927804  0.1625367105415360  0.8344156319256283
  0.5789357559163671  0.5007109905330560  0.2499328651542971
  0.1636545501099193  0.8326103468863216  0.4987206749881888
  0.3284472966834239  0.3328615481911023  0.6657338845042386
  0.8304969985334597  0.3346587229530253  0.5004132497460552
  0.4947531279116171  0.9976903910025156  0.9993004054234244
  0.7448778847530508  0.1685086881463419  0.5812653189705705
  0.1611908030579489  0.5832476769060522  0.4172527508145287
  0.9151246295385767  0.5002842987078465  0.7502474645818051
  0.7441973876393847  0.1656855821000123  0.7510432348245463
  0.5817526058719200  0.4185687851257986  0.0015104800375992
  0.5804261544841325  0.9987947844528419  0.5811008257064694
  0.5805982299197250  0.0000388286767176  0.7499749371861862
  0.9969052067127746  0.3317499751036142  0.0014108721832655
  0.8300826765300927  0.9985273897827969  0.8350299141412302
  0.9132963910430398  0.6660469528975742  0.7495423455073983
  0.4963154969673728  0.7511013067744895  0.7500038862079524
  0.8277082907683910  0.5029732323616547  0.9996875195595353
  0.9955788715116647  0.2503544311510545  0.2505908761596460
  0.8298855078504606  0.0834232175971452  0.7489755411044402
  0.0801590264194653  0.5001105334512825  0.9178976357815475
  0.4125655817127718  0.9160959743489429  0.5010771326703787
  0.9138195446679214  0.7507787316315619  0.5012785174729198
  0.5803522836079477  0.9983893236042292  0.4172257305528156
  0.6627936007190336  0.9992589357798046  0.4994307457347152
  0.8288632764296634  0.6676279700663391  0.1660966311693602
  0.2460440771872387  0.6669148388427008  0.0829356245626747
  0.3301824502640589  0.8327650311276907  0.3335342482404071
  0.8294474324214453  0.9163284965125638  0.9150631632576516
  0.4113791513570122  0.7499143033808779  0.3320973314621288
  0.8306622773981898  0.6660355808326249  0.6679178126360150
  0.9130612937456732  0.8346234911732580  0.2507266455040493
  0.9946136938806552  0.0847910400811238  0.9148529236325711
  0.6620495175684417  0.9153277266592358  0.4161656344368707
  0.0796389306469188  0.7504638145165718  0.1669828682324341
  0.2458328809409412  0.0833753735310792  0.3340936361689281
  0.9135825283489913  0.5828228938399189  0.5008386181865684
  0.4129606134826731  0.7501873826511513  0.9999472562019539
  0.7453208712386583  0.5831546452719534  0.8332481814811512
  0.7487736626582417  0.9973064895615983  0.5829230107190863
  0.4976232684934985  0.1645067682496029  0.6645948315262885
  0.4127951369324421  0.5008765047855374  0.7500053661124930
  0.1606214654232562  0.5819558882959319  0.7492027045060428
  0.6621613711878335  0.0837606361651458  0.9174754313500132
  0.9976011521759868  0.6658531479983164  0.6661922105130376
  0.3292497093715365  0.4180277571546381  0.5824824905267701
  0.9970652475855080  0.3324260365510889  0.8340825603757123
  0.4108943715332699  0.9996017636362196  0.0836101948812920
  0.2456035759464827  0.4987106362050541  0.7492123537306041
  0.9970109746736430  0.5827826700044284  0.4167288830409553
  0.5796527120422256  0.2499977321030456  0.1688402149203860
  0.8294494787747161  0.4161134540686547  0.9140823247143159
  0.7464895163957300  0.1655628530078423  0.0847617562716182
  0.8291442222925726  0.9988041179732170  0.9991999712795911
  0.8305339007252260  0.8333817768286071  0.9989425836044987
  0.1645912848389353  0.0829931426931087  0.0847411940221912
  0.9149641440105896  0.7499647840923611  0.8342314075930569
  0.4960889599648841  0.6702122105682330  0.0002432050704678
  0.4950543272332903  0.9161816379156794  0.4173439781571289
  0.4110685585498556  0.4173754274584974  0.4982818235574257
  0.7453389640356091  0.3336303273525180  0.0845801806138057
  0.9128120480637681  0.6667276663989814  0.0825484057982392
  0.4951029064871604  0.0782069387657061  0.9161276053330346
  0.4946256370265126  0.8325620386444457  0.1681811735864779
  0.6640269666368696  0.2510931864917825  0.4176040548047738
  0.0776843357120811  0.6673904365528894  0.5843156828290872
  0.9967441499147967  0.5837426397809127  0.2496425652132817
  0.9973515743135730  0.6657991224230942  0.3332534118048860
  0.9952157236856718  0.0004699986817666  0.4991601719114736
  0.4961663090963415  0.3309383165928714  0.0049297423369188
  0.9124550469398408  0.0842061707503576  0.3325345411789288
  0.0777231679456796  0.7493689357610064  0.8338178238266316
  0.4977541131887309  0.3354114615272193  0.6638376839798991
  0.7456880045654166  0.7492950964015721  0.1657943484284967
  0.4127874683859850  0.5840342904025632  0.4998852678601657
  0.3300392759221364  0.6655412231969394  0.8331448808501327
  0.9127216534405027  0.9169135955833136  0.3331122220887559
  0.6633859832421584  0.1659191505673942  0.5004179816288207
  0.3301309621021692  0.5837644018845749  0.5838362407467915
  0.6624827052606445  0.9166081644718200  0.0844238250054789
  0.7462706209657657  0.3391697162968539  0.9160808438650138
  0.9157849466292746  0.4142378340092489  0.0004315464646752
  0.2456482983178890  0.8339780156891705  0.2502403047894926
  0.9160488052867818  0.7492096420241232  0.3310848098026578
  0.1602051919876139  0.5820661194492339  0.2512237373557603
  0.0791911446427661  0.7497475215577639  0.3316060232779633
  0.5790847813020814  0.4176655430237463  0.6655640992952861
  0.9140819291805308  0.1678138655199034  0.5844757508781012
  0.5782907631200652  0.4168579235552286  0.8314760632741112
  0.4959372705390725  0.3332600588332791  0.3343982560462201
  0.3294660796214815  0.9156770989634463  0.5833591544289439
  0.8296820441606350  0.3353696237627273  0.3336763418529314
  0.8309908535155387  0.4161023716093783  0.7503558702901308
  0.6624209703117750  0.4183771371307507  0.4169532270590478
  0.5787084014885139  0.2503513439133093  0.0046062810669338
  0.9123926179832584  0.4153427368509163  0.5004542763576342
  0.8276815864817084  0.3342661941318207  0.6676702900409722
  0.3293666572036330  0.5861256942474382  0.9166156304454596
  0.3290442069846625  0.1658158288657687  0.6650639574655318
  0.9135029531058458  0.9184942279798821  0.8331553806131163
  0.0778935838397618  0.0004459411909176  0.4164479812985057
  0.2454458619711424  0.4194272530391285  0.8315247098034290
  0.1633940742195489  0.2504929504442995  0.0831753586540416
  0.4096881110082141  0.8321901726981746  0.2523827434346961
  0.6634642516199943  0.6653511785856963  0.6669370023557153
  0.0803181902375085  0.4993448460843247  0.0837194599436846
  0.7461324444879168  0.4177243666547563  0.8312125896647832
  0.2455464495836437  0.7498294247916399  0.0010272750780005
  0.2466916742421972  0.4161889874144608  0.1673324689540412
  0.9959828018229533  0.1664720765703284  0.1695228389835850
  0.7462690150802870  0.5012176748621671  0.2487378227626446
  0.6618300611350391  0.5016484474928912  0.0003979364098372
  0.4133691167133934  0.0836777074533221  0.3344973845161644
  0.9958944383569119  0.9167598465117167  0.0843863733268271
  0.2442018351786939  0.0824862034363621  0.1662853686639218
  0.1625674610565519  0.0815964245215086  0.7494789219116029
  0.6624028287082288  0.5816868165146921  0.4165637222286870
  0.7456168234356869  0.9980600986556167  0.0852909697049866
  0.6635373263753076  0.5835301598766413  0.7500552443271520
  0.5788908558247856  0.8313514954754698  0.2499804141822442
  0.8293931646056349  0.3341309976876904  0.8321157471931440
  0.4961307532957072  0.1649536724543664  0.8299385683684909
  0.1612708773259571  0.2494656927207342  0.7495676460120423
  0.1629855502832239  0.2505392840439276  0.9163895090724702
  0.3296299408017278  0.4172452812732110  0.2521994491620165
  0.6623176045886460  0.2495113455954735  0.2504005320806921
  0.9131076184085776  0.2509762021771645  0.3327019600949508
  0.2459597958134236  0.4153786739228599  0.0003668521472778
  0.4953050455821573  0.3350657820701601  0.4987685021663741
  0.0794955934326735  0.1669993935927130  0.4167441026654062
  0.9954630442817407  0.1633903344124670  0.8347019615268579
  0.7448655834220509  0.1617624045902599  0.9160324205265439
  0.8294597980559250  0.2498604870060349  0.7505430902669677
  0.2471853361069456  0.4153535119655666  0.5004719238376457
  0.9134346742861266  0.2511774621236807  0.9980978618960230
  0.3284407358442344  0.2485033298198184  0.4163351707126319
  0.4121250575492640  0.9995192422452609  0.9171125403895254
  0.8294171561415327  0.0846457519759642  0.4162095262820489
  0.1613818369114925  0.0819873937239455  0.5819448357479803
  0.9143159983394356  0.7494874550931202  0.9993253190557795
  0.5785572730751076  0.4175569872616314  0.1695306972890341
  0.9119347556372533  0.4164412037963778  0.3319436714198899
  0.9951311199067341  0.0840584071858908  0.2512101743940655
  0.3305614601807091  0.2490828803326189  0.5842646248220664
  0.1610524376127543  0.2497904725447599  0.5837217015662586
  0.1624891292701316  0.8330916684260584  0.1667589955651412
  0.2465601954112542  0.9161653011653771  0.6651570048615046
  0.2453093491101870  0.6665007314468377  0.4164943344807814
  0.1607309542625183  0.0006084078581835  0.3347851477474185
  0.6634977017116293  0.2498050398422565  0.5813534414412148
  0.3293358088275419  0.8375068019578004  0.6664191456168093
  0.2454243229779723  0.9184113370336102  0.8328893581301851
  0.5803139278248798  0.8325777781198435  0.9168578061782532
  0.7464981955803094  0.9172996243954825  0.8339923315210038
  0.4119890197384126  0.8319558518539995  0.9164028971374278
  0.9116363552790177  0.0815863681551974  0.8323956108634140
  0.5793367734962788  0.4996708376700072  0.5835473760007186
  0.8309264503191384  0.5841702420363908  0.7487722433172965
  0.6619848966563301  0.9983231121603069  0.0030982004359465
  0.5788731753013155  0.8315097274157285  0.5843554654432781
  0.1636483927414768  0.5007711095484947  0.1673723858363347
  0.8283277067173551  0.8336110984260241  0.6664449568561190
  0.3303229958030858  0.0827508845559889  0.5840650186288895
  0.4971838891650252  0.0818791921311979  0.4162545110092993
  0.4104548045255767  0.4999520729633106  0.2511089612863440
  0.3291899437929079  0.2491445254982855  0.2509435664326318
  0.6632920488169241  0.2473630688935692  0.7474342239573619
  0.7465290920921618  0.3351045604012871  0.2503206334773319
  0.5796549139537187  0.0817113925323870  0.1682237822483705
  0.8295304800376230  0.9157247234548931  0.4159846954966930
  0.9135845254384646  0.9992214828514995  0.5821744204110084
  0.9978040012524445  0.3332411481113770  0.6667747088913079
  0.2473150863605826  0.1669840896186310  0.4171568302512799
  0.1632972235141570  0.0009088418536905  0.4999671378217746
  0.6634397096923014  0.5835749167798996  0.2496241541351749
  0.9956683291462686  0.9163205797905404  0.9156101360877156
  0.7464462895870800  0.4159229413281987  0.6669422399478557
  0.7475358844740707  0.4999078079870899  0.5841795272081908
  0.3302974258103660  0.5832337688840443  0.0830079036787834
  0.0794399858869788  0.3336137654612746  0.4176582412033382
  0.9967124232622742  0.4994395538694205  0.3332039406455116
  0.7472932284748738  0.0841179088363744  0.3356867422903548
  0.8298933225124669  0.4999394970541786  0.3335867358346962
  0.8280891377478191  0.1669255830877684  0.1671271257970761
  0.9976987293406576  0.4991796843753286  0.6659552002412710
  0.0814959306278863  0.9187063904440674  0.3344587507536788
  0.9955564018192994  0.8320427178349460  0.4986674867206661
  0.7464489294959847  0.7485104633850101  0.5004708698020356
  0.2462673547225665  0.8333168603464280  0.4165205701072119
  0.1641849525089926  0.0007769597461267  0.1667007436170356
  0.7469840904609394  0.9165775153279295  0.3341625330631793
  0.0792610401813746  0.7505585776289196  0.0002362279029736
  0.6642674707853956  0.0824636665392590  0.7495158669113889
  0.9960772520521816  0.1667414120166351  0.6661221676997358
  0.0804303838213596  0.5823940698886063  0.5001339628392868
  0.2458060251961464  0.4982999431021303  0.5828019648303839
  0.7461562611163182  0.9166806467461356  0.6651695989748740
  0.7459422001803733  0.7474787632997663  0.3339346804656608
  0.9972328910134753  0.7497946374838611  0.9153149308901398
  0.5798212118439661  0.8320022522568569  0.7485414294662567
  0.0810144253703642  0.4990707069207375  0.2490466799853407
  0.1609395901222301  0.5810766101824403  0.9167274792344690
  0.2453097652969630  0.7521680504686673  0.8324344323968724
  0.2449419660067777  0.6666118736176869  0.5837669328015894
  0.7474779078524398  0.6671316169414030  0.4174081057989059
  0.6626367323918501  0.0003656402614367  0.1680947332370531
  0.6631256463309382  0.7504407108642456  0.0820801012008472
  0.2424999082151362  0.7495439135201319  0.6656857864255118
  0.3302046571510229  0.9155818543399432  0.0835968652982174
  0.6645104073595816  0.9161202613510657  0.2505884039163389
  0.0787547469181604  0.5845033003434322  0.3354139960529950
  0.1632068657719278  0.0003601549801086  0.9991430120202751
  0.7452585738496423  0.7492552326450944  0.8336494060846270
  0.4974344974986823  0.3363092677171898  0.8289017301853927
  0.2418872841890330  0.6633610956475547  0.8331436833696164
  0.4920576372908446  0.4196808429330068  0.0003042492116603
  0.9165716137145759  0.5032819962528925  0.9993829034544340
  0.4935408495267826  0.5817711389386758  0.9989875997735366
  0.4943044175512588  0.1675665537760749  0.9202253717919515
  0.3293645335996415  0.2499489534574128  0.9999525417661249
  0.5788922136854310  0.2500743162686866  0.9136000790002440
  0.3312331991330970  0.7480793458047179  0.6663558564961568
  0.7465889489852415  0.2503002512695397  0.9182997675967436
  0.3258887202554152  0.4969424677516589  0.9156719418977208
  0.4947482709955545  0.0859758114490549  0.0046017317144423
  0.6614946756011874  0.2521099863204440  0.8356717520590062
  0.8278781192847444  0.4154787368544364  0.0019401677515641
  0.9090924244790743  0.2509830522913088  0.0862973875008327
  0.2473524492316713  0.3288508327983904  0.8317216412767641
  0.4945322034250931  0.3338277465350993  0.9172461840868947
  0.9963381657840887  0.1669620774986241  0.0814920917094600
  0.9967383905143128  0.4157334118901354  0.9169944862209733
  0.0788384674515072  0.4160650781255106  0.8333120590889088
  0.0804440983854283  0.5827352506330189  0.0006118955325524
  0.9977977909668695  0.4995683341108381  0.1668819022747937
  0.9960698047643470  0.6668871656404004  0.1661552914877071
  0.0798888193725464  0.4982897281023645  0.4175001139245372
  0.1617131617841489  0.4994762467798226  0.8329775238838528
  0.9988271437595825  0.4999671734510553  0.0004868503530451
  0.9131772465952194  0.2503030089213107  0.6670680319440906
  0.1627701798497865  0.4168817265219101  0.7497195900052116
  0.0791659724278088  0.4155798651926560  0.6669955864326748
  0.2464529843424162  0.5003302073616924  0.2514303482421545
  0.0791478249326589  0.5826333776179569  0.6657521363659467
  0.0794084690029865  0.4986922392189779  0.5822240165168185
  0.0796000651864451  0.3329284841587273  0.5834934870218532
  0.9959704635635455  0.4161122432130349  0.4171320726386872
  0.0788755002632507  0.7504909933207621  0.6666951528342216
  0.1626456577203943  0.1653126996198699  0.8328023439302940
  0.1619556271385407  0.7507399086605344  0.7500224680817171
  0.3287960283955729  0.0000132027919244  0.1670459904095946
  0.9138312145639758  0.8338306761858980  0.9161633291345758
  0.0797538184011002  0.0829581231590590  0.1662408303205410
  0.0794091917689495  0.5836123398578488  0.1663057257626761
  0.2457857904931744  0.0831757163093448  0.6655418704949974
  0.9962716861759399  0.7504395573939818  0.7502005173616351
  0.1625777066997157  0.0829206494889755  0.2508565515695590
  0.9125925706092428  0.7499575117616410  0.1661695873906283
  0.3291355355210889  0.0835159115916995  0.4163865688410515
  0.2448624265923626  0.6657945560715568  0.2501787460157498
  0.2461549345054470  0.2492296178224565  0.3340493769264652
  0.9966404760984949  0.7498885072403696  0.4158943349305743
  0.2465398869239481  0.3321117249910825  0.5835421560327634
  0.8302468293626529  0.6665236225718083  0.3335627068580617
  0.2457106828113850  0.1661933943920173  0.5833925001253898
  0.2454521557071239  0.3318406208751088  0.7479429531427171
  0.1634357719502784  0.8338785642707700  0.6665986494790826
  0.8282122926637305  0.3341655863682101  0.1673717933027261
  0.9964829516283211  0.4167042988716460  0.2495008637150177
  0.8285194759797140  0.1661501250196553  0.0010514251554106
  0.8295731455140466  0.4177824448823609  0.2492097599554825
  0.4960148543103569  0.5010171052426309  0.3335235438433390
  0.9971881767544747  0.4160490318910227  0.0840671552630007
  0.1624065333536136  0.1659082248564915  0.6664399208208498
  0.8300331730165269  0.4171040366857969  0.4168717974392805
  0.1625171044045050  0.0004419120111614  0.8331643785966071
  0.7457005905547769  0.4175067889838859  0.1668499276109080
  0.0795211743676519  0.0831002144521063  0.8334408455905780
  0.6630113322399429  0.4179562646956044  0.2503163498974906
  0.2462387453963202  0.0000130450965450  0.9164061620177923
  0.9134436115515026  0.5000041147084805  0.0844257877044334
  0.1637021440400885  0.1662512026571612  0.0000769746449333
  0.2462478314080744  0.1674712992946554  0.0839094734194642
  0.5786641946178170  0.9158383176339802  0.0005437734115005
  0.0788714729188395  0.6671101947127013  0.7494596891003579
  0.0793507345365436  0.7507627047654098  0.5004727653825276
  0.8289785091752468  0.4172478260107069  0.0850397452654524
  0.0800559189128923  0.0004129406047903  0.0835377398663254
  0.1629840569319560  0.9167778996550640  0.9164226776545003
  0.0794042502679653  0.8342480174761534  0.7504680464138213
  0.2460767882110422  0.9164724109241397  0.9999734889803814
  0.1624805341613515  0.9163118182408109  0.5818852256363796
  0.2453439556966715  0.0007379266475019  0.4173389385997783
  0.9965171699751553  0.8336696919721367  0.8330974480606702
  0.1620307383726499  0.0836187329934702  0.4175892456744741
  0.0796109868425702  0.8340432311617998  0.9163321858065925
  0.0791987435599922  0.9172010057835536  0.4996013622711540
  0.1623514416206157  0.7504119320700572  0.0832503415989006
  0.2453957372053570  0.1663491093424659  0.9160207461781285
  0.1633784310447863  0.9169128417786244  0.0835851882876210
  0.2453228294260248  0.0005034027294424  0.2509669336173208
  0.2465034967987330  0.0832847509036794  0.0002608339062917
  0.7466753523084140  0.3345935290215228  0.4164308692748316
  0.9976596110241455  0.5829932355066595  0.9172087311000962
  0.2457681074862779  0.2483123714497720  0.6660121979920545
  0.6628523492471979  0.8320508769328671  0.4991596486718341
  0.2434873696318157  0.4996078905007413  0.9164916115996024
  0.0789529398277790  0.1664690754592568  0.2498373857828002
  0.1628605811089438  0.5834204393226692  0.0834232307252349
  0.9957979964570286  0.2511215715895049  0.4162426554837413
  0.1622356712159448  0.6670108829636124  0.3335964489584730
  0.9964464185288754  0.2507286004816909  0.5834343501769741
  0.0794776326800959  0.8341898708746648  0.0830332446722374
  0.2459388210988271  0.4162836082738414  0.6664667653747567
  0.9961547041893468  0.3342555802690719  0.3330956874993318
  0.1632468373298312  0.4995769393943546  0.0010363763031552
  0.1630793895525585  0.1667541651401428  0.3344120858091048
  0.4958984849275289  0.4173199415057266  0.0862040039321417
  0.1621118553314328  0.2490076797057207  0.4170815444280104
  0.2465779009593496  0.9988196914673698  0.0825406268394837
  0.0790353041184015  0.1667522703855455  0.5839968301282127
  0.9121908626557407  0.9991461370593006  0.0833169876409832
  0.0794495462763796  0.2495211022136729  0.4998071739139496
  0.2451394204513818  0.1657708797649581  0.7490714587802064
  0.5784595452132844  0.9151191019672691  0.5004876122563192
  0.1634344427651501  0.8333060931583478  0.3332235472215409
  0.9970743883956870  0.5000466303491087  0.8336402945834631
  0.1602393352081954  0.6663339817052358  0.8333416873779476
  0.2450470383994427  0.2492292247471356  0.9995229280714335
  0.1621920711631660  0.4164135836148068  0.9170774492629087
  0.0794333769027101  0.2503747644962984  0.3333646848314435
  0.3290271480010651  0.5828076067417253  0.7495741078506695
  0.1625422017248098  0.0005590841613248  0.6658728325951254
  0.2445403369768621  0.5806876495944731  0.8325075974878954
  0.2457505235752253  0.0841751127191974  0.5008242164720168
  0.2452237304788161  0.7501305513533183  0.1667883542820881
  0.1625783558553845  0.1668381638879484  0.5004453418172100
  0.3285233647946947  0.6658722318539223  0.1663758221484151
  0.9971448887428400  0.8335739098436246  0.3339462324054717
  0.0794874173919534  0.8340332060479982  0.2497430356249552
  0.6627198901232603  0.8333745256609335  0.0001054536297846
  0.6630002649200396  0.8316723010228299  0.3340177706178332
  0.9949929729433887  0.0829960607169339  0.7491039619906299
  0.0792966533561575  0.2490700108174778  0.6673928136436010
  0.9132038806738384  0.8321769820307116  0.4149974691197917
  0.9956860861987519  0.0008837130898900  0.8333352038246664
  0.9137673890804946  0.9156907690366882  0.4993286411267862
  0.0805426032078695  0.1658922387978140  0.9172015723704241
  0.0784890035135145  0.9993550938020975  0.5820814997423455
  0.2460423417598889  0.7501547791212950  0.3335761787974608
  0.0792798517941720  0.0003103756058730  0.7494923975218273
  0.9950474211874345  0.0844583677141599  0.4162430325513349
  0.0789148350189097  0.0829740036814678  0.6658981661111322
  0.0792268818257165  0.0838767520083237  0.3339912879311415
  0.0788938565789433  0.0006697279415874  0.9166219660594813
  0.9960590027396106  0.0834311349131911  0.5829632470884416
  0.9961968691999711  0.0000235290720718  0.0002744058429977
  0.0786629697151004  0.0839296035514784  0.5001717775615268
  0.9133846713145091  0.3340665210929943  0.4166596897225874
  0.8303131733327817  0.7500915115678611  0.7501788668192095
  0.9959500319282928  0.2496107238438162  0.7499312637544486
  0.9959541777501955  0.9999487222199281  0.3337007918153774
  0.0797315121823031  0.0004540225824575  0.2500508252521543
  0.0808400585170981  0.1663806410740727  0.0832524095766590
  0.9962485306256734  0.2496927959392972  0.9161855688390311
  0.0795932514638092  0.3320752668484550  0.9167456929908316
  0.0810784143148657  0.3325332780056836  0.0837146637756590
  0.2464843857930032  0.2496381075681744  0.1676390168164049
  0.9123660938307628  0.2500365626726226  0.1692599999147190
  0.9956714289868535  0.0003801549984991  0.1675280952130434
  0.1631727937443077  0.1667532947285392  0.1670476974501477
  0.9132129082362809  0.2493406538851468  0.8329976286906983
  0.0810238893726469  0.4162198015200276  0.1664985557138887
  0.0792825829509088  0.2482549570440372  0.8330674214722873
  0.9961047208148500  0.1661624606322039  0.9989090612366436
  0.0802034547043463  0.4156373770407252  0.0003169183440023
  0.0799003222118549  0.0829025519681587  0.0002900234604046
  0.9124812058281710  0.3341146350475024  0.2495067829453604
  0.9121853819538605  0.0827801398011077  0.1671870452302063
  0.6624200144983912  0.9150843079297785  0.5823741687706545
  0.9136153897738351  0.3328063528211747  0.7501406296325986
  0.1616292430189001  0.7506309699708833  0.9166830903275744
  0.0791883307696126  0.9178956041692919  0.0005527625258642
  0.3287164343172350  0.8325214241145936  0.9993841076164350
  0.0800815374264252  0.9174122191661160  0.1663361637243344
  0.2459916872514243  0.9169670664791049  0.1667427413312938
  0.1632554358701046  0.9169157877858835  0.2504300802329051
  0.3282376372711900  0.9169600525033764  0.2504959285650066
  0.4113434055751520  0.4171915355795385  0.1685302644121156
  0.4124020611050588  0.6668667597146621  0.5830411701286000
  0.3287221433906111  0.3341474108202431  0.0002166707914570
  0.4118271099979006  0.3327795202021121  0.0855008167290123
  0.3296032173405412  0.4155674108724211  0.9154330893038981
  0.3289173563457867  0.4170101111540713  0.0843501575379842
  0.1628834364806866  0.4155876675244143  0.4177225111456400
  0.2449213366310606  0.8339591361598492  0.7499350343547166
  0.3301893966007586  0.9990814478884825  0.0001230217917913
  0.4957957420186104  0.1661809867007575  0.1685418988093835
  0.3287496766199794  0.1658872987726556  0.1682860391336931
  0.3284446212752010  0.7499852960786031  0.9160011474812573
  0.4118102225621425  0.1671320710576704  0.4173760553820161
  0.3295914621629314  0.1662113773090748  0.5009708178410501
  0.2463357253017713  0.3323830167400861  0.9166260379029189
  0.4968002028783204  0.4180894987375858  0.9155209200887651
  0.6621450730105737  0.3340135080902321  0.1679583926538805
  0.9131526575611569  0.3332013413420901  0.5840848504217578
  0.7473458660999058  0.2523881744906015  0.4996590163169785
  0.8292762163996508  0.5007596828789947  0.1664694350555864
  0.9123252297214721  0.1679148664104738  0.4160021299955445
  0.8304069747854154  0.6677929940672531  0.9994200417020359
  0.8297796963762748  0.2506984477353562  0.5838483392817563
  0.9955368964256408  0.1676120712693048  0.4993023406329426
  0.7443112547088870  0.3322229249789034  0.7497856968944787
  0.8302923560947545  0.2513141430448877  0.4167791461458816
  0.6618167908875897  0.3341697998069356  0.0023924358754357
  0.6621498918075763  0.3367457966901451  0.8320142162195148
  0.7464013485873231  0.2500180309575588  0.8331879252939336
  0.9120135633907935  0.1666694510552829  0.9171294845132003
  0.8287710265195281  0.9160643394329182  0.2511981684890211
  0.1627343647984887  0.4997865669404001  0.6661953916403044
  0.1616804010293153  0.6658433085134368  0.6661967923111580
  0.0791238304725334  0.4991141927349048  0.7494235808150916
  0.2454860088134586  0.5828140623175097  0.6663362709418695
  0.6627089880608591  0.2502540639925183  0.9194373456930830
  0.9121288756067266  0.3354702192035698  0.0849984511340755
  0.5796725219868493  0.0825983227415471  0.4999347493076428
  0.7439501861856571  0.4176354867240660  0.0008578530187472
  0.7463813189354606  0.3343024566795055  0.5833240593745797
  0.7449869395040608  0.5840809539630227  0.9996621977933142
  0.9127934456001436  0.9998983733928898  0.4162943614162965
  0.0783449080535705  0.9180665752910969  0.8338050011009642
  0.2451183563542667  0.8330846852747265  0.0833502579538053
  0.9137281479180810  0.8329740372191173  0.5836623708305810
  0.5790057882087840  0.8326071428487311  0.0840701415811670
  0.8305084756162563  0.6665765539654220  0.5003188594332906
  0.9961778049527529  0.9159121893869056  0.5826020996123631
  0.5797395826810883  0.7507602253651954  0.8324197729067649
  0.9126425929024276  0.5006950861848048  0.2501331198344972
  0.8293766302247337  0.1678895435888637  0.5002703809585702
  0.5800308018364371  0.2504130163041926  0.3344444950157587
  0.8309663824804485  0.5833671415439166  0.4174758762298649
  0.6629209167997663  0.1669438239305133  0.3346632314057507