Cr N  Ni
 1.0000000000000000
    38.6909066207142374    0.0000000000000000    0.0000000000000000
     0.0000000000000000   38.6909066207142374    0.0000000000000000
     0.0000000000000000    0.0000000000000000   38.6909066207142374
 Cr  N   Ni 
 1596  50 3725
Direct
  0.9731716598187825  0.9330958561680305  0.9052582201700515
  0.0481779485934613  0.2135079326503202  0.0198598323012382
  0.9186467231787927  0.2410631822555409  0.9155475972296196
  0.2641851972701407  0.8039487500597987  0.0639629438050485
  0.5189799941391079  0.6903873472680611  0.3030345346321093
  0.4410874433565302  0.1634971200262862  0.9481709300542830
  0.6181534557780360  0.2440964168530826  0.9886937828541293
  0.5599201129882114  0.2752371005052113 -0.0095961366139757
  0.2785644049086560  0.9529193836650575  0.4399465617648414
  0.2583336985706038  0.0174881760847694  0.6486181296107989
  0.5755230536686499  0.2260326067005865  0.8657073778705604
  0.0632979940010693  0.3895746782693443  0.4812654965852378
  0.0157336986869622  0.4178447398554892  0.4544187245935322
  0.0288382352204988  0.4733815103159865  0.4270813503178026
  0.0397142529822083  0.4557302846086272  0.4880251046982456
  0.7574575889881565  0.9225157405680967  0.6087108847273528
  0.1612382084887226  0.2327639165524872  0.4463441437600858
  0.6702397175705715  0.0545057031312115  0.1633179779676880
  0.7066859216441472  0.9362382169687155  0.6485029244127115
  0.6769295351314349  0.1334455161190432  0.0835342156379502
  0.7034620384943672  0.8901796084810273  0.6084449141882976
  0.5869741024783801  0.1803684191887784  0.8196631250391047
  0.8828495290634668  0.0888779981595956  0.1129646119664239
  0.7813759421068485  0.1344160111401626  0.1185293104439972
  0.4621204612224389  0.0735354407826525  0.8536484107445473
  0.9426515283169857  0.7962995981483180  0.5798639254594936
  0.8586304130765462  0.9488788938350640  0.5202528074047660
  0.8163033866673619  0.0335864425250715  0.5349244444838043
  0.3712649068246219  0.7972574670733196  0.3974471016952985
  0.5664583091143229  0.5667227649704556  0.4688155316550862
  0.3662894304142253  0.7512128536973904  0.3506518970535218
  0.4921037658604838  0.2577679475826655  0.7213354204762690
  0.3127040658046553  0.7381227168572634  0.2790134110558152
  0.3163287535737693  0.7984111791368705  0.2645334636793380
  0.5690498413441935  0.3241296246003986  0.6202300339371885
  0.4688343997593127  0.2806444891844373  0.5968344093668815
  0.2751198886963659  0.9218832555375948  0.3303785354207479
  0.6192342490312808  0.3613466425585219  0.6886949788585823
  0.5462406253094383  0.4129638500938452  0.7127753531066615
  0.2136561890495776  0.8444369889043126  0.2736368168052555
  0.1292338233978265 -0.0096942104518936  0.3004296102924508
  0.6288790380219097  0.3820455862456800  0.8593752938902677
  0.6881232315497077  0.3748131598695995  0.8795494830056054
  0.8266425203545890  0.0453533220456156  0.1667144577717883
  0.7700381376785292  0.4663024880149552  0.9435312627227627
  0.6474336996351587  0.3824224787224856  0.3296840679292792
  0.7020762142023597  0.9663299127580746  0.5178488500576519
  0.3589977817958216  0.0611314939222543  0.9371360604140113
  0.8097032274448935  0.9084703319423207  0.5678950708567685
  0.3732184890776010  0.2738209078873622  0.3365528934433279
  0.1475919336948597  0.0926392634747772  0.3251844551969974
  0.2268448272808615 -0.0024707208267295  0.3493279917555598
  0.3430875666754138  0.4736119998840703  0.3087396115630800
  0.3922752014288113  0.4443633369936162  0.3347873098313089
  0.0115084878762175  0.3352128733227419  0.3047901892578683
  0.0041124575888289  0.2763365679012092  0.3245365443355464
  0.1044664010683392  0.1980269667126024  0.2135679764439488
  0.0504983769567674  0.1999968151627053  0.3106617576239236
  0.9493382276401910  0.2826761199745634  0.9734703578316809
  0.6506667242165752  0.9768522733145534  0.3175630416996263
  0.7936668772528653  0.8241511328543405  0.4199776092556579
  0.7264680452026718  0.6260896934596003  0.3897524133503876
  0.3349320435947067  0.6391620343748948  0.6913900778597316
  0.0773818297310651  0.6137312415139823  0.6281870242600447
  0.8262705426101079  0.5636834613332217  0.4456670770788813
  0.9308940032160649  0.5806134464137741  0.1902095529912135
  0.9856764968235918  0.6116235768602358  0.2014085504645139
  0.8768321363535987  0.5483695975948698  0.4115449159872501
  0.8707747768595898  0.4874587880409871  0.4251862697912235
  0.9266569980238462  0.5341532560096034  0.3769574765637936
  0.5445304274384882  0.9285037464316873  0.9856595302552610
  0.4420002342724692  0.4124276419377556  0.3613378242388885
  0.3007972041660220  0.0702263277570078  0.9147603823402904
  0.2434659845297254  0.0452903955423475  0.7861970784289697
  0.9735123067747893  0.0245633721956419  0.4705486119352179
  0.8293076829189133  0.0747001922141051  0.0377747988084000
  0.2346625662461521  0.9546794641138292  0.2203178553958631
  0.3874092326246292  0.1249302065078372  0.8721311659706951
  0.5212886045645968  0.1493806988288469  0.3123122270846756
  0.2303586117612466  0.9118252194986629  0.1795985109746522
  0.3208624952998070  0.8797267427756955  0.1884602783117500
  0.2701828924265410  0.8916922113812208  0.2229470533319554
  0.3151730920624567  0.8336396247800624  0.1414851957643226
  0.2315686455784478  0.0574299645427865  0.7231880595166704
  0.3035545194811233  0.0390995189449598  0.8099866719996449
  0.3664834008400476  0.8019810259093884  0.1657790537961214
  0.5312758305984908  0.3644554875910944  0.9999046990666787
  0.4780037837801062  0.2488919918447818  0.0395279232058829
  0.4722867941992318  0.2159505757142503  0.9375116329585592
  0.5705823634643331  0.1358976605198821  0.2774431309952418
  0.7272701543886451  0.2004411360314614  0.9682323969115634
  0.4286518811386614  0.1792807263834839  0.8766161488803019
  0.0660336817424032  0.3363765063671001  0.2077193379766708
  0.4646073311002819  0.2282002536089908  0.8804121747316238
  0.0526181092362892  0.7951390404980722  0.2869177662837864
  0.3501975164361172  0.5509683156213507  0.4553260798408818
  0.3274588737501896  0.3390434768276093  0.4153225877652029
  0.5391054940953646  0.8709590160399006  0.4875929531335155
  0.5877502361528403  0.8576479147119778  0.4516713649003587
  0.5873766747685064  0.5557699833845108  0.5345663655612926
  0.9767593639372643  0.9005711880597933  0.8004490204866154
  0.9055300496847567  0.9536516175925305  0.8214619698017205
  0.4739418311403604  0.7320795866214083  0.4462357771829993
  0.6747406482473761  0.7434880844042556  0.6103483274861077
  0.7622963965346126  0.8044334854633676  0.5796718369489525
  0.4812905818447676  0.8377602820056247  0.4779884797835628
  0.8318423082067413  0.7948303928465331  0.6014803137806923
  0.4281120324668026  0.8518499814745107  0.5181228951103594
  0.9216098344016380  0.8809064981519887  0.6734824259054416
  0.3341592161026948  0.9821779935524090  0.4498367173457814
  0.8879656187258577  0.8464429080254479  0.8382892012962975
  0.2828278920114511  0.0293338042602492  0.3621191163084994
  0.9307925587413223  0.9950568464241405  0.8580107991126574
  0.9240860343885239  0.0209958952696232  0.3371789078393663
  0.0409826690113280  0.9976814373240285  0.9462938821838950
  0.9319416384205500  0.1133915654956531  0.4201166099900964
  0.8803807535214394  0.0925145085097033  0.3466950495855266
  0.5941617584016382  0.6543402472341444  0.5571275351363856
  0.8880801412014099  0.1532054933931960  0.3259995692364175
  0.8311543761979239  0.1565475459603634  0.4207349190450396
  0.5929572799945581  0.0162258360977430  0.8544782779121816
  0.8227204493672107  0.9842835179972126  0.6755094254409939
  0.4195747304035105  0.1810572915480568  0.3810131895875007
  0.5763730053565532  0.1967567358800095  0.0291227104616313
  0.7455546090683056  0.7338844102829338  0.6409253895577152
  0.8366718208067174  0.8399801530737182  0.8815767298639950
  0.7043246358478236  0.4128459513447029  0.3381602345385856
  0.5369641828499264  0.6709971982546824  0.5356902983463857
  0.7838195431044829  0.7164560574391479  0.9924383169734745
  0.5164730408436552  0.2827247852646545  0.5581678107800691
  0.3725279240776664  0.2362319045736565  0.5750436800717540
  0.4272777981456578  0.0091935973180615  0.6445129730357607
  0.4504293731419044  0.0520637211868365  0.6838406807474241
  0.5045843649025917  0.3065025565024315  0.0019068322805477
  0.4464728143840005  0.3137371902136277  0.0506939019018793
  0.5981184765002276  0.1352717089782655  0.7739385428753489
  0.4464989103544831  0.3647979918851476  0.0935149611455981
  0.5111888747086279  0.0778873093239179  0.8136108380300994
  0.3975877100691020  0.3387552132223350  0.0117847237357053
  0.3948760247072052  0.3953837377356553  0.0648963639390692
  0.3988135231144653  0.4581359539560438  0.0461392562683602
  0.6585974560648448  0.1616782625277775  0.9005274947039300
  0.6179239816388203  0.1444781425704763  0.9469022059725776
  0.9400570066346475  0.2169415222168372  0.9815117364659153
  0.6415411002730353  0.0215119476623120  0.8126589906487925
  0.5988831967902374  0.8731389227687514  0.7883898276297890
  0.5114540992334039  0.4839651079527727  0.6348928202150901
  0.9166020100988606  0.4268334721393933  0.3490206991232256
  0.7363879469135313  0.2582236590630251  0.9259380937974839
  0.6811720916901437  0.2544663513085795  0.9547636513156079
  0.9364204104363566  0.0840892107373736  0.6712077823447733
  0.3022407358287723  0.6147510723774477  0.0851780323202502
  0.2457458453872908  0.5329340018766890  0.0338821597077092
  0.2101931996910192  0.8130933485093386  0.1662948008821260
  0.4528132610028822  0.1160377894015163  0.8969486198867479
  0.1653445074785280  0.0590150857773260  0.6953659843797867
  0.8195009281802851  0.3142478859043694  0.8744206803487126
  0.5557519259556940  0.6366840461896688  0.6579918628606848
  0.7142550071121341  0.7040271219631694  0.8006363896898085
  0.4747429389678682  0.4325698365060524  0.6304208222886406
  0.1679715977923859  0.9958938561879831  0.7915416423020427
  0.3745444139679191  0.1726800244791892  0.9154059572874553
  0.2645807289348223  0.1718979366746824  0.9375803830214836
  0.3289614615607870  0.1332447304391856  0.8540995888114451
  0.2194546652862396  0.1354930228954620  0.8720205189195458
  0.9538644141516797  0.3412212812542921  0.4039189391306242
  0.1710130801009760  0.0974128676305425  0.8055314540208915
  0.3074968895419521  0.1580899010579347  0.7293804164424558
  0.1570876266979602  0.1041270633747713  0.7409443409536041
 -0.0022965692830036  0.2467792239313127  0.4491502906106504
  0.1697293485535585  0.0131315474694274  0.6422437819651383
  0.3773101379770151  0.3251526960231236  0.9511923027216413
  0.9981014000219773  0.2159731919233362  0.3428250408909927
  0.5791820752080091  0.1612074020972134  0.6422453372266077
  0.4834839253600032  0.2333057942332478  0.5614192273710550
  0.6630500241251899  0.2492171296989712  0.7251733815922075
  0.5601316573895304  0.1177895724977645  0.8765384469274264
  0.5499442710103136  0.2171205796216049  0.6402217384276244
  0.5022057179029161  0.0556201381958075  0.9793182822019612
  0.0741307273200127  0.9716547977998737  0.4669279271430495
  0.9668417176511322  0.9655697385193552  0.4904171057958263
  1.0443897796687469  0.8305791588302754  0.5162616564365879
  0.9877278502922744  0.9522521741598261  0.5488900547446299
  0.9352244195201918  0.9842724596655804  0.6578510286769306
  0.9666937781214328  0.9462830338452932  0.6147933767023533
  0.8474106696282379  0.7747955204839331  0.5032761605958503
  0.9582545821333032  0.9016215023700745  0.5120862251394573
  0.8742976567445307  0.8460972339937091  0.6055917920759143
  0.4876805889775340  0.0027284497361799  0.6655928372649199
  0.9334497577339004  0.8365503881738608  0.6226598981660773
  0.8159151690399644  0.3319534619876441 -0.0121504990689151
  0.5210619645869167  0.2273259386854853 -0.0018588242767907
  0.4399336147787480  0.3164529228219143  0.9760829991480100
  0.4993149327894256  0.0517086399851634  0.5306172287272465
  0.4546559746603964  0.1472312346050601  0.4944533926758864
  0.5311112477387445  0.1219434161228382  0.5793571446758180
  0.2943709374833648  0.5013670034900630  0.0559679170417511
  0.2601806803504480  0.7837442004085504  0.1932600979055771
  0.2560268177487158  0.7516682810395363  0.0867809075093544
  0.4405934413020026  0.5360865765506553  0.6556983709979378
  0.6757152623044256  0.6575840882038750  0.3660356867841312
  0.7562088575094451  0.9595650769737823  0.1806426862373997
  0.6348784074129897  0.4363908779330415  0.5713027483547405
  0.6729408147306812  0.5189561092810652  0.6803428290163843
  0.8105441601810678  0.5824458775492147  0.6034904295121494
  0.6319907340437816  0.2086495382647320  0.1026516923694890
  0.7603830655784956  0.5884885999179841  0.8399437317190188
  0.8228492241819430  0.5819328348589945  0.8620180504112798
  0.6347751192333989  0.2421613690711180  0.2048545922676249
  0.9915284852238796  0.7261788178640901  1.0045190374397699
  0.5466580138487557  0.3972739656289731  0.2317545488647168
  0.6450310190022942  0.3500362491334611  0.2259080133636853
  0.5384970433919246  0.3934526534217088  0.5360127358284684
  0.5530268342050424  0.4579445824950389  0.2135387425552476
  0.5051399238920596  0.5211143484447847  0.2919557969642761
  0.6565287590821498  0.4099286763356690  0.6926338235016313
  0.7326316782754150  0.5126239363077303  0.7011022193890279
  0.4556649001541309  0.5672928461232332  0.2046737763272058
  0.6832705180433954  0.5060577571108746  0.7406344605335438
  0.4087772711513481  0.6281917123390831  0.2839086762977754
  0.7158711960220518  0.4371025745331367  0.8206206329257617
  0.5647013141781946  0.5974501162624015  0.3453874066611593
  0.5568318602127282  0.6257535131422358  0.9913845152680911
  0.8399609894769505  0.8096931142489119  0.7697542650325621
  0.7703886118094050  0.5786101642048246  0.8992958876252292
  0.8317854046885241  0.5597081614145476  0.9907997023922630
  0.8241074774717064  0.6194028646893797  0.9696395164939035
  0.8826469206030920  0.7279179351684022  0.9099090763809865
  0.1559590292933704  0.7804823011135983  0.1550028739612030
  0.2097463234262345  0.7973649650762149  0.2271414459030331
  0.9220882079961991  0.7452728652458063  0.8105681827668600
  0.2229310361198371  0.8665870656240532  0.1373995731816310
  0.8341702682706537  0.6475300046261202  0.5460483928880384
  0.8057604001680804  0.7960612477588369  0.5422532562041167
  0.1675953795336603  0.8862691655846593  0.1792102136916069
  0.1193493558148281  0.9170044618184422  0.1524086743220648
  0.1278526400475018  0.9602409951005767  0.1936312185045515
  0.9419118693932590  0.8199694270823547  0.6913449201831412
  0.9847266363142690  0.8735008715250672  0.6991093971110267
  0.6622660507307263  0.9837151520198372  1.0060426208216176
  0.7262919715043773  0.1043540036779943  0.1089075930964832
  0.0291862100543296  0.0369931711004828  0.8849932325689043
  0.7335128425677599  0.6017452577276805  0.5221195795050693
  0.6964978761189422  0.6605770311523619  0.5354742851680477
  0.5896751216954981  0.2873054133943386  0.1138642723224193
  0.5007595237645562  0.4423897049668728  0.1438377723098574
  0.3080486751506608  0.6745642312862190  0.2946013797655772
  0.7198092589310942  0.0287608945894830  0.9531315533346227
  0.6168367639575913  0.0582313681680561  0.0247967268869533
  0.5445998773985291  0.4461640680249331  0.8177627135169567
  0.0092207674571304  0.9032302101794492  0.1810590852451706
  0.0278773825260601  0.9263492149116374  0.9282168364765054
  0.6130406279846068  0.5270358479015025  0.4975376800646818
  0.4521104931844754  0.5212368128953425  0.1606818731490365
  0.6906910549316112  0.5955059606417189  0.5555874986155936
  0.3503776652638199  0.5676613110981166  0.1703016942317256
  0.3036215598472982  0.6443397898412354  0.1889901130010789
  0.8353732045230947  0.6563963119466086  0.7406541555212763
  0.3631138243321644  0.7219437149559477  0.2431144622636726
  0.2526308974159371  0.6758362561517421  0.1641185639208063
  0.5407362307595029  0.1110280679181379  0.6446386261109651
  0.4914971038709682  0.1042243050851174  0.6865877613385997
  0.4285564995309935  0.3952237317286394  0.5627851495794102
  0.4981284845125227  0.3753595631691014  0.6448788238069760
  0.8929756644809662  0.1818236742766557  0.2018614259906477
  0.2795206855723588  0.3457163215177005  0.5730898155408078
  0.2615325440643707  0.2383615166295479  0.5825892245965250
  0.3260271193063884  0.3847586791267824  0.6404789059825412
  0.4248500391464707  0.4272683150422743  0.6701821150307833
  0.7466902249921744  0.3365052786719208  0.3257751002121683
  0.3761176025167804  0.4219858449704219  0.7080971514618458
  0.5500118194144261  0.0985946371925376  0.7078921789520328
  0.5391753827253181  0.1421896017504758  0.7516099264583940
  0.9705735014920831  0.7823265961838877  0.8750492964169490
  0.6062512872743872  0.5750837789056084  0.9632621871316476
  0.0683095992288332  0.9006553015760221  0.0814462466993974
  0.4941252220127587  0.0724114434910723  0.5808154267557345
  0.2054745578871975  0.7659710597699708  0.1219239486192124
  0.8140459518046248  0.3926864157808218  0.9748800997338138
  0.1427563101059757  0.7560811949070031  0.0370845393638791
  0.2008069508965601  0.6128673803748751  0.0462434201996878
  0.2547125837979413  0.5894673815630609  0.0134705379999565
  0.7341767293773142  0.2280800304087237  0.8083068165488794
  0.5515893814363898  0.2503674393876394  0.7418851864217878
  0.6746277823850471  0.2360494967693525  0.7863558068902908
  0.7305977497941799  0.4232167976477507  0.4953692580419220
  0.7156631215327430  0.6719335235074749  0.6980866868998317
  0.7914698073020796  0.8042820848448123  0.8073623636481183
  0.4688042733393209  0.7213466747610370  0.2767633127633838
  0.4452006194141895  0.4113656553779028  0.1352124863860637
  0.5874408244402582  0.5988216729387463  0.8378175486549222
  0.7572261598307799  0.4120465138615522  0.2421173635460580
  0.8462022421583969  0.4085053825155275  0.9256971920487446
  0.8729702391352829  0.7079696757582491  0.7446165298970407
  0.9965218746146702  0.8738433978996519  0.9267028477453084
  0.6657575676649035  0.5500911025278140  0.3356828198884698
  0.5206911142674195  0.5383899114415482  0.9040184279547069
  0.6469923464685067  0.1734716863422446  0.8402240128926630
  0.1748560419944003  0.9279156803578937  0.2202420358386979
  0.5018346257572228  0.5302497712389457  1.0078763361846703
  0.5093714609533234  0.7548459720994103  0.6191443032745354
  0.6081237500821111  0.7988828398231492  0.6394913618239324
  0.4087894767548478  0.7571059215875229  0.0248264552736829
  0.3620252713299084  0.7745251928642662  0.0604368379028348
  0.5478424996572211  0.8336052445458650  0.7247340001898086
  0.8211930996960872  0.5508866993716435  0.5026037236236940
  0.2238188566036395  0.2198607474475650  0.6879732238603692
  0.2399192752756410  0.0783332016616422  0.8925698929296336
  0.9156072233306755  0.4105714934554245  0.4091912010422315
  0.8498127105617508  0.3367719053617707  0.3626313554244998
  0.8024880038074677  0.3667630343751408  0.3329583440493610
  0.7670393927626208  0.5038710185851629  0.3285630313785944
  0.8084426132100331  0.4123621499801288  0.3735043761514230
  0.4057012464800801  0.3870087838492288  0.8945742637667233
  0.7698504090690608  0.5313532467807804  0.4352310164934943
  0.4541914931842588  0.4391044473671588  0.0114895029360456
  0.1593965841911434  0.0280258958624515  0.5810776729457482
  0.7895465279795323  0.2263749429287222  0.2078910126143481
  0.7441489816565900  0.2710425879147753  0.1180770003018459
  0.4350330936547486  0.9330767618744944  0.4368679706331042
  0.7061411871985270  0.3961651249560522  0.1724869579125396
  0.5683926837124212  0.8003937576911664  0.0106632188890335
  0.8183357570865829  0.8605509530486083  0.9900822691844445
  0.4168924299497511  0.5623039477155591  0.5316681718538707
  0.5372339656977237  0.5938823608070849  0.8800139752377033
  0.6006450029637913  0.4279537271029856  0.2395817936648119
  0.5188048172063487  0.6062807059087112  0.5568524990069016
  0.4699921672278500  0.6001031911364647  0.5988603616295434
  0.7083737370694307  0.4414797130187940  0.2139393010632930
  0.6595138730264322  0.4724267123488216  0.1870660365283343
  0.6117371282453554  0.5363340010859995  0.2668391964093114
  0.6679405096104173  0.5819094997135682  0.2135203714488269
  0.5656090552216350  0.6244522757958300  0.7173422831278561
  0.6138193135907485  0.6613090076110980  0.7806982857321265
  0.6270985001031389  0.6484285817172450  0.8415365832428782
  0.6517766224151871  0.7118681999228199  0.7809813106875354
  0.6425020587926328  0.7565013434584599  0.8233771110169897
  0.6152732311515864  0.6941114170619817  0.8840034473463582
  0.6761853355718228  0.6863317970649758  0.9040208592579887
  0.5192202265033559  0.6743984375827422  0.3638051741126044
  0.7231197535774346  0.7287707440193567  0.9658928858614561
  0.4774626043796624  0.8121071194124238  0.3701377584083941
  0.4731426023869783  0.7661106295029138  0.3233892019128122
  0.9702294546710835  0.4309048825277734  0.5023344680156714
  0.7165168663603060  0.5023984270943818  0.4241632807645757
  1.0294068892662815  0.0038784084737900  0.2001537952615592
  0.6919929275425002  0.7609069000454491  0.7818971899690547
  0.4745519045511373  0.8232852698887987  0.5402549891711872
  0.9017713141520125  0.2893802814367570  0.2251593276404969
  0.5698393235855527  0.6745413696255422  0.2673304612973229
  0.3361967659671580  0.4059013383404439  0.8098269065074110
  0.4813821474542455  0.8738762867774059  0.3543703160281408
  0.4363952725761112  0.9497325737417270  0.3749067325298751
  0.4076945552405511  0.3538857664543990  0.7875531881509116
  0.4338449531744728  0.4499028314423562  0.8358523810657694
  0.9884241166160604  0.1083152928963713  0.3215292953181940
  0.5535153877621234  0.4677130966604864  0.9822410397954348
  0.9430888738559481  0.1852803176590114  0.3341976857427870
  0.1893958804251122  0.1350161730259137  0.5776102581120991
  0.1530259461189457  0.2381341147556404  0.6058648520490933
  0.5884492830062750  0.6339616282863431  0.9451788563020065
  0.9480329566542693  0.2465509771098112  0.3148808227016712
  0.9360861047696145  0.1038821048157820  0.1851090268477003
  0.6664708807865658  0.5658895666707576  0.2753205209616221
  0.7129461448128976  0.4884775401472786  0.2558988360198883
  0.7520092867072781  0.5224384872166832  0.9258668250729697
  0.9602405317190874  0.7945218029401142  0.8152364420888188
  0.0636410271302451  0.9174739796561606  0.2511081854156029
  0.2571546483698975  0.1160280729843512  0.6632236188888073
  0.1311257665383473  0.0570738069746245  0.5181652280413513
  0.7378238288199944  0.9638047437837980  0.8186497244179828
  0.3485115576303509  0.3263855165165456  0.6582603814262550
  0.7975189392941072  0.3214362443072148  0.2932476264253574
  0.2004614129426299  0.0944303607857195 -0.0088519078071635
  0.1866845811747437  0.2053641339427764  0.7923916791054523
  0.2478632166266470  0.0657779441642771  0.9567780365071032
  0.8756810267233666  0.5287189149846380  0.4711263282297317
  0.6152188923449664  0.5499505955582165  0.4345873566500316
  0.5922612083098596  0.9166997377502591  0.4348454519600240
  0.6448527009369260  0.9213033531171904  0.5710366008264325
  0.6523880753467290  0.9953290687140989  0.4876127522072417
  0.6391847534466957  0.6569213112943195  0.5179233546130528
  0.7390251988826522  0.7201330295699858  0.4809430947498596
  0.5401016233601676  0.8432160652550700  0.5633985368999260
  0.5909647548397008  0.8845680993555026  0.5622155806791936
  0.5409597084846176  0.9309900990167732  0.4712193122630482
  0.9483496651430553  0.3242706432369224  0.4695657164972110
  0.0124285361177072  0.3582583205387721  0.4823306154461482
  0.8257922520308656  0.4366612141880591  0.4825775942083180
  0.6128100876277773  0.9468018371146024  0.6677443528625159
  0.4893010695499883  0.5742166664317384  0.7214866707371270
  0.4511999188029933  0.4916381467776355  0.6117434860321345
  0.6233632571512145  0.9333672292281830  0.7351565679761727
  0.6319083515025075  0.8019093390020782  0.8664671034613437
  0.6157283404061662  0.9791590296790359  0.7752485949378801
  0.6375047543481446  0.8428155139264525  0.4154732170805740
  0.3057705067160456  0.1914439607379022  0.8337393136787439
  0.8521924020629894  0.7656078530657816  0.7257572127259673
  0.9361960448964020  0.1780726962138779  0.9340726746295148
  0.5831589921426670  0.7975730740976283  0.4671514541856741
  0.2026930361241666  0.6888835327671708  0.1982106317498145
  0.7502707302991563  0.0196839842435541  0.7933240452774658
  0.5083080204998692  0.3649522986944271  0.7072119196044817
  0.2123601547631452  0.8245617655616730  0.0974305764816454
  0.5069181401348137  0.3973815629773005  0.8138191321146719
  0.2245622493211935  0.8813284003685888  0.0711381148379052
  0.5558947508335169  0.4352283075165253  0.8792100879199618
  0.4779631849268676  0.3347375798804380  0.8712453252593528
  0.1813465965295289  0.9445465100420095  0.1559141018559025
  0.2894230529501727  0.9544200111303135  0.1208661726292792
  0.2855985882435398  0.1784445957291340  0.6053960798438083
  0.6776574270950111  0.1497177517761575  0.0230777312736538
  0.2664946538826234  0.0681396170298751  0.6176998003435282
  0.3113863948613080  0.2759664071729271  0.6537968717983107
  0.3440320203042011  0.2077906430462231  0.7336067751065830
  0.3924739509351236  0.2468651780829796  0.7987620766809765
  0.6597797234856188  0.2841702747134507  0.0017171360079039
  0.5599151895764497  0.2754958327886025  0.9100910419850146
  0.5553842711959351  0.4447767760918730  0.0494752768087597
  0.4881217136571665  0.3239621984903571  0.9322239106138642
  0.5038188273129176  0.4574104371678925  0.0850221554689276
  0.7064809274797884  0.0126717235811708  0.5578948871266838
  0.0998412200337201  0.7346805222189187  0.2059426108277508
  0.5574359636307338  0.4890510447044989  0.0911398941977880
  0.3894162735474487  0.3461768378420764  0.5555846693154838
  0.4546114135016672  0.5368798109060929  0.0991662776509729
  0.3596496635904057  0.2823259637471127  0.6145667249274444
  0.4581136370362244  0.5976249357381165  0.0823935891615523
  0.3045808719144130  0.7446412316786183  0.0468455122585196
  0.6637194604451142  0.5687814145638842  0.9879416465418083
  0.5625236591327247  0.4889894939922330  0.5989640679234319
  0.4694471784737300  0.1659248109956638  0.3470154047658033
  0.6217996498732870  0.5140463661729492  0.7192282486438288
  0.5737463316271506  0.4771050422586297  0.6555789205649801
  0.6337875807756210  0.5016750095569598  0.7799797104864706
  0.3069735113527996  0.6302759254451549  0.0255075413578753
  0.2532332409112829  0.6437530912361272  0.0600903988755609
  0.6823506692383426  0.5398990198100775  0.8448437141154902
  0.7094846433551592  0.5838222901168774  0.8827489364801526
  0.6492839153018004  0.5907852320793681  0.8618379021215187
  0.2418417999725589  0.7649861388087407  0.0221588571224055
  0.7195513618930379  0.5715964402338385  0.9471489104164295
  0.6985958238207483  0.6273695791613983  0.9262661119239132
  0.7383781641202831  0.6760313343902881  0.9850258025465348
  0.1996129653886330  0.7790348134038680  0.0600330947772234
  0.1285571789865363  0.9413418106330834  0.0175381806989540
  0.5119528065805663  0.6138533418279892  0.1524343850086646
  0.6791285225070898  0.0391611057123710  0.7089834697790738
  0.7279569415964776  0.0433274241307418  0.6665488793281840
  0.5573802108361813  0.5202792266833365  0.1951915712783825
  0.4006582676558184  0.5047482268263040  0.0932858209556519
  0.5349651304893056  0.4588409255251317  0.7575891211985989
  0.5823622481203206  0.4954834995077810  0.8193697525155231
  0.4055968723563060  0.5869906823654287  0.0128805762920942
  0.6918046198354743  0.5288061587062131  0.9060939703345796
  0.6325172333612070  0.5356730820734729  0.8838023939815726
  0.3027125413924139  0.5699120484861474  0.0436809845135946
  0.7177799881755229  0.4542927689366587  0.9853627136150407
  0.3573114973571945  0.6478962143877472  0.0921854316366253
  0.3371088496699590  0.2035125611569849  0.5052985294254504
  0.5699514950303894  0.7773704768468302  0.7423380989777424
  0.4097719844152167  0.6779424286161496  0.1025604579406167
  0.3789709931245027  0.1384403248282217  0.8127865699976610
  0.6437899033265396  0.8162081593623089  0.5378797976270375
  0.6959062913217637  0.3018793910074479  0.0886831854379257
  0.7056138951716783  0.8378035372819189  0.6016585886998955
  0.6509228301062930  0.8467953205189858  0.6455383217154311
  0.6594931823564497  0.8325409460304025  0.7034540376353396
  0.6045849963789479  0.4414673525831113  0.1778357468719862
  0.6944180516320747  0.8825544894822048  0.7015756576301548
  0.7966506963353386  0.9238373302790208  0.7322978483060455
  0.8083061287817749  0.9108537746119574  0.7956050006839082
  0.4131600848651827  0.2101752683273489  0.9807254530360914
  0.7975207437295899  0.9549680581970480  0.8392419909547971
  0.4131265327439222  0.7242662815106281  0.1472229340574319
  0.3514414926154602  0.5669989356732051  0.3961984648360967
  0.5670119800255096  0.6595542510818373  0.1004322073176853
  0.4141927161600719  0.7076541293379234  0.2066825804226350
  0.4160983037987087  0.7536829478484673  0.2531480227358894
  0.3705455725107565  0.8296922798844254  0.2737314153253885
  0.7306172565666992  0.8105423702075182  0.7856424579139890
  0.7089883019549135  0.8696020529782217  0.7677990800248469
  0.3251466311328238  0.9243596140184164  0.2332628523827287
  0.7577661550094018  0.8745271707565625  0.7286081812907402
  0.7687927816063359  0.8915248707364899  0.9010284693787398
  0.3308366194359164  0.9703731633852961  0.2795499153182783
  0.8735992360655227  0.9896497347970489  0.9035952439711417