Cr N  Ni
 1.0000000000000000
    38.6909066207142374    0.0000000000000000    0.0000000000000000
     0.0000000000000000   38.6909066207142374    0.0000000000000000
     0.0000000000000000    0.0000000000000000   38.6909066207142374
 Cr  N   Ni 
 1596  50 3725
Direct
  0.9718178129081090  0.9377510957734695  0.9045389069096367
  0.9924477992366829  0.2165893587241459  0.9431167188296787
  0.8580775923955619  0.2123310050998261  0.8475598729619285
  0.8225077851551372  0.2831736222094284  0.7719581036759685
  0.8060198397784402  0.1757438346926062  0.7809896747898262
  0.2463664143055002  0.5657822241941869  0.1380104526090946
  0.8815232179077835  0.2748225100103429  0.7911096309089457
  0.2445373808761341  0.5502080184432977  0.1959955656678773
  0.7695242522041427  0.0910687779622261  0.6732436582504890
  0.2930688329228369  0.4724644180660449  0.1797341870225352
  0.5863318335606801  0.1806236658028283  0.8196707567830286
  0.7114390674020461  0.1147484628086370  0.5808822224702402
  0.2356375492573480  0.3923815243793976  0.1237795447044677
  0.6653505304573302  0.1004962532440919  0.5115753729645213
  0.3398744752603175  0.3956463029203879  0.1636535109048453
  0.6006401828669682  0.0079010931172832  0.5258370431757668
  0.9649781946292092  0.3949868302638117  0.9688770713516205
  0.3269221527286355  0.2887654948304821  0.1441609601699528
  0.9899027396141277  0.3043223173145916  0.8753254521713442
  0.7895061938607926  0.0685102982802994  0.7962042210314977
  0.7613810110713850  0.0086804419465289  0.8575819726523028
  0.5731635008342603  0.2263344389820044  0.8646319790252726
  0.8482208352517481  0.3451653335122142  0.7120238720298214
  0.6329364775721259  0.2276092707153547  0.2678107510374653
  0.4615802299719654  0.0738482930088058  0.8532668908414938
  0.9443194573271132  0.7937463359014951  0.5825155015097772
  0.8589974391006601  0.9460459897498266  0.5212504230358580
  0.8151875742587621  0.0257856158868393  0.5353036248068047
  0.3204793771345734  0.8107763095589688  0.4331712314224840
  0.5674187097296608  0.5658564357689205  0.4694351962488477
  0.3667676523249164  0.7506931850198196  0.3501674545144233
  0.4914616352779239  0.2582422832088066  0.7213644869863648
  0.3113747716636253  0.7379955492747878  0.2788033756397992
  0.2662068510979874  0.8163699465302322  0.2987402071308429
  0.5697710638464087  0.3243410324196613  0.6227938301778616
  0.4705101448566288  0.2814288206163110  0.5969874072220306
  0.2753104386467172  0.9218268916748075  0.3312333181158403
  0.6190571823437884  0.3619112990373590  0.6902292665108841
  0.5457543961530109  0.4132152837602154  0.7138738145885615
  0.1630028137535941  0.8578341462359618  0.3082129541345539
  0.1288108035745449 -0.0109532537884065  0.2998127588309419
  0.6276738080908114  0.3825389876518568  0.8599017766409586
  0.6876250515024578  0.3750184845852857  0.8803313720874355
  0.8310002212951887  0.0914936490415823  0.2109091235883316
  0.7360665329264832  0.4109480727740292  0.9478071628908522
  0.6441531698291473  0.3668726180650649  0.3940285831513679
  0.3923644704562845  0.3282417515938138  0.0816475084888146
  0.8190010074891509 -0.0000317046887315  0.8792712163810149
  0.8570475796325817  0.8645504601878004  0.5474813004197606
  0.1118084788851504  0.5086384769103558  0.6057998135639400
  0.7943760766700071  0.8422394020670847  0.3563910961802448
  0.7775301079914589  0.0909437778871712  0.3100586828271759
  0.9446281161220204  0.1794474471305640  0.1049022302540906
  0.9047005040682377  0.6374828749705568  0.8235953594954384
  0.9292132814770970  0.9765783843526452  0.2075345484206412
  0.4715867485954000  0.8004219298996365  0.2008794070696856
  0.3097186145758027  0.4532841024706633  0.4687061153410748
  0.8246457441278333  0.0279879771475541  0.9928892075797257
  0.8133974331595157  0.9545323204498528  0.0784976610091543
  0.0646597498585657  0.9868914043686695  0.8819103196916280
  0.7193608194190533  0.5663359016723358  0.1798568028549762
  0.4446731200365445  0.6380873515138578  0.6738986236461680
  0.1472871942333998  0.8897551954441227  0.8061960071773121
  0.8999665726576342  0.2567884771873323  0.1216604360890782
  0.2382830154869855  0.3620137779868050  0.7822604696474471
  0.5359582040382915  0.8480836678896349  0.6610935119241642
  0.7154981648897162  0.5023490574502296  0.1962824795877791
  0.4500825766336231  0.4266858073400803  0.9591269731442955
  0.1570479108926093  0.9031159986168844  0.9792421937760051
  0.4146780851112039  0.6089162528285782  0.8377496258180320
  0.9543021021452995  0.8928877532901351  0.1137078980430414
  0.5667133557557829  0.6749252807390866  0.0416762345051141
  0.6244200785613939  0.1212275996119914  0.2427678643477547
  0.7912890962372906  0.1552471856817441  0.6114686683035906
  0.5565694737123770  0.9843778003340325  0.7524837153344885
  0.7243940832242907  0.0755265440503443  0.2395898827329843
  0.0338489134740665  0.6082312057281034  0.9304944432328732
  0.0670378942907850  0.9440382505196353  0.3570245904859303
  1.0003076358470533  0.5466599635250392  0.7260693590518483
  0.9141365543630302  0.4565985265302999  0.6585878430162692
  0.1643480931641736  0.8969055990871660  0.4219598344710413
  0.8766524920060134  0.4084821534949239  0.6546456299670197
  0.7933669436778599  0.4736662717126332  0.6183556385621559
  0.8655145533937938  0.4212960973684337  0.5929914221538894
  0.7668520009482138  0.3793358199826354  0.5618497370422507
  0.2617248710501185  0.7501989112709148  0.3152878126781272
  0.2516845297034305  0.6440924563168342  0.2872205789881505
  0.9292714868422879  0.5670045455432124  0.6435675339159936
  0.1974893847777452  0.6290462761230624  0.2142205984334175
  0.8561552869834224  0.4362075783100736  0.5364544428417168
  0.9667103254498094  0.6170870108634987  0.6470179478870471
  0.6354709654089457  0.9533969770084364  0.9028783710821290
  0.1979291418757201  0.8655052919986772  0.6604788757525786
  0.8286968779813370  0.7234014386801458  0.0579838153238312
  0.1357266519623060  0.1641799310431361  0.7231944112265319
  0.5224993437108608  0.7521595680433117  0.2879852665552846
  0.0743542100218123  0.4597312830693146  0.6017831405829925
  0.6215494673851851  0.8476991209890450  0.9153002929971060
  0.6153205503777224  0.9782358639836196  0.7746359635600651
  0.5856238574292072  0.5543048715800605  0.5423888943122568
  0.9759254679943182  0.9009889256964635  0.8011200570949647
  0.9044926403974594  0.9542202214026840  0.8214982995781154
  0.5246569278026550  0.6998992218300849  0.4712606712745440
  0.6780827407718333  0.7453884609375171  0.6127098491426994
  0.7575975803650700  0.8079492498412492  0.5769633559062844
  0.4807609701888605  0.8359734034874325  0.4776439279943637
  0.8328600160333500  0.7932379758648184  0.6020217008600202
  0.4270043190567014  0.8493587702425891  0.5172220077081847
  0.9200879333658185  0.8800122717530934  0.6735853722865105
  0.3351518480540552  0.9820783547559556  0.4496039911389630
  0.8872012054718319  0.8469262363912111  0.8389537496574306
  0.3038894434455970  0.0711313657520292  0.3194727499827903
 -0.0075859009266382  0.9901178209762986  0.8811119825839508
  0.9247465302563584  0.0222546395899422  0.3388875084031531
  0.0385842772159506  0.9978000038204718  0.9436062794348196
  0.9322125288507777  0.1123617949641969  0.4202183442124542
  0.9286269839340907  0.0648778373891011  0.3791488688214569
  0.5948335339755728  0.6546330216836457  0.5570048631745022
  0.8816896366195497  0.0915012643925431  0.3473926841821157
  0.8323637736956857  0.1550975641401024  0.4234952254717104
  0.5921848114735102  0.0162397517776551  0.8551677450202690
  0.8347961171688297  0.9726400970756851  0.7357531301797209
  0.8844468155971039  0.7045606213089061  0.0292607551426349
  0.5585766720195721  0.1167285355428327  0.8771626719699768
  0.7435971152095290  0.7366194013926187  0.6406447635442860
  0.8362624337384226  0.8404075837415350  0.8826433144878608
  0.7049481066961573  0.4121977800746445  0.3386101588670815
  0.5380919125957970  0.6702797588911547  0.5356022579514118
  0.7828665620549154  0.7170934142480963  0.9916780805955349
  0.5202740617160432  0.2829793314940973  0.5580703179752210
  0.3739953071912235  0.2377374646887818  0.5744230794327252
  0.4259933016037151  0.0109315526363928  0.6440759564195259
  0.4497175014097765  0.0534357041763302  0.6834325695936811
  0.5002800508959999  0.3061485075865567  0.0015769846492075
  0.4470518879054278  0.3177785919556117  0.0535559954558659
  0.5975603981768405  0.1353897570141790  0.7739902921117350
  0.4467568617411257  0.3650085815815343  0.0925489238501300
  0.5104303139071128  0.0784344918407918  0.8130096432365257
  0.3985958789701528  0.3924010695610317  0.0646266783551630
  0.4526139331439907  0.3786402197693003  0.0300321880871786
  0.4008609602928846  0.4572564309225172  0.0460444195046738
  0.6566280664295965  0.1626454260849499  0.9013814952626530
  0.6186143324331125  0.1448532303360766  0.9472591685896816
  0.2303380305145882  0.7942953151791409  0.7409146568856402
  0.6132674707848025  0.5391330577380108  0.0382043608619220
  0.1160410969354481  0.1912918634862889  0.5956324221441245
  0.7583843766600815  0.9061427379641405  0.8373746260979958
  0.0416024122763018  0.8192185746505566  0.9968630445430311
  0.5518316066691747  0.2170319093589442  0.6405849128159098
  0.5010911280645503  0.0556933351064012  0.9801282803568926
  0.1546094550318831  0.0721849997912533  0.6318273390638036
  0.8190498566119048  0.3140148846200654  0.8753060439083458
  0.5550029534626870  0.6379814079956962  0.6577078136740238
  0.7128883907443234  0.7051543341366407  0.8009318807160065
  0.4748955725635055  0.4330903845338650  0.6309292314542183
  0.1680046043242451  0.9968736411471184  0.7900319824365450
  0.3740887314539781  0.1719221771551019  0.9162603406505488
  0.3148861719685098  0.1786376207518228  0.8924644851055077
  0.3289845550421357  0.1335445686989014  0.8541302521969817
  0.2704623431786521  0.1412008288215455  0.8313925099733891
  0.9548127775641887  0.3410091746492582  0.4009304081523926
  0.1708105461709779  0.0984164928261687  0.8042217443569430
  0.3073948386294294  0.1586277613899072  0.7286640581266788
  0.1564396795783292  0.1047814771288647  0.7411909357008859
 -0.0003773840804555  0.2452574257910409  0.4473050944674136
  0.1665689968158782  0.0156107130289044  0.6442072918502342
  0.3747688515054428  0.3234898023129516  0.9598448028652647
  0.0031461689567203  0.2632615239236256  0.3878819041029897
  0.5853864045880285  0.8572065633608159  0.4528538383210103
  0.5342672644532360  0.8663049194630408  0.4928260051557720
  0.3059558832164464  0.1917508543101384  0.8326909048148465
  0.1844035134096433  0.2038484279468538  0.7897060775901199
  0.6363420959880355  0.8436867341047403  0.4157003317032124
  0.4747588157172326  0.0625981509426355  0.9155395688539477
  0.0753862778108889  0.9714157678470710  0.4646040562825617
  0.9729727946579579  0.9614666720925521  0.4924791534340268
  1.0424515890323804  0.8334085788885374  0.5152265478680694
  0.9785867288904097  0.9490441378410194  0.5542875254560813
  0.9386143018310026  0.9849880330245896  0.6528355241061070
  0.0088895966397291  0.9715074420771542  0.6533471158890917
  0.8509396928539977  0.7791128415721863  0.5033353885702556
  0.9554466788090588  0.9082295707228686  0.5136348209566725
  0.8822658942769513  0.8287510150508037  0.6689286060698645
  0.4857491303887804  0.0046143050498284  0.6655358159826237
  0.9326034832094131  0.8354997458213731  0.6240124986364322
  0.8168345255201126  0.3322389196740895 -0.0108087947833421
  0.5225283290683683  0.2270742242011216 -0.0022920371675811
  0.4080423663296691  0.2805467507223466  0.0200219975027329
  0.4986740700370333  0.0506927172024831  0.5320493952435504
  0.4554445018644607  0.1475265047985069  0.4936412566049204
  0.5332048386491276  0.1228185108900698  0.5776070092626922
  0.2946035629738700  0.4386557970720819  0.0754858324927490
  0.5279883050414874  0.1551146935621256  0.6856987102883222
  0.9354256629112583  0.0850596613329841  0.6695068464368774
  0.3023560668725690  0.6145842389129162  0.0848570674259140
  0.2462291376770095  0.5306996207805438  0.0342028452586645
  0.2098908969058438  0.8134777434075218  0.1656464280044697
  0.2602367397051945  0.7838708915080338  0.1926511501685501
  0.2554421899904972  0.7522719428724827  0.0874812253034839
  0.4412192146238590  0.5362657382599292  0.6568090925077494
  0.6664172318331401  0.5497949120112064  0.3357403472212447
  0.7552117253234608  0.9601691535838807  0.1810347612874096
  0.6355703561544594  0.4367180057733416  0.5722165350309475
  0.7098406944354391  0.5703367346988381  0.6835509448849331
  0.8099574420695949  0.5830295142939474  0.6036717612450705
  0.6335015512728310  0.2084845118280903  0.1026056959991158
  0.7599266892157771  0.5888027875749048  0.8405948283436345
  0.8223862947496946  0.5824043282782324  0.8622989741934208
  0.6424175941962290  0.3041325326028753  0.1854254186385996
  0.9900869425790417  0.7251990007800292  1.0037674095329743
  0.5474028847319835  0.3960600754693643  0.2318209783641512
  0.6464511030431749  0.3483708411937126  0.2261498223493416
  0.5396219648444214  0.3942896401142340  0.5389930574533244
  0.4522323221121146  0.5054756897887889  0.2216706907337768
  0.5054804161781794  0.5206428249633078  0.2926634897438628
  0.6562470115554585  0.4105541836111551  0.6937667303602384
  0.7332548999778212  0.5134337464358757  0.7022221321038308
  0.4559546827135752  0.5662219751736073  0.2048262865726699
  0.7047786355256400  0.4498764345203442  0.7595517156691125
  0.4090517230969180  0.6278453802447378  0.2841813491973793
  0.7749086403726716  0.4302197239833569  0.8426058318804289
  0.8729402516992384  0.7084835268916954  0.7443694201148109
  0.9968631938965063  0.8735813623050593  0.9296227691165235
  0.8394126880667923  0.8101043476044584  0.7705168911689223
  0.7698542401222959  0.5790211333192689  0.8999994145172130
  0.8315106507342082  0.5595635338271205  0.9911005287360971
  0.8244287676520331  0.6209174170319484  0.9691293640225925
  0.8823716571963733  0.7284876600545878  0.9097767150441889
  0.1546108012780376  0.7808203408852855  0.1548893449909116
  0.2070938662930733  0.7821965675697560  0.2875171458835585
  0.9214952752655790  0.7452008841782685  0.8101704387729414
  0.2229569733490771  0.8662491180741357  0.1363044108109950
  0.8354639415886018  0.6467078064108664  0.5404920108290179
  0.8828792293444101  0.7993969153154628  0.5627997870048888
  0.1672840349666220  0.8866672081640308  0.1781600631440102
  0.1194181535175151  0.9170103448875100  0.1510975468053102
  0.1278875379482500  0.9593200965753739  0.1929393999800619
  0.9402615936950814  0.8197392400081002  0.6919701426242953
  0.9837856172532481  0.8729260268536022  0.6997287112117840
  0.6615085232875774  0.9843203156185509  1.0057728220343405
  0.7711906382239049  0.0297251064200550  0.0920147707545462
  0.0291640038282435  0.0357181452690003  0.8829448406644490
  0.7360539148607583  0.6022132650520878  0.5223611049684846
  0.6973531391036705  0.6614444029199736  0.5359705609587669
  0.5920704721528750  0.2868892447346654  0.1147321173489785
  0.5023828392100422  0.4422171009156851  0.1442192714758027
  0.3077150158348563  0.6742224469685305  0.2947711759737479
  0.4845213650593890  0.2346855371972827  0.5607452130463583
  0.6827947081535098  0.2539001580723810  0.9572862605554081
  0.5444279004804240  0.4468037655289072  0.8180640322681089
  0.6161862489685412  0.0594095977799536  0.0250053538079071
  0.0400489677562043  0.9211971912684851  0.9389044741464191
  0.6098911729272312  0.5216244446866946  0.4984910694704193
  0.4528245264880160  0.5203033929148683  0.1620731397330923
  0.6902722920877364  0.5970492854999381  0.5562463157175785
  0.4029365626772244  0.5507017369075700  0.1361657577987410
  0.3039518921780726  0.6440935879444801  0.1889922299288967
  0.7752346777779155  0.6633215480367525  0.7205441736779487
  0.3619359733715794  0.7220141322213992  0.2437939775584816
  0.2526927506697052  0.6755321180837288  0.1642920425887411
  0.7187850270496711  0.0293838337588685  0.9525135129961702
  0.6308281130755323  0.2190963184710417  0.8879033367223937
  0.4302530872388833  0.3962926217713749  0.5639043386039928
  0.4977650390821315  0.3763056814333293  0.6454275724592858
  0.8943690123299796  0.1815453642793276  0.2024210762909232
  0.2805640477385548  0.3485229508594729  0.5739363841647233
  0.2037228385660498  0.2484326042605856  0.5613772609414101
  0.3263601653606369  0.3855439644077261  0.6403378905851309
  0.4239906478984267  0.4287113575847525  0.6705247697645963
  0.7477630452871797  0.3356602595300666  0.3261727724691291
  0.3752222751037033  0.4229920638222995  0.7078796974341131
  0.5762762364945592  0.2025770254648636  0.0261582249918711
  0.7362417554545510  0.2574538731194622  0.9260814368159739
  0.9702481184635042  0.7828369424262578  0.8757322846021831
  0.7581478008936877  0.4115988204108479  0.2423000460635193
  0.5387655448146345  0.1423260671522160  0.7514280828135866
  0.5503389453133747  0.0987829997388319  0.7087743148280976
  0.4899358139886101  0.1052239445716329  0.6865002334848939
  0.5414149610371054  0.1127460695156875  0.6445675603409878
  0.0087167073519386  0.9032619650773467  0.1807038349241691
  0.0676963258917865  0.9016075776977955  0.0812073994598643
  0.4945957380650081  0.0750095990498419  0.5806232675457677
  0.2046690262306322  0.7663210776953221  0.1227229089944256
  0.8152347572308088  0.3924797503665063  0.9755804070608982
  0.1424213901233440  0.7560171100886113  0.0386790820492237
  0.2009287785445011  0.6126665846165207  0.0457049133034345
  0.2596363427936115  0.5861645735521613  0.0160923628451838
  0.7333687633063998  0.2281067410182697  0.8096930350891881
  0.5517273777874503  0.2507035549170633  0.7424366075331748
  0.6743630738441488  0.2361911768503951  0.7877456395140922
  0.7030155748908119  0.3862845547550517  0.5414050422801258
  0.6921216553287778  0.7307576580907897  0.6784545874783411
  0.7905167885778530  0.8048929527331327  0.8065135447354437
  0.4671382372820505  0.7373850613743076  0.2161364920455095
  0.4467848906698803  0.4101854064963473  0.1358732190637144
  0.5865343710129004  0.5986803991076011  0.8391746023023682
  0.8453896432463969  0.4095002819024143  0.9248823856877233
  0.6630755060015825  0.2491529002443437  0.7266713838318657
  0.1753683399673210  0.9274725048234530  0.2199644937632508
  0.9478290104142268  0.8395239428801743  0.8599912827828028
  0.1339537377595135  0.0526882537599158  0.5202390256026398
  0.7372783255114068  0.9647140862674307  0.8188688030425536
  0.5006869474676897  0.5278667304200050  1.0091165052313384
  0.4806854207919679  0.8268181471625484  0.5377167618305213
  0.5674213298861882  0.8009519293631113  0.0099191855801736
  0.5100690449506703  0.7547439693680261  0.6192076772376905
  0.6085598070874204  0.7980201083471378  0.6396189889975207
  0.4076244189809612  0.7569051109741463  0.0250747792966109
  0.3614951602661211  0.7739230186718018  0.0606714888458086
  0.5475021946920935  0.8344438744907826  0.7242514438422912
  0.8203431420434052  0.5487561293408502  0.5039904497967211
  0.2233690873735373  0.2206493758664563  0.6881116253811893
  0.1999756302689863  0.0295531379165871  0.8898269930237099
  0.9159111446757767  0.4114173334092126  0.4071767706068644
  0.8509659716223577  0.3357112877541363  0.3621915024257213
  0.8034365348268746  0.3659136580306781  0.3327283117862646
  0.7672396125665218  0.5024577430671309  0.3284806102531723
  0.8092549206832861  0.4115301474233906  0.3729917507185166
  0.4046806733745412  0.3867458723118466  0.8945420236003020
  0.7718832609311003  0.5305680332108349  0.4356648842391710
  0.5055048139654239  0.4706223729583102  0.0248890854161355
  0.2570213389238316  0.1174468217380601  0.6626754613043149
  0.1196286205338589  0.9759874722245855  0.5785473620423880
  0.7911108145397150  0.2259947918724083  0.2078851466414770
  0.4768559932205759  0.8117749514084330  0.3702962845316478
  0.7453940903662969  0.2709359423726344  0.1181582064932855
  0.4338390619515746  0.9316748878014756  0.4372405723713635
  0.7073972700413267  0.3963588540130111  0.1728429949500932
  0.8195428294454684  0.8618048581428714  0.9924509004744024
  0.4170482788777611  0.5624357135595205  0.5320744164416134
  0.6020326193126472  0.4267959669616697  0.2404548649182631
  0.5191457910268628  0.6064344267577368  0.5567442510410594
  0.4691515899339580  0.6005180445503077  0.5999207262694942
  0.7090497894465401  0.4411332472131758  0.2146345634165343
  0.6604048226757400  0.4727286863421695  0.1874512165916347
  0.6123194681550750  0.5359068388439444  0.2669605396443998
  0.6689996411368194  0.5815042698122905  0.2147871691513547
  0.5430926494979560  0.6818280427460027  0.6985014203125310
  0.5922896783371869  0.7195055531117641  0.7620533871964004
  0.6262668629559465  0.6472760300992906  0.8414479517920709
  0.6522282368819071  0.7129339370500870  0.7816459485034580
  0.6416558603959691  0.7563477356151416  0.8237790086761146
  0.5642764486688557  0.6910489973570005  0.9235146324405036
  0.6766333488845813  0.6866089475559012  0.9048154671442498
  0.5189527465240944  0.6742557307335124  0.3633421089547151
  0.7228335578897223  0.7291468911244533  0.9660735061847012
  0.4726664964274428  0.7665057508907578  0.3239684127067463
  0.0628341120390558  0.9165406071049035  0.2496828489161815
  0.9716418103378440  0.4314553162427425  0.5010867373604492
  0.6059823533541842  0.5740096679575599  0.9647707663655996
  0.5649634302058154  0.5974120957368426  0.3451686321717625
  0.5541787591085470  0.6258486786410720  0.9914095507649869
  0.6798781097467806  0.7019638356910514  0.4124326007552264
  0.5698244211421166  0.6743891756800149  0.2675763686883947
  0.3396674107970722  0.3413554200753700  0.5948956742064198
  0.3356582092680719  0.4061401034891030  0.8101001066713190
  0.4810510128059673  0.8734234687586317  0.3539827982759126
  0.4361162030109493  0.9488591026421710  0.3753325716724594
  0.4072106452772738  0.3539369484593289  0.7880038348786012
  0.4221512232551609  0.4945734930191223  0.8780774693097301
  0.9890848136384577  0.1080413964035772  0.3212427226423809
  0.5428150187123510  0.4796015626199776  0.9218934368196207
  0.9441335347630031  0.1852110067898968  0.3335326097194150
  0.1896598025139838  0.1367796678832012  0.5773027898087376
  0.1542004184592650  0.2400828936273670  0.6051361017339285
  0.5886644472923404  0.6331962821034784  0.9454297189245040
  0.9491075734319723  0.2462653844740488  0.3151456026850695
  0.9369486915545834  0.1039215631179122  0.1848943582724099
  0.6672292041794942  0.5656157199902329  0.2753595881340066
  0.7136007968168824  0.4881354761056250  0.2560606971980227
  0.7508873147789887  0.5238916843452773  0.9257711554668636
  0.5202744561052384  0.5381950515202145  0.9055063053640747
  0.7227569186084821  0.5645591852888492  0.4072685085322404
  1.0290423069547170  0.0037430195699327  0.2000194527235667
  0.4515705774346080  0.4920270577669799  0.6122426604603125
  0.5373883257661947  0.5943284291509647  0.8809363650117251
  0.6904630403124399  0.7627078627268643  0.7836995209155539
  0.9034096352768261  0.2890766404194650  0.2252191151303968
  0.7987314945936150  0.3206161686448659  0.2933726458466393
  0.2003543903323624  0.0956493006335121 -0.0100777391276765
  0.2474839697848404  0.0664974390219295  0.9555153809645003
  0.8764045743202212  0.5294618161811525  0.4711284565797834
  0.6551117599058301  0.5623504098454207  0.4980439910765149
  0.5917618808618740  0.9151776407024639  0.4359277816286096
  0.6469206857152906  0.9193993825065447  0.5703823665049110
  0.6519135294066116  0.9943869903291482  0.4883548995038082
  0.6406466922231803  0.6559598134570364  0.5162688249807573
  0.7394418137999040  0.7202938661355588  0.4812879174371572
  0.5404252893492700  0.8411519170477467  0.5629941798277132
  0.5886843735915067  0.8809219897380022  0.5615343532325155
  0.5402445844055135  0.9284097824546321  0.4729122862140949
  0.9484041922137213  0.3294162335506748  0.4649450599438652
  0.0085473506076866  0.3598381638160739  0.4810385760866020
  0.7678405892726958  0.4603473855369868  0.4573083422178482
  0.6146330950579135  0.9462925542195084  0.6667008958554331
  0.4891749939202467  0.5742593500273201  0.7223980788684656
  0.6248547273839559  0.9342822694707957  0.7322198395080256
  0.8515966882353215  0.7652935281907638  0.7262437106659909
  0.9703510252615393  0.8919168145403873  0.0310748035984440
  0.5818948828685113  0.7964289354083240  0.4660841943626731
  0.6214868387440178  0.6909259150260152  0.1114918584474285
  0.0728247700394244  0.2032011092170363  0.4920865460728480
  0.5080664453645877  0.3650677895328480  0.7082523181434436
  0.2129810910582205  0.8234333617638120  0.0970226925077318
  0.5063554977749738  0.3978603420101582  0.8144508610826344
  0.2246100946238882  0.8814034958103754  0.0697029399922831
  0.5546408582426849  0.4353724590932669  0.8801943278510174
  0.4774964533251254  0.3346742324182329  0.8714186526075112
  0.1816356945349628  0.9442934370487205  0.1552885857423593
  0.2895816059291397  0.9551537106426405  0.1208393393261580
  0.2857672904407323  0.1806010712192047  0.6053840893213217
  0.6779866385787756  0.1502193578856285  0.0230981018867863
  0.2659510464556752  0.0703327685527677  0.6175693523278933
  0.3112405634714253  0.2771323370400415  0.6536585830175440
  0.3440191546840173  0.2081129534063400  0.7329202716790312
  0.3432372895488045  0.2424217271018219  0.8375526762594853
  0.6549327993968189  0.2832859593728440  0.0172309450955429
  0.5592253676130203  0.2729446426382784  0.9130809753554779
  0.6057906632919733  0.3617578816254696  0.0252976627500702
  0.4388999413700300  0.3153662648724176  0.9742406157273260
  0.5050523959485755  0.4581086228482703  0.0857148435870663
  0.0181579461137737  0.8191807287942752  0.9414448376881365
  0.7613542593505531  0.4259993526702847  0.1805862325277621
  0.5583875552896308  0.4894840729525545  0.0924727535206853
  0.3915900315445530  0.3491112224992028  0.5532394630328730
  0.4535664053983469  0.5517796649792615  0.0330806412334327
  0.3611180126914261  0.2831655435191403  0.6138231734575637
  0.4591581325857879  0.5979009247865170  0.0824181818119443
  0.3045432928215740  0.7443366602545928  0.0477350958748265
  0.6637640548356128  0.5683551730079519  0.9882658871512443
  0.5623276028503952  0.4894754652976601  0.5996240033763521
  0.4714088782444964  0.1652444876943652  0.3475772389658472
  0.6220714811352350  0.5142540775815423  0.7205177743716178
  0.5735593863697440  0.4775297599732418  0.6564702552806190
  0.6323285871414683  0.5013688808481140  0.7810758281310831
  0.3070040400055298  0.6296997317805528  0.0256826854178109
  0.2535970224928465  0.6437312465798025  0.0592551401672733
  0.6817828494061086  0.5407097044062349  0.8456406487008769
  0.7088757477631634  0.5841640557649669  0.8824091965775904
  0.6486364300264468  0.5910457492733264  0.8617029695011433
  0.2424298806684098  0.7645506015105361  0.0217778031530893
  0.7192621312877663  0.5711758551645051  0.9468937729026902
  0.6978736319228240  0.6271709514067300  0.9258980506917373
  0.7394017824030061  0.6756653154096126  0.9861308108363658
  0.1993579119654921  0.7777420798395300  0.0602696947108791
  0.1700919471161224  0.9621897906067699  0.9677709668686980
  0.5131306388219625  0.6145009413503905  0.1530807819824718
  0.2580514688703148  0.8887127874352476  0.7871650322678556
  0.9822517223261931  0.5353204387794652  0.0525300985667778
  0.4133145201377776  0.2062620558897844  0.9789329753504127
  0.8066532447865102  0.9115420484949500  0.7975368727080215
  0.5340262827724250  0.4589397498491180  0.7585878643184838
  0.5603401834664278  0.5548545003488574  0.8038433063098577
  0.4058081734520635  0.5864166094808725  0.0131643609957412
  0.6909721130625964  0.5292050136647890  0.9063546058497445
  0.6528219617430600  0.4778857518813868  0.9029418600371045
  0.3050270671923465  0.5672320959022820  0.0458784867851293
  0.7186109102780522  0.4519552089116915  0.9843708211563275
  0.3577017376922688  0.6472637024601732  0.0925551291654522
  0.3350538127615983  0.2029584323656536  0.5050829110060756
  0.6801316260650360  0.7743612100437404  0.7220699528911940
  0.4099739714105840  0.6780525941941918  0.1033167500954289
  0.3787504900375837  0.1392524017023913  0.8122156735599929
  0.6445972714716103  0.8166625238627685  0.5379978630340067
  0.6986644242534580  0.3013319840254703  0.0890002277842224
  0.7030808227715462  0.8809408541896031  0.6122493122702971
  0.6506122560031345  0.8475288890615084  0.6449336356897707
  0.6581252078322125  0.8329626420888520  0.7035782528568777
  0.6057745242056838  0.4413618961851705  0.1788111733776308
  0.6952114320561485  0.8826318498858712  0.7025466613312504
  0.8088300592941446  0.8797660717329554  0.6904621806909010
  0.5948385484746407  0.4517733488539186  0.7787440122205498
  0.4021699765249704  0.5039106063682378  0.0938288826221753
  0.7959325529471649  0.9556603330694567  0.8396220001289478
  0.4128516586508900  0.7239605714389593  0.1474163924062900
  0.3511468343768950  0.5660338657337544  0.3966476116983864
  0.5652364128175368  0.6445645109703518  0.1617875623647257
  0.4649598868120570  0.6922558510640675  0.1709107044041270
  0.4156241301008439  0.7533189349209372  0.2535388313060016
  0.3702248147459951  0.8299906603131241  0.2744377626170927
  0.7288479217662301  0.8112498544875727  0.7857205629526016
  0.7076395757030245  0.8700797755877272  0.7686226708395778
  0.3253763099771683  0.9239734133400017  0.2330370245585587
  0.7785175535709996  0.8171547468271302  0.7465995285707140
  0.7693136533410458  0.8916315129569358  0.9028123901270473
  0.3305728667677625  0.9696293801296432  0.2791109911551754
  0.8739759429020413  0.9926324659319402  0.9011955762207030