Cr N  Ni
 1.0000000000000000
    38.6909066207142374    0.0000000000000000    0.0000000000000000
     0.0000000000000000   38.6909066207142374    0.0000000000000000
     0.0000000000000000    0.0000000000000000   38.6909066207142374
 Cr  N   Ni 
 1596  50 3725
Direct
  0.9721808335150135  0.9352622596459960  0.9041606395043131
  0.0628528962239497  0.9856587947808642  0.8876985430130017
  0.7196837128969028  0.5660040026923744  0.1801685110499676
  0.4233332693866850  0.6951746271701147  0.6562277554854200
  0.1468782409456587  0.8902285825372896  0.8066580622488483
  0.8994530127415272  0.2568833509008637  0.1210305274782705
  0.2384947281211170  0.3622369516462572  0.7823807156167479
  0.5365996760133956  0.8480111956286144  0.6614454376643836
  0.7152264881786987  0.5021756631710393  0.1963901787662409
  0.4503919410519116  0.4267793814140640  0.9591838055842031
  0.5728331272945152  0.2260610618986670  0.8640280015028708
  0.1499210307323783  0.9065023119530514  0.9783630339362773
  0.4148970064263417  0.6089612186661733  0.8377363135061243
  0.9551353264720615  0.8927194987618612  0.1135766571037173
  0.0412891233000005  0.8206218034554638  0.9958416594390962
  0.8853469012231310  0.7045197826342611  0.0287512594788782
  0.7488570294028888  0.9527772805751820  0.8805517662910014
  0.1156310315467372  0.1901837362919479  0.5963699726293010
  0.6134189661802936  0.5389646548993160  0.0379316710983860
  0.2303742419651060  0.7944698343074625  0.7409233846329153
  0.9707537556696684  0.8917501823997602  0.0307795443330917
  0.5859546471750812  0.1804833093793256  0.8200824097132684
  0.9264022168268908  0.9838304579455531  0.9853262257468590
  0.7095377886893266  0.9020687809573046  0.8753458436291489
  0.4620912722652569  0.0733767456430463  0.8534276713101552
  0.9455368827642843  0.7945800001466905  0.5816638882733889
  0.8594125804425167  0.9476813059798279  0.5206622653530966
  0.8144348932903108  0.0260551578771453  0.5349724408158948
  0.3188213006670840  0.8107698269216622  0.4318898352595407
  0.5641791580150911  0.5667949293061338  0.4655353093251389
  0.3665046420987798  0.7509271277167775  0.3503127205148885
  0.4919832513206837  0.2583394301824287  0.7215691599581440
  0.3119848000064096  0.7377693226665609  0.2785872439414490
  0.2654429093937400  0.8158728701241341  0.2983485586194217
  0.5688405266970982  0.3245380189065374  0.6226327023513857
  0.4697263372787147  0.2813431048866999  0.5966667813534468
  0.2750428289099257  0.9216257102132440  0.3303234612069402
  0.6191332628709020  0.3623627690754827  0.6901950124888091
  0.5458926365036681  0.4137446310576354  0.7136995422216861
  0.2139341072577083  0.8451325675306262  0.2734912379935812
  0.1292806125147486 -0.0105019707214696  0.2995970977229497
  0.6280136018569149  0.3823288585513439  0.8602473305183447
  0.6875747614499489  0.3746131305489431  0.8805756924490009
  0.8306424462412054  0.0914211780896830  0.2105847227461772
  0.7358236414475846  0.4104987629467471  0.9477890954167564
  0.6444479988515659  0.3664631019944893  0.3942706439130547
  0.1322484262241529  0.0506372207920913  0.7982677869204180
  0.4718551541508390  0.7325727086667958  0.7206748529808520
  0.8580616778881143  0.8645581510683481  0.5483306972618019
  0.1605173768265175  0.8285941081137792  0.4340167307341834
  0.3236864235939438  0.8749398611526156  0.4167323811840035
  0.5984215522422822  0.3209320752857371  0.9172796109724201
  0.6612196906980728  0.4396648430084427  0.0841965935103400
  0.1777913929831368  0.9761628946371219  0.3893046071767942
  0.2204312171125095  0.9277609502584008  0.4321983555839287
  0.9353985839865315  0.0892928471308894  0.2477483995246351
  0.3802759958834209  0.1070205223972314  0.7069040614134200
  0.4711322880426296  0.0299945791214495  0.8110710747983527
  0.4662561083083162  0.1943094137094273  0.7775898181436579
  0.5098707493806418  0.1122252810201439  0.9186092650791282
  0.5275372045873228  0.2179057224742395  0.9094731146832027
  0.8363444652581096  0.1490290032772593  0.1923400984934021
  0.5507911039873149  0.2825802019018132  0.8493997882605776
  0.5821066170723559  0.2064324127076818  0.9519360729461329
  0.7376216487341076  0.2290747882019445  0.3043323385303752
  0.8380909462831818  0.1830089773959110  0.2979853124769345
  0.4336959968330024  0.0125252033318133  0.9152579876089708
  0.3406127552347206  0.0903039985161627  0.8101325286467755
  0.3887158674557999  0.1856028234944411  0.5203100098284277
  0.7368309214333475  0.1952978868694065  0.1987180788513866
  0.6917025843082305  0.3055406131512515  0.3180058433766860
  0.3203006428469798  0.8288364711176013  0.3722887672751421
  0.2372816535367486  0.9446781213770049  0.7686100503415789
  0.1147516397428955  0.2045791013158328  0.5368898700879173
  0.9383627628815409  0.6723891292126449  0.2809615538995261
  0.5210791903390336  0.7721082512023657  0.7849669954308657
  0.2575700304657085  0.8890967410015822  0.7872705902671757
  0.9822881318245936  0.5350256667661699  0.0528808310049870
  0.0168487485235080  0.8190080932097443  0.9405538569794604
  0.7608623388688679  0.4258829229829486  0.1806095589609238
  0.6185653421235653  0.6283141061997068  0.1284974548822765
  0.8205953728633180  0.5028124420459793  0.2331546508809333
  0.9000947307674976  0.8912448141635115  0.2099609772624494
  0.8019804848548646  0.3183772421085446  0.0634863992430008
  0.6050575839860215  0.7392015471365012  0.9281314606661215
  0.8389598748803738  0.1809707539395372  0.0652284151774694
  0.7594338655023415  0.0083501460385247  0.4615146131292315
  0.5336862423368475  0.9079669260681832  0.1345157685393004
  0.7393938641325450  0.8261218027069226  0.2844658558442981
  0.0185050105797009  0.3653019988013867  0.1779163011384425
  0.3234918463736517  0.7170781242089912  0.8409247949659322
  0.2905088587518690  0.8196605242197048  0.8689977039318206
  0.2407265412169577  0.7823441679536886  0.8018786159983554
  0.2479889575746698  0.9009548262990553  0.7258269512030486
  0.2629836799662407  0.6925610279260860  0.7128551822876733
  0.8364139778636838  0.7190794510765373  0.2900904802052487
  0.4402132855270132  0.8667801190343510  0.8528614069852402
  0.6171218148554770  0.0586428361044985  0.0249142964230260
  0.5385470924617585  0.1422724303057016  0.7520349467949455
  0.5869804694472719  0.5549554071844420  0.5419870953728531
  0.9760318536063914  0.9010356389674395  0.8001929980355824
  0.9042573347651118  0.9541099097818090  0.8207825161660711
  0.5244787080325377  0.6991707885893097  0.4722908341605811
  0.6779996158680383  0.7454647496218165  0.6130333656919010
  0.7576385865860281  0.8081509281211723  0.5773906477923393
  0.4801959286427039  0.8366873569708924  0.4772814120965797
  0.8326546385881174  0.7928045308111584  0.6032723326782676
  0.4282621913174614  0.8501791338745296  0.5181565687779979
  0.9199264014718419  0.8810692840190818  0.6731921525127078
  0.3350838675781689  0.9827886047358017  0.4496999397862869
  0.8873429899058921  0.8467418415877821  0.8384622254477211
  0.2837779304994026  0.0295488319526778  0.3616862225569611
 -0.0107957380468388  0.9880363829491133  0.8791699158588810
  0.9244621811993718  0.0218134242572361  0.3382664201109910
  0.0399490866583628  0.9949725372220496  0.9533024283511921
  0.9316320440202470  0.1123666604969061  0.4196953901749505
  0.9279914065294049  0.0649174893948262  0.3786918702312753
  0.5955994299356688  0.6542665141217471  0.5568448061451230
  0.8882621160942323  0.1524981062336461  0.3259814831120982
  0.8315454304950054  0.1551223263349646  0.4227644552445852
  0.5920708405028920  0.0163948332060429  0.8553986485942723
  0.8348044064536395  0.9722682246311576  0.7350320291881254
  0.7098169892671098  0.4575463264636198  0.3796310723290274
  0.0638012721911712  0.9164634702284856  0.2498001850301899
  0.7440652759586563  0.7369044387514313  0.6412366891715150
  0.8362955814035929  0.8404869085651115  0.8819028887399786
  0.7048586223569601  0.4120431272306982  0.3385708399405543
  0.5388914479849177  0.6702271704087073  0.5353902842649848
  0.7841955308634401  0.7172938904177405  0.9930321862442815
  0.5188092224362851  0.2828036541966505  0.5571602594336319
  0.3729293886992641  0.2375345371144813  0.5742586646787569
  0.4259883698678184  0.0105970886931838  0.6444428378147818
  0.4498850091918618  0.0533346393295317  0.6839160730921807
  0.5026469252737673  0.3063576687535770  0.0032749839975883
  0.4475129412877276  0.3175529149952381  0.0529337354900934
  0.5973008678464355  0.1354998104632506  0.7744849674584903
  0.4464351753669513  0.3649756089256602  0.0923979581774012
  0.5102995977773079  0.0781499793745405  0.8134634895163952
  0.3981502645296153  0.3924527610156275  0.0645481685097408
  0.4525483027484086  0.3787072530165405  0.0303250221783703
  0.4008080537351280  0.4572792696557828  0.0460705479232447
  0.6569755340359028  0.1627550661686762  0.9012429431884544
  0.6176731671535625  0.1470675887560114  0.9460473977697490
  0.8149071014139417  0.7813096156228755  0.9281147088600321
  0.5348211413721858  0.8044858562893221  0.5078032636316638
  0.5748066153927404  0.6910589843740708  0.4342651998730532
  0.3813205313906688  0.2251421974936367  0.6335834824652818
  0.4561104734599660  0.1730873949375837  0.6104666474627688
  0.9476705094399531  0.8394098176424537  0.8593378905093718
  0.7507258591225844  0.5231449017046014  0.9256157221772309
  0.8734128157901566  0.7083783096021520  0.7448973015081584
  0.8454496540193667  0.4088300361245998  0.9252186720529058
  0.7577814464952576  0.4114903753104667  0.2423423132575672
  0.5872364536489469  0.5984930179251455  0.8387418176109995
  0.4465124846132744  0.4103278671186797  0.1358096742506299
  0.4689371932701887  0.7209971730106530  0.2774485153577921
  0.7905128094302345  0.8047424155340369  0.8069512461872697
  0.7150855171960632  0.6726170799462619  0.6986793870946791
  0.7034501605750265  0.3875792350462320  0.5441924966549484
  0.6741739784552109  0.2362534299453627  0.7874803999899725
  0.5512263922074651  0.2508353600635598  0.7422917782920072
  0.7332498665075597  0.2280029881942642  0.8097006230892539
  0.2606330576019271  0.5864536754403374  0.0161306582108815
  0.2013835505577353  0.6128652495175545  0.0464113014997582
  0.1431967782487753  0.7551932457389925  0.0373522517635636
  0.8147706526196962  0.3922005733960515  0.9756508587679594
  0.2053003058899280  0.7658975733527195  0.1218876907698342
  0.4941222913793751  0.0743053143343721  0.5816774492235836
  0.0686290380525836  0.9013798157961163  0.0812065127948575
  0.0096495673641218  0.9031817923527178  0.1806180010082234
  0.5413997093163307  0.1129310389114856  0.6450592134672247
  0.4904698901959538  0.1052520169568379  0.6872405746485816
  0.5502570284908271  0.0987870772065790  0.7092353230522518
  0.9954467645759408  0.8741165525467035  0.9259821276814181
  0.7133473810186498  0.4879172601731107  0.2561488176182211
  0.6666279419064430  0.5654948770021579  0.2757864720111258
  0.9366241917581201  0.1039378581875547  0.1846271540878809
  0.9488918309321898  0.2461185400838513  0.3144732194666016
  0.5888650007770727  0.6329369589050632  0.9455451631799218
  0.1541767932202209  0.2399397619553597  0.6042315220511967
  0.1900198159354247  0.1362325756755408  0.5762304304945636
  0.9437167191692452  0.1850901535590371  0.3333553012594083
  0.5428464869729965  0.4798530238762587  0.9217053914246808
  0.9887093280408467  0.1081382225582407  0.3213635830783783
  0.4223470587506133  0.4946483483539110  0.8779367880429936
  0.4074296784768936  0.3541969566491796  0.7878785666066187
  0.4360759204690646  0.9490160518226696  0.3753718852051052
  0.4811236603352037  0.8735592165056245  0.3541164326633819
  0.3358564112242676  0.4062184064919426  0.8101385773898759
  0.3487754133220530  0.3272355314642760  0.6580668025436236
  0.5698557952191670  0.6741993152756564  0.2676296723549058
  0.6747202417421695  0.6566647654228640  0.3671600645090112
  0.5539949867493121  0.6255399585744352  0.9918055879484780
  0.5141506805908899  0.6092240231183296  0.3881137227443641
  0.5204059779384564  0.5384315684487484  0.9052866979513947
  0.6060867529166418  0.5740257773622651  0.9649217489191001
  0.6664980664350754  0.5495900522556026  0.3358290073880136
  0.2599518632671437  0.7839100425909951  0.1926202890567602
  0.2553815468897685  0.7521159007468777  0.0865396918656819
  0.4414437342252179  0.5366106539639763  0.6564747498613087
  0.6600919125073604  0.4725986039231416  0.1873756229804922
  0.7559019804047927  0.9598799433498119  0.1811488188123373
  0.6352371362713599  0.4350065894722415  0.5739381122384207
  0.6717960104668356  0.5199133181595668  0.6812575557421036
  0.8103034295062108  0.5831953599350486  0.6052324099834759
  0.6332255337864019  0.2081212207379679  0.1026887370850226
  0.7604230830061121  0.5885419656624877  0.8410516648408920
  0.8228324591420478  0.5819416987378497  0.8626125032569364
  0.6360734665194312  0.2419756812848887  0.2051893564849790
  0.9908838702798415  0.7260684006375595  1.0043597811673910
  0.5470688278056123  0.3961903831644047  0.2314347625623420
  0.6458800839749050  0.3493134327342068  0.2265001007714996
  0.5384210476556702  0.3941100020132974  0.5389348946309325
  0.4519817220534942  0.5055594471864434  0.2216439170683719
  0.5054541588009036  0.5205240713422377  0.2921390394331075
  0.6562748002079914  0.4111982223644901  0.6942143512876537
  0.7329561371701393  0.5132897184143539  0.7023831988492909
  0.4557641203830036  0.5661976081858786  0.2047546689394834
  0.7046686545928278  0.4500216206855736  0.7598077805318323
  0.4089173040017281  0.6277114259659687  0.2840644155050900
  0.7753979684326824  0.4298686142841625  0.8428409552213519
  0.4698147109164078  0.6004414508137198  0.5995915529230297
  0.7087339950959433  0.4409928964021838  0.2146708403625887
  0.8398989738802844  0.8098743773543730  0.7706509505262491
  0.3077555136535479  0.6742842160509381  0.2943987674504420
  0.7702003688472315  0.5786029617786892  0.8999342321035443
  0.8239534187219164  0.6191277522910055  0.9693655148735751
  0.8823811916142256  0.7280968470525687  0.9100927149176468
  0.1558450531380246  0.7806530906048461  0.1544358662751593
  0.2099050761719641  0.7971717277700958  0.2264648240956368
  0.9216688643258514  0.7450095688149717  0.8104761779168805
  0.2236131556674498  0.8664289547396059  0.1361447292020028
  0.8356911193297301  0.6465996024828283  0.5419272799785717
  0.8822356772653109  0.8004832667718296  0.5636016016717668
  0.1680517280541029  0.8861814418051430  0.1780884477283875
  0.1202226068048660  0.9165336852823288  0.1510775789515645
  0.1281714123304367  0.9597918878211867  0.1927704874801996
  0.9409935075726387  0.8194364586596710  0.6925480115791259
  0.9830537889544632  0.8726583803624783  0.6991153818046838
  0.6618278657901187  0.9837714151868022  1.0059346972668370
  0.7714947549567087  0.0293466415657827  0.0922782375457921
  0.0305478718982132  0.0433224035113181  0.8784583933905555
  0.7378093767103017  0.6033069456682277  0.5243248269432148
  0.6974669389006755  0.6609836494938428  0.5363104174200408
  0.5913306797382357  0.2864426291192139  0.1139169603486091
  0.5021192168894502  0.4423516994505989  0.1440877493213181
  0.8317609731193225  0.5593307655015159  0.9911433697459089
  0.1325482716439607  0.0526251015694616  0.5190762822640280
  0.7370972199013200  0.9639465596011199  0.8183654969246712
  0.5447127597156350  0.4466992680876411  0.8181742870650037
  0.6091697329035690  0.7978784231656849  0.6399681299264303
  0.0270179263125372  0.9254059978520741  0.9281979749082571
  0.6055462758469327  0.5180995461531075  0.4984033121205216
  0.4529958230634463  0.5207507484759157  0.1620615886338616
  0.6907121822199312  0.5968741990493456  0.5601436039915094
  0.4028206886310978  0.5507799820149820  0.1359301352091102
  0.3042201508539712  0.6441807718519107  0.1886934297739932
  0.7747238826425967  0.6638776962521542  0.7211230173598621
  0.3621599361554308  0.7219479848567087  0.2438784725163660
  0.2528951794267497  0.6756316080844629  0.1637302361622888
  0.5107529557648792  0.7546511355813768  0.6193872344318816
  0.5670709533670312  0.8014662045646459  0.0098458166025967
  0.4289375722145056  0.3960822784757919  0.5633282557411456
  0.4981706599110575  0.3756430661906601  0.6453853971201035
  0.8941588608140906  0.1816159469398216  0.2015320421407633
  0.2799370467543311  0.3483265914578034  0.5737201979113425
  0.2022713356461403  0.2480491133612822  0.5635989303643566
  0.3262662594720100  0.3858579580616603  0.6405371469512789
  0.4246083695112635  0.4285961101438907  0.6703981574854611
  0.7475101870851421  0.3354979373030314  0.3260620026380076
  0.3756122677600922  0.4229710959883927  0.7079091734334463
  0.4841045636384760  0.8269845742166673  0.5376738942194466
  0.5008907539052803  0.5278898457122650  1.0090575070822456
  0.9702855509269659  0.7825307996943943  0.8758058584742036
  0.6017068468579443  0.4267969501187658  0.2400422423306100
  0.4073017474536501  0.7567759930252136  0.0251359506538991
  0.3615731821677017  0.7739054367448029  0.0606010536215649
  0.5481716835825099  0.8340075520183171  0.7247613918760226
  0.8200342028225481  0.5484925333010360  0.5045397259655036
  0.2235391144098732  0.2206795761068348  0.6878811862941413
  0.1996112471043893  0.0296090628195640  0.8901283152129255
  0.9163721067055141  0.4110972239635405  0.4073721877606796
  0.8506072954715581  0.3359343899566469  0.3615863948768077
  0.8032487728169460  0.3659181643205834  0.3325677109331600
  0.7673719408462402  0.5023280709701117  0.3288090244261536
  0.8093550147027502  0.4112538565864809  0.3731188152646371
  0.4049952778105846  0.3866135625985669  0.8946643997836247
  0.7718787974992426  0.5301522195975197  0.4362439644344697
  0.5055543226821430  0.4706200806296326  0.0247768386404188
  0.1586317785560732  0.0294650045335045  0.5775267099226389
  0.7908092938539140  0.2259612746584405  0.2076184640471831
  0.7446409126719320  0.2708677642406305  0.1181019523213715
  0.4340676328406529  0.9319382036959238  0.4374491779390948
  0.7068889462245769  0.3961226977078263  0.1728602974834929
  0.8179766418915010  0.8613988609374440  0.9897997578047866
  0.4169055936626427  0.5626782866187877  0.5319294668423677
  0.5193787898430693  0.6064009826401955  0.5564724300128679
  0.2567683427678703  0.1169663176398026  0.6627433783158672
  0.1757392034029455  0.9278382655034971  0.2192458511537355
  0.6494607058228473  0.5591125417425649  0.4973514758821683
  0.6517886801374878  0.9944209136712254  0.4883939800287921
  0.6411400789398286  0.6555897364707689  0.5155601496844947
  0.7398810515116361  0.7200183553590116  0.4816394071726223
  0.5412567359936513  0.8416578805730263  0.5635476676216618
  0.5892904745415151  0.8813031506121303  0.5620378454931138
  0.5403666626050652  0.9282617820761360  0.4732677129415884
  0.9492850966457015  0.3236894656538222  0.4696419781304215
  0.0098750276486398  0.3577752425982281  0.4804861268437553
  0.7678935282796628  0.4595583180188427  0.4578144132048073
  0.6150617226653231  0.9464319169662730  0.6670307992391380
  0.4895528636246849  0.5744735348419439  0.7220946828880950
  0.4517881750057501  0.4917420219026882  0.6117626526890177
  0.6255287880556373  0.9343298150328774  0.7326301509484631
  0.6309941175084506  0.8022501663743092  0.8678157897368357
  0.6152825943875778  0.9787897419957370  0.7744801925996883
  0.6364668137655166  0.8434857776786325  0.4159707866608545
  0.1864870871867771  0.2058235756420970  0.7915738945253605
  0.3056938130096432  0.1914760644995243  0.8331865322534432
  0.5337642566482763  0.8643027811040281  0.4949106703470093
  0.5853861361547789  0.8570079824864257  0.4534932856061641
  0.0028583768504636  0.2626328181373103  0.3865138947761531
  0.6470775529513039  0.9192582760217342  0.5705756436848539
  0.3750586649190347  0.3242312357910208  0.9595936653765496
  0.1665419291364676  0.0161731982262185  0.6413490205904051
  0.2938703880465998  0.4387269596999566  0.0752340812257559
 -0.0010090859354848  0.2461892659051899  0.4476813126160655
  0.1561457771451171  0.1038708446996727  0.7407374302877738
  0.3074029207995216  0.1587533427601632  0.7288516007091247
  0.1712897114355295  0.0975213133751361  0.8042998587638041
  0.9541279270699470  0.3400815795343929  0.4019296289369181
  0.2701215929439786  0.1410501152876064  0.8318182475466379
  0.3286531608790886  0.1335662962449666  0.8545384920176519
  0.3146095616572774  0.1787851389644244  0.8927733959454330
  0.3734184600627586  0.1733186378052725  0.9169192419362302
  0.1668554435663044  0.9968761604544653  0.7903494746830275
  0.4747062889983991  0.4331152855848786  0.6305297169884677
  0.7134980665441027  0.7046134552028154  0.8021471928668474
  0.5552268046640384  0.6379977946290942  0.6575295126095931
  0.8184652091476776  0.3137290157794955  0.8750752772463365
  0.1546547976061056  0.0717385844153393  0.6319925028674005
  0.4751545449481045  0.0617825754529097  0.9161646513975675
  0.2103909937786671  0.8133005608682686  0.1657742476475241
  0.2467717658148012  0.5311663897702036  0.0343284341966369
  0.3024796906414011  0.6147489490779414  0.0845497580278764
  0.9352644913661472  0.0849650151280289  0.6692651500681228
  0.5277766830545797  0.1554532703789492  0.6860096023030395
  0.5326047803237194  0.1226244486886398  0.5779726395600242
  0.5918067742963262  0.9149714140052451  0.4362696787988389
  0.4549394882971739  0.1475500423368475  0.4936583052927123
  0.6120245391324802  0.5358297019456609  0.2669331451617734
  0.5439977872060178  0.6817718028269989  0.6986483748344713
  0.6137133028773754  0.6616267002090862  0.7809971866935925
  0.6265534795641193  0.6477294993534971  0.8410330623071050
  0.6519400983922383  0.7122022033655565  0.7819585755854335
  0.6414576247624992  0.7565300978592348  0.8249600070472769
  0.5643971913115688  0.6906323204784985  0.9238937436260953
  0.6769053999727276  0.6859235561626178  0.9054349675737925
  0.5191544950873686  0.6735080603999867  0.3643525799206055
  0.7230679959376839  0.7288923046212159  0.9667333659497789
  0.4768835829473122  0.8117831596363068  0.3701558371972290
  0.4726125798180014  0.7659348971663014  0.3237878704619265
  0.9723369438352221  0.4312985353736444  0.5011586739880999
  0.7227091459761350  0.5641171762796394  0.4081308313173691
  1.0290954616533239  0.0040159575339309  0.2001994922962408
  0.5376839321771607  0.5942717809254016  0.8808514066366032
  0.6905558327148644  0.7615065928939135  0.7841636355410244
  0.9030488755292212  0.2890104442572868  0.2247717130431554
  0.7983889670389213  0.3205884462374672  0.2931866527738522
  0.2006565590066555  0.0961612370904567 -0.0097788630585399
  0.2474491426596396  0.0668619553427529  0.9559801906259676
  0.8762535070443206  0.5288543252982362  0.4719053581635787
  0.6687147155060355  0.5814391627164794  0.2149924808232709
  0.4985818202452613  0.0513988986968910  0.5324325517761571
  0.4088671858616191  0.2809858983217515  0.0201673817610549
  0.6310831430851502  0.2186757108067907  0.8879930867750951
  0.5200016369048601  0.2258051249638958 -0.0037478195429512
  0.8164952776420400  0.3321317223691442 -0.0115842476516852
  0.9326416498031764  0.8351484788835060  0.6221748992642638
  0.4858083448409270  0.0044241369566058  0.6661477659030388
  0.8714123859142462  0.8448344309470637  0.6055252698164124
  0.9629558605376043  0.8987512292659160  0.5128779445580884
  0.8508431712893741  0.7787739336761661  0.5038918317075525
  0.0098044083335730  0.9711486415163486  0.6481427533485590
  0.9399591695573015  0.9852859923612111  0.6514395096890256
  0.9812521696679113  0.9489973692379359  0.5552270118348280
  1.0436323365183895  0.8311824681198157  0.5167005487266122
  0.9722718435601121  0.9625399418064831  0.4921811983637642
  0.0740837360079189  0.9707199704359415  0.4658237317403591
  0.4998746920327918  0.0540665071828084  0.9807828116280491
  0.5513850463034066  0.2174898426057361  0.6406472083483111
  0.5586031090435600  0.1164865701500953  0.8778235844587295
  0.6628648761988226  0.2494902616583575  0.7266502677805751
  0.4841113321149179  0.2345607845627941  0.5610784994844898
  0.6824830174449021  0.2553944285581977  0.9558129187269960
  0.7374762512030736  0.2563710920946460  0.9268524064193645
  0.5772471123732845  0.1953361176504157  0.0296101310472892
  0.7195833786792598  0.0290929124057293  0.9530324878483897
  0.8518220612820746  0.7660011518779962  0.7265284096530513
  0.8612955293412012  0.7857412723794230  0.8935695054320424
  0.5825671600253496  0.7970443487306337  0.4664871923706064
  0.8404215854663967  0.3076542494843162  0.4922970312721184
  0.9312423885954337  0.1593278676135373  0.4592549133237547
  0.5080436254524776  0.3655313340365778  0.7079243795874187
  0.2138654781715041  0.8233422129696559  0.0971133585459661
  0.5064951766968206  0.3979842211335048  0.8144951491224716
  0.2253986396433901  0.8813371137677932  0.0694573641387657
  0.5543395501528408  0.4356675162336868  0.8801747119212353
  0.4769616460640601  0.3347871785053305  0.8714331229537482
  0.1821427295591205  0.9442707747327644  0.1550389345519758
  0.2899908027945186  0.9548824298954273  0.1202462308515851
  0.2853664225533352  0.1803462532045030  0.6051514688323828
  0.6785008569076528  0.1499779810716406  0.0229979124196802
  0.2656605150369592  0.0696705403758706  0.6174301095211466
  0.3115314251519551  0.2770531562146024  0.6536136897175792
  0.3441192987940999  0.2084509838633359  0.7333806674140740
  0.3922586825304172  0.2472708988907498  0.7988593787949376
  0.6595125273154029  0.2835299219525490  0.0030831932222608
  0.5596161534136791  0.2731463781824943  0.9123962195780326
  0.6061550001688097  0.3639945753102800  0.0231154002705267
  0.4397666360490345  0.3154177352796232  0.9743373087167447
  0.5048313483488635  0.4581284210738887  0.0855841286292929
  0.6390587715089465  0.6026464356857637  0.7999308339974468
  0.8246179252167768  0.7015324274314455  0.7847440218495464
  0.5582716726669106  0.4896957782199374  0.0924663988662697
  0.5124614760696237  0.6140717837244459  0.1531819156041891
  0.3900689030830111  0.3475901868154695  0.5551025035344684
  0.3602841904821080  0.2835344410263206  0.6140651177668872
  0.4587501705877993  0.5976485779804616  0.0821961765091279
  0.3036903019176826  0.7444438813116211  0.0471797625462661
  0.6639190309782129  0.5683845704562757  0.9885507801441705
  0.5618964473476811  0.4894226022894199  0.5987461658409589
  0.4709111518731923  0.1649649645742562  0.3475008675232155
  0.6221522855959168  0.5149989026833827  0.7202103633133848
  0.5732876774099025  0.4776586423449585  0.6561453519853262
  0.6555429118623977  0.4448900053725670  0.7992948792545878
  0.3072401960781582  0.6301430428116117  0.0251439772171917
  0.2540951606554411  0.6439712602760482  0.0589579980773634
  0.6819672557479396  0.5407174717742802  0.8458176918865664
  0.7092847285016438  0.5838075007519548  0.8830206470240155
  0.6490758370642733  0.5906949050969422  0.8619998407812550
  0.2413037982988276  0.7658839968500379  0.0215092010741299
  0.7194593439082813  0.5709272245160937  0.9474684472396261
  0.6982659411994987  0.6268431711762752  0.9265364592342065
  0.7391870623101693  0.6764288894107762  0.9857423423441968
  0.1991864265958154  0.7788968164911499  0.0591945569099082
  0.1702836397686444  0.9636585448099951  0.9680967597813772
  0.4537725312970917  0.5519288653086523  0.0330726168567981
  0.8943918051934804  0.2477210995689845  0.4110798286718988
  0.6274657862173776  0.6176082009261235  0.7392262815618508
  0.5581073668845354  0.5206524488883779  0.1956069179616456
  0.4020539027809401  0.5039575558759299  0.0936072418682760
  0.5344165603974159  0.4591301137893433  0.7584315859512807
  0.5605928798560793  0.5547823498855518  0.8037519238086323
  0.4061428236342962  0.5866391849958318  0.0130497712647679
  0.6910072627584144  0.5289786177647078  0.9065767241550371
  0.6528093412302365  0.4778527915446528  0.9029662416301178
  0.3057266368927971  0.5674122621567768  0.0460621211574443
  0.7184950998334421  0.4515733540931243  0.9845087642899617
  0.3577110396805224  0.6476657442144816  0.0921834080742521
  0.3354694161796302  0.2034871420077626  0.5056118194657229
  0.6810979391644747  0.7747238352630542  0.7230348928944623
  0.4101785399175931  0.6781313559210468  0.1032746691276528
  0.3785652833139509  0.1389260693606248  0.8128768577492453
  0.6454180463154097  0.8165973107070101  0.5383724181493725
  0.6974460169444697  0.3014888768922584  0.0890155376920125
  0.7034679691769689  0.8809719227933176  0.6129186707172561
  0.6510967847210943  0.8471400190918359  0.6453490723129993
  0.6587030865423993  0.8329760481062142  0.7040925939796434
  0.6054427493141652  0.4413929607836669  0.1784787808455018
  0.6957444963961820  0.8829269943907877  0.7028615335976683
  0.7966597540911050  0.9249803530374068  0.7321172221925927
  0.8076420988327146  0.9114281133254729  0.7958854823062506
  0.4124449025645687  0.2054557762651585  0.9778658036310304
  0.7968530212936578  0.9554941646390669  0.8390084787034099
  0.5856389007584026  0.7185909148422819  0.5415741233685590
  0.4130367580810484  0.7239887214347511  0.1475609068613141
  0.5676206693576203  0.6599667750824362  0.1005753833506509
  0.4648093363295630  0.6922923379991747  0.1718464424417654
  0.4157272622304619  0.7532694155679107  0.2539111805775676
  0.3704839880750717  0.8300044280352155  0.2743620524165669
  0.7295071119658786  0.8105263417838769  0.7858424503156516
  0.7085567556827813  0.8696983713744144  0.7686327551108475
  0.3255296306639626  0.9239150153060436  0.2327593623826461
  0.7795692478045668  0.8179474754068716  0.7468813037525995
  0.7684376994616475  0.8920776784079869  0.9013377712873472
  0.3310043515028308  0.9701657264121666  0.2790034769522878
  0.8745808084107998  0.9922074407997603  0.9021285877526809