Cr N  Ni
 1.0000000000000000
    38.6909066207142374    0.0000000000000000    0.0000000000000000
     0.0000000000000000   38.6909066207142374    0.0000000000000000
     0.0000000000000000    0.0000000000000000   38.6909066207142374
 Cr  N   Ni 
 1596  50 3725
Direct
  0.9656055778902312  0.9026191162701129  0.9690091813565737
  0.2247958908993931  0.9347642303379973  0.4480950266911151
  0.2799213156302493  0.9553169774388902  0.4399920719526160
  0.8759706247931458  0.0428591527417160  0.3055030269495875
  0.4383504322396901  0.0995282567910237  0.7265691805884140
  0.4494932711497168  0.0868146961808547  0.7899151443632682
  0.4881818061354302  0.1371658770571444  0.7930154762000005
  0.4720688106749743  0.1826605552194934  0.8372112128598326
  0.4884420456703632  0.1662694931169743  0.9036137704597841
  0.8347600820738265  0.1341135828366455  0.2552523532330472
  0.5265423735630040  0.1772391873644095  0.8570555160274465
  0.5231219900684457  0.2220143768421593  0.9081547870407036
  0.5505254831982197  0.1637486256560582  0.9167065743420505
  0.7877485394059571  0.1995677119714843  0.3322288924688411
  0.8424305716756662  0.2302069471455649  0.3406213203818332
  0.4220406970217627  0.0236942495140918  0.8503814754817020
  0.4000625510796079  0.0800694103913698  0.8319363487478474
  0.3886830176679238  0.1849924447138154  0.5162152207786852
  0.7372220560789200  0.1959390344397343  0.1984857736554980
  0.6912958663769897  0.3053730275125306  0.3177264537546146
  0.4566582588972759  0.1707853048283834  0.6113495540838704
  0.5739281512420774  0.2225560708677538  0.8729548029271096
  0.5748325426881699  0.6882709764523695  0.4331469501828608
  0.5259408791606430  0.7607662592400917  0.4544730291037710
  0.4602067896464682  0.0731730595630061  0.8530366874439174
  0.8473806545059592  0.8828892557690012  0.5409000800913654
  0.8561476410200072  0.9497762495829203  0.5251021577504299
  0.8543995252321956 -0.0041604917128031  0.5747962781475753
  0.3692848584572267  0.7960389581701175  0.3971551084634878
  0.5623358335854538  0.5673902095052448  0.4710444120004875
  0.3647692957484388  0.7509799324561005  0.3508463624297059
  0.5140046081743386  0.2000040306634096  0.7381591310270399
  0.3101222814563880  0.7368704828128964  0.2784250214051794
  0.3148970723864070  0.7977046125748500  0.2643111836913818
  0.5709009593436889  0.3217380542015367  0.6213217641447952
  0.4693992507139502  0.2801306015648164  0.5975775643359090
  0.2689177357092170  0.8574903029415863  0.3476360452964264
  0.6183779378571470  0.3614188541781239  0.6918828692302982
  0.5461446231121745  0.4140146196616463  0.7152560122387801
  0.2136216599941215  0.8423988030597280  0.2722684633124830
  0.2726862592120916  0.9194751262116255  0.3315604111834262
  0.6280020236754201  0.3809276018301935  0.8601777590127393
  0.7366770876885343  0.3784492670420699  0.8383628241560199
  0.8252030760687327  0.0436672626715327  0.1662511334625919
  0.7132487718968966  0.4694446273292489  0.9239602901902927
  0.6482217509013540  0.3815933626019358  0.3304606320144750
  0.7084304336702932  0.4768871578500133  0.3199526721690915
  0.3929434445357594  0.1779441428192421  0.5891375940234603
  0.8055695424738538  0.9104091175917576  0.5714841868670185
  0.6008833131169942  0.2869850722358266  0.8103598103185093
  0.6987816051319518  0.3629961672348570  0.9411498395599408
  0.6614246907167306  0.4656194007278949  0.9630219995538134
  0.3595540985035677  0.0853137004859585  0.5368607507888271
  0.4172862879906087  0.1221826738712257  0.6042335322215756
  0.4277582920797807  0.1115750060549276  0.6660442479719627
  0.4665708138291512  0.1620885446391961  0.6692753213164474
  0.5126451806026456  0.6268455179395784  0.3194865668463782
  0.4116742464360468  0.6734871589753481  0.3297585564850624
  0.5250697157817669  0.1872738683798175  0.7971176175167327
  0.4600096559470284  0.2942608280226198  0.5348513428892874
  0.8562554504980651  0.9230335148244689  0.5987264158930008
  0.8071176363845259  0.8952751681786441  0.6298576686109392
  0.6388674525151903  0.5904234825461848  0.6025443999555664
  0.6664750833452587  0.6358611479732313  0.6376827006684862
  0.6142686011359891  0.5521614088398306  0.4367131516075882
  0.6551752155417302  0.6802548244356998  0.6802098860193628
  0.6652167438078329  0.6665789758674636  0.7401192954161656
  0.3071081331667824  0.7241629992835961  0.1109112940495360
  0.5639186970478651  0.0473506154327148  0.9486179636419549
  0.5448196705984572  0.0112449119384594  0.8952782362974773
  0.7420104281349575  0.7663346492712305  0.7440476623435723
  0.5791177354810171  0.3431068385241275  0.7936065157293415
  0.8143391390999020  0.7780188235002556  0.9303323229679166
  0.8688334462448861  0.7742428680615662  0.9560570471324232
  0.5178018446586725  0.3176265797251575  0.6659258795517853
  0.4238434169836131  0.8065154506355756  0.4725476784816590
  0.4346942137396376  0.9144933321184499  0.4993939670219333
  0.0343627948473734  0.0670861295032086  0.4176072857315298
  0.9900509332453113  0.1461794736612072  0.4331980646491371
  0.6109974268012246  0.5280598700043683  0.6606352862414204
  0.8893268491290119  0.1881452757768150  0.4297835667308286
  0.5992311239345410  0.5728512730240364  0.7021140973269197
  0.8951034588117995  0.2457741383263675  0.4132152441899566
  0.6275425675594801  0.6172782538729780  0.7377330438991958
  0.6389103161042847  0.6029949610471413  0.7993629851412708
  0.7369282864576815  0.6472208259538995  0.8224354333944592
  0.8414471398287463  0.3095116822999475  0.4894333744908227
  0.8977262573636960  0.2893311602685342  0.4587305328350992
  0.7940957257847938  0.3398288984443426  0.4586797009043233
  0.7349946727586143  0.6797809540530575  0.9254276330545951
  0.7713048629484816  0.4548435075647074  0.4598066756791842
  0.5655763107643027  0.6137986431738581  0.5167877065270522
  0.7538979196378836  0.7535885915447436  0.8062670990137234
  0.5624301811481868  0.5837760311764149  0.4082777019256547
  0.7755793622795044  0.6950762842365459  0.8261005944933294
  0.7032916543277994  0.7162674395095862  0.7400976984281833
  0.6903676678150270  0.2730268957990319  0.2131868130839378
  0.6093502404900444  0.7978648065102097  0.6389749038588421
  0.4073946927269848  0.7560799101361475  0.0244963390382810
  0.5884880177405237  0.5547810834494354  0.5338306674717850
  0.9792181397375573  0.9005414292118897  0.8008536014687667
  0.9006046013744532  0.9648552785781711  0.7583222765826804
  0.4747944937367687  0.7312801075756258  0.4492012174571388
  0.6816951625393081  0.7465174784463136  0.6163994485624688
  0.7550628117580152  0.8130087144414845  0.5726061556261233
  0.4745823594443298  0.7939604100932015  0.4329731164963577
  0.8100797595084320  0.8500201931904454  0.5880709200983860
  0.3783148816437316  0.8736602188741356  0.5486188433490338
  0.8721373603440785  0.8716427184002173  0.7118101940655531
  0.3270921535476851  0.9184719691731859  0.4642745636105863
  0.8693868133311533  0.9028206171656792  0.8184003860678833
  0.3343557107337915  0.9818098233741306  0.4494260829253716
  0.9318626296155718  0.9973737668441178  0.8607716640717785
  0.9224298671583265  0.0204465301809196  0.3397421293917299
  0.0388990790018627  1.0088827693301630  0.9420927237790289
  0.9291183616161254  0.0631523275723302  0.3807284670148698
  0.8812684377826843  0.0889115913858253  0.3465492296525948
  0.5828647973283093  0.7006013798855844  0.5978706298967935
  0.8894787714528918  0.1507113447795103  0.3259777763963914
  0.8388859935260835  0.2158163190288689  0.4008472156074860
  0.5917573064031550  0.0164801123116808  0.8533444223498997
  0.8620172933378073  0.9769571824082398  0.6424298150796885
  0.3998569921866604  0.5154396573900326  0.0367127675182356
  0.5897328337300218  0.9008254311820872  0.5008571541535521
  0.7537198826409416  0.7229900943067606  0.7015942261540656
  0.8521652501903554  0.7967158840805235  0.8317854168422975
  0.7017789677018953  0.4094958470408433  0.3402560112310055
  0.5263300224663946  0.5583224260958206  0.5177173804004501
  0.7836352851002013  0.7182323062890087  0.9927754550706757
  0.5211767892331323  0.2809909335968714  0.5588501838196922
  0.4286430978425769  0.2443727960145937  0.5393445427887693
  0.4239524651756749  0.0099558350016749  0.6445583755106975
  0.4495068892414689  0.0528953262473952  0.6824013885286356
  0.4990693192083429  0.3053931883735513  0.0028693153604289
  0.4501941903852582  0.3129885937747810  0.0399301819682428
  0.5600693138647008  0.0846121782656085  0.7698406899461019
  0.4476309620548933  0.3637974360988385  0.0938139368838703
  0.5097657037997705  0.0792979837300282  0.8115708267404823
  0.4490587057760078  0.3817208313023396  0.0263655627937672
  0.3956673249386000  0.3935101333559595  0.0643781307218932
  0.3989020294318260  0.4570252481725704  0.0462580892597391
  0.6652305148962682  0.1585527647757368  0.9028147354665347
  0.6256021057634717  0.1415497269661432  0.9503153314425340
  0.4030090961504945  0.0317210032670755  0.0738891517076447
  0.7641194922326970  0.0029016905925136  0.2190793105120626
  0.0807425392877657  0.0383607611050252  0.4439659462122787
  0.4082279327206474  0.3208995577472359  0.6811916661778793
  0.5319738081799175  0.0232471561520775  0.8298395692610082
  0.6691396335286519  0.5807297738856285  0.4418268309413809
  0.8269909316909154  0.5656553863811387  0.4453757645630048
  0.4158464094416314  0.5633342698759003  0.5337464219134667
  0.4802559829045267  0.5543803718231847  0.5570058428834103
  0.6569829542147965  0.4592091517188017  0.2489917182257956
  0.3782683115056933  0.5106675623098598  0.5319531081601517
  0.8162613683065019  0.8611539321597189  0.9840362053438295
  0.7056033938715138  0.3961847452679938  0.1720601753305086
  0.4248912408042275  0.8427119196243964  0.3442730122818630
  0.7939515039205229  0.2408210488035227  0.1458512577533681
  0.7910047320882836  0.2259810979413362  0.2075629343787782
  0.1584711455433401  0.0289896435916121  0.5835881215494576
  0.4511646236599646  0.4414067483502518  0.0135166119186995
  0.7713401701312560  0.5508684776312353  0.3732535412040576
  0.4043833839941813  0.3844830085428885  0.8974913207815356
  0.8159049879662063  0.4737012681012516  0.3550221729732281
  0.7632063474022325  0.4444832506013164  0.3495908586291116
  0.8044194030383536  0.3667364853517159  0.3335803368547907
  0.8515194146218746  0.3367950436069066  0.3639193676724767
  0.9171982155709705  0.4059419555026187  0.4150652991991861
  0.2397836447612441  0.0783067739575533  0.8918007652062708
  0.2241501091038070  0.2205688576483044  0.6868557135104780
  0.7736209864236100  0.5047527649705168  0.5014160570705096
  0.5736253139003276  0.7752792661487096  0.7412470230006057
  0.3629030965271616  0.7731826558219792  0.0612367965099297
  0.7092365430990296  0.4433358050422023  0.2134281582007652
  0.2478656557676662  0.0662381599167918  0.9563179253611506
  0.1998641939128606  0.0945982656640329 -0.0093392328499652
  0.7986981171532564  0.3217277055174345  0.2928418387736524
  0.9034626428555185  0.2897365033858818  0.2237985254477024
  0.6932647184393443  0.7610140996347107  0.7836439231496661
  0.5365912996903485  0.5940061787544956  0.8806756826117144
  1.0232664771101398  0.0040460115645008  0.2017915258876241
  0.7145171392130066  0.5030049104520644  0.4257720541615794
  0.9687883656085473  0.4309576389113644  0.5054165120216706
  0.4206881569196383  0.7978858058202064  0.2986659511623241
  0.4704746596418375  0.7662881360732671  0.3241066176254742
  0.7223919620684207  0.7276368843567007  0.9663570746117710
  0.4666197946548120  0.7052306986579013  0.3378920740965112
  0.6749540087221696  0.6869512153660325  0.9032030550877967
  0.6143167884281212  0.6942293893725613  0.8835137641644197
  0.6048610716539784  0.7059336292904237  0.8235034861880652
  0.6649585435307341  0.6993315296691023  0.8421522412924676
  0.6269849283146287  0.6477760285635799  0.8425371950267450
  0.6138139146185942  0.6609871807131013  0.7806417512616266
  0.5765210891923305  0.6119186664980998  0.7785711248661111
  0.6631678192601268  0.5202712409599906  0.2301497499260939
  0.6112073325856534  0.5351442974664719  0.2648876685258924
  0.6078806363475412  0.4889843944199673  0.2220411183932998
  0.2585224773000630  0.7828073530640728  0.1923157027619188
  0.2546099161688098  0.7525122621184628  0.0842402163135085
  0.4508448807914299  0.5231711090673443  0.7178603993605810
  0.1928259258584077  0.0404708011141847  0.8274369246901273
  0.7704661531442363  0.0159526647015604  0.1568193531135627
  0.6362177920460804  0.4390083538681476  0.5719890190062427
  0.6840729909594160  0.4752963028224171  0.6391223708408990
  0.8086331121051720  0.5820960112220936  0.6032755320777138
  0.6342028360051210  0.2108338217033743  0.1012813526635893
  0.7603858255343169  0.5883029011228076  0.8396312936372757
  0.8233751551074994  0.5810299476308954  0.8613992396544290
  0.6367495398288834  0.2439697067582557  0.2054925636418062
  0.9846585669891798  0.7226053949668956  0.9954880753224831
  0.5463241602571303  0.3966119883441075  0.2313499232095908
  0.6462845318734656  0.3511064228392582  0.2264231736365989
  0.5397218356387944  0.3933589792691528  0.5354498959298369
  0.5526724097493088  0.4580869934875949  0.2132788749761167
  0.4540402366640923  0.5515329075424866  0.2660332059374785
  0.6553400023571917  0.4097009182494214  0.6956529031867110
  0.7330536169596599  0.5130659767265583  0.7016155114342039
  0.4554162017287686  0.5665055530244383  0.2034072969209315
  0.6449322125241408  0.4567707106941025  0.7393756890363830
  0.4067352817213171  0.6267831165619651  0.2831330772132181
  0.6929979132456767  0.4936659339302893  0.8018375346068805
  0.2643634255269491  0.1706909819168640  0.9353681155578319
  0.3582630773569121  0.2169478868240075  0.9564166409490489
  0.9011144527471187  0.8015949888305414  0.7945575761656778
  0.8313058065184223  0.5603066686553798  0.9890685818022475
  0.3063125193361040  0.6750399241041867  0.2941796860163754
  0.8210491340734398  0.6163389570197739  0.9689850686687690
  0.8834006687618774  0.7268839684347345  0.9106219379771086
  0.1530620614849141  0.7806956169533067  0.1560403706676664
  0.2080740887657695  0.7963061536032929  0.2260961339267333
  0.8837632372032704  0.6940279492043202  0.8074616011053047
  0.1597032605292285  0.8401911984883410  0.1368356688112551
  0.8628511957243044  0.6913606818481379  0.5815819260977023
  0.7965958214119474  0.7843616088074753  0.5542078499419150
  0.1657167183264505  0.8852548687958882  0.1786142102857162
  0.1174203585348297  0.9176831366328969  0.1541752127805360
  0.1235294468173245  0.9635042984470720  0.1946870647987043
  0.8828213752542896  0.8285450070229297  0.6688608005566213
  0.9829088245188849  0.8658008135980045  0.6928333644360677
  0.6611073235701613  0.9672461318898985  0.0634459482952989
  0.6731723859187460  0.0904832868099076  0.0379442248757536
  0.9756634097388561  0.9344168699221563  0.9039813717748963
  0.7339566753032833  0.6009016335134708  0.5223111447038313
  0.6966112399796320  0.6621235984923795  0.5369541438274434
  0.5849128669755342  0.2409114763973790  0.0747234967809110
  0.4939284597491345  0.3805994837294139  0.1614154716697367
  0.7702558152914439  0.5781129751527402  0.8983788184206453
  0.6492843875977706  0.9784572171541990  0.5529311381890525
  0.6815060292050515  0.6848779283336828  0.4740504906996503
  0.5215804377358009  0.5034708927219784  0.7999951208084867
  0.9534055965553950  0.3240515464322640  0.4669967030233830
  0.0422369724282643  0.9491318459265853  0.9253082922611420
  0.6044238312151745  0.5075346353432046  0.4985201506945900
  0.4518312547633203  0.5197773710273805  0.1605815918883867
  0.6895197154869179  0.5962898947873666  0.5569226527001506
  0.3498880188099765  0.5661487815014808  0.1702203492642440
  0.3524748544899237  0.6142636085989707  0.2131382968970390
  0.8354097364218780  0.6573056295475247  0.7427377455273410
  0.3615284052700956  0.7226396156905500  0.2433268475040076
  0.2552162954310448  0.7206803500188267  0.2084097168513863
  0.5412894619465674  0.9290764290032776  0.4725874375157828
  0.5894637071080573  0.8827306632157488  0.5626901759693255
  0.4295259922500408  0.3959084792679971  0.5613243113362408
  0.4957327121580890  0.3776960897988180  0.6454211255027681
  0.8944343217396202  0.1792998802234783  0.2011575711770332
  0.2792407606514341  0.3475527260189903  0.5732846047136730
  0.3010494014381134  0.2896821993858540  0.5920939307662801
  0.3272101272907574  0.3846112671562447  0.6404362637096401
  0.4250767802612308  0.4283488356222600  0.6702630385466052
  0.7571386015931233  0.3943973371946778  0.3045182737887285
  0.4131459852128705  0.4730230004796869  0.7133398953571705
  0.5302996814481253  0.8090473381027161  0.5088252719993102
  0.7389509275950180  0.7196161397179185  0.4801233423782356
  0.9722979771159062  0.7819381785463113  0.8763310664647574
  0.2192852953114688  0.1348198877763384  0.8710618248252950
  0.9579503631276635  0.3869439136564530  0.4536706794569853
  0.8920280175432768  0.4093015237307047  0.4933152147779191
  0.6138179297226097  0.9435296552560699  0.6687404640269948
  0.4891323466983220  0.5750401459689172  0.7204531295788431
  0.4047876649469007  0.4860040503102415  0.6533541695338403
  0.6882528617159248  0.9254248799948982  0.7513242421136300
  0.6322770272581248  0.8025976453443978  0.8666392766198460
  0.6775325692664060  0.9686401131533622  0.7945087894299874
  0.5784444816089039  0.8105795911837557  0.4074137446412039
  0.1856943639512697  0.2056140407319662  0.7905673731656846
  0.3056913009134343  0.1907867320620116  0.8332491108877921
  0.5350724558684025  0.8681055919468506  0.4912597170910075
  0.5841355014795869  0.8570555731278539  0.4550114982184160
  0.9938457691952389  0.1523480321728181  0.3635643370949585
  0.3752617768599631  0.3251657676053005  0.9560486766871794
  0.1677077205837391  0.0130900117471223  0.6426385871667688
  0.9974830020763861  0.1985105437480274  0.4076181765408694
  0.1571728805274669  0.1047346217550541  0.7391637337426856
  0.3062986526935555  0.1572036646397134  0.7289480574805528
  0.1790839842539625  0.0528891659774579  0.7612156953498617
  0.9545929650926941  0.3376040802627562  0.4084157530185535
  0.2771367405996530  0.1279069698366963  0.8939489512462616
  0.6452639338593944  0.9209430381306870  0.5712826496287491
  0.1719590217105921  0.9290201553739865  0.2194019663337175
  0.9656319882119967  0.9421161759701019  0.6142577217211227
  1.0273045941277985  0.8789527097796314  0.5664587030978003
  0.9687260093018107  0.9659534988264286  0.4943872011810749
  1.0262008201286652  0.9940376994508692  0.5031913790853745
  0.5053078881939036 -0.0034967985276884  0.9970271039242561
  0.5514882054951903  0.2146594893837437  0.6433034253753981
  0.5606641158619330  0.1204087847382569  0.8743310624240423
  0.6018814544758043  0.2545792978849791  0.7052568262290361
  0.4833115207374052  0.2330617076229623  0.5612719182638799
  0.6816297966456448  0.2533609211375726  0.9565793203274019
  0.7374504851374026  0.2573989704909097  0.9182437973810690
  0.5761188935147323  0.2077326067925706  0.0210160189606727
  0.5870296651531304  0.1785435071781678  0.8237782467112924
  0.7184437587402286  0.0142484226294144  0.0154216860863425
  0.6178791337660233  0.0613369779005275  0.0228321897908169
  0.5893146451028246  0.1469813313637373  0.7114670418020217
  0.5502445332344404  0.0973697020518621  0.7067532516302127
  0.4892848690714072  0.1043667067288048  0.6853951485548455
  0.4790577630321605  0.1158032749913698  0.6242480333678033
  0.0138549321333869  0.9616974664630158  0.1636096197335426
  0.0618556703876399  0.9034909725732027  0.0857073555502301
  0.4887834890440431  0.0728725414129054  0.5777857449374079
  1.0125742949027645  0.9514459889714936  0.5582256577649868
  0.1516046356209320  0.7959770168980008  0.0951745999266177
  0.8721001655836610  0.4260952391862052  0.9894971943165237
  0.6756893265230105  0.6566987163621039  0.3648738219078576
  0.1466756323483426  0.7493095759093220  0.0500629908362637
  0.1969311096824903  0.6148160416792264  0.0462056173531426
  0.2542056453968640  0.5908421220404440  0.0151623110598009
  0.7113902940637965  0.2833641836033389  0.7924189252256747
  0.5650834707947355  0.2039228515039104  0.7001734979105881
  0.6746380118640578  0.2337121664602591  0.7874255906160831
  0.7112128675862255  0.4830292933340497  0.4860960810210933
  0.7149804364391413  0.6725352181922859  0.6985581817347966
  0.7802212425489055  0.8170736219981970  0.7474699028256925
  0.4665415482385204  0.7212564657086034  0.2775121105445076
  0.4455614480846731  0.4107011800868224  0.1352528854312320
  0.5873918279894066  0.5989575077983200  0.8383610858228030
  0.7591065388758127  0.4116744866184834  0.2415582293484360
  0.8463545761535668  0.4083531049975394  0.9228508096884986
  0.8240193985540296  0.7011392353285181  0.7857826217337764
  0.9589810346288016  0.8290883775092897  0.9219581519362203
  0.6647332658439459  0.5500585194627332  0.3361476331310995
  0.6061079486627712  0.5751688000642614  0.9636056017951083
  0.5206428606763877  0.5378510217301110  0.9044012739035255
  0.6153459319568209  0.5810798785651341  0.3098647178545647
  0.5579794615630087  0.6264914184710417  0.9908439977185000
  0.5723557371606894  0.6764236056201490  0.2653329688419741
  0.9519073705461089  0.9462312292478762  0.5544584704291186
  0.3489169374905060  0.3271145711078975  0.6569252639072202
  0.4749829284466676  0.4339326049554905  0.6306881572709353
  0.5551084816498049  0.6372578781570879  0.6551903424203588
  0.8206105300246774  0.3142259403594421  0.8742737950033490
  0.1647789859466182  0.0595762368759617  0.6940553203606356
  0.4492007257018820  0.1173055864205960  0.8966329863199456
  0.2081503791113552  0.8115348313217211  0.1641476758538785
  0.2465459078641229  0.5816787807915812  0.0755222536168711
  0.3508929171691315  0.5829318755922100  0.1110978351949286
  0.9406974997732577  0.9839341657440026  0.6532949106297880
  0.5801113456702125  0.1587792877483368  0.6439413353115118
  0.2944261808119832  0.5005670224229148  0.0569231668485897
  0.5294967148463118  0.1205605702709766  0.5783561265392514
  0.4539136223983509  0.1459603453671826  0.4986966479964570
  0.5021250218723117  0.0497377005968875  0.5308846969835872
  0.4434514345819534  0.3163770417848462  0.9736843486966062
  0.5203311427024707  0.2328573151747870 -0.0019814227638144
  0.7720780719356842  0.2883890753888940  0.9694418493516271
  0.9645743426854363  0.8540324566086280  0.5784297832105258
  0.4859293026057066  0.0031434342799325  0.6653004401452295
  0.8714083990372101  0.8443752369661066  0.6061198223482865
  0.9503508709665949  0.8877424262262035  0.5311941259350450
  0.8437140203801835  0.7736891292126429  0.5051652394968073
  0.7150174671039300  0.7046618768416925  0.8015581624343162
  0.3348960434031706  0.4056852475156958  0.8097828369329536
  0.4792930593217719  0.8731152854327354  0.3545468408564654
  0.5665439225223018  0.7992273164467152  0.0105269492281994
  0.4351105000280748  0.9488659073944365  0.3745878576999108
  0.3933091652145017  0.3973260226389903  0.8293867669626644
  0.4343727324324125  0.4511777859908582  0.8355395855158130
  0.9897371479839628  0.1063062746229733  0.3224151380067111
  0.5528360136680754  0.4676508285062573  0.9826199314221487
  0.9397477546123634  0.1346822206216761  0.2927604066013368
  0.1680424639083827  0.1944405269705273  0.5614778932764992
  0.1766933091259743  0.1820022087532842  0.6202510538612424
  0.5880436603233560  0.6334742134595539  0.9451643405973357
  0.9489277020465670  0.2433394690946226  0.3167960917774413
  0.9381759598542359  0.1017596722033765  0.1854114652674805
  0.6600407141631041  0.5051616203877186  0.2912174451106159
  0.7046737494275319  0.4280714384639575  0.2735128547881513
  0.7534166056085664  0.4862470979641114  0.8230188730396074
  0.9610123507372655  0.7943722195080012  0.8158626032204245
  0.1211458556130643  0.9448395590601275  0.2596917188407045
  0.2564094563820129  0.1166699413659508  0.6613660578472568
  0.1386454355683296  0.0542024857934079  0.5186645304262754
  0.7383329935043474  0.9623446631626694  0.8167309156236491
  0.5581448387933691  0.5047669210279297  0.0300386205837194
  0.4797686413030376  0.8244374514271791  0.5402903975949839
  0.5110615781903826  0.7536709392974587  0.6177475726794097
  0.7912668396017427  0.7739884185896369  0.7034719138307522
  0.0506174201977778  0.2102464951089931  0.0192715421930350
  0.5825652370515320  0.7960197591251267  0.4663926292674991
  0.0391848350653926  0.4530750373675723  0.4890491295949333
  0.5576000891396362  0.3239837995440425  0.0230494121295786
  0.4578746374091736  0.3576490503779564  0.7484526862075018
  0.2123198012241328  0.8235878257588786  0.0992113910817971
  0.5061930070470919  0.3957381900730708  0.8157153981160236
  0.2200967285657773  0.8785895459971000  0.0679288176983384
  0.6156999969318235  0.4257082434185108  0.9017989296179075
  0.5168461788593364  0.3842506910908041  0.8759979124798154
  0.1782653794122759  0.9442963600016907  0.1564882305866687
  0.2300638255480057  0.9261700013566734  0.1165935020564509
  0.2972873731805450  0.1362434065959896  0.5608999995917463
  0.6790239741555478  0.1514766401582067  0.0230279980120360
  0.3049917270076017  0.1229352319181414  0.6241720452444064
  0.3322772749414160  0.2192120511680590  0.6712098847511537
  0.3813293768020484  0.2586712919918417  0.7376460638845891
  0.3921338698981464  0.2470051863713148  0.7980620715305621
  0.6595496449766088  0.2846298973153218  0.0041753781709335
  0.5081280019049202  0.2691339662060686  0.9510958034700435
  0.5561382609490588  0.4450931051042224  0.0476501652085855
  0.4887203055772187  0.3234865581887830  0.9333542897819279
  0.5046133387585112  0.4582347609351355  0.0844101762385079
  0.0135406270994290  0.4127576835366564  0.4581944409011530
  0.0297144220759649  0.4701437495460474  0.4276515715322333
  0.5575800613487825  0.4892098908065812  0.0908171667254855
  0.4542885115493288  0.5367965432419187  0.0999707063514272
  0.4563914816329919  0.5827145477104271  0.1436875070076120
  0.3598187243972654  0.2827098568990244  0.6134624586352668
  0.4579964633554344  0.5978198106496917  0.0834750194906339
  0.3054059088922180  0.7454570014441522  0.0471316325313015
  0.6655205170493553  0.5698878194972016  0.9870166008627579
  0.5843772295238451  0.4317699851148881  0.6149904759925767
  0.4723433207476934  0.1643721041957255  0.3384040889719669
  0.6236417253171272  0.5146206560529467  0.7201466152547459
  0.5616462731116717  0.5231002156015144  0.6989286576419506
  0.6326336369373647  0.5008964664293153  0.7802068929923165
  0.3043135166682750  0.6295160799247483  0.0244661464842778
  0.2533771885924042  0.7082009911451427  0.0381036658043725
  0.6816798659459209  0.5396290526207994  0.8435152241022648
  0.7090388424385760  0.5841523639558036  0.8817257183444717
  0.6492798409758648  0.5904182478480421  0.8615384320081838
  0.2416719719430834  0.7683968394941235  0.0197603762426163
  0.7185861241747691  0.5731047924181550  0.9453221324779297
  0.6980050541520122  0.6280227443705734  0.9252549211324551
  0.7393444875083318  0.6768731253238045  0.9859579414057026
  0.1998928579790212  0.7848868474735026  0.0585452140563252
  0.1142520587758584  0.8876167792149979  0.0474137992662586
  0.3901384152596767  0.3478460465655319  0.5536009940416022
  0.2572414775270784  0.0174510814377788  0.6481984239067946
  0.0630685250920028  0.3871178808124314  0.4836309987979904
  0.3647591508322315  0.1844067884159480  0.8553741832997940
  0.8095245881559140  0.9106741402899398  0.7950649716380146
  0.5350122615990333  0.4594226215142386  0.7584314287381957
  0.5822222165271490  0.4961136644745686  0.8206685224461827
  0.4045942999114128  0.5870147609021213  0.0143599979489888
  0.6919995128060535  0.5298438422954204  0.9042165181225643
  0.6316460811624099  0.5349570600765664  0.8840910035848084
  0.3010514660914861  0.5698529152960368  0.0424399900122213
  0.7183832238485750  0.4547219165746499  0.9834129563412645
  0.3559605458618180  0.6480001390162595  0.0933387740903409
  0.3347414269176783  0.2025379060382721  0.5049375941387630
  0.5813346757065212  0.7329297158061576  0.7000078677584806
  0.4089649646751111  0.6770073129729081  0.1029259654021030
  0.3783292312517663  0.1391034596577196  0.8133975577285337
  0.6432521918465218  0.8154330297318686  0.5389751529829806
  0.6929593774515205  0.2880853457720347  0.1522497446743182
  0.7058643555439813  0.8804857507821695  0.6114055146900041
  0.6541427262281875  0.8485603237923250  0.6450039440133294
  0.7101607079414762  0.8406602659815365  0.6632368262777318
  0.6039545715984090  0.4420201904088814  0.1788537132903557
  0.6986201265823520  0.8808859846126659  0.7029762174694221
  0.7997091710564819  0.9234054924933826  0.7324373909418395
  0.5942107759791393  0.4520581126049316  0.7794101188688660
  0.4004375257533240  0.5041681977278436  0.0934612740074681
  0.7990490145464612  0.9544289153838496  0.8395158020216401
  0.3505182284548248  0.5667571235227598  0.3955614325443298
  0.5337929040983902  0.6647547506189921  0.5302986973842848
  0.5619337561231925  0.5830249332720460  0.1772727349798120
  0.4115862638845366  0.7069806053431902  0.2074202084652153
  0.4160266225882708  0.7533856640162654  0.2531593456858002
  0.3706307769315291  0.8293177556671516  0.2740105287565341
  0.7206265127396556  0.8239665088343502  0.7258852649753457
  0.6711382817405550  0.8185897638196169  0.7659614723690013
  0.3241851437849572  0.9234437198450277  0.2331616330013725
  0.7499593730059114  0.9185832561288266  0.7729386446237768
  0.7689970498871942  0.8918087673021042  0.9010394027243341
  0.3303140887610779  0.9684064307003069  0.2784773612113143
  0.8657900142029660  0.9312633916724365  0.9251708752678659