Cr N  Ni
 1.0000000000000000
    38.6909066207142374    0.0000000000000000    0.0000000000000000
     0.0000000000000000   38.6909066207142374    0.0000000000000000
     0.0000000000000000    0.0000000000000000   38.6909066207142374
 Cr  N   Ni 
 1596  50 3725
Direct
  0.9720769484821384  0.9351913148471357  0.9042486719227175
  0.1499215159787873  0.9064740484449768  0.9783030192734099
  0.4159177008252133  0.6086577034628241  0.8383208776586589
  0.9551285255035057  0.8923523058099032  0.1134640434414696
  0.0411300109200121  0.8206446427948099  0.9958039112553977
  0.8853329952183744  0.7044112679030148  0.0286957594684786
  0.7487736831188150  0.9528245228020941  0.8805033607049914
  0.1155177114919028  0.1904542102026634  0.5966824103476609
  0.6134373709226265  0.5386087524074317  0.0379004966340225
  0.2302692386061937  0.7946471911883344  0.7408956487908533
  0.5862595213471493  0.1803979749694767  0.8191179056491662
  0.9707224224419513  0.8916654502722824  0.0310457049507204
  0.1137530468455669  0.9909304086633721  0.8278024335763077
  0.4718331041853299  0.7328688413521391  0.7204859793984906
  0.9261946636132951  0.9837504742424362  0.9854754921225485
  0.7094391154601557  0.9021369714814816  0.8752287491505474
  0.2371288124020709  0.9448942306748459  0.7685818087781849
  0.1146866047978742  0.2047026900348244  0.5368137591254102
  0.5209791655105708  0.7723231730548094  0.7847615650612687
  0.2574755663404983  0.8892677684909136  0.7871312303964635
  0.9822057017154313  0.5349187107154498  0.0529832539555887
  0.5733332654293108  0.2260070333334636  0.8630582138394597
  0.6184364607848785  0.6281162789791406  0.1283649807516902
  0.8204646459278655  0.5026953496853013  0.2331809254749915
  0.4622252100438057  0.0733339640750032  0.8529336342534743
  0.9454923046409288  0.7944631354942553  0.5817348067036817
  0.8596013499982510  0.9476023420372848  0.5206654853886589
  0.8146193757416506  0.0259311857680145  0.5349510979301856
  0.3202226697073265  0.8107376825955395  0.4317436237837276
  0.5651885203121172  0.5671663830762715  0.4664468347703826
  0.3663069458966337  0.7510735558499426  0.3505544592395412
  0.4922454763533660  0.2581699026568538  0.7207621636971604
  0.3120098591306186  0.7377515146613635  0.2785678968361512
  0.2655865624198638  0.8157721709913803  0.2985681403759705
  0.5690484757688264  0.3254512460352859  0.6220514217094265
  0.4697681650218407  0.2819782932945793  0.5964865675347941
  0.2752203056390207  0.9216920677122854  0.3300024254601753
  0.6193322189698766  0.3625030534780537  0.6894084386525433
  0.5461076577770223  0.4138470688112241  0.7132854636935042
  0.2139692301632768  0.8450026019610063  0.2734634851400985
  0.1291228081617276 -0.0105201584981750  0.2995840001574536
  0.6282740857314558  0.3823629657192384  0.8596881149695697
  0.6878179574340642  0.3747271689110427  0.8801812217085031
  0.8305289749810664  0.0915077694763808  0.2107521620806234
  0.7359818101229687  0.4106498703772737  0.9475928765855136
  0.6482703380174020  0.3814664560793327  0.3303597379833219
  0.0168775627232620  0.8189385458704568  0.9405246879746109
  0.7606981978510527  0.4257555752585883  0.1806588533104506
  0.8581288616083294  0.8644984825497883  0.5483008158223944
  0.4710325399669376  0.0300050991499870  0.8106029395297061
  0.5099500688631080  0.1123510548210230  0.9184406182487188
  0.5284237103765316  0.2178332651383459  0.9083109588062622
  0.8362176320459181  0.1492461900047476  0.1926024062547522
  0.5512370392847210  0.2825416337152307  0.8484758566445166
  0.5819351137184557  0.2066960701731863  0.9514359113255164
  0.7374541403192193  0.2288708422435769  0.3044425647415534
  0.8379494879165514  0.1829267245414012  0.2981572588511778
  0.4336963544361214  0.0124806194799980  0.9149497928899417
  0.3407746777481017  0.0905253353223626  0.8098251877437559
  0.3877177872965806  0.1863383819018991  0.5202232659529352
  0.7364538866935983  0.1949938777015586  0.1988479250494057
  0.6918890265749008  0.3052699116605733  0.3178714525945223
  0.4557402894085559  0.1734075035064390  0.6100257601334369
  0.7096431566492608  0.4575212841077397  0.3797311228194724
  0.3814230213554351  0.2255417383124373  0.6335545790882749
  0.5749087598806029  0.6910626077214546  0.4340466965122212
  0.5348629631036357  0.8048485407603834  0.5074335749452198
  0.8148086388172867  0.7813840422416141  0.9279448057150723
  0.8612425458618813  0.7857914020187173  0.8934923134064598
  0.4266599814814677  0.8062770385221035  0.4719179284438306
  0.4861223853554280  0.8850635124907064  0.5245876751646789
  0.4665090713501906  0.1942603152569561  0.7769620657677611
  0.9004435478111174  0.8915287935979443  0.2098065846170885
  0.8019292543626950  0.3188593179162383  0.0635957149218199
  0.9352003235630808  0.0892880930795456  0.2478249221631110
  0.6048896122212631  0.7392548653087814  0.9279239714351951
  0.8387495494294438  0.1810839899753794  0.0654941226385892
  0.7599433902112221  0.0080455905150617  0.4615765735652647
  0.5336220276845788  0.9080513206693279  0.1345201464473060
  0.7393014051728822  0.8260511868006853  0.2842970629091812
  0.0183441059936707  0.3652193166254464  0.1780976909792414
  0.3234580011131926  0.7172374589505043  0.8409228560146108
  0.2904626561734286  0.8197548192394906  0.8689485759222674
  0.2406574106465173  0.7824963807638111  0.8019268359497838
  0.2478020114641116  0.9011834395872997  0.7257066934214692
  0.2629459648711196  0.6927410186984612  0.7129827027735486
  0.8363278930154665  0.7188387201751386  0.2900219625957552
  0.9382935289554525  0.6723973867496564  0.2808858763747841
  0.4401155830679083  0.8669426135953912  0.8525626383442749
  0.1604058150957816  0.8287164964913731  0.4342754664940613
  0.3201948993230679  0.8290536434632439  0.3726378648022761
  0.3243385392107009  0.8753661121462910  0.4171727128038568
  0.5989843137153555  0.3210064799741607  0.9165623786916498
  0.6608921557327978  0.4393249894038724  0.0840063407762687
  0.1776555003595112  0.9743579194684615  0.3897576107206592
  0.2206138702805611  0.9275443417771992  0.4323944497989398
  0.3799911015301675  0.1071488368466750  0.7066925769063810
  0.8147356570746491  0.3922391751501023  0.9755654917262300
  0.1431936711387971  0.7550788740993492  0.0375288670362460
  0.5862323685113626  0.5555315878940014  0.5423672119527186
  0.9760236170942443  0.9010613169685449  0.8002269364280773
  0.9041276663766488  0.9541628769341395  0.8207676721952621
  0.4736975304166261  0.7324116260622032  0.4462515969487432
  0.6779935412310633  0.7456188122808424  0.6128622437473187
  0.7578017504720010  0.8080012496055394  0.5774010757150858
  0.4804825745181283  0.8370286972315153  0.4769798859256231
  0.8326772880637224  0.7926662636314541  0.6033299970751741
  0.4283948987681236  0.8505546713751579  0.5179047522021617
  0.9199291210912468  0.8810563332190882  0.6732499993831028
  0.3352656049283787  0.9827514456617925  0.4498348208959866
  0.8872646611111447  0.8467578585465166  0.8384732106351647
  0.2834834413958288  0.0294824132606046  0.3616591453529345
 -0.0112788707702439  0.9878857978744198  0.8789828117990824
  0.9243238164995589  0.0216977973209078  0.3382633232212633
  0.0397644860063786  0.9949595623372385  0.9533814974972085
  0.9317057878069156  0.1121887705139785  0.4198438462099756
  0.9279302783594039  0.0648068795088718  0.3787516363710495
  0.5952781371309674  0.6547883156038501  0.5568123357190171
  0.8881202731866177  0.1523911760449779  0.3260906865175586
  0.8314522558042989  0.1549206284649510  0.4228741779599727
  0.5919455074699728  0.0164500212369242  0.8550810155814101
  0.8347822791798732  0.9723045089562810  0.7350519886628530
  0.9858440668544982  0.1464953200877773  0.4306797332074036
  0.4072518926235702  0.7567102239212158  0.0251405833584893
  0.7441331872121469  0.7368659917321514  0.6411721557052716
  0.8361679764929725  0.8405582591805880  0.8818587295060526
  0.7048848385336983  0.4117960494620105  0.3386763589338527
  0.5385899648991801  0.6707651840599852  0.5351760483174661
  0.7840487096370751  0.7169135346720235  0.9928376872676277
  0.5189999682618323  0.2836161769917862  0.5568152579948419
  0.3729879243410330  0.2382363881283130  0.5741937097524989
  0.4254084831878249  0.0106640608626031  0.6440534076323796
  0.4494212075912125  0.0532626262217021  0.6832013775675957
  0.5035601037487619  0.3063338884954513  0.0024202848239875
  0.4440141031205250  0.3172265748489304  0.0524412338709388
  0.5973561536567746  0.1354189816818555  0.7741347254084584
  0.4463710506624293  0.3642253041330986  0.0924616366185983
  0.5103364494115722  0.0781308946268329  0.8129584071631164
  0.3972523824591058  0.3921086394077169  0.0641376541348001
  0.4491189082490043  0.3774159033828856  0.0294861401079864
  0.4006372147669477  0.4571849143168649  0.0461289318867684
  0.6570776190299292  0.1627746250613316  0.9007659505381768
  0.6176070674355820  0.1471986007390320  0.9456109966755858
  0.8943736820807596  0.2475312847575451  0.4112304608349410
  0.6001189258358286  0.5724976731295044  0.7032248513472954
  0.9313598588217377  0.1591836297865605  0.4593823651448729
  0.6112266267786352  0.5281751734307044  0.6611859889543908
  0.0328135095381925  0.0675046021415037  0.4159403689560633
  0.6092086323340882  0.7981514584881039  0.6397376396317590
  0.5108232609337291  0.7550221388969983  0.6192346736174607
  0.3488249215674190  0.3275716156457442  0.6581998317422313
  0.5697720605332630  0.6739710242790222  0.2675437324865890
  0.6753589869678462  0.6565326387246563  0.3665167646181609
  0.5543372879487374  0.6252629844103618  0.9918773059485549
  0.5142964364323889  0.6089210500093620  0.3884448266562783
  0.5205306921360977  0.5386317002209631  0.9050486242836644
  0.6060636700327046  0.5741250301191898  0.9647089933088535
  0.6663448963618702  0.5493784606700826  0.3357548811522243
  0.9953074610894271  0.8741548127669845  0.9259997327100189
  0.8734647822441679  0.7083803139128748  0.7449078627343773
  0.8455411138990989  0.4088422370374094  0.9251992642584355
  0.7576495682168107  0.4113555752577244  0.2425374364889878
  0.5867977042698584  0.5985945340003163  0.8382644727993263
  0.4468296011849949  0.4105125247197343  0.1358483651919699
  0.4688572565564375  0.7208584501208961  0.2774129488912662
  0.7904501727183646  0.8048089658534017  0.8068494200355892
  0.7151626222134703  0.6726472027592210  0.6985516501159905
  0.7004559019552312  0.3868464135100810  0.5421632266568946
  0.6743249852969847  0.2363197975395408  0.7866567280557994
  0.5514940259653731  0.2506769091952599  0.7412717232037682
  0.7332933260189807  0.2280942510924699  0.8092656074917660
  0.2607987287054129  0.5864732510228408  0.0162597792004892
  0.2014196888975509  0.6127935662962505  0.0465479981950437
  0.3360366897813883  0.4063858128935300  0.8102250955707859
  0.5669342677519387  0.8013992694209298  0.0096697148804282
  0.4840469926401155  0.8272774017445924  0.5373210626559417
  0.5012573977959413  0.5277126305788927  1.0089831095164814
  0.7370198725063569  0.9640587539719629  0.8182677639330562
  0.1340959778287361  0.0513962184761251  0.5216543772875168
  0.2568710991138157  0.1176536441436318  0.6629029547647478
  0.0638661255544831  0.9163689061698348  0.2497876715753365
  0.9476359024908381  0.8393846282143127  0.8593111649732945
  0.7508457292065575  0.5232141986104493  0.9254923575976398
  0.7131858981409775  0.4877407861228886  0.2561990751165802
  0.6664860044378587  0.5653012729388391  0.2756398915039234
  0.9364364980519663  0.1038664870258251  0.1847604995469599
  0.9488437187725254  0.2459881811480322  0.3146428719616499
  0.5888254618356328  0.6329309917597459  0.9453223387080327
  0.1542337450783860  0.2404485665691357  0.6046674721335679
  0.1902082257257591  0.1372862878267898  0.5766850175461236
  0.9436555444309144  0.1849556959988995  0.3335268294526339
  0.5431819659103183  0.4799164712347989  0.9214355093974372
  0.9885688467389353  0.1080045430218289  0.3214880602779907
  0.4224304457914910  0.4945722612321541  0.8778309261134412
  0.4076356757070744  0.3542525042324627  0.7877817402852503
  0.4363243166920677  0.9492934681968741  0.3753309765800744
  0.4813273342095784  0.8738220434260013  0.3540036759836808
  0.2598900480436805  0.7838188062059533  0.1926032926714832
  0.2553253784218750  0.7520849179226617  0.0865615212504087
  0.4405478371359750  0.5369760475700053  0.6561048493702860
  0.6767892161497058  0.6860328454963068  0.9051970274713934
  0.7557481512173625  0.9596787172107943  0.1810384359662014
  0.6348835591275880  0.4363570702714355  0.5714686370681269
  0.6718849075994552  0.5199192561716387  0.6810148683811752
  0.8102877800825071  0.5831746803678542  0.6051067989856931
  0.6328694137123718  0.2081313460937230  0.1025736359719636
  0.7604601107526087  0.5886015139526077  0.8408926212624864
  0.8228796500325041  0.5819861697622518  0.8624854027381862
  0.6358382032821371  0.2417743943127887  0.2050735472606880
  0.9909683653726106  0.7257886555687691  1.0043942861458794
  0.5472034161189766  0.3961844518529319  0.2316734774359169
  0.6457911146769780  0.3491566144041386  0.2263105941154570
  0.5387109087105300  0.3949957114857472  0.5369345238470230
  0.4519225387881607  0.5054713331425869  0.2216324546090041
  0.5053264150240051  0.5203092740735487  0.2921654468830334
  0.6563973804555668  0.4112223132864529  0.6934925086040923
  0.7330650531808965  0.5133279637017402  0.7022735658031536
  0.4556933720281949  0.5660292350530904  0.2047049127015362
  0.7047672885855625  0.4500441254859935  0.7595192046851491
  0.4088986000935685  0.6276083108147938  0.2840451718748560
  0.7755446071379164  0.4299457728829420  0.8426852610731704
  0.6413473658867671  0.7566724905910452  0.8247740400704426
  0.5643222593054230  0.6907156908975195  0.9236925773092383
  0.8398943698167136  0.8099074242527952  0.7706466252728242
  0.3077743301674331  0.6742284770887829  0.2944100663051877
  0.7702393705363751  0.5786572027621885  0.8997831308264423
  0.8239448608469471  0.6191468427358128  0.9693332571046318
  0.8823501159931068  0.7281255392151729  0.9100342728181418
  0.1557093888220199  0.7805293297908672  0.1544701478278666
  0.2098768844896954  0.7970544657447565  0.2264341055396635
  0.9216689336377482  0.7449986349863092  0.8104711137058580
  0.2235491867315204  0.8663476551719907  0.1361185813517759
  0.8357617138297762  0.6465895929905293  0.5419379505434911
  0.8821738761051378  0.8003664964795235  0.5636739886424567
  0.1680362588735359  0.8860580289202720  0.1780333517671587
  0.1201617779585354  0.9164164496776143  0.1510615663792922
  0.1280619446558703  0.9596860853529224  0.1927481777344301
  0.9409822142818481  0.8193807500054587  0.6926395070423731
  0.9830324014186806  0.8726259539334409  0.6991755983108987
  0.6616340401259337  0.9837809217495785  1.0057249348817829
  0.7763559144230939  0.0762384687896305  0.1372383832850068
  0.0294359708385023  0.0430731895421621  0.8794929552484665
  0.7372821453218602  0.6029608996861363  0.5237213823274630
  0.6977545780398463  0.6611478984597686  0.5363110905869477
  0.5907342034594247  0.2865016940145181  0.1137191640004517
  0.5021067147756044  0.4420586873739625  0.1440157729680560
  0.8317298997112920  0.5593346398436801  0.9911028596172340
  0.5480464644353983  0.8342007914471882  0.7244862122093654
  0.8201175257687239  0.5484555728465215  0.5046435868084188
  0.5449009264448444  0.4467309128485440  0.8177941719643895
  0.8031440407628064  0.3657422284648147  0.3327177314606875
  0.0269259509567838  0.9253436804357656  0.9283020425206198
  0.6069787107648494  0.5217000276269750  0.4976532773419717
  0.4529290443940340  0.5205261377381505  0.1619520967924093
  0.6906287890523557  0.5972510100269737  0.5588599093030291
  0.4026994983369276  0.5505753003281351  0.1358375208924830
  0.3041382085406041  0.6440615190281119  0.1886835704814972
  0.7747986289017630  0.6638837341098831  0.7210141494636687
  0.3620998585210647  0.7218476662619052  0.2438832930350913
  0.2528193648020932  0.6755337785100090  0.1637804457861087
  0.8505668069555196  0.3358444021096725  0.3617928128018620
  0.9162404286123812  0.4111578400958547  0.4075316524164834
  0.4289879989325301  0.3967812907345308  0.5634236605530687
  0.4983293233199824  0.3761389435325436  0.6450553386534053
  0.8935261000311163  0.1817609945628628  0.2015254131281926
  0.2799658281107508  0.3487768413196438  0.5739305524700280
  0.2023652315422036  0.2489010365814206  0.5637358985722580
  0.3263581944145758  0.3862001462633253  0.6407412234534752
  0.4248840911802158  0.4284620965398654  0.6705515428149259
  0.7473470677127578  0.3353388017521385  0.3263302620742534
  0.3757101288173972  0.4231074310871623  0.7080907373523057
  0.2390057649022741  0.0783792708795222  0.8919652882847489
  0.2236167363515069  0.2211970751206932  0.6882486634338485
  0.9702928545215637  0.7825377511465944  0.8757880074424431
  0.6264979407006903  0.6477203735748935  0.8408489270533841
  0.7673225269925699  0.5027895515114490  0.3286322352956547
  0.8091467023582282  0.4113008940091293  0.3732091377516790
  0.4055648978369868  0.3868252368191740  0.8945719305891654
  0.7718271208851195  0.5302295626650991  0.4361783143151414
  0.5054719724169113  0.4700875827463519  0.0245343668680866
  0.1543015706566002  0.0296618368508478  0.5797014442259282
  0.7903665301189379  0.2255947704322960  0.2081465216690784
  0.7446250083944853  0.2705226694311013  0.1182301425368543
  0.4346511651042667  0.9324545038172821  0.4373120673165296
  0.7067379052944001  0.3959647272057791  0.1728699856681684
  0.8180130769713705  0.8614238771736756  0.9900970734896358
  0.4171388154378214  0.5632375043708360  0.5317592373228048
  0.6015054771892473  0.4266846791092956  0.2400324666296589
  0.5195120170293797  0.6067885251827546  0.5564235747538476
  0.4699697956419513  0.6008499010142649  0.5994018008412426
  0.7085734415571421  0.4407910841800100  0.2147363028183621
  0.6599827963942898  0.4723760147829800  0.1873617471748403
  0.6117873967238791  0.5356014066617543  0.2669970530242795
  0.6685593250664461  0.5812328701717818  0.2148286023407177
  0.5440419196486423  0.6820572308820723  0.6985525868909914
  0.6137543488835729  0.6618634112446492  0.7809027766005903
  0.6519243926171371  0.7123609481595554  0.7817861826191258
  0.3615499471176673  0.7738875795963177  0.0605779377309859
  0.1756820307602807  0.9277496266426686  0.2191703938694937
  0.9493047185675260  0.3235680599093119  0.4697489101126002
  0.6148877706426882  0.9464351178769888  0.6667417823260001
  0.4893930264314057  0.5748703539720571  0.7221348745131293
  0.4513127477492558  0.4925426820587537  0.6118661138176840
  0.6253967030638257  0.9344250732445346  0.7323834876095076
  0.6308476652434934  0.8023858363197709  0.8676277012705584
  0.6152154498093664  0.9788363762879005  0.7741556461502573
  0.6366469856493766  0.8431158610556715  0.4156945542620906
  0.1866290943891235  0.2061555566727667  0.7918527688334872
  0.3058326761176877  0.1917907198620810  0.8332352627396702
  0.5339733378049936  0.8647598705005294  0.4945039739859884
  0.5857176359080066  0.8575747422554553  0.4529767744422502
  0.0028479443806791  0.2624594772242167  0.3866931867596957
  0.3771852349504365  0.3250897073276720  0.9548253783663919
  0.1655162472660138  0.0168633658087737  0.6435881130871833
 -0.0009811155580340  0.2460281728874326  0.4478302880084048
  0.1564858048059896  0.1051940573056474  0.7402422321843036
  0.3073100206588818  0.1589889374367955  0.7289504407100307
  0.1710166493739360  0.0982279428794569  0.8043878821666421
  0.9541043292057583  0.3399330376446883  0.4020137390133262
  0.2702784851635546  0.1413622588317643  0.8319845446148888
  0.3286592059085197  0.1338708696282175  0.8546088920186874
  0.7675945502722871  0.4597394153274567  0.4577146020614776
  0.3150258183422129  0.1794551211053253  0.8929096885999177
  0.3733755663376204  0.1732279220295801  0.9159968010647445
  0.8713983390284223  0.8447492636917772  0.6056020276862237
  0.1667595795152463  0.9965557093160792  0.7906657336311905
  0.4748214647309448  0.4335536894000608  0.6305037610548236
  0.7134759221960644  0.7046830654077075  0.8019778942065295
  0.5552420822626912  0.6383193408630360  0.6574842266949339
  0.8186649498492321  0.3138055241905148  0.8749417002929861
  0.1551623717585457  0.0724427223798798  0.6321735754913088
  0.4752448272068087  0.0617572601101277  0.9158875236151545
  0.2103430838200468  0.8131734766884801  0.1657265665494804
  0.2468219211162705  0.5312022613413004  0.0344926214212330
  0.3024586213340823  0.6146924151388764  0.0845626186844306
  0.9356019797383789  0.0849053831848692  0.6694384543746258
  0.5275362723217676  0.1552099925637764  0.6864760788931391
  0.2937812964130087  0.4382868157088367  0.0751688910382942
  0.5311475233199054  0.1224828492292238  0.5786826949473827
  0.4544506304356735  0.1475085168081379  0.4943192880948695
  0.5004971152023117  0.0507915719060147  0.5314866263958123
  0.4124385294791929  0.2748687825193555  0.0179874397172183
  0.5208474217343139  0.2263420550980274 -0.0038157424508548
  0.8164016391273567  0.3321317814120382 -0.0116731528020509
  0.9326280851359985  0.8350680188281204  0.6222486880637524
  0.4855743732632966  0.0043639492721841  0.6654692549538427
  0.9631787988903920  0.8987322637817297  0.5128908456003995
  0.0098678324416535  0.3576219404102490  0.4805102854939409
  0.8509285901366205  0.7786407632481686  0.5038785056137396
  0.5191055126687847  0.6733831516481069  0.3643884428534458
  0.4770320802341114  0.8119183843813128  0.3699722502008799
  0.4726264237170303  0.7658439500526886  0.3236685759761704
  0.9724024110011839  0.4313626233784528  0.5012444556195602
  0.7229398823667272  0.5640777406743682  0.4079077024034298
  1.0289151592775712  0.0039027036334150  0.2002172313089668
  0.5374858301327177  0.5944310706478797  0.8807676399562734
  0.6904910305453518  0.7616144469024910  0.7839943919015270
  0.9029664212756086  0.2889554094924001  0.2249682351132399
  0.7984174638792316  0.3204132137030474  0.2933370681154698
  0.2001979777274744  0.0962142182899653 -0.0098632895006927
  0.2475704949423549  0.0666796169203469  0.9563628823828504
  0.8763162945724133  0.5287771722518371  0.4720129287594443
  0.6520311285459172  0.5610320483603047  0.4973820154916082
  0.5921246438200147  0.9160127550798006  0.4354309760281632
  0.6470404434927526  0.9193429399513969  0.5703027080046811
  0.6528897306769467  0.9940047909592055  0.4891162693376702
  0.6409707321126359  0.6561488116887295  0.5158727479214090
  0.7399242745331071  0.7199611350368593  0.4815397395662691
  0.5412804136090311  0.8416015163563723  0.5632157919947723
  0.5892014182510733  0.8816983047714562  0.5614747440791776
  0.5409912806612344  0.9292638569336329  0.4721595928489565
  0.7229774444351276  0.7288926652827232  0.9665105564764124
  0.0100361467182782  0.9709999027556221  0.6479212516460343
  0.9399424164852654  0.9852301709719221  0.6515825637112123
  0.4922660177924872  0.0743579769817587  0.5797349642138194
  0.9806566025854925  0.9487904459574101  0.5554817519780139
  1.0435655464916354  0.8309931672445289  0.5167085171981400
  0.9725690848101098  0.9626378088225206  0.4922769193511189
  0.0742471475027819  0.9705703339882645  0.4657666055219365
  0.5000077116339111  0.0542425307695385  0.9806378641957585
  0.5516027048939339  0.2177579621083673  0.6389327353823295
  0.5587405762420974  0.1163980849713797  0.8773493224301834
  0.6629265066830884  0.2495557794999493  0.7256217861159407
  0.4836726447225768  0.2354392198166131  0.5605674231529280
  0.6825768462243064  0.2553907917277239  0.9553312765430148
  0.7374619872283897  0.2565700829791849  0.9264484837747863
  0.5771437103912173  0.1957593580914763  0.0293340748163276
  0.6313608256651565  0.2186838266672707  0.8873801417168562
  0.7194460126904134  0.0291062835740061  0.9529010205276502
  0.6168526445603777  0.0587252093451431  0.0247708050955381
  0.5384993993233124  0.1421560789569870  0.7517709193143000
  0.5501453515724842  0.0985674057208589  0.7087920014761718
  0.4900880418478291  0.1049553187313228  0.6865110640139147
  0.5406079308387476  0.1123001168094167  0.6447449898583022
  0.0096792265154260  0.9024660399800080  0.1808010060221419
  0.0685377724624388  0.9012575390095988  0.0812546484507544
  0.2052217932493534  0.7658096974808790  0.1219354219596211
  0.8518454390009301  0.7660012225623755  0.7265443262623483
  0.6275491704414450  0.6176815462839379  0.7390553143024783
  0.5825875752641154  0.7972396993498836  0.4661765361877608
  0.7035799082253198  0.7165230978724181  0.7398023137476871
  0.7348786715217286  0.6803894898221032  0.9256117210183252
  0.5082768078596115  0.3656211272101092  0.7074686086028242
  0.2138410127875870  0.8232447535903846  0.0970902287208340
  0.5067575158704433  0.3979662049035813  0.8141349724310257
  0.2253118230080987  0.8812811743809212  0.0694154665140960
  0.5546688750098687  0.4356926732760226  0.8797747162635114
  0.4775873650129691  0.3348042780341611  0.8710967010661956
  0.1820504470368332  0.9442165377348718  0.1549758282071062
  0.2899081498661513  0.9547595724161954  0.1202124725931546
  0.2853301721213897  0.1811798637226972  0.6054654091688428
  0.6782600121878815  0.1500484234502786  0.0227721573044911
  0.2654698323515479  0.0708407966942252  0.6178433819575141
  0.3115907102849716  0.2775398726116439  0.6538702020595561
  0.3442398591334741  0.2087401693266970  0.7333664906141721
  0.3925295515612881  0.2472977056667025  0.7986742272003494
  0.6598071384697538  0.2836510258922714  0.0026167515950784
  0.5604595989891735  0.2732161730039798  0.9107674325284281
  0.6059111283998608  0.3635515038138166  0.0229911434774215
  0.4400224517069640  0.3161414930869639  0.9748960384434214
  0.5044372697262294  0.4573422563521767  0.0852281042421287
  0.5686058284381097  0.5818142871381020  0.4072853772024654
  0.7374053430024083  0.6460273235683904  0.8229927035255626
  0.5580325927520144  0.4891930537285493  0.0923607390989668
  0.5123434518357985  0.6137989321091566  0.1531013597314139
  0.3902059519768125  0.3482529663352351  0.5548961340386697
  0.3603777555718946  0.2840499445462666  0.6141379619894206
  0.4587186677534418  0.5974471341756188  0.0821974253728295
  0.3036462067582172  0.7444249633046429  0.0471811422492764
  0.6639627442753648  0.5684102483763067  0.9884114406277964
  0.5620734540095941  0.4900419343677651  0.5988892257560139
  0.4703513588140552  0.1648300456471259  0.3472019603056767
  0.6222366548411482  0.5150028267458781  0.7198600020014083
  0.5734279188843010  0.4779263552697208  0.6558632343045141
  0.6557329940802523  0.4449172212481904  0.7988818118250057
  0.3073032892190331  0.6301632944962269  0.0251682639704215
  0.2540853048085224  0.6439378542471375  0.0590614195146678
  0.6820262883946603  0.5407824721624765  0.8456248217139672
  0.7092967877800952  0.5838806618199135  0.8828518714321532
  0.6490179439809773  0.5908044030450567  0.8617498746810855
  0.2413380822523421  0.7658710274589854  0.0214703900001736
  0.7195060631681726  0.5709926250593675  0.9473195907289190
  0.6982971344911200  0.6269065525425790  0.9264406438932687
  0.7388553696394773  0.6762392543159015  0.9854426644940446
  0.1992174039711788  0.7788262070801826  0.0591846003972717
  0.1701729833378952  0.9637823956286227  0.9676549498846837
  0.4539749319298714  0.5517583184965644  0.0329804491728465
  0.5688418413186577  0.6129930441055881  0.5142463036055646
  0.7628199695187939  0.7410699816096097  0.8665711173490104
  0.5946723041039502  0.4519488180533428  0.7783412877551421
  0.4126227130063708  0.2081267370740605  0.9801519523316246
  0.5345419633346216  0.4591894989899908  0.7581162269597894
  0.5605788604425178  0.5547950432777514  0.8033798760352001
  0.4062735879157010  0.5866457380876424  0.0131823616933149
  0.6911161899243373  0.5290808376666722  0.9063905330853747
  0.6530100599924130  0.4779439760272780  0.9026908401030067
  0.3058676484926030  0.5673547911198922  0.0462175292716097
  0.7186998024472842  0.4517408995844244  0.9843608273009864
  0.3576882704404065  0.6476298104306440  0.0921863123001693
  0.3343465934381532  0.2034452320233199  0.5057429077846489
  0.6810663222602273  0.7748301941431820  0.7228783290352545
  0.4101634307279252  0.6780646157476736  0.1033034104674772
  0.3786705788711793  0.1390218772698046  0.8125085243220295
  0.6457428817232667  0.8168472745459096  0.5381028403028361
  0.6971077423666653  0.3014220609348805  0.0889543898674367
  0.7035363412759251  0.8809846630193802  0.6129281903649021
  0.6510625091556970  0.8472259652600329  0.6451159227943858
  0.6586537662338114  0.8330933216640315  0.7039182439175521
  0.6054257813051138  0.4412713019514407  0.1784277889245071
  0.6956761537877079  0.8830089806831652  0.7026850662208726
  0.7966391608607692  0.9250134537267907  0.7321130071673959
  0.4019532185430054  0.5037302351256722  0.0935879013154756
  0.5579933485971292  0.5204568818797491  0.1955938889339577
  0.7967486781913700  0.9555930000758469  0.8389755905347378
  0.5855784514216873  0.7189334237476898  0.5414568891359931
  0.4129876307908719  0.7238938645162132  0.1475413557095414
  0.5676369946364132  0.6597428200475827  0.1005307385550749
  0.4647035540507610  0.6921241405565430  0.1717869077007357
  0.4156505415026691  0.7531765603322099  0.2539062450695428
  0.3704743057821129  0.8299727092934275  0.2743514559165920
  0.7294285984982235  0.8106082052381496  0.7857256594581705
  0.7084701442891608  0.8698064474756453  0.7684896870379098
  0.3254935205928794  0.9238377108561031  0.2326943545694494
  0.7795276659576296  0.8179907718034000  0.7468390708095176
  0.7683093625266455  0.8921159469380561  0.9012563045831911
  0.3309332502477413  0.9701456905647182  0.2789494108223275
  0.8743652761168088  0.9922539485413689  0.9022077986002606