Cr N  Ni
 1.0000000000000000
    38.6909066207142374    0.0000000000000000    0.0000000000000000
     0.0000000000000000   38.6909066207142374    0.0000000000000000
     0.0000000000000000    0.0000000000000000   38.6909066207142374
 Cr  N   Ni 
 1596  50 3725
Direct
  0.9621075880644517  0.9010266051784620  0.9674152803769129
  0.7920980889733126  0.3438192758358414  0.4629487535611240
  0.7352951946781739  0.6804346863930533  0.9253948189889494
  0.7634163449844047  0.4698156191251444  0.4515673802834423
  0.5661186653755377  0.6150698198198005  0.5151077974502499
  0.7541124596857303  0.7538516248422557  0.8067760650724423
  0.5642849665706011  0.5842187483535951  0.4057728200989236
  0.7759881351310597  0.6959551325785488  0.8256823101307924
  0.7029863739042446  0.7159722909945984  0.7402195239643018
  0.5188366301868532  0.3203043165440485  0.6640853557979810
  0.2450742531197974  0.5847134703602839  0.4703833024913289
  0.6901208834669382  0.2727265790877321  0.2132283453727354
  0.6016489206619040  0.2881228188997533  0.8111770931101631
  0.5797986329658200  0.3437345195715750  0.7936149501536557
  0.6978174650461609  0.3631525585127750  0.9420454298672662
  0.6604976780411176  0.4657011085670840  0.9627393849493759
  0.3590759010480362  0.0858417502748325  0.5360395098224572
  0.4171298337086068  0.1233056535067715  0.6038663095769400
  0.4294937480887033  0.1121193767928003  0.6658665086291160
  0.4671089065735881  0.1625894340082849  0.6683303600691906
  0.5140665662676317  0.6289121985080152  0.3182205934106608
  0.3622643845640507  0.7352864776660724  0.7388363470360119
  0.4594218261104301  0.2937503996583420  0.5344249547297174
  0.8609284577850917  0.9276761063048415  0.6090751289636163
  0.4726726272394240  0.7672130065929105  0.8245753633022648
  0.6482848159957445  0.9097787385706541  0.8525866254667097
  0.2255931206650321  0.7081455336028857  0.9176944773354605
  0.4497382433616433  0.8246181945297726  0.8080706702257212
  0.3033039529211349  0.8072090391122123  0.9388608788278346
  0.3992239909355143  0.7850776954145861  0.7426474279437120
  0.5624302145277147  0.8246952310484724  0.7886544496631399
  0.7904212268193800  0.8114657372001606  0.2476554328366451
  0.3403002948025033  0.7785890432421874  1.0020989869979193
  0.3062583347802064  0.6727571778026173  0.5148222528385231
  0.2800822197748711  0.8611149793798339  0.9789375845028270
  0.0401968248273245  0.5636790208851438  0.6294965806040876
  0.4287947383307858  0.7268240814879633  0.5422103464137285
  0.3621925958454904  0.7028574107123262  0.6322308697441144
  0.0551475116140974  0.6514534651609819  0.7069100954230065
  0.0500868397994068  0.5502961081807560  0.6881871716041771
  0.0876960120303237  0.6011210448521405  0.6909647758016016
  0.2532817652783703  0.7702701786265012  0.8619462698128357
  0.1818669283080152  0.7885958131884090  0.7777118359188232
  0.8367075208642353  0.6855659952388233  0.4107426978401904
  0.5893234636788862  0.8448941328060486  0.9599054787859002
  0.3830954500368646  0.9470570624426461  0.9844965719948008
  0.4122796274966679  0.6735305604987212  0.3287562352356786
  0.5256016603113886  0.1874452947701125  0.7989990795908247
  0.0120516096307485  0.9310962112276034  0.2895940244411777
  0.0614005362340534  0.3883970293998499  0.4835006987589806
  0.0278947681329532  0.4706463908593330  0.4268254935497708
  0.0380799974950721  0.4538281833362117  0.4885764952189732
  0.8010853785230143  0.9561951047472786  0.6134599674552375
  0.1617200379173148  0.2322977459797762  0.4463897043717384
  0.6231096770795518  0.0844701162276006  0.1339136253264978
  0.7164785664904391  0.9404712464784308  0.6458630126052075
  0.7334448792594114  0.1640791946480660  0.0917111828290756
  0.7012942837353455  0.9448544149101198  0.5864710138469940
  0.7028886342371532  0.9639936650780354  0.5199550114987195
  0.3613021664048290  0.0607840720005169  0.9364593555109806
  0.8353820979056161  0.1198961446441495  0.0842008452043682
  0.7835338137097855  0.1341868851151473  0.1187761008019591
  0.3009377184833004  0.0704690532213026  0.9133267305938924
  0.2525479116709961  0.0343837767238456  0.8491948790449256
  0.8296849094636980  0.0737727621423493  0.0385498760433708
  0.2340201702517779  0.9545546343787631  0.2219040228000117
  0.3871837806963278  0.1248200517959927  0.8721234582124689
  0.5229227770751523  0.1466399805509827  0.3097826666575613
  0.2283184559074573  0.9125600159752146  0.1818276766965933
  0.3194226233176887  0.8792723073870459  0.1886357993035713
  0.2685600491929300  0.8907741750597711  0.2223458187127252
  0.0113161617159753  0.4142398346972585  0.4562374225328281
  0.8120928357857227  0.8522675320334937  0.5873790572605085
  0.6393836762404899  0.5895608090322866  0.6020515018571054
  0.2298825945264162  0.9832945986152530  0.4073690663233089
  0.6665576512918099  0.6344448669904682  0.6371309593833702
  0.6172475928378339  0.6033919945159071  0.4785973578778289
  0.6558849443620854  0.6798165542373583  0.6798569210520369
  0.6655173114166230  0.6663867306040633  0.7397637966711553
  0.3068471299188186  0.7240831461055871  0.1112439205352876
  0.5591408050593314  0.0474684929653152  0.9499684594449351
  0.5444546046241678  0.0122742742267241  0.8944256727332227
  0.7420861331187141  0.7660918828352687  0.7450502564160243
  0.5320551120772328  0.0247158148631931  0.8301047609411528
  0.3996336848185728  0.5149069043266740  0.0367273560468591
  0.4089654693548946  0.3212997245875548  0.6813068789001231
  0.0808841016535100  0.0373014267882773  0.4432691088605700
  0.7660952949338354  0.0012558855860340  0.2217936094069873
  0.4030883766722339  0.0310972964463817  0.0733166415288971
  0.0488646639527730  0.2109465984814834  0.0191947029313859
  0.9108903187215212  0.2464217009996774  0.9140359748543327
  0.2654989795622593  0.8047704955428503  0.0656713724066147
  0.5181629590951794  0.6900289993674271  0.3020431360527540
  0.4411029525719061  0.1609103472892155  0.9507518034469057
  0.5610628623610484  0.2686955778719478 -0.0113470188543130
  0.5569285460209640  0.3244527752929024  0.0242715892675612
  0.2581177520629653  0.0185840077366186  0.6477987514409644
  0.7433659960235404  0.2421121898678730  0.5341789575856820
  0.9841664115995253  0.4365132096985284  0.7419676013322511
  0.8356767929908999  0.7341831146358196  0.2294344808081361
  0.0109989177358922  0.0138494062724313  0.7049875040690784
  0.8777098772068915  0.5344729840039734  0.0194167222767004
  0.0685748686910273  0.0506722216688821  0.7758537347522850
  0.9090544111868623  0.9255780360528931  0.4870180636707914
  0.9150388281772384  0.9452642558588399  0.4287857930234423
  0.0492631432882115  0.8010749648576291  0.4631872451307928
  0.1659551680717892  0.9891099894646685  0.5294654820247339
  0.1839091846568864  0.2372382370545831  0.8940473342871903
  0.8157130303207810  0.4570888998563054  0.1902296039414604
  0.8657340064173111  0.4252112942632303  0.2187585655335548
  0.1486322701368136  0.8733734722173541  0.5502167197944667
  0.9117146946187444  0.3520901148507110  0.2040929470039775
  0.0371097699203578  0.1557072633835122  0.8036562527470302
  0.2365815724591389  0.8856380484080747  0.5550409541252166
  0.8564062158231568  0.3687821365004212  0.2392178458932034
  0.8427872223024752  0.2423113339109330  0.2798651051694526
  0.1087422942184635  0.1011288099265407  0.7803533165622659
  0.7203611067812604  0.7857129700997034  0.0080647834156002
  0.1201388939063383  0.9790754878304522  0.5782274641322013
  0.9530776691447307  0.2729502124119719  0.1914933052839878
  0.6110263642909001  0.9992901433146728  0.0399754519208823
  0.9473032927813497  0.2095868584832772  0.2107001596663258
  0.2286991028681311  0.0581151518422891  0.7213728768944364
  0.1808815184932770  0.7573336477971602  0.6739574107831897
  0.1352786561082367  0.1631239643928197  0.7204735091596387
  0.7217621470006652  0.5975283367559872  0.2844644605011686
  0.1211638516878036  0.0923720074807681  0.8462963057601358
  0.0900762887218041  0.9328928563821427  0.8850471299441752
  0.0537142561273242 -0.0104689033490265  0.5555056692603880
  0.0547398531543350  0.8198410225666346  0.5847983712254177
  0.0406490351244416  0.8678534793981690  0.6275474702316620
 -0.0090798287026671  0.8217220564192417  0.6490321590001265
  0.3179937589534180  0.3174636915624894  0.9906137283389375
  0.2669657669575726  0.3249129457547121  0.9650109662574371
  0.0502453880219808  0.8192319629187212  0.6763865157039807
  0.2481587461172232  0.3510052360210606  0.8437437039503893
  0.2332339524891424  0.2435744803263175  0.8536401928578613
  0.8376929274055347  0.7413794940639997  0.0068655753720241
  0.4308025869049387  0.9222942257891926  0.2667689462364730
  0.1758624605037946  0.2192994676905110  0.7243396580591638
  0.2230176435717531  0.2553416770404930  0.7934596393931564
  0.4806821694963336  0.9068602718130990  0.2303800085065160
  0.1225887328109294  0.2129658422640424  0.7678507479641782
  0.4678880817978035  0.1965004160014444  0.9998785249035426
  0.5326592220676101  0.3663368787785636  1.0017056948473624
  0.3648147647690460  0.8017275855301710  0.1665154757764198
  0.3013087078098454  0.0396867389969081  0.8068877629947723
  0.3136636917937662  0.8328060224589655  0.1412515599391582
  0.8317555820372693  0.6233869080525380  0.4276194458157970
  0.3462238510533071  0.6603299589090221  0.8580902585601882
  0.6192429328622980  0.6616675062782000  0.0055865338618535
  0.1328141963661185  0.4497360085312936  0.6212124952190152
  0.3093672684429142  0.9265487985563925  0.8527819041905866
  0.9784043677155213  0.4694941434960254  0.0693070321579835
  0.3692921901556249  0.9190599640101745  0.8731609935793525
  0.3596233453034535  0.9640390273835117  0.9189079812600135
  0.3851935634080596  0.8850045465709948  1.0010937260841248
  0.8046720461719414  0.9320409714204760  0.4466464687561117
  0.3443476496047271  1.0108662588673105  0.9967468258835055
  0.7872936217848577  0.8257783792818829  0.1873279213224789
  0.7395375100607451  0.7798870400722933  0.4648519376367815
  0.7852110151870741  0.7177356892690742  0.3856315568834215
  0.4941377358060520  0.9387870087720698  0.0191169389686161
  0.4406988091229224  0.9112072757091674  0.0134293500764192
  0.5480878044224935  0.0051979504395305  0.3914751451338058
  0.5138652690781734  0.8489746903687341  0.9329048241073217
  0.5752022862942011  0.1666040723004869  0.1520504770340283
  0.8464342816846441  0.2533341461335738  0.5055461458385525
  0.8437695177368172  0.3224450122730095  0.5473614654386594
  0.9415060682759911  0.3656490310712003  0.5717449620747329
  0.1465938241274538  0.6722672433983155  0.1275156204082703
  0.9491227880025387  0.3548477475610859  0.6317353924480210
  0.0427528285788004  0.7187109143616592  0.1372314740436462
  0.5137171531380760  0.7711524130150367  0.0011739291771495
  0.3339556734661802  0.6723698749548325  0.7974784533898801
  0.9803841904312717  0.5478992364626447  0.4453515460885663
  0.0658929754564533  0.6396487883313263  0.7678280478576218
  0.7796005331115082  0.7190589163646972  0.1562323739688650
  0.2597289354730150  0.5901904668417597  0.6938531718623446
  0.9803285576556257  0.4816719113372466  0.4640759964781471
  0.3096562071787249  0.5954912940592183  0.6551112141765214
  0.1870646329586203  0.6119698424035831  0.6090485038122170
  0.6977360448092434  0.9188910628463279  0.4728804913640857
  0.1480774350163948  0.5268259351963311  0.5053247937402927
  0.3294352152320343  0.8701758120854544  0.8719428410067090
  0.4911358467248869  0.8746655186240514  1.0349169484225016
  0.7918216705412848  0.7349756172698705  0.4968207353444656
  0.0930293078774193  0.6718980955580864  0.6048422079463881
  0.0742063899807929  0.6933558702729061  0.5431710213636413
  0.4439475898421694  0.9555585196899492  0.0546814153061224
  0.2805846482800948  0.5650418928342441  0.8178954436665362
  0.4394144870336080  0.8908905525636174  0.0709197116928082
  0.2959342549057868  0.6226234560232972  0.7939211192963110
  0.2991948074872569  0.9388445432334812  0.7891835259366755
  0.2321303939803143  0.5277117859653159  0.7527448650596086
  0.4693523990817396  0.8351142423732667  0.0778150343582939
  0.5181046831078016  0.7558494325598000  0.0595123476189684
  0.9423006153018061  0.5210942584442372  0.6028555631853777
  0.3896518268445675  0.4118018515809068  0.2322879054108988
  0.9731870774383957  0.5862075365068552  0.5462930174313519
  0.5388469485717954  0.3339131607419693  0.2519388161514419
  0.7869273259187410  0.2337905831978751  0.4374397648804602
  0.7769547446976600  0.3965715810157430  0.7370928358897239
  0.7846762515645314  0.1874067254882529  0.3950174662426886
  0.7290232040964465  0.3589662351738511  0.6719618076449889
  0.6699655280403591  0.3654354442340244  0.6512829636084765
  0.7182789826840229  0.3721699183082483  0.6095228217640913
  0.6801798078862108  0.3197803018246455  0.6058624875145308
  0.9850065218541800  0.6056408075456289  0.9730039796130542
  0.9197237722220354  0.9888603898413407  0.4768654195850991
  0.9494554839267845  0.5735705055841548  0.8730088868979363
  0.3254593416816901  0.8523726033732931  0.4775869392568283
  0.9016467007912901  0.5354619272250379  0.8063937819809722
  0.2690302552270055  0.8182994697152639  0.4698672818878653
  0.3607923135738472  0.7061136392607366  0.3031221042873806
  0.8866773565002400  0.4275023010223575  0.8219539604103753
  0.6752192837551300  0.2006502127751111  0.6789992846868018
  0.2633410608244233  0.7969236273761261  0.3617849561513786
  0.6367334464884222  0.1525634521032092  0.6673754594313491
  0.6309480979914061  0.1590371824401947  0.5964593619120290
  0.2073564475394179  0.7680652844761633  0.3508735282333164
  0.6751362718817776  0.1585773645038036  0.5592054241239107
  0.4435918753437636  0.4281227421993689  0.3020836002908558
  0.6905342371801373  0.3417871918690845  0.4240209581871906
  0.2698618090637491  0.8860550520043931  0.4616938912571358
  0.8647410044508875  0.5168980875171653  0.9114740181129057
  0.9701653415012151  0.6892135027346530  0.5631088814756797
  0.2144048601346581  0.9127679725684462  0.4948153495580627
  0.2141489475737436  0.8603290038870476  0.4428765421002808
  0.7924031302069444  0.6744836885374115  0.5078868690897499
  0.8418527834679288  0.5106281281600947  0.6845980202452828
  0.9285294035872035  0.5978590550471021  0.7503590414511370
  0.8935758218229672  0.8077044206151864  0.5112594664690406
  0.8311319148220563  0.5549767844988783  0.7268307296375331
  0.8940270486372371  0.2276952803418636  0.4771910685641602
  0.7495128931394256  0.3346418885914985  0.7947782256540246
  0.7017158466829914  0.2965069934982471  0.7316659131267564
  0.6411065031656900  0.3050700115652448  0.7096730345302463
  0.8357343832993407  0.1454453208297270  0.4811371575489388
  0.5903645621581389  0.2657622268903040  0.6443908004398571
  0.8707630866897608  0.0740186175679072  0.4799807255491563
  0.6408209997467774  0.2677150481551925  0.6039805093077422
  0.5402585990922283  0.2216140790701490  0.5830601005470507
  0.5464073325182215  0.5033468596003347  0.4778821286884389
  0.8957292367733978  0.5703943841343171  0.9049454979467947
  0.6584715269790640  0.4533811349661675  0.4738268165633128
  0.9205607841124502  0.5079051606573647  0.9278715277145294
  0.3760320216642217  0.7566894264270950  0.9048199663221843
  0.9315824838493609  0.5967597027876643  0.1301855767733258
  0.3048143540283553  0.6588250275107170  0.3540983831148961
  0.7303237086204839  0.7034628148121191  0.3143645907663700
  0.7127893520661256  0.0047608204740557  0.8962310891857074
  0.4057243024585904  0.5984955240318296  0.4064664118553956
  0.4532606498930298  0.5368420007769413  0.3258386067493360
  0.6748873355905783  0.1093906215843284  0.9181973800364457
  0.6944672176382154  0.0576965889135032  0.8810728523278798
  0.6208507382559879  0.0786554490971006  0.7921267674105951
  0.5479948555134796  0.4288860968735813  0.3360566681960985
  0.5702641031127057  0.0418530849519250  0.7262577444107023
  0.7947476212241543  0.2529372845839516  0.9279652547133153
  0.3559664179352712  0.6150370749833310  0.8166280094355294
  0.7922993239833483  0.8027704420445544  0.4871385831893563
  0.7703297733685617  0.1553044090720781  0.8834331196512921
  0.6986400735488159  0.1775436640889752  0.8014580911569780
  0.7200246186739306  0.1218329398700296  0.8177782671967943
  0.6491684603750568  0.1419104491898006  0.7328160483080332
  0.6982014817436617  0.1456037098339274  0.6917385343994891
  0.6792038789569939  0.1509809733632765  0.2519251156809105
  0.6104013032727265  0.0527297328427639  0.6251790277492884
  0.4748633961582319  0.0149508356355998  0.5991754261361451
  0.4390511458044629 -0.0393279283592964  0.5437920685661547
  0.0721603449941782  0.7297121976191997  0.5886906450376224
  0.0826516616922402  0.7153568860717513  0.6487908724235184
  0.4117056269927131  0.6583621199183722  0.3902292552508739
  0.6607062059240542  0.2098656760074020  0.6204614358095826
  0.9444950537425226  0.1623684655594612  0.1669591876437752
  0.5076241240983700  0.9803440480775669  0.7930318089071593
  0.9733622444260592  0.7165736771926777  0.6703900977410817
  0.5576809348087826  0.0848971449003534  0.5407696367945517
  1.0061432646516173  0.4420445610495466  0.9713171442311139
  0.7122598453762935 -0.0293253569175403  0.9747304447601192
  0.5865414408614668  0.3041475817118008  0.2810130851371504
  0.6870808945397308  0.2233657472545275  0.8472420876837340
  0.6690911416668812  0.0439681994498269  0.9858390500718169
  0.9189794426970560  0.3560932540324308  0.9030915432737066
  0.7978571529899517  0.3727927864353263  0.8605104316766610
  0.3518356715214904  0.5974601480761045  0.2744238074705132
  0.9084246201058943  0.3686819059519412  0.8400833455508530
  0.4020637185405699  0.5660912263137527  0.2993118529450089
  0.8102719212754832  0.3272321492322027  0.8169588734354249
  0.3518404751131419  0.5818842327905910  0.3342804558264292
  0.8716012419870961  0.3194027460060847  0.8348369999458619
  0.8116782172790343  0.2947867022710940  0.7102985583058912
  0.3432734770603271  0.4882478064813747  0.2482056599991321
  0.7007855391417132  0.2608537712238394  0.6252252197662829
  0.7240219434969772  0.2050144619289661  0.6412201234085313
  0.6476547450562774  0.2202063782295447  0.5637646492761088
  0.8805206862040477  0.6440898762978033  0.0416913048174493
  0.7115402680521281  0.0045082332025359  0.3234394753097736
  0.8558688934606480  0.6181970701955338  0.6674222272562926
  0.5914557818387581  0.3825984507037928  0.4269396588278642
  0.6334244838533573  0.2617712841541293  0.3731754090047459
  0.9238641673048034  0.7122002662658408  0.7083512573320915
  0.6805750799317870  0.1852440396586599  0.3587202209313009
  0.8565120209454322  0.7327470865884044  0.6249989134449185
  0.9079097232193558  0.6236511662375230  0.6267242739096778
  0.8170617023547196 -0.0002811345399207  0.3586574037078795
  0.7729252434925550  0.0797332828889045  0.3746772549744723
  0.0420171541641052  0.7342691793773639  0.0768049399524411
  0.9670727058927325  0.2094017692487845  0.8274330945288034
  0.0261119912287297  0.1692416103933797  0.7406127981227409
  0.8785589808986671  0.1226449676486625  0.7567096009355974
  0.8674560744766918  0.1348809766172091  0.6960107398940079
  0.8294094710092531  0.0858439376608703  0.6927366304479883
  0.1920775080096022  0.5050218605855026  0.0212515489564425
  0.7528744143050796 -0.0150019523693375  0.5892417631395532
  0.1898400541278565  0.4370264966864063  0.0361266538973124
  0.2471981708566398  0.3592788922392792  0.0115037582546439
  0.9439215080078576  0.2355172468521527  0.7054555733383111
  0.6721945981465903  0.1608797451301540  0.4883034444577600
  0.7247909387757510  0.1432130298459656  0.4505400736525761
  0.6007302135093180  0.4433721216108629  0.4023592776105337
  0.8576569619139465  0.1485165160446806  0.6341813316792113
  0.8185929625691898  0.0875306769542592  0.5146890060705162
  0.8790960291138984  0.0144131712789057  0.9566606362683163
  0.1898373810482858  0.4870373455529734  0.0797410844087942
  0.1399691171286539  0.5642557617225954  0.0994449022954254
  0.4757858283498089  0.2284656822595533  0.1004630932508030
  0.9538752614303299  0.4771619838028733  0.5591150289539473
  0.9064358117900337  0.2173931718139272  0.8069179135435200
  0.4708786112260095  0.1831029045998524  0.0574128681350927
  0.8452588292496512  0.1916054243126271  0.6807280127036140
  0.5701279726646458  0.1181919378678588  0.1031485664329865
  0.8509388471840098  0.0282910071426056  0.7096204188484746
  0.4383365642400128  0.3507054564491343  0.1564258614109883
  0.9530203054593157  0.7154597366052547  0.4981465753774209
  0.5347336972001338  0.2882820670962784  0.2116594471911537
  0.7750388342953942  0.0580500844233575  0.9644500903396820
  0.7599187881416705  0.0574531035404836  0.9026570267237111
  0.8183950358065255  0.0948825307577750  0.9114467666163231
  0.9322443180976568  0.3124244478588673  0.8567619728853341
  0.3778171262478169  0.2716497575286985  0.1103991116728723
  0.8753604520770314  0.4386110854498195  0.7619458751182198
  0.8770447653525568  0.5427785529162245  0.5237186847751114
  0.2409460504465943  0.4667455198067227  0.0479799989166600
  0.8693470682097691 -0.0447657115760103  0.9794783127994190
  0.9898228787187264  0.1865747066022886  0.9520926121590415
  0.7905758990184619  0.6204709986682870  0.6776299659264268
  0.9317632736374877  0.1090254026931281  0.9465082668070619
  0.9959986255315925  0.4578203015509484  0.9074339169891027
  0.9842951236609337  0.4707992757524401  0.8481884596525814
  0.4831371130946368  0.3033646194578075  0.2458680015693901
  0.7362979194238041  0.1936628203019963  0.7012378625139698
  0.2117433309456193  0.8289205582432673  0.3369896787380600
  0.6328637796713953  0.2951654087703232  0.4785303889573813
  0.6159588619565026  0.1203874651086719  0.5446525256944932
  0.7380296516245870  0.2643357250452106  0.4089370588068061
  0.7392174006936344  0.1551752816452333  0.5904828389728262
  0.4822722398492130  0.3748330462701105  0.4585697245243379
  0.7942681822893461  0.5048065232428263  0.7226689955523979
  0.7574791251451546  0.4216672114278488  0.6137960576925152
  0.6611442853696026  0.3752541054546261  0.5838247124290151
  0.6380749094872856  0.4388856353947105  0.5716265619172012
  0.7452657014363263  0.4327341122814163  0.5558474273586119
  0.6088939901510975  0.3700118171159188  0.6307052662131322
  0.9962933882406405  0.7233461629915257  0.8987926533021915
  0.9578879416500352  0.6756948065724193  0.8921978805195518
  0.4793245715538356  0.6560792751147392  0.5137134923511627
  0.4593919971387739  0.6280213712666173  0.4155985262490666
  0.5064971651295425  0.5531658408879910  0.3960094939815741
  0.5043773683107388  0.5419205872719283  0.4570112911387930
  0.9343340171384400  0.4644259276798735  0.8864317876648250
  0.9949725487572176  0.1354257248486962  0.9113294714611888
  0.3677910121320818  0.2440674284606748  0.0609991061416208
 -0.0040415766933442  0.7941709090493732  0.1568849227758641
  0.9488804545500833  0.1007500675596506  0.8396951329822918
  0.9084528892921179  0.0536551456279386  0.8389486464739091
  0.4154159748002674  0.1592095573570532  0.0387115524915027
  0.4128615020686625  0.1092576397440322 -0.0020833893263020
  0.4528812510180191  0.0352647756656316  0.9711829595510794
 -0.0054748410362521  0.8121569054739736  0.0978532559110753
  0.7712199174867937  0.2118076017398697  0.5989226196407369
  0.4703239585844632  0.1664576903292683  0.1145194586136447
  0.9356807171596305  0.4319672379288033  0.7825926767503405
  0.5103639396652124  0.0446508426363930  0.0475330050986976
  0.5146786319433103  0.0884776084874025  0.0950822195813958
  0.7077525205423204  0.1122331594207288  0.5840003656005069
  1.0070021090007533  0.4140278690296708  0.8643341789896664
  0.9582940502034049  0.3745544070724685  0.7975774869269635
  0.9470681627892407  0.3874681030902814  0.7368887112717746
  0.0073013608018971  0.3802145007535895  0.7573221980242002
  0.9100383788217269  0.3365483884057608  0.7332137636171880
  0.6104385240474461  0.9802302777415809  0.1033612358375605
  0.9217539683020776  0.2925619458399137  0.6897996857350733
  0.8608439620577752  0.2998542158314038  0.6701323933266787
  0.8502566237527995  0.3132948857315307  0.6087986150810313
  0.8129205451433295  0.2163920793132147  0.5596025967276970
  0.0710495689186202  0.5250995959051199  0.8096169607438324
  0.4719827100417778  0.2206223479554159  0.9470853115750941
  0.8957210746088716  0.8114079092069373  0.2859445467751486
  0.0942341383802493  0.1072095598536174  0.3608728448973897
  0.0515343607366942  0.7943587388378012  0.2895326522085264
  0.4144935521073492  0.8044383453107850  0.0690485379234841
  0.1102930536556664  0.8751784301290988  0.9067762442339754
  0.3648947648314343  0.8191975502307853  0.1073390320842098
  0.9458227372733811  0.8292812097904412  0.1303225907382013
  0.8452220616641944  0.2254166619397601  0.1104066604183618
  0.3176474064437478  0.4811442131093833  0.9599078967249770
  0.9869978346281936  0.6430459080727866  0.0785569257742263
  0.8836007928091493  0.6900178873863335  0.0874839169632475
  0.0261483369283035  0.9220978293073382  0.0416110189326336
  0.1104480919493944  0.8414453391257055  0.7998624429903398
  0.2936674129096774  1.0004279288155706  0.1664179384983479
  0.8911438930632732  0.7988755442474524  0.1190094220456264
  0.8590463460772768  0.8747260498902234  0.0538194964370937
  0.9397778440123088  0.7825461406145268  0.0830974513832154
  0.3902909587276488  0.5642520084203304  0.8009586936567986
  0.4129095718722076  0.5066265987979566  0.8182761697436284
  0.2298393442683293  0.9558439991659538  0.9885761541573739
  0.3627394927832243  0.5010336157085628  0.8579290726556479
  0.8851214993393760  0.1004984985114006  0.0493563570144189
  0.3732515758661437  0.2732708015106659  0.3363449954372974
  0.4415968359383139  0.4125880603628984  0.3604829090850792
  0.1994853441221957  0.9274601628385560  0.8700220282360103
  0.0866719692273461  0.1284533787146512  0.6506736079270878
  0.8901722378880841  0.1470535487981485  0.0961666154485722
  0.8494323170198937  0.9034663846194174  0.2438790031281682
  0.1924775106505185  0.7350748633325005  1.0143651314614086
  0.0866070896379657  0.7319000292004767  0.9780294432113070
  0.1035703414566344  0.3670319716102480  0.5125255230119939
  0.3911265879885460  0.5317018424554310  0.6964041922019626
  0.5177742544318621  0.7383704454572616  0.1190646409897088
  0.8170268751066208  0.9675800680931333  0.0143543987252548
  0.7820019005058839  0.1674612999696230  0.9900491685587496
  0.0336218847364758  0.0293945961275168  0.0675366015189155
  0.2057680485855044  0.3982014588561478  0.5978219428358109
  0.3574242392545962  0.6019834241285623  0.6148837355427372
  0.3378381487856877  0.9495858480107332  0.0210957089806949
  0.8616934099128128  0.9206832958185424  0.1035277448831137
  0.2877607527249129  0.3670267738708088  0.7415424098710834
  0.2508098814742266  0.9664132187899883  0.9352391168158208
  0.3313766672477261  0.8743317173882226  0.1011453378168719
  0.8372433869579354  0.7669007419763708  0.1060737914346208
  0.2675227292534359  0.9121830795993693  0.9551123177679894
  0.0452596181084264  0.1187170235452269  0.1600914577749581
  0.3693674419884780  0.5568143871326883  0.5750418801832287
  0.8847864380201441  0.7523505809077441  0.0723481640573228
  0.9725711399066821  0.0296702858276444  0.4724132163508287
  0.3267706431321916  0.3380407151221432  0.4153361488825150
  0.1391114926017102  0.3525511841182316  0.8613542410053581
  0.4380055906907077  0.5883242479661986  0.9649200864335232
  0.8201567869436189  0.4996890975713916  0.0095325238447025
  0.8705967444391811  0.4546746832563135  0.0935962377819890
  0.1508660515813887  0.3079231625903150  0.8171347110978554
  0.8261719873552239  0.6745917675085581  0.0112616558482176
  0.9569825589696147  0.3040486589347979  0.0697581648111631
  0.3723260621188000  0.9723439267718939  0.5788850897999148
  0.0228878887579787  0.1395888386040812  0.6202048238895247
  0.9063567457113506  0.3181273191285848  0.0999783819994995
  0.9014795196939428  0.2705872713853160  0.0657434370464083
  0.6276625968953905  0.8159081444972471  0.0784657777822989
  0.6766045186130146  0.7995541870756282  0.0450716878024866
  0.9416152968397855  0.1513391789033230  0.9933478099837657
  0.0500106026864739  0.2953838746775013  0.8939118206626362
  0.7070381028336962  0.7867535951965769  0.9469640934151031
  0.4002127743263652  0.9956226975679936  0.1989547188326116
  0.1406346431694804  0.5054176231982107  0.8917075474965409
  0.1268611567643442  0.3965725009736021  0.9079786256058021
  0.1057250603334555  0.4551231294618183  0.8893134781782595
  0.8219139070140106  0.5320965366480270  0.1113541862935057
  0.1339432976302646  0.0785825062391363  0.9114344823422748
  0.4253681808404847  0.5967040430343370  0.9025731752400079
 -0.0102352329419145  0.0281605272194004  0.9401599200322101
  0.2061731918854692  0.3303572571919158  0.9543310778962802
  0.8084882648962889  0.9375908960254545  0.1371774499413038
  0.2816821885656279  0.4350376068897906  0.9543383490892797
  0.9755659589974065  0.9807462504487152  0.1208755845490037
  0.0572626569564352  0.3208848351877869  0.5050152758163181
  0.5545037225583814  0.6690376564008479  0.7590514660012653
  0.7880747891821079  0.8417368313541239  0.1268962145685387
  0.5054944189492496  0.6637332599656773  0.7996490639902737
  0.8918847164538914  0.8184796053858687  0.0594128976554613
  0.0832017731078987  0.7799453921786763  0.8581420135147280
  0.0335122270113324  0.9103616011037398  0.6712053402678823
  0.4556125362000881  0.6252952643248620  0.7357090108058221
  0.1177366088350783  0.3072975089381524  0.5259212259146846
  0.2395750367875094  0.3288554462279012  0.6763200767886530