Cr N  Ni
 1.0000000000000000
    38.6909066207142374    0.0000000000000000    0.0000000000000000
     0.0000000000000000   38.6909066207142374    0.0000000000000000
     0.0000000000000000    0.0000000000000000   38.6909066207142374
 Cr  N   Ni 
 1596  50 3725
Direct
  0.9773795690594570  0.9374129936549688  0.9056365405136459
  0.6976445307352176  0.3636005424673510  0.9415778039078463
  0.6611519948477809  0.4664651082039963  0.9631156152682726
  0.3613797588518149  0.0848558296383653  0.5371082124567439
  0.4176270154553927  0.1235853075062781  0.6033821902712896
  0.3676487958759436  0.1174978543866143  0.6447299539346860
  0.4167496926677622  0.1550469264339302  0.7106198325774867
  0.5139451499167946  0.6277228653774406  0.3197018133346745
  0.4120661578537754  0.6733319608985542  0.3295261870171193
  0.5275019007248510  0.1869625184675347  0.7985506959432064
  0.3014352333497942  0.7410800960158822  0.7189457729845888
  0.4601421341196540  0.2944631188262011  0.5342697397705224
  0.8601028540960057  0.9289084129128282  0.6056604317553039
  0.8115205770884855  0.8447808946515037  0.5854760448723790
  0.6402462862913754  0.5906284835093011  0.6030780990812968
  0.6680069106918576  0.6345012542825189  0.6386047596360287
  0.6187661256643974  0.6045638382458858  0.4774045877993037
  0.6559304145695080  0.6805073965629622  0.6807901251694226
  0.6654594932155453  0.6680256522517635  0.7416393099032389
  0.3083036806187823  0.7238551721029763  0.1114136992091693
  0.5596662250763891  0.0460694258434372  0.9494808646281805
  0.1902835918762494  0.5547992572369249  0.4630796455202221
  0.5320280841058344  0.0230907525350676  0.8304201213768080
  0.4001624477563157  0.5149253094073207  0.0362430882778328
  0.5103299247031273  0.8171807554617354  0.8289676500129014
  0.6486291652481568  0.9093050554477661  0.8525489703599749
  0.2869150875704888  0.6995399634810678  0.9418611991625971
  0.4497017160047118  0.8231539487409885  0.8093702941209809
  0.3011569894096123  0.8062797373255030  0.9397017420787074
  0.3993258478942072  0.7847770149190043  0.7433071965448245
  0.4965296490656431  0.8294284664934389  0.7684523981117035
  0.7911786897872497  0.8115704394079152  0.2482894626438193
  0.3401932806944406  0.7774983720213300  1.0027217325515307
  0.3047187883200409  0.6727247799888112  0.5146163386637034
  0.3289089070122734  0.9025108398352685  0.9785816694338991
  0.0402555529132618  0.5630033934323951  0.6287679260736762
  0.4025539512008802  0.7191637293452376  0.5368699581791986
  0.4141695211785498  0.7079819278440062  0.5943914344258270
  0.0545170861069639  0.6517217297943722  0.7068983152982650
  0.0507683225689566  0.5504800756777258  0.6901513133519903
  0.0383576750381570  0.5970659498960663  0.7312434315678823
  0.2518245789007053  0.7696183415681274  0.8637689737689365
  0.1805339001792365  0.7889761006481989  0.7800451602175674
  0.8880830513195744  0.6543175031014709  0.4369970918066794
  0.5885331657988053  0.8459007622752843  0.9605205846010899
  0.3816415133543419  0.9455089959298377  0.9857398922989212
  0.5793054282843104  0.9609624394945510  0.8790369926932448
  0.7420661421496593  0.7678130303479120  0.7433259361445588
  0.0127111463552426  0.9319350574712443  0.2864156412103786
  0.8826453387261981  0.0887790806713488  0.1116975231640294
  0.3007846680151488  0.0705311962101437  0.9146170696535196
  0.2430078378903182  0.0453513923195473  0.7865711443418348
  0.8292599529940226  0.0741768756772359  0.0393140974453202
  0.2337996964770490  0.9536422825653187  0.2211535583612444
  0.3886402800070871  0.1254401758672742  0.8734896485928199
  0.5217541309052733  0.1488340420231191  0.3122564769287826
  0.2295895273237838  0.9103454585788784  0.1801656070028497
  0.3207618161835706  0.8790614984735855  0.1885313692545193
  0.2698576050644211  0.8906498452048204  0.2226868230392997
  0.3154587935946931  0.8330430245698638  0.1413604279139472
  0.2307822610683846  0.0576948001996748  0.7219689156558943
  0.3012007067304706  0.0391769205443170  0.8088334448946062
  0.3662432667631293  0.8015090619150387  0.1667572917967798
  0.5344447731405185  0.3682006513539535  1.0004803852286621
  0.4769920704840544  0.2426355881912484  0.0405860970045259
  0.4694577519966412  0.2160725024650210  0.9377769276208396
  0.5718066843642091  0.1348591463163672  0.2774109832389678
  0.7302110597246154  0.2561772386258795  0.0036744780840478
  0.4300919484503607  0.1803689733251497  0.8801394278623446
  0.0669256622877570  0.3354739130037682  0.2081426123722890
  0.4661268815781644  0.2288198563422363  0.8809549652989582
  0.7813497048707998  0.1339208653321638  0.1197481675283932
  0.4097171299093993  0.3209972766081041  0.6808436481083495
  0.0798150707690355  0.0380286163754690  0.4440642359948421
  0.7014587589098663  0.9626811931152515  0.5196497878635533
  0.7658229302475573  0.0013332550155436  0.2223860080929253
  0.4015583565189397  0.0464413647975886  0.0104746793490376
  0.0480575181062599  0.2121812902611796  0.0192468726982114
  0.9209462967597123  0.2409344193849538  0.9160888536925127
  0.2643318445043444  0.8033199058891501  0.0637786924112446
  0.5185954323075290  0.6887992681344323  0.3034617091802375
  0.4457622642340087  0.1576384034483996  0.9510590829677196
  0.6161985304810720  0.2447326816590669  0.9899582511632592
  0.5539624022046638  0.3251204787870652  0.0230948814310917
  0.2785383118574661  0.9512111412775488  0.4381349629327386
  0.2581422172144158  0.0183542716304886  0.6481614934607192
  0.0631080000425975  0.3899974359138177  0.4818325046272494
  0.0155956766475148  0.4184737850074516  0.4551069453321173
  0.0290225777989691  0.4741459972903931  0.4276480606289506
  0.0396079212082702  0.4566577509456992  0.4885006634153573
  0.8095404913800723  0.9520399267829120  0.6172230573736674
  0.1614136646483710  0.2323745828712143  0.4462488838216507
  0.6696770626307934  0.0534205189379709  0.1637267110125346
  0.7194690333707265  0.9404099848602935  0.6462857495790737
  0.7325998305621025  0.1641439079889464  0.0912408380187722
  0.7550918603461466  0.9168645344088509  0.6078945954956447
  0.3597468656787454  0.0608142506728226  0.9363420844912088
  0.7837299870944043  0.4890534185621683  0.5611516312907218
  0.6103307786537036  0.3746918881558075  0.6248444332475646
  0.8365888573488534  0.7348633874030844  0.2297620230848951
  0.0241171905297079  0.9576782797365437  0.7207534777311776
  0.8792215832171757  0.5352700032072580  0.0190745500836628
  0.0677575735642138  0.0504982608030448  0.7767545457260832
  0.9074750718202941  0.9153261835641564  0.5515196143654603
  0.9128899765182228  0.9458534647134409  0.4220192452716155
  0.0542697911383108  0.8016815568975976  0.4545028717924665
  0.1849247849888918  0.9246397881462706  0.5506765677444861
  0.1841580345886880  0.2373643130528151  0.8942158888857686
  0.8042823484562187  0.3496468406021299  0.1676284424897695
  0.8653835625909126  0.4260505287929670  0.2180479128762301
  0.0953180685961636  0.8722858529061081  0.5794916563743766
  0.8609387017970308  0.3798208786821739  0.1750433294526644
  0.0364314904165275  0.1572245480740518  0.8005499409027478
  0.1522485686752356  0.8680569617886397  0.5503049865841900
  0.9130341784542726  0.3973124009616240  0.2457845616039306
  0.8423618226610013  0.2435315610954103  0.2781293758549072
  0.1081302617351302  0.1029450705712445  0.7786942819998142
  0.7217623297003759  0.7860019745357943  0.0083869215942563
  0.1611853960773250  0.9826465552317585  0.5290858985494425
  0.9494986019563667  0.2256966003606696  0.1499754236079554
  0.6108766312610644  0.9979495144058176  0.0403346062941118
  0.9470744480180850  0.2118402496664085  0.2099957344935575
  0.3492624982737330  0.5507342396791850  0.4556178326625637
  0.8759032631943592  0.4398052336638693  0.7612889624297237
  0.0531929233760477  0.2298515085187089  0.6845277814942723
  0.7223548659819456  0.5968372620212077  0.2855772409150603
  0.1459187335971601  0.1485896893523450  0.7881609280208584
  0.0879171237000034  0.9317891343570086  0.8916850609523758
  0.0240361342225018  0.9240707417388023  0.6063275950879552
  0.1080424950571976  0.7777579334124544  0.5943331776406344
  0.1102421043202902  0.8096923306688768  0.6981500913324290
 -0.0010508084401717  0.8229499431358662  0.6483113403885112
  0.2952978540577162  0.3882670800898825  0.9114699896683870
  0.2711685166735018  0.3253681165899450  0.9710471154975373
  0.0521547185708373  0.8155261302623711  0.5800264473715400
  0.2479990535903077  0.3496152991394045  0.8448453132600487
  0.2334430486736935  0.2427083214399317  0.8543655844703226
  0.8393525761302175  0.7410283182911404  0.0058005296308149
  0.4306356771550083  0.9212122684219638  0.2678603314118278
  0.1979235735482527  0.1558695293758320  0.7451857144395210
  0.2232760530112168  0.2548542506896789  0.7936234749076627
  0.4761313278911871  0.8444130232909476  0.2459712626390965
  0.1228141244894855  0.2128119631142302  0.7677405068213585
  0.4418883962217374  0.4116811541055637  0.3608902796061329
  0.3734669467824148  0.2726963455636384  0.3362050438984771
  0.3278443726254129  0.3378039577382071  0.4157640618596687
  0.9725125330164516  0.0237548589499074  0.4722119209151631
  0.0527715883068700  0.7950596898028859  0.2865008389636606
  0.3759846402124075  0.2735987128573802  0.1070028049434466
  0.9814694132706048  0.3178338733141587  0.8144310498752453
  0.8285863316528412  0.0862449605791890  0.6926456707682214
  0.8673767412210578  0.1351427108940559  0.6955472044434285
  0.8777063783383653  0.1229306154380162  0.7562119235488438
  0.0260413061926509  0.1693736714352833  0.7394384687223448
  0.9668215946540021  0.2101083709883576  0.8241698098017415
  0.0439859078139531  0.7356744960883087  0.0760290204701585
  0.7243618473640442  0.1090952577652345  0.3457445151571242
  0.8197364133397953  0.0486781189044314  0.4033531885977180
  0.9080700834264108  0.6247198300460403  0.6264590952711043
  0.8642544548465949  0.6896052017205052  0.5800680662056004
  0.6800210315901999  0.1847308609695964  0.3592601380203545
  0.9214015071020285  0.7136021969986516  0.7064481912027246
  0.6331575847240765  0.2619578673882623  0.3733916605415498
  0.5905432941521397  0.3833978581707561  0.4282850047658228
  0.6025877886865181  0.4414549556881389  0.4052696716190228
  0.7918128199891576  0.6211380978637343  0.6800047604867853
  0.8244159348222133  0.6704878708103960  0.6790322608973031
  0.5064646233004747  0.5366872621115171  0.4581790575076627
  0.5077505079928866  0.5505278743442252  0.3977318268626563
  0.4598293985364006  0.6258847713808149  0.4157546359543046
  0.4785049216973433  0.6599748278846532  0.5132778373865745
  0.9560819714714530  0.6747084432235512  0.8901731723537712
  0.9930095652324891  0.7248295129269055  0.8927700007246510
  0.2414801169150510  0.5388360687962196  0.9737256088912054
  0.8247352174130166  0.0966376312151795  0.9129414801808959
  0.7604705224610714  0.0576962534041578  0.9031447407413017
  0.7741700548054101  0.0569044623078307  0.9645651986378811
  0.5343548328293463  0.2875035132386400  0.2117555328044398
  0.9553767793569697  0.7113368197228537  0.4987706118023782
  0.4381638399749335  0.3500685380862671  0.1556537330574110
  0.8005568779334684  0.0250170543074385  0.7513159801616773
  0.5707373892428180  0.1183115573434183  0.1072194890447960
  0.8458986882219536  0.1931655026112701  0.6792747988190896
  0.4664819661196438  0.1367077804750870  0.0101163595941202
  0.9052267820974720  0.2177967786094808  0.8055227256303306
  0.9530406742045430  0.4773034911520476  0.5592428835654329
  0.4870211056863105  0.2864908134798338  0.0849717618029382
  0.1410830008102396  0.5652549321026152  0.0990613737948576
  0.1905007006352885  0.4867812565274746  0.0811688894619150
  0.8688423571188727  0.0572392582350218  0.5437412727569030
  0.8736556639672619  0.1198819342106680  0.5248484169298556
  0.7239049250975842  0.1417203884799730  0.4523550218751521
  0.6704939200945947  0.1618730246151164  0.4916200267440723
  0.9439123546351121  0.2357781622622469  0.7035343209300499
  0.2457392873400957  0.3612040579356482  0.0122325372859997
  0.1338602858332304  0.4083065092917941  0.0242740392705718
  0.7518307646529070 -0.0189585745552238  0.5913167713740415
  0.9421383231047926  0.5215022571876696  0.6027135306110487
  0.3899361677486025  0.4117149416200929  0.2325823613080219
  0.9730909046953580  0.5855850016029315  0.5459919744393154
  0.9903565140235738  0.6896914191373683  0.1257579439252149
  0.7867417614110672  0.2329295799596368  0.4368824934032137
  0.8150874616420871  0.4476809238187366  0.7403232920138214
  0.7838395844461513  0.1868859500810303  0.3954256478793736
  0.7285809195792622  0.3604400880222189  0.6700956982302743
  0.6688240359627217  0.3657483647131327  0.6483791770804254
  0.7364445774335372  0.3341059024581918  0.5640220253854286
  0.6806801831817535  0.3200854284079025  0.6046771957775088
  0.9817877078229067  0.6050318942885523  0.9723910370870082
  0.9184702364798475  0.9929804660863586  0.4660555374258013
  0.9483513163021784  0.5729893073661282  0.8711268992500345
  0.3254005350589524  0.8574250137559378  0.4807236586727791
  0.9006658421018319  0.5357762699060059  0.8055449120105744
  0.2686499374621850  0.8202470636847958  0.4794815928564685
  0.3613218829562006  0.7050445015170408  0.3037667857265023
  0.8743417372224830  0.4708474638633427  0.8662350651379808
  0.6124178289079319  0.2086391468349559  0.6596255486456417
  0.2650366887761945  0.7966232662217043  0.3619977730862177
  0.6391571126843805  0.1556062421698946  0.6664508116212293
  0.6287698901763379  0.1629803323957867  0.5971016807475722
  0.1544944584342471  0.7346121310240420  0.3405172913468770
  0.7467784248859975  0.2321931056633244  0.5387672854293524
  0.9848356675957269  0.4375170268943823  0.7411091791866642
  0.6912430943782950  0.3413431867182242  0.4240079432312442
  0.2721264969127707  0.8932825338993747  0.4570600592376463
  0.8643291719933540  0.5160401292747261  0.9110296432205942
  0.9717798837540060  0.6878178861755067  0.5618025514230269
  0.2360284786616848  0.9733941053145061  0.5470724314788106
  0.2648597361707195  0.8421646211824393  0.4071042793106201
  0.7939161543255391  0.6732609453054832  0.5077417398669294
  0.8419821461994685  0.5110336556891814  0.6840589097696637
  0.9284332235342857  0.5982649102610723  0.7489526990151189
  0.8491756045384277  0.8335829119292144  0.4946068708714230
  0.8428068722493595  0.5432648990950748  0.7871686750110350
  0.8942154251758921  0.2289338478859983  0.4736638655819518
  0.7489052362351574  0.3350322321143609  0.7944069958341841
  0.7008881578958515  0.2974632809803049  0.7308792992132264
  0.6407693954419706  0.3053050257671499  0.7076924280540380
  0.8684665730155839  0.1869665226489181  0.5178824579175446
  0.5799145505902035  0.2795889619922993  0.5801598677643077
  0.8706385764122527  0.0714246140618335  0.4809896147801960
  0.6407600109940350  0.2693820824311831  0.6015483480087058
  0.5396803027059595  0.2232147889474035  0.5815046726201857
  0.5480610380439983  0.5046147110056382  0.4789665193255646
  0.9227500740290567  0.6095347077262517  0.9505872599764085
  0.6611006197246639  0.4538367507011937  0.4752149449911978
  0.9195893253293914  0.5079045421794548  0.9268736565668141
  0.2426981639306709  0.4685496349631865  0.0491997510395465
  0.8718271842224151 -0.0442885221928677  0.9788685560076104
  0.3053707928327882  0.6586217058907092  0.3554685827448162
  0.3688799546747246  0.2354620020922809  0.0622201152774684
  0.7126095380761370  0.0048127987887771  0.8978456828851826
  0.4067751713690237  0.5962480324994814  0.4066678783233426
  0.4545193043953568  0.5347886877707576  0.3274179581021047
  0.6749286065409303  0.1109804395403517  0.9187798828169719
  0.6961242500552985  0.0581718985294257  0.8830776490712413
  0.6214019641307343  0.0791685812779368  0.7928664538207015
  0.5485137114802311  0.4280236157503642  0.3365635895322273
  0.5706893065820188  0.0422244483467817  0.7264267751917081
  0.7905333676817379  0.2489069005063243  0.9277780669133666
  0.9945970058123640  0.1375571560400084  0.8999878576632003
  0.9007604984323460  0.0964068640355050  0.8814713077445865
  0.7475573442174662  0.2138713435050782  0.8712618140987409
  0.7468472408469449  0.1827176036508497  0.7613546381236506
  0.7201557453293576  0.1215581679991461  0.8180839153405755
  0.6489322902667078  0.1424151870785401  0.7326510545532825
  0.6987877424442075  0.1469955240902794  0.6904661110685637
  0.6777414483115589  0.1508009324907123  0.2525387037744316
  0.6023484020158268  0.0550505913903971  0.5646512406462952
  0.4756878400904944  0.0156077807434108  0.5996361143035314
  0.4376864184304644 -0.0377297301524363  0.5434730040984331
  0.9902737113641555  0.1417624991058570  0.9616147314651863
  0.8791207574352440  0.0150446792533075  0.9571378760115444
  0.3589991715217829  0.6719492014233197  0.4262681183921546
 -0.0027442690329156  0.7950234735266083  0.1561847000774262
  0.9494217547261179  0.1013627904165823  0.8397807086736199
  0.9091563966509295  0.0541757517786730  0.8393476665927816
  0.4155975872904206  0.1555862834203872  0.0405673623076464
  0.4115989264908073  0.1091404085205878 -0.0006399319872232
  0.4711323539369761  0.0592841901649187  0.9150306309576718
  0.0053819911117133  0.8743857735170543  0.0778588059672637
  0.7716999632464020  0.2145717459456394  0.6001033072555803
  0.4727558263403519  0.1949195621738766  0.2218882273678424
  0.9354610782097436  0.4320263321328851  0.7813606465218522
  0.5105164930178490  0.0429388350469278  0.0491051537174091
  0.5148977313164821  0.0877113333403050  0.0966516855165495
  0.6726358278460606  0.1602118650233954  0.5584112680497465
  1.0060962933235447  0.4131411806637246  0.8634011281473976
  0.9575762719044649  0.3744795641795875  0.7977401345672945
  0.9971300099158418  0.3931355556305394  0.6961481112576231
  0.0071462884494738  0.3805238580632364  0.7559262392225026
  0.9095327999455444  0.3369964462540436  0.7324397581263088
  0.5618250651575888  0.0121077841387405  0.0751951048559994
  0.8828447945071026  0.2428373185334881  0.6836608335391716
  0.8607544772726017  0.3010896518677342  0.6680592464196885
  0.8509118329586369  0.3140591900258864  0.6083070083223475
  0.8196339691419677  0.2168775595666662  0.5559252107891279
  0.8763302886228637  0.5446544176870050  0.5230755151336618
  0.7672884407834619  0.0322740856417422  0.3321830152610611
  0.5193397745203621  0.7555133011381463  0.0599902647554908
  0.2882163162055950  0.9498957687413830  0.7278390726432074
  0.2956374061459899  0.6223871652306349  0.7946141815187354
  0.4404984053740905  0.8901719536561822  0.0714211518126291
  0.2800539710280207  0.5653169071559563  0.8177945007550014
  0.4465569132445679  0.9549149864588806  0.0548923098424558
  0.0761530605370378  0.6917088188233523  0.5436256671011486
  0.0929817835983449  0.6708095453711437  0.6041880020251499
  0.7972224366659918  0.7365193676912445  0.5019720772925393
  0.4391785882020988  0.8486840914066809  0.0189789101807306
  0.3285765180608136  0.8697939824230183  0.8726692911564443
  0.1616196028236271  0.5119684237561369  0.5688248848864597
  0.7466702356975341  0.8853098714377927  0.5014721148359250
  0.1868832753088165  0.6113449792738773  0.6100072396889250
  0.3090938289546852  0.5954256543068036  0.6555714067368716
  0.9817717137532024  0.4845318982657028  0.4628777450869032
  0.2600130466706563  0.5899609489032650  0.6942335015121763
  0.7813204314018979  0.7198244915416965  0.1570357795097670
  0.0651596187935585  0.6393668089816597  0.7674496145973065
  0.9310193751840067  0.5777586664760260  0.4220060287728549
  0.3348230692466013  0.6716898528928391  0.7971575480267573
  0.3460070228839486  0.6600979834931547  0.8580622858759008
  0.2314139618916083  0.5272483972200074  0.7526099490428123
  0.8319203441655360  0.6406736831363649  0.3663995468992081
  0.2195007392932404  0.8068852200196448  0.6786726234269020
  0.3481249774654984  0.5349459093263803  0.2921304671220650
  0.8802552050623588  0.6453810702769018  0.0417656257111414
  0.3755549730046959  0.7561156548836272  0.9049723102770896
  0.9320318715951053  0.5971723089133432  0.1292205110116360
  0.0820523577805887  0.7158261353403964  0.6490047802473772
  0.0718498710382932  0.7288328726375050  0.5913550658365583
  0.7931464912803982  0.8054784923953108  0.4830844185591997
  0.3552982145925149  0.6150767711671329  0.8161173419597163
  0.7337441540387999  0.7665039285791843  0.2987453538742013
  0.9437825293175935  0.1646698113069178  0.1662163310804885
  0.5069568835060292  0.9804219161634410  0.7948884306254814
  0.0222730156010371  0.7234002537147683  0.6285527657944109
  0.5575938835802852  0.0853393093991842  0.5412663995108943
  1.0043158441575175  0.4419821953625950  0.9705075276305645
  0.7629322395937589  0.9377544244797374  0.0065393824779934
  0.5863530572574808  0.3035777064363089  0.2812583780181100
  0.6854346380249025  0.2237164592935195  0.8471788526111360
  0.6679229172034471  0.0444196848333689  0.9879119333040836
  0.9169291525568051  0.3550095414399498  0.9022087729398159
  0.7465332360308485  0.3680927347298645  0.9003900986614363
  0.3523084707704341  0.5968784335491655  0.2759376777220533
  0.8861336830156569  0.4268768415033963  0.8229739439079800
  0.8091711421460164  0.3279972115443257  0.8146875620495615
  0.4698437400726731  0.8343488988421510  0.0781521369313180
  0.3523310026514869  0.5809166952268499  0.3349999927840515
  0.9486407481251866  0.3550462648379855  0.6318875556671771
  0.0111384956711037  0.3105969036398928  0.5532505014266067
  0.8446414978107043  0.3259244134267559  0.5451152859234962
  0.8479249552862799  0.2500859913788668  0.5058486116770525
  0.5693795996187784  0.1033110967653715  0.1693434140490283
  0.5143204328064293  0.8488465538747751  0.9340480937009205
  0.5471182293497202  0.0043664635989402  0.3917287422065893
  0.4431263040124098  0.9119603961584493  0.0149774994248597
  0.4984457007820650  0.9382588642833576  0.0211810940824744
  0.7855027736901502  0.7179404781774635  0.3860899223072477
  0.7408610791775817  0.7796447511597641  0.4671007412784157
  0.7882869072230254  0.8260711726204736  0.1876300433639475
  0.3378210438546335  1.0058652114391413  0.9996099729524830
  0.8045068370416932  0.9300282162126292  0.4469341507259421
  0.3330266785893491  0.8904479531402500  0.0400197079198289
  0.3581883864309845  0.9631321299612267  0.9209144906340496
  0.3683187452698360  0.9181953286102015  0.8749932522774277
  0.9744328314862418  0.4075933942871690  0.0856481417911538
  0.3083157966211143  0.9262044760176159  0.8540858681698940
  0.1336646932122400  0.4495182746786630  0.6220153308094302
  0.6215817560954033  0.6629175765498075  0.0067841410494476
  0.5146446852715871  0.7704504741800740  0.0017363587872592
  0.1481384571317352  0.6743027891133003  0.1246622528501874
  0.8702890652805139  0.3188102497375486  0.8324404323789071
  0.8110566439301763  0.2958731861822491  0.7092870072079775
  0.6592522319709265  0.3774381360215984  0.5827361181730273
  0.3444123149532091  0.4891243826247330  0.2491307845462367
  0.7008053163309086  0.2630361175848064  0.6242685341290900
  0.7244731309813919  0.2069166412082744  0.6411838236230543
  0.6594925026515449  0.2102369057817317  0.6211803425804051
  0.6460219928065956  0.2226873013164693  0.5620122655852053
  0.6908648821080459  0.1587030246704773  0.6232118869713503
  0.4437891328276897  0.4279530027320642  0.3022315997759215
  0.5316616368314160  0.2729242106636650  0.2732685896952334
  0.0547870731601989  0.4459222805997475  0.9320123653670611
  0.9333743376251842  0.4636865192423680  0.8853415540489119
  0.9839388549510076  0.4701282776866102  0.8464619664873683
  0.4831315699808820  0.3039406551481817  0.2459596804416568
  0.7363272405233759  0.1952603720520551  0.7006362583792493
  0.2078953543037828  0.7660169994575173  0.3510642367204146
  0.6310754469233034  0.3429776082621129  0.5206299868547613
  0.6166053903645798  0.1215406861474764  0.5458949988202096
  0.7379891793180852  0.2636103291260250  0.4098726254129000
  0.7457083162215693  0.1603300527776261  0.5777821227133523
  0.4820131478085798  0.3727581725418675  0.4597576664957532
  0.7934581771122216  0.5056412150238486  0.7232564154293628
  0.7446410064733884  0.4682725611371362  0.6594504302803009
  0.6468972778392751  0.4238998747015879  0.6332685500684584
  0.0709452897797069  0.5247422167380027  0.8099791772923353
  0.1476228065808605  0.0925400265469410  0.3233745070912445
  0.8963484036958467  0.8116973645217506  0.2860918412614643
  0.3345592203953593  0.6396260022639685  0.6919215208427554
  0.1046501761317210  0.1973785713107874  0.2131898381549027
  0.4170661876410415  0.7868899179101760  0.1305199314727513
  0.1078714437597919  0.8750634267530966  0.9095114287135276
  0.3655896324619742  0.8194041085602087  0.1070050086763655
  0.9473488055790379  0.8292053855426536  0.1310531413521444
  0.8438583917398965  0.2258146907570042  0.1108717243115875
  0.3178478044979372  0.4819666535076337  0.9599319208804413
  0.9880252343284400  0.6435451287447205  0.0786359286478528
  0.8839581572372632  0.6908164192155204  0.0871027762727927
  0.0245068886618474  0.9224938313380739  0.0465609037112663
  0.0493484528802245  0.8486342575880862  0.7809890746319367
  0.2959597231909167  1.0002322946985902  0.1685104625207871
  0.8927820945937943  0.7991055096447417  0.1195811710697116
  0.8617665672835302  0.8739685705178987  0.0519867105718119
  0.9418541211732898  0.7829817160492459  0.0848248280806893
  0.3528450074991096  0.5132172704406409  0.7970784198517378
  0.4126428508312207  0.5070303407181015  0.8181001454926000
  0.2299300331639015  0.9568288428907402  0.9885952394029000
  0.3245246218412596  0.4506306514510870  0.8540199803771422
  0.8848125919672609  0.1030770397432205  0.0493839250203507
  0.7930249687373866  0.8230007937521725  0.4212400104034996
  0.7263095148530376  0.6254497214599394  0.3900576785802840
  0.1975075333050636  0.9282844739334799  0.8720420941323735
  0.0866922072038711  0.1278429035814098  0.6544715879365106
  0.8887852209714998  0.1487928298758239  0.0956798232311376
  0.8507742321476368  0.9039148287299568  0.2437866946806468
  0.1878941988246388  0.7283074249727620  1.0153167115607928
  0.0627937352929874  0.7085200150784982  0.9747943350138328
  0.1047034693269888  0.3662744172381579  0.5120294755958656
  0.4016307852861264  0.5182192130277509  0.7584080510228837
  0.5189375591285237  0.7382359293705347  0.1198225942751913
  0.8186004696793112  0.9680830745921237  0.0143523322309461
  0.7823160740119375  0.1651224333667801  0.9938676749887633
  0.0332594415945704  0.0314784251358381  0.0686694770265094
  0.1695695569479636  0.3467646701138471  0.5939256115588690
  0.3479879990675201  0.6147799734739063  0.5525266090996275
  0.3361938396116521  0.9512476327500917  0.0223090285805593
  0.8636127143766068  0.9210663525669862  0.1032363895577481
  0.2877972778845915  0.3667558613319996  0.7424158391884963
  0.2484161559820405  0.9670164955241395  0.9362371178319930
  0.3336389218410129  0.8762482458661554  0.1012627136354685
  0.8386621861364627  0.7679524053510594  0.1059792781006192
  0.2649411541676672  0.9116738337213212  0.9544351200701954
  0.0442846236125034  0.1219628514051404  0.1599913562295640
  0.3925456121782498  0.4978914575398464  0.5922934163171738
  0.8856255214035004  0.7524382416742961  0.0722513898962238
  0.9472181418055911  0.2811972339676347  0.9721602353992129
  0.6495836901381873  0.9775980022994650  0.3190881084933748
  0.4251223824832312  0.5965375419588035  0.9019130293574741
  0.1388995123573016  0.3522798164986155  0.8613155488662613
  0.8233815843985375  0.5009629395057885  0.0102959895794280
  0.8708422302729141  0.4552268047585451  0.0932035000066514
  0.1511584680518635  0.3071624014138878  0.8166958953183483
  0.8276233966840022  0.6753688830781979  0.0113485729719989
  0.9589176804973757  0.3037960016584691  0.0669745467882474
  0.3728317721948332  0.9722937261830629  0.5802591508963859
  0.9677340118598052  0.1474362520850419  0.6129332639870245
  0.9084279785143168  0.3190336498460800  0.0983580019865284
  0.9008125303371838  0.2731393846296451  0.0638188436707808
  0.6284734704067982  0.8162028120866019  0.0785162055732607
  0.6779058889887463  0.8001503921945767  0.0453012198620628
  0.9395540110953765  0.1509147466621941  0.9957881127593446
  0.0506129736761195  0.2956832233383224  0.8925984144196459
  0.7078521228815945  0.7866899150374401  0.9467432279147299
  0.4074981453873471  0.0581208844949270  0.1830717413589787
  0.1398473225838133  0.5048063832912427  0.8921589450105925
  0.1632407564454504  0.4459767284901269  0.9116748738682967
  0.1053053863693991  0.4543309992591452  0.8901959517706444
  0.8221750610962115  0.5323348067768443  0.1112913465631651
  0.1293700955298350  0.0833742052047247  0.9102615729153158
 -0.0148890358127984  0.0237618739596160  0.9282256708940295
  0.8208118740223564  0.4850039509808142  0.0687720303531941
  0.2078489376287470  0.3303590297881859  0.9545932689628164
  0.8093133827120806  0.9375505634464537  0.1363407029535349
  0.2738990085351006  0.4450411933428265  0.8921215427752588
  0.0203580216470208  0.9634507914398636  0.1588819154189455
  0.0584586737873906  0.3205051669072638  0.5034557267840575
  0.5543963582372815  0.6685221805734918  0.7596012820411460
  0.7897245451757871  0.8420805582341756  0.1264930529019653
  0.5048767973052516  0.6635235987837208  0.8003102208591246
  0.8934204759908033  0.8167419955434650  0.0600271889802725
  0.0823852785932050  0.7797105077063737  0.8598220883694496
  0.0329975411496067  0.9094551388612265  0.6717520162922310
  0.4057368549390570  0.6205200805895869  0.7752047616675082
  0.1191492347913435  0.3077821264908515  0.5255620107380603
  0.2400926394644312  0.3285564974304765  0.6768524214917957