Cr N  Ni
 1.0000000000000000
    38.6909066207142374    0.0000000000000000    0.0000000000000000
     0.0000000000000000   38.6909066207142374    0.0000000000000000
     0.0000000000000000    0.0000000000000000   38.6909066207142374
 Cr  N   Ni 
 1596  50 3725
Direct
  0.9742330297166321  0.9336759756228100  0.9049760432264602
  0.6503802023444432  0.9765498338001499  0.3186059487387971
  0.7930629169313548  0.8236038429883139  0.4206928051567834
  0.7270142110377641  0.6258054293349360  0.3898159905100892
  0.3355391739239568  0.6399994763219965  0.6912590097756990
  0.0773447747685342  0.6145112272873572  0.6281495224056640
  0.7764995665277545  0.5924016357702079  0.4184711599980470
  0.9308423235835213  0.5809011223496340  0.1898310244113218
  0.9855453869877348  0.6120285688801611  0.2007919702314230
  0.8773208853314892  0.5476224803325876  0.4111127417553717
  0.1906854213603509  0.5568947996315079  0.4597644546757993
  0.8713527918209982  0.4865918643558137  0.4253530611567097
  0.9270638182275938  0.5339863510948253  0.3754115273740943
  0.5442980773730464  0.9295486738655564  0.9854359538124532
  0.9171143014630310  0.4272620395797757  0.3482395127132993
  0.4199556837769443  0.1804376546504617  0.3813515693810471
  0.5117417245944397  0.4848257933352098  0.6347720636085734
  0.5992488042993410  0.8737779494108672  0.7883572324848828
  0.6411736810230950  0.0216384002934289  0.8127261291142340
  0.9412928762593733  0.2143456335013400  0.9819570960813615
  0.9383097748471739  0.1712818112304890  0.9342080496794692
  0.3012813172421088  0.7414476877254921  0.7180900261961375
  0.3841641279213070  0.6771017363245581  0.7572945788513609
  0.4334262986264418  0.7151233597156680  0.8224831855916922
  0.5114101569685904  0.8161241423025684  0.8277606882368016
  0.6487529162395700  0.9090907470363884  0.8532528731279931
  0.2857308288520303  0.6991629049641509  0.9420259934646416
  0.4508639442385348  0.8224441421397276  0.8093552954788201
  0.3008726832659817  0.8059350410212273  0.9398078235654599
  0.4004324441230480  0.7840550937585858  0.7436529658932972
  0.4990705459584089  0.8277732066538700  0.7670128003136628
  0.7909408111419531  0.8114903361996663  0.2491988136395061
  0.3400107595260953  0.7784705923018447  1.0034192286088017
  0.3048967710663230  0.6749868137719627  0.5146042497605937
  0.3266903645020389  0.9025054777900402  0.9783331081907753
  0.0401223717218380  0.5634511451749575  0.6276140808454302
  0.4039325711476865  0.7203846323572711  0.5369962712276326
  0.4147543350256542  0.7082979428536704  0.5941650982288517
  0.0438113002154426  0.6659306163477490  0.6436897007533906
  0.0504805363090784  0.5507691681244412  0.6888083193822698
  0.0383187330604737  0.5964742116966403  0.7296470621626584
  0.2517027495345878  0.7695338206238425  0.8630009697765415
  0.1588176531037315  0.8458891894799091  0.7622512117285691
  0.8883047748652160  0.6542108704395783  0.4372754387998968
  0.5887341176685714  0.8445441608657075  0.9597459073647394
  0.3729485745214788  0.9469586371609469  0.9827368094317048
  0.6153352292440977  0.0414356112521452  0.0883807472950740
  0.7725522458269616  0.1929053038626340  0.9326034168432199
  0.0126295245627109  0.9311044664314455  0.2872895745941984
  0.7893883676667911  0.0678412283025578  0.7957987968369791
  0.3877890249687136  0.3349748637788014  0.0880233877276667
  0.8180317941050531 -0.0009476070141479  0.8786795717121887
  0.8481495715769649  0.3447916974935111  0.7117813666551546
  0.6322028789918449  0.2279700437523567  0.2671514296601047
  0.6231897921809160  0.1325599071275897  0.1804353451847061
  0.7693981468432852  0.2144021175873204  0.6009462253091670
  0.7237192308329048  0.0752471291785514  0.2401375964217926
  0.0341904098734397  0.6076116922125581  0.9307902378228371
  0.0669610578507309  0.9446169384848021  0.3577114892529570
  0.9631915761388667  0.4949175121262220  0.7253503469127799
  0.9139087791887816  0.4572399782725106  0.6587973527264501
  0.1627924825417541  0.8968342222874475  0.4221700705950430
  0.8762759383603187  0.4086542572085339  0.6545444766581986
  0.8162112016270200  0.4168584647061471  0.6349181567265771
  0.8667096461638352  0.4214726634064495  0.5936800407076275
  0.7693249849722988  0.3799369475997869  0.5636005230766513
  0.2616270818052873  0.7494985459643431  0.3148806734181916
  0.2514676289644500  0.6437041017682579  0.2868822532422233
  0.9300741463643042  0.5671427163200491  0.6444928208914167
  0.1973705685670906  0.6288437659460772  0.2140464979098995
  0.8572634443615883  0.4361957638060888  0.5361539969346452
  0.7613806242931269  0.0088119890005857  0.8578995367902863
  0.8399896681144986  0.7968844117643659  0.2147587556357499
  0.7502783398167875  0.0201839660644419  0.7930993583814875
  0.3255961008132019  0.2895302837635527  0.1441998198654770
  0.0530306778711453  0.8107808943165179  0.2246374926296861
  0.6788733129201346  0.0397827194406042  0.7091681444751392
  0.7634927158137825  0.9918919627056867  0.6502919961815501
  0.7053443368635188  0.0094176404253477  0.5603044691726085
  0.0991326538794342  0.7347567509111227  0.2052129176787927
  0.2025675489733640  0.6888124917915459  0.1982436970683174
  0.9919986458150797  0.2022601758769688  0.9449282732987331
  0.8582653168936740  0.2121365824417719  0.8479516760522986
  0.8228125171067635  0.2832574649454228  0.7722833977673982
  0.8061150668228404  0.1758622644829477  0.7822954325030157
  0.2461999475427059  0.5655859278763016  0.1379432865951245
  0.8818772027173004  0.2747763583624374  0.7910608658332903
  0.2447162133162161  0.5502222173457134  0.1960725072363041
  0.8073160693992778  0.1443668277215866  0.6765064929015158
  0.3445724772775280  0.4567054193164417  0.1446016117319116
  0.7599412815771328  0.1023540247107802  0.6085230206831688
  0.2342851803658202  0.3921004846244854  0.1236077796538964
  0.6649224611599279  0.1032807732042325  0.5143006922368577
  0.3387873605606960  0.3966802628172598  0.1641808437397704
  0.6005771608850389  0.0085903668181743  0.5251519164786375
  0.9649845343080928  0.3925728530274288  0.9696185612782554
  0.9902864826062100  0.3036029773584955  0.8744417421986931
  0.6314785912522047  0.3440108610544285  0.5196394050614929
  0.6151108057687118  0.1210227965159358  0.5469783456827952
  0.8359261355140858  0.7347897799116668  0.2294033514999771
  0.0075287611624493  0.9608028734941985  0.7317610250343922
  0.8792546396331814  0.5353859205075502  0.0185521556443404
  0.0689761773977302  0.0513035318784190  0.7757795608718450
  0.9069933052026909  0.9172260889731916  0.5521279334759222
  0.9078286825733076  0.9320056273057357  0.4857440978352707
  0.0529153798358801  0.7969132015847611  0.4607812981264736
  0.1856295966962316  0.9238866494173924  0.5512311750003518
  0.1838000543167481  0.2367211730409758  0.8950375672755564
  0.8047186984787116  0.3494727034495229  0.1673055905367952
  0.8654443018138123  0.4261778513811014  0.2171162084386652
  0.0964341866600479  0.8690274403732038  0.5883118403519499
  0.8614865755043444  0.3798322485119131  0.1750366978838256
  0.0757949929714325  0.2057241596352945  0.8062383259050490
  0.1479348251430808  0.8709647552475601  0.5521240407247482
  0.9144714061677163  0.3969107874978488  0.2444791569944595
  0.8429834475177040  0.2440004049403877  0.2780270324877953
  0.1080530309214513  0.1029217256512426  0.7794681643492987
  0.7211397189327738  0.7851585587435004  0.0082963768561545
  0.1667008849259390  0.9880352134514507  0.5281849995329816
  0.9496002973643093  0.2253390744214524  0.1500403680753650
  0.6058439302124153  0.9544323711962859 -0.0070412581080304
  0.9478618648539718  0.2121449632188997  0.2104819838120794
  0.6358653764063865  0.9533175980726015  0.9026940071187775
  0.7998311023688656  0.0249399561876966  0.7522957259383232
  0.0531904124250411  0.2293550226679655  0.6833447962987735
  0.7213798027812328  0.5962863216028639  0.2850895465784868
  0.1453038842830013  0.1487814409803651  0.7892764534608684
  0.0876710846355157  0.9294289268288654  0.8921985180874931
  0.0214632891802274  0.9356216499675543  0.5960801605205198
  0.1083925384359397  0.7820940640395375  0.5923423434563898
  0.1102725697048524  0.8101298588822752  0.6971314761411953
 -0.0038957856510651  0.8227923148242429  0.6509786586911942
  0.2951638100174014  0.3879270195895399  0.9112954244462109
  0.2717887184034287  0.3255722239369123  0.9718960433213406
  0.0534958029306775  0.8116982641947253  0.5835874271153793
  0.2479673534044982  0.3500334590204518  0.8448536339974557
  0.2331892055294714  0.2430079809613633  0.8545228661089553
  0.8389305584972411  0.7416300957571862  0.0055480296553727
  0.4308479180385674  0.9215705808165385  0.2678828339563981
  0.1979116931481685  0.1557414880699504  0.7465673319860583
  0.2229241132863248  0.2552204969660576  0.7939597083673708
  0.4767091608022139  0.8281272812735050  0.3093724687197364
  0.1222148750600139  0.2130384297863402  0.7679360675908856
  0.5219658689559161  0.7518736934210235  0.2883472794531132
  0.1355570531904415  0.1615619156273001  0.7225060047279074
  0.8284343754766992  0.7234832367775210  0.0585354214979450
  0.1984959416497739  0.8644265176718406  0.6611903934206539
  0.9669283493287457  0.6166245542683386  0.6472440432843372
  0.5701262322950423  0.1175994195272920  0.1075288256959522
  0.8450919421094045  0.1930230328490262  0.6795489900226220
  0.8641073197658221  0.6900478427508880  0.5792119944179370
  0.6800919684878344  0.1849787778134605  0.3588191253553162
  0.9217782458784336  0.7138954381036068  0.7060414740107834
  0.6335430517689874  0.2621241390739086  0.3731589158647330
  0.5908929004322391  0.3833650299136013  0.4281819571354389
  0.6027150646130520  0.4433287863208225  0.4055198244594203
  0.7907947782005813  0.6225065308736224  0.6783809726435535
  0.8243809054754884  0.6707494767084292  0.6780466623306858
  0.5090015348175008  0.5373240078046182  0.4570192132806747
  0.5088410130388975  0.5489879566455662  0.3967986410821794
  0.4607196628259043  0.6270847717512577  0.4164994906342370
  0.4805070772538326  0.6606331113317420  0.5133921074240249
  0.9558987030719479  0.6741621379755197  0.8896958184765739
  0.9925351573879395  0.7243936904791028  0.8917025572418016
  0.6101182477556800  0.3745147208377458  0.6244552010509907
  0.7840229462717480  0.4892217336163364  0.5612428570737167
  0.6463668146230271  0.4235530969102623  0.6322033174530632
  0.6581239124176169  0.3774654061169486  0.5804810227215857
  0.7444509538803907  0.4685947507251069  0.6594213523972386
  0.7715380445058684  0.5635302550026877  0.7045026154897581
  0.4819092124410942  0.3730062788963277  0.4597370977594034
  0.7438893975037008  0.1603575633502111  0.5771656823976063
  0.7386964013225666  0.2635041140926868  0.4102155279197404
  0.9077614574028785  0.6249412871472363  0.6251729720401963
  0.4684548754756783  0.1361604888454697  0.0116274683885945
  0.9157212921717489  0.1724668030366341  0.7599274504266498
  0.9537469990490376  0.4769478841415720  0.5584278852640837
  0.4875935860182923  0.2881230170253030  0.0839375962504664
  0.1414460957534031  0.5660099995385752  0.0987609724641686
  0.1912488151215788  0.4877727153977915  0.0779543190418474
  0.8152084851851177  0.0755483584371097  0.5752137600554833
  0.9035368594499552  0.1543107419196716  0.5855770334165089
  0.7239960981292519  0.1416755081773556  0.4518855491432331
  0.6266180615038625  0.1879791319604754  0.4560327532012842
  0.9437033074655041  0.2357429434972320  0.7031190248101542
  0.2455554963213314  0.3615166449911030  0.0124230480151047
  0.1342294943590789  0.4086958901105410  0.0242058388946554
  0.7539315566917839 -0.0154080466853155  0.5937837304855302
  0.2406568456295762  0.5370882240238040  0.9737537669028521
  0.8283372219800620  0.0868492502652080  0.6938309231645290
  0.8671297954936644  0.1352869374759711  0.6957527032406726
  0.8782953226352820  0.1237701731609140  0.7568499195741092
  0.0259778567263625  0.1689607339323385  0.7385609923718562
  0.9666328850798926  0.2094118482706631  0.8231793497070899
  0.0434490836933661  0.7366787176359503  0.0747521566297613
  0.7243790519124799  0.1092705107412253  0.3455752553043231
  0.8196152469513978  0.0492954525068965  0.4025982389180565
  0.9424910123790298  0.5218240538336198  0.6021931386080369
  0.3967122289100178  0.4738775948120363  0.2154233448966240
  0.9725935878482778  0.5851646488872866  0.5453091567867875
  0.9088865526672496  0.3370926076252495  0.7318489359893898
  0.7873418694705647  0.2320555432582316  0.4370694538378262
  0.8148121577769633  0.4473626783516442  0.7403733612731200
  0.7833055261773281  0.1859415898259259  0.3946443192644097
  0.7277774655988800  0.3607486332896640  0.6698783002343397
  0.6686435882405773  0.3660777453503623  0.6478892724705358
  0.7786245336952058  0.3664634383924439  0.6286242346671139
  0.6810710641158997  0.3203739589793440  0.6045305958292646
  0.9816833253415572  0.6047710605104463  0.9720923815621539
  0.9147951864671999  0.9928788900662521  0.4646364791526948
  0.9484819823619963  0.5726657271189589  0.8706072697677700
  0.3255680920381056  0.8572963885055143  0.4815414331727396
  0.9003151948112967  0.5356108085833492  0.8054247879998714
  0.2685452953435744  0.8199070021649930  0.4801190208645273
  0.3660095694610764  0.7678986737274757  0.2902558285009406
  0.8735481058203995  0.4708933846557608  0.8663148792774926
  0.6131766510413535  0.2104469958194727  0.6580387145224084
  0.2126014447805147  0.8310520362063150  0.3358200534442267
  0.6378813196391772  0.1558468988937477  0.6669740006004403
  0.6289026053526041  0.1643140495301683  0.6002675278468028
  0.1537695400807970  0.7349525195120759  0.3391883932176973
  0.9968005865909553  0.3923188163361696  0.6972782359819768
  0.0072045232920311  0.3798629836150646  0.7570554908216182
  0.6920056253659010  0.3407686701971182  0.4248192589160928
  0.9193038595351051  0.5079511543049011  0.9261273056398092
  0.2676567600443212  0.8921558204126041  0.4579111188382725
  0.9725871730142783  0.6877098007657740  0.5615339330044955
  0.2321011694449622  0.9729158800193171  0.5488760691740867
  0.2656663299409648  0.8431618427502242  0.4082543745857696
  0.8349103149313870  0.6093184056825363  0.4939631503213697
  0.8422088817065347  0.5113284900578674  0.6831969457519893
  0.9275203471453533  0.5988445291822371  0.7476979611165279
  0.8478545026154627  0.8351002276899928  0.4956014867436260
  0.8422129181031296  0.5431146900217804  0.7868881030956606
  0.8952178419015876  0.2270771383524102  0.4761377113755734
  0.7492700971683374  0.3358270525512993  0.7947263449295717
  0.7005230061367796  0.2975710138773913  0.7302129780463250
  0.6408345716258997  0.3053006263288582  0.7072797149624434
  0.8627234831612228  0.1825263329792931  0.5203952780879717
  0.5860058609250648  0.3080665963758991  0.5175454082954604
  0.8601655948731076  0.1228164820332605  0.5331389147523851
  0.6413770508702008  0.2707061465531036  0.6009303602957706
  0.5413127230691489  0.2252136936199818  0.5795112251547393
  0.5532794767882838  0.5068091816629138  0.4799575411716605
  0.9227200792687632  0.6091556640087005  0.9500300706113158
  0.6619303115133426  0.4532375866704427  0.4756332245841762
  0.8634868387333925  0.5158416052763319  0.9109229040747556
  0.9582953719581321  0.7037279989427326  0.4998988250594921
  0.5908433304906208  0.3185403526080722  0.2182812796305646
  0.3064535350748786  0.6590351696711175  0.3550312800425623
  0.3755784762481765  0.2744342830582158  0.1094832220303236
  0.7116790079284600  0.0042758424358065  0.8982755305413643
  0.4072157419258119  0.5967668495032340  0.4068446953506881
  0.4551822631778412  0.5355401331140339  0.3275643352476492
  0.6738690595794916  0.1118335902232384  0.9192746559385134
  0.6951031179140967  0.0586786352340729  0.8833532868411603
  0.6208601818008155  0.0784300396278585  0.7938850349811772
  0.5491754414411325  0.4280723498882392  0.3356670603070785
  0.5702647685620331  0.0407984961639203  0.7272758217247333
  0.7959851677647105  0.2533914785330666  0.9277424901026525
  0.9804163698984513  0.3168303441173610  0.8141755094176905
  0.8753160905081051  0.0750847433314838  0.9375787979001758
  0.7463346455982883  0.2138125599878367  0.8724298494055964
  0.7457240908146406  0.1828090797902287  0.7622669035170500
  0.7198320494440158  0.1212041007695437  0.8193882789491290
  0.6489921329099906  0.1420850876774311  0.7334819319749596
  0.6974800153033822  0.1469139661897619  0.6916882099861349
  0.6785968085427700  0.1506350707335500  0.2527597900110013
  0.6027060944601361  0.0547663006564172  0.5659625441122197
  0.4745181733429725  0.0161740920302271  0.5991947645156940
  0.4376861542214419 -0.0375796856456976  0.5464010518378634
  0.7585908972161645  0.0567623587845014  0.9025926957784274
  0.7735731814297596  0.0574126373608879  0.9640214785509642
  0.3597586803510783  0.6725510624721941  0.4257911742713322
  1.0058689272371559  0.4115162773093624  0.8638677504513650
  0.8752245137830175  0.4395341515362977  0.7609790001516789
  0.8756281560651691  0.5449688080344530  0.5229490295526255
  0.2419250485728852  0.4691181152403274  0.0470845321780014
  0.8713689243525192 -0.0430420691907136  0.9784600162427959
  0.8781796183297139  0.0148382967659451  0.9562213664202862
  0.9880039167071503  0.1404282147892568  0.9631567300253114
  0.9023027295293634  0.0969343878873464  0.8820392561467028
  0.9957657019943137  0.1428748715024042  0.9021611382103468
  0.3686828023246643  0.2332791753442244  0.0645851742927520
  0.9502512674039200  0.1010250823197319  0.8393488040318511
  0.9098494684318641  0.0535611261187808  0.8399493715411106
  0.4148178829948214  0.1549548845616542  0.0443824559545090
  0.4120893521297725  0.1112411363051076 -0.0009403988883787
  0.4245495502018982  0.0569901424331776  0.9593588804312162
  0.0058443216543125  0.8754707417044818  0.0754352138814113
  0.8170194639416503  0.2164257784621128  0.5575119574970377
  0.4726010746670669  0.1948279493719587  0.2217709598374265
  0.9127948948700556  0.4903683913137457  0.7631083104662024
  0.5091598018283766  0.0409239592373695  0.0489037875396228
  0.5142066898443743  0.0873726713298511  0.0983254993099194
  0.6887607326511826  0.2106138943867734  0.5230560782091261
  0.9575855190384061  0.3740441659080708  0.7980732743310779
  0.4395049418395358  0.3507791697071382  0.1568851247032005
  0.7674424786711884  0.0330641448161913  0.3325728194915863
  0.8038867851127723  0.9313702744416769  0.4480048185479790
  0.3675982110869118  0.9175770043402192  0.8749503075546362
  0.9129420702174443  0.3646149475781711  0.1406615806378821
  0.3072980106925286  0.9260695693980017  0.8541890682255464
  0.1341261310114414  0.4497225196926816  0.6213605834241227
  0.6220059296149123  0.6618267691702935  0.0067291412173945
  0.4846759550911601  0.7526032652310830  0.8870720203935711
  0.5187689836841942  0.7553168456742541  0.0605609783308793
  0.4702425776026107  0.8355737089666163  0.0781659775821325
  0.2312106731249299  0.5269872680195566  0.7519377852917061
  0.2879779071629026  0.9494010975537225  0.7287270649528006
  0.2959103678324107  0.6220963733673411  0.7935001859078673
  0.4409218437678090  0.8918186376584372  0.0662330869379351
  0.2798846506009673  0.5655200619335570  0.8176547636008021
  0.4467380890264712  0.9540597058751367  0.0564942397528193
  0.0764011345780781  0.6946085070774755  0.5436020114951720
  0.0324320527057944  0.6797174771875931  0.5833472982597249
  0.7983274183793677  0.7393143801610245  0.5013323031072016
  0.4399857499145407  0.8570896797403980  0.0131798003976584
  0.3281205748579362  0.8694605273479030  0.8726502189521346
  0.1489984069949504  0.5259519421173589  0.5050954330655366
  0.7466572426379243  0.8869556323466729  0.5016264015894608
  0.3565905440725528  0.9624670150744149  0.9196044546027149
  0.1866648032538892  0.6114778153156187  0.6089578121914271
  0.3253674086357157  0.6519440527053528  0.6321723644176145
  1.0028447173015687  0.4418940701825134  0.9699589954424089
  0.9806618118705989  0.4839323799108644  0.4634435658151515
  0.2588577545799113  0.5901146595043916  0.6938570559430441
  0.7806953708080243  0.7201400838212145  0.1570342497359702
  0.0649810563511325  0.6389840277042999  0.7668011039830582
  0.9318588078366156  0.5765581289727908  0.4203574932671684
  0.3334470817790129  0.6722753178120821  0.7974815855581849
  0.2852008918147213  0.6659897709365190  0.8376031840912478
  0.8311120348402193  0.6392156845594407  0.3660387214173411
  0.2196284535065748  0.8069477057516676  0.6781879205790200
  0.8805494942384346  0.6452853562326919  0.0415468473781774
  0.3752793346839454  0.7562301065999529  0.9055336236975865
  0.9324165560971797  0.5975403577020387  0.1285019440906958
  0.0934823182875937  0.7023465050761880  0.7098473284445318
  0.0725383695257307  0.7336235917959415  0.5887148526423529
  0.7926264432535328  0.8070517088420588  0.4830665170731954
  0.3546552497550930  0.6151624228571472  0.8162152532705342
  0.7344754100472817  0.7663059179414500  0.2996504337223562
  0.9437999604202550  0.1648086460773049  0.1666703434108217
  0.5068376656248527  0.9797320652191472  0.7957145106889579
  0.9714363885200118  0.7182936071333369  0.6661478751777913
  0.5578768822041974  0.0849208184628456  0.5420724366893036
  0.7621579054487434  0.9382198011911572  0.0060979634424503
  0.3333012833616564  0.8910115188658221  0.0398252485937560
  0.5913464290154574  0.3506909202148694  0.3228547668794202
  0.5602223104657903  0.0108806591055287  0.0769054512967334
  0.8603221631627094  0.3009297268198881  0.6678369132900501
  0.8499315302073999  0.3139865142891010  0.6076657307115215
  0.0015866438799662  0.8415865803509042  0.1982646580620348
  0.7899114898501576  0.1594812794087669  0.5265573849760329
  0.7448723698712812  0.2321490161207054  0.5377402138313496
  0.9848690831076566  0.4372077468148201  0.7409552081315803
  0.9903340376770079  0.6903047953069726  0.1248773651018976
  0.9489417396432523  0.3552930110610213  0.6314136573417178
  0.1478944660514760  0.6756695634066786  0.1233579353315187
  0.9530842368107845  0.3196470331541979  0.5273790168289332
  0.8433406925037847  0.3290271654156998  0.5443285293504524
  0.8433821999639466  0.2619710902568175  0.4445589865932936
  0.5698761984046573  0.1027610306580481  0.1700529047955107
  0.5131879487864391  0.8482036455888532  0.9333128596095177
  0.5986224662292436 -0.0068407704620841  0.3562159057848311
  0.4342826183018932  0.9314735939827049  0.0049153738696062
  0.4944495565961293  0.9340670569684404  0.0229793044784792
  0.7860646061106346  0.7174380191555615  0.3867346617867090
  0.7403887686782346  0.7798757279898558  0.4678438669747176
  0.7888621393216541  0.8261319094089703  0.1876566085506023
  0.3364719297829347  1.0065173181964755  1.0009117020150042
  0.8822864367787192  0.2426719455136482  0.6838416075033070
  0.6843655997880498  0.2227972330715553  0.8481425626704363
  0.6672240654221142  0.0447170195511818  0.9876253350676278
  0.7357437884645486  0.1956514147898109  0.7016633626126729
  0.9157947053921627  0.3542964059155566  0.9031078321921701
  0.7464745930979462  0.3678919313798341  0.9007612816629967
  0.3548204619892991  0.6136486860166417  0.2141679421806149
  0.8855127629206467  0.4273613424231697  0.8235792186133755
  0.3484773196834819  0.5359086661120052  0.2924425207693658
  0.8098670584191038  0.3277028687018265  0.8156993629520533
  0.3532706132382327  0.5811290743569983  0.3369857659621753
  0.8689189644555182  0.3191113069025820  0.8325599138270456
  0.8110860008666254  0.2964475422953828  0.7087890188659114
  0.1887185667961881  0.4729799002162895  0.1413751679408967
  0.7017863267057058  0.2622104841624452  0.6234640019967902
  0.7236751523767072  0.2060030554589460  0.6417025043749645
  0.6593043686115149  0.2117515235648325  0.6215841971937530
  0.6470442256139398  0.2218704476885315  0.5597242323731734
  0.6897104289374208  0.1579603397147564  0.6227067466860435
  0.3944275727406874  0.4588313606859391  0.2753261006631390
  0.5314764858516184  0.2726274383016083  0.2732493384546919
  0.0540676773426669  0.4450694369218716  0.9306430112833930
  0.9322694936581823  0.4635148794411999  0.8852283521121640
  0.9735079074029734  0.4824792685213407  0.7838738882616552
  0.4836972537407244  0.3041089030980234  0.2462969696877648
  0.2050325936872456  0.7641081647302481  0.3534655322428045
  0.0709227608490291  0.5250623367769409  0.8093327633338062
  0.5567293075900006  0.9841361771904038  0.7523498989652214
  0.8962972476968303  0.8109705814034941  0.2855534493055650
  0.8139249814224626  0.9536718998522828  0.0782358927939083
  0.9437109361252594  0.1796012622233414  0.1051598540582235
  0.4156644759717331  0.7882449724506436  0.1300226934646621
  0.1072459408448246  0.8735939486214018  0.9113792313986286
  0.3660601737296577  0.8201258437704928  0.1060418357813513
  0.9474617540938128  0.8295451948252625  0.1301658529160398
  0.8437122291220673  0.2262240896030702  0.1110540229025628
  0.3178053837646433  0.4825944935440790  0.9591586126287320
  0.9882526963732912  0.6437762764882455  0.0778098406239885
  0.8839336467391434  0.6913086892626995  0.0866061730727793
  0.0238271169560267  0.9241313755990981  0.0460710705126917
  0.0490039435866040  0.8487769046091367  0.7799621672330156
  0.2955273494966116  1.0007397834795100  0.1655949307907530
  0.8929918620356504  0.7995678714480072  0.1189189928147295
  0.8599533499137817  0.8735470658268804  0.0498778334845559
  0.9416695297307131  0.7832841564305484  0.0839266172976168
  0.3522862594628369  0.5135230642362286  0.7965952936222022
  0.4720905284295219  0.4985413493625209  0.8400948552654547
  0.2316719627074595  0.9576743598088068  0.9901612492313208
  0.3247939706173027  0.4506474661948656  0.8536450215491587
  0.8828275598604349  0.1193536987433147  0.9856743372938951
  0.3155590804816644  0.5163391615981878  0.5097728973082478
  0.8242592674142174  0.0274116778972381  0.9928675645691906
  0.1972202244487568  0.9273645979445579  0.8725384118990556
  0.8848453988045845  0.7533871331715386  0.0713431064662067
  0.0864009960524984  0.1270109507989595  0.6544719643502441
  0.8517350007228225  0.9037400242211541  0.2433074694360884
  0.1891946514459175  0.7286637381723642  1.0152342268900669
  0.0631580786672202  0.7086651441232681  0.9738965559370462
  0.1024433871390945  0.3629586916423411  0.5111227375019025
  0.4017876833694077  0.5186331627874506  0.7575036361780082
  0.5181146427718780  0.7395587667298189  0.1202990272952159
  0.7662607443993510  0.9848460989679169  0.0483773112183209
  0.7766653563596184  0.1252591835761412  0.9442654278683881
  0.0330048265331349  0.0316042371955778  0.0690360917816209
  0.1700168292912779  0.3475540991074581  0.5945562589334211
  0.3480503852261023  0.6156143513378841  0.5529018928318635
  0.3352905944187353  0.9527805186944557  0.0242269882816961
  0.8629026624253113  0.9220950522925802  0.1030655708841268
  0.3099098804523642  0.3106928960312454  0.7602939740735905
  0.2471595479612462  0.9672069592267709  0.9364808428619408
  0.3336326024750094  0.8762908885008303  0.1005790679864838
  0.8381556566755458  0.7684982138441014  0.1055478115384847
  0.2691733693584624  0.8756744929150333  0.8508985681308535
  0.0444482549324381  0.1220617153275373  0.1597821590846631
  0.3921262876539774  0.4987681454017926  0.5920781245138189
  0.8883293060253570  0.1492079739267821  0.0951711618545299
  0.9294217580320823  0.9761540981565945  0.2050155292756022
  0.4714518557159838  0.8006137220188425  0.2010826316646300
  0.1378851906966136  0.3509496668605687  0.8617694822353106
  0.4384500030692637  0.5882587539768498  0.9650027582042685
  0.8237072384911710  0.5017896135589527  0.0095979009243584
  0.8717624013483463  0.4558239478411618  0.0931482652996896
  0.1509380644019802  0.3075103283404740  0.8177972139291806
  0.8284577955778540  0.6757509705372808  0.0105325283661663
  0.9594837164490252  0.3037322031633063  0.0667279098383416
  0.3928278286640827  0.9159663816103674  0.6000728308159985
  0.9661139816597761  0.1488744303202137  0.6090533825922206
  0.9084455600272080  0.3187270181894095  0.0982624816651436
  0.9012719686818251  0.2723981348898324  0.0615809748008700
  0.6278363923285984  0.8166823168691421  0.0788352045939813
  0.6766261277819595  0.8006613141846574  0.0449677812275586
  0.9378396496120129  0.1515316398331476  0.9971031919616906
  0.0342205949274115  0.3390878645639008  0.9368556178352730
  0.7065477910994503  0.7854545945155625  0.9468430076273702
  0.4072220128005324  0.0579443264073297  0.1832963199531069
  0.1394836683979280  0.5034531091354170  0.8907620919743894
  0.1630999200083381  0.4446221912634144  0.9118489915952193
  0.1025547225126618  0.4531676392756434  0.8898147268157980
  0.8227859644770257  0.5331050201571153  0.1107128984255979
  0.1429112689122443  0.0372043136344761  0.8658582114515705
  0.4251326129923060  0.5964935285560907  0.9019101045652204
 -0.0212665600190145  0.0286415290526399  0.9278978178210043
  0.2085456345508890  0.3298270433412494  0.9543842729506022
  0.1855377173241333  0.3880768650354126  0.9300713670225165
  0.8088660237541114  0.9395735931935815  0.1401583226598700
  0.0194424953373251  0.9633980988797161  0.1590109447660687
  0.0571535267758191  0.3115042146397974  0.5089508074883580
  0.5764177047074186  0.6111326301505624  0.7791691787319296
  0.7852014967241162  0.7974158783346974  0.0811039133033129
  0.5045955235448994  0.6632179021228134  0.8005856155643675
  0.8926365253715963  0.8171903542558718  0.0594516999932854
  0.0819604041028410  0.7796095323874548  0.8581287693999913
  0.0301096687390729  0.9084727968054352  0.6810742607650635
  0.3805209898215786  0.5748992318609125  0.7387718076883845
  0.1193603576433978  0.3078183743247406  0.5263513723088474
  0.2398445576599197  0.3286464895160882  0.6763416374070507