Cr N  Ni
 1.0000000000000000
    38.6909066207142374    0.0000000000000000    0.0000000000000000
     0.0000000000000000   38.6909066207142374    0.0000000000000000
     0.0000000000000000    0.0000000000000000   38.6909066207142374
 Cr  N   Ni 
 1596  50 3725
Direct
  0.9750303005552420  0.9338877239554667  0.9067372576827444
  0.4097058015123557  0.3210477902381900  0.6797593466828735
  0.0857896110945577  0.0485438231127821  0.3805316707426989
  0.7663663616234980  0.0024018720614286  0.2234342496106774
  0.3972691752739283  0.0449208221805125  0.0123436639077136
  0.0508927449290644  0.2104573243597386  0.0206710306151165
  0.9359942909683959  0.2302278933864884  0.9215176064062663
  0.2644423446786168  0.8032817843196752  0.0644090728074893
  0.5196349525372523  0.6894071451791014  0.3038329811032711
  0.4390947936057342  0.1628797577751125  0.9454113268308936
  0.5858217024843573  0.1800949560437494  0.8189175668662708
  0.6155128100698429  0.2625616919948889  0.9313998288169434
  0.5625451794878499  0.2674598141093647 -0.0116354928779613
  0.2291396959133336  0.9702745111859624  0.4769995722432032
  0.2586767733773814  0.0186244587539864  0.6484496129242662
  0.0587328509885356  0.3917447355116298  0.4825897857206625
  0.0147802252534632  0.4185837559707223  0.4454009820038741
  0.9791646840225297  0.5056072686715674  0.3983221951694703
  0.0366987389404687  0.4534098182939106  0.4869980724712439
  0.7548615143806565  0.9208564955616636  0.6087127124690842
  0.1612274113557590  0.2328292917081852  0.4468720355882923
  0.5728518538060539  0.2259132793480385  0.8636672639808866
  0.6817946905096728  0.1783309594213091  0.1278576877105024
  0.6586234084566482  0.9103339018474668  0.6324305298611730
  0.4613077555854527  0.0740486036978426  0.8548550604423334
  0.9413571519488603  0.7927993435757623  0.5827264178296615
  0.8597736613675140  0.9481474442319863  0.5209473864366200
  0.8149721616293450  0.0272181107420189  0.5346916264069336
  0.3208597941381340  0.8106770772750386  0.4330747693741044
  0.5666003073585426  0.5651311920824690  0.4697003796924361
  0.3673865048276120  0.7507242651746191  0.3501781587427930
  0.4921800534028359  0.2576121607549107  0.7198147841509543
  0.3115890218037551  0.7369548376521831  0.2783884606433742
  0.2660919324710292  0.8156647386451247  0.2983789373965328
  0.5708310169082491  0.3259383210452400  0.6223743362010460
  0.4718411556382045  0.2817947293799376  0.5948089402652008
  0.2264433635583233  0.9379421762714031  0.3626639525365711
  0.6196886634171193  0.3623196346405256  0.6893443063017840
  0.5453459557126180  0.4133874621245843  0.7130110719718117
  0.1629469288783620  0.8572841095290836  0.3077556237217782
  0.1282192238024053 -0.0111670606335061  0.2991353191132949
  0.6276072461005363  0.3823287597938554  0.8587419026080330
  0.6869641679185817  0.3756198784051414  0.8793492319872551
  0.8308613789834105  0.0914897086729780  0.2107876060603289
  0.7361895292242344  0.4106047993548075  0.9471790336647088
  0.6451240580324301  0.3668086842386302  0.3931152302379466
  0.6699620354034055  0.0537535264458507  0.1639553390513702
  0.7154706091526560  0.9379406258900691  0.6487333673636457
  0.8571552069345839  0.8708573168632670  0.5461618185530717
  0.0518363264665922  0.7948493877607115  0.2871271050302343
  0.9733421916051599  0.0231257430731097  0.4714573529868875
  0.3296457169456591  0.3353206470876859  0.4165761228267016
  0.3747943664433350  0.2712139934424284  0.3373261897602747
  0.4494790174406664  0.4574809859284453  0.4040575089425822
  0.0928661118979559  0.1082699725091020  0.3599501463408981
  0.2255847040573234 -0.0045330594069133  0.3480383108638169
  0.2896182040258540  0.4415932031218772  0.3030060800661158
  0.4499326668842027  0.4728111260757942  0.3453299464968627
  0.0136662144709592  0.3351892258836681  0.3043239964015210
  0.0056361871324049  0.2763433863773397  0.3247942804463949
  0.1052941878228159  0.1965005054210334  0.2139257299071155
  0.0486892096104534  0.1866607761462834  0.3724157683232395
  0.0462425885358899  0.2842989984025751  0.9491143243972100
  0.6516719012431682  0.9772293614388093  0.3187925040710134
  0.7435459767544070  0.8559066517349515  0.3926062689409497
  0.7270817038926863  0.6256335047296916  0.3912408313270979
  0.3350783687451039  0.6409834181355738  0.6912462130699148
  0.0766651695348312  0.6140159548874048  0.6285136055566508
  0.7770958301933263  0.5933311726460175  0.4177548201276943
  0.9312920812032387  0.5805173161742351  0.1892599915948266
  0.9897884626030207  0.6743954321289359  0.1833634522675954
  0.3505605305719525  0.5505139693698596  0.4562837603259841
  0.7015656747027554  0.9642743556867568  0.5193321121446804
  0.3584300823934025  0.0611186535333487  0.9369326724963324
  0.0669845646504204  0.3351024172791802  0.2067567928464780
  0.8831192013164456  0.0899876965774941  0.1115470173814121
  0.7819607226534627  0.1344923647027246  0.1187150708353581
  0.3009064034426727  0.0707284317156701  0.9146865193640673
  0.2279745700493079  0.9906680111271750  0.8107718876070179
  0.8282630695689598  0.0750132822451736  0.0384017819122419
  0.2342852523621935  0.9525064657715130  0.2212569081054677
  0.3889763555732212  0.1254583789533661  0.8746248558305830
  0.5225406071241836  0.1468217698415658  0.3108453416609904
  0.2303715057040357  0.9091335891029646  0.1781402538567743
  0.3204445908204973  0.8788486365682004  0.1878896700237318
  0.2128152161181662  0.8602241783611678  0.2095809585666585
  0.3156716239806947  0.8322206673742215  0.1409855482637063
  0.2313343674051479  0.0586668615370624  0.7223984252669350
  0.3025793258382039  0.0397270416324697  0.8088240189184426
  0.3659445762004137  0.8018409229563122  0.1660819946885675
  0.5288930226349425  0.3644676345208965  1.0002120059776132
  0.4796609801100496  0.2474752980189303  0.0399983752841638
  0.4704848007502132  0.2157163403671529  0.9389839016330711
  0.5725936059646897  0.1358169742050937  0.2767399265205640
  0.7296997120156237  0.2008600800771303  0.9669348357011975
  0.4491575228146540  0.1190111646236370  0.8981600855523990
  0.4503836582313415  0.2721490600968778  0.9233522738184154
  0.6805362384728793  0.7027292543385761  0.4120179894483284
  0.5700950594108866  0.6739461315737221  0.2681484449539151
  0.5892998070162948  0.5571679220937166  0.5348951836320329
  0.9763630431307245  0.9015419888680524  0.8022235793791737
  0.9059139654281574  0.9548474289456955  0.8224797785754339
  0.5820890912603055  0.6763437100927907  0.4965060748150750
  0.6768511344422932  0.7456268492736315  0.6109523106218544
  0.7603579795491509  0.8060312685269875  0.5775530016765905
  0.4813861520390188  0.8373763104278400  0.4780771917060809
  0.8312539195411559  0.7933530306076306  0.6022028181540905
  0.4271700944475128  0.8503677840171430  0.5175476458621191
  0.9199804795338163  0.8813542294077864  0.6736495254821353
  0.3331728142169849  0.9809521127777933  0.4497946507483825
  0.8874193156397396  0.8477074041390077  0.8388073759255594
  0.3027957521436179  0.0699029949411814  0.3189570798362802
 -0.0052154088217617  0.9888892727823536  0.8878273273514432
  0.9236282180822566  0.0227160632159538  0.3386391897309143
  0.0389285194726421  1.0014038296612868  0.9395019860115637
  0.9321369546076317  0.1132431005391575  0.4205352197266051
  0.9280433516658020  0.0657258184032659  0.3794373133916109
  0.5959713244281182  0.6554418115159800  0.5570268586772489
  0.8814174197293511  0.0913081278651370  0.3472548216878985
  0.8329913972861852  0.1562180390696770  0.4224944778602889
  0.5933920238100778  0.0163792073689777  0.8539495991780298
  0.8359662775864912  0.9736693494976578  0.7360624003997984
  0.8730181853735286  0.4873376892453691  0.4245212389954027
  0.5177881767517788  0.6069424192250615  0.5571616439412832
  0.7430915853418482  0.7366650477974006  0.6405925586558374
  0.8371642911664247  0.8410491372828065  0.8824723492266873
  0.7057186996871617  0.4123149200067463  0.3382769000940450
  0.5365354340096937  0.6716654890216123  0.5334693775292574
  0.7825199860311823  0.7167340839417814  0.9917746322740437
  0.5216308121306641  0.2867670618684184  0.5559289474415537
  0.3726121714973332  0.2389110196642522  0.5720565077969467
  0.4264282723750398  0.0113429681884921  0.6446464962521467
  0.4473189990841657  0.0535535649796911  0.6840661976590400
  0.5027084233213636  0.3059270273901075  0.0018135587933192
  0.4034324520485911  0.3492037805147709  0.0204994386630805
  0.5972957379480088  0.1348862164468533  0.7752810412427174
  0.4454823163618398  0.3646656124024535  0.0919974424865418
  0.5102669395133178  0.0784117774343853  0.8140976810947054
  0.3980121635637570  0.3933541778723674  0.0656052201235983
  0.4523334837558967  0.3773861444769333  0.0276621638754261
  0.4012046125950796  0.4569760996541914  0.0466933045678517
  0.6559038887694632  0.1633934795133898  0.8999762574412996
  0.6190345025529698  0.1435276459561881  0.9473913936941082
  0.4187670054632803  0.1787251358774549  0.3790895707912963
  0.9181108182688643  0.4275935939542294  0.3474495764615405
  0.5451848844296401  0.9284504948880988  0.9854256965823001
  0.9276914938959607  0.5343971192100562  0.3743057829226599
  0.8779937939058717  0.5482225290735457  0.4106387430513207
  0.6023290400496019  0.4264942821291717  0.2401185388133054
  0.4167559712367167  0.5630622776961365  0.5312004219631536
  0.5005338453423459  0.5272969859085263  1.0087224029102622
  0.7377533471184127  0.9647616625983072  0.8189789621995324
  0.1345017854525367  0.0542963942569552  0.5196372912456035
  0.2565398085126859  0.1175506150475539  0.6629289097233454
  0.0627906056070430  0.9158972673350495  0.2494147419080311
  0.9484801879155821  0.8399045671338823  0.8599988914093207
  0.7505315992962579  0.5238676741607258  0.9257127209432726
  0.7140730583322218  0.4879768841342920  0.2561547618097424
  0.6675523221512428  0.5655731405332819  0.2756175498771021
  0.9367865592311563  0.1042980383824974  0.1840625439780350
  0.8939771005896349  0.2147767507186902  0.3063902406825184
  0.5880708412921037  0.6326892700070158  0.9450677983426740
  0.1533322428668684  0.2397387662832176  0.6054554065679343
  0.1885836003392482  0.1369202260721059  0.5772274820577884
  0.9438521392481470  0.1853076093662715  0.3330808623459602
  0.5425918835256478  0.4794265165065130  0.9213549585940449
  0.9884968123548952  0.1082995848807658  0.3207900704185090
  0.4213791129955977  0.4940326002076387  0.8782105513048142
  0.4076705081173527  0.3536941515990317  0.7880162666467190
  0.4352617326737793  0.9489816764701019  0.3751724531952585
  0.4820682025995910  0.8737173613975034  0.3548319448427804
  0.3359233652943255  0.4059533364895716  0.8104718928233021
  0.3409358156618587  0.3417781841087579  0.5959828126419177
  0.4808934451921280  0.8277112599249058  0.5375236805170260
  0.8188539363464500  0.8620556502127630  0.9911090505914709
  0.7075736284715751  0.3962414365055336  0.1724263011665427
  0.4336907139937896  0.9324537830673877  0.4374061543810887
  0.7452514813902690  0.2709933699452186  0.1175860415534954
  0.8416197933415320  0.1968607593563090  0.2354652778554192
  0.1211163332339808  0.9771059445826802  0.5769183766601648
  0.5048973436777068  0.4700988823817988  0.0246051669535998
  0.7715654421590660  0.5309184977876235  0.4351055834574161
  0.4050269297182919  0.3863151510103435  0.8946935654860850
  0.8103122392835709  0.4116030669643197  0.3732479898319127
  0.7682748833152210  0.5031924037156030  0.3285147764377236
  0.8044835671296214  0.3664095108285816  0.3326579417162291
  0.8524901566453670  0.3366024139917007  0.3625371192631136
  0.9157581820365528  0.4123062988200483  0.4082809474828884
  0.2001169919287795  0.0299218368832783  0.8899132746004993
  0.2236844021912592  0.2206548949922164  0.6884040177027919
  0.8222581278469662  0.5492629235891905  0.5039930882958367
  0.5483951558821334  0.8349236171897043  0.7243201917991410
  0.3615526590551172  0.7728593213928756  0.0606088138612413
  0.4071020191641971  0.7561270236056237  0.0253652730870199
  0.6088999092300236  0.7986325867573317  0.6393908207755027
  0.5098309520136753  0.7553221691481504  0.6191268948019443
  0.5674876967586573  0.8001182572665366  0.0096516028633369
  0.3111602320048334  0.7530603712797915  0.2191041706876977
  0.2546854675926829  0.7509123552555096  0.0880567666291237
  0.4415999995475538  0.5370197556149221  0.6553896742676202
  0.5885358779896825  0.8826497784124304  0.5614636021516818
  0.7552434612443240  0.9598462049266976  0.1808834030272315
  0.6357726871970091  0.4391260230636838  0.5695258716986888
  0.7103735585740327  0.5702757111545997  0.6837772080588099
  0.7803828788239843  0.6330637011720945  0.6172919905606546
  0.6333577878496119  0.2083563293631258  0.1019275353445470
  0.7597833347374963  0.5888536666868617  0.8408873704623466
  0.8222424275837326  0.5826934321156445  0.8624328275742429
  0.6422179012155877  0.3041948672727726  0.1848063469775773
  0.9893001633833930  0.7244077105745240  1.0044325306975774
  0.5476068354012553  0.3956685423036709  0.2317209438467638
  0.6466963207902227  0.3483196254551663  0.2255183704593044
  0.5393113991071805  0.3957377405835139  0.5392028999346645
  0.4525147784516154  0.5044166479386635  0.2226115905884290
  0.5059523943756353  0.5197054736360409  0.2929347197236784
  0.6563259602753359  0.4106666860542003  0.6927227088638441
  0.7333072905708099  0.5134502610165279  0.7022401584291508
  0.4566497955147163  0.5651203820758227  0.2053531446677424
  0.7047022578311629  0.4498410565744048  0.7590129989826290
  0.4095887597555662  0.6270743356003472  0.2850371831606552
  0.7747175137584347  0.4303248930961062  0.8421400590008378
  0.6932453918024098  0.7302400485262240  0.5252054604373585
  0.5403831514988713  0.8421489702703622  0.5633577215540609
  0.8397322307200068  0.8109300090380309  0.7705361732184757
  0.3079796181463237  0.6736240955561458  0.2950101093509759
  0.7695791931759243  0.5791989257150760  0.8998203342584840
  0.8244706147467749  0.6206103853338267  0.9691497133369608
  0.8825113262631776  0.7291476077687574  0.9101152058712656
  0.1539981426470300  0.7803551825283425  0.1556212356206578
  0.1532884549495921  0.7492938824058670  0.2793086445311557
  0.9212594452917215  0.7458171877734346  0.8102260147504945
  0.2221966377803898  0.8667242294329649  0.1366084915084808
  0.8363880693175938  0.6473414707409778  0.5403290572972317
  0.8784925117711314  0.8000818644823979  0.5596794375432984
  0.1669822516799926  0.8851418530452346  0.1777732560440772
  0.1190042958355744  0.9165712074432271  0.1507608076814273
  0.1280162431786628  0.9586199839024209  0.1923961476502535
  0.9398892687875277  0.8204476237759777  0.6921292931245001
  0.9841246357384660  0.8743268377778003  0.6998638074118650
  0.6618153007857172  0.9828385730353633  1.0064464593027458
  0.7715195941016423  0.0292522271119012  0.0924690656058247
  0.0287022355973586  0.0430467924981441  0.8837795665256466
  0.7369763287824335  0.6015031877788660  0.5204821882054210
  0.7044393694871250  0.6540330636050369  0.5400787758115779
  0.5913616119841543  0.2868821722059173  0.1138617985033899
  0.5014140339160919  0.4422145994696788  0.1438029418337354
  0.8309365268954797  0.5595352025747717  0.9910204358408600
  0.7093687769401980  0.4410161518113366  0.2143663977278502
  0.6604876939647832  0.4724493637434439  0.1872219300561222
  0.5443304554383891  0.4463913902669264  0.8176687279900093
  0.6258508524531974  0.6475365378481047  0.8415155453502718
  0.0411522782648644  0.9414246233544322  0.9256088933315915
  0.6112631814013924  0.5259959592503833  0.4953306128227433
  0.4534631411286991  0.5198823970223387  0.1626941277124513
  0.6920121921229435  0.5964479401683693  0.5582936141802828
  0.4031522153926544  0.5497712004849870  0.1365924232561821
  0.3548792515078714  0.6289688142539480  0.1531517086903389
  0.7751146935460196  0.6636787615442964  0.7208426136166227
  0.3616608373639102  0.7215803972357868  0.2442417940508079
  0.2520577426898530  0.6746643386115068  0.1653429982587101
  0.5924069986517246  0.7196641358212081  0.7622523409261194
  0.5428581783916020  0.6824144732481741  0.6987760003037526
  0.4298229459553855  0.3969615290033459  0.5645735005968441
  0.4981259518765665  0.3767262568576576  0.6455501679232666
  0.8944506393098004  0.1816528297966752  0.2015054460328711
  0.2809239678618222  0.3482741906826347  0.5738871050384654
  0.2014230003750183  0.2472935775446878  0.5628079022309556
  0.3641413650144645  0.4356024607071580  0.6482265936258055
  0.4239380986935378  0.4286832496996709  0.6700593122852190
  0.7487238692030161  0.3361320869432549  0.3254382781870781
  0.3380568820900409  0.3741346108768083  0.7029126484079711
  0.6690508139325810  0.5811348447124229  0.2156068525400433
  0.6125929574150586  0.5354803628319487  0.2669952743063884
  0.9701719676308992  0.7842979136762741  0.8760519327304819
  0.6528240685196519  0.9951322449646712  0.4889841238969824
  0.6523000427815107  0.7130595651636162  0.7818131407793508
  0.6420732997844529  0.7564466694771739  0.8237907570863247
  0.5640286955749518  0.6907533645011810  0.9236291885653867
  0.6758917888327214  0.6872021378859133  0.9050726785155191
  0.5197162142799370  0.6735476396452336  0.3640231179978025
  0.6644980845346530  0.7324687436605913  0.9466671397404247
  0.4729146094116262  0.7497564147702315  0.3845592472750641
  0.4728421528330683  0.7660096680446101  0.3248799598689319
  0.9960411182528072  0.3724289917824254  0.5292348715212328
  0.6710435708845691  0.5790958666382080  0.4416883964085949
  1.0288418683257141  0.0030753412156716  0.1992747818053440
  0.5369924032030677  0.5940402028356209  0.8802585743716023
  0.6908016611115708  0.7630444317140864  0.7839765370341817
  0.9036798294081340  0.2891509003336556  0.2246235558728681
  0.7992969106565281  0.3209803935437353  0.2928366803101008
  0.1996548124193383  0.0945925870588209 -0.0098075883880800
  0.2465732811083096  0.0658650196187025  0.9562449036670027
  0.8772044245640344  0.5300208989666709  0.4704630505619589
  0.6585118752644088  0.5632163875413515  0.4991843535032893
  0.5919370910684050  0.9182710397457148  0.4354086040977013
  0.6468978692935152  0.9208602638676952  0.5704300858582824
  0.6488221069493825  0.6620287036091838  0.5206061034150902
  0.4687617344488300  0.6011187554019709  0.5995740025320160
  0.1757857808108640  0.9264946173857621  0.2196269493711513
  0.2702894567170665  0.1410730076963789  0.8316187171740412
  0.4273571812464683  0.1753457460024183  0.8790492752349764
  0.1673771652916867  0.9969571827611904  0.7905832961210203
  0.3992803247017245  0.3348740570163456  0.6171014745601016
  0.7127904908784003  0.7056270332245823  0.8012414851229565
  0.5550032654898778  0.6382724611669019  0.6568381765642928
  0.8189763936687289  0.3138144047818611  0.8761432829551558
  0.1541657977363711  0.0727023073350424  0.6326342800908356
  0.4707360052603259  0.0621019839180451  0.9159051111687655
  0.1586217238776070  0.8251688125812079  0.2000392272797709
  0.2460318067469278  0.5296824853655171  0.0344597394925953
  0.3021397298801131  0.6140624339000585  0.0848279229925514
  0.9354927277863005  0.0867139537029786  0.6704487673882773
  0.5264924634341680  0.1544350416909460  0.6914004632304610
  0.2942908958084180  0.4378579655181205  0.0754222488216256
  0.5276755001070869  0.1232239131811781  0.5819362150050801
  0.4481576281064704  0.1471588994609558  0.4904020706577260
  0.4985492755348641  0.0514495913969885  0.5302230210923559
  0.4098891705646800  0.2798937740232553  0.0201394726595893
  0.5225044276492601  0.2279119052845062 -0.0014235319674121
  0.8157387083024250  0.3307041315349789 -0.0107816154227862
  0.9314749198276665  0.8358530176415696  0.6247439354127587
  0.3157729137899181  0.1784633340855138  0.8933766871178576
  0.4863286899054096  0.0044547136667264  0.6658258347299457
  0.8819803613579899  0.8293666259611754  0.6683882256654179
  0.4978430885551610  0.0578912619052747  0.6426566305028996
  0.9581351062975458  0.9077057731817468  0.5117694089496839
  0.9280489425419852  0.8090786647363762  0.5138619781710229
  0.0129240697472805  0.9681668528769751  0.6550895130152801
  0.9358815164242048  0.9857444707155765  0.6517332507487527
  0.9749450935343016  0.9495986349564002  0.5541530597511286
  1.0416691271204119  0.8334038427815667  0.5174964846883213
  0.9704370546738338  0.9625441312332744  0.4935450568736262
  0.0744038956565468  0.9721720912165603  0.4647338542482392
  0.5035800986520912  0.0581267877123743  0.9801562060494370
  0.5417144751933535  0.2614133988999593  0.6817098334119328
  0.5232940823399954  0.0661155554891175  0.8796446310112265
  0.7124578314725434  0.2531121799314126  0.6852467620837119
  0.4818410553205101  0.2357160860358910  0.5548668296664666
  0.6777736048718382  0.2543455923475878  0.9571875995095150
  0.7280382507447422  0.2635351212992341  0.9251215312417258
  0.5764416754455272  0.2036943809615485  0.0252138349309427
  0.6304904109362108  0.2190140670007661  0.8864191375371286
  0.7191734867990013  0.0287198226570324  0.9522533677599129
  0.6160506365169475  0.0591684813236921  0.0248907902617732
  0.5379949945026350  0.1421952258022014  0.7544044168375784
  0.5480457240166762  0.0987401854445445  0.7091727874079368
  0.5378732705409940  0.1100277533208972  0.6466725553914993
  0.3287326861240740  0.1331342892307366  0.8538384078943800
  0.0081740637615048  0.9032568415300499  0.1803631712636970
  0.5402648834560992  0.9307067860934466  0.4719276447635296
  0.0030323253996244  0.3610978235741625  0.4691997790313400
  0.7677569649857826  0.4620241093047556  0.4563064575097002
  0.6732879127245570  0.9393782748990609  0.6894961672300790
  0.4894462334192890  0.5743616952686175  0.7217312594690398
  0.4514397251893261  0.4931861148109807  0.6114416876573917
  0.6243584959932893  0.9336008993503068  0.7314982862177936
  0.6212315063473935  0.8485157301387846  0.9153368664143591
  0.6150428032839468  0.9780903621084577  0.7746329900239067
  0.6374051279211855  0.8427064898938609  0.4155426984770397
  0.1849801190074630  0.2039534558600400  0.7898338614050239
  0.3062166153655234  0.1914214884514200  0.8334169018396952
  0.5342336194397908  0.8673720795246840  0.4931308232459705
  0.5360104463235827  0.8874076501789775  0.4281103492634333
  0.0037752076461779  0.2624549794197720  0.3874200621193708
  0.3748136775715519  0.3235999798461284  0.9588627830589712
  0.1682493577016712  0.0153814575688189  0.6441865824884719
  0.0038236017961086  0.2417727011213365  0.4501062694456662
  0.1562317589528673  0.1045747397778717  0.7415580176788411
  0.3072174815235081  0.1587012248766632  0.7290869133266009
  0.1708607400382592  0.0984990324135035  0.8043063919316320
  0.9574474901839405  0.3408234648664523  0.4068675195588036
  0.9531622716625540  0.3249832738375275  0.4652671434444877
  0.0681227405082154  0.8998260948380942  0.0798849544347618
  0.4885096188831652  0.0762747504786657  0.5775380951846347
  0.5657645062731194  0.5967587615535971  0.3455831875137410
  0.2048258460705084  0.7644288144409962  0.1218384740460326
  0.8147123321999026  0.3916565117901988  0.9751254440201923
  0.0953367074530444  0.6581170308546128  0.0545101733386374
  0.1999510453578642  0.6118368321473321  0.0452621518044952
  0.2582233608637377  0.5859672959191918  0.0161300606641089
  0.7328410998362468  0.2279225956688204  0.8102451449369472
  0.5522861697825741  0.2506572017584333  0.7403217759674716
  0.6738854780972481  0.2356673062396123  0.7867376905404569
  0.7021597134509540  0.3867121637361085  0.5394544603229541
  0.6917737834618164  0.7310947558147827  0.6784337196723323
  0.7909189685728134  0.8054615656411197  0.8067535311225502
  0.4671218711018468  0.7368177630283017  0.2164737319805928
  0.4470747148044117  0.4100329644132500  0.1363678365409175
  0.5864604007230830  0.5986491401466154  0.8387524690172262
  0.7586239473778542  0.4115461046496727  0.2418734856322321
  0.8445135055107975  0.4085091306427581  0.9246814519206935
  0.8727061032688822  0.7089991906554561  0.7443599356854289
  0.9994852945753760  0.8793273315806770  0.9284866967082432
  0.6668187568405625  0.5494849798595624  0.3359500054575690
  0.6057202432867971  0.5739835354726162  0.9645373615027513
  0.5198571647689241  0.5376985024783916  0.9046921276963323
  0.5551977575962086  0.6246867254800454  0.9913976924654547
  0.8515513304939557  0.7659962360003169  0.7263036689201671
  0.5125943093091885  0.4850863841633334  0.6350840476152325
  0.5816554089729864  0.7962085980731857  0.4663140174160972
  0.6787189743311938  0.0384594338063759  0.7098590874834171
  0.7804949848868169  0.1848664510771533  0.9351354339330654
  0.5082962934227585  0.3652367356227604  0.7075781734789659
  0.2130666916713719  0.8219556139521190  0.0976539703617622
  0.5065506027700106  0.3973653825477045  0.8140031702162228
  0.2244780661213300  0.8803636081832527  0.0711050891737661
  0.5627910865355218  0.4224779734017586  0.9408586660532682
  0.4778265599847357  0.3345778290322878  0.8714965653518107
  0.1814557637105997  0.9429653675966629  0.1552802344724112
  0.2892571032101049  0.9545763357998789  0.1218237405038542
  0.2846290019227971  0.1810306133938092  0.6052387538361443
  0.6772989537017717  0.1496967143228368  0.0220530096700044
  0.2650161284078451  0.0698304305724141  0.6175377905692757
  0.3113517144728777  0.2774158903748053  0.6537363336836081
  0.3447162714307834  0.2083567021815678  0.7331715811122896
  0.3437812978048713  0.2419755865227979  0.8378965362801997
  0.6596094408156890  0.2847831782115590  0.0043080968228380
  0.5591482854762168  0.2725745984952535  0.9122228778505321
  0.6057686808097511  0.3640278396161545  0.0242003618245081
  0.4392400886628731  0.3169129561992796  0.9785540676343609
  0.5052590416674846  0.4576666483994271  0.0853044473555286
  0.7506792913248300  0.0189625490143058  0.7936278716315268
  0.1031251619123195  0.7937243402571619  0.1907022950972299
  0.5582727612920111  0.4891387070035255  0.0925078404309370
  0.5133093035729155  0.6140413604537104  0.1530764375765170
  0.3915500305408382  0.3496349988275508  0.5534623602050781
  0.3610619305528223  0.2835508111882921  0.6133475781773672
  0.4592066301376839  0.5973154777872867  0.0822758474763557
  0.3588805888049852  0.7122860803688823  0.0750189938399190
  0.6637183676714463  0.5686121057563631  0.9868520002165004
  0.5629090802660596  0.4908412872718086  0.5989439963839315
  0.4706073661132477  0.1645242781658416  0.3462344258145764
  0.6219109744547171  0.5144727308997683  0.7197806487901739
  0.5738141711397494  0.4780254339722250  0.6555329171671054
  0.6321205269848232  0.5013175809155841  0.7806019558160554
  0.3071560115476451  0.6288572172091434  0.0256298475823150
  0.2524911565829749  0.6423727408843454  0.0593443820322838
  0.6815645622068636  0.5406468932482442  0.8454915615796738
  0.7086891344394312  0.5842284653827600  0.8824355336515404
  0.6484303886400687  0.5910471216797277  0.8613906146513177
  0.2426480556064424  0.7642559989666606  0.0237919104891994
  0.7188735100868771  0.5711942205936361  0.9469247751923758
  0.6977029108361605  0.6271610063684797  0.9257238580699935
  0.7402327894691030  0.6745652989897788  0.9856567812518472
  0.1982963137642675  0.7766790660530828  0.0605388827318113
  0.1639778156928850  0.9639890844131952  0.9647959357431178
  0.4534732099032238  0.5514698535470586  0.0326894339599852
  0.3936758347862350  0.6654353276439738  0.8178285857194394
  0.8399109674138261  0.7966670846569609  0.2150092812416999
  0.4516778157707249  0.4726295020407697  0.1200988840497426
  0.5953092415442087  0.4524348575443068  0.7780779110038334
  0.4723442087681633  0.4669706773039554  0.7366309888473895
  0.5602058046398636  0.5549381934538705  0.8033819099280204
  0.4058343687339720  0.5856720421311467  0.0133154647738691
  0.6906888407618416  0.5291284744548894  0.9061280507829157
  0.6524604571977897  0.4777571786607204  0.9024978411148620
  0.3045894586691976  0.5664850032369391  0.0456133537107546
  0.7187512053528864  0.4522648774349151  0.9839850337815303
  0.3577846656195819  0.6467106293027161  0.0932898703689517
  0.3325507748393547  0.2030115153989984  0.5057115587729030
  0.6803669936406715  0.7746857453319526  0.7220257402130519
  0.4097572633157697  0.6771226359643486  0.1039293942452851
  0.3784022971355460  0.1388807337289396  0.8132786134423075
  0.6454966380604034  0.8183410007531191  0.5375299070931689
  0.6979196788602660  0.3015533077761737  0.0888484715156797
  0.7037197293919067  0.8810926301483240  0.6124743307731473
  0.6513408213646290  0.8479810937752865  0.6444526490604259
  0.6584527623179038  0.8333967164343377  0.7030199534784221
  0.6057024593757284  0.4409729483690580  0.1784819248923465
  0.6955016754571893  0.8839933715239587  0.7007435911934776
  0.8095799158497770  0.8805495020689256  0.6905225271371366
  0.5583537832714212  0.5196568751978454  0.1958774454226460
  0.8075751538180479  0.9123687143827108  0.7977165753790064
  0.7970251524049548  0.9566884339400449  0.8399132539958298
  0.5839861796648222  0.7197652888899141  0.5428243710470849
  0.4130761458241630  0.7230942954485002  0.1473463752617383
  0.5648969101495006  0.6441494114024207  0.1620992281567570
  0.4645744047316963  0.6915787840235738  0.1710430697294028
  0.4159922978896073  0.7529798198445244  0.2536503437514865
  0.3701819545649533  0.8298847066851341  0.2742293453366241
  0.7293481036276431  0.8118552741638453  0.7857267986899819
  0.7086151224390340  0.8703030914528758  0.7688847787498552
  0.3255489168002839  0.9240290159859670  0.2335232284982930
  0.7790638950241970  0.8178976247628839  0.7467584626982221
  0.7697911849301833  0.8923200360692796  0.9029813484380762
  0.3294523830495457  0.9680843931621388  0.2785087246589249
  0.8753742328344117  0.9931130890919223  0.9020735952494794