Cr N  Ni
 1.0000000000000000
    38.6909066207142374    0.0000000000000000    0.0000000000000000
     0.0000000000000000   38.6909066207142374    0.0000000000000000
     0.0000000000000000    0.0000000000000000   38.6909066207142374
 Cr  N   Ni 
 1596  50 3725
Direct
  0.9774031384465230  0.9383895529399394  0.9040435518677731
  0.5998696765216205  0.5732138600082066  0.7022917999090428
  0.8937043726705847  0.2473410715984593  0.4131428343743990
  0.6280551904174427  0.6179280123222675  0.7373998114603123
  0.6394338139116222  0.6041216342776736  0.7988150876972719
  0.7376935373175360  0.6472390168557159  0.8226651914247924
  0.8412589851251963  0.3097009705982423  0.4900445342762301
  0.8965245402724593  0.2923561794554108  0.4576940607743195
  0.7922904290297895  0.3407382580887349  0.4598327053789834
  0.7356848893949710  0.6812786793274782  0.9251754460282550
  0.5379952040250859  0.1776540310232920  0.8601487322203678
  0.8048022191709401  0.4006546654153914  0.4356878549012394
  0.5667481303850961  0.6127840354282349  0.5141798400002577
  0.7537581249716009  0.7545190154541186  0.8055208985639123
  0.5640532145720898  0.5819840778448037  0.4077020643318335
  0.7758221032820746  0.6960882689491475  0.8251722950005751
  0.7046798505414249  0.7169320254575874  0.7404199102892112
  0.5183911294687681  0.3214835360873868  0.6642204898798595
  0.6899032314441680  0.2724264541728693  0.2136719466318960
  0.6010814651209703  0.2897076374309597  0.8104751384467433
  0.5794936339128599  0.3448129774115517  0.7925906835482183
  0.5753866295708386  0.2271161867397064  0.8694668711273865
  0.3590045389666193  0.0851861574703179  0.5353116715796675
  0.4173242047118067  0.1244215975667655  0.6021844877976325
  0.4628179030434958  0.0743682911833900  0.8514663280928481
  0.9081694431494737  0.8571499949792696  0.5585066392027369
  0.8600348458819468  0.9470241701028630  0.5174471293154436
  0.8651639678295847 -0.0099544460990271  0.5607265428565696
  0.3704017370443309  0.7963034320559320  0.3953215672515775
  0.5678261754366285  0.5651650798917259  0.4694677900583015
  0.3648371721559596  0.7509567246730851  0.3504279410036890
  0.5144285354048599  0.2012617807766826  0.7389550489354357
  0.3104913227728657  0.7358776212259852  0.2802447898043198
  0.3149739159573458  0.7981718079528142  0.2651232043879097
  0.5688203876685793  0.3236442228611215  0.6216164725235050
  0.4698588645242232  0.2816676449390031  0.5984306215603561
  0.2686401689947677  0.8587401001904471  0.3495099662854379
  0.6186988207912708  0.3624370040163357  0.6897321919506225
  0.5463578758974330  0.4144452558870356  0.7138917177316075
  0.2136729226189796  0.8417355490597637  0.2743515383701577
  0.2246830321759850  0.9364236455199882  0.3635585581931190
  0.6288625226303752  0.3835491758597976  0.8599491367428604
  0.6882579101239377  0.3757696200683291  0.8801877285105795
  0.8253322661068386  0.0442132316663201  0.1666076880553343
  0.7696051765361795  0.4678075215307843  0.9439340982011241
  0.6478777696843789  0.3813598420249697  0.3302756113778340
  0.6980114135659150  0.3635305827684570  0.9414903086204044
  0.6609332945391790  0.4672070575669259  0.9627353242293261
  0.8078511904140252  0.9091305248876093  0.5714898433937414
  0.2656511607708378  0.8032016344947811  0.0636768831319116
  0.4426549801295147  0.1603441485091438  0.9475816067527023
  0.5613783788559032  0.2709890563526283 -0.0152503154346140
  0.5546621085829025  0.3239158177047045  0.0243729922540699
  0.2300538159165202  0.9867938857138807  0.4064261391693022
  0.2580246754311786  0.0192436779544177  0.6470274073763704
  0.0626772359444430  0.3897120682508687  0.4839782603949654
  0.0136157354483057  0.4162697526006796  0.4547237827341749
  0.0285266933956918  0.4727566405940959  0.4280910394061606
  0.0383919591684520  0.4542197554184342  0.4896177758677752
  0.8118720850566865  0.9556207149656630  0.6183572000928840
  0.1623872949422684  0.2312351903996702  0.4452177328668773
  0.6206187043252479  0.0872137842310037  0.1356366627620015
  0.7031618161815975  0.9270896899854896  0.6460780847191184
  0.7324792568858832  0.1645645167448579  0.0913584674118156
  0.7560796154770570  0.9187675857288636  0.6106490306410896
  0.7020711444326602  0.9622859846873442  0.5193830953912895
  0.3601953728519853  0.0612074697220996  0.9357452324001718
  0.8824352541899473  0.0885219278058130  0.1118116099310457
  0.7813679881572740  0.1347725196892095  0.1191565684633959
  0.3009470053177210  0.0708256139639057  0.9135673068359251
  0.2530254234096330  0.0352685044138827  0.8488813690867808
  0.5185402764989939  0.6881546203382854  0.3029629209907852
  0.4306623391262706  0.1132273565159205  0.6642970952285728
  0.4677593250763359  0.1639827425580495  0.6666711181273883
  0.0481629113909378  0.2120098547841090  0.0197163723287399
  0.5135586558804141  0.6277118580005049  0.3180189547138816
  0.4117526794064916  0.6731645617348585  0.3287229688091706
  0.5262992797457521  0.1885590324199883  0.7973569394566919
  0.4595285364383400  0.2950914337164275  0.5348917292632593
  0.8621802690139466  0.9274801687964233  0.6068923628403523
  0.8114737813275718  0.8483703435741200  0.5868664915400270
  0.6397414575744421  0.5910884650576184  0.6022297316033783
  0.6669406414415795  0.6353089221145317  0.6379708932001654
  0.6172090429331929  0.5986064098415960  0.4771921567639335
  0.6563154039948449  0.6806579412783151  0.6804031163182955
  0.6665355048743491  0.6681915315733072  0.7413120590792621
  0.3070951170008510  0.7241226563219356  0.1116520539928490
  0.5544682417769393  0.0486559693643726  0.9494540098690227
  0.5439618093409828  0.0121771169096030  0.8957792625204468
  0.7430768630471283  0.7669506552172930  0.7435270223243121
  0.5311218409986452  0.0255102908044550  0.8300882591759241
  0.3994825523414627  0.5149061409486128  0.0366072215177249
  0.4088836510485894  0.3218857628208023  0.6815936518415567
  0.0805359354041033  0.0367473536767924  0.4427005661075944
  0.7654406568198752  0.0013540959871214  0.2218564079419884
  0.4017268848826451  0.0464747921564981  0.0096603920041330
  0.9206279173680562  0.2405009902946070  0.9169112982533898
  0.6832889988767238  0.2548086239358587  0.9554397979446371
  0.7368432645924162  0.2569963390153924  0.9251448873051039
  0.5879926408864665  0.5557731618738458  0.5348999848288046
  0.9782019580397234  0.9017945572589522  0.7997723010997767
  0.9058883379297697  0.9549246261741472  0.8207443526700896
  0.4728362196280358  0.7315981408299981  0.4440019214732249
  0.6813168469243995  0.7455422677349871  0.6150138238763004
  0.7596739285966692  0.8088316156189437  0.5764955921907111
  0.4795872551882244  0.8375314582389408  0.4766302755716249
  0.8341190058200891  0.7946719710071365  0.6047544106542574
  0.4264125404264996  0.8519059683504937  0.5180296953542273
  0.9230740819255262  0.8776640260559202  0.6725919243538361
  0.3282904096641912  0.9210703147376055  0.4620885297138288
  0.8895245397660471  0.8462975172951548  0.8378786878088088
  0.2867155730221846  0.0134938097076912  0.4204032631719931
  0.9316658036948874  0.9974757864809873  0.8592572768558697
  0.9237559854759616  0.0183770276361530  0.3395735987974802
  0.0412180780777319  0.9981813877538400  0.9526260168681063
  0.9282513029470363  0.0645917066257112  0.3800976612398659
  0.8808513767410014  0.0896687324187278  0.3470307283783962
  0.5836532334748140  0.7008908339299317  0.5981652450184850
  0.8873008586259790  0.1506416288619392  0.3264717292065715
  0.8374894943526789  0.2150218860022690  0.4023411301676829
  0.5910474317924401  0.0184653737638731  0.8538259079083232
  0.8221794699838302  0.9850374059922986  0.6746046003048243
  0.2335940372796457  0.9530558070479487  0.2207068528472133
  0.9363961769896082  0.1022807867846363  0.1846434122881995
  0.7446609937937845  0.7373996214621114  0.6408238958443517
  0.8371657149456186  0.8399861748788134  0.8817243539825252
  0.7040449818279704  0.4121973762438180  0.3379214729989644
  0.5179231216402814  0.6060366706661926  0.5563037911716215
  0.7835039482794823  0.7184229403111115  0.9925763309496185
  0.5196851717345770  0.2834326887132687  0.5601158535919331
  0.4286524242665776  0.2470549234823956  0.5386980314900577
  0.4256250017537863  0.0116947567198314  0.6425605211365262
  0.4491566987808072  0.0543566461629523  0.6820092012531334
  0.4994026975145344  0.3121316410788194 -0.0037123529587990
  0.4492845472369227  0.3110660312990827  0.0414938155207488
  0.5610742246462198  0.0869656747355424  0.7688268933206132
  0.4461105177182506  0.3619866335577989  0.0924507431851648
  0.5118182522037218  0.0816352159071893  0.8107964351603119
  0.3974520878007229  0.3350184743056904  0.0108877643010861
  0.3948190613257578  0.3925389087111410  0.0632822897643793
  0.3987283810847225  0.4574674921607759  0.0462786445106752
  0.6593280679237808  0.1631147483248372  0.9010673388352415
  0.6184092281647556  0.1467803409679234  0.9461418182884227
  0.3205123913937117  0.8790064662559812  0.1882838914264761
  0.2299997011279732  0.9102213503049394  0.1801479320320008
  0.5216530843968804  0.1483012110788898  0.3119464594901492
  0.3868293462702629  0.1248181630862411  0.8704347025804016
  0.8295444815830251  0.0747802173571860  0.0395341140260298
  0.9466072739011281  0.2440621969002941  0.3158999462669662
  0.5884473811829884  0.6344831039608158  0.9448614568001852
  0.4668146525773531  0.7205497048737646  0.2760408701696727
  0.7807290544522499  0.8173935312306740  0.7479642784554424
  0.7153741224029078  0.6725606501059506  0.6984517151387269
  0.7321262149701026  0.4222645897779785  0.4951437335627010
  0.6746988633621648  0.2371585218818409  0.7870598335752651
  0.5514382037871282  0.2505280518605494  0.7443993173694660
  0.7116016765592361  0.2856534023710091  0.7921790948228287
  0.2523969715519705  0.5917228545516686  0.0156368284336751
  0.1981124371771765  0.6118165194329239  0.0487021482091065
  0.1477459106649372  0.7475810428475079  0.0512754054696340
  0.8135248904781939  0.3929931373069747  0.9745227977679147
  0.2040751838743461  0.7645929273969517  0.1235886204936478
  0.4904905356557143  0.0752435930936416  0.5763229183106253
  0.0661956330577969  0.8990496602713460  0.0817436041146597
  0.0082598029740933  0.9022344034241128  0.1815587409658382
  0.5401101082657178  0.1114396776446128  0.6432978307285947
  0.4890956912139962  0.1066013457415097  0.6842438921002243
  0.5499524816212020  0.1001376655728665  0.7051281691227418
  0.5897639985351746  0.1498247809423403  0.7090779973852858
  0.6204220414074024  0.0615521762036653  0.0210831310983703
  0.7174415169883782  0.0145901314266026  0.0183373105099243
  0.6479117910285555  0.1753786069123764  0.8414101905295865
  0.5767044207812866  0.1994979709652822  0.0274213342965572
  0.4450691464025903  0.4093705037886652  0.1353892945612296
  0.1538563009239521  0.2406479545140318  0.6059809157190454
  0.1688550500331736  0.1946512494281255  0.5608313716721537
  0.9383070626273233  0.1347333261276546  0.2925938811086235
  0.5533846430003890  0.4687992022157925  0.9811219461997993
  0.9876685389720065  0.1069175127251146  0.3217574197416719
  0.4337905413457078  0.4503137313306894  0.8366243691926462
  0.4078573447007342  0.3550059218326810  0.7878844972000909
  0.4352524648568795  0.9489740705804551  0.3741231681463044
  0.4801682618504792  0.8724076558792925  0.3532308766683011
  0.3356168791450800  0.4064996714024172  0.8097272562105862
  0.3490687562376507  0.3285664382067342  0.6573672812819593
  0.5692590388251088  0.6731091364297551  0.2672337256275604
  0.6752689340228271  0.6557868883239371  0.3647467242907775
  0.5585170990562435  0.6255783612526987  0.9912211982504199
  0.5644906125371667  0.5957044439588591  0.3446959423786774
  0.5207001741490069  0.5393409855444981  0.9037937329800668
  0.6064956819332699  0.5770288284858531  0.9627535720290642
  0.6647506991318218  0.5488557295001574  0.3358583089650208
  0.9584990906528142  0.8285938081924443  0.9224590479722131
  0.8247993382137919  0.7012883766549305  0.7856350143198118
  0.8468648768256741  0.4083826965228479  0.9256529496789411
  0.7580216366731937  0.4110375564852498  0.2438002406268856
  0.5875668559277470  0.6005612118417573  0.8379442766618784
  0.2591245920467916  0.7830574231133357  0.1941148931810328
  0.2541787355342547  0.7521387871388562  0.0872914725764319
  0.4409446497575643  0.5371141779079487  0.6554245109905090
  0.3785453019542597  0.5097389304935327  0.5317529820396959
  0.7698689091783315  0.0159119831674554  0.1580136652072823
  0.6357733550098700  0.4403556941453822  0.5667896014620714
  0.6846045078857597  0.4749274329471995  0.6375386348043767
  0.8098665188518980  0.5824731593926246  0.6025633790569653
  0.6325885885996470  0.2102428397840340  0.1015790256750839
  0.7613194059797080  0.5890585400252828  0.8393056872542254
  0.8235593982021385  0.5821253283238637  0.8620391229706147
  0.6351046448722956  0.2415825662344915  0.2054766569005632
  0.9851317525057161  0.7262572645167048  1.0013839961053368
  0.5466756119660782  0.3963211741805482  0.2315130998044588
  0.6461356067146782  0.3499133757221972  0.2261576320616842
  0.5389897133761617  0.3932497281516191  0.5364596380176415
  0.5513276335701452  0.4566949616916470  0.2134393724018677
  0.4545415419172922  0.5508461424150165  0.2649202959120777
  0.6570632599018563  0.4106926947938448  0.6933827687390717
  0.7335313882892334  0.5125538609971608  0.7009131154377750
  0.4552485339865473  0.5661543488485720  0.2035190547490317
  0.6450854890413714  0.4576235266178308  0.7387490661450649
  0.4071584421794382  0.6272224552316666  0.2836057455061801
  0.7164150963983896  0.4378812527865406  0.8209656467565064
  0.7056369168911045  0.3951359928017352  0.1721935032529409
  0.8163631548604243  0.8600865006304462  0.9903469842590384
  0.9020672816224883  0.8025787993560189  0.7951009585553834
  0.3062668598071667  0.6743720135031424  0.2945088048109550
  0.7712271541793060  0.5794555241848730  0.8992668815199325
  0.8225221031168160  0.6188493417648786  0.9692811750602633
  0.8834515702056009  0.7288412913045930  0.9111863667791291
  0.1548439489123851  0.7789717024848858  0.1572374403998612
  0.2085850111599624  0.7961622081336375  0.2288816124121570
  0.9232037591185392  0.7457061934930140  0.8131963577594228
  0.2222011432813683  0.8652012055399877  0.1383443500306847
  0.8331334599077675  0.6483066807835115  0.5454255172538769
  0.7990200359539580  0.7872097567364713  0.5468473173357858
  0.1670068138219717  0.8853166554051272  0.1785427463341517
  0.1186263288489533  0.9140528009076009  0.1502187086388647
  0.1273277505053666  0.9578662718602072  0.1924623001314942
  0.9419831949888812  0.8202803787738704  0.6913763721809715
  0.9846087112694319  0.8711732584288510  0.6946070544311895
  0.6620876826561127  0.9836595926123292  1.0043297980856514
  0.6701802888962544  0.0733245778060482  0.1003281246827347
 -0.0047804215088225  0.9900205062644243  0.8740682061011760
  0.7342599081243723  0.6013934189802812  0.5219980972688507
  0.6956511425232533  0.6621303374876231  0.5357416198567412
  0.5895686306890827  0.2866279444340551  0.1149300720662475
  0.4934149258240832  0.3794950075016624  0.1621255130913049
  0.8318597454298102  0.5588781558187669  0.9901327595524698
  0.7064143486443525  0.4275127356070190  0.2757800106147252
  0.8035041009773937  0.5276948972116193  0.8868028310257897
  0.5223605360232996  0.5045913073839932  0.7997294765693891
  0.7379711637897520  0.9650052672029953  0.8191154137473686
  0.0366970945853328  0.9320359678367220  0.9247907327657636
  0.6122435511402378  0.5257215582098036  0.4975172548816266
  0.4518747425750693  0.5191628045451172  0.1605364290431815
  0.6906627150757766  0.5963855274913299  0.5559089224498500
  0.3497384409964299  0.5663026335628046  0.1696355342797514
  0.3020603754870801  0.6438181411540007  0.1892315983549160
  0.8355792057489341  0.6577990042553215  0.7418715333507695
  0.3612830909915767  0.7216696236040039  0.2438075558973374
  0.2517450188490756  0.6751189054070784  0.1656111897184717
  0.1364946917451959  0.0536900049208197  0.5174800130426296
  0.2570751849739013  0.1184810434267969  0.6616891771588749
  0.4290761096560154  0.3961376269287675  0.5628587532344015
  0.4981405208120230  0.3773517651716598  0.6452761137226911
  0.8930808140600011  0.1802506482284901  0.2020659069859161
  0.2795385821646998  0.3485023927547670  0.5731678942821848
  0.2631825211485973  0.2407044674876903  0.5860410254612392
  0.3271122790785647  0.3864910323301702  0.6403938217954513
  0.4251632522334711  0.4291825342782217  0.6709048459748708
  0.7470091115977260  0.3357035695853878  0.3268667481400289
  0.4129495955320548  0.4738659308573173  0.7136445342877746
  0.0630204323376390  0.9162946865816973  0.2505716288502942
  0.9604952279930671  0.7956097139344935  0.8165922673003853
  0.9487991888847206  0.8408039642031040  0.8604662104578118
  0.7927983975739942  0.2406591124519032  0.1456017385373242
  0.5010513045630904  0.5308176627708276  1.0081378258912201
  0.4737727466323040  0.8212659947990797  0.5375835667783618
  0.5671454143739404  0.7996979153305039  0.0091424109912124
  0.5111905946510229  0.7556094996198318  0.6183665101811240
  0.6103860936890204  0.7979370818483026  0.6397588774877715
  0.4083205346763511  0.7570132111913102  0.0234943557947936
  0.3629270564741187  0.7737427430405084  0.0609718070276375
  0.5732480897803131  0.7769932170912474  0.7418173709412961
  0.7679273560584735  0.5135164562775579  0.4956187583010520
  0.2244145126453443  0.2217605274774558  0.6875171681407204
  0.2406540937596269  0.0800832385912485  0.8913870323442702
  0.9164653815333448  0.4097610421170476  0.4102845823767787
  0.8498013793209931  0.3368470700878304  0.3629871494345298
  0.8032083024659975  0.3661579644870972  0.3336073506996979
  0.7604550551837314  0.4571663271696240  0.2850981945614843
  0.8159036846498829  0.4732452532172449  0.3556340868633866
  0.4056250368908982  0.3880764685623873  0.8948227317351427
  0.7708782069788852  0.5501518344488904  0.3728368626621628
  0.4533347894232985  0.4391615023653242  0.0130408899884186
  0.1555733191252664  0.0282984456461340  0.5840819599677430
  0.7901757412251383  0.2264376407753509  0.2079168699359726
  0.4346258868320913  0.9332055437149998  0.4353172899634675
  0.6601890946610162  0.5042596625869358  0.2916402319034169
  0.1743532210255238  0.9265544035435285  0.2206237018271487
  0.9015763644584195  0.2879914543900213  0.2257576915814870
  0.2492673340838440  0.0668573893073093  0.9556100913029740
  0.8733689389824991  0.5308175941894938  0.4713922212303949
  0.6150069850689748  0.5492172163051711  0.4340530679279512
  0.5896174766742893  0.9005355619098216  0.4997219626432788
  0.6441922763180143  0.9196743865964128  0.5701887906221684
  0.6501680229415323  0.9779173079818987  0.5519985861503572
  0.6404983529320215  0.6564543088326488  0.5164812713823055
  0.7371334643735561  0.7187272007318861  0.4798480016773197
  0.5405329563926251  0.8235061968927798  0.5566416324424651
  0.5874358637367570  0.8815105168563758  0.5628712735019169
  0.5407628826158494  0.9306089522716315  0.4713102720888172
  0.9500678386017016  0.3276495787473289  0.4656874845232169
  0.9569191282614927  0.3901651662483546  0.4507332628374115
  0.8903081818086349  0.4084778220292392  0.4942697921787949
  0.6150533739113745  0.9452570852499631  0.6690187270352392
  0.4894745220177941  0.5764576382182719  0.7201315140466792
  0.4524359636754042  0.4923284362695392  0.6133353103750115
  0.6244348008681421  0.9347589228332990  0.7344073852680322
  0.6319664176006466  0.8038408172080144  0.8671305733892770
  0.6153327691625669  0.9805336637601331  0.7748155726854854
  0.6360280066202071  0.8418462001993151  0.4147231237036689
  0.2003344572439412  0.0919500597387800 -0.0092639502235181
  0.1867677988974547  0.2064674792924139  0.7915367978530159
  0.3055684661948350  0.1923695915985985  0.8333118112665799
  0.2098236169990469  0.8117249457974708  0.1673472142161829
  0.5389175221987627  0.8705129429125017  0.4871261322581754
  0.5866775938698833  0.8553699995278592  0.4510281707647608
  0.9965628963977212  0.2127413100892351  0.3448359570064358
  0.3769610249890366  0.3284163531766876  0.9492353390452977
  0.1672881606815082  0.0141310356533908  0.6447151619800369
 -0.0010299226794077  0.2411018597133062  0.4523783354086283
  0.1578417583756145  0.1059242183660401  0.7400841433915363
  0.3074703879459668  0.1592933999512904  0.7286844827416633
  0.1806618209264292  0.0541640572866480  0.7609423635487771
  0.9534080476915255  0.3402956585961020  0.4055634651434941
  0.2192911707714053  0.1360454178453024  0.8711577057777324
  0.2776349514058691  0.1290928493092622  0.8938400371380578
  0.2657487641357759  0.1720040015598887  0.9360998588317416
  0.4102764480547219  0.2252095954307451  0.9194882589846359
  0.1935228807294836  0.0421019722460269  0.8262280079281978
  0.4755550746805640  0.4344926710298859  0.6310321947393709
  0.7156308757094937  0.7046832628225268  0.8019928217041594
  0.5555532119426946  0.6381993757533561  0.6551548406863449
  0.8198900992299877  0.3135439163859421  0.8748703639192301
  0.1657059775975377  0.0605044912656403  0.6944390011424896
  0.4524751251836803  0.1165711016441724  0.8951052521318461
  0.2470464758362870  0.5805950253203170  0.0770544692962130
  0.7982634483899829  0.3216276250710148  0.2937635931818852
  0.3505232594149558  0.5813846651185041  0.1112180493416473
  0.6011302902679345  0.4266799559767687  0.2406067297904600
  0.4067117755071317  0.6072362467749287  0.5753069209723161
  0.7088410563354161  0.4414316309148993  0.2138994121243836
  0.6074524297092411  0.4885693782560767  0.2214535900311691
  0.6101775528962716  0.5345306206902669  0.2658836538721178
  0.6680465452477451  0.5810631404850933  0.2122437988356378
  0.5770192041011400  0.6133229229342139  0.7779009281985122
  0.6146661050295898  0.6620905599054786  0.7807885089550624
  0.6272357614538964  0.6496593050335565  0.8414937393442837
  0.6529680380547236  0.7129586472953300  0.7818426387883887
  0.6433316422940180  0.7577541773647309  0.8238574770308854
  0.6153582569747857  0.6957921888228972  0.8838539106647443
  0.6761781052806753  0.6879433238378136  0.9041108328324144
  0.5185383865141268  0.6731655709498596  0.3623917249233795
  0.7231067047576155  0.7296128978796883  0.9657641616588158
  0.4764375162292172  0.8114265380225281  0.3695129578214713
  0.4211565941748274  0.7978085126926898  0.2978284996137902
  0.9692957247195967  0.4324910146566213  0.5040084034154625
  0.7154777298575815  0.5017753862877573  0.4241454758336378
  1.0281781422086387  0.0033140884431119  0.1998474674046877
  0.5370255510698240  0.5954269803865336  0.8799493678166068
  0.6916990543995907  0.7621429849457042  0.7824346201458194
  0.4802312357850012  0.5547222698293198  0.5564127872241647
  0.9391679240879168  0.9833291304928072  0.6571361114492800
  0.5804223856712190  0.1606826373081425  0.6400745070883588
  0.6634483015941479  0.2505036954619841  0.7268875781681788
  0.2939340425818653  0.4996000537815589  0.0570132562141637
  0.5312862776041402  0.1222004933896864  0.5780858087864666
  0.4541233615381917  0.1490842653719565  0.4929184464258644
  0.5016072160037625  0.0502067811122395  0.5302372022904213
  0.4411962131380606  0.3204280595181984  0.9754706986212152
  0.5195933641109933  0.2257844495783504 -0.0041338894771873
  0.8157165368853624  0.3306350649591999 -0.0101721841604163
  0.9401632081114383  0.8283500119390300  0.6133128641076174
  0.4860998135210003  0.0055206074448241  0.6646556779977418
  0.8755361842934329  0.8428594608440146  0.6065315891639587
  0.9525342830513629  0.8787047373481937  0.5125617810318301
  0.8455302521767910  0.7736259247879225  0.5039030250625409
  0.9647581311662957  0.9415942560538927  0.6060862926470150
  0.8646755143001676  0.9847926254033577  0.6345976150297139
  1.0089477338418185  0.9452038120686721  0.5557813125508537
  1.0482267022586051  0.8363304189576272  0.5225046454804101
  0.9740638636206665  0.9381767904466684  0.5080323160390731
  1.0207094892142896  0.9874875180032453  0.5004231630527346
  0.5087037611577107  0.0582764169007736  0.9821320232433532
  0.5501356855219099  0.2168836937216874  0.6423431095247667
  0.5594739334373958  0.1207627913815655  0.8754914482685288
  0.4829051403614236  0.2339151284343654  0.5617465639778130
  0.8531172876424507  0.7657220436435475  0.7278349860987315
  0.2699321886629854  0.8907333640210768  0.2227898018587128
  0.5834683314954792  0.7962460603297957  0.4631504993157702
  0.4642157240738100  0.2318413433517938  0.8805127676469411
  0.4651041040673576  0.1939228223710166  0.9991454211570218
  0.5081924840018263  0.3658734592727366  0.7082329550669206
  0.2139032321261394  0.8213643022365625  0.0995063706926654
  0.5062100907741376  0.3976081256347233  0.8152844484994848
  0.2241952610485222  0.8790776551809426  0.0714509136803595
  0.6163466671263885  0.4276267029837284  0.9017404337766001
  0.5166297066574550  0.3868008674237197  0.8748221559728089
  0.1807615117938821  0.9413715555996310  0.1545588199415399
  0.2383637791386202  0.9849340346633214  0.0958942536191748
  0.2967386040181040  0.1380268097425305  0.5605332392459665
  0.6783116867821506  0.1507246043915301  0.0227001987855588
  0.3059640932662571  0.1238589400806626  0.6235921432366289
  0.3120041752931526  0.2781723850806602  0.6531390197275273
  0.3441388494945573  0.2089785440252089  0.7326316193441341
  0.3923908747992162  0.2481506254334941  0.7979076701022140
  0.6590345511447233  0.2836901742857870  0.0008366234372899
  0.5622194820735185  0.2722003437793841  0.9133458443688731
  0.5545507583769943  0.4436005073334148  0.0484935333905654
  0.4885056448306679  0.3270078231280512  0.9322487298596241
  0.5039336888862320  0.4566098444554865  0.0846282284854645
  0.4262369200614653  0.1781575958843289  0.8743211634779138
  0.0669615783649675  0.3349448093880978  0.2082405204228461
  0.5570047339729371  0.4878595485536312  0.0909554790453613
  0.4557320265815196  0.5819972997942029  0.1439699974889006
  0.3902059301782205  0.3480775959923532  0.5549406240575792
  0.3600000786072773  0.2837026694028768  0.6146247391804144
  0.4574339199289894  0.5967879029338080  0.0837196127437924
  0.3048176505593736  0.7444972402227119  0.0472476427870017
  0.6657327945395368  0.5707409779836972  0.9868461271010686
  0.5623872593388001  0.4896613167186843  0.5979783850007497
  0.4704303222727346  0.1641750073590316  0.3460981181903865
  0.6241618922457621  0.5152563344226302  0.7201472270629035
  0.5621915593250416  0.5236240825138128  0.6983531318776437
  0.6332698682955002  0.5017291111618820  0.7798952141826363
  0.3047254889018384  0.6300055284684951  0.0255946088235531
  0.2525936727743411  0.7080250907828752  0.0409529421279603
  0.6818765825887396  0.5408695672020083  0.8438069391341846
  0.7097062005489235  0.5854739404949185  0.8813956333493973
  0.6494135766676306  0.5921503890185279  0.8611552628000463
  0.2423053474230700  0.7656490778758723  0.0208609540966971
  0.7191003472860072  0.5744669657591204  0.9453542780241053
  0.6987236542221319  0.6292695615179543  0.9253754802407207
  0.7401326716797609  0.6770844296186416  0.9855664520728834
  0.2002755188217070  0.7791167390313306  0.0597699083296292
  0.1178326673082006  0.8756297452067182  0.0445064711330760
  0.4541242749802060  0.5356975296024089  0.0997936817986558
  0.5716434746042668  0.1350484056501726  0.2775909652957545
  0.7292525052169000  0.2563715060523149  0.0026349443816844
  0.8092843451765622  0.9114959554004549  0.7955633949997248
  0.5575864499780209  0.5178006402015040  0.1955784677796834
  0.5348305283134389  0.4605068433575715  0.7579899118588528
  0.5826351080415745  0.4976782913456993  0.8201420593462481
  0.4045251061626508  0.5873459049933021  0.0145875619170013
  0.6927135649126125  0.5314371987930272  0.9037223457759355
  0.6319696667058455  0.5367540511752739  0.8836410337449541
  0.3007056217628442  0.5698093102365023  0.0436421732514449
  0.7160787011002524  0.4562433088130162  0.9835824011548003
  0.3564794052472999  0.6483448375100984  0.0934082687103728
  0.3321150070015977  0.2033345411781707  0.5048345084472682
  0.5815379017781213  0.7338313269174592  0.7003132626347002
  0.4092902986215414  0.6769961366584842  0.1033511258635299
  0.3796838250684506  0.1404099666817703  0.8117633554102356
  0.6466033420310766  0.8163609846746701  0.5372195822590942
  0.6949203023674786  0.3020215889115700  0.0893730963283698
  0.7043030166110791  0.8787492678210395  0.6121713195082378
  0.6532090656430076  0.8462436811113305  0.6452138281431130
  0.6604825790663074  0.8336511483337496  0.7044221184103433
  0.6036756141751820  0.4402550119105910  0.1789328302440998
  0.6972402845552531  0.8825782442638971  0.7055278118099164
  0.7978893820137085  0.9237101498782541  0.7339622149722325
  0.3751151390008372  0.1739292550362444  0.9150243999769924
  0.5942047354021127  0.4533623698092332  0.7784396920857686
  0.7985447225073683  0.9563563822370704  0.8397186559536902
  0.5376528445980856  0.6709986737097333  0.5339851401805631
  0.4123541320826428  0.7238095283490480  0.1472166385295279
  0.5653563463131485  0.6437109246346845  0.1615716412614417
  0.4127622237525615  0.7064371343679924  0.2063942166559485
  0.4155650816656869  0.7523446352274465  0.2521884193963900
  0.3706201360208549  0.8297133217299260  0.2731496812781971
  0.7315249352366651  0.8111192430382763  0.7868780573107489
  0.7095730975652939  0.8697855783451655  0.7695476166148169
  0.3246305126323124  0.9236702485347963  0.2321691841869568
  0.7495364249695695  0.9197741849275300  0.7731976898081350
  0.7689537231820676  0.8929051641393612  0.9017208438401861
  0.3301564312133619  0.9688918875263910  0.2781483613378232
  0.8689092595142195  0.9269913463945535  0.9266262098285012