Cr N  Ni
 1.0000000000000000
    38.6909066207142374    0.0000000000000000    0.0000000000000000
     0.0000000000000000   38.6909066207142374    0.0000000000000000
     0.0000000000000000    0.0000000000000000   38.6909066207142374
 Cr  N   Ni 
 1596  50 3725
Direct
  0.9650753592948770  0.9023021166228830  0.9698024951748312
  0.2296142629766313  0.9851632886910707  0.4072097847770101
  0.2576795466752753  0.0184983860030371  0.6482716843862706
  0.0616312034076053  0.3871934822571107  0.4835434401469027
  0.0121254472306687  0.4131323826764380  0.4564265356607595
  0.0295378962112857  0.4694828031963383  0.4272791836683170
  0.0386537345446448  0.4524804827743114  0.4892007182260866
  0.7885153535022655  0.9369443038920826  0.6724069104898235
  0.1612622615558797  0.2323726774149946  0.4465515936544973
  0.5681874079032173  0.1005708866095666  0.1702620458628741
  0.2476204616066892  0.5884975119843906  0.4717532170387451
  0.7139714348584276  0.9404775855030856  0.6460633770018847
  0.7333536558979523  0.1640409304258801  0.0914554631029829
  0.6996668039841225  0.9454978225023506  0.5859307389134302
  0.7016320955225095  0.9640672119360464  0.5199668399798064
  0.3613122708939644  0.0617334934483433  0.9360194843274965
  0.8347023349969871  0.1196229954578892  0.0842007359746604
  0.7827372020908491  0.1338059110577957  0.1186588496182334
  0.3006193094175141  0.0707801361897922  0.9137030249267812
  0.2519543497591276  0.0343944343978360  0.8500183378683510
  0.8293816744052874  0.0735715054969307  0.0385444962139786
  0.3621937355725857  0.7349261873745885  0.7386231776177290
  0.5222730138452543  0.1470833706732829  0.3104133084910439
  0.2279554057619753  0.9130312619294669  0.1827162050540087
  0.4724049663061722  0.7667801964390027  0.8250965235057063
  0.6111291513600606  0.8601401811236102  0.8483435467002726
  0.2251884886112760  0.7081880673534620  0.9174052951343590
  0.4498150424737694  0.8240691416249658  0.8086288621010835
  0.3034593355552980  0.8069947898893299  0.9385526486370975
  0.3989356244731261  0.7847527795264052  0.7427713195707745
  0.5621323757576199  0.8237689016853114  0.7880100784738781
  0.7907205750318353  0.8111778142105053  0.2484850357376131
  0.3405475252776064  0.7789268956808066  1.0021297020584785
  0.3026600620969006  0.6728066087104035  0.5141420782332542
  0.2790017113513056  0.8617681705249757  0.9795465098406767
  0.0383328598923071  0.5652772869526073  0.6261993466901566
  0.4503696240670969  0.7608434760062647  0.5943959537714404
  0.3632008694268350  0.7028135182129364  0.6312455868077191
  0.0544958119353375  0.6516141559789967  0.7066089106716347
  0.0385219763477261  0.5963439691612343  0.7312723006727256
  0.0872584553254140  0.6011866378130541  0.6914450359392912
  0.2531170091363515  0.7699304051204103  0.8620522697759984
  0.1819345982593023  0.7884929362462285  0.7780295672420500
  0.8373799923601798  0.6852869078556985  0.4115993018607343
  0.5907811874873135  0.8468749596799896  0.9598722786825081
  0.3815794578628719  0.9480663979682761  0.9847232586679635
  0.2335977936993721  0.9550283177293479  0.2217578574490484
  0.3882552849994538  0.1248629197968317  0.8742877757073700
  0.0119683812312847  0.9315328087548195  0.2888317021655106
  0.0030126497857173  0.2766586669988573  0.3271376832145928
  0.0531250622157746  0.1947110660829046  0.3087346979679913
  0.9231999926154744  0.3409900795933921  0.9676739628339818
  0.6536282402234134  0.9910358434435502  0.2539413723561243
  0.7859122846516763  0.6983635348163298  0.4464960986454836
  0.7261883089850385  0.6250433558380384  0.3894964436027625
  0.3338287307807702  0.6402332628117433  0.6911102343521126
  0.0762758685442565  0.6145230130042115  0.6296221278167620
  0.8274046329004306  0.5792260347592209  0.3824709278293937
  0.9304511761791822  0.5805425143185580  0.1906779704668762
  0.9856903197947513  0.6117225225632654  0.2016778410136246
  0.8769246658689158  0.5495344502394598  0.4119058300957861
  0.8714208307677623  0.4871951660481109  0.4262135486857627
  0.9284742783266516  0.5340659710787946  0.3781774299072815
  0.5488219541595243  0.9264657981039920  0.9853681469116148
  0.9180793590933098  0.4268217820995276  0.3505060016439995
  0.4205496872420865  0.1804521600597745  0.3824283488802619
  0.5132936933442642  0.4847286117955016  0.6345407659860151
  0.5997865651323289  0.8731640000543130  0.7868199173752326
  0.6420401457517502  0.0209532169388755  0.8117751880147347
  0.9387485542203676  0.2147417165760705  0.9787719272727831
  0.9326020527675182  0.1770449519984999  0.9304283885800411
  0.1044868589025662  0.1965432306383124  0.2123903645559223
  0.3199689187508289  0.8792342164037416  0.1891568121712602
  0.2691053926696462  0.8903421414941725  0.2220910382613820
  0.3934718126468056  0.4426159021379880  0.3351174096303171
  0.3139832175073191  0.8327454364389317  0.1411112343082732
  0.2288074044031861  0.0579832614478518  0.7221037342391271
  0.3008830165374424  0.0394409346148679  0.8075664078393925
  0.3653074042176097  0.8017043469910257  0.1665218933225966
  0.5319190393789249  0.3659072616975586  1.0009783634944760
  0.4678830984539106  0.1978162841007649  0.9998432301462410
  0.4707896109204222  0.2197921755143672  0.9459939779025955
  0.5715964117163641  0.1356744342401688  0.2764373945699757
  0.7318563983510749  0.2555117019250825  0.0035696614265333
  0.4236894520178746  0.1743540309268148  0.8769682581719073
  0.0679791977307915  0.3346574167202933  0.2081375100608157
  0.4637935284001847  0.2274641992462396  0.8807966209615101
  0.0523554294630924  0.7944445076793869  0.2887155774831992
  0.3503976931594215  0.5518826150455945  0.4547661113479662
  0.9714624215420792  0.0299415996237719  0.4714488780171351
  0.3270820504985922  0.3380001019895345  0.4156635664246826
  0.3733237604981099  0.2731646390379285  0.3363294807035382
  0.4420403129770061  0.4122769974895658  0.3602175105216435
  0.0928596573602344  0.1085527351309380  0.3610152733903425
  0.2264514626418957 -0.0046098332790526  0.3468818296166249
  0.3423368421354260  0.4731787776612352  0.3076677703523633
  0.0126983618536397  0.3339450858524496  0.3057323345114732
  0.0654590030034560  0.6391480857127797  0.7676810436553730
  0.9800144087974574  0.5455070555927748  0.4490846783834501
  0.8363677282051182  0.7338761810991334  0.2301421219718466
  0.0110358700258094  0.0114380399090397  0.7058502277921735
  0.9296447800096653  0.5690349215308593  0.0189552921476907
  0.0681861234496178  0.0504574326165656  0.7755777024208310
  0.9063887542585701  0.9264873241489183  0.4879423577985553
  0.9115773574232262  0.9476122246594332  0.4281519629620992
  1.0063910011203638  0.8334661462875547  0.4344891454192443
  0.1606280264637381  0.9927753069457367  0.5326909342779306
  0.1842283241873213  0.2382028395664861  0.8939056395729983
  0.8166801249032385  0.4568834026397770  0.1902434175160064
  0.8661870837761768  0.4264115800241358  0.2157570113909710
  0.1603928964558524  0.8734554481099334  0.5458628562449198
  0.9118622896353120  0.3528759858193916  0.2045644404364723
  0.0369059369424859  0.1560575104205972  0.8016860667912002
  0.2334542947199025  0.8868086877087183  0.5560058362176157
  0.8570703066612710  0.3679318585130998  0.2374879806708516
  0.8427608937414420  0.2423334559555652  0.2788439844381302
  0.1087189673212641  0.1013904340495309  0.7797209734096809
  0.7207249861075533  0.7859630974170583  0.0095979194910398
  0.1167471680863946  0.9746124305962979  0.5783196021252778
  0.9531572740129836  0.2731461028244958  0.1905485759194301
  0.6129091363403852  1.0001557773813685  0.0394466233782700
  0.9472632782933305  0.2095271329515523  0.2101708161722610
  0.8238331946804552  0.1529891854880822  0.9030246024883879
  0.7937713099399131  0.5049415017045430  0.7225018916093910
  0.1353952208356364  0.1629412358636905  0.7200898591476019
  0.7232014787505386  0.5972017730119998  0.2848062975899881
  0.1207235513812239  0.0935982911372426  0.8455066424321505
  0.0613986317411331  0.9867169819988655  0.8718943745342352
  0.0529601855947604 -0.0120295851071933  0.5552147342181932
  0.0562090232234561  0.8158681555379816  0.5900423107939682
  0.0466659169421904  0.8650430908147860  0.6256008951883372
  0.0018834835967068  0.8119172503417282  0.6240289369668368
  0.3164614770888715  0.3183134225471483  0.9919513017526058
  0.2666160652747644  0.3251605662374194  0.9641222197235233
  0.0467961546096355  0.8202732802261006  0.6743500716832352
  0.3077503724685305  0.3438487993182974  0.8658530576449320
  0.2330685847547737  0.2436769400423386  0.8535231335540173
  0.8377571734039246  0.7416093130480415  0.0072623528077308
  0.4303233270316082  0.9226904431177237  0.2672616529367735
  0.1759442924871125  0.2193621101335437  0.7240341938453513
  0.2230079693702637  0.2554599775443882  0.7933301256199552
  0.4804092497512892  0.9070808765155385  0.2308526294874295
  0.1226067937449359  0.2130704667002904  0.7671382289236284
  0.7520604447147080  0.0192266038109318  0.7930117971746282
  0.8405447150703179  0.7957546438320573  0.2156389656742098
  0.4340228445491693  0.7162479297552170  0.8215371626561006
  0.3841560393982448  0.6766610393369199  0.7564117464940544
  0.6165364938199190  0.0436244150039837  0.0862326883402260
  0.4825525670933490  0.3737958149508392  0.4576859528473056
  0.7371464630481623  0.1568300042584573  0.5917482701047874
  0.8583002540278264  0.3629259149846164  0.8789577251462370
  0.9182509787395741  0.3554334110244082  0.9018248977216768
  0.6693545911677433  0.0441721223934615  0.9852918763473828
  0.6872979968322771  0.2228745607654368  0.8468860557374036
  0.5865973167108580  0.3043848304253864  0.2805590563371643
  0.7141765540126866 -0.0302433074233740  0.9735961473028373
  1.0056968234234727  0.4414972982720377  0.9711279400007752
  0.5569494654249083  0.0851078901334592  0.5404869238614697
  0.9734516248816758  0.7175287312133006  0.6708892502506666
  0.5074113404522420  0.9797026064223382  0.7936604442245794
  0.9439136783312930  0.1629589162779143  0.1667647060510390
  0.7313184239551337  0.7029883622398891  0.3150555735857265
  0.3553516137453437  0.6148900835988368  0.8161918377847648
  0.7912119840631919  0.8033081580831540  0.4868323158099251
  0.0699628212396009  0.7329567597395583  0.5848948584556171
  0.0820279869787059  0.7152476224767281  0.6479792847231232
  0.9320552273869034  0.5967309993519151  0.1302041822149519
  0.3757693039586820  0.7562813006947229  0.9051287255474110
  0.8806198400820048  0.6449539243518848  0.0410484609758536
  0.1801441327514415  0.7578796034402905  0.6738822056698759
  0.8331333939856120  0.6217869377304204  0.4288585216398050
  0.3458436857913495  0.6600799848928163  0.8579904561253366
  0.3336374719387672  0.6721426292714614  0.7971242332798455
  0.3527599476938032  0.5972506414743710  0.2744676864094932
  0.7381250749985262  0.2637466560774350  0.4085658428573350
  0.6151639310994277  0.1203970523431728  0.5454415574153432
  0.6338746485147012  0.2942825757810404  0.4783579573176157
  0.2129378711887621  0.8285746067662404  0.3346461978599584
  0.7369378033402620  0.1940559735881708  0.7001463413208561
  0.4832398510836844  0.3033217133437345  0.2456536344108699
  0.9839726200378361  0.4706806407592202  0.8479619796783413
  0.9344443438967818  0.4643592992604684  0.8861435741099949
  0.9956496810226022  0.4574739033089163  0.9072493278933449
  0.5388960016500283  0.3338949164238220  0.2515393042360747
  0.4440983943812765  0.4277138641120957  0.3018422805268123
  0.6736389138533524  0.1586769189791579  0.5622428981499610
  0.6477404413934154  0.2216225052194521  0.5638027819814666
  0.6616574256471698  0.2098575112993014  0.6202965610751936
  0.7243662491091422  0.2051160478938817  0.6399979587888789
  0.7010038155922892  0.2611094389319724  0.6244420021232362
  0.3439724075171768  0.4880555708726320  0.2479665956172678
  0.8117890935800564  0.2946809843511353  0.7087754599824853
  0.8716851079535992  0.3189420238738260  0.8338857940244059
  0.3531161581224587  0.5815143833534884  0.3342365540077401
  0.8107090525312963  0.3268090488731498  0.8162383452116325
  0.4029119910066666  0.5655981787973254  0.2991364220026690
  0.9078673972983835  0.3687376960484894  0.8389836025514413
  0.9783881426161807  0.5727410521918888  0.6060002466689969
  0.3900684075143450  0.4116705067229832  0.2321066104441478
  0.9670670090630431  0.5862745625063720  0.5483324611905189
  0.6720457008150793  0.1596273735845083  0.4863964973525520
  0.7871598673300076  0.2328895541387170  0.4362855081170529
  0.7767056907728916  0.3961323064652582  0.7370994942315399
  0.7839519277780148  0.1871046738883417  0.3939648380940217
  0.7289725511589341  0.3589557024271238  0.6706678752892180
  0.6695249074628108  0.3656304301480727  0.6509749152515432
  0.7195010063427614  0.3726604391291041  0.6084517857404784
  0.6804747645223971  0.3215703297956277  0.6053244423901230
  0.9854077996969403  0.6053272819203203  0.9731599456721478
  0.9184103466019017  0.9891856591729640  0.4768423971593507
  0.9493100918421337  0.5733243007368651  0.8726341425564809
  0.3213614206164765  0.8536781789108301  0.4773806595138033
  0.9012235101908620  0.5353683219132233  0.8060512325369802
  0.2667171321636141  0.8191770163228912  0.4696216009387649
  0.3613799300269720  0.7058860200696558  0.3035731515915488
  0.8861144113082519  0.4269846196574759  0.8216527041155692
  0.6767398512511581  0.2013368902678844  0.6783298095192769
  0.2648001403747473  0.7967992997439065  0.3608850520019152
  0.6373203720572025  0.1520383012391395  0.6705287112526472
  0.6300838055304756  0.1592806621355461  0.5989378428526420
  0.2087276182613473  0.7674962336793869  0.3496547918974348
  0.2473922709632394  0.3590579909400838  0.0112729208052877
  0.9439657340012954  0.2350820488747399  0.7037631987662284
  0.6916445573760404  0.3409183675216951  0.4250157751230869
  0.8646390849240246  0.5162909814173968  0.9112616282138555
  0.9203433909191808  0.5078074957004587  0.9275529242763537
  0.9687125335347001  0.6912627216701612  0.5643157739402361
  0.2087069780837031  0.9186668563377611  0.5005431563162887
  0.2187786571997032  0.8579258774459444  0.4372900932403521
  0.7926214511844130  0.6750770250070052  0.5076759726570869
  0.8414894720906588  0.5107593705322334  0.6843841490546951
  0.8907062037583917  0.5480612423706929  0.7472864240958874
  0.8922169768181862  0.8077377381168652  0.5100306929583515
  0.8307142438239743  0.5554636034269214  0.7271325986456099
  0.8948915966094771  0.2258594812104388  0.4764643805172668
  0.7493104929502443  0.3338331695881615  0.7934142044378866
  0.7018841428082000  0.2961705486193749  0.7308942357026490
  0.6414215966745890  0.3046264361820504  0.7093601274155128
  0.8321871980665619  0.1452110952240656  0.4804475879458300
  0.5905659091456416  0.2652708137700421  0.6443810257757080
  0.8694490444005524  0.0732033155731815  0.4801076163586637
  0.6416481949020615  0.2683705183186263  0.6035547994844384
  0.5405074620141159  0.2210490608006716  0.5834863268196645
  0.5473087743329096  0.5040660473656562  0.4776563626336626
  0.8962770112006259  0.5697416550696240  0.9059178985276624
  0.6539925120863219  0.4579247084766969  0.4717719652829861
  0.2701455826024041  0.8860073379553436  0.4639436600312302
  0.6597026056903059  0.3769479589265863  0.5851745130560733
  0.6840673322604046  0.4414078931302563  0.5325694878019417
  0.3059708454463994  0.6584984170177552  0.3548099471099644
  0.4815371215658241  0.6617615552663726  0.5125005170531662
  0.7135051121852175  0.0037751847889915  0.8961846554194592
  0.4079027328311540  0.5967307157365457  0.4056711196898082
  0.4542133182263610  0.5358297440514092  0.3255430534602776
  0.6748246609631288  0.1086724682532936  0.9178574746954030
  0.6949759262280732  0.0570212715210366  0.8817057281927454
  0.6210136946393185  0.0777015514445226  0.7931329683369556
  0.5486538701311637  0.4280281075972308  0.3360089245366783
  0.5699783769361041  0.0413722686788860  0.7269143565774909
  0.7934178711962102  0.2525415091657215  0.9278096099729545
  0.9576183769150537  0.6751889610157539  0.8925975560626042
  0.9962010776026269  0.7223103535634177  0.8992323531044112
  0.7702712462564968  0.1548219429256726  0.8827193340109025
  0.6987712626439373  0.1771188925670937  0.8011499587439140
  0.7202565048823687  0.1212106266089374  0.8176055910702238
  0.6492149820780277  0.1406042124978166  0.7334906298478155
  0.6590922740093893  0.0954782553037570  0.6899416386767971
  0.6787953323908933  0.1509790333140665  0.2516814447112325
  0.6092964952300545  0.0526139704734557  0.6255700132465560
  0.4745870496032238  0.0144752604136720  0.6006859437140144
  0.4374419811815524 -0.0387112360658885  0.5439388572787425
  0.6096346971260634  0.3698888140863762  0.6313167474779321
  0.7451286794656532  0.4344043631763817  0.5591522888736195
  0.4124513066267624  0.6582561784024509  0.3898784261583651
  0.7498762621736750 -0.0143074038867298  0.5895958521574852
  0.4603796977662750  0.6260702543952196  0.4149046606154815
  0.5074287134884280  0.5515982495916075  0.3960697322797290
  0.5058387784116843  0.5367641641676477  0.4570961299432170
  0.8548094557438874  0.6185195483120393  0.6688008400946113
  0.7900347481321990  0.6207908365869075  0.6776447733433972
  0.6017930792680010  0.4433266296320764  0.4023777051485676
  0.5920597955940081  0.3823440374586983  0.4275705447032188
  0.6334874308445848  0.2613529854670815  0.3727829276082151
  0.9237823308317391  0.7124767307439637  0.7089891202119669
  0.6801244184888651  0.1849670345646871  0.3583095147879353
  0.8564151881618108  0.7333845066228860  0.6254962609531813
  0.9062840394211185  0.6242104742324466  0.6281202547284473
  0.8234306399226066  0.0610679523353572  0.3391586932918844
  0.7717168123882839  0.0794862807359759  0.3748799972343118
  0.0420896318471014  0.7338114236050762  0.0772433947205763
  0.9669483114555517  0.2090937063935508  0.8260333318324751
  0.0261218780778147  0.1690297456511929  0.7401533054934230
  0.8787723244490525  0.1223240925159715  0.7561574676380818
  0.8680922834089139  0.1347396733501544  0.6947734048401670
  0.8295713556826250  0.0849732817399448  0.6921470702101142
  0.1923264577737114  0.5054126802314926  0.0207397737379071
  0.1900814369761289  0.4371146887634477  0.0358891709751399
  0.7566810167932186  0.4218436098513411  0.6146717004396043
  0.7103696923691352  0.0045086841076181  0.3234708092240877
  0.8700766552400108 -0.0454471073840217  0.9801007209758791
  0.9297416601037362  0.1069591393065741  0.9434808429575601
  0.9979076562349668  0.1346578178829976  0.9088200061202167
  0.3676561081909890  0.2450197616186947  0.0608183050565162
  0.9497966716077371  0.0990784076009755  0.8376999965057089
  0.9097557910045532  0.0525219538354748  0.8394078337717032
  0.4153410758086175  0.1597222752353561  0.0388944785853539
  0.4126244501770466  0.1104665655336431 -0.0024551303023863
  0.4592144079413723  0.0783019260403957  0.0220393738350408
 -0.0052522516082180  0.8128312164095135  0.0971439258178828
  0.7715842078649141  0.2120679278757555  0.5976800783138343
  0.4699239440435238  0.1674666604021350  0.1146004779118935
  0.9353611084122156  0.4314331254068778  0.7822923581567844
  0.5107378087729803  0.0444772523328964  0.0471012769810433
  0.5143668186878356  0.0886192178688853  0.0946433288852302
  0.7071855458969774  0.1125088264533329  0.5851223781354428
  1.0063004605559569  0.4140076174219759  0.8642467548332005
  0.9579089105790298  0.3745221383069325  0.7967262831726427
  0.9465865245309080  0.3874622274901763  0.7361157975168191
  0.0067602465834827  0.3804067512109996  0.7568928217630775
  0.9098283307388513  0.3363950415634664  0.7320282603761318
  0.6106174320243006  0.9808146882541759  0.1041031526657565
  0.9921602400700382  0.1824570088987620  0.9511882230553402
  0.9215179035386104  0.2924510680481047  0.6885024353288886
  0.8607082738724783  0.2995848704105759  0.6688887621234753
  0.3850250065936383  0.8858062164384414  1.0010476263828465
  0.8498642523111478  0.3136357646426556  0.6072476557816808
 -0.0037317935558777  0.7944150512565290  0.1568396745267479
  0.8150410467873483  0.2155793528531464  0.5585727210107266
  0.7434362049978084  0.2399606770750422  0.5331525449772393
  0.9835117634191566  0.4369127473873501  0.7417894219611794
  0.0432035249274149  0.7186590670579069  0.1371650905075624
  0.9486992088351446  0.3550321311262314  0.6308299679630139
  0.1470508537893440  0.6722015085839961  0.1269203189926285
  0.9404711739692695  0.3659856409463015  0.5706579709087596
  0.8435319621316411  0.3255651335903588  0.5454994768391352
  0.8472983938988770  0.2508359730482388  0.5048535631623211
  0.5749228449961623  0.1677475949907213  0.1518693544043046
  0.5132808126831558  0.8492670792852799  0.9333882735048633
  0.5472454786757788  0.0050544043430860  0.3914628255053993
  0.4411577702096626  0.9131166889088913  0.0123020506227990
  0.4952388569273811  0.9389465476130732  0.0205925523119771
  0.7859316884125941  0.7169519746396676  0.3866904349650748
  0.7387744085820489  0.7799448314555607  0.4650302881180590
  0.7877087486596971  0.8253932718378544  0.1880518096718493
  0.3429318756016868  1.0102211513774753  0.9966296161512448
  0.8033653727760063  0.9322180034179320  0.4475025740938535
  0.3582788097567326  0.9639736683451519  0.9196524889504752
  0.8787385007578521  0.0136241448987633  0.9569187802082317
  0.3684410240706146  0.9187101816743067  0.8736619730905801
  0.7238103518415190  0.1430230776018534  0.4502646011293977
  0.8173275979384056  0.0865045235666019  0.5140571516409018
  0.1901641509862914  0.4870890398941480  0.0793019163735512
  0.1403329453701804  0.5643472607916170  0.0991841027847325
  0.4757218871837046  0.2289229454037545  0.1002455959710421
  0.9539852981852857  0.4764643126859102  0.5591285693865761
  0.9065286597563371  0.2168743197031503  0.8058599784064121
  0.4706956480257892  0.1836446640814686  0.0570899730754480
  0.8454297522119155  0.1913125530515372  0.6795345614431226
  0.5697153823970659  0.1187101348205546  0.1029366432193187
  0.8510674403475454  0.0277168664494997  0.7094946396468486
  0.4385204476108749  0.3507459502628589  0.1563248298509909
  0.9525663326587908  0.7152492935553290  0.4996313349365357
  0.5348771105677804  0.2883026534483390  0.2113101508482124
  0.7753549571409528  0.0577663920826873  0.9639644758964085
  0.7602582897507517  0.0571557300000860  0.9025884810492988
  0.8187755817571116  0.0948717282236040  0.9110706404418860
  0.9318836538118620  0.3119201168457431  0.8555898849383190
  0.3779081424073510  0.2716460913032127  0.1105339933627247
  0.8749509995045552  0.4384285663178166  0.7613410535016785
  0.9382277441784789  0.4933955709454941  0.5004354760056449
  0.2411681294263947  0.4665882487131332  0.0477581764376321
  0.8580428515839131  0.1478229114166754  0.6332454220671456
  0.9779497893915627  0.4687821844061971  0.0690430521001267
  0.3081397295303451  0.9264657670737616  0.8538538315581281
  0.2592540283634056  0.5905979273511323  0.6931911600411655
  0.1327436576995127  0.4499997671941980  0.6213387008188306
  0.6199804965050417  0.6621665223335162  0.0055087825060272
  0.5156067271805542  0.7149155704748824  0.0140984973368590
  0.5175099206014226  0.7558318240997410  0.0577184028883591
  0.4689147381775167  0.8351762237600858  0.0776962479360748
  0.2313226445083977  0.5281429827844577  0.7521076308723437
  0.2984404886506765  0.9386138023723019  0.7904320651473845
  0.2955094055978677  0.6225267669553235  0.7934578592751451
  0.4396740318088157  0.8914376042409229  0.0707016704288086
  0.2801670934255739  0.5648595891328030  0.8173953716092466
  0.4450241844564952  0.9550742709237949  0.0550207285973001
  0.0741420246141740  0.6862706457076579  0.5437432488801234
  0.0913401961637964  0.6748816929386525  0.6044838794748163
  0.7914529866802709  0.7354184077572502  0.4968519666787014
  0.4911562863638202  0.8759591621757746  1.0352295988810247
  0.3291257230024653  0.8700014890459199  0.8724514405279763
  0.1492986339188754  0.5266886132111497  0.5053590750147734
  0.6965577053721409  0.9186161431799990  0.4731553383301892
  0.1856550140607540  0.6123495281394058  0.6088177903060737
  0.3080801907694763  0.5956141192613993  0.6545895001931781
  0.9808177339208314  0.4815779209368897  0.4644540893846822
  0.7801815132694413  0.7188193828559126  0.1571165557566337
  0.0706404745555603  0.5247692943505016  0.8094272580394174
  0.1066541075674336  0.8415401175678811  0.2353713894704347
  0.8962649102724070  0.8113203789358988  0.2863719507022482
  0.2444895952455625  0.5504977702669823  0.1957282009916308
  0.9681516270201899  0.2373230754446534  0.9323542039770641
  0.4146950190724638  0.8045692477596680  0.0688796891926120
  0.1094652714981302  0.8723224575148301  0.9091208071920164
  0.3650974879910446  0.8192810786120989  0.1074189841080640
  0.9461785153623474  0.8290308044002054  0.1304437389802467
  0.8456998559587794  0.2249277285044752  0.1093429587363034
  0.3175342953885131  0.4810242044120836  0.9595579532602631
  0.9873730770833615  0.6429827584441514  0.0787020256685612
  0.8839042707578341  0.6901072544097765  0.0878876962363387
  0.1004160660364193  0.8511608917304208  1.0050952309414862
  0.1101663975088566  0.8414877049564756  0.8015415178691340
  0.2939041277074097  1.0005963233438784  0.1665853658170446
  0.8914486415837301  0.7987037979548769  0.1196299765834452
  0.8596186981214923  0.8744115537544267  0.0543770968028145
  0.9400176635959121  0.7826162476632653  0.0835027521895141
  0.3896888323726943  0.5639265125273402  0.8003730194001208
  0.4122102522973655  0.5065153147964844  0.8177704460211569
  0.2358206783413990  0.9598239661147737  0.9906670599373407
  0.3623222834530606  0.5008317540546052  0.8575588225102767
  0.8840924572249972  0.1005177246804988  0.0491949888394593
  0.2452322823833478  0.5662993895909014  0.1359942558750747
  0.8458955488903186  0.2239824474909777  0.7864479691962180
  0.1977118791929527  0.9273794406828286  0.8724756420005021
  0.8899607031631962  0.1473945854974627  0.0958339066654065
  0.8851790057185642  0.7523367305904078  0.0729348446180108
  0.8497412187668820  0.9033666537771318  0.2440420405052509
  0.1922381947755837  0.7367266142259766  1.0140882419986212
  0.0874868139353535  0.7330169238500779  0.9787333872458777
  0.1038653283852276  0.3661555070414547  0.5125817217802415
  0.3900518139462608  0.5316011698181008  0.6947228936470515
  0.5179699227410288  0.7384440552339322  0.1186896407400475
  0.8174124172053799  0.9673600125516785  0.0145075788267433
  0.7823584676541435  0.1665032533468234  0.9903447927881031
  0.0338072658600238  0.0294059192144910  0.0671616048036737
  0.2058324368697527  0.3987411307187182  0.5979605416605850
  0.3570352729007954  0.6020778629219460  0.6133350567908047
  0.3362305778374733  0.9490423797395596  0.0212401522537973
  0.8621213368921010  0.9204661666996892  0.1039051872095554
  0.2874538901775666  0.3669409137035731  0.7410972502872678
  0.2471075938927174  0.9666547288666161  0.9360643378302954
  0.3315901758538684  0.8740929410225582  0.1012590568244790
  0.8377715337203673  0.7667627371017730  0.1067412429284905
  0.2657762570851804  0.9116108855079669  0.9552523797014589
  0.0444209456743342  0.1195914759770260  0.1596524825460396
  0.3692179636513450  0.5567646469437206  0.5738920954594611
  0.0870622488053581  0.1270901380212844  0.6512891222924105
  0.8228740743255593  0.2815231343642175  0.7724388221763764
  0.8079488704264299  0.1752630666143332  0.7810224640611434
 -0.0203943877340046  0.0321252558749218  0.9251472791955428
  0.4250069410722210  0.5963549666252959  0.9023534813646915
  0.8211078955548481  0.5000305791977000  0.0088016193590781
  0.8708326286196802  0.4543079065560555  0.0933104333680882
  0.1509249594362437  0.3078025274993656  0.8170015526992654
  0.8250209585657670  0.6751999817533001  0.0124157658671942
  0.9576103885869329  0.3026203243786443  0.0674683709927830
  0.3712932482057785  0.9724818472703629  0.5794010366016599
  0.0236297755977707  0.1378640567398360  0.6219289014287446
  0.9077554690944073  0.3181965488941186  0.0990765594671212
  0.9022464221169217  0.2706801767385312  0.0646847793588368
  0.6272684672765935  0.8156480321787198  0.0787616983160021
  0.6769495786747876  0.8001738576195445  0.0469891312082665
  0.9424395444481178  0.1496561451980949  0.9917601675491935
  0.0494650963979050  0.2963802049152692  0.8929655711709292
  0.6641398926215987  0.8119761014325199 -0.0174641567671616
  0.3999544962082712  0.9957636113201542  0.1989258587530729
  0.1404302869808266  0.5050830579565362  0.8914619110698696
  0.1265939608736230  0.3967516567855686  0.9084689306233921
  0.1053137444656208  0.4548736874172185  0.8894797373694830
  0.8224583266694369  0.5325957373281469  0.1103943794388521
  0.1317062667013448  0.0808638052241707  0.9115622788042218
  0.8205683820224788  0.4852489666557325  0.0671321063806663
  0.4381053971176738  0.5876147422497386  0.9648968459397841
  0.2057851918085439  0.3302215329859307  0.9554471016399962
  0.2814850260780863  0.4353930453652490  0.9542344083659151
  0.1847092630304731  0.3890242194966037  0.9289631037277390
  0.9753817623643505  0.9810070339322660  0.1212173807996237
  0.0575755624616151  0.3198953485315264  0.5052236330294751
  0.5543540563518292  0.6683387187530054  0.7593523471578403
  0.7880737392435549  0.8412733133089169  0.1276378210245002
  0.5051174401777840  0.6633018414444039  0.7995796610868083
  0.8924410653512006  0.8186260689717993  0.0599127779692632
  0.0833050258739414  0.7790176868463414  0.8591204421934070
  0.0605840971370881  0.8045615283302904  0.7358961987639776
  0.4545103507762077  0.6252142380938733  0.7348857041748540
  0.1174885656701521  0.3066911913477076  0.5260611506125749
  0.2394114689477252  0.3288219309559309  0.6763337165188280