Cr N  Ni
 1.0000000000000000
    38.6909066207142374    0.0000000000000000    0.0000000000000000
     0.0000000000000000   38.6909066207142374    0.0000000000000000
     0.0000000000000000    0.0000000000000000   38.6909066207142374
 Cr  N   Ni 
 1596  50 3725
Direct
  0.9654565515957417  0.9043088559706576  0.9708766367298659
  0.7662084052610824  0.4867582259292114  0.1629288027588443
  0.8991507519517833  0.8908341185513781  0.2111344858876035
  0.8028834755311880  0.3180589312787762  0.0632803967388350
  0.6055356767816326  0.7416785700611681  0.9257876030557857
  0.8408941185923281  0.1791535938786379  0.0654906355635527
  0.7601014827044281  0.0089929795629729  0.4599634007494861
  0.5381340022470177  0.9517675694022721  0.1782494524251531
  0.7389834201101753  0.8263601880329081  0.2836868910619050
  0.9696474357842456  0.3951243069094676  0.1501452959583658
  0.2466911698530437  0.5852589867455850  0.4714635595073359
  0.3619456549298842  0.7687200608223005  0.8450154496146418
  0.2917694301299392  0.8199695638353617  0.8683244350910316
  0.2806453757494842  0.8316119202231584  0.8059592826509259
  0.3497954320294502  0.7801659404257743  0.7828926586662553
  0.2622127546978529  0.6933623032377902  0.7131112637253313
  0.8372793442159840  0.7187756623087174  0.2906910138112330
  0.9383413587393025  0.6710955828189670  0.2819389286428809
  0.4408566024044068  0.8680646370442490  0.8533382344812228
  0.1608073247432557  0.8430899577300182  0.3727944612421528
  0.3194800818018923  0.8277460839198398  0.3722587011395642
  0.3010095782761487  0.7416810635079967  0.7176231578613596
  0.6579812959846597  0.3902840449152731  0.0378118448271885
  0.2767519030206166  0.9046396129117418  0.3936415123741646
  0.4724539286903710  0.7678743327671322  0.8245991937394351
  0.6479621014271250  0.9105326653724228  0.8536316439261039
  0.2256247438340890  0.7077519376059599  0.9174464992736557
  0.4493859809753128  0.8245588380438874  0.8083410095694045
  0.3017130472100514  0.8078459251328135  0.9398262616315199
  0.3986971748838058  0.7857555726380282  0.7426846170024012
  0.4959269751310379  0.8300720330943556  0.7670216193765176
  0.7911723376637377  0.8106039820518618  0.2483531509265786
  0.3396145681078930  0.7784265709332814  1.0024044587626637
  0.3054672115672066  0.6722865661228846  0.5149902731951271
  0.2793255815827198  0.8605920777945523  0.9778647874401384
  0.0396363453083846  0.5644576718790152  0.6291342774548984
  0.4257564303916534  0.7264442391704705  0.5416231028835584
  0.3613042436062345  0.7035361881350748  0.6323991047089335
  0.0542769300854233  0.6525902997445446  0.7066849513499464
  0.0495481202549304  0.5511658698780990  0.6880279453282671
  0.0870875968693725  0.6022106355161018  0.6912924559248885
  0.2526538450125742  0.7711165242441574  0.8624032878873726
  0.1809873048149789  0.7895305391482385  0.7786106842361483
  0.8888604461265851  0.6545747696204750  0.4373235624500345
  0.5881294495126174  0.8453389203572524  0.9604088667896794
  0.3833725562976413  0.9492163577614585  0.9843752184484631
  0.3253754831887560  0.8729375701063796  0.4178838582736921
  0.5989314889774302  0.3209625232650348  0.9166250563406380
  0.0130102556813847  0.9303191389974313  0.2893636576053973
  0.4365565254926170  0.9149043931185141  0.4980664111798467
  0.9900016954190917  0.1457922414473214  0.4301276912954617
  0.6105539251914962  0.5283875672813094  0.6589040199506566
  0.9417584813021103  0.1704745402746069  0.3973378530779520
  0.5993875158592433  0.5730876988049221  0.7021157976331238
  0.8937891644817352  0.2471458561900028  0.4134566427915290
  0.6274362925004745  0.6179299377831265  0.7369163581029921
  0.6390102495077817  0.6042680093850847  0.7990165989641141
  0.7370695759072071  0.6484936820932279  0.8218904772394749
  0.8399986187194715  0.3104426339775151  0.4889872304548097
  0.8959847788211446  0.2917288893193631  0.4579066547748819
  0.7918853098819079  0.3407763106271615  0.4596178749953444
  0.7350781049494193  0.6809832382845330  0.9250068113014099
  0.8043153934099218  0.4008166532742206  0.4352636650595833
  0.5674580786379165  0.6154688305749180  0.5143398978982331
  0.7538818204619039  0.7548096411297872  0.8064942462670036
  0.5654111973490291  0.5826440488876268  0.4068727798434407
  0.7756357120356019  0.6972226658874034  0.8250285581425660
  0.7024126603889032  0.7169382350126554  0.7393122610233375
  0.5177469849733105  0.3210651309386472  0.6635379876340253
  0.6901816272908592  0.2724901661441534  0.2130653116524713
  0.6013011287921258  0.2887134224249543  0.8102213743962465
  0.0338239098316022  0.0671348150992920  0.4173628298321508
  0.2295385707911881  0.9705359197510230  0.4785590798198964
  0.9357119460376624  0.0866748011488889  0.2485722319048624
  0.8691903872022244  0.7744520975877990  0.9557854788345722
  0.4388795954616528  0.1005226806865329  0.7259526159950854
  0.4503776537586826  0.0885442308024299  0.7893253028672133
  0.4890934636573796  0.1378602319954335  0.7912552651348610
  0.5005934083127673  0.1272521139294730  0.8531953438137858
  0.4909821391876578  0.1690018205657965  0.8972996515013092
  0.8366776615066472  0.1495640732632126  0.1928975066527180
  0.5521623351515886  0.2825993311134745  0.8505781917370926
  0.5603582894699419  0.2195809225578441  0.9567815127382974
  0.7864643197487352  0.1995260378857312  0.3322977953597096
  0.8409119622827947  0.2297475509268959  0.3401596532715915
  0.4230989941451875  0.0256579880190134  0.8497133548526847
  0.4017614411189043  0.0824327975222642  0.8310033221884314
  0.3883561187526571  0.1854043230460147  0.5159265022479396
  0.7371350075386549  0.1961379498705828  0.1982199254524615
  0.6914012966385387  0.3054816008074147  0.3170711460769794
  0.4552080190939051  0.1724839714626764  0.6110902800315312
  0.7108259766290561  0.4731225511617531  0.3190214530763602
  0.3917423430260025  0.1784142441379442  0.5892760613183833
  0.5759990785067424  0.6891739139768009  0.4339239359999431
  0.5288952880931412  0.7623617576363513  0.4556721488481045
  0.8145021164075816  0.7794249838618016  0.9306088387686238
  0.4280896258808888  0.8080076141875053  0.4683537110020579
  0.8672232451423264  0.1351479610235297  0.6954567750971004
  0.8292564481024736  0.0854613609509865  0.6920503210276394
  0.8361877745504084  0.7335280516646472  0.2300107190304339
  0.0119892652432254  0.0156056055560453  0.7075651276398357
  0.8778091806362377  0.5346683894119495  0.0190428613861281
  0.0689333456944699  0.0517826389493856  0.7753694297040193
  0.9159426715112149  0.9346148361118344  0.5579750271781784
  0.9161086635631505  0.9457479380336863  0.4240898075720291
  0.0528045661668665  0.7984013432223613  0.4624879049084579
  0.1668887264718583  0.9871181641224328  0.5279248872186528
  0.1839635489849255  0.2379494580113897  0.8940485634820535
  0.8160862727240783  0.4565861866162141  0.1899977050366913
  0.8660440502657014  0.4244743098000696  0.2184222794841109
  0.1484916143304188  0.8734345437819382  0.5502298851187422
  0.9095696583477244  0.3494840979992889  0.2041502154407664
  0.0364599297494769  0.1572591650170026  0.8021852784121061
  0.2337843550843147  0.8832760403194106  0.5601495535201930
  0.8585785087469053  0.3643112671805682  0.2376167380591317
  0.8426319645386865  0.2424217033212146  0.2791363513224365
  0.1084465168345109  0.1027212741008983  0.7791684823699615
  0.7203708815013181  0.7852853249919229  0.0083790682204749
  0.1198290499944015  0.9788766099209961  0.5784739147182071
  0.9523376803996970  0.2728479104644600  0.1915714218256389
  0.6106446826988177  0.9987701970165435  0.0408191460726306
  0.9469437818003918  0.2098531042790353  0.2106920060211154
  0.6975859780149569  0.3630867583981787  0.9413685332418211
  0.9466721766481144  0.3880758635014153  0.7369284551267811
  0.1350239506236275  0.1638680761431918  0.7200310677938304
  0.7228020139618508  0.5968961612287458  0.2848800069065193
  0.1207363565499817  0.0938174845421409  0.8451012590173290
  0.0885704053298962  0.9314781738034829  0.8925383331512937
  0.0522382247832111 -0.0108904707705183  0.5565514102307675
  0.0583308627681477  0.8222060476016217  0.5818281247049021
  0.0950231649097583  0.8267169737267899  0.6338643743678016
 -0.0009560539634297  0.8213573792140880  0.6425827765171731
  0.3179355221050003  0.3335563193209216  0.9289109194293065
  0.2711469590074815  0.3256871099092681  0.9711955126537052
  0.0546823202478986  0.7779487194684461  0.6294858909400581
  0.2480238475895622  0.3514443773033419  0.8448419361077454
  0.2331463629582518  0.2443749586297210  0.8540049826973329
  0.8379312573386224  0.7405096798039498  0.0069282785497732
  0.4312159483240976  0.9217384378757266  0.2676840311345546
  0.1756685593541578  0.2200935313542017  0.7246907935889055
  0.2227200084025275  0.2559368628114575  0.7936897971141886
  0.4809579171007572  0.9062853718583892  0.2307227230371370
  0.1222547654896781  0.2137410402983725  0.7678213558323790
  0.4290385415756757  0.1125036696027687  0.6656704312891155
  0.4164903506619520  0.1235327378350854  0.6037664482619040
  0.3587964881391690  0.0854911172571002  0.5359893156305342
  0.6605477137651338  0.4658989479626828  0.9622131343691996
  0.5795093642288482  0.3443426816743775  0.7925551703780056
  0.9580854327866293  0.3750146444397616  0.7974622453071918
  1.0058113254436385  0.4142223364048254  0.8638491171236666
  0.7603224090179487  0.0581654536993664  0.9027614601840707
  0.7753034012295164  0.0577426659131094  0.9643862453586957
  0.5346885822032399  0.2879987041804093  0.2113011856753081
  0.9538685697405273  0.7152073818609427  0.4991259057886546
  0.4381266236561552  0.3502618661092555  0.1552522099666053
  0.8510711152118876  0.0284014258752330  0.7110976397787945
  0.5700467830122392  0.1187937995894390  0.1024073383076091
  0.8447224447855440  0.1917487229098875  0.6794510896562124
  0.5235505891792733  0.1688073619362411  0.0197631532966805
  0.9054545973462009  0.2193818924310358  0.8049668984235504
  0.9537563783051527  0.4771791958839188  0.5578788788485461
  0.4754619658404248  0.2271720299302426  0.1004886486908968
  0.1404745846050905  0.5626517804403971  0.1003843254465237
  0.1902552121243146  0.4857434218833881  0.0807199827739318
  0.8187807146995683  0.0851192373022594  0.5119380304179819
  0.8570250501809412  0.1455440005845340  0.6329805143845412
  0.7251273471156776  0.1428611410991562  0.4501408818601058
  0.6716043929351386  0.1613610425229741  0.4877220222560631
  0.9427884006668694  0.2363255756626394  0.7046634325450801
  0.2452362345034775  0.3605388509577049  0.0122948178293608
  0.1894153677388351  0.4365945738591336  0.0365750946748237
  0.7538769280637275 -0.0083227086467983  0.5872008202693757
  0.1918898057487636  0.5032416829479854  0.0219362044064699
  0.8217028364973782  0.0954027198599079  0.9123438370491050
  0.7073307117616616  0.1112776979748153  0.5833780568824077
  0.5152795141338372  0.0878833690683994  0.0964808857467295
  0.5102393277198454  0.0429182013442159  0.0486974581516517
  0.9358299214960207  0.4324773290722701  0.7816890947640676
  0.4680065203004732  0.1493194689814305  0.1776767963487461
  0.7699900616314702  0.2113889321683359  0.5975320821737989
  0.0020094653995832  0.8744205397029922  0.0814262184505177
  0.4530028950940679  0.0353714592375964  0.9718747967353401
  0.4137814610760014  0.1091451132629651 -0.0028296264963539
  0.4153960831244832  0.1556401916181623  0.0423476509624658
  0.9091190276666020  0.0552545618983971  0.8376716391095543
  0.9482441590325684  0.1026721824835946  0.8407325922983871
  0.3684296743374727  0.2353572686661705  0.0626110147327969
  0.9937292192336905  0.1389471764221131  0.9055942811679188
  0.9353615818749370  0.1078841720708134  0.9303405837110359
  0.9896682874864955  0.1870189937170349  0.9510091834316851
  0.8767295738248252  0.0149205217352273  0.9599173977833384
  0.8688981659083743 -0.0458181299116556  0.9803447738018056
  0.2413722944418537  0.4662124993499683  0.0485751541596871
  0.8770958448306646  0.5435294082652781  0.5230040319927881
  0.8750414598816487  0.4393405154063140  0.7613089611158603
  0.3753385683829062  0.2731534445162939  0.1078118006355166
  0.9437383353316187  0.2667545791439376  0.8114496323467765
  0.9420568997707746  0.5215647476612880  0.6026311394290035
  0.3901452172746247  0.4114867226932484  0.2321526890240092
  0.9726325196420751  0.5864376632015927  0.5458052397569566
  0.5136179127045677  0.7707251759836056  0.0015601779115895
  0.7863333812097192  0.2327786011681837  0.4369271395647327
  0.7764091826278448  0.3971478134772275  0.7361230098788935
  0.7839085968571150  0.1870108159080213  0.3943465277706314
  0.7284221540173382  0.3594307338909736  0.6703916053798511
  0.6687339503210045  0.3664202510759725  0.6489168979507829
  0.7338857511907191  0.3325424740508786  0.5640710302537005
  0.6787811902265375  0.3182896889167009  0.6053760422912715
  0.9821275730480438  0.6044815908257595  0.9725033238741464
  0.9203180583333423  0.9915817890942773  0.4730637846201517
  0.9479617795271057  0.5740053780023811  0.8723597147591389
  0.3251890859096558  0.8544095368523714  0.4779163692047511
  0.9010616449355314  0.5359926815346308  0.8055872739181656
  0.2722969644504701  0.8221212800318900  0.4757335757459784
  0.3621796827134474  0.7050667854463831  0.3037879080638039
  0.8736136165788057  0.4719073691909784  0.8661049168704333
  0.6736881527823523  0.2025593642263686  0.6783657713954288
  0.2649663507971603  0.7971867946500913  0.3625462570434407
  0.6365482455974338  0.1540782780102272  0.6654473090305051
  0.6288728007181171  0.1610229304980670  0.5962421479015689
  0.2086404374706300  0.7667215518215073  0.3509746367623003
  0.1322378761712795  0.4504002939347902  0.6217688817063124
  0.6194472441264527  0.6616895627044779  0.0055473573914462
  0.6915636500377484  0.3422715252000434  0.4237526457383461
  0.2717471226390516  0.8878448166978193  0.4600631628914187
  0.8634192438441546  0.5170571329789362  0.9106093841346975
  0.9706754399082043  0.6896406303668428  0.5622784671646721
  0.2234115867761971  0.9098738723879672  0.5006344851824708
  0.2117826534085529  0.8582058667660674  0.4453955202385381
  0.7918715072595833  0.6784516689020107  0.5064515855243736
  0.8413684000362502  0.5111331756054619  0.6839846424768191
  0.9279889191353905  0.5984458260950285  0.7498226549901725
  0.8502961147316570  0.8401978991340263  0.4904770834940332
  0.8305643688927776  0.5556345958466118  0.7260450894713385
  0.8939414494381558  0.2268866555172759  0.4758478904885495
  0.7489056555875749  0.3354820594726177  0.7934418302127355
  0.7009393288809209  0.2974845082120627  0.7302710364186509
  0.6400499527327514  0.3063090696275555  0.7080241788201477
  0.8329002305338840  0.1446198943098418  0.4805364285076921
  0.5889015969208345  0.2672172561784102  0.6417405052508200
  0.8701056922051341  0.0739363650402254  0.4791419999955600
  0.6371744616854037  0.2694195127997942  0.6006532104228812
  0.5388905761404787  0.2225936339332459  0.5824296942120328
  0.5591392379214791  0.4988592741303551  0.4798590477954194
  0.8952084782669940  0.5708947451222539  0.9041620154532286
  0.6598297217829880  0.4543338775717036  0.4744383293714746
  0.9193441346187855  0.5081361331344587  0.9268947408379804
  0.9094709371106106  0.3375675092104062  0.7337197980682344
  0.6096661216317721  0.9793857986280740  0.1042628774490592
  0.3061691746612221  0.6581754357771873  0.3551651705020669
  0.8141013363654083  0.2132815938085784  0.5591673434546485
  0.7121998475651639  0.0058354476921398  0.8969125152357929
  0.4085123712446923  0.5963488527109126  0.4071920894885295
  0.4545981013390729  0.5359098559776926  0.3260041214746179
  0.6752641726886546  0.1112313626329672  0.9174668475072721
  0.6946240321619457  0.0586608039863165  0.8803120753839505
  0.6204469617608427  0.0794442768325672  0.7918918965613058
  0.5487966967209300  0.4285090119929990  0.3355871080563727
  0.5696892947202622  0.0424282854220361  0.7263711835052687
  0.7948727431622035  0.2533515728338139  0.9277441302444703
 -0.0034691707270750  0.7938260591947374  0.1571430167107228
  0.8498390128897406  0.3128477184771040  0.6078584204581775
  0.7700015229808393  0.1562359157376359  0.8822835370867438
  0.6982147949845673  0.1784634861063490  0.8002990729091535
  0.7194957145843708  0.1226074109342665  0.8166511620951131
  0.6488607256984600  0.1429498859727843  0.7315847147292632
  0.6984100125283064  0.1472093366132088  0.6895162689819857
  0.6783956538506787  0.1511854686857599  0.2520721108177653
  0.6095299481789768  0.0525705235010109  0.6248340216199499
  0.4742919324139385  0.0147137718792901  0.5994457236507743
  0.4396732095835810 -0.0377182825723642  0.5442765791327266
  0.8597274032441008  0.2998726927767779  0.6686178580413989
  0.9211367124111340  0.2928183617112597  0.6887643596261031
  0.4130540257011714  0.6578713339044649  0.3905961167095627
  0.9786710416409167  0.4695223739100090  0.0688339368528692
  0.7429466326362341  0.2383981220940711  0.5344149976456334
  0.9838432191517458  0.4371730239797657  0.7415600109365756
  0.9901331215508631  0.6886947117057446  0.1246261429069218
  0.9483452717136793  0.3550458372779842  0.6319191088334022
  0.1474088602318052  0.6713223784026475  0.1279800600415030
  0.9403852909936888  0.3655828349853633  0.5719413001222371
  0.8431828864328804  0.3239309159815149  0.5451836206903997
  0.8467456666692532  0.2508697738915610  0.5051409391143930
  0.5678569950062030  0.1012008190958920  0.1707298372046178
  0.5137578763325720  0.8491028213341212  0.9335725919908355
  0.5479941301682639  0.0051224515177435  0.3913743687823369
  0.4414247668766730  0.9117259264752759  0.0134949867869629
  0.4949219827102764  0.9386021956442618  0.0210121397416825
  0.7864429409217909  0.7181541390738977  0.3864130205692739
  0.7419581291496848  0.7806697624330744  0.4678147602078079
  0.7877980063449700  0.8249103902569900  0.1878565155871051
  0.3422963684756662  1.0092324172114957  0.9966703456383869
  0.8059151069350183  0.9319117320842956  0.4471674053949928
  0.3864150786352021  0.8826899007498501  1.0015815373931471
  0.3588704296023507  0.9646058008918624  0.9197393441805909
  0.3687016129053076  0.9196053404453506  0.8732681220356538
  0.3084873975557396  0.9271828332627494  0.8528605793533109
  0.0069851484365521  0.3805510074621072  0.7570706175446683
  0.7125237782294466  0.0040737315301359  0.3241514260337043
  0.3457588729294421  0.6608147620493060  0.8579968132967124
  0.8804524707913990  0.6439318807941515  0.0422179528086085
  0.3756341132642023  0.7570087671483120  0.9047918579730559
  0.9320254076660746  0.5962237143794340  0.1302226180276987
  0.0803992826729559  0.7174030063485282  0.6486078765315624
  0.0719403752960026  0.7309651417760431  0.5900499285593795
  0.7943380604428260  0.8070253598748766  0.4829482251806486
  0.3553643798083753  0.6156190765852154  0.8165335903182496
  0.7312892715700251  0.7028900199647037  0.3149046091882374
  0.9441678118993885  0.1631442682115291  0.1674023019676686
  0.5074189093440868  0.9809186072313004  0.7937035503797335
  0.9709730100648347  0.7166325465858944  0.6710190080680474
  0.5577566218089114  0.0856367560861784  0.5405404650964293
  1.0049478128770699  0.4421859701739438  0.9707253090137350
  0.7117796718333534 -0.0298683116980712  0.9759680573615945
  0.5869131100481353  0.3040057826346366  0.2805135566825466
  0.6866592329659272  0.2239107651238363  0.8462310016264533
  0.6690541987828913  0.0432620499580329  0.9867884356546026
  0.9180794022380943  0.3567213764834896  0.9029272624281691
  0.7972571984554084  0.3735175989967591  0.8599942240391160
  0.3532991356873580  0.5968317783842370  0.2754766287772247
  0.9075791109661533  0.3693057011903231  0.8400673224055816
  0.1789146318885179  0.7585837311039521  0.6741235070211967
  0.4033753246887822  0.5655446421890259  0.2999077594433736
  0.8093176016060897  0.3286415162330474  0.8152302729284369
  0.4821097227308200  0.3734384739940264  0.4578655312894151
  0.3531537689344677  0.5811359682742689  0.3349670764718495
  0.8706009782444172  0.3200157847126440  0.8344364140386205
  0.8109359582609160  0.2953830387224360  0.7083197120350716
  0.3441464118624505  0.4881603275681026  0.2482520732732603
  0.6997033923909433  0.2609094808710062  0.6240215560197300
  0.7227872054411026  0.2046794322952215  0.6413232234994503
  0.6580811945812050  0.2115702041880099  0.6205854260032093
  0.6452132441355349  0.2196519516019037  0.5625977193293733
  0.6864471739825664  0.1576227102602412  0.6246441947138514
  0.4442344054370792  0.4276554575842030  0.3015845757448697
  0.5393769826868808  0.3337412749364685  0.2514812258884698
  0.9952149134841652  0.4581246844495451  0.9068689393816045
  0.9331281499974986  0.4647986261713328  0.8855203872834658
  0.9838111208735855  0.4711410489548442  0.8475388145572228
  0.4832315120435183  0.3033179692206167  0.2453764658948278
  0.7359462020485353  0.1944139027541354  0.7001796792323995
  0.2132040205566853  0.8276748627146616  0.3366233116004035
  0.6369291672237768  0.3498174208246836  0.5184112768855238
  0.6144182160305313  0.1204554650026688  0.5448501363571703
  0.7375788574073677  0.2643243720832245  0.4089038595504142
  0.7368082906254636  0.1552489977852688  0.5900079642833564
  0.7938281678255844  0.5053529477194755  0.7222797796824821
  0.8328544042110093  0.6234061054502751  0.4280651614347007
  0.7568558658469068  0.4223692675340227  0.6128758820127173
  0.5183086063759536  0.7556519856921629  0.0598246507794516
  0.2313360239358464  0.5278233546387396  0.7525445160645211
  0.2986705747366275  0.9394446400419584  0.7893959169540792
  0.2956502461826075  0.6229770786300658  0.7940840497647098
  0.4393607176524706  0.8913556432141351  0.0707260469586644
  0.2795931516927024  0.5657763877380811  0.8181086430924239
  0.4445979418272425  0.9553302994559311  0.0552754818845217
  0.0751179848459588  0.6947080808096255  0.5433368149923891
  0.0926430655259286  0.6724029184000987  0.6046582284776073
  0.7961657966641926  0.7394883164539908  0.5024824840500313
  0.4914576921407400  0.8756498860854226  1.0361335907260214
  0.3290997114707210  0.8707139344941903  0.8717272374030733
  0.1602898717964007  0.5137734635814493  0.5682128087178335
  0.7495783549627876  0.8863829785553964  0.5025639110423512
  0.1867375420640111  0.6128756543044711  0.6101883475549984
  0.3084845329760614  0.5960707673001151  0.6556719015026056
  0.9813569940335464  0.4817003388575027  0.4639886585407085
  0.2591175464891800  0.5906322244410904  0.6943699330472807
  0.7799286940767982  0.7182475536274252  0.1567371726187036
  0.0651934412117750  0.6402251094119499  0.7680138689434590
  0.9816913176387364  0.5474167008231395  0.4451254847350266
  0.3332843912282258  0.6727509129092842  0.7974500435285093
  0.4693076231749376  0.8349586247634965  0.0780842816418959
  0.6583916800222397  0.3743875812170979  0.5841285406047468
  0.6471569254050211  0.4245071286472992  0.6334662038601183
  0.0255842241006434  0.1701483934388574  0.7395266295929689
  0.7438782424694628  0.4309208845971985  0.5564662950194126
  0.6069465805668212  0.3718911486666608  0.6279609339794108
  0.9955863803768470  0.7241580994026127  0.8973788165482625
  0.9573026251501249  0.6752896495370302  0.8918115400523935
  0.4794483699359417  0.6533349780133908  0.5130426951192765
  0.4611341147683067  0.6266485114237524  0.4153113283169059
  0.5078438324097415  0.5497271149570742  0.3969189883950065
  0.5092352206473977  0.5336942503770262  0.4597359436260379
  0.8554014870692426  0.6190467977913493  0.6670617563896919
  0.7900162542973417  0.6208710233771946  0.6772267545067084
  0.6031130833799420  0.4432121748507124  0.4037185607497351
  0.5912128252716325  0.3834963157431056  0.4263917450061530
  0.6334175264222359  0.2622118510191123  0.3728475545386701
  0.9232473341651312  0.7128811737724207  0.7074499353678562
  0.6798832453015872  0.1850882301792193  0.3584652185076123
  0.8625251559021997  0.6899704627406523  0.5796716423011090
  0.9065519938298691  0.6241869410653843  0.6264331811621932
  0.8170511296092111 -0.0004404511068377  0.3583078022467273
  0.7725425060890727  0.0792834800606581  0.3744620524540713
  0.0431861751243795  0.7347664540917795  0.0761903711750666
  0.9662702125936243  0.2115513241445825  0.8262915442357565
  0.8777763982737501  0.1238154615462203  0.7561303751744888
  0.0706487202414096  0.5257301842168038  0.8096535289511443
  0.4665279244210896  0.1629133877035397  0.6682243308900516
  0.8965263688261175  0.8106216569493805  0.2864582669840653
  0.3072159238869004  0.7233826910310998  0.1113728815700368
  0.8099214424070297  0.8453673442044747  0.5875732084167946
  0.4144764615729258  0.8043029971771133  0.0691517647175890
  0.1090055335744119  0.8757122085272626  0.9084439949049337
  0.3649414486035461  0.8188005605222610  0.1074642109278502
  0.9467477979716385  0.8283381210303935  0.1316646746168586
  0.8452212287195765  0.2246610642129587  0.1103044495305225
  0.3169242908822065  0.4820727581070720  0.9595370672000194
  0.9877505815655102  0.6432270318423486  0.0787190888443937
  0.8837557574911954  0.6897062704098614  0.0878600066596260
  0.0232905757888227  0.9210421658597704  0.0440258616120563
  0.0501903511575700  0.8493804504908528  0.7807924871368168
  0.2932529323954753  0.9996351685608239  0.1663403778611489
  0.8919458727617589  0.7978196478771323  0.1199919041146690
  0.8595223530300243  0.8738784696358677  0.0542968529655042
  0.9406095168769131  0.7823744557771720  0.0853495470662394
  0.3897668729307248  0.5636512506878935  0.8001564358844245
  0.4124286068569579  0.5075449950086400  0.8175180806391577
  0.2320552843753194  0.9568163069144859  0.9877002176838461
  0.3621612869365192  0.5017406085933663  0.8579446013532318
  0.8848557234800292  0.1009931733864252  0.0527896408131156
  0.6556601705904067  0.6805125713276331  0.6803422715592905
  0.6650889537943061  0.6672026192365593  0.7396182091705797
  0.1978967418645171  0.9286763535606567  0.8705894727807331
  0.0866569855445848  0.1288992581572648  0.6501880679697782
  0.8898473342339395  0.1469622419939830  0.0966743929431844
  0.8500153690160750  0.9027027476373738  0.2440885940929166
  0.1917164240554278  0.7291544656914462  1.0147336983770452
  0.0768275008189412  0.7182944110624558  0.9773364740635895
  0.1035837143530933  0.3670566368811381  0.5128796837888824
  0.4010320237917041  0.5188880122312531  0.7575343942618629
  0.5181677978364257  0.7379604665304776  0.1194225125210377
  0.8163831371873854  0.9669382197064333  0.0154428792770524
  0.7823289880119817  0.1666690842342517  0.9889122716620110
  0.0343628673753000  0.0284284902905773  0.0713041795284239
  0.2053444158938969  0.3982191382541413  0.5979087864732391
  0.3466660103576017  0.6160713774770328  0.5518819720888185
  0.3305783395897107  0.9585241955070859  0.0223785432427948
  0.8621467280399981  0.9194977874180004  0.1044293044706129
  0.2871231389238625  0.3674553421699291  0.7417699364580045
  0.2489323076067589  0.9675584800714550  0.9342558213146344
  0.3321703565854152  0.8744318746273749  0.1019185352011466
  0.8375726134876441  0.7661114421137800  0.1067166937741858
  0.2663051491502126  0.9126070928022739  0.9542760279991178
  0.0449441289247458  0.1192590454873793  0.1609025563851095
  0.3687007590707240  0.5567461600750436  0.5750269534042637
  0.8842851908511283  0.7515930606782973  0.0730119690924535
  0.6663688172428309  0.6344822445673726  0.6370390418704041
  0.6170897997759859  0.5989783156399244  0.4781160670343916
  0.1389133912592776  0.3531376608589526  0.8615969222952257
  0.4379501965128463  0.5891096710408897  0.9646940920989392
  0.8200442026359963  0.5000581657168013  0.0093301027733017
  0.8708255152146019  0.4547859783511547  0.0933238305140674
  0.1506371891279616  0.3085210900368675  0.8173708226636698
  0.8269887913179572  0.6740229004001861  0.0109597703593658
  0.9579214375986850  0.3029126827308549  0.0674263855287109
  0.3719715701609189  0.9726915292335633  0.5787986643758519
  0.0230551553702282  0.1401420378390608  0.6190583886725282
  0.9076763862800088  0.3175691771208073  0.0985000255314495
  0.9011389161942207  0.2708716004594463  0.0651650347060398
  0.6275429187627556  0.8155355289615179  0.0784273696874662
  0.6768289268292740  0.7987344726037557  0.0457345759180928
  0.9446533614829963  0.1462240869997322  0.9900636107269677
  0.0498306530933240  0.2962899972041141  0.8937090687891270
  0.7069900710523513  0.7869729992724642  0.9471420876700665
  0.4076708150045199  0.0573709281618018  0.1829527745213938
  0.1400001904298049  0.5056095378145423  0.8918873470504409
  0.1266873566078855  0.3968575582690327  0.9077676825953183
  0.1052959424885725  0.4556672951967166  0.8893602460888301
  0.8221208848522618  0.5317767725690344  0.1112926749414426
  0.1344155756177960  0.0815779897525181  0.9106165561897280
  0.4251744217112680  0.5972031281404400  0.9022366976227778
 -0.0155681643266666  0.0241527230907221  0.9308700167461513
  0.2075430133916786  0.3306578618474325  0.9545939851460719
  0.8086928654027289  0.9368011187604034  0.1379523227005834
  0.2820045342843084  0.4348672060724901  0.9545533037577395
  0.9756086780799371  0.9803134741007473  0.1234651034603538
  0.0568734891902354  0.3210095578704280  0.5046440665982939
  0.5538831068840142  0.6697695108611887  0.7591034918192052
  0.7887285862707594  0.8407306409379833  0.1271711992211032
  0.5049521906563837  0.6643041901602955  0.7995459278890258
  0.8921472538680969  0.8164040592609840  0.0604405492110677
  0.0832079961047446  0.7799536006025021  0.8600067558361177
  0.0325434137197124  0.9094577869922871  0.6719099456282872
  0.4550663886947631  0.6259221771664020  0.7353296615139430
  0.1173918496545373  0.3074068309309377  0.5258381803005379
  0.2389310322581167  0.3291665191715369  0.6765336431518035