Cr N  Ni
 1.0000000000000000
    38.6909066207142374    0.0000000000000000    0.0000000000000000
     0.0000000000000000   38.6909066207142374    0.0000000000000000
     0.0000000000000000    0.0000000000000000   38.6909066207142374
 Cr  N   Ni 
 1596  50 3725
Direct
  0.9773194965225931  0.9374606736630284  0.9056825075529900
  0.8763958460822443  0.4085936345460027  0.6552604797937251
  0.8165311741112619  0.4160316896752417  0.6337774456850443
  0.8661642648623349  0.4210152601757348  0.5950354075635700
  0.7693163232492100  0.3790852061812319  0.5624627453502042
  0.2102986799215926  0.7827075626330090  0.2891571768800216
  0.2569642097729652  0.7051320410187984  0.2698398953610007
  0.9303523124499079  0.5671661297648133  0.6454976895768495
  0.2466290758406032  0.5973986322036042  0.2427591233403927
  0.8568717498540444  0.4364258873331973  0.5363273412434203
  0.5877352092539343  0.1808732494575652  0.8197507448087989
  0.9672533908974614  0.6164206724534647  0.6481805688351630
  0.6361148148430271  0.9538186334283140  0.9022392055625625
  0.1976490949681803  0.8643134154058273  0.6606386344931904
  0.8283672061635192  0.7226653187177787  0.0589104046041897
  0.1358657562232026  0.1617283204758516  0.7207976989602110
  0.5268743260253886  0.8128908561567226  0.2712233524410931
  0.5567450581044535  0.9849032895519375  0.7512792548676929
  0.0740559836228831  0.4591073893719911  0.6034320419551846
  0.1120099688877478  0.5084685261586126  0.6079828641593830
  0.6175070512641926  0.6288077795042769  0.1279506844057251
  0.5754704404976199  0.2266648758007860  0.8663341033426013
  0.9442035782176595  0.1792281043774153  0.1056831670636501
  0.9052168409642806  0.6378540129368074  0.8246172002244931
  0.4616484759211855  0.0739208390103802  0.8520925300101836
  1.0001357459502991  0.7814860482164412  0.6070936932594223
  0.8589477403456562  0.9468112428376400  0.5222227628033433
  0.8140407171308893  0.0248116982194783  0.5342928582767245
  0.3705861830487270  0.7964767998487799  0.3970422334513475
  0.5640879139828584  0.5662957114552846  0.4681742166000176
  0.3653183981886603  0.7507732596736277  0.3505295686889092
  0.4920666054772308  0.2578667966782711  0.7214456366677052
  0.3119316699810786  0.7362096125739542  0.2797775458166887
  0.3158124663081502  0.7981871149564027  0.2646190427795707
  0.5695174374886153  0.3251788603784750  0.6214747014301664
  0.4705615528856471  0.2814107495747447  0.5962443192452179
  0.2693889252014487  0.8587092787575364  0.3474073335296489
  0.6192761984079722  0.3622635395867595  0.6890638560401980
  0.5463714879742169  0.4137208468614955  0.7135130265663246
  0.2139986101464875  0.8424389725519472  0.2744138849813773
  0.1294079605822284 -0.0105409172021407  0.3007355443226670
  0.6283483088837652  0.3831763743245715  0.8596330727381033
  0.6872723711793696  0.3761128084780642  0.8798008383758671
  0.8259441143353147  0.0444930900627543  0.1668994498437444
  0.7700696883063497  0.4653950294854520  0.9442467658478346
  0.6477191307873250  0.3815224502347949  0.3304601536148435
  0.7941253613683454  0.8402141576788983  0.3568852831348838
  0.7758300611050402  0.0914836279744136  0.3110861331806271
  0.8101746909992912  0.9052869049003226  0.5686148231230531
  0.4722631798601930  0.7333482522393263  0.7202117480636810
  0.7101855503587271  0.9028072615593518  0.8751337457274674
  0.2377884440558193  0.9437618946762270  0.7692548071585552
  0.1196753046560871  0.1920386104160909  0.5146339181866542
  0.5199734891147373  0.7696994933228002  0.7865431698828128
  0.2591684359718235  0.8884201967395522  0.7883097663343830
  0.9820951849023001  0.5354534263364293  0.0532571947937491
  0.0174667784281586  0.8223841248126917  0.9423711898526583
  0.7605895497145916  0.4266685432792653  0.1806505557919529
  0.6684868355938977  0.5965259410247070  0.1534077225167315
  0.7653164322851310  0.4880474958240903  0.1625687890142296
  0.8994706263549641  0.8922128930837084  0.2105418870937860
  0.8019720632020924  0.3186108981619386  0.0637442766024916
  0.6059311352453726  0.7411271691506879  0.9263171091687291
  0.8397729688253451  0.1802316440188750  0.0666984876960470
  0.7594785083418643  0.0073611724852937  0.4616435732668153
  0.5333155993051272  0.9087345497557966  0.1330840163882119
  0.7393662168519846  0.8264082242978590  0.2841865102257278
  0.9694669342373949  0.3964126113196765  0.1508680162925689
  0.3617695911039910  0.7671424692829106  0.8460203747152083
  0.2909286635141725  0.8189656046750042  0.8693796655672285
  0.2409927960589965  0.7815811362319867  0.8032799434666112
  0.9262289544899552  0.9847361435290257  0.9868734514587776
  0.9295004074929678  0.9758844175114821  0.2061428945228558
  0.4722617039144040  0.7997575575145620  0.2009859171081921
  0.9706989104430743  0.8912761141534112  0.0310624097280749
  0.3126142444446662  0.5145208906900677  0.5108671496548728
  0.8797799064044967  0.0585977173071747  0.0037078385256636
  0.8141593189527581  0.9527090362511195  0.0769633124976243
  0.0592892937091834  0.9839621500075851  0.8931120557727141
  0.7189892643585343  0.5658160531587196  0.1799371423116797
  0.4234465527230618  0.6955358571544542  0.6557648884048413
  0.1375264380301310  0.9031540980252891  0.7439427670674963
  0.8994183825092302  0.2570319407926984  0.1228665604925709
  0.2507898358023846  0.3169394179305710  0.7378941925978680
  0.5485462933060173  0.8359804614888128  0.7213679007299261
  0.7153609443356361  0.5037990580372250  0.1949949559199513
  0.4537855164924021  0.4253488896914095  0.9572835020349705
  0.1592237469832032  0.9081746158841840  0.9808500854211937
  0.4167406712098832  0.6081699147326556  0.8388762400532307
  0.9547575417264573  0.8926616134287542  0.1146912913458933
  0.0430753663778849  0.8190121706596037  0.9998578267994728
  0.8855318829136136  0.7045677990097224  0.0286760946631422
  0.7497561926883816  0.9532320861874615  0.8804957355950840
  0.1179869013494663  0.1904271091522738  0.5928822545513476
  0.6118632532722633  0.5380286571947717  0.0389505054891237
  0.1318181260240651  0.7526706296018528  0.7147616450640130
  0.1134071180325100  0.9909838340218233  0.8301575680624560
  0.8496353345211426  0.3368201751671506  0.3628286644323375
  0.8025845387956709  0.3663969825178157  0.3326973425036205
  0.5892080435132260  0.5563669229097367  0.5345751258206403
  0.9768413478172288  0.9011456156358579  0.8005706339135866
  0.9053256508657291  0.9546422061435194  0.8219080904738228
  0.4732938466688612  0.7313434038575692  0.4461007325882455
  0.6770821910238541  0.7454592239975492  0.6113846667054474
  0.7612560031229899  0.8050056281281405  0.5775018687976280
  0.4809261712225170  0.8372429229730014  0.4775237702366524
  0.8303185127262001  0.7925716007975898  0.6039847302520276
  0.4278797243354866  0.8515336161016135  0.5177267659387078
  0.9215979989812351  0.8794070855793358  0.6741865044018528
  0.3294406991144672  0.9210554441041017  0.4635597041354885
  0.8879787444882251  0.8472319630282079  0.8385665292780317
  0.2878495974872025  0.0139642329646846  0.4205802560190993
  0.9305696713814533  0.9969549112344236  0.8595689836782676
  0.9237925147180336  0.0221713017118788  0.3401800829731572
  0.0371673052009328  0.9994221529213224  0.9565035639353563
  0.9268447784146773  0.0658006629679396  0.3796450561193406
  0.8804237236331186  0.0909557714408809  0.3476171442345677
  0.5950465987039039  0.6543015514660038  0.5566507211114837
  0.8874544284100959  0.1519817872724974  0.3266361224584875
  0.8374784694818070  0.2155899951769843  0.4025107891992272
  0.5927158637616335  0.0169510411770866  0.8535209270219132
  0.8227058879387122  0.9844627150069640  0.6743078221669990
  0.2636566678123627  0.6921310455119916  0.7138512936651030
  0.9473127489370855  0.3246143345099468  0.4688284840188106
  0.7435363608170567  0.7367972404544928  0.6406540985117333
  0.8373130362995438  0.8405448337722476  0.8809908715337426
  0.7034695073039176  0.4118548902061106  0.3379091391465910
  0.5371578494521085  0.6709389581544145  0.5354664566543317
  0.7839241799339014  0.7182220361228765  0.9926860551829167
  0.5230206945956035  0.2833113964840388  0.5586363689723981
  0.4281659404519145  0.2443290101144801  0.5386431540085824
  0.4264217679667863  0.0103055343926245  0.6436315716388246
  0.4496949286698321  0.0530525754417058  0.6828685053805632
  0.4973475783613862  0.3084450885036231 -0.0050952039704012
  0.4488767373538413  0.3122178514422023  0.0422498075968718
  0.5605343017247830  0.0862147414845999  0.7702886168874340
  0.4465656558104708  0.3631178025128864  0.0928139455991643
  0.5113239584238592  0.0800370588333431  0.8119990376213493
  0.3980335452258152  0.3378988585025011  0.0108472007695081
  0.3952090974980380  0.3935489702959383  0.0633200439273424
  0.3993570764531242  0.4574836236055341  0.0459998425994885
  0.6584583793174952  0.1622385768266168  0.9006034264765639
  0.6206476744275701  0.1438081671130082  0.9479612356196698
  0.1609493585893386  0.8271310446956781  0.4342391398493256
  0.4409562459859936  0.8665922819251607  0.8539363128752915
  0.9380601116965979  0.6723073547831842  0.2814899784430354
  0.8369435548220583  0.7198830115193370  0.2903154507558162
  0.2683386591737930  0.8434160935853683  0.7441549034379555
  0.5411274340043252  0.9305586803004079  0.4715466086236026
  0.5896769940005175  0.8828611947766956  0.5613837167217393
  0.6528757831526100  0.7129502411427611  0.7816393726850309
  0.6273642188217727  0.6492432744467886  0.8425595916730040
  0.6150880310617911  0.6608037721776726  0.7807613808448614
  0.5657525788781478  0.6244685096399376  0.7170198455418161
  0.6684985888118425  0.5816732459416045  0.2132049598482544
  0.6105904468650071  0.5350440108516101  0.2663730853956731
  0.6083544200868229  0.4890883062497941  0.2219450039588186
  0.7088128425223871  0.4422508576218764  0.2141428009424346
  0.4074670057875325  0.6067525998727830  0.5761224083863710
  0.4801098842565881  0.5542460980356831  0.5565279025506189
  0.6006850214087806  0.4270116371638044  0.2408961293227931
  0.3789993768557217  0.5093877964528529  0.5328932316497551
  0.8175334877383158  0.8610801589093948  0.9855310350970073
  0.7060110322261556  0.3963573136085187  0.1730973552807041
  0.4351758887736025  0.9328414174121978  0.4364081693537064
  0.7928028440025434  0.2404234007494799  0.1457449793555566
  0.7899412284615762  0.2259544848822795  0.2080679084877509
  0.1591903254303850  0.0290464004955795  0.5806628259230526
  0.4529439667175995  0.4402396041615990  0.0128482276963813
  0.7697656482042483  0.5313851118463631  0.4355725281684837
  0.4054838119363828  0.3872283195234884  0.8945315273076133
  0.8083188675688824  0.4131228101135654  0.3737368376251473
  0.7612735299090336  0.4584469746466263  0.2851051835517679
  0.6429182994832616  0.7571099235203119  0.8236801239519761
  0.5401393286132840  0.8410459717141094  0.5626105026114543
  0.7390249612580678  0.7189271154190348  0.4809334821064196
  0.6401213067180622  0.6565008746108835  0.5165353204784754
  0.6498670616005309  0.9782901326919141  0.5523069321006163
  0.6442093089649048  0.9202965047349366  0.5705480340937643
  0.5907870533683581  0.9009026413836313  0.4998401611802509
  0.6147865732567372  0.5493779929831603  0.4347928312935647
  0.8753224690075464  0.5305289245536206  0.4706818827896623
  0.2478964023487819  0.0664793598675534  0.9564664942254829
  0.1978758039503238  0.0944837256366512 -0.0102966919146416
  0.7981173042972630  0.3211368883757235  0.2936253094790308
  0.9014598396130357  0.2893151640672859  0.2249869889691773
  0.6910921805952258  0.7625065610117094  0.7819434159781017
  0.5372127290440794  0.5945348324939286  0.8803948572162047
  1.0285202134103366  0.0040185905227494  0.1996922571921878
  0.7165884108482778  0.5028323633341254  0.4248176413478109
  0.9700740385647447  0.4320554898445809  0.5027749050382915
  0.4721124064726031  0.7659207651892210  0.3239379009389694
  0.4767045264802470  0.8108685560263289  0.3705129952864856
  0.7232056416309378  0.7295119733809854  0.9659163018336586
  0.5186839625906404  0.6733723336451880  0.3628929609548731
  0.6758666323105973  0.6874491590114862  0.9045868397901606
  0.6151799398279010  0.6952147100269700  0.8839472520312198
  0.2598474050990235  0.7833781704468268  0.1932967822053218
  0.2555626773997794  0.7518830823662456  0.0872264044576663
  0.4403553655543144  0.5362130592115192  0.6556440668035557
  0.2422527130614969  0.5172895809553408  0.0935571771971022
  0.7555994060539366  0.9593471208548453  0.1808674535209321
  0.6358676491979161  0.4341695289061768  0.5746249149014380
  0.6731914344601180  0.5196129045531817  0.6810488424917172
  0.8105930084106554  0.5827882389153090  0.6046038624594846
  0.6328465606453254  0.2093608517956775  0.1027192372269484
  0.7605509671379229  0.5888155771302541  0.8409151942071096
  0.8231439036940951  0.5815353969534577  0.8633551857442748
  0.6354589387344427  0.2419338636621759  0.2051948274430854
  0.9911205150598698  0.7264463194218054  1.0050056694823088
  0.5469479875829791  0.3969015185849945  0.2318789198503204
  0.6458083156414972  0.3504324453345574  0.2266587511288904
  0.5393907550032513  0.3944979187865684  0.5367252950037247
  0.5516214714044699  0.4578100362734299  0.2138412126593362
  0.5039711320637127  0.5203643675801930  0.2925748774651137
  0.6567352928801845  0.4103213627960323  0.6936140293567306
  0.7326707527825842  0.5130259524248353  0.7018486228750123
  0.4556525949656628  0.5665001085944307  0.2037122118327362
  0.6833124087167274  0.5066489994656059  0.7413106824870537
  0.4077885205153649  0.6269561974649663  0.2842341120668332
  0.7160101053975776  0.4374872267711554  0.8208422544377241
  0.4535199856577034  0.1151065044923009  0.8973896030501782
  0.2101198123992830  0.8123995971798141  0.1665549665423504
  0.8399678667042387  0.8100487561595486  0.7705291220901386
  0.8318145347173920  0.5592849029488771  0.9907518349290003
  0.3068929532008374  0.6744491782471439  0.2942850717007534
  0.8226276410543994  0.6186534836208865  0.9702197809981512
  0.8824645780055086  0.7289729185393756  0.9101336260926562
  0.1555640885168923  0.7799033561817642  0.1552790168264974
  0.2094106055895264  0.7960703086986901  0.2279960223780053
  0.9222523658666851  0.7460857678953159  0.8112277621741010
  0.2229591306023208  0.8656034385573494  0.1373865137578106
  0.8349589438973862  0.6465534177159491  0.5456691902012587
  0.8053121501534276  0.7932459472881969  0.5431591171310368
  0.1675349951608812  0.8856482562930940  0.1795887116442163
  0.1187138366318034  0.9162325110813059  0.1523523172205419
  0.1273583285726252  0.9597155763444646  0.1934923686577455
  0.9413712841385140  0.8194294583139423  0.6919797661355389
  0.9840902598745289  0.8725192450649016  0.6983125220699201
  0.6620946568597721  0.9839662748419561  1.0054910441354659
  0.6712770955311969  0.0726035219802527  0.0995218677826505
 -0.0063841258477795  0.9894702468684278  0.8762242866266644
  0.7355735452386556  0.6016387616305372  0.5232492431019966
  0.6971244574851185  0.6601784969573788  0.5362339541610369
  0.5901459782104376  0.2873151209830668  0.1145819745492060
  0.4937590439417883  0.3803326275920018  0.1623855758528600
  0.7697421015459087  0.5789048098497536  0.8999966418787748
  0.8265840196843988  0.4371035393583778  0.4832210037925196
  0.6139223001312178  0.9461169776959032  0.6669442822450832
  0.5225755488431411  0.5038180573599483  0.7999287922730483
  0.6158615962213946  0.9792453940541940  0.7733764280537704
  0.0386573421450061  0.9323128107251432  0.9274917129664102
  0.6058539923891341  0.5118847790056736  0.4989579735197056
  0.4523622758737317  0.5199007136331314  0.1609696515047986
  0.6911178622907965  0.5960058862273647  0.5576128178395827
  0.3501616065254221  0.5666881626675278  0.1695411643716842
  0.3028131999273265  0.6441224725687119  0.1889439021061780
  0.8351655223662146  0.6567357665067324  0.7406511422362350
  0.3623450560232916  0.7217644898567941  0.2435935733699961
  0.2525951926480943  0.6753403710898708  0.1645347871372166
  0.6321102567504848  0.8029518609817754  0.8671962348734394
  0.6258034920335241  0.9346690114981233  0.7319527668200078
  0.4291765750856830  0.3953115035195446  0.5626211350155239
  0.4986043010853196  0.3765133696085018  0.6447477456311407
  0.8934209631973856  0.1808947373746921  0.2019867388911235
  0.2795372371247171  0.3467691546871814  0.5733372032962010
  0.2628616198076375  0.2389802636078812  0.5848574940596784
  0.3267150874187389  0.3853385915423005  0.6402212141727378
  0.4255340319717571  0.4276744661338495  0.6705907385270070
  0.7468128159683707  0.3351927800393313  0.3260587451367731
  0.3765311212086433  0.4224107377854851  0.7080085820435662
  0.4525391397426932  0.4912630303398889  0.6130018054080586
  0.4892503431443054  0.5747692893499375  0.7206387690030885
  0.9706891824994293  0.7838226118359628  0.8759324053912374
  0.8194490342576038  0.3148269336590996  0.8747506201514453
  0.6375017714631708  0.8426937474470230  0.4148749757464442
  0.1869837097017144  0.2054071876025171  0.7917522464716756
  0.3064933638546641  0.1910735049400163  0.8341231747719415
  0.5399478984771982  0.8702755236229373  0.4872384581048507
  0.5873289954362340  0.8558259848561574  0.4512665231467514
  0.9969830079395440  0.2137877014200814  0.3448938188507845
  0.3784184839709533  0.3255128655373332  0.9496665324037504
  0.1683983469899007  0.0130310666227824  0.6425528154507405
  0.0023912868934129  0.2433432018862693  0.4514460830776910
  0.1569383664592664  0.1042036535555323  0.7399355133855319
  0.3071288805613516  0.1583580931772319  0.7290378482923050
  0.1710493432760433  0.0975292626154298  0.8050807469405595
  0.9537420657381002  0.3411311976900553  0.4038152870010526
  0.2195674237496219  0.1350158206880580  0.8716854434884348
  0.3297129295716472  0.1334569098165089  0.8537661326409270
  0.2666799745776677  0.1718842033656744  0.9377320950811094
  0.4108657090082919  0.2241310445558158  0.9179919400572676
  0.1673905184416048  0.9962510603644971  0.7907426383173489
  0.4754177557314153  0.4333522753489364  0.6309783048294731
  0.7152530934900174  0.7050099044186173  0.8018949759153593
  0.5559696858492842  0.6372531263480118  0.6566770865976980
  0.1650765324642229  0.0588566891143040  0.6947909435137904
  0.0119938973844898  0.3573417447429490  0.4816615547708921
  0.1743376483991014  0.9274904513723673  0.2207375163218324
  0.5598763800608701  0.1174909450888270  0.8765227854846148
  0.6779478245215779  0.2549915354304568  0.9573756782387536
  0.7284839943127841  0.2641272187124289  0.9273334894009669
  0.5772876227372724  0.1965420762480515  0.0298035412766909
  0.6474921985688187  0.1741601845822484  0.8399845290130571
  0.7196976104889503  0.0289042542889029  0.9527414792063621
  0.6172804177803417  0.0584818218705870  0.0247224085510434
  0.5393436848072227  0.1424005274120287  0.7508376941134566
  0.5500728463726476  0.0990286132601752  0.7066478879521028
  0.4905624067817905  0.1051053061821920  0.6860014899851912
  0.5399012370463837  0.1112082349846072  0.6441752873275273
  0.0085952445829035  0.9030678436503606  0.1811861151134036
  0.0691285668332450  0.8985209795244207  0.0801779748174307
  0.4915911847286587  0.0734102709247375  0.5789327092411845
  0.2048689091019636  0.7656284091730825  0.1223480042622872
  0.8132376605415989  0.3934842835339825  0.9743913963560823
  0.1426881785255231  0.7551686939280611  0.0379926076597096
  0.1991972939625131  0.6126248560765529  0.0472371380164311
  0.2535638344834429  0.5921981369441729  0.0142088775733104
  0.7112434029713691  0.2851565504740231  0.7924096616329692
  0.5517844802500190  0.2502567348238986  0.7423550582354421
  0.6746521614957497  0.2369035521632148  0.7860178438757967
  0.4822192543304340  0.2335947618033958  0.5606507348579133
  0.7302853658972513  0.4233995143203989  0.4958787119147821
  0.7147276201972746  0.6725611980618745  0.6992888479406041
  0.9879588704751670  0.1079294066252880  0.3216184092499400
  0.7906135542810913  0.8045815123621238  0.8081789884952835
  0.4674462961704741  0.7202003911097986  0.2769077687806478
  0.4456146437824318  0.4102878790306188  0.1356064163179934
  0.5875243291352437  0.5997893653218100  0.8391082755164483
  0.7575308284271199  0.4126914431898711  0.2436123225724995
  0.8462291041642410  0.4081367332334319  0.9261466173895191
  0.8733431882027464  0.7081464257627981  0.7450083045604952
  0.9990976325783635  0.8784357598737117  0.9273393582203963
  0.6652841186263402  0.5493172584807675  0.3367011196883707
  0.6058217993202731  0.5759649451915668  0.9643285421532580
  0.5207368871802318  0.5386332959138747  0.9042394970869123
  0.5648962562217944  0.5964772657055782  0.3455855202499612
  0.5564127311096624  0.6261749333412094  0.9915000229192834
  0.6754878063882201  0.6563008087094893  0.3658848197835179
  0.5696371563087651  0.6733528850845891  0.2676425223893123
  0.3492825043954344  0.3269423355691066  0.6576377411319120
  0.3357560536477430  0.4053438292081664  0.8094361196614749
  0.4810123615336210  0.8724237316648267  0.3535441687366258
  0.4356251905402244  0.9489376231410581  0.3745123067822435
  0.4079662204265891  0.3538796580287592  0.7875745765651807
  0.4337808525267801  0.4492984632735910  0.8361710878646169
  0.5530650140678470  0.4679042157189871  0.9816231605830369
  0.6632522853236661  0.2492506377824102  0.7254844315552369
  0.9392058077189297  0.1362554643922366  0.2922722832732868
  0.3514516423600559  0.5818681404675036  0.1112363014504524
  0.5788580431251930  0.1611440731174499  0.6428688305997700
  0.2947345253185522  0.4997840864242247  0.0567087585706067
  0.5293560987582580  0.1218468005725790  0.5795939289516783
  0.4544361368230501  0.1467208098640532  0.4941715230089473
  0.5007262770946074  0.0505826920775420  0.5304226380372037
  0.4398432431837714  0.3167526616841734  0.9751407738973482
  0.5192671720222748  0.2275129296947122 -0.0023593181461792
  0.8153127747285935  0.3304107074154311 -0.0109211528603745
  0.9318861714290561  0.8357176200469337  0.6236926087985416
  0.4867647491662763  0.0036668162709712  0.6649754934064067
  0.8718227014415229  0.8463828038947475  0.6078758260823710
  0.9618472975164991  0.8997211073726069  0.5107307823998941
  0.8481472250591835  0.7743807555189953  0.5048268807444922
  0.9669595061146864  0.9452814681898168  0.6139897922257092
  0.9347274571371240  0.9838992887540529  0.6570641872438274
  0.9910373858272236  0.9518234685619280  0.5541635439702555
  1.0545144675833458  0.8206925368560679  0.5121429406027586
  0.9680790683475935  0.9621083405481057  0.4928929426156974
  1.0201882718603197  0.9937140668944342  0.5012379849181502
  0.5085758224264820  0.0605114457767255  0.9852847857816833
  0.5499227352267804  0.2174280066183717  0.6402067892771532
  0.9414682555971414  0.0359938735993282  0.6259003740936947
  0.1892544115055702  0.1361231911892037  0.5762429172205079
  0.1535526135799717  0.2391262751880917  0.6042470350179552
  0.2393096939887175  0.0788497890351419  0.8916502611097652
  0.5880965446330058  0.6347173596049154  0.9454523291005978
  0.9472402869627424  0.2452541967965243  0.3152520713684011
  0.9364354996042031  0.1029878580589112  0.1847767578544228
  0.6601915795182710  0.5045109388104584  0.2921628516428325
  0.7134505419721958  0.4886715906402745  0.2570839889461224
  0.8032874855289095  0.5273279293632257  0.8876894464559657
  0.9601855974311141  0.7954230295382814  0.8162766734125176
  0.0632167060696247  0.9173968829980800  0.2508323093364436
  0.2566126276963011  0.1166352824918627  0.6622650457396149
  0.1314267792416253  0.0572643049148432  0.5165271053421453
  0.7378585839376524  0.9647762338860829  0.8183314647720846
  0.5011535047234900  0.5312849969187475  1.0084536640825974
  0.4744224443731802  0.8228297506395356  0.5396447911889247
  0.5675062056906981  0.8000829254073236  0.0098590076953078
  0.5102786356266132  0.7552540617972415  0.6185072068986383
  0.6092554686371756  0.7987866357659471  0.6381869645203367
  0.4086790133570101  0.7569876089245851  0.0238751951353527
  0.3632909169367836  0.7742847630124803  0.0610441063806794
  0.5065142035901381  0.7817594371264196  0.7195484640874727
  0.8212893474737102  0.5509738284003477  0.5046021321382826
  0.2239463607302930  0.2203371182150692  0.6872420508894291
  0.9156106137637803  0.4112883997984391  0.4088590442727738
  0.8523245732926862  0.7655817916612785  0.7262797242186803
  0.3196628858377206  0.8278317480026599  0.3708096687681552
  0.5825256142582930  0.7965337380228962  0.4661681558392368
  0.8362938182568000  0.1502398226857387  0.1928464276549217
  0.9346482852051206  0.0884758585907176  0.2473208829075094
  0.5085026486313206  0.3652513708891120  0.7074208864499119
  0.2122050914467049  0.8236859233221270  0.0975125625299788
  0.5060952164803381  0.3968574794691461  0.8147395924061137
  0.2239231884605929  0.8801441136354881  0.0712185084696261
  0.6158989421477988  0.4271423070911775  0.9015994792282492
  0.5162043988686628  0.3866108137133869  0.8740170978329480
  0.1803188462477868  0.9436044516915282  0.1557561954178479
  0.2908947560710590  0.9522085992279694  0.1193865234941393
  0.2854340650805442  0.1797048508813823  0.6045647313330575
  0.6785572067191060  0.1504052893693086  0.0224219089858167
  0.2655199976266482  0.0691926080914197  0.6172258198339599
  0.3120476816878129  0.2763819302570744  0.6532313752370487
  0.3445319176630927  0.2083679132449104  0.7336596321264371
  0.3925619017890408  0.2470552488297738  0.7981742015685825
  0.6573557237635670  0.2845263693461220  0.0049119136898168
  0.5587147642050452  0.2757306216683325  0.9118488797469362
  0.5553254762966600  0.4446650703984432  0.0488213734898794
  0.4881349218335167  0.3253121245027992  0.9312076415899888
  0.5045258738736184  0.4574191670377750  0.0849061145312655
  0.5095156738579155  0.1087244858246240  0.9198351772636250
  0.5264477513822726  0.2190157541929548  0.9079804168534534
  0.5575130756991588  0.4887703495720833  0.0913035265400279
  0.4546386849494827  0.5361847220849332  0.1001737605281180
  0.4563267832233033  0.5825617911014325  0.1444764578493626
  0.3602142106228016  0.2828568252538787  0.6147865927548516
  0.4581518083692391  0.5972169254158399  0.0842550156751645
  0.3058629008828063  0.7444171318225028  0.0471981553122247
  0.6634430703191176  0.5697372333630790  0.9878592070269859
  0.5623909954540911  0.4897172219697913  0.5976382443364316
  0.4705872765308492  0.1641299911790515  0.3464343961947647
  0.6232066263410310  0.5143259590799015  0.7207080489278161
  0.5621137943763882  0.5229586187325810  0.6984995053577286
  0.6331618985456516  0.5023439602106671  0.7808252831476209
  0.3060776385552055  0.6294519957018702  0.0252071862098493
  0.2548842843615416  0.7077082073920954  0.0405141816163513
  0.6818157149561678  0.5406210589670390  0.8450061983070508
  0.7085729366245610  0.5848384280975135  0.8825283120092932
  0.6488031882682769  0.5918535558777225  0.8621587076858718
  0.2416930855012077  0.7638346252640562  0.0218555242599250
  0.7182834088480683  0.5736493917913565  0.9473246330947506
  0.6984251444666928  0.6282101082149768  0.9266047924857729
  0.7391008146172096  0.6771233662650427  0.9855405873326952
  0.1992430154596719  0.7777869669052601  0.0604145400212088
  0.1285978588458538  0.9395032851922768  0.0169994679774829
  0.3901013307873230  0.3470512761204660  0.5547223071224899
  0.4709151178790025  0.0308759439717289  0.8099593961832375
  0.4662816384269253  0.1937604644438915  0.7777065937583485
  0.3769195513262035  0.1728778722933739  0.9174100184021015
  0.8084100717408456  0.9116285572327174  0.7955640099024888
  0.5346430336592279  0.4596885608805699  0.7577914223434166
  0.5828160091926349  0.4971076813922086  0.8202550296208099
  0.4046565388311984  0.5868253261234190  0.0143164178422639
  0.6930892796826901  0.5307062602796863  0.9057177558897034
  0.6321940536253967  0.5362664503080372  0.8844501508197742
  0.3014013635276059  0.5699753019033913  0.0434542065824519
  0.7171246720038771  0.4543018651418828  0.9856261912293606
  0.3571784915694215  0.6481868867664407  0.0931970359984492
  0.3347146643540552  0.2032461011727953  0.5049236641321948
  0.5729490676432872  0.7758519246896963  0.7411739699945664
  0.4101630713377148  0.6771997443737732  0.1035927159155971
  0.3795234986228884  0.1394433774734099  0.8133267119860498
  0.6458034567936281  0.8163529244327115  0.5374032332772213
  0.6953575842060788  0.3020965407417451  0.0900526870366869
  0.7061363066723829  0.8784111821044636  0.6108664412745464
  0.6514232642247946  0.8475330996512883  0.6447356562032552
  0.6592615672662404  0.8331889246087283  0.7028864938342729
  0.6039024953769898  0.4413767515942314  0.1792428768246624
  0.6950824788759760  0.8830093103636451  0.7017525467207395
  0.7967806958640953  0.9243141337799531  0.7326276358672146
  0.5943591220807208  0.4530056171123115  0.7780326285866040
  0.4007796859612728  0.5037792728899193  0.0935647341500514
  0.7979920173161698  0.9565038688480508  0.8394960012174375
  0.3504306402811990  0.5661111154300533  0.3960968166324797
  0.5843949644045813  0.7187168896023648  0.5420048585354613
  0.5661473520168057  0.6441231694578308  0.1617592629150248
  0.4135272952784226  0.7063681059635585  0.2067750231867662
  0.4162845575854097  0.7519421445138731  0.2527291409226818
  0.3705603435541499  0.8297571376785307  0.2734676930583086
  0.7303987921761009  0.8114431849057394  0.7859630321466182
  0.7090596621089523  0.8703910702965456  0.7677032538350973
  0.3251579817734177  0.9236831718837856  0.2329946472568119
  0.7579719588179036  0.8744752335149991  0.7296643413335870
  0.7687295884448507  0.8933449337273210  0.9012850723532490
  0.3304744982952280  0.9688854732327083  0.2788266868989391
  0.8743878202141442  0.9917178378269389  0.9035182420899839