Cr N  Ni
 1.0000000000000000
    38.6909066207142374    0.0000000000000000    0.0000000000000000
     0.0000000000000000   38.6909066207142374    0.0000000000000000
     0.0000000000000000    0.0000000000000000   38.6909066207142374
 Cr  N   Ni 
 1596  50 3725
Direct
  0.9788453171663418  0.9338535422558163  0.9068335166535926
  0.8361953147464056  0.1505523826891002  0.1930037028537879
  0.5519350558411292  0.2827192278403580  0.8508976179697839
  0.5805105568058118  0.2137516608706233  0.9433272588054210
  0.7863189045437448  0.1995805555293418  0.3331059639959210
  0.8406930173800709  0.2298596233070174  0.3411888754719834
  0.4223794491778885  0.0243234848492061  0.8512628998610327
  0.4020875787976400  0.0812979541533655  0.8312422312856239
  0.3861463644315170  0.1839128975394841  0.5141958103947933
  0.7363347476680377  0.1965177847625457  0.1989412725325767
  0.5753826569256226  0.2270868749131320  0.8700212028306981
  0.6911988404482974  0.3055462133474952  0.3178388054333193
  0.4558855515235900  0.1730733180757258  0.6088625793427851
  0.7086819598811059  0.4590643878997601  0.3797496634791042
  0.3926119348786323  0.1783773206654152  0.5888339915332577
  0.5746038344650286  0.6890192090685121  0.4341508250198104
  0.5335363997403401  0.8033956100034839  0.5000981701944627
  0.8153427643136023  0.7812575510971639  0.9280974647439100
  0.8622829199243442  0.7860038919244534  0.8938066647075482
  0.4267053547305706  0.8069407587514499  0.4735741578415000
  0.4820653744070145  0.8845140287343248  0.5225081978258713
  0.5379992533976835  0.1772388354636907  0.8605854632286259
  0.6111615094663485  0.5281321420966484  0.6598921298800086
  0.9301289937312456  0.1594769037753425  0.4626089535809298
  0.4623721426609535  0.0739743814039514  0.8517302743292905
  0.9122553389230578  0.8551689469834196  0.5631270705686733
  0.8576281117577510  0.9478334912677000  0.5208681079969588
  0.8628245779919296 -0.0040909456732340  0.5630468178336667
  0.3709488625819967  0.7961694024804793  0.3953085743887629
  0.5660920216356645  0.5659274428832837  0.4677367397585766
  0.3654812353837274  0.7509229062407717  0.3503874516560567
  0.4914785278275404  0.2583401687942855  0.7227288988666669
  0.3111341688594994  0.7358972582607760  0.2801132006539545
  0.3153990204538985  0.7983257414290177  0.2650562821469379
  0.5686378483865283  0.3234237334679946  0.6214830964105265
  0.4695841042430685  0.2813619220152912  0.5978217951218033
  0.2690262078687001  0.8585674938523394  0.3494496916968298
  0.6186761944440906  0.3622505877397260  0.6894615835527805
  0.5461864732848033  0.4140425090865699  0.7136158410875452
  0.2136522437861655  0.8431119149837658  0.2754991860938132
  0.1744430110924466  0.9636545360498375  0.3342024519881998
  0.6287914158683533  0.3833725379801546  0.8596071372964658
  0.6880042378669925  0.3757331011602664  0.8797927833075267
  0.8253659685714200  0.0443893316240279  0.1671158387781047
  0.7699985949141651  0.4676182951444895  0.9439393974437889
  0.6479357735322591  0.3816765626115570  0.3302550645471594
  0.0321468018776943  0.0678499517659973  0.4175331541202144
  0.9858447280172026  0.1468388125904393  0.4332631112655874
  0.8075532633175632  0.9070571127923961  0.5693882522262641
  0.5142272347481496  0.6276965673464626  0.3186915837445796
  0.5260461002018351  0.1875680389565544  0.7983033715620860
  0.4587453801403050  0.2946132706628200  0.5346145957828882
  0.8593839149631385  0.9274382084112720  0.6056211444504861
  0.8108428261066185  0.8454234979793560  0.5852898278202614
  0.6395533764146467  0.5908103982467660  0.6020774287637675
  0.6666646433238729  0.6347338176302705  0.6378368274906494
  0.6168086943517116  0.5980393378294022  0.4770370084220531
  0.6557103390187778  0.6802229173121931  0.6803742490634324
  0.6660343120191037  0.6678506699122271  0.7412012644547147
  0.3076676330361945  0.7242947748227013  0.1115254838707873
  0.5540100346983813  0.0488341935484352  0.9495553269624381
  0.5436311670526396  0.0117157082723199  0.8957686916906750
  0.7428758158039054  0.7667714438096898  0.7433312368559561
  0.5309210562202181  0.0250756795830968  0.8304026140943627
  0.3999185293539794  0.5152878849158015  0.0362874862759575
  0.4088493077710558  0.3212737431213563  0.6815536545239510
  0.0789842293520411  0.0390955454188674  0.4431355716042028
  0.7657901721563355  0.0013346480800696  0.2224015777429749
  0.4017116420680054  0.0461672188561769  0.0101651039384966
  0.0477300032047280  0.2126898366885747  0.0193503441673066
  0.9198439786348770  0.2419615193001455  0.9166204036454404
  0.4125624219001657  0.6730769453030437  0.3290876719555064
  0.5996069030646165  0.5730272078485399  0.7020504479343198
  0.8934516020543474  0.2478623951295183  0.4129767773876572
  0.4304682107210803  0.1125048097230589  0.6645524424146780
  0.6275566090338616  0.6177170343643584  0.7371722138644314
  0.6389425711869999  0.6042570881544793  0.7986692481698300
  0.7374854187925501  0.6471975361255240  0.8225580736769713
  0.8411292112495108  0.3100184129780466  0.4900190656797215
  0.8964023824320746  0.2926679330591190  0.4576518442168422
  0.7922172867687737  0.3411663300407842  0.4601836504179096
  0.7358250000227878  0.6811665369415145  0.9251051352927114
  0.8047539923230286  0.4009658678715631  0.4359536386029984
  0.5663074010311735  0.6126337295347004  0.5134318154321813
  0.7537320787057432  0.7544779003312343  0.8052403358687203
  0.5640415390780941  0.5825223567341096  0.4068406302430488
  0.7755605416578305  0.6960980756645974  0.8248114424000682
  0.7042324602370782  0.7167011449899229  0.7400814024694711
  0.5183660752177195  0.3212775444681797  0.6639874281965021
  0.6897300935354788  0.2726886906629082  0.2136420302513200
  0.6009870429106772  0.2894273098310958  0.8105005906471959
  0.5794507027945978  0.3446022819656122  0.7924377038699715
  0.6978294910956978  0.3635924699657209  0.9413839223806367
  0.6612809648950538  0.4672836994472102  0.9626288582550009
  0.3592463241435391  0.0854582667004270  0.5362085325517491
  0.4173942003841936  0.1238729847340655  0.6026096037555406
  0.4674216021084278  0.1631386114127422  0.6672741941090722
  0.2945046738449180  0.4999983595748930  0.0569122772881361
  0.5309433882857938  0.1219698112000815  0.5780396645195581
  0.5873043310605369  0.5557827203617610  0.5338790715469538
  0.9782814769479885  0.9016394234171377  0.8001169854404808
  0.9064993390333795  0.9546640051102481  0.8219090998758641
  0.4732490603598960  0.7313252813177477  0.4441662931070198
  0.6795469547633421  0.7450490672956003  0.6135979030305931
  0.7598504853100213  0.8062161089176314  0.5768310861724844
  0.4797423013168379  0.8374020869877903  0.4765985839084854
  0.8292132585749518  0.7928363391142080  0.6045743867179612
  0.4264206947923763  0.8517678187266040  0.5181411925438664
  0.9214449597759342  0.8793284906144544  0.6741753886283705
  0.3285388621831974  0.9199912055164575  0.4619415632228978
  0.8897532534540603  0.8461984163981398  0.8381483023698550
  0.2875022795965920  0.0145343385296955  0.4200986339020356
  0.9311856790419346  0.9972234930653449  0.8598292705934268
  0.9230345640989686  0.0200901307977654  0.3390914348963506
  0.0399422210790173  0.9999125615744158  0.9475020482198444
  0.9268128850372008  0.0656904813782130  0.3797479242097214
  0.8800554823731798  0.0904189372138838  0.3470735793833903
  0.5829810463682240  0.7004384960543576  0.5981227950138024
  0.8869569980832243  0.1513605108485368  0.3264721396322415
  0.8370584592946072  0.2154482168002683  0.4023380278841089
  0.5908356999965905  0.0180574234240171  0.8538917013665415
  0.8217560576872807  0.9843025757084022  0.6748015150905380
  0.5191399859890019  0.6884349116566967  0.3029645489498597
  0.8462197734501531  0.4086203358087703  0.9253654310261592
  0.7434691738140239  0.7367803876912067  0.6406971686284980
  0.8378972370231165  0.8399399573087905  0.8813513598443141
  0.7041092823265186  0.4125097231764920  0.3378855712870917
  0.5176493440029803  0.6059881620281893  0.5557205060015300
  0.7844008786625863  0.7186505279620731  0.9925927937301462
  0.5194115769726895  0.2831813672073341  0.5599936978912639
  0.4284777315051280  0.2458272245286179  0.5388659299759543
  0.4256124731351860  0.0110429161333940  0.6428567076233096
  0.4491118789092424  0.0537132872953495  0.6824000634052004
  0.4981631039426387  0.3130454972583798 -0.0045306491836620
  0.4504566007011536  0.3105456899589950  0.0411263405221831
  0.5605930360911535  0.0869157994960417  0.7691533803595151
  0.4457314457472971  0.3628526013274387  0.0921957759956604
  0.5115138531539499  0.0811617242475150  0.8112134244548184
  0.3969454447808027  0.3353351712554045  0.0112728041537576
  0.4462227197158065  0.3779336634281053  0.0239066889975348
  0.3990705315717509  0.4573917458931610  0.0462163578801746
  0.6592047028365360  0.1624892908860018  0.9014367896275525
  0.6178947813781751  0.1479762879661791  0.9458924321587752
  0.2291865764458572  0.9857229373412858  0.4096625373263215
  0.5530742872068494  0.3238626109939778  0.0239742479927150
  0.6162982269011295  0.2444954985237120  0.9892658081418528
  0.4430211749045534  0.1600888069411292  0.9479712832190837
  0.2645278465802502  0.8036373344585015  0.0637674104167503
  0.7582406866059225  0.4114825352223418  0.2437917188916057
  0.5873858710440280  0.6003962677754880  0.8378630294217627
  0.7366142544965396  0.2569689083361931  0.9251153142685913
  0.6829834177403532  0.2551892278529043  0.9558705831138185
  0.4826290980089090  0.2335519778458779  0.5617418200045865
  0.6632996498677013  0.2502311932570350  0.7269875847360955
  0.5591932088915453  0.1203442232056058  0.8758814755191139
  0.5499164851087213  0.2167421312907013  0.6423632025190615
  0.5086152338186288  0.0583334217455853  0.9821657300285320
  1.0250885776232257  0.9886955726115552  0.5021376201658744
  0.9690513106381539  0.9576620537745119  0.4981390164646489
  1.0453244028055704  0.8394659334303559  0.5251978960848843
  1.0068305104862869  0.9309458658069365  0.5402472299080805
  0.8627553136861972  0.9861077899281250  0.6350658187633494
  0.9685838306302768  0.9438921216867943  0.5969891868013180
  0.8480263124656812  0.7735495266256468  0.5048526493408454
  0.9539185793234186  0.8981284787504903  0.5115706373859121
  0.8715103388728365  0.8476326134025942  0.6071143752340140
  0.4860663003182880  0.0049872726645299  0.6650826996317215
  0.9315533207374276  0.8368051797819064  0.6217855718529860
  0.8156525249695528  0.3311087570981454 -0.0101312411973019
  0.5197259443930989  0.2253691670684410 -0.0037085640258738
  0.4407017110819568  0.3202347154537593  0.9756425602786916
  0.5003827626713611  0.0502699750808429  0.5301275406499392
  0.4538862295264329  0.1487680618021432  0.4931213697194262
  0.5764942940456659  0.1983868579254128  0.0286765326125080
  0.4456555028607875  0.4102825615380084  0.1355579423665414
  0.4674348955969548  0.7205591902791620  0.2761861016635919
  0.7804671838198221  0.8172394104518919  0.7476794241079971
  0.7147990348178612  0.6723359470441989  0.6983741245301464
  0.7319274939534312  0.4223824031972259  0.4947039771231437
  0.6745052434524845  0.2368910308973836  0.7872604342959791
  0.5517088954026116  0.2506522131002629  0.7444297443998423
  0.7113973114043217  0.2854724468880573  0.7921909176788788
  0.2532256481566324  0.5915140170357451  0.0155834575408652
  0.1984121563204467  0.6129152391254820  0.0473975798306674
  0.1433017578634806  0.7544321056096772  0.0396710145279578
  0.8134344610560265  0.3935611103291239  0.9744332653906551
  0.2043467552791077  0.7654663624042665  0.1233469120429782
  0.4907701203846963  0.0744078242313569  0.5770654821756974
  0.0648911321574851  0.9018047326458765  0.0837719443705352
  0.0080157720899176  0.9030995167287513  0.1826024086036716
  0.5399443961940027  0.1114197183845437  0.6438875638455411
  0.4889017212529782  0.1059951749334558  0.6847499630986457
  0.5497586598191112  0.0996996427218478  0.7056442363174927
  0.5894867815475260  0.1495908531896800  0.7096157408807842
  0.6166452443799105  0.0623247822919691  0.0251297064344780
  0.7183708187537436  0.0138851853068366  0.0181422620332828
  0.6477582377097958  0.1750750968478217  0.8417103538930667
  0.2594585431122686  0.7836332427629152  0.1940995900151502
  0.2547893610947071  0.7524560075810500  0.0877638812316889
  0.4408089789101945  0.5365734414783870  0.6552006125216828
  0.5673432095735532  0.7999917801993914  0.0093879084909460
  0.7700841065222376  0.0160646913269081  0.1583851604038422
  0.6356926979455861  0.4402413874218813  0.5665445489291664
  0.6843777480302817  0.4746503652084658  0.6371746647128131
  0.8101002854790775  0.5824008527512233  0.6031930397008193
  0.6326253281572799  0.2101513999589428  0.1029707929215413
  0.7611579009455104  0.5889089794105780  0.8393595909047662
  0.8233217099339960  0.5818242855281966  0.8620212206608719
  0.6347741745421651  0.2421757693001071  0.2056117707175077
  0.9911170032241317  0.7279217477963338  1.0045756159391688
  0.5468883243500084  0.3966458651813630  0.2314393037023913
  0.6462302065959595  0.3503397442581915  0.2261688767398067
  0.5389512373979503  0.3931986093814500  0.5359619892809246
  0.5516984112474537  0.4570174731129118  0.2133919096086569
  0.4551068834807464  0.5512302904791297  0.2652099546051118
  0.6567367345971475  0.4103004596670222  0.6929951210843182
  0.7330156288416101  0.5124996423361714  0.7010632413984326
  0.4557979331251045  0.5664747699335080  0.2037086124930517
  0.6831566435867944  0.5064864600532000  0.7409445148293754
  0.4079056968165277  0.6272187163389492  0.2839815853708896
  0.7161251903820969  0.4377990407140900  0.8206565132644768
  0.5013513938444315  0.5309680407147570  1.0080797322051742
  0.4736257159869474  0.8210961205442531  0.5375051391122606
  0.9019807608076309  0.8022575985014718  0.7939774145726652
  0.7708997321007128  0.5793072082412564  0.8993395232485958
  0.8319855646884871  0.5592677607964855  0.9900590762382204
  0.8225003294428361  0.6187142560172075  0.9691057220596535
  0.8832608848334167  0.7288036833529985  0.9102074467697625
  0.1552600846232430  0.7798626942325606  0.1564798351240586
  0.2090277686697430  0.7966045844455900  0.2289893166872261
  0.9226139906320616  0.7455820985987461  0.8113899434921272
  0.2221415784708719  0.8656511181039879  0.1380280600842496
  0.8340933846453429  0.6469570644510954  0.5459738609086638
  0.8028958085318886  0.7915150527384774  0.5438255670102081
  0.1671404816578204  0.8858859217790579  0.1799923246479919
  0.1186085532969209  0.9163977593153543  0.1531290889957040
  0.1268894641450901  0.9597512784814498  0.1944150062704026
  0.9417837181027886  0.8208448026862238  0.6908752864738017
  0.9857041437042320  0.8731005919259178  0.6959883547184401
  0.6643002825152684  0.9810092719760954  1.0053168656637514
  0.6698581304001727  0.0734242181516375  0.1008509832482199
 -0.0064546524429641  0.9896302308789053  0.8803902135432966
  0.7342539766411252  0.6010350522794177  0.5221262664142049
  0.6962198943909705  0.6609801841519121  0.5355389962061554
  0.5897834809551542  0.2869490283243274  0.1148661018362422
  0.4935706715029892  0.3798695161340589  0.1619339573491617
  0.3071265472122824  0.6744383268477967  0.2944235382724473
  1.0002110555767982  0.8769443461939966  0.9264432055167253
  0.6651883583013216  0.5491643066733093  0.3358614142327225
  0.5223802700782397  0.5042959154967185  0.7995588508427248
  0.6758850105424227  0.6560903675875971  0.3647680855833614
  0.0427583730860956  0.9274882724872796  0.9298778941864049
  0.6123175016229188  0.5262846600195503  0.4969868517065223
  0.4524314109806896  0.5195868141958746  0.1606456532050802
  0.6905153995522882  0.5959388038787515  0.5557583355940072
  0.3502346036769998  0.5666012793284060  0.1694866411476741
  0.3026349961926044  0.6440954840349571  0.1890016342189266
  0.8353423496048999  0.6569446650089401  0.7406598088962137
  0.3618432464252924  0.7217436111573472  0.2438118621599254
  0.2521871044497531  0.6756154677862155  0.1651520803953805
  0.5586921299898506  0.6256993199688188  0.9911274142097448
  0.5649462989365220  0.5959654386887332  0.3447998982348829
  0.4288617858739697  0.3956215646365161  0.5625770955102237
  0.4980228103835769  0.3769427681100075  0.6450903994109469
  0.8931781679779648  0.1808841093622193  0.2022453017291584
  0.2793853044360499  0.3476191501314869  0.5731539348284570
  0.2628042302529950  0.2394319141107422  0.5855865000575052
  0.3270580573429769  0.3856577157130848  0.6403928292720265
  0.4251490624558997  0.4286060798995484  0.6705724883275704
  0.7468854751983176  0.3359364026415842  0.3267530932211195
  0.4129246659967691  0.4733207476093829  0.7134166915417770
  0.5207998215173586  0.5390884390232373  0.9037049299797536
  0.6066349393529264  0.5768253564831755  0.9627621443470185
  0.9488235213369907  0.8398331919529851  0.8603064616139634
  0.1331352529921996  0.0558777822132425  0.5186266118570849
  0.5698299158318941  0.6733562211390743  0.2672709926882572
  0.3490113308998951  0.3277991017416920  0.6574141902292623
  0.3357813592826376  0.4058072572259680  0.8094607045956248
  0.4805085664642822  0.8723804279152484  0.3533184623194218
  0.4353458033878269  0.9490315418793547  0.3740519053517231
  0.4080292086155765  0.3543169541504430  0.7877824847070328
  0.4338406428192240  0.4498559020915036  0.8365670982544494
  0.9872822042908294  0.1073605372287833  0.3217822829899871
  0.5537086899160846  0.4685430120340967  0.9811570167871538
  0.9387476874879903  0.1356906990717892  0.2925472403139947
  0.1686935605886397  0.1932562385826130  0.5602119754205526
  0.1534626701117308  0.2395447935125533  0.6060429113476765
  0.5886131392688820  0.6343936050138189  0.9449055732875429
  0.9464075648478091  0.2446955199930123  0.3154827196297946
  0.9364958037447285  0.1027950226740967  0.1850212074019878
  0.6605626793731438  0.5046071604289682  0.2915855330167964
  0.7065813125498462  0.4278562000195378  0.2756837901096718
  0.8033905914830152  0.5275442149439701  0.8867219273522680
  0.9603730538417395  0.7954094199472400  0.8156998058086690
  0.0633334587050548  0.9169873074928703  0.2521794418420784
  0.2569445917197349  0.1174323183278480  0.6617992202318963
  0.7375817120469333  0.9646680752937352  0.8192744007414166
  0.8243619310982079  0.7012052260669853  0.7848922803965669
  0.1743333055295830  0.9276563545691077  0.2212481710314572
  0.6013927928913179  0.4270534000469576  0.2405241678447919
  0.7092026043202390  0.4418227925358484  0.2138673519724025
  0.6078730715203408  0.4889546106868966  0.2213672962905057
  0.6106531785741315  0.5348520650098201  0.2658445559078938
  0.6685538004471850  0.5814005533858925  0.2122311931640534
  0.5766661029294136  0.6129835360619390  0.7776830906403864
  0.6144098361216478  0.6618843739035276  0.7807322383018358
  0.6271507363745371  0.6495830098143996  0.8415427885599612
  0.6527829225460555  0.7127162790472567  0.7817178079230847
  0.6433696777877959  0.7574711400334622  0.8238592268235669
  0.6154519090345805  0.6956090212316347  0.8839176039525060
  0.6763517824518580  0.6877714597183558  0.9041764109667260
  0.5190537107738665  0.6730873804142233  0.3623602966909737
  0.7235443340839349  0.7296366993715739  0.9657563676904977
  0.4769263894455253  0.8113709085322861  0.3695990658765274
  0.4216637585170158  0.7978006348948922  0.2978740904257974
  0.9688287084322236  0.4322379757063736  0.5030768056570577
  0.7158884071557304  0.5021497783650666  0.4242922801444822
  1.0280898857347687  0.0039273288380460  0.2007843541708510
  0.5370571202049159  0.5951526798473309  0.8798213973119658
  0.6916135845691662  0.7619280871634401  0.7823508233786897
  0.9010378119389811  0.2889644359434433  0.2252021886907759
  0.4064999063869608  0.6068209697586259  0.5748490922668923
  0.7980590847251238  0.3219537639499484  0.2937585854065922
  0.2002232418820037  0.0924739955010371 -0.0092619475511854
  0.1870137644213770  0.2059912914514394  0.7917598440972129
  0.2491522975237097  0.0661593648522277  0.9562640745321931
  0.8750671449727986  0.5306290225704863  0.4701992308801131
  0.6148635232672999  0.5493988342044397  0.4341711113733391
  0.5894112778987777  0.9004204131263475  0.4998840571884308
  0.6434102143968693  0.9192647116974889  0.5701789027109972
  0.6492736037159315  0.9778027289275197  0.5521272979242292
  0.6408076922323935  0.6562855554810183  0.5166250383789739
  0.7383737182391109  0.7188149703049761  0.4803409099869008
  0.5399304296166986  0.8235309876578457  0.5568208004308399
  0.5867768910200737  0.8816233183967663  0.5630240828929164
  0.5404312978460963  0.9306261526570807  0.4714056833783603
  0.9499282584299510  0.3279203009651212  0.4656933340090875
  0.9567304606496362  0.3905043975419702  0.4505576370170742
  0.8910158528344145  0.4086946530680509  0.4939735481577831
  0.6150929486767739  0.9450808704055799  0.6691516205551828
  0.4890013038614611  0.5759460100494688  0.7200974252559444
  0.4523375727304985  0.4918154884239631  0.6130824139109976
  0.6243396402967354  0.9344677533098773  0.7346381696166125
  0.6320802914040238  0.8035098447548532  0.8673201044906845
  0.6152621057727691  0.9802267025141511  0.7749556615966106
  0.6365883690257027  0.8418422956244274  0.4147311349992989
  0.3056153142873883  0.1915742236407895  0.8336376829469232
  0.4798943306616764  0.5544951964253220  0.5557912959188150
  0.5388432582917706  0.8704732923985562  0.4871832911898245
  0.5106071174588481  0.7551096355340238  0.6182597507006818
  0.4084839682642753  0.7570936326911926  0.0236847736865197
  0.3630252977696665  0.7742453359169887  0.0611594811345318
  0.5730235979404436  0.7765439614734125  0.7418799494582888
  0.8208924009397621  0.5503237692045281  0.5050605628180358
  0.2242775462730202  0.2208316651565105  0.6875238299778867
  0.2399517904551582  0.0786988746719865  0.8913450796121188
  0.9161942936157234  0.4099677582767196  0.4104022982316609
  0.8495614840088686  0.3368905922949626  0.3631843224924713
  0.8032046844569980  0.3664039401474056  0.3336432225565495
  0.7609401340748323  0.4577273449966978  0.2850163935951240
  0.8162748851924800  0.4734360598129251  0.3554337591471429
  0.4056895299819641  0.3877557425893474  0.8946676836504242
  0.7714828895471231  0.5499878399488763  0.3728254342629707
  0.4529878952938102  0.4399282552677081  0.0130909914881188
  0.1576617543684043  0.0275437289137907  0.5818212904451144
  0.7899942905923278  0.2268393930915760  0.2080349059077917
  0.7928225926594406  0.2410465406519530  0.1458320824738011
  0.4345873267077601  0.9330952938981297  0.4352072619535444
  0.7058702546727068  0.3955503558228974  0.1721778740704245
  0.8166846433709588  0.8599884431243137  0.9881247768126799
  0.3783505920459438  0.5093229467791270  0.5317576699059939
  0.6098022047861460  0.7976782691362033  0.6396480041341904
  0.5867528234709258  0.8552430950471130  0.4511871466303500
  0.9963001032713057  0.2135946113399107  0.3447849208933550
  0.9353230568529788  0.9829364951792910  0.6567429894074153
  0.3769131314085745  0.3280744953960579  0.9494033297301481
  0.1687979437685885  0.0134046742288263  0.6425641891767165
 -0.0011750881704536  0.2417003498467643  0.4520857214736642
  0.1577975029027370  0.1052193157566040  0.7405335279451245
  0.3071837734898564  0.1586101650379655  0.7285427483032578
  0.1803863894620462  0.0527551153980250  0.7618814841973230
  0.9532334675405684  0.3408787270847301  0.4055414559808703
  0.2190819481452072  0.1352061528247551  0.8711210012689915
  0.3290691292114119  0.1340734399131342  0.8533702761145850
  0.2660556892956036  0.1718283137542351  0.9376005249959581
  0.4103787528351635  0.2248173351391563  0.9196375708795066
  0.1937721885652114  0.0406827016397247  0.8273340703496141
  0.4754440438853793  0.4339824776069973  0.6307036294728851
  0.7154642490635117  0.7046081229662748  0.8018241333108795
  0.5550919170742433  0.6377780056812532  0.6549283039760826
  0.8195866341166541  0.3134741468603794  0.8749573568607453
  0.1658291483673756  0.0595180670031742  0.6949842800163760
  0.4525090912843000  0.1161968912001695  0.8956265515803978
  0.2097748234627320  0.8127345208902790  0.1675534850556144
  0.2476262113400856  0.5809761575080713  0.0766063215800768
  0.3511598416631093  0.5816184838951437  0.1112290600105260
  0.5803290749566550  0.1605813195560035  0.6403921729062330
  0.8528626254551207  0.7656722764427861  0.7266899528536788
  0.2581198246270138  0.0179641115453685  0.6475908530742100
  0.5838254046861833  0.7960074720803889  0.4634748782705846
  0.3599800597841174  0.0608851418222109  0.9360291017864156
  0.1620448065221510  0.2323209114504865  0.4454132164656707
  0.5081759615621416  0.3655945493502636  0.7080515529039902
  0.2130701689616981  0.8224745603021512  0.0988800564821640
  0.5062599031391256  0.3972126786394018  0.8150680700239719
  0.2234900909787511  0.8804421510296953  0.0712426405681657
  0.6163315100156604  0.4275612473240050  0.9013334292198270
  0.5166934891039903  0.3865133563690882  0.8746343800392619
  0.1808169912754523  0.9433143299899013  0.1560301641360187
  0.2386552527511134  0.9854787462192756  0.0962049393721200
  0.2968822128354591  0.1365662978508663  0.5615208206007178
  0.6784701304843889  0.1518441773769207  0.0233828989525796
  0.3057078614197097  0.1229681053614443  0.6241697814733208
  0.3118538982173468  0.2773028329515710  0.6531762971605718
  0.3440785315319411  0.2083180254042680  0.7328325416587617
  0.3919983251839184  0.2475117081357664  0.7983895468896566
  0.6585853283033096  0.2849107566010610  0.0016037071693632
  0.5621506994112057  0.2723523600549365  0.9142476195515569
  0.5551317206592321  0.4440118951778385  0.0483717467677788
  0.4886269773512840  0.3266039814750312  0.9317151642653084
  0.5038250721426553  0.4567839280374151  0.0845389756097149
  0.7544336944101444  0.9174453846031723  0.6100475025804186
  0.7012020672365089  0.9627573057427076  0.5195273690049347
  0.5574507936422655  0.4881471684018485  0.0908019830220292
  0.3898723720514654  0.3473256821353106  0.5550023922397951
  0.4546995860699105  0.5359986417357971  0.0999162849813453
  0.3597594750652036  0.2829458220008305  0.6147516388292532
  0.4580678546741159  0.5970673936097103  0.0837908759034446
  0.3055864403939019  0.7449101907243709  0.0473668884238098
  0.6660509179488343  0.5708169198485312  0.9867294436391079
  0.5621502304336053  0.4894687319977934  0.5974926977211715
  0.4703595947935669  0.1644465076982246  0.3461884378738580
  0.6236625580645965  0.5142523086481481  0.7199898814820813
  0.5622096820024326  0.5234016833144480  0.6980390186469980
  0.6333309045672758  0.5024153031202973  0.7799903128878252
  0.3057408241770445  0.6298557803081167  0.0254292106885603
  0.2543592656169882  0.7085686186110496  0.0409747033178732
  0.6818005964531739  0.5408200131569562  0.8441247699007773
  0.7095216002333600  0.5853707543824107  0.8813172266153870
  0.6492027640565095  0.5921822021774205  0.8610596676594768
  0.2420896892379452  0.7645863045873432  0.0219215068555156
  0.7191419849036990  0.5745139806423633  0.9453108761485408
  0.6987627901172159  0.6291335031044103  0.9253529281475111
  0.7405683518530468  0.6774640487282964  0.9855065052389227
  0.1993400497939211  0.7785503896134131  0.0605422689792679
  0.1163522986009382  0.8811631837116938  0.0487967993337171
  0.4562830319376828  0.5822550493455404  0.1440889363141629
  0.7016997125858598  0.9268958719120682  0.6459446806186753
  0.7327392113232924  0.1646847824801428  0.0915386826573730
  0.5580956440169722  0.5181484598733290  0.1955650542229501
  0.4006465969985392  0.5036592258713062  0.0934434687353150
  0.5348060151816280  0.4602587764866316  0.7578665932640046
  0.5827878239675776  0.4973423083464745  0.8196927876974508
  0.4051407379389700  0.5871665792026336  0.0146215063296873
  0.6928653939029625  0.5312563382485657  0.9039036314876439
  0.6320392976939688  0.5366606337785425  0.8835784197463055
  0.3014068834769981  0.5698527965614688  0.0433040756777155
  0.7167400613448465  0.4565161783180987  0.9837829071320431
  0.3571914606530539  0.6484889836434117  0.0933281106014672
  0.3331811370133622  0.2035116891666693  0.5048964472736174
  0.5810421800461232  0.7334610076817090  0.7002185145823002
  0.4098680456844654  0.6771417079680617  0.1033763379185385
  0.3794867471233592  0.1399413895582708  0.8121718917253156
  0.6456200085822283  0.8158066155687319  0.5368901532333428
  0.6951170758617012  0.3023266356426129  0.0895510633603639
  0.7032120009433370  0.8783367308417559  0.6121794178606973
  0.6524035438913962  0.8457208325039697  0.6451230984165494
  0.6600934417354815  0.8332535078186948  0.7043824125128305
  0.6040267616078151  0.4406617236371557  0.1788437692456823
  0.6970048177731810  0.8822918545213317  0.7055967257771419
  0.7972227588488201  0.9235096495774733  0.7343410740899394
  0.8092855090418656  0.9112784929635575  0.7961416695117405
  0.3752685315625723  0.1735636325327986  0.9152840920115244
  0.7983183111664170  0.9563131255224629  0.8398147460566122
  0.4127693403340076  0.7239725311348461  0.1472659032784702
  0.3510046548889705  0.5658032342127256  0.3961007311892590
  0.5658737027733279  0.6439963223573709  0.1615886332317147
  0.4132536014968730  0.7065635915125178  0.2065561403010720
  0.4160413097141157  0.7523828112664360  0.2522241150321946
  0.3708134957185043  0.8298090115477472  0.2731377862700103
  0.7314522710204874  0.8109569447025949  0.7868692413365520
  0.7093774926893356  0.8694323184991828  0.7696929680127803
  0.3245317348602694  0.9239088117826507  0.2324682816153366
  0.7492304928429191  0.9194045148578813  0.7733414176719593
  0.7694267819888548  0.8925022299723196  0.9019131882065954
  0.3302531592273573  0.9689920730984215  0.2783182568254483
  0.8771635186062908  0.9932336500969375  0.8982701580915621