Cr N  Ni
 1.0000000000000000
    38.6909066207142374    0.0000000000000000    0.0000000000000000
     0.0000000000000000   38.6909066207142374    0.0000000000000000
     0.0000000000000000    0.0000000000000000   38.6909066207142374
 Cr  N   Ni 
 1596  50 3725
Direct
  0.9722262873975920  0.9352725060823370  0.9040051518730933
  0.9441072974548753  0.1799055957074783  0.1042931700116126
  0.9048935651297210  0.6371490252312317  0.8241143601288322
  0.9290456813011830  0.9758242227516205  0.2052053293535332
  0.4714467761810838  0.7998648628710734  0.2012330094623568
  0.3162146805034265  0.5170045618752570  0.5095291589371512
  0.8248572141454397  0.0274460169278421  0.9929031119951057
  0.8142990888587684  0.9537694830080040  0.0784521242807016
  0.0628678354883059  0.9856373479964068  0.8876878900501665
  0.7196719406824481  0.5660102318797042  0.1801976695620532
  0.5859735501372950  0.1804958135947464  0.8200775703701990
  0.4234066927636700  0.6951043965795586  0.6563538634652015
  0.1469308133686517  0.8902911388137229  0.8067611415670877
  0.8994935955113456  0.2568619406388645  0.1209460774718197
  0.2383443704076906  0.3620233221538561  0.7823523205255367
  0.5366931129564675  0.8479852959150564  0.6616938690799471
  0.7152313573175986  0.5021808501961248  0.1964099513488508
  0.4504386649542207  0.4267572081255068  0.9591514096775268
  0.1498959260263160  0.9066520405082689  0.9783924172861566
  0.4148908874727065  0.6089363908856357  0.8378323876514796
  0.9550617438319561  0.8928051353459256  0.1136225884648474
  0.5728558135584745  0.2260658454857199  0.8640113621016599
  0.7489299652160365  0.9527792312627380  0.8804580819930388
  0.1156670580423670  0.1901340240317294  0.5966828712734028
  0.4620744179932799  0.0734110734637792  0.8534274124480311
  0.9457580613726626  0.7942604619512973  0.5816896286256359
  0.8581300111145201  0.9477604462676352  0.5208901711287465
  0.8135660867383200  0.0263546067785477  0.5350354560506931
  0.3188273793543218  0.8106748653912383  0.4318243176800386
  0.5641984476129651  0.5668341310713386  0.4656643006834345
  0.3668304432103525  0.7508230245954376  0.3499776949889415
  0.4919652346444191  0.2583419437285415  0.7215829759223685
  0.3118975240680726  0.7377572255064799  0.2785446080634970
  0.2654283448958611  0.8158234694049625  0.2983993165628647
  0.5688430454275339  0.3245294572316328  0.6226485226525813
  0.4696793722438465  0.2813324095656252  0.5966861549573249
  0.2749101838490111  0.9216485222508491  0.3303923411850720
  0.6190879053681364  0.3622266591100547  0.6902215823567655
  0.5458759916242801  0.4136639836519787  0.7137114346728853
  0.2138080815188717  0.8451525690159029  0.2736229615532788
  0.1291316932999962 -0.0104587121426878  0.2997542856951478
  0.6279391692112896  0.3823867259264391  0.8601535335408464
  0.6875960563126826  0.3745828867424201  0.8806042009650548
  0.8305457008315220  0.0914122564821145  0.2105126362267699
  0.7358427822771936  0.4104890495292378  0.9477546003594769
  0.6444658229116755  0.3664704153394200  0.3942886988463439
  0.0412373095653503  0.8206801539020084  0.9958463201059755
  0.8853497929001263  0.7045589349023252  0.0287189145806375
  0.8579567881307996  0.8644097233334704  0.5492640851129325
  0.2905240969253429  0.8197020376921822  0.8691231911877523
  0.2481838757222906  0.9009589153146019  0.7259895767980048
  0.2631430667681279  0.6923988626762223  0.7130589956926483
  0.8363858511470296  0.7190595820456898  0.2901157169911369
  0.9383424857093562  0.6723590344453795  0.2809250807860018
  0.4402443330539320  0.8668046874118321  0.8529678027040153
  0.1607857857990186  0.8283807331289359  0.4334360337748701
  0.3202915599801443  0.8287504126184644  0.3722570408803504
  0.3236583404225661  0.8748616558020771  0.4167119959762792
  0.5984477552575902  0.3209429458421119  0.9172337532763414
  0.6612424401549094  0.4396848919278967  0.0841822818979940
  0.1777301037680604  0.9764534188304221  0.3893614093871115
  0.2204838084871612  0.9278056758670513  0.4320478357333215
  0.9353021417814800  0.0892854106500797  0.2476827341100825
  0.3803228131523394  0.1070340518856551  0.7069359266023161
  0.4711646008009637  0.0300225026491086  0.8110930454928422
  0.4662536937556067  0.1943393949733047  0.7775961587416305
  0.5098820462423875  0.1122667042048095  0.9185733356168196
  0.5275661807489820  0.2179056827501072  0.9094714336409310
  0.8362922625372641  0.1490311519170974  0.1922393972562863
  0.5508117942819449  0.2825830944872118  0.8493936564780619
  0.5821805103389673  0.2064052235230361  0.9518942207916425
  0.2408134549678341  0.7823275451438058  0.8020866449115645
  0.6134415427436566  0.5389824692898254  0.0379719245749237
  0.2305551963459785  0.7943713625716615  0.7412271046054276
  0.0185102783264587  0.3652819756657960  0.1778682384548178
  0.9707475510964750  0.8917784628390096  0.0307187398102043
  0.1321995252162351  0.0510104874727210  0.7982743405014933
  0.4719256270457340  0.7325588368682084  0.7208328116084631
  0.9264268472722472  0.9838355861580108  0.9852156270335501
  0.7096308793452265  0.9020839263267050  0.8752667032608911
  0.2373258209140633  0.9448129988523033  0.7686716568964790
  0.1146869172650777  0.2044875752356832  0.5370505638312439
  0.5211413730400694  0.7721399699138601  0.7850993002524831
  0.2576539844680326  0.8891275964582604  0.7873787307621414
  0.9822910714111752  0.5350562913124957  0.0528740968073824
  0.0168024746142323  0.8190552764746225  0.9404987981254309
  0.7608747348964864  0.4259011032992527  0.1805964675124399
  0.6184874340999700  0.6283247242456003  0.1286045031153708
  0.8205984646933168  0.5028195133886033  0.2331550479802484
  0.8999927675570616  0.8912810436134124  0.2100124347850726
  0.8020398721573375  0.3183906408398198  0.0634281857238517
  0.6050902886153837  0.7392278986925467  0.9282190668237844
  0.8390237770469617  0.1809360870056603  0.0651611253870547
  0.7587636497661304  0.0085593063209002  0.4613782681072171
  0.5337861900443709  0.9080508120505331  0.1344924999773515
  0.7393322097743775  0.8260741633495892  0.2844923435461493
  0.3235430107098254  0.7170517641113330  0.8410718810073851
  0.6629052785517264  0.2494681896454757  0.7266504095866717
  0.4840077424160427  0.2345958388834720  0.5611026301040620
  0.5869764469365338  0.5549814864675628  0.5421710539265800
  0.9761005834934029  0.9011042844956035  0.7998414946555603
  0.9043794307331769  0.9541260867898373  0.8205179464655873
  0.5253040770009632  0.6999349639211176  0.4717055887412455
  0.6780497577463881  0.7456111684414730  0.6129858737547577
  0.7580184477343035  0.8081296133118610  0.5773979559456507
  0.4801383617805482  0.8364868978792125  0.4772132787948994
  0.8332560258044711  0.7934263140902486  0.6028073603831212
  0.4282253467256598  0.8500697054036052  0.5182848891138734
  0.9201888398569334  0.8810144593602847  0.6729526433159525
  0.3349483503476516  0.9827815847661986  0.4497146793075000
  0.8874151934275745  0.8467684496473807  0.8382579688402975
  0.2836415327622616  0.0296064187618759  0.3618418797180525
 -0.0108113683690226  0.9880399196157053  0.8789937082635849
  0.9242480024669251  0.0219073424369799  0.3381697161659660
  0.0399951885324420  0.9949904641137458  0.9532526229881633
  0.9314342496526192  0.1125972585606837  0.4195252748139942
  0.9277550221616659  0.0650482756565588  0.3785294710291989
  0.5954234799025865  0.6543431312078944  0.5568199007521212
  0.8881158492230291  0.1525744391351946  0.3258255932418316
  0.8313328197691982  0.1552347187960835  0.4225309859659792
  0.5921087956891194  0.0164161892357490  0.8554112087554195
  0.8349011507473312  0.9722673962839319  0.7348364336739378
  0.8379740277662847  0.1830793548434156  0.2978385386056192
  0.5889153239773838  0.6329348541265855  0.9456479238788126
  0.7442166097409543  0.7371160120493823  0.6411351199844491
  0.8363429745081521  0.8404963862594209  0.8817686723162748
  0.7048766735803219  0.4120456832891340  0.3385761680286734
  0.5384875066549875  0.6703891456057920  0.5356332983051006
  0.7842100170406715  0.7172954074453066  0.9930097196453530
  0.5187571301721311  0.2828110387928929  0.5571621258436815
  0.3727991378484143  0.2375016229685988  0.5743358538700671
  0.4261472003237698  0.0105876670147996  0.6444869411226042
  0.4499544383365349  0.0533587881499516  0.6839489859748624
  0.5026807633232663  0.3063475083324246  0.0032506772019658
  0.4475303369360105  0.3175302458275861  0.0529270362467153
  0.5973182331047775  0.1355222983362177  0.7744811134971531
  0.4464452096442557  0.3649754902799189  0.0923626216226891
  0.5103206074225075  0.0781682597173716  0.8134641262204526
  0.3981438267568272  0.3924420100088619  0.0645133664071554
  0.4525646137242941  0.3786943253189616  0.0302988456354912
  0.4008144332488233  0.4572449493571178  0.0460510911488462
  0.6570116314323733  0.1627627384630610  0.9012230617784560
  0.6177395366172013  0.1470382000890678  0.9460413057833057
  0.7367637152811179  0.1953201869308225  0.1986217319240222
  0.3887492290258234  0.1856682288230023  0.5203285755171434
  0.3405508531515009  0.0903529648431193  0.8101038471328279
  0.4336797031060602  0.0126045310131278  0.9152400818859928
  0.7375227796934687  0.2291441814734735  0.3042257081134173
  0.1541821323929361  0.2398470618457892  0.6045572061259687
  0.1898662458648051  0.1361694552906055  0.5764424094715799
  0.7151657906210676  0.6726646783365574  0.6986735096401915
  0.7034572818164974  0.3876411324585908  0.5442445017715593
  0.6742165683902086  0.2362206391878401  0.7874841900150776
  0.5512481878820689  0.2508795959843599  0.7423110749924463
  0.7333293576539281  0.2279446003188567  0.8097433266053322
  0.2606272536434713  0.5864637175719846  0.0161681208915072
  0.2013498320756404  0.6128779418331959  0.0463848595770890
  0.1431220060238828  0.7552909679729098  0.0373584546736838
  0.8148065141000194  0.3922168150253443  0.9756305119929615
  0.2052067324657800  0.7659640493835747  0.1219228962330925
  0.4940731829616135  0.0743018497369185  0.5816860190991886
  0.0685691985645404  0.9014437882515692  0.0812630533538491
  0.0095253671480234  0.9032724806064610  0.1806958052528714
  0.5414161783070336  0.1129575879581033  0.6450112258634798
  0.4905135283408764  0.1052757281216631  0.6872565603241753
  0.5502714189377508  0.0988111739684846  0.7092248919209120
  0.5385654379507622  0.1422983142564009  0.7520253027746893
  0.6171406270199922  0.0586028553825392  0.0249284623470421
  0.7196454614087804  0.0290864422241663  0.9529652074115300
  0.6311164594640221  0.2186809381131028  0.8879765856090627
  0.5773065162088672  0.1953177195348932  0.0295732126480609
  0.7375485746763993  0.2563303380881627  0.9268638243701470
  0.6825250827787398  0.2553951556240980  0.9558041095209102
  0.7905659824860956  0.8047375149794844  0.8068147535612850
  0.9436314337697235  0.1851397459565880  0.3332819207255805
  0.5428796085229229  0.4798691416436539  0.9217361378205750
  0.9885845112954519  0.1081492817706920  0.3213719560748103
  0.4223144844399213  0.4946274121783555  0.8779821537498894
  0.4073724773455491  0.3541537927778912  0.7878908975877910
  0.4359553675689150  0.9490179541805409  0.3754241033613481
  0.4810673258950769  0.8735122194899543  0.3541646737723560
  0.3357524953964212  0.4061356393269862  0.8101384969136151
  0.3392776087678070  0.3411209270315062  0.5957631904937012
  0.5698713829785027  0.6738995181627655  0.2679789784043043
  0.6747007509501146  0.6566369674324460  0.3672468355088472
  0.5540773405049210  0.6255435669877857  0.9918574154748663
  0.5141070902116630  0.6089540490027594  0.3880235459371136
  0.5204072777945068  0.5384053928069131  0.9054038042297519
  0.6061480337919206  0.5739930387936786  0.9650064299558155
  0.6665097939538408  0.5495677980475564  0.3359060302257613
  0.9953968757722716  0.8741673663284971  0.9258399060529967
  0.8734229598903261  0.7084114302571236  0.7447687070790785
  0.8454887076601441  0.4088398830880314  0.9251794003962998
  0.7577914458519877  0.4115058183546371  0.2423216120784372
  0.5870897740304593  0.5986864056987400  0.8389544045028395
  0.4465175536124983  0.4103258797700841  0.1357705877643892
  0.4672298060297004  0.7374152881014927  0.2165843945770262
  0.2597601074630866  0.7839582705494507  0.1926425382743522
  0.2553121385379872  0.7522144610708904  0.0865784523689391
  0.4414497913404357  0.5365743160996463  0.6565326442506394
  0.7069021113412821  0.3961406289032802  0.1728347669782364
  0.7558716787663304  0.9598309985487743  0.1811454587596759
  0.6352486310188682  0.4350801604297106  0.5740133671379344
  0.7103317072263280  0.5707967134571417  0.6836448864599445
  0.8103478148072427  0.5832771776314423  0.6052096404759748
  0.6332585072538944  0.2081351730011070  0.1026373926642930
  0.7603608387075289  0.5884414474396740  0.8409855284464018
  0.8228071407701932  0.5819056386880991  0.8625825169658163
  0.6360051175131137  0.2419767706249714  0.2051110476844435
  0.9908854701198357  0.7261271624379658  1.0043662684356256
  0.5470732800001276  0.3961916942882685  0.2313953791181252
  0.6458776848376157  0.3493294880962751  0.2264554837359978
  0.5384169438870289  0.3941046833089186  0.5390119847114281
  0.4519714602743355  0.5055394073602208  0.2216198818238781
  0.5054655906971133  0.5204780738674091  0.2921204699602162
  0.6563999762354992  0.4107769602187833  0.6939918242977157
  0.7332670532034379  0.5133612844543399  0.7020532644575598
  0.4557147302480251  0.5661436453709444  0.2047058273986756
  0.7049429432016091  0.4497896593943869  0.7598937780926155
  0.4089709871921442  0.6278120480671562  0.2839453204271390
  0.7750318613533217  0.4298769913151729  0.8426887351176772
  0.7446693581002923  0.2708883883514472  0.1180249687903893
  0.4339159273363484  0.9318911668082592  0.4374518577391199
  0.8399932394503221  0.8098968129514230  0.7704574610923698
  0.8317623211704575  0.5593609239152691  0.9911370721207640
  0.3077480861472152  0.6742882761486667  0.2943442251919192
  0.8239617825112520  0.6191283712808688  0.9693509293427801
  0.8823666760278079  0.7281076922959017  0.9100224256182534
  0.1557486021055002  0.7807112490991278  0.1544849416164934
  0.2097806176652667  0.7971920657700655  0.2265234687324525
  0.9216643737066004  0.7450143548999969  0.8103773261581824
  0.2235409346444874  0.8664740659355846  0.1361419222686699
  0.8357357106607861  0.6467924139240537  0.5417655551811275
  0.8836415494243252  0.8010728288429237  0.5629332956691112
  0.1679348221273793  0.8862375965476813  0.1781996164495790
  0.1201355719507101  0.9166062740225968  0.1512016895987831
  0.1280767667193882  0.9598229309603752  0.1929118973495629
  0.9412536042922363  0.8195592868121822  0.6922711013071985
  0.9834048728847128  0.8728950162190984  0.6986197637440358
  0.6618399804571252  0.9837487868045112  1.0059116892473852
  0.7715031735463478  0.0293173384676145  0.0922413193964287
  0.0305459352134807  0.0432716634789115  0.8785387542871372
  0.7378926653670086  0.6034842059355061  0.5244061038794633
  0.6975768446948299  0.6609759597902596  0.5363900438767824
  0.5913481824787592  0.2864483264722086  0.1138551336891968
  0.5021274355990782  0.4423434927793118  0.1440493803438415
  0.7702011660528660  0.5785671749129759  0.8999040683973312
  0.9365846639128086  0.1039193354462025  0.1845695059492373
  0.6666302650057372  0.5654752257303870  0.2758349735844177
  0.5445239432413024  0.4468490340527850  0.8180310768778812
  0.2566887239385702  0.1170446703554378  0.6630052084366383
  0.0270247966931870  0.9254232771588197  0.9281457562310641
  0.6055075718288137  0.5181415312406706  0.4985471743017890
  0.4529723315410178  0.5207096502360735  0.1620208900883304
  0.6907059862911082  0.5970063838783447  0.5602184621932501
  0.4027565895640579  0.5506926810766124  0.1358488951570898
  0.3039526012059968  0.6441035429734577  0.1885925195412967
  0.7747155481438242  0.6639158575495751  0.7210730787038211
  0.3619786177151864  0.7219264645769201  0.2436125809066468
  0.2527711025749340  0.6756219840383645  0.1637023352258352
  0.0636639091552788  0.9165466701872288  0.2499841427229367
  0.9476634198326540  0.8394434637718077  0.8591702575173283
  0.4289284113007004  0.3960303473155614  0.5633284287214232
  0.4981659942542263  0.3756420502649645  0.6454252339952835
  0.8941285728830688  0.1816126208853515  0.2014329291075631
  0.2799238067453372  0.3482766287677728  0.5737439499174306
  0.2022013790608947  0.2478925508205975  0.5638012349098304
  0.3262523259430835  0.3858193640570395  0.6405615041355537
  0.4245965659239145  0.4285667578065465  0.6704205466594325
  0.7475046187714318  0.3355197828601361  0.3260134542682639
  0.3755438988633977  0.4229166486262173  0.7079331047720131
  0.7507557767924993  0.5230971733838106  0.9256104282674682
  0.7133566059192139  0.4879168683186573  0.2561775790643444
  0.9702594445453440  0.7825542751834133  0.8757237829461110
  0.1599684765881994  0.0298248522284379  0.5773409577953726
  0.1316305424834385  0.0527298314722972  0.5187092825861256
  0.7371596143110161  0.9639630243755748  0.8183080563564563
  0.5008784293044214  0.5279007839634865  1.0090787920417079
  0.4837829874927657  0.8264710143369872  0.5373985118716872
  0.5671217343665585  0.8013433260177717  0.0099375704464735
  0.5107710738541251  0.7546670743381557  0.6195772307316668
  0.6092178199527581  0.7979446329873798  0.6399726606392858
  0.4071983552929799  0.7568693278599030  0.0251239472259928
  0.3615084492594574  0.7740229542602814  0.0606105231491909
  0.5482492534282546  0.8340180183428677  0.7248579824481990
  0.8200624811893270  0.5484862655517257  0.5045408212133934
  0.2233377450543658  0.2205323567034226  0.6881379813068410
  0.1995072100664473  0.0298254678175078  0.8899432124603414
  0.9164294587015540  0.4110550530836178  0.4073576482096727
  0.8506133239545011  0.3359363924971857  0.3615248447593408
  0.8032614488802938  0.3659220414045197  0.3325257620913602
  0.7673864835301585  0.5023232073157197  0.3288417344322449
  0.8093852128603448  0.4112357802221180  0.3731005556008916
  0.4050065636112031  0.3866021208804465  0.8946602055252211
  0.7719327162992561  0.5301517697839832  0.4362800292601727
  0.5055800704339111  0.4706099012910109  0.0247616214504780
  0.7907742158269402  0.2259925028377311  0.2075062468425105
  0.9488375559229867  0.2461129499484465  0.3144115186891875
  0.1756346828906162  0.9278668699972660  0.2193662047390358
  0.5376852932067591  0.5943016979671679  0.8809604902656923
  0.7983739229502705  0.3206094794294972  0.2931139523561028
  0.2007064224770645  0.0961408236305873 -0.0098484602226800
  0.2474058763496099  0.0670483956898009  0.9558050356552513
  0.8762868862019043  0.5288033273876487  0.4719207361459749
  0.6493216164750312  0.5591388971992310  0.4974025919542822
  0.5915583027771272  0.9149709379137237  0.4361991226413309
  0.6466944083437790  0.9193824002991073  0.5705062671377292
  0.6512925871005741  0.9945078430832605  0.4883046425237235
  0.6414357425958653  0.6556895022468173  0.5158594899489862
  0.7400510194419994  0.7201204906707801  0.4816855991624744
  0.5410153370186153  0.8411871454093630  0.5635809706402364
  0.5888042151218513  0.8812032802582627  0.5619409122207391
  0.5401085271859134  0.9283216957107526  0.4731374906987024
  0.9492925537785419  0.3236532825757085  0.4696400337033658
  0.0098979899460705  0.3577466011039113  0.4804827448197310
  0.7679305551215339  0.4595340308977429  0.4578324545417816
  0.6150362217858939  0.9464343417628795  0.6670273118247868
  0.4895197328127677  0.5744769308764368  0.7221896917750699
  0.4518134523452900  0.4916764528398134  0.6118256086891811
  0.6255442955207389  0.9343641332274231  0.7326607788519022
  0.6310567682975109  0.8022744424086017  0.8678363250163432
  0.9030471167021296  0.2890069048093721  0.2246865043580224
  0.6153069520451809  0.9788217944191272  0.7744987043045072
  0.6363030151264464  0.8434747517609334  0.4159259951153976
  0.1547373378061893  0.0720480242928313  0.6323522806106758
  0.1843686927016644  0.2036609359595910  0.7892657970858298
  0.3054400795645504  0.1915420346596116  0.8330610260778782
  0.5335831597193031  0.8642311353650063  0.4949566024980362
  0.5851606650089181  0.8569691468894851  0.4534729883227290
  0.0028253537313912  0.2626402929989343  0.3865062640585281
  0.3751025578759361  0.3242267755717476  0.9595776824790009
  0.1671523588031683  0.0164215336088830  0.6410715963367831
 -0.0010222997821261  0.2461574866616579  0.4477225103322263
  0.1561624269186906  0.1044930489956615  0.7411214177003863
  0.3073053825215660  0.1587857047027130  0.7288973726042252
  0.1708574360522561  0.0984398540486224  0.8037451621685747
  0.9541386839281196  0.3400689343834367  0.4019256775956330
  0.2700215554442688  0.1412015483517921  0.8316370037462660
  0.3285397021347030  0.1336292710699584  0.8544663069204642
  0.3145188043650701  0.1788217963006321  0.8927190475992920
  0.3733723119210360  0.1733448359765812  0.9168648223112892
  0.1668107731170999  0.9970772740660074  0.7903121322144909
  0.4747099994363928  0.4331001340957150  0.6305736557203613
  0.7135108719317904  0.7045786977967071  0.8021262026553913
  0.5553210865540463  0.6379450003646272  0.6576828871641639
  0.8185223212729549  0.3137203569198359  0.8750755886508618
  0.4751367085280083  0.0618373444987215  0.9161347543245346
  0.6906107252532043  0.7614969518070961  0.7841083629025745
  0.2102565082406288  0.8133707077584774  0.1658372767426142
  0.8180221909426336  0.8614035237636137  0.9896738930967717
  0.6017142884065795  0.4267957277339313  0.2400304608208131
  0.5194585124304415  0.6064563074845961  0.5565800573987132
  0.4698576916120935  0.6003399545725202  0.5997175047676806
  0.7087430947829584  0.4410061472612722  0.2146711993206960
  0.6601004417384314  0.4725993226801373  0.1873851977686711
  0.6120283481674770  0.5358011682689486  0.2669710169871264
  0.6686976001554791  0.5814233637996485  0.2150371912794576
  0.5440612070969347  0.6817900793491489  0.6988510580329618
  0.6137078236343714  0.6616888525580800  0.7811224661256053
  0.6265514435619896  0.6477633247637148  0.8411244934629332
  0.6519735184937429  0.7122113130846549  0.7820125626021365
  0.6415060900754177  0.7565523483433767  0.8250028569416458
  0.5644116115935888  0.6907062481449046  0.9240052858924223
  0.6769473734935810  0.6859293823976329  0.9054699635759482
  0.5192599180006233  0.6736602275283740  0.3641697895143083
  0.7231071798460189  0.7288967329490633  0.9667169253476922
  0.4768574405866876  0.8118000854526538  0.3704342385954349
  0.4727222989449295  0.7662584935898104  0.3242173561863069
  0.9724136118011968  0.4312322491276012  0.5011915768044016
  0.7227334423851964  0.5641264578401132  0.4082224763350970
  1.0290228654300169  0.0040319302575041  0.2002702501763472
  0.4169229331679547  0.5625750471400182  0.5319895530413257
  0.2467555312213083  0.5311617935029612  0.0343300767526777
  0.3024233133489885  0.6147499607600615  0.0845170312912485
  0.5513572585433864  0.2174822539866236  0.6406456413365379
  0.9353434661605178  0.0848143864911138  0.6690575910154587
  0.5277886433954250  0.1554637700456558  0.6859741928062576
  0.2938488590520715  0.4386905203638523  0.0752200649171755
  0.5325708729678219  0.1226396902417395  0.5778842531781730
  0.4547609721673999  0.1475653250304124  0.4937119461579653
  0.4982562020779380  0.0514416128411921  0.5323769166052722
  0.4089192941261682  0.2809371825107327  0.0201686725909307
  0.5200611064366207  0.2257776744206995 -0.0038208508731001
  0.8165325803424218  0.3321479646547859 -0.0115957649087768
  0.9327995728076620  0.8350315002357734  0.6221127837803853
  0.4858952216839729  0.0044028777420757  0.6661516503472910
  0.8826126656714605  0.8291456307334732  0.6678200111995082
  0.9570057170569707  0.8999087369832314  0.5115353266821505
  0.8515970915018883  0.7794931538009396  0.5038288695925495
  0.0098955902446147  0.9717911530747552  0.6489210095871821
  0.9407668457460800  0.9851185878630975  0.6507045252950011
  0.9851689119442074  0.9486525929985262  0.5503710218620361
  1.0445875780668614  0.8314480790744512  0.5166234192142367
  0.9663004922301719  0.9646768028619788  0.4911824875697811
  0.0734586411402821  0.9704440887971838  0.4662485314055549
  0.4998165666907736  0.0540693154914574  0.9808143554113009
  0.5586265678054870  0.1165012948144147  0.8778138608449139
  0.8519034665531240  0.7660780518697385  0.7263303654030787
  0.6916621485967359  0.3055682480139745  0.3179585469795667
  0.5822114062586351  0.7966929547079855  0.4665210120812043
  0.6113843191298454  0.5280278228987606  0.6617475827467327
  0.8149395463681842  0.7813155288526282  0.9280286500699365
  0.5080314067234518  0.3655178228947609  0.7079496860702948
  0.2137748643747907  0.8234256171548960  0.0971153091904336
  0.5064983238193344  0.3980040327353146  0.8144657730915466
  0.2253563670069789  0.8814214986338944  0.0694835377936541
  0.5545535053823394  0.4356798478729824  0.8799112485012412
  0.4769965521500080  0.3347966506485741  0.8714072993421377
  0.1820840970955419  0.9443236880893351  0.1551418505581393
  0.2900486172578074  0.9550280428011042  0.1204110129144208
  0.2852579727021882  0.1802896638714072  0.6052704454222663
  0.6785591526177412  0.1499522957868229  0.0229611078832301
  0.2658620724830885  0.0696347181091083  0.6175098949194175
  0.3114265184372973  0.2769919736959558  0.6536976168518559
  0.3439751811572626  0.2084125905110007  0.7334360437534357
  0.3922128609101462  0.2472682749767276  0.7988639579664013
  0.6595484594813144  0.2835435433050865  0.0030526400488939
  0.5596483366411229  0.2731564566543949  0.9123724973385288
  0.6061931075835794  0.3640396974468647  0.0230480954272766
  0.4397983191284285  0.3154057075392388  0.9743280388507283
  0.5048443232886540  0.4581170052328363  0.0855482982540428
  0.0325147024546248  0.0677052844906767  0.4159868115743302
  0.9857428450376017  0.1469954094570869  0.4307661163263182
  0.5582812877877408  0.4896864575121497  0.0924504910531102
  0.4537611062147455  0.5519014072102688  0.0330394888615556
  0.5123823370586816  0.6140733398826506  0.1532082378076027
  0.3602150394402107  0.2834870935687627  0.6141411288584883
  0.4587200986450330  0.5976148918711277  0.0821701667102416
  0.3036519527009304  0.7445286773834059  0.0472648416731841
  0.6639503705991363  0.5683738182955698  0.9885935528219580
  0.5619368115780391  0.4894150038613804  0.5989062618376875
  0.4707473451519175  0.1650199787206649  0.3474439951125572
  0.6220575827631222  0.5144297477726552  0.7208563705550354
  0.5734236548692437  0.4776772442336193  0.6563848424955691
  0.6325650508328156  0.5014580294155236  0.7814175802019571
  0.3072363584816335  0.6301642830869640  0.0251801594117266
  0.2540441833460549  0.6440175751571516  0.0589647222964570
  0.6819854128706113  0.5405452046241319  0.8458438335815314
  0.7092933179530553  0.5837335852292557  0.8830055878762667
  0.6492145556900436  0.5907887337624679  0.8621174033230553
  0.2412623616794292  0.7659666869744061  0.0215616773317405
  0.7194891407460160  0.5709186476126521  0.9474914312269699
  0.6982952330301052  0.6268180973004900  0.9265614837073253
  0.7392016580726740  0.6764405614598153  0.9857548942962503
  0.1991262907617403  0.7789699154943250  0.0592365953965361
  0.1703680174011339  0.9638025921370159  0.9680824639104527
  0.3900382887781636  0.3475239538062803  0.5551622921187458
  0.4265063656535807  0.8057852153230535  0.4720611936396266
  0.4857717850703036  0.8845839559254367  0.5248700706114646
  0.8077366550340157  0.9114514805418311  0.7957045308388520
  0.5581006926334867  0.5206313048251939  0.1956061536304406
  0.5341313962917644  0.4591900749359294  0.7584980804831573
  0.5605499709489719  0.5550293058151216  0.8039323973576611
  0.4061196689746561  0.5866610022759230  0.0130060488498001
  0.6910839930397941  0.5289297235287148  0.9065666591032495
  0.6528820192056318  0.4776676763896051  0.9031370129072097
  0.3057258973287648  0.5673938867164123  0.0460782805223897
  0.7185684172825644  0.4515409985697321  0.9845345169655646
  0.3576560137944643  0.6476634277105104  0.0921330486869507
  0.3355389578945117  0.2035462216883594  0.5057149146610933
  0.6811976822802296  0.7747948203010705  0.7229842186260059
  0.4100963554399517  0.6781156675725106  0.1032266820683656
  0.3785113925847570  0.1389616293243899  0.8128527793943668
  0.6454089805904663  0.8167312456793477  0.5382587688415253
  0.6974822200769801  0.3015133580644473  0.0889533211520822
  0.7032416316964083  0.8810678798119795  0.6130333423784105
  0.6510222773567906  0.8472182219668581  0.6453150269265692
  0.6587530951849995  0.8330207742045643  0.7040973479380902
  0.6054500936834758  0.4413921205494112  0.1784608756177856
  0.6957606123090669  0.8829863570134556  0.7029176209060415
  0.8089234810943498  0.8802793759522584  0.6901270419136447
  0.4124776791204328  0.2054741879361076  0.9778805017051245
  0.5949699633656145  0.4519105605207929  0.7788330753641682
  0.7969539842531980  0.9555011869296895  0.8388507335549193
  0.3513600891007642  0.5667897655943834  0.3963140627587006
  0.5854450482558616  0.7182228743536869  0.5415817881388627
  0.5676101746552445  0.6599498581923080  0.1006807873272259
  0.4647468852450670  0.6922690469353779  0.1713016152532470
  0.4157749391434250  0.7531252922330457  0.2536815620014278
  0.3704276898379909  0.8299543310522535  0.2743212472782932
  0.7295721779408333  0.8105166878456717  0.7857569413218519
  0.7086145465054025  0.8697396639005616  0.7685713340037089
  0.3253768864735038  0.9239202332362653  0.2328731949968719
  0.7796969875113761  0.8179873641080071  0.7467261544744268
  0.7685510573427704  0.8920684089594174  0.9012295057060542
  0.3308219578820527  0.9700991253237534  0.2791403313562549
  0.8746908802671660  0.9922054490138180  0.9019630393043606