Cr N  Ni
 1.0000000000000000
    38.6909066207142374    0.0000000000000000    0.0000000000000000
     0.0000000000000000   38.6909066207142374    0.0000000000000000
     0.0000000000000000    0.0000000000000000   38.6909066207142374
 Cr  N   Ni 
 1596  50 3725
Direct
  0.9746222627207629  0.9334925898231933  0.9052691279075117
  0.9270529373863543  0.5340379848984601  0.3757116248468583
  0.5437768864973446  0.9294538104248200  0.9852125566816650
  0.9170305550143144  0.4272491363249670  0.3483584444346293
  0.4198662298708151  0.1804105065547222  0.3813513321698893
  0.5118866279963860  0.4846899875621176  0.6347500465832586
  0.5993072757751768  0.8738409252901881  0.7880911599915992
  0.6411512225867374  0.0216506718033688  0.8126625693239101
  0.9393602837754845  0.2168989061575247  0.9809877573479465
  0.9361070706685257  0.1764968697264197  0.9342008826992648
  0.1906883566864692  0.5568620733242551  0.4597894830522760
  0.6154132356850349  0.0414223881722345  0.0884094580677166
  0.7669536644826173  0.1961028378899106  0.9306973467033107
  0.3843046145773655  0.6771627252571395  0.7572603891298572
  0.4335824714200091  0.7152388370754026  0.8223094781196422
  0.8400523392841093  0.7967124094325739  0.2147991642275860
  0.7502476968196550  0.0201636005518457  0.7931417054380244
  0.0527940112476082  0.8107527588770019  0.2247070654157612
  0.6788883422380638  0.0398050961299070  0.7091682276482336
  0.7635425380598465  0.9919075660306562  0.6503637214984314
  0.7052811587720978  0.0094607315666713  0.5602794972338675
  0.3014670086954391  0.7414513652484368  0.7181614058139109
  0.9753963880219617  0.2291914172513229  0.9352345672692628
  0.8576827615388567  0.2120425609759597  0.8477571380953474
  0.5114660141894813  0.8162799617648040  0.8274859036460447
  0.6488026967185010  0.9090973733617352  0.8531176725822984
  0.2865329791215241  0.6994779920513856  0.9419625517824949
  0.4509276052638382  0.8225603127375626  0.8091000241927793
  0.3012296414810806  0.8058650974889249  0.9398346019097250
  0.4005086104498047  0.7841778848085367  0.7434930975574040
  0.4991141531080126  0.8278704920089025  0.7667699730529741
  0.7909989288869690  0.8114708800720145  0.2491756669447217
  0.3403851726560768  0.7785715259989217  1.0034935581104307
  0.3051434915050417  0.6749217497357548  0.5146199469230386
  0.3271150326946429  0.9025782525021793  0.9783567299519920
  0.0403977212229826  0.5632399509968777  0.6278675147137441
  0.4044767710665265  0.7202699746966511  0.5371277735103073
  0.4149783426108227  0.7082460817275774  0.5942447321350250
  0.0443973826934614  0.6653614395286793  0.6441776908256514
  0.0507711496075167  0.5506476839520988  0.6890634547156432
  0.0385994850119430  0.5963612146863329  0.7299575450277371
  0.2518789643033351  0.7695366946250680  0.8630647911002221
  0.1590360800169995  0.8458745117579669  0.7623970552261704
  0.8884780517061160  0.6538967683874688  0.4372750756150554
  0.5888684849094058  0.8447467451787621  0.9595084676391550
  0.3736565182300008  0.9473614965831185  0.9826476083472613
  0.0994004954291336  0.7344268627173488  0.2056287171286309
  0.2024774142213961  0.6887752888060692  0.1982798641504365
  0.0126453659775755  0.9308975271897036  0.2870138644739615
  0.0671223694866799  0.9446190358343755  0.3577360445680998
  0.9141133930295656  0.4571557163018792  0.6590457773423006
  0.1635158882970341  0.8968433465374316  0.4222574950236192
  0.8764426391934877  0.4086267571909658  0.6546895764590888
  0.8164294842353073  0.4167868826223096  0.6349286501897521
  0.8668370990088519  0.4214232005492839  0.5936095370944253
  0.7695236343211447  0.3796759417264773  0.5637159538932293
  0.2616141826139761  0.7494922595362534  0.3149191532695829
  0.2514056502633163  0.6436990804021229  0.2870090129924084
  0.9303438024134895  0.5669516415251625  0.6448370852303161
  0.1973227819062906  0.6289967617337527  0.2140896107018481
  0.8571826145549000  0.4360876774798850  0.5359229321472702
  0.9672768479916263  0.6163054619484739  0.6476723608475571
  0.6359195225411968  0.9532341709242086  0.9026178902556486
  0.1986806663281167  0.8644777152216585  0.6611453962310578
  0.8282873178593331  0.7233528140949294  0.0585548375480552
  0.1354907085353353  0.1616007472921381  0.7227886605404558
  0.5220475438813995  0.7518584068780225  0.2881951888004508
  0.5567507055996611  0.9842131210922072  0.7521940327447765
  0.0745954687632623  0.4586063775715573  0.6020185695587822
  0.1123427521974103  0.5079768917987136  0.6070040479631901
  0.5670053150184933  0.6753046356994844  0.0430851008174441
  0.9634437317160675  0.4948263415178276  0.7256135447648662
  0.8229623978110769  0.2832348308504763  0.7721580947218185
  0.8061494612507775  0.1758070037518804  0.7823264662645212
  0.7234183528828786  0.0753395337983646  0.2402915096000865
  0.2459523323170564  0.5655581244436818  0.1376238644090849
  0.8821233761970811  0.2747327882453156  0.7908140272557843
  0.2447004505954388  0.5503994598773652  0.1958792021464002
  0.8073942678039079  0.1443043712691798  0.6765029752705787
  0.3441303483002348  0.4571729798010775  0.1442220920646654
  0.7599409764481277  0.1023638729163144  0.6085291038793111
  0.2339187913685128  0.3917698835272667  0.1240980828059987
  0.6647654787522220  0.1033037396257875  0.5143050626430896
  0.3384497231540881  0.3968959355003258  0.1640400911191346
  0.6004044481782904  0.0085889176680904  0.5251039768273326
  0.9651090493495863  0.3915573075760366  0.9697423978226187
  0.3254117121070169  0.2895224154577161  0.1442824194905945
  0.9916326373744276  0.3037342242812396  0.8745772136575183
  0.7892792448887427  0.0678322310135805  0.7959800277954469
  0.7612788003647607  0.0086206986735462  0.8579242654813275
  0.3874645490830111  0.3350786439298200  0.0880261733481139
  0.8179064731799489 -0.0011996225267680  0.8786911958629757
  0.8483161881841379  0.3447379637138135  0.7119072058817616
  0.6320084191339088  0.2280494396234447  0.2671750455472882
  0.6231138235407857  0.1325847179883687  0.1804764003742866
  0.7693767189936769  0.2143293042546786  0.6012512156786993
  0.0344492982322743  0.6075357313314366  0.9311312413551563
  0.6102610031171104  0.3744069371167236  0.6244705730088176
  0.9926906141711327  0.7244970755171447  0.8919419514569796
  0.8359562543696076  0.7347020806155213  0.2293852102398157
  0.0076956219933071  0.9604739311743702  0.7316092660692641
  0.8790174264616059  0.5352449159901403  0.0185702934292312
  0.0690519806458584  0.0511356147397110  0.7758691528045264
  0.9069661707888809  0.9185164304165794  0.5524867864546090
  0.9079242145873583  0.9326498075834160  0.4854737231517620
  0.0530789619816570  0.7969268279638986  0.4608538348103932
  0.1860225473195199  0.9252305657311531  0.5511956862036975
  0.1837328390086030  0.2367571258204882  0.8950949953257394
  0.8044060698796223  0.3495708561780395  0.1672943592138831
  0.8653004085578698  0.4262317828716289  0.2171239538599438
  0.0973655121052596  0.8689896197258549  0.5881435242444709
  0.8612490149442529  0.3799045759180577  0.1749796956825893
  0.0756129405434038  0.2057304619605233  0.8066969058123974
  0.1499349083789641  0.8709873604386691  0.5511471325500575
  0.9143414807137441  0.3969641817889472  0.2445366905865338
  0.8427494381908078  0.2441756596812523  0.2779854017378128
  0.1080073610808999  0.1029775061047339  0.7797299531230407
  0.7210307708432167  0.7851284984324123  0.0081492805327089
  0.1669670131788960  0.9879868013624952  0.5278479627393780
  0.9494078000541398  0.2253561565224624  0.1500545401878101
  0.6060061885796140  0.9546661428533947 -0.0072448026364221
  0.9476970152461308  0.2120992844536886  0.2103625502461247
  0.7762903991990733  0.0909048036481834  0.3098851552466375
  0.8765411736763047  0.5440353380302704  0.5231874107418006
  0.0532326511491625  0.2293049594917387  0.6834860611012248
  0.7213021091312236  0.5963326939839677  0.2850184803796127
  0.1451281497707344  0.1488975942285871  0.7896592768018315
  0.0883195519812661  0.9295908385184770  0.8922535368147408
  0.0217230637517207  0.9352596809435383  0.5957294917696924
  0.1092151888354531  0.7820373135005870  0.5924439707918778
  0.1103371568002732  0.8100604299701940  0.6972713255319696
 -0.0055336658464019  0.8229945847669164  0.6506146585122408
  0.2953614987038699  0.3879980780167311  0.9114989145379251
  0.2717708663347244  0.3255701641852073  0.9720974009663793
  0.0560470577223983  0.8119597286207084  0.5835438213200255
  0.2481797312938094  0.3500190120809776  0.8450196297696214
  0.2331590642913793  0.2429798554672063  0.8546456699543503
  0.8388676648646681  0.7414799083987126  0.0056247521549285
  0.4307632736597591  0.9214992903594409  0.2679658161596181
  0.1978260554911485  0.1558147689870173  0.7467653781704736
  0.2229122564159798  0.2551869896836915  0.7941015827936616
  0.4767706184900540  0.8280166622271262  0.3092342870058259
  0.1221036399855075  0.2130214787136389  0.7682728855205097
  0.4714747377778323  0.8005326527241822  0.2009228259384309
  0.9300131561734998  0.9756794921383073  0.2048739853122592
  0.9050226990681934  0.6374494403578349  0.8239521766338647
  0.9435546363696069  0.1794949238150189  0.1050223966796149
  0.7948741038179514  0.8419475277291574  0.3566545583057388
  0.8754791802913110  0.4394385759353525  0.7611731838148345
  0.3754043935352042  0.2743654148942732  0.1094665443665333
  0.2412328048259425  0.5380399468068813  0.9723413570697228
  0.8283504256153351  0.0868121908404960  0.6939623884276621
  0.8671340417986114  0.1352104422146694  0.6958262639608134
  0.8782551472275306  0.1236844511044899  0.7570109461771172
  0.0259144066860944  0.1688758993919706  0.7388037089647270
  0.9662078701882401  0.2094734866223946  0.8236482915389505
  0.0435446510706684  0.7363515414730240  0.0748527367460761
  0.7242922759345198  0.1093570673758604  0.3455558654230078
  0.8195333608387013  0.0495377134765614  0.4025733008100680
  0.9081661668776102  0.6245886130125340  0.6256323636180411
  0.8643727210594851  0.6897521360261881  0.5792494960711719
  0.6799516562854121  0.1850305891919733  0.3588042785043218
  0.9220802171982581  0.7138164923441611  0.7063370806130200
  0.6334508752111079  0.2621815719953174  0.3731978332075878
  0.5909070985790645  0.3833893132818701  0.4282692716266025
  0.6027270655725708  0.4433985563088823  0.4055667794095299
  0.7911057267643676  0.6224158967546589  0.6781893845568626
  0.8246647331306427  0.6706575550599615  0.6780925828915837
  0.5091155335940922  0.5372162412870474  0.4570605086035858
  0.5088203093293827  0.5489616312490152  0.3968417134146724
  0.4607166063269754  0.6270203337194923  0.4165047306524061
  0.4805759934054496  0.6605499811447778  0.5133705866969673
  0.9562079353519713  0.6741639874971573  0.8899783104787417
  0.7538984581056319 -0.0152467755612523  0.5937972786188218
  0.9808234464287152  0.3167786453451401  0.8142964859005425
  0.8759536427316500  0.0750113177610582  0.9376763645001465
  0.7585580869950646  0.0566417636084401  0.9026854420277451
  0.7736351378919363  0.0570859467748161  0.9637810252394017
  0.5905563501020347  0.3186232967049059  0.2183349535318231
  0.9580040511275424  0.7036659113757698  0.4993518407443898
  0.4392981457348654  0.3508201139800636  0.1567082783781696
  0.7998081438205892  0.0249022253198276  0.7524035225039943
  0.5700698883371962  0.1174907693096331  0.1075696667416118
  0.8452160635360311  0.1929603133298935  0.6795999393130689
  0.4683878737750554  0.1359541036818166  0.0116985303642523
  0.9156875566733408  0.1724120034761599  0.7603551374349005
  0.9539333510449771  0.4766441709466340  0.5586508863196488
  0.4873202832650783  0.2881167923694352  0.0838840075100182
  0.1412581340818962  0.5657730442271274  0.0991221169654903
  0.1904544473982910  0.4866632620895357  0.0813320569598180
  0.8151012461076091  0.0761582080470003  0.5749201416752515
  0.9036159088751198  0.1542772827805397  0.5856534067119780
  0.7238369359903746  0.1417211547938965  0.4517974433607395
  0.6265376692618803  0.1880008792827566  0.4560123491270728
  0.9437800946040358  0.2357171197149174  0.7032525165496183
  0.2455363049860179  0.3616059771511544  0.0127213105476213
  0.1346840002508162  0.4076918771662257  0.0249308367131416
  0.9427596925744305  0.5215700585494116  0.6025401257711284
  0.3905909193515202  0.4127668673855691  0.2329636093500478
  0.9728677545037611  0.5848665714081215  0.5455226665385271
  0.9490658975874688  0.3552553601844229  0.6316043809382077
  0.7871779412728713  0.2321906231086610  0.4362863503891029
  0.8150683693610693  0.4472726150110852  0.7405239751246925
  0.7831893064420530  0.1862262558799323  0.3945050743714910
  0.7279278985899140  0.3606961015306453  0.6699083019019672
  0.6687874409845506  0.3660064437275629  0.6478808152395896
  0.7787623502265245  0.3664295822942644  0.6287409267439977
  0.6811797227678249  0.3202924883533107  0.6045336748756732
  0.9820441531330547  0.6048277373111084  0.9721573644554206
  0.9148229188081278  0.9932162172934020  0.4645086581677412
  0.9486801625439329  0.5726485363384949  0.8708259417929036
  0.3259356775652736  0.8571245477645097  0.4817974547702927
  0.9005659999834432  0.5355358074852283  0.8056420419111769
  0.2685653581889967  0.8205233408209440  0.4806502728140739
  0.3660078322915704  0.7678224474362285  0.2902213021059457
  0.8739013772423129  0.4707641402581205  0.8665534588835813
  0.6132258740807441  0.2104165774217853  0.6581153166390629
  0.2126558900879355  0.8310707290966078  0.3358746206236158
  0.6379282647572369  0.1558579054534980  0.6670346664340830
  0.6289150992374354  0.1642922138777232  0.6003148597207972
  0.1537673978718393  0.7349616599727653  0.3393377166835718
  0.9851267650194299  0.4371276603421053  0.7411642585195674
  0.9900849276004046  0.6901134911139261  0.1250927703385273
  0.6920457519005653  0.3408066086353689  0.4248618100694759
  0.2695985430810603  0.8931868095296494  0.4580739750760923
  0.8636355184150052  0.5156665415181234  0.9110408391318261
  0.9731146273540832  0.6865961483940336  0.5621609325529731
  0.2339947024671405  0.9722156118023528  0.5459183965935435
  0.2659969968942218  0.8431334886888162  0.4084142880889594
  0.7942769372216297  0.6754011329597158  0.5076393905159563
  0.8424297633125233  0.5112295672646385  0.6832669668535394
  0.9278186677506586  0.5987648370293890  0.7480346299392314
  0.8481983733628047  0.8350540693590501  0.4953068760051604
  0.8424693913788958  0.5430181589750812  0.7870179151954957
  0.8949020223028380  0.2268059452072719  0.4762271273433196
  0.7494867658115313  0.3358054457436082  0.7947920039137110
  0.7006240645886675  0.2975823663354255  0.7302412759694753
  0.6409354757277026  0.3052764858389371  0.7073151358105584
  0.8624896220129261  0.1846939168492320  0.5197302859856904
  0.5860723641668093  0.3080318935395875  0.5175792009444333
  0.8596891766094104  0.1227458721645679  0.5333096003106789
  0.6414605422593919  0.2706154751792520  0.6009438978089735
  0.5413182323467439  0.2251440765547361  0.5795517059091960
  0.5536426164395689  0.5069279916248586  0.4800776887677242
  0.9228451462997023  0.6090257634117150  0.9501534683764353
  0.6620974089852436  0.4533933878341772  0.4756796351954902
  0.9194169790630672  0.5077069758348627  0.9262594622972374
  0.8711714995827351 -0.0429353794838404  0.9784433753139747
  0.8789667353791166  0.0146603067261885  0.9565571710830593
  0.3063993615069770  0.6589704095396741  0.3550775651039749
  0.9499790712807424  0.1007829375900448  0.8399671483511749
  0.7116751895653108  0.0042171821608408  0.8982752396369292
  0.4072044629862729  0.5966992082975923  0.4068589618781642
  0.4551707830797808  0.5354873313696169  0.3276058245622422
  0.6727912073455201  0.1109623951181839  0.9200986340435620
  0.6947747429395474  0.0584933563948711  0.8836557524746974
  0.6208671454140520  0.0784738930896854  0.7938628974719131
  0.5490960272419814  0.4280711477041771  0.3357301444163523
  0.5702662452232824  0.0408743037025152  0.7271543508676342
  0.7956082629853412  0.2533807562019492  0.9281256213706206
  0.3685632895908367  0.2332208241548636  0.0646475758991208
  0.9948607912000996  0.1393598279436700  0.8996250024890258
  0.7463206353865276  0.2144584445973471  0.8707192273275028
  0.7457839050437395  0.1827945534987496  0.7621739307108847
  0.7197396588271076  0.1211993257746071  0.8195689988444086
  0.6490495217330835  0.1421000866541092  0.7335807877207724
  0.6976017885530752  0.1469225595641246  0.6917183663974257
  0.6784537332354542  0.1507034813982399  0.2527696761957441
  0.6025760576790429  0.0546734695853555  0.5659084492152793
  0.4744190877648934  0.0163933696668376  0.5990393441814330
  0.4373876470616192 -0.0379063049648038  0.5461560367558080
  0.9015473065051658  0.0963805482646166  0.8820866961957152
  0.9890554185659024  0.1434112379778025  0.9615531881907647
  0.3597409054969989  0.6724567073812364  0.4258003725474617
  0.7896521632694673  0.1595035575826335  0.5267087709286709
  0.9098330163880770  0.0533632539689443  0.8400583784776962
  0.4147384391218594  0.1548134122113605  0.0444283651548056
  0.4120163388004775  0.1111620267363770 -0.0009701732506724
  0.4244686668908596  0.0570337834210129  0.9591663839891125
  0.0054786040616460  0.8750662057534013  0.0763979351227843
  0.8170268948218349  0.2166685544714197  0.5578184311288960
  0.4724385542375628  0.1948247258849708  0.2217628378261557
  0.9130447839544521  0.4902980957160024  0.7633377047094958
  0.5088517398829405  0.0408208641649359  0.0490012114270519
  0.5145442302744626  0.0874410508612996  0.0983965772492367
  0.6889484836717632  0.2106485496069474  0.5230987011760031
  1.0063304145633019  0.4115866871165980  0.8639992785594891
  0.9579731763574107  0.3739787592684785  0.7981996056858737
  0.9970091044254318  0.3922415006868331  0.6974805650372023
  0.0074858062423915  0.3797737707876800  0.7572516122794205
  0.9091443558852187  0.3370208622463052  0.7320531839877540
  0.5596673422174189  0.0103097893027481  0.0766959577076333
  0.8824654445902217  0.2426001406102372  0.6839421582574965
  0.8604598734544826  0.3008977293868951  0.6678732098468422
  0.8499332773351822  0.3141385792843056  0.6079459332475313
 -0.0029181079621116  0.7955256955905962  0.1551936702998689
  0.7450727826467429  0.2320000682951216  0.5379415490028704
  0.2428034443539327  0.4686882731395383  0.0479771143057482
  0.7673687048835584  0.0331249695700222  0.3325270165225780
  0.4701788277514837  0.8357230333784906  0.0779202462707270
  0.2961742804428193  0.6221198482429603  0.7934414391485937
  0.4410951476746901  0.8903406585649907  0.0660293868661445
  0.2801802108903308  0.5655634728133320  0.8174869230252568
  0.4466382072390757  0.9540018845482741  0.0578467014103794
  0.0761939165720200  0.6945402818563916  0.5437879681177304
  0.0327627753691094  0.6789787455318023  0.5836936661873855
  0.7974857709160142  0.7382006491357174  0.5010062424786779
  0.4402804008244585  0.8570321643717708  0.0133635059467662
  0.3282869290775818  0.8694955567461480  0.8725238415177349
  0.1490413869931498  0.5259066966065925  0.5051776929515468
  0.7467293704965260  0.8870002059550194  0.5016814601863717
  0.1869300484154682  0.6114419241616886  0.6090660177350010
  0.3256039708416548  0.6519363622855709  0.6322066010985415
  0.9806053672524253  0.4838741953552440  0.4635571303866270
  0.2590855400588078  0.5901162919040306  0.6938568156134232
  0.7805568311801814  0.7200480484518947  0.1569743173149322
  0.0652873889876822  0.6389606541655828  0.7671998204973149
  0.9309001778535376  0.5769046713127789  0.4213780617453217
  0.3336603830964175  0.6723017320011531  0.7974875942918703
  0.2854371013601100  0.6660119525564697  0.8376417871360182
  0.8310877743082330  0.6393506071271404  0.3661793323144252
  0.2881808866985123  0.9495085685916991  0.7282104827817861
  0.2198752213075210  0.8068728963889220  0.6783874606028973
  0.8804584667424785  0.6451804691895947  0.0415627259692137
  0.8101724859338222  0.3276836549313600  0.8156686368452338
  0.3756867668284060  0.7564012108409990  0.9053753577977982
  0.9321871294790804  0.5973328932625669  0.1285546447417944
  0.0939010120542701  0.7021981430362589  0.7103164764098940
  0.0731184790819577  0.7336321633145934  0.5890687711171281
  0.7928215824597051  0.8068970906598113  0.4828923178317595
  0.3549120294500021  0.6151991567883314  0.8161314521685128
  0.7345048166920007  0.7664112792772158  0.2995225532179763
  0.9437125615011417  0.1647810827564329  0.1664994867581005
  0.5068891913305504  0.9798081469674609  0.7954665342861864
  0.9720825950507136  0.7179931949011634  0.6665251380201130
  0.5577078456160857  0.0847863953686022  0.5419711627621808
  1.0030979090809575  0.4416235367822073  0.9701784896353237
  0.7620799383418716  0.9379748670281285  0.0062721923242084
  0.5911926801036346  0.3507648955409096  0.3229236904292097
  0.6843917951386150  0.2229251105448614  0.8482518937576303
  0.6673032981748956  0.0445523405812152  0.9876257708032461
  0.9169962018107644  0.3541883672747907  0.9028879084298740
  0.7468423545680967  0.3679903566890508  0.9007301804911362
  0.3546925932749695  0.6136167596771236  0.2143340844382735
  0.8858466995259108  0.4272237560054880  0.8238303791371308
  0.3484753473645629  0.5356978420278521  0.2924211180510143
  0.3532208258966517  0.5810436921598349  0.3370150531213815
  0.2314792795640790  0.5269779445783868  0.7518298797415700
  0.8695814540787530  0.3189503519944682  0.8326113220605695
  0.1475524225206123  0.6758811182591675  0.1238231482286990
  0.8434554574473446  0.3286446715124850  0.5441961293720523
  0.8424360267500536  0.2621220110434358  0.4449389295782462
  0.5698526212244865  0.1027390977139442  0.1700639728912312
  0.5133406420470688  0.8483175348572689  0.9330925334336241
  0.5985630366978955 -0.0068546827711056  0.3561697808348749
  0.4339514024361779  0.9321653743978485  0.0034970469786165
  0.4954329836153807  0.9341548239969700  0.0223129658841247
  0.7860641839827852  0.7176996545369608  0.3861767380687953
  0.7404947678378831  0.7800548244601602  0.4675368574298575
  0.7888150529713422  0.8260538003366986  0.1877100616338115
  0.3371906640957932  1.0066233903160984  1.0010462231526209
  0.8038239171911232  0.9315103850947564  0.4479820862238140
  0.3340460859977611  0.8913433848366068  0.0398111915683634
  0.3567745980719395  0.9625180380366684  0.9191893290733629
  0.3677320098165183  0.9176704809907756  0.8746776921769792
  0.9126383009876622  0.3646181860031437  0.1406640462311533
  0.3076279919949694  0.9261274154603170  0.8538484332980925
  0.1342971674467705  0.4497645968878625  0.6214758272714084
  0.6220491209333084  0.6620365405184312  0.0066845666551336
  0.4849044190646217  0.7527038856296984  0.8868287093785450
  0.5186642543703631  0.7551966628800585  0.0603905680491002
  0.9534867041781062  0.3198636603317445  0.5277150167541795
  0.8112157265975217  0.2964197961845452  0.7088721374832702
  0.1880701629801051  0.4725035927317570  0.1436346261738644
  0.6465613988261506  0.4234266339287238  0.6321654958196228
  0.7018580450153548  0.2621829926218358  0.6235034276630105
  0.7237684884498152  0.2060187932027035  0.6417258027026728
  0.6593268132621193  0.2117233448956480  0.6216321948652354
  0.6470839847419304  0.2217923349090280  0.5597205509234762
  0.6897324512598796  0.1579590675721639  0.6228205891719236
  0.3942028419988325  0.4590361133192152  0.2754471020237109
  0.5312763344675249  0.2726757709344972  0.2732742936173411
  0.0545255598541450  0.4454692810388189  0.9307530157905053
  0.9326237518078041  0.4634353755481174  0.8854867224918130
  0.9737730090327396  0.4824238314780380  0.7840883087656420
  0.4834359437025704  0.3041535889525012  0.2462907413027292
  0.7358425974178355  0.1956398622077265  0.7016717105835605
  0.2050754171389403  0.7641187691977542  0.3535341945059455
  0.6315460934340094  0.3439879986881583  0.5196688073592036
  0.6149619087615998  0.1209500975073779  0.5469269391613690
  0.7386627548507155  0.2634566630586231  0.4101511801191999
  0.7438540795306215  0.1602439797471166  0.5774615216954851
  0.4819351445990817  0.3729761283284734  0.4597637596198277
  0.7718817826719603  0.5634225468620193  0.7044742636349856
  0.7446717854983262  0.4684798787252327  0.6594517757177560
  0.6582731326996948  0.3773739449990746  0.5804267422375727
  0.7843502506866008  0.4892294428598853  0.5613839579366692
  0.0711687069042986  0.5250432298665303  0.8094776267037386
  0.3156902695089283  0.5163417895947358  0.5097730476299065
  0.8963207073317054  0.8107883677403173  0.2856699648088434
  0.1555109227795758  0.9054428979654583  0.9790459209813835
  0.1477094967557077  0.8894445925708173  0.8066000831647577
  0.4155986645780152  0.7880524282623319  0.1299717395150143
  0.1076495392225954  0.8737972266275129  0.9110760113978982
  0.3660714274232994  0.8199735853070643  0.1061298485043726
  0.9471322126541319  0.8295539267588541  0.1302738661048427
  0.8434357654628832  0.2263469049076599  0.1110852879960923
  0.3177699560768848  0.4825816979785754  0.9589920834352730
  0.9878922611226842  0.6435525079028558  0.0780025485034969
  0.8837796233455032  0.6911213237300023  0.0866069950105984
  0.0238780391590057  0.9234745712071686  0.0456887937166681
  0.0492964296114281  0.8486411092712050  0.7802765057433142
  0.2952436541539470  1.0007808282928250  0.1657083927262764
  0.8926645589459197  0.7993879568702461  0.1189259548445305
  0.8598258042856058  0.8734971849496271  0.0504567294501377
  0.9414390872973059  0.7831955561599289  0.0841633072993649
  0.3525574326142518  0.5135120290077301  0.7965144049588790
  0.4722417455663117  0.4985390264823733  0.8400571437947764
  0.2327226181834713  0.9577037169040693  0.9896389173015331
  0.3250132318856766  0.4506273940098847  0.8536260609793203
  0.8831844718166137  0.1179655008639344  0.9857384951627335
  0.7146296071449355  0.5021929079497192  0.1962055441989831
  0.4515357331145316  0.4253068873484124  0.9607272423724110
  0.1976110861697709  0.9275864486532774  0.8723614034256029
  0.0864687289057491  0.1268989985522738  0.6548986194654547
  0.8883424162663534  0.1490429688239769  0.0952768188954774
  0.8517588636889378  0.9036110696519216  0.2433661038184202
  0.1900650729421684  0.7291691357434636  1.0154455894996748
  0.0618248060593818  0.7089431258398418  0.9736473209146388
  0.1024834903130111  0.3632764707099935  0.5113104226131646
  0.4019460166687960  0.5185950474029677  0.7574958518022247
  0.5180244009178800  0.7394789350107305  0.1200412801558018
  0.7662646599894789  0.9846520806581313  0.0485727036515573
  0.7763933169019754  0.1249201943334973  0.9435487290702975
  0.0328567248170613  0.0316347641322529  0.0686615877851182
  0.1701392468167040  0.3476788895571049  0.5946926229262862
  0.3482486024268023  0.6155750371882952  0.5529292434802323
  0.3358756960005893  0.9527968881850587  0.0242719180187138
  0.8630472359540741  0.9218457051190374  0.1034316610042554
  0.3100057349205454  0.3106619835811319  0.7603740267307854
  0.2479758728469741  0.9672090162523932  0.9358600686326722
  0.3334803247985071  0.8762308822311302  0.1005647801031845
  0.8378724405814858  0.7683362896891375  0.1055590713215767
  0.2694426609756523  0.8756207895830352  0.8507666184544309
  0.0443149837360591  0.1220001383602971  0.1595673408328159
  0.3923110274859098  0.4987469670358796  0.5920799812787739
  0.8846607335146323  0.7532512827602582  0.0713607569029971
  0.2392101329116160  0.3618578985643223  0.7828550658460650
  0.5365083474224345  0.8481250775169574  0.6613251676175166
  0.1383782053665434  0.3511012811068352  0.8618420377844265
  0.4382568928314545  0.5882466285269465  0.9642231875981502
  0.8236120048996179  0.5016952377921438  0.0095454972258989
  0.8714006816306810  0.4556239903325351  0.0930143089804914
  0.1511885537050053  0.3075301575481649  0.8177710033397703
  0.8284219024334638  0.6756864388821160  0.0105014820412347
  0.9590308824825703  0.3038126020614064  0.0669070171344298
  0.3925584028326266  0.9161805208353682  0.5994103961592273
  0.9659367558557405  0.1488596301446640  0.6092637323742208
  0.9080556698854588  0.3185888451389629  0.0982672001824254
  0.9006074865599354  0.2724798432313795  0.0614820940507440
  0.6275035887223788  0.8164087846146860  0.0786865353811765
  0.6764672071111033  0.8006270027294770  0.0449393463782543
  0.9385010647699503  0.1523402098570458  0.9962302654411264
  0.0359451227830282  0.3401132788242315  0.9373029874416108
  0.7065476617125864  0.7854732834773857  0.9467414083939868
  0.4069222333849231  0.0578950249681651  0.1834559119724558
  0.1396987191158548  0.5035783189352270  0.8906935367712872
  0.1635942112568214  0.4445088988461986  0.9120420831105750
  0.1029989254366381  0.4533511819572996  0.8900377291045609
  0.8224932245702613  0.5330243704878316  0.1106679361542309
  0.1431745741023847  0.0372770962931283  0.8656772756811264
  0.4253317524501911  0.5965365708889729  0.9018999360748104
 -0.0212170510888608  0.0279561920180524  0.9282399416904097
  0.2088607063728859  0.3300192671732781  0.9546861879644866
  0.8088377981506925  0.9392214205505550  0.1400846397412204
  0.2136830919554464  0.4519024001833822  0.8713754418724079
  0.0197735047694892  0.9634641721685311  0.1587715478551527
  0.0571927398904174  0.3118176026257638  0.5093043754855404
  0.5764492121298461  0.6114656025553900  0.7778364821236876
  0.7848933262368853  0.7972889190015088  0.0811724075175442
  0.5047222532092495  0.6633094379950936  0.8004651870059022
  0.8923406952608068  0.8171747694205164  0.0595565502068544
  0.0822815413350026  0.7795408504022111  0.8587832219766323
  0.0305859954459378  0.9082873592194499  0.6810171893814992
  0.3806886757766475  0.5749005787799112  0.7387253296601569
  0.1194811851129439  0.3081502809186072  0.5265642050145052
  0.2399680636991251  0.3286963957958824  0.6764176295478586