Cr N  Ni
 1.0000000000000000
    38.6909066207142374    0.0000000000000000    0.0000000000000000
     0.0000000000000000   38.6909066207142374    0.0000000000000000
     0.0000000000000000    0.0000000000000000   38.6909066207142374
 Cr  N   Ni 
 1596  50 3725
Direct
  0.9631419092655409  0.9009975700002859  0.9693182601615659
  0.2643338508054804  0.8059749006018798  0.0653715875863890
  0.5101493997017037  0.5978947658300527  0.2119227104397494
  0.4388304098556862  0.1584538928545163  0.9511335639562218
  0.5632660744387877  0.2658187297592787 -0.0157085062627766
  0.5575527504094032  0.3233218856253978  0.0217708785311421
  0.1855209733658494  0.0381395147915930  0.4867082389287425
  0.2577081135098990  0.0169798327245701  0.6474330275027786
  0.0598384723178354  0.3898409130254177  0.4808344306908768
  0.0119618539413972  0.4150160575031123  0.4564188532959588
  0.5741593876617237  0.2227928409236785  0.8723859892202477
  0.0289307346919033  0.4714763342874148  0.4255357113643023
  0.0389869220774972  0.4549843409575575  0.4877233785403731
  0.7948420328971540  0.9425679202911219  0.6704191609495902
  0.1614601505036211  0.2329466727693902  0.4457167228516797
  0.5700058703634436  0.1030692093304092  0.1672102234455412
  0.7106915086857796  0.9393170136256550  0.6478128206481290
  0.7332660752727744  0.1652098369679580  0.0917856784351730
  0.6996624778656606  0.9472603325578857  0.5852322985773136
  0.7000477556530955  0.9624277278342941  0.5208091258194302
  0.2769379483759509  0.0045248910691116  0.9838825417215086
  0.5274736474284087  0.1758683352292338  0.8551584283844840
  0.3010316093849329  0.0703456601868621  0.9129092044279080
  0.2522112798861894  0.0333679047229890  0.8489285065295950
  0.4599059266017620  0.0733459666694291  0.8531151545839316
  0.8433507705719145  0.8876416976951780  0.5374755610382742
  0.8542307898356587  0.9494448651437963  0.5227229776656398
  0.8578728354723685 -0.0065981796002097  0.5689728328637527
  0.3689543459271753  0.7961869071686010  0.3960635169281412
  0.5624518876532734  0.5668808489238849  0.4699893758684831
  0.3643949310231089  0.7516132538635895  0.3504073861280523
  0.5143135674635904  0.1999177629243439  0.7377240025901942
  0.3644278604106658  0.7680891775987372  0.2892570761372174
  0.3146444316921642  0.7993830942062330  0.2650131637656996
  0.5708887994152928  0.3204898979776338  0.6213609010617830
  0.4692510943868913  0.2799131797935314  0.5975083241517404
  0.2679686786565509  0.8601196395256203  0.3482269807485499
  0.6187782171420945  0.3613625281160320  0.6916473832551604
  0.5462338907595383  0.4137930985832131  0.7149780588774020
  0.2126762155475221  0.8435638290562625  0.2756078883056022
  0.2736514274672186  0.9213426091906309  0.3308452792552598
  0.6282088007471887  0.3812146889690012  0.8599255460557811
  0.7164053906342069  0.4364844447636086  0.8207647249327230
  0.8241432789621903  0.0446436837198664  0.1665342514217680
  0.7130316290741542  0.4689456112794356  0.9237012612166861
  0.6469576751374928  0.3811133533372918  0.3299675517524223
  0.8347393095487377  0.1206749503132007  0.0840072965744087
  0.7828634754292682  0.1355584301223251  0.1192422998753745
  0.8070870426099882  0.9175645792431620  0.5727641295795080
  0.0459868710987425  0.1386416348225915  0.3293146877387502
  0.3407768798754743  0.4587906746635290  0.3698412694678441
  0.3928733633099695  0.4426081887807280  0.3342411487586415
  0.0122630189153954  0.3360962879224657  0.3041716605169647
  0.0033858983644294  0.2759695338692582  0.3233720567031087
  0.1049892826970459  0.1965907112455590  0.2119335860496842
  0.0500289561549866  0.1982673992508511  0.3071005406911954
  0.9229236078110161  0.3411884156253106  0.9692673367471578
  0.6514194987143268  0.9919440707656800  0.2547918350719425
  0.7858805548815961  0.6944469718912750  0.4513351454478165
  0.7254072270929384  0.6260425488638534  0.3895684608715064
  0.3740442771152317  0.6900710358377670  0.6955733253138223
  0.0776017252087945  0.6126848682296480  0.6304091795612337
  0.8272105657992684  0.5805839481526017  0.3834598138934504
  0.9295739768143405  0.5822530145384293  0.1910787702765238
  0.9847400303795885  0.6134185334815627  0.2018289322245053
  0.8755397305621396  0.5545628708953081  0.4146455474190970
  0.8662950190545556  0.4840177815292340  0.4284081597412732
  0.9223867796369813  0.4911362352910180  0.3305921534351787
  0.5492970123885886  0.9280731859555812  0.9840250068883636
  0.9161982868366217  0.4268997854489982  0.3491419413945687
  0.4202239699595041  0.1815709219302593  0.3814665502471020
  0.2270546626444133 -0.0030860821581808  0.3478651038667486
  0.8295868510561862  0.0747360947466159  0.0373188920631566
  0.2325776747029142  0.9552242841474395  0.2210999828996874
  0.3729111431038428  0.2737654633118440  0.3353556190612959
  0.3874852602951962  0.1238151142620735  0.8730026501130609
  0.5226287480561784  0.1480168874515786  0.3096941410586075
  0.2273304055800473  0.9125823443974393  0.1826608358338359
  0.3190102268499217  0.8797938332582675  0.1891514692819763
  0.2679681074228900  0.8912649467614354  0.2230250416896691
  0.3129058624219427  0.8342092181870757  0.1427011640554859
  0.2287794892427842  0.0578473130520083  0.7217948943889002
  0.2914888417724618  0.0510807635215521  0.7447562890034329
  0.3647208207202455  0.8025172984635838  0.1663663984264540
  0.5338776590837034  0.3659248944000415  1.0004130309733075
  0.4687895032424751  0.1968234775679884  0.9994799768655620
  0.4715464645876816  0.2185548693810357  0.9455358853653056
  0.5724538498220247  0.1342181361417616  0.2752465911022501
  0.7350502577644693  0.2502036758295320  0.0101217117387981
  0.4020408933503081  0.2350256756195104  0.8572539577768227
  0.0675296853758847  0.3351950152692499  0.2074350482805339
  0.4645816833560588  0.2256718569436785  0.8813618590492487
  0.0506618147893173  0.7971113190785755  0.2884926367292399
  0.3497853131386688  0.5527227437221838  0.4553898882953513
  0.0285593548044442  0.0588563427948460  0.4800393767668448
  0.3269300161361780  0.3376875624776648  0.4151278717845162
  0.4422389987070787  0.4121830997944264  0.3601242218924890
  0.1807643075821628  0.0523209628783271  0.7619130561561752
  0.9542912595311379  0.3388109517035541  0.4037978947790204
  0.5894287943727485  0.5559408192530713  0.5335573681941433
  0.9614871732606873  0.9567047707988353  0.7794749628383996
  0.9009684319378453  0.9636004421569513  0.7586183745656665
  0.4738607676778232  0.7311883158075402  0.4482503005224493
  0.6837767755381412  0.7455545185529830  0.6148060339457337
  0.7672738773097467  0.8111630309910863  0.5727369223526172
  0.4748668710786258  0.7945312385911361  0.4312881050440942
  0.8179548247078504  0.8572338872175913  0.5889498117642629
  0.3792788954460959  0.8889698403891296  0.4859006824277671
  0.8122000089864019  0.8800691073685519  0.6918183064213718
  0.3272176682848297  0.9230406362838229  0.4626074781852237
  0.8698161719753770  0.9024451642575659  0.8191750128312999
  0.3334364318391943  0.9844209333943488  0.4478588350165880
  0.9322621975632758  0.9962132409643992  0.8606722383102269
  0.9210793912808289  0.0222049193282310  0.3373834738006546
  0.0409496361541960  1.0031633266059892  0.9382330376491289
  0.9289366381049253  0.0634949614182203  0.3793836645670366
  0.8807271482816919  0.0894569883612851  0.3463166493982742
  0.5856116115517062  0.7007628134239058  0.5970421278631159
  0.8888716979367324  0.1512575198583029  0.3258329232709068
  0.8387029773891005  0.2160644609661781  0.4012930119430713
  0.5919649563836114  0.0159753486893505  0.8535884783788723
  0.8631469259574763  0.9757942673192045  0.6426983699076863
  0.5995450001088378  0.8722243237973241  0.7865283143978310
  0.0134290561458636  0.9617510185618389  0.1625576779334463
  0.7546086508044610  0.7222740559829732  0.7016941792871655
  0.8521005875373232  0.7962500704752773  0.8320866146192721
  0.7525271846744140  0.3810436234844249  0.3672689186712284
  0.5269868563484961  0.5589380576815904  0.5168591138512589
  0.7831564248639599  0.7180670460553420  0.9923222411758994
  0.5208740198051983  0.2808697053270531  0.5585143183749814
  0.4285421758326177  0.2439030670385505  0.5399276366751288
  0.4242871940105467  0.0092238107961070  0.6444119107690452
  0.4494172005936111  0.0531951434238678  0.6819910340363047
  0.4999505559971662  0.3039541453681007  0.0018745527283529
  0.4511298430352573  0.3151885331908482  0.0395910387187188
  0.5603209048899424  0.0845011383708377  0.7696749630828816
  0.4470291195996420  0.3634713216185672  0.0932289681738626
  0.5103350553184419  0.0791343722684499  0.8118012691553066
  0.4998662351309960  0.3480430934062475  0.0525416753056239
  0.3947933444164818  0.3928866071534992  0.0653420041296742
  0.3986985217029669  0.4569892526084076  0.0463028298577609
  0.6654164969053166  0.1587522648863229  0.9028033225912049
  0.6252061469763047  0.1416455752314168  0.9501296456990674
  0.6163439951597385  0.0451997628334400  0.0862738786084761
  0.9275616965410912  0.1864546078704450  0.9291796362128246
  0.9420026056974177  0.2144555007403323  0.9814923005652304
  0.6415406571984440  0.0207442805854989  0.8113010087093562
  0.5131202576370083  0.4846430449089564  0.6348432043798907
  0.4789899720645294  0.1152538270273706  0.6236974777757238
  0.4893768174709706  0.1042990705669983  0.6853595294773291
  0.7717057679947307  0.2890121154850198  0.9689117243357892
  0.5207167692965106  0.2313395464489058 -0.0031754134338430
  0.4426654406015434  0.3157670512004321  0.9724776615352043
  0.5031028132722354  0.0512989976963184  0.5293736181129940
  0.4527784604910871  0.1459194312992543  0.4979736587228338
  0.5287533514197452  0.1204086834498218  0.5782973232459750
  0.2937604902290291  0.5008789498847103  0.0567759252086011
  0.5801366432907247  0.1586009268608384  0.6439628220378600
  0.9411665529385068  0.9823990605842330  0.6526277163229279
  0.3504223880460267  0.5831466463621271  0.1112690129406876
  0.2465242646166814  0.5333242928334190  0.0362211575465108
  0.2077860669375944  0.8119782898265059  0.1668313449412060
  0.4487759204372376  0.1171513456569591  0.8975200247018761
  0.1666774115858578  0.0599008040578534  0.6949272049162583
  0.8206116504915940  0.3140329934258400  0.8737147244574357
  0.5562613610510501  0.6372125562452298  0.6548195384508771
  0.7155153284984631  0.7045145280036725  0.8013484228228354
  0.4756233243794690  0.4337408435984880  0.6304505806464868
  0.1931437862212640  0.0396615134260519  0.8273340016832488
  0.3582487419849781  0.2162874758894038  0.9561490889496500
  0.2647671983780286  0.1697804856300251  0.9350596066193214
  0.2775365327828265  0.1269518378381490  0.8930601292531473
  0.2192527707065897  0.1339934814246828  0.8706538909978729
  0.9520662777216373  0.8472460115908904  0.5828770880824020
  0.5503681118140487  0.0971193259140767  0.7068585167505813
  0.5896752264461372  0.1465202209368193  0.7110766896996704
  0.6173857163503638  0.0615742531378451  0.0226056671773690
  0.7178341571951166  0.0146122286858761  0.0156925165171796
  0.5875921049704202  0.1784481305105655  0.8234181514276978
  0.5758625468894917  0.2068046560567826  0.0213351562181597
  0.7375311553267012  0.2574562597765739  0.9178830224122069
  0.6813356264798138  0.2534888692573677  0.9563258680509160
  0.4833475203368338  0.2330225792143487  0.5612044154938489
  0.6020724647287289  0.2543480238308823  0.7050425147550718
  0.5834558517745900  0.0613363555140745  0.8972196582725254
  0.5517036050645916  0.2144843066087089  0.6429086462696216
  0.5029253484278255  0.0006174747089749  0.9986636128418506
  1.0258291032544622  0.9954482477986272  0.5020040272623919
  0.9649484402711795  0.9648491309807733  0.4954467977103768
  1.0030242332874912  0.8896544669165125  0.5642282027359284
  1.0145092515844776  0.9450864847660163  0.5397860809961361
  0.9560074611337765  0.9425909058357502  0.5547018720820502
  0.9646642849094975  0.9394112418634022  0.6158305389419625
  0.8467311005919053  0.7727761735747678  0.5059743247386810
  0.9433069109711818  0.8779123303829918  0.5372091318430822
  0.8750421616436058  0.8388642718666854  0.6133066638065932
  0.4858234993545756  0.0031800619471361  0.6654897933204694
  0.2584069694179398  0.7834604403305070  0.1942489634170447
  0.2542832618826966  0.7537087806102968  0.0859300228717363
  0.4512414569246433  0.5230216664910063  0.7175138515556780
  0.9898863650957410  0.1081094735897087  0.3208151445241068
  0.7700654092518476  0.0165710782926141  0.1570395424080149
  0.6120999197515599  0.4963461380790564  0.5564427194001857
  0.6842204141096926  0.4745348633646182  0.6390076622951556
  0.8102333977274373  0.5819699213209267  0.6034794597329108
  0.6835139667593175  0.1789320211222784  0.1272036264701432
  0.7607622436132574  0.5879889915558341  0.8396422995049001
  0.8237193812161729  0.5805581938464864  0.8612300862942717
  0.6353925247454546  0.2425138894602056  0.2044142770869923
  0.9833846948224411  0.7229522835144407  0.9950702656424169
  0.5458335883603277  0.3963059179494001  0.2311310466640807
  0.6453804970988180  0.3504183576848237  0.2261820229866626
  0.5407793059786230  0.3934958090649880  0.5358570336829135
  0.5523097389150712  0.4581664019188064  0.2129494018369236
  0.4537459909606756  0.5515591918537696  0.2659710285553649
  0.6558981235967837  0.4105960194872938  0.6952265210157779
  0.6941981721040229  0.4618385876919012  0.6978988627744955
  0.4550831691652277  0.5663689497652377  0.2027586021774412
  0.6450432802346726  0.4563116605706457  0.7387439520867818
  0.4060797578171129  0.6263021462653249  0.2832175981134644
  0.6936784470189761  0.4931741169761449  0.8017767315837543
  0.3939877293828346  0.3976059913897698  0.8295579301095264
  0.4459484413035300  0.4388242341666806  0.8994961946182499
  0.9017108651104903  0.8010459859432243  0.7955552771119093
  0.3048453179826395  0.6748594640735582  0.2955571516372900
  0.7703970251458713  0.5779147743896855  0.8981469848756625
  0.8211290032450810  0.6164108129834579  0.9688756593564702
  0.8833103786794685  0.7265600732752692  0.9110871658221380
  0.1526065062266793  0.7812197194446239  0.1578653293468191
  0.2079078396046268  0.7968924728361466  0.2288693447721132
  0.8842722087370595  0.6933339647772271  0.8079891129892403
  0.1592548968366228  0.8396980272872756  0.1384703765994772
  0.8543042768511744  0.7506556097754241  0.5637343333747480
  0.7991334297175003  0.7705934305199310  0.5519100222966519
  0.1656463653157710  0.8847720379168238  0.1799118484321121
  0.1174473688198945  0.9176174149432393  0.1551545224509246
  0.1223016885212648  0.9640944983116384  0.1945911050334631
  0.8832865565300384  0.8261925722668783  0.6719788591841351
  0.8920188124289496  0.8133258639921126  0.7328928512550190
  0.6609590496784887  0.9675503779384736  0.0635908506918622
  0.6726971877761897  0.0902445000935022  0.0375055906423965
  0.9745862592030492  0.9326573113917923  0.9049218418587927
  0.7359034725894491  0.6034680650401332  0.5227578517014161
  0.6995040358262392  0.6604542685178398  0.5352615891354703
  0.5844683418498110  0.2406684262992753  0.0735720621069625
  0.4936967127236495  0.3804211239946830  0.1609127091421475
  0.8312621046101946  0.5607256099135113  0.9888432637138279
  0.4888252531128462  0.0714967265667726  0.5776447189810247
  0.1507102800269478  0.7957090967724059  0.0961685761300960
  0.5218548350958155  0.5034015904064690  0.7998969358133733
  0.7117331894310326  0.2835448751471437  0.7920579115431478
  0.0404933630124766  0.9445898611306880  0.9266124100585913
  0.6052503584060998  0.5085850406514152  0.4983985936211907
  0.4515541186007762  0.5198974715219420  0.1602886538970564
  0.6910987162275383  0.5965914376543543  0.5594224452114167
  0.3495639330654369  0.5662032142011413  0.1700418096640362
  0.3521092730392810  0.6139149529678402  0.2131100385383557
  0.8361546325114612  0.6564059242568856  0.7431055185636393
  0.3569245160204992  0.6767248956771849  0.1981925837078036
  0.2548776384373626  0.7212047471927795  0.2102756239718613
  0.2553375912719596  0.5909226886032150  0.0142181785415533
  0.1972760369832474  0.6150812846144031  0.0478338394393680
  0.4303239903926971  0.3958255784879082  0.5611184677889256
  0.4961713465500567  0.3772807180457187  0.6455681929996232
  0.8934243707897452  0.1810289701385650  0.2008564489679557
  0.2803846555983956  0.3468257485118645  0.5737619801030496
  0.3399179933303609  0.3401065147182756  0.5951923072561001
  0.3272487148031603  0.3837564682733114  0.6398955825836090
  0.4251712215980600  0.4281407135310053  0.6701295682477524
  0.7557901665977749  0.3944470730864345  0.3053731466004577
  0.4134695247576838  0.4727534878117630  0.7135538195247697
  0.1462584314858000  0.7498177324948790  0.0508276202511313
  0.8722494315268173  0.4268074823677417  0.9892662657322919
  0.9727437268970583  0.7812444298170443  0.8774817380541199
  0.4297291550792556  0.8879804126643630  0.3907095952669484
  0.5653935612919437  0.2037630231959034  0.6997639229283108
  0.6748835817102833  0.2338597710147190  0.7871505538377331
  0.7109960312068705  0.4843241001516075  0.4850518440603361
  0.7161073496378488  0.6720924696422674  0.6985673560300388
  0.7801841591467057  0.8163359474355598  0.7472824523773103
  0.4093124765778856  0.6910725888457784  0.2659033062402075
  0.4450804838813681  0.4104351038334333  0.1351508985428765
  0.5876693080068403  0.5988451515454634  0.8384460370284912
  0.7583811324991184  0.4123031446286721  0.2409527888417335
  0.8463548113869254  0.4084624189558304  0.9227239910553245
  0.8246249522677602  0.7005259686716542  0.7861548912018550
  0.9596672779428255  0.8277729832583637  0.9221331993642409
  0.6638609110455587  0.5500672845992803  0.3361127559774854
  0.6057580235775102  0.5754695037159796  0.9632530933521287
  0.5487209357931460  0.5807273912815685  0.9432537737281018
  0.6144144721041775  0.5809858870709758  0.3096423521272505
  0.5589504155897856  0.6264757076113339  0.9913416969366131
  0.6750102910187080  0.6568712611256831  0.3643333989496456
  0.5689788848505464  0.6581938115746769  0.3274603822787837
  0.3486350356610675  0.3267665161129255  0.6567802926490052
  0.3350663427869559  0.4055059772074559  0.8097384609541657
  0.4348687907332550  0.9498075473183514  0.3738906526443267
  0.0619450183076946  0.9032578337187354  0.0864750746296076
  0.1712869678714951  0.9291244581802379  0.2190049081973226
  0.7705361497947295  0.5045108315929249  0.5009213795100909
  0.9157318598364155  0.4109117938584970  0.4077989831742763
  0.8510001909793905  0.3370164289294819  0.3629993168756196
  0.8035830173835127  0.3671152742712604  0.3329435254123553
  0.7617270925032950  0.4445200052773621  0.3481126809518869
  0.8152866479725075  0.4743491249712666  0.3546298034796908
  0.4040353577717311  0.3837157408799244  0.8972667340388978
  0.7697358764288126  0.5514145760411855  0.3729013527555210
  0.4509919391291771  0.4422704280595608  0.0128200939609410
  0.1582409173318282  0.0277087735608958  0.5776770353576153
  0.7961339394753664  0.2890020183234178  0.1879620193450097
  0.7942832391696547  0.2417880434200433  0.1461475627779053
  0.4244906196985943  0.8431335455190622  0.3429834167283661
  0.7053824557732991  0.3963341782877041  0.1720641294920489
  0.8168847755935094  0.8613207556658207  0.9848006784404687
  0.3789723291309793  0.5105239321667639  0.5321127019419399
  0.6563003298056215  0.4593770500328070  0.2486623450041747
  0.4808544637577393  0.5544918985235806  0.5566198388270990
  0.4169807650049420  0.5634046576227028  0.5336966689310187
  0.7087886442878347  0.4435910857456020  0.2133763267626777
  0.6074029615252993  0.4890209963259740  0.2218229704215678
  0.6107251117424143  0.5350855479623815  0.2647776293725233
  0.2405238612949765  0.0775827061019556  0.8911286615351701
  0.6626363189423689  0.5203706662547973  0.2299702574210933
  0.5772179873544688  0.6119444431857383  0.7784185263525490
  0.5879690132583110  0.9022753658954517  0.4987163990508807
  0.6144269818872389  0.6612480179170170  0.7801597919847452
  0.6273010377246010  0.6475710674677532  0.8422307106059144
  0.6653106269754395  0.6992266237239456  0.8417845744828241
  0.6054533935286838  0.7058852818770640  0.8229968222469241
  0.6148020673703102  0.6940843955859273  0.8831886002036159
  0.6751329752052266  0.6870107839028990  0.9030315113224353
  0.4689030116964246  0.7061503626153305  0.3393304220453841
  0.7222071113865741  0.7277459060033551  0.9661749750184129
  0.4713465821290037  0.7681543573119048  0.3239450595216041
  0.4191448844302626  0.7982771060712655  0.2978297156622219
  0.9743235075792869  0.4309264418112491  0.5091881984517665
  0.7132586149227192  0.5022642637919519  0.4248001855955795
  1.0203663042745668  0.0071402991172953  0.2007574054521812
  0.5369912118112232  0.5936752977303181  0.8804611624218034
  0.6931752197081077  0.7611230157410107  0.7830667544699763
  0.8987710331714773  0.2245801182274481  0.2445080316676060
  0.7977602874219192  0.3216858500367715  0.2921548844457171
  0.2013367125213596  0.0920810840369160 -0.0093488633836014
  0.2504224828455267  0.0653965025080206  0.9546400185582695
  0.8246033904666260  0.5675604254790245  0.4479650557903163
  0.6823195948037721  0.6150599324080767  0.4940252214290051
  0.6462539695326618  0.9235511105596863  0.5698936064055139
  0.2238672677631803  0.2198482881395638  0.6865513151943481
  0.6483972102212822  0.9799684607914043  0.5524431619985148
  0.5530941994670135  0.4667596875789650  0.9825801550099375
  0.1669889443223296  0.1936908136581658  0.5603979043277471
  0.1758215257334778  0.1812733231729594  0.6194059774613422
  0.5889105445088887  0.6330562849542813  0.9449139729344023
  0.9480134348237136  0.2440059479672796  0.3155775988195347
  0.9372864336514842  0.1038955229082406  0.1845836765750348
  0.6593871979356896  0.5051592307013120  0.2912613600927102
  0.7035728330514869  0.4279728622365208  0.2730954027466451
  0.7531444774601527  0.4857717953685517  0.8225848384695151
  0.9618346648547581  0.7932903450203175  0.8177156227986971
  0.1204462170672288  0.9454512678530873  0.2602571722823932
  0.2564006898240819  0.1162409369371639  0.6607422616496256
  0.1388960792602769  0.0540541435261118  0.5186576694709293
  0.7382476198861104  0.9620889513527139  0.8167382659352926
  0.5578681450341486  0.5049717512933593  0.0297601238274096
  0.4333621269029164  0.7761181978144982  0.5375163017178787
  0.5133108533827225  0.7711888885222824  0.0013130663630728
  0.5124937467144012  0.7538394891502083  0.6175785152671341
  0.5530366252388283  0.8048477542187413  0.6181088992559078
  0.4076299308526908  0.7564817418906007  0.0249568399988768
  0.3626166643897686  0.7743519898529653  0.0617202650704963
  0.5498092814326339  0.8359662644655426  0.7203452267489214
  0.9390090755461157  0.1363339031715473  0.2918161975862647
  0.6824184000653122  0.6850203109430008  0.4738720883300575
  0.7366922341551686  0.7206258934830150  0.4793959980324030
  0.1576784897874175  0.1035097075059226  0.7403131502207833
  0.4830730350334733  0.8272485346791869  0.5414934272969819
  0.5905817515519358  0.8832269654969340  0.5616775050534470
  0.5406774887458847  0.9308285148268477  0.4721478627185146
  0.9514304794384213  0.3252334937900142  0.4635658359445538
  0.9612174989927954  0.3849467262219183  0.4422452628034567
  0.8849406128712800  0.4051429131442110  0.4976648609460517
  0.6131110548781427  0.9449842827552966  0.6676179835214637
  0.4898901360102678  0.5751104615476094  0.7201650657124320
  0.4050169863678701  0.4859023350991665  0.6532902466627422
  0.6880811819933557  0.9249584411098837  0.7509518220183001
  0.6327842344397145  0.8028569314240207  0.8662213955126300
  0.6772952609072508  0.9686323560209895  0.7946265662723315
  0.5801209017923662  0.8125746778877594  0.4045847946651893
  0.1854272080385929  0.2047984395337584  0.7902178577151072
  0.3054528284274227  0.1903075339781921  0.8327341481409992
  0.5365445026803216  0.8690325165046719  0.4902727126090023
  0.5850484394558068  0.8570123823953164  0.4530947752565418
  0.9938215896909388  0.1542172505831527  0.3616894136835904
  0.3745231675321629  0.3243367888722635  0.9576368172750800
  0.1656075611577888  0.0103829780563165  0.6375562798070332
  0.9973303997324816  0.2016280904014197  0.4033907010117209
  0.3063896750387037  0.1571607348792383  0.7283657581127368
  0.7922645640329203  0.7736147805506305  0.7045829018477378
  0.8261432948451686  0.1508455712580409  0.9046206356396461
  0.5815371160481146  0.7964230443302328  0.4646063539488499
  0.8587056650299697  0.2106070463682196  0.8450370515876209
  0.6799035848566602  0.0378731183871991  0.7090540954075054
  0.4578977940424258  0.3577102270180257  0.7485588680376701
  0.2116314595242393  0.8226638532126550  0.1014069529173041
  0.5063551204704647  0.3956326324497071  0.8154861047005827
  0.2193380761347223  0.8757548330436792  0.0699744412450863
  0.6155821419973708  0.4256753430656511  0.9019949125330068
  0.5169948672443173  0.3840930324748227  0.8758955107639854
  0.1772332093161222  0.9441924227152493  0.1565191930147770
  0.2290063605560466  0.9253686074750120  0.1162509197621952
  0.2968774313349186  0.1359806791892207  0.5612721981243149
  0.6785470941627162  0.1515151959993703  0.0228773543271521
  0.3048163711834918  0.1223541508908123  0.6233853139245035
  0.3321306757308091  0.2189249113220074  0.6707366230191756
  0.3813314585810965  0.2585145201259705  0.7374415237069550
  0.3920996094548823  0.2465741105305414  0.7980412770581582
  0.6594629397110300  0.2847492092524771  0.0039963154267302
  0.5085563089258321  0.2686642891890578  0.9504621640779468
  0.5555663892029075  0.4449224139678876  0.0473015875787804
  0.4887288043815227  0.3231053230090570  0.9339389988783565
  0.5044235651441232  0.4582308426391734  0.0839114142125337
  0.2007330833600788  0.6891164585947890  0.1995101320942200
  0.9665636585654738  0.2381597683730607  0.9326453752208081
  0.5572981488627576  0.4893676603581315  0.0905883585801025
  0.4560843611530039  0.5829271821992202  0.1433083289349189
  0.3909174944265815  0.3475193370627695  0.5530582048284736
  0.3597888260368078  0.2826086847396371  0.6136180325314706
  0.4576521150917100  0.5980246678937555  0.0833059925389269
  0.3056233625682474  0.7460318711806013  0.0483098830973688
  0.6658639952265230  0.5699193439623113  0.9869499256221016
  0.5847661886961003  0.4316060590940021  0.6146158618052490
  0.4713729447102433  0.1636830558556009  0.3375619985725855
  0.6239827105804249  0.5142989583729847  0.7199114704654832
  0.5620374902151479  0.5230668174249525  0.6986693008474295
  0.6332636373973816  0.5009793276423893  0.7798615919172667
  0.3046336916469850  0.6301908739290502  0.0250078227657118
  0.2535437519777329  0.7084903439293881  0.0395888605205880
  0.6819578221431872  0.5395052186868640  0.8435202616265505
  0.7093786857674333  0.5841846512230324  0.8818944752656848
  0.6499821840750003  0.5902733169396682  0.8612662407183783
  0.2416647540232013  0.7675987887113469  0.0208709835190149
  0.7187801488809785  0.5724604118331074  0.9459183394787991
  0.6982940785799899  0.6279021856185152  0.9253289816754208
  0.7388939300126158  0.6769018181729974  0.9856607549368328
  0.1992145023147593  0.7860561820321965  0.0593083024182864
  0.1121610093444581  0.8879465888970151  0.0484148601488404
  0.4539903924742028  0.5368856514513937  0.0997869266360096
  0.7052422269341208  0.0098845762390255  0.5595317431275457
  0.0979089324403846  0.7350685089299267  0.2088762105155857
  0.5574599876626696  0.5194840041148475  0.1950394326362681
  0.4001054517826205  0.5041927894993085  0.0932800841549834
  0.5349430893470455  0.4593486154497038  0.7583965686448901
  0.5824553538291549  0.4961135850438580  0.8204738098138372
  0.4045759884001465  0.5873293137075630  0.0141997001910727
  0.6920880846141245  0.5304481327786678  0.9045500911474470
  0.6317097524068042  0.5352738686134403  0.8840091585301635
  0.3006645136048405  0.5703992682205224  0.0432208017147348
  0.7198874836758069  0.4544735036141838  0.9839448795635822
  0.3554083929002537  0.6482079767384993  0.0936146875987062
  0.3341185954752726  0.2036468324308457  0.5046186252774655
  0.5825134372163535  0.7323174985262362  0.6990590953428967
  0.4086507251411745  0.6773908545272288  0.1027704021304036
  0.3783309150409642  0.1383662341563242  0.8123465931586509
  0.6609597986428872  0.8255295116101351  0.5403654550541631
  0.6929945361209701  0.2876691942505352  0.1526905033947872
  0.7096642228402261  0.8890527213926476  0.6163821975206114
  0.6557776394422936  0.8484699575403262  0.6437521752328836
  0.7114575851290585  0.8400696435364252  0.6599394400446901
  0.6036624764131919  0.4420302550308420  0.1785607734127107
  0.6988637819847741  0.8806205024965575  0.7000311843422171
  0.7994995225190530  0.9229578992218208  0.7311331017805708
  0.8102415059951680  0.9100544671045595  0.7961718305279887
  0.3650806507765522  0.1839815756263008  0.8547310187401769
  0.7991712911244360  0.9539839447669577  0.8391451585448583
  0.5342302957040563  0.6660450279209396  0.5295284623166832
  0.4122322894458062  0.7240110080080114  0.1474439547810316
  0.5615864487752983  0.5835186068742290  0.1775263957910622
  0.4119616496995094  0.7075327627420066  0.2072378770347005
  0.4149396569704505  0.7549017681741668  0.2522929712062153
  0.3696630638103416  0.8297441403711073  0.2734207021358618
  0.7204450049340647  0.8242917657163633  0.7247067582992170
  0.6718249731486592  0.8187940063485094  0.7651584711427164
  0.3236799207914615  0.9243985709889034  0.2327401855105955
  0.7603674521541376  0.9055936696417747  0.8367960824414697
  0.7707152264721023  0.8912763344761747  0.9023313559449636
  0.3295811203844337  0.9694130970724582  0.2784560547306134
  0.8061956587980560  0.9419605133000482  0.9028167138995601