Cr N  Ni
 1.0000000000000000
    38.6909066207142374    0.0000000000000000    0.0000000000000000
     0.0000000000000000   38.6909066207142374    0.0000000000000000
     0.0000000000000000    0.0000000000000000   38.6909066207142374
 Cr  N   Ni 
 1596  50 3725
Direct
  0.9774158513887811  0.9381692685931995  0.9038716308954023
  0.7539631876669917  0.7542030502036181  0.8060786656809112
  0.5643713929998754  0.5820592930338420  0.4076286058820112
  0.7758979749357953  0.6960337822092818  0.8250678563508138
  0.7034171378279425  0.7166466734081859  0.7404497359767741
  0.5182268891692905  0.3214016190892919  0.6638929059322385
  0.6900190495712563  0.2727811469059338  0.2134034992062013
  0.6008799370366327  0.2895785019178787  0.8103941409783212
  0.5793276191263910  0.3446527007774199  0.7925038652763670
  0.6978962391145660  0.3635922531786185  0.9413158436900440
  0.5750983864732755  0.2270730064047078  0.8693820511000184
  0.6609387456878648  0.4672489912302841  0.9625335472270519
  0.3589917443068914  0.0852301515965528  0.5354182108596771
  0.4170399014948525  0.1242754686806493  0.6023688965230414
  0.4304380534401891  0.1130839385999153  0.6644694113911344
  0.4676493494131698  0.1638348470240727  0.6669299879853698
  0.5136091383215381  0.6279492970555872  0.3184685447367969
  0.4118727641829741  0.6730010074232502  0.3291610175318081
  0.5260476444785052  0.1884411996551755  0.7973352786855344
  0.4581851580885800  0.2949615240286929  0.5343686871265059
  0.8631879169085123  0.9274389488602260  0.6099716930306396
  0.5376819528785263  0.1775681664324145  0.8602477051462326
  0.6667365778257696  0.6352236426138445  0.6374903121321823
  0.6176046245124338  0.5984684746976419  0.4768694148822485
  0.4625203510182482  0.0742164642035444  0.8516908458112598
  0.8539361276873720  0.8858563576614106  0.5403541521967754
  0.8619906558511877  0.9485346834206235  0.5172729089912075
  0.8610312364521557 -0.0194310540484727  0.5706313832649420
  0.3705418361033785  0.7954399716740566  0.3961104954543939
  0.5682018496505544  0.5648253355138462  0.4694127639600417
  0.3651156342286472  0.7506989156993963  0.3507326686065080
  0.5143725494725022  0.2011784821099556  0.7387151940396417
  0.3107549889883687  0.7357771354466355  0.2799349033441857
  0.3151485125535491  0.7980779749045640  0.2650371480578202
  0.5686288877023279  0.3238492737362579  0.6218886008992716
  0.4688472014637490  0.2819019921842366  0.5982401693056512
  0.2683259907534992  0.8587378729072775  0.3495643426246373
  0.6185598633995824  0.3625004241482497  0.6896933039856721
  0.5461492950918965  0.4143534642702735  0.7139857772793815
  0.2136793752473904  0.8417846989520529  0.2742594657312153
  0.2248857151009480  0.9362595696156055  0.3640563537613666
  0.6287212517012316  0.3834847232567671  0.8597686834187772
  0.6880959893984593  0.3757435472298877  0.8799509715297542
  0.8254031980598029  0.0442376549754259  0.1664555587462553
  0.7695760491341543  0.4678488613805858  0.9436828161864118
  0.6480166072043887  0.3817886034265490  0.3299170252541572
  0.8123713790395418  0.8507709876784484  0.5871579891033497
  0.6392898115753241  0.5907936395200397  0.6018455879189690
  0.8093354591620104  0.9107209168697059  0.5715805843823812
  0.8104298810877908  0.9582665722146702  0.6187466681684121
  0.6206101352556767  0.0873824056756240  0.1357965686142192
  0.7080176768060756  0.9302912122421647  0.6485625182363877
  0.7325806767231033  0.1647230973769432  0.0913532675411485
  0.7570704559159102  0.9190442242490321  0.6104397872649199
  0.7023766897464949  0.9633858507516955  0.5199255933866724
  0.3600302147895671  0.0611567895009792  0.9359406182413714
  0.8825297074934202  0.0885356868161540  0.1116478701645094
  0.7815245363353622  0.1349058171614546  0.1190870307631337
  0.3007717757230185  0.0707415095810589  0.9137043362325449
  0.2528898847667813  0.0351261908766449  0.8490088735354021
  0.8295563890614910  0.0748180150705634  0.0395495666560873
  0.2336400149593585  0.9531310675898316  0.2209056802628553
  0.3865904297900744  0.1247336123987452  0.8705413218829859
  0.5204269407203468  0.1484851035046988  0.3105755720435786
  0.2299825037020507  0.9103357977239278  0.1803243809192811
  0.3205706546220378  0.8789140054047850  0.1884364104016175
  0.2699922805785632  0.8906298847815521  0.2228155104863494
  0.3154386394682229  0.8326369654946583  0.1419827993465761
  0.2294893289599331  0.0588138879939609  0.7213691474827698
  0.3017636798231662  0.0401761736530828  0.8071166915943732
  0.3657198123847179  0.8013593904758292  0.1667501698863504
  0.1618613650809769  0.2316550272694262  0.4456404712110312
  0.6559974737537301  0.6804324095539126  0.6801129106853967
  0.6656731251517505  0.6668728705845829  0.7397746802798401
  0.0285614910777507  0.4712201257686640  0.4269106110566837
  0.3072916677404984  0.7239860944194202  0.1116148616996479
  0.5542044915550014  0.0487117709410891  0.9496666302779271
  0.5437558512724365  0.0120252932405455  0.8960129438630386
  0.7426405977460985  0.7664999854361512  0.7438189365625781
  0.5308677082304729  0.0252946722854181  0.8303838280012440
  0.3995752922427035  0.5149153875846129  0.0365050490879702
  0.4084465696793935  0.3217374420296233  0.6815173810919838
  0.0809289905195749  0.0371797929352385  0.4422363726728049
  0.7657468301439249  0.0014296347295061  0.2218155746147463
  0.4016299218886314  0.0464794366092115  0.0098523066314439
  0.0481533253282230  0.2118653569081710  0.0196052950221905
  0.9204215519760396  0.2404353880267740  0.9169579199881158
  0.2656232969024322  0.8031692320224347  0.0638890024994502
  0.5186163145128684  0.6882989412808145  0.3033260814415591
  0.4424449690544279  0.1603291473145953  0.9476346375185176
  0.5612873349144701  0.2709988558926579 -0.0154604752629300
  0.5545103425253900  0.3240093314151650  0.0241148652861457
  0.2301483556879736  0.9853627899787130  0.4062093999551780
  0.2584100083845717  0.0190781385094742  0.6471757986563637
  0.0624115783497996  0.3892712775599022  0.4840582256225828
  0.0122781700713918  0.4154057837794259  0.4559814626927766
  0.0385932363398498  0.4540701045072869  0.4891609365679420
  0.0661866579403768  0.8992163671242573  0.0818015504528904
  0.4898550340329266  0.0749107533360193  0.5764370458081127
  0.5882317495809439  0.5558610865140732  0.5347511075242189
  0.9780393408601713  0.9014219993101076  0.7995643012190002
  0.9059189573032903  0.9546331164793418  0.8208702346336348
  0.4729470314048710  0.7315535548315011  0.4458001931099925
  0.6800232597508286  0.7457755935581116  0.6138372176376412
  0.7605926821042357  0.8080063352671749  0.5774658572205045
  0.4795000350546796  0.8378640403525506  0.4769592063282076
  0.8342486654804544  0.7953926695823115  0.6043311899178503
  0.3755836460134315  0.8742065690727912  0.5465418903263101
  0.9244990570306750  0.8790838198226567  0.6730668875911950
  0.3284535531480179  0.9189647538739517  0.4627770007762905
  0.8895307320093476  0.8460061464634521  0.8381123420861066
  0.2866788742512474  0.0122721021593455  0.4209027100316366
  0.9318599730991792  0.9971349133231187  0.8593283097560018
  0.9242545414278808  0.0186937848825970  0.3404772360776439
  0.0413100631484839  0.9980385220746073  0.9524322922045186
  0.9288796943893175  0.0649534341839277  0.3803755671106284
  0.8814012521152680  0.0894697608828039  0.3463469112505720
  0.5828290383682941  0.7010183902415733  0.5978848125030806
  0.8876522504064468  0.1506825283597867  0.3256481756005701
  0.8378756466135163  0.2160781697325437  0.4006190819234726
  0.5908358078383182  0.0182924543308136  0.8541000896133412
  0.8216303003997083  0.9846656517884186  0.6757823893688696
  0.4649575244313268  0.1939468958278172  0.9991517250382521
  0.5670658250680499  0.7997525419387211  0.0091942527997739
  0.7445593549993355  0.7373449064205303  0.6408960908008349
  0.8372937803470936  0.8397354322101146  0.8818345332612402
  0.7042153852042818  0.4126881937207099  0.3374778412325701
  0.5185119712988655  0.6059645505221091  0.5555649507062608
  0.7835958574565752  0.7182283385250795  0.9925900144473331
  0.5170466614461656  0.2828806673487908  0.5597743631511922
  0.4279910632218625  0.2464307098097314  0.5387904632044346
  0.4257401354442626  0.0115762690378573  0.6428777025223964
  0.4488600915164337  0.0542094412377696  0.6822711349921990
  0.4992861757009129  0.3121395732177821 -0.0039139901245482
  0.4493382695654780  0.3111721223713323  0.0413443388334677
  0.5606287815841368  0.0867328730814376  0.7692102306913792
  0.4461652863224110  0.3621421481379293  0.0923054336837563
  0.5114661047391804  0.0814383275509467  0.8110758697438643
  0.3974006370661904  0.3350702504284591  0.0108751455710761
  0.3948626999232904  0.3926081548390051  0.0631802050178959
  0.3987702425973981  0.4574715714454333  0.0461706312459408
  0.6589568246272934  0.1631097596403790  0.9013891927839557
  0.6182058995125143  0.1468891482955102  0.9462871853979012
  0.4260044701517362  0.1780631551376148  0.8743661089780899
  0.7291581930484592  0.2565406887347390  0.0024896850942307
  0.5711599723843914  0.1363819921510060  0.2769397641676788
  0.4730581308744856  0.2210436255876499  0.9469610212635554
  0.5359651015680943  0.3689084793381732  1.0002660791014708
  0.4757004363984819  0.8201922840372263  0.5392151658080709
  0.5011039310164631  0.5309171599994620  1.0080343660240145
  0.5586157951932901  0.6256433132200773  0.9910461905539760
  0.5645366200871277  0.5959568208198888  0.3448233675416792
  0.5207226059732768  0.5392742734005067  0.9036548921734379
  0.6065759799015312  0.5770097568142583  0.9625824154216883
  0.6649096030262602  0.5491914559268901  0.3356377613664466
  0.9586125890952886  0.8282262902444439  0.9224896655443487
  0.8246481660048713  0.7011140423846979  0.7854230090298601
  0.8467438018662625  0.4083663491336365  0.9254501292995937
  0.7582514625720755  0.4114102997067741  0.2434211255578242
  0.5878670242678310  0.6005946752471705  0.8375960321374809
  0.4452150824412574  0.4095130721460660  0.1353095589362748
  0.4670477642552076  0.7204328639000428  0.2763906998486487
  0.7805056805189931  0.8171244596328169  0.7482220335727678
  0.7150883954258627  0.6724738715179358  0.6982456789285534
  0.7323965456972744  0.4226871072441366  0.4947842622451170
  0.6744084775835669  0.2370534476253539  0.7872068854177786
  0.5512261520271331  0.2503470023545752  0.7441861699141421
  0.7113483194232877  0.2855477560355241  0.7920560739399007
  0.2525655298622296  0.5915592567694303  0.0156402190590512
  0.1982195543842612  0.6119383916760083  0.0486301764308263
  0.1475830829807200  0.7478194494763385  0.0509456418886588
  0.8134764581113469  0.3931445038901377  0.9742783862131784
  0.2042221382794534  0.7645703228325894  0.1234046099199447
  0.6753989900422326  0.6561308617338681  0.3647378119383072
  0.7378190901343236  0.9647890308991677  0.8194243226102071
  0.1365017340670983  0.0536884407241349  0.5174326848126444
  0.2568175675964530  0.1183385679277644  0.6614429389490291
  0.0629136286947029  0.9167986291933338  0.2504161985842316
  0.9605767715070909  0.7952512996394557  0.8165691558980249
  0.8034388554502104  0.5275944256301489  0.8865056927583835
  0.7065931245747167  0.4279454821752381  0.2754414446633878
  0.6603180859782348  0.5046347696510822  0.2914068547466945
  0.9364929524235966  0.1023705912227265  0.1843901733715109
  0.9468709395376702  0.2438140631803827  0.3165164751419149
  0.5885945008007373  0.6345050127673588  0.9446325830317250
  0.1529550403094097  0.2405124647942577  0.6054361629326716
  0.1680332980435785  0.1943795146619073  0.5604601542626690
  0.9385699419184130  0.1346945497548988  0.2924120061913444
  0.5534095493292704  0.4688095353921544  0.9810225663561625
  0.9880455392042774  0.1070066967890555  0.3216548047461705
  0.4336626449732707  0.4501690178826058  0.8365031249537330
  0.4076537042392525  0.3548563574235533  0.7877851910648384
  0.4352832430183056  0.9488577269204167  0.3741786619581277
  0.4802176926332500  0.8722158641349590  0.3532723328648923
  0.3354206132008141  0.4063180483320169  0.8096254656164895
  0.3484355071423136  0.3283938665603431  0.6569857474074402
  0.5694031468804871  0.6733293808643683  0.2673612334878650
  0.2592977697891780  0.7829692997365729  0.1939576908639611
  0.2543552373075985  0.7519919798994850  0.0872350142547250
  0.4408201274429098  0.5370003952608531  0.6554207891327694
  0.6648766679803365  0.7004545347500872  0.8421494592246739
  0.7700098177699356  0.0159759308580957  0.1579141062006586
  0.6357748859845203  0.4407309878095094  0.5660903517757222
  0.6840971939612213  0.4748445471729043  0.6370999554119763
  0.8098036419767828  0.5824368856916069  0.6024423538675374
  0.6326298345031967  0.2104399491106639  0.1015328968405687
  0.7611425662503019  0.5890682519486654  0.8388215782345985
  0.8234378606156112  0.5820237813219701  0.8616484398045844
  0.6351681926069573  0.2419197875337165  0.2052943665476008
  0.9853383795204165  0.7264903971688159  1.0017682261408216
  0.5467956379397793  0.3965544043615881  0.2313461894852318
  0.6462903234868924  0.3503148038880889  0.2258464364387174
  0.5387118172403166  0.3927171744399524  0.5367638757612907
  0.5514632409098887  0.4569377384187148  0.2133424215334949
  0.4546845583016027  0.5510083989667022  0.2651029111754041
  0.6569558632120943  0.4106913328959572  0.6931363602514816
  0.7334604256745668  0.5123388731636052  0.7006400923740767
  0.4554035811254127  0.5662567550643541  0.2036416376107350
  0.6449127730979399  0.4575115121362188  0.7384438758451662
  0.4073094461868845  0.6271931789691204  0.2838636318939319
  0.7162592252803280  0.4377820965876256  0.8206449729201749
  0.6143729990565306  0.6616125177215715  0.7804231137355860
  0.6271875764339336  0.6500217335898831  0.8416971828391783
  0.9020708204706925  0.8021994158967669  0.7951467514138291
  0.8317534122690076  0.5589545892693656  0.9898875128756045
  0.3064492724088442  0.6742366909528051  0.2943035476028513
  0.8225689603128484  0.6186671267540399  0.9691006622625643
  0.8835576784340337  0.7286049319984751  0.9110921444158322
  0.1549703615647380  0.7789916407485264  0.1570255971392249
  0.2087570789359990  0.7960908952959402  0.2286219869045279
  0.9232068771366546  0.7454459641694664  0.8130105255437818
  0.2221733214594136  0.8653250712220699  0.1385013502683820
  0.8330748358661512  0.6482971920167989  0.5453213651019270
  0.8003319939419500  0.7907608492724226  0.5456876502802215
  0.1670155675577922  0.8854012423684419  0.1786121223900258
  0.1186453080962258  0.9142962579762656  0.1503036266116871
  0.1273333897104166  0.9582216744240341  0.1925251837651157
  0.9419520463769208  0.8200885044322773  0.6914746407139057
  0.9851784397472482  0.8700549085531026  0.6953019851751795
  0.6620577443198371  0.9838034792305624  1.0044918565880112
  0.6701801120478594  0.0735212590250000  0.1004907466611838
 -0.0046638211859961  0.9896737008625537  0.8738449239794326
  0.7340019263332507  0.6011899976709596  0.5217564374550331
  0.6954689124903705  0.6621057078563344  0.5354278308203768
  0.5896462654144681  0.2868818289247809  0.1146886118344008
  0.4935433378577295  0.3797140373406497  0.1619942567310101
  0.7711848811924766  0.5794299565293047  0.8988085095235409
  0.6102329802218682  0.7978992788094442  0.6399361814864749
  0.4083918544402242  0.7569116649274095  0.0236125737505321
  0.5222695308934374  0.5044389065960727  0.7995727235345750
  0.2405054078941219  0.0799633444894342  0.8914632476235171
  0.0365939871876344  0.9317238066743561  0.9246951538859420
  0.6126097866827733  0.5260469135774907  0.4971702822468870
  0.4520260071315284  0.5192841026508124  0.1605285161036462
  0.6907761806012712  0.5962761746052637  0.5556602260254899
  0.3498887701947288  0.5662784393584419  0.1695435229774170
  0.3022474113826146  0.6437437481452615  0.1890941020544025
  0.8354426581930379  0.6576185860442076  0.7415747005704950
  0.3614987771730654  0.7215213599599616  0.2438457816299446
  0.2519077982103464  0.6750622131070162  0.1654323833895289
  0.2239945983247524  0.2215910219046641  0.6870925574968952
  0.7678223709514956  0.5138945187628587  0.4953336562677209
  0.4287167909410051  0.3962037164986811  0.5627988244793004
  0.4975877020754913  0.3770196800562406  0.6454524134038815
  0.8931430931007567  0.1800258275772329  0.2018479408680743
  0.2789286852710807  0.3484720274038847  0.5729837714825707
  0.3008430999254738  0.2905748530742444  0.5925987075993219
  0.3268480192809204  0.3863843520299972  0.6404211874428273
  0.4248723250030040  0.4290726380409916  0.6707771537830994
  0.7472270442808430  0.3362754177385375  0.3263448843113898
  0.4127229796991038  0.4736484161555149  0.7135045117474180
  0.5732407821182572  0.7766642683832039  0.7418521908865635
  0.3630272834786322  0.7736552190308140  0.0610650189061668
  0.9488814963095318  0.8404814969635767  0.8605297150397838
  0.6681732345794053  0.5813972487704361  0.2121200627348267
  0.9163684396955072  0.4101707514157452  0.4097901719587048
  0.8499910362029354  0.3373988680608261  0.3624673685015917
  0.8034586064022027  0.3666509516551935  0.3332145978081551
  0.7606539142929055  0.4575820412000207  0.2847571800760388
  0.8160531521576528  0.4736879731729687  0.3552404055694479
  0.4055029807600669  0.3879631031704737  0.8946937684933115
  0.7710487557264735  0.5505846216550360  0.3725826176692825
  0.4533259711191200  0.4393051237246506  0.0129171529592106
  0.1563741810148525  0.0286630334062718  0.5834654160603798
  0.7903081413440264  0.2266728620231307  0.2074937302426083
  0.7929310270643224  0.2408237627771155  0.1453739082670024
  0.4346848179989810  0.9330517380953630  0.4353936676076040
  0.7057828639996753  0.3954528915475404  0.1718996552375610
  0.8164580754713701  0.8599925111310525  0.9903155229554695
  0.3782476467818701  0.5101719541770685  0.5314007966725539
  0.6012600660969067  0.4270539092771644  0.2403490712966484
  0.4805757943419632  0.5544555698512811  0.5564468128287571
  0.4067702614132764  0.6072544058164442  0.5759001480430306
  0.7090205439817332  0.4417964143491158  0.2136231148483235
  0.6075916701000935  0.4889220464154171  0.2213048645464947
  0.6102955910561304  0.5348552384993953  0.2657942025842954
  0.5768014748597582  0.6130670054559763  0.7776121644674007
  0.5101739766438826  0.7546535041787548  0.6178820182750332
  0.1742860136457904  0.9267464270946028  0.2206806316864996
  0.5403983634464278  0.8235629734360802  0.5569196305522723
  0.9501929769837789  0.3272617262582547  0.4656615586650459
  0.9565787090685530  0.3901973367741191  0.4503574496655841
  0.8901642318776471  0.4088755259895792  0.4941427747320014
  0.6140403522580639  0.9450155761611360  0.6691100101912223
  0.4894000636352797  0.5762049253437423  0.7199599507865182
  0.4525420250290246  0.4922719959182606  0.6132328222346972
  0.6240790434610325  0.9344159743134863  0.7347792000718648
  0.6319150162494933  0.8039906530038960  0.8673849225993585
  0.6151468184957003  0.9802700122704253  0.7751019005501180
  0.6363648618403301  0.8421687024924898  0.4150373661089795
  0.1865271919185290  0.2062198495298230  0.7912975315550816
  0.3053517603830387  0.1922682712672985  0.8332555705151999
  0.5392134128455670  0.8704754316837542  0.4873982614002370
  0.5870249267374137  0.8555786790720812  0.4512347971453111
  0.9965620478544839  0.2128724140359889  0.3447360895320789
  0.3767800591886744  0.3283579151731092  0.9492390677725682
  0.1678223235704625  0.0140497787704239  0.6444059488625500
  0.0013656763912701  0.2384905617312163  0.4551390246438115
  0.1576879735755561  0.1056811312686468  0.7398991129757663
  0.3071946532573854  0.1592276583110520  0.7286072347214740
  0.1806028952967672  0.0539963903049870  0.7609808119423714
  0.5411344319829728  0.9305208671090810  0.4715199088400677
  0.9533232300735905  0.3397892262128204  0.4059943365967892
  0.2191364037880981  0.1359084184937614  0.8711104156232360
  0.8156628014396909  0.3307916869523765 -0.0103262832284619
  0.2774483458200497  0.1290114150010264  0.8938616542750508
  0.2655688494399750  0.1719484734054335  0.9360572081297825
  0.4100995735542728  0.2251674526069576  0.9194533342267889
  0.1934673128846423  0.0418984886091663  0.8263226161353063
  0.4754112972351086  0.4344301107217763  0.6308943124431905
  0.7148777535619516  0.7054669858753937  0.8011565323847158
  0.5553067371969684  0.6381438218501998  0.6546884738187632
  0.8196208726500163  0.3135080747501567  0.8747506937466766
  0.1656982745308784  0.0603407350562490  0.6943387786163011
  0.4522293201894697  0.1164638379496239  0.8952845827043555
  0.2099042933986531  0.8117018050673832  0.1672216602879492
  0.2472542157964071  0.5806324515768105  0.0769334154178602
  0.3506958084873245  0.5813701799772872  0.1111632937766705
  0.9559749507489970  0.9842312393564885  0.6524406266630425
  0.5806615204029127  0.1605320231357335  0.6402101690773151
  0.2941498843895661  0.4996872914033783  0.0569079853445486
  0.5305981350173103  0.1220232836525810  0.5781291674749568
  0.4538113464727082  0.1485336175041233  0.4933983365457347
  0.5017055852635059  0.0498060254544898  0.5304811951095327
  0.4410861454414677  0.3204051030849670  0.9753632289863123
  0.5194954533019516  0.2257783465144511 -0.0042458409861600
  0.9409577579229924  0.8290304484867230  0.6131896382511174
  0.5879466770015436  0.8810403712433175  0.5630128456961899
  0.4860661150456940  0.0052433150334870  0.6649294187743946
  0.6431061568264304  0.7580697629173430  0.8243576541130373
  0.6754468641073571  0.6882766785369018  0.9029497093240934
  0.5184886385719127  0.6734065056678548  0.3631178527876400
  0.7231116157449410  0.7295262090720104  0.9658297015833180
  0.4767777125741539  0.8112427922578810  0.3692756681683189
  0.4212850392576715  0.7976069812488155  0.2979414173929666
  0.9685872766456614  0.4330093500589279  0.5043018677030702
  0.7156181139680121  0.5020621324362310  0.4238803832737806
  1.0283794150460177  0.0036084032550503  0.1996597716261595
  0.5370967780036099  0.5953012260554593  0.8798131348759862
  0.6925255273609460  0.7620880202291116  0.7830085326853303
  0.9021530420774904  0.2871500343375234  0.2254857771469748
  0.7985865036621203  0.3220285410860774  0.2932668476161087
  0.2003583341570973  0.0919030091463172 -0.0091874357215282
  0.2491475886523598  0.0667743311494214  0.9557233444204659
  0.8736040534803432  0.5310049261574405  0.4714499477342254
  0.6152491674300219  0.5493951081640944  0.4336749717615506
  0.5900122237427839  0.9006285218133934  0.4999174529237553
  0.6450044799031901  0.9201376711567166  0.5710139377729054
  0.6503945259368190  0.9781171790762599  0.5524179274616131
  0.6400662884352383  0.6569043484863981  0.5164212680326788
  0.7373880667757791  0.7190531759063977  0.4801792012428291
  0.6157098599662821  0.6956827423179613  0.8830150335739292
  0.8739411200936071  0.8430004449356796  0.6075267680461328
  0.9502801374725429  0.8799728335978255  0.5124589074197201
  0.5396745493356323  0.1113434813354433  0.6435383645470860
  0.8457870207047736  0.7737928686178486  0.5039329458111289
  0.9640000361891178  0.9390079932534929  0.6102090874336192
  0.8650357252107820  0.9835092895541476  0.6358696553316753
  1.0117411387135780  0.9419624259332641  0.5532281961680822
  1.0484103510638640  0.8365661768310331  0.5219415962902219
  0.9637211347908495  0.9436972456691270  0.5127051338981893
  1.0223987005921895  0.9875077653957681  0.5015825220213328
  0.5085706815565639  0.0582465300235949  0.9822841995607562
  0.5498181726713391  0.2168913764065303  0.6420471764639152
  0.5590923236381206  0.1206590444151069  0.8757710753362806
  0.6632543696772303  0.2504018628386188  0.7267498604784700
  0.4825070466596267  0.2339089548095594  0.5615462936140095
  0.6831248561743871  0.2549390949119053  0.9555070167574090
  0.7366011099297085  0.2570617609693674  0.9251237851843830
  0.5766398701276320  0.1995966760063562  0.0274192156966808
  0.6474678452874818  0.1752905647062336  0.8417219358103292
  0.7174007615730255  0.0146566289653609  0.0185151162802690
  0.6204090745305563  0.0616836452012256  0.0212602006316037
  0.5894604936334579  0.1496413898298126  0.7093739083226407
  0.5494802329923457  0.0998972833306476  0.7054455613540035
  0.4888579167441996  0.1064605841049419  0.6845145666471940
  0.0081915691937176  0.9026655517682258  0.1815962670087039
  0.8529646370378408  0.7655617800880833  0.7277461856824675
  0.0674164837400778  0.3351010911532383  0.2082583428583462
  0.5837319040370132  0.7965696457176026  0.4633886936429820
  0.0119322074016100  0.3351187746388615  0.3050988772195694
  0.3736973415988528  0.2721492570151287  0.3364282076769936
  0.5080012667583623  0.3657175136590948  0.7081335502213177
  0.2139033520153313  0.8215009867543629  0.0995689477302371
  0.5060384943533254  0.3974772242532700  0.8151844408140897
  0.2242073106421868  0.8791484900574816  0.0715721251925718
  0.6162384062301738  0.4275944550847027  0.9015412746473215
  0.5164959140956678  0.3867105727116362  0.8747025798198984
  0.1807974453417754  0.9415319186746922  0.1547227317290314
  0.2384202802756751  0.9850079262026410  0.0961271660903498
  0.2964822931868631  0.1378469132579762  0.5602032574036530
  0.6782892150812960  0.1508707977208008  0.0228661672091849
  0.3054732163312468  0.1239375767973450  0.6234501185310328
  0.3112997845521441  0.2777975732186198  0.6530885820682207
  0.3439060037436470  0.2088697633295740  0.7326227074017095
  0.3921998343289065  0.2480345456438330  0.7978631910434094
  0.6588930044856310  0.2838337409919962  0.0009204682696526
  0.5620619658493775  0.2721380341655012  0.9132670894878816
  0.5546017090580524  0.4437903076981240  0.0483500806855669
  0.4883849250994609  0.3269715829397210  0.9321035488499972
  0.5040085634461605  0.4567737997937971  0.0845075551018782
  0.3415537000389212  0.4726982141361427  0.3079299734178603
  0.3926757953765643  0.4420712217733567  0.3353873347177719
  0.5570951852447700  0.4880753498673062  0.0908498490488862
  0.4542382813682552  0.5357658309683421  0.0997602609501176
  0.4558826720195103  0.5820270177276053  0.1440429729660736
  0.3595228667428955  0.2833401788090556  0.6145703548283318
  0.4575697696783987  0.5968043699891427  0.0837249718413952
  0.3049236903989953  0.7443361868860741  0.0473313548844465
  0.6657851023562033  0.5707996803228870  0.9866006728403337
  0.5851841646596924  0.4319630259808622  0.6136254935591549
  0.4701025899252169  0.1639914261645572  0.3461754245688259
  0.6239667658694036  0.5150978568372580  0.7198099772264441
  0.5619483920569971  0.5236207148168669  0.6981825383761038
  0.6331445929898653  0.5015977644518548  0.7795908864445538
  0.3048272195041071  0.6298537314367644  0.0255339884477831
  0.2526379322058090  0.7079271459745837  0.0407866578654857
  0.6818311119802011  0.5408463776402862  0.8434282043027120
  0.7097181849404823  0.5851782464149529  0.8811472554873828
  0.6495837714585641  0.5920678516022129  0.8608028084484621
  0.2421394384511156  0.7654503646896659  0.0210171211210936
  0.7191199197910251  0.5744854216530860  0.9451370723755560
  0.6988534093001113  0.6293641641139796  0.9249207574971209
  0.7398250683139579  0.6770547469354434  0.9852779625580458
  0.2002500119508395  0.7791635220905692  0.0598756356356789
  0.1178301914182600  0.8757556843643896  0.0446496241356746
  0.3897766943270621  0.3482057503975381  0.5546245056739243
  0.1501485328882237  0.0881778743156294  0.3229276204337318
  0.2260860236775872 -0.0050710906014569  0.3461428951296314
  0.5940125181767264  0.4532781450919384  0.7781975683248468
  0.3748989898316160  0.1738812886184379  0.9150541847884458
  0.5346541434869813  0.4603192421625746  0.7578059442718547
  0.5825519792573658  0.4975583867725289  0.8199365205863925
  0.4046176032997472  0.5872578352235112  0.0145692520704721
  0.6926727809329020  0.5313491458876685  0.9034648217384798
  0.6319730145865484  0.5366740555845558  0.8834067903619044
  0.3008349494266867  0.5696329069587993  0.0435573642274735
  0.7161573484093717  0.4563130589289284  0.9834085870618765
  0.3566368824975529  0.6482585591161812  0.0933679191864114
  0.3323511495034340  0.2028452313541353  0.5046661544344716
  0.5812201990980576  0.7336161837637590  0.6999684969871166
  0.4094537586285654  0.6769073126166838  0.1033908041830619
  0.3794408252580420  0.1403254069066520  0.8118433582984871
  0.6469121186725804  0.8172335072776379  0.5378339885045585
  0.6950344337749939  0.3022145832051473  0.0891890216747916
  0.7062595707810098  0.8791488138472491  0.6132617792564804
  0.6534947055424207  0.8467848296344791  0.6459243183868106
  0.6603825320618093  0.8333871970017015  0.7044694808315862
  0.6038220763343721  0.4405692635389951  0.1787210042219769
  0.6962267979014101  0.8818375597145747  0.7045788387495950
  0.7979087229399754  0.9236356764486768  0.7336972583498738
  0.4003386848917463  0.5032915160794953  0.0935597629279541
  0.5577359874437698  0.5180290469591119  0.1955588132920663
  0.7985687969755255  0.9560221121479952  0.8405089054520127
  0.3498443159619716  0.5652478591686014  0.3958274455472806
  0.5356935853099325  0.6736156042980876  0.5322559203812187
  0.5654933644778964  0.6438613816811171  0.1615744921939253
  0.4129459499337279  0.7063433180193978  0.2065953192760694
  0.4157584661180904  0.7521921844277316  0.2524244619971073
  0.3706775366371336  0.8295342529202453  0.2734705193853038
  0.7315798543250733  0.8113066172900110  0.7871731088466758
  0.7093901714413032  0.8695912888844841  0.7695885182374100
  0.3247291472228738  0.9235521554542206  0.2323972444760993
  0.7496760396571355  0.9195530342400808  0.7735309330879730
  0.7690163167527047  0.8928139589873848  0.9020368770141501
  0.3302538379401841  0.9685970725975320  0.2783852515064775
  0.8689310439861013  0.9268984993525184  0.9267233290197017