Cr N  Ni
 1.0000000000000000
    38.6909066207142374    0.0000000000000000    0.0000000000000000
     0.0000000000000000   38.6909066207142374    0.0000000000000000
     0.0000000000000000    0.0000000000000000   38.6909066207142374
 Cr  N   Ni 
 1596  50 3725
Direct
  0.9703942808196183  0.9381683522459618  0.9037323558907795
  0.2515947685456964  0.6438897411970660  0.2869913953747459
  0.9294707909554979  0.5670253700345370  0.6440472516975588
  0.1975338046828891  0.6287686386982876  0.2142075877897939
  0.8561605925107736  0.4366408843865927  0.5367245980244342
  0.9669501640810503  0.6170560124137084  0.6475144284641516
  0.6355006315798426  0.9532888730780444  0.9030400567057485
  0.1984139083038477  0.8652131220350423  0.6612367005323808
  0.8281932601232346  0.7237911782441924  0.0584195233732116
  0.1359153490302148  0.1640643353410606  0.7232462058597193
  0.5865094306640276  0.1804862514132514  0.8193202806056145
  0.5224036792835849  0.7521940557396571  0.2881544103227374
  0.5566989058228816  0.9843694861009131  0.7526079195678571
  0.0745874712930165  0.4601111515607829  0.6019654325748587
  0.1119494917040232  0.5088400320717018  0.6059443968507406
  0.5674831186845158  0.6756519928863385  0.0432133625134700
  0.7942339874872990  0.8416724064282054  0.3565632511761463
  0.7762362792816110  0.0916709309618538  0.3101500188021696
  0.9439613068575975  0.1800403562884203  0.1043195569688865
  0.9049392634806028  0.6371459938257807  0.8240268117401937
  0.9287067083438638  0.9756913657316971  0.2037985729388641
  0.5734892761464281  0.2260741702492810  0.8644238576831922
  0.8239021137259086  0.0278890057767536  0.9935480802508370
  0.8134600043094012  0.9543400988464690  0.0790911516514234
  0.4617966845260598  0.0737617140536197  0.8534097760382048
  0.9449308096407578  0.7941401834577643  0.5823836773543903
  0.8578659966098210  0.9429792890460443  0.5218883068599712
  0.8134732924812113  0.0279774136633354  0.5341159365996073
  0.3185716144793544  0.8108471126706489  0.4319527458802783
  0.5643605550223209  0.5671655011350519  0.4659400149829215
  0.3666647167222035  0.7507754106783975  0.3501668244938528
  0.4920028251651955  0.2582010171435362  0.7211157245023516
  0.3112970548806587  0.7378788165039997  0.2787372701663201
  0.2661140222362279  0.8160793282969289  0.2986343598786769
  0.5697740062513437  0.3244955198307171  0.6226421026499280
  0.4701504472894255  0.2817911015894747  0.5969966104295773
  0.2749689124504118  0.9216858478904822  0.3305141002901945
  0.6192356984179755  0.3619557902779659  0.6899759622023370
  0.5458452778805380  0.4133644250286767  0.7137137873504352
  0.1627692372433514  0.8575345782958306  0.3077502178403089
  0.1287058084033309 -0.0104878905427763  0.2997516848440390
  0.6280571265417684  0.3822102573052141  0.8598571562807130
  0.6876977111325698  0.3744376978975723  0.8801240026091945
  0.8301712720196538  0.0920002560716296  0.2108326060189017
  0.7360122578113637  0.4103228968331852  0.9474341696841362
  0.6438363848680391  0.3671232528136411  0.3935961809717061
  0.4712300676847450  0.8001172615831448  0.2011692894422767
  0.3102478339857004  0.4535424488020672  0.4687687155651973
  0.8569374639317469  0.8637162771821268  0.5478829402994893
  0.5210915600131831  0.7721273990179184  0.7850335524432767
  0.9822929278595297  0.5348151261329031  0.0526006299113502
  0.0168243312453263  0.8199423189890501  0.9411357668605669
  0.7611330200051319  0.4261534850599365  0.1803837217215620
  0.6183609966474852  0.6284272988771776  0.1283929763813683
  0.8208181065511353  0.5031883150750943  0.2331442589487045
  0.8996469354051739  0.8910418605566292  0.2098314038387046
  0.8021812261526832  0.3184755829427314  0.0632486638570239
  0.6051225621241700  0.7392739773049095  0.9280772126664637
  0.8387665938590509  0.1811784404835920  0.0652243213428070
  0.7590759811414191  0.0094358005676527  0.4617041949527082
  0.5334221086480384  0.9085177993735531  0.1343466192579787
  0.7390751041328600  0.8263944594031882  0.2842505193470882
  0.0187155092164029  0.3652741458554216  0.1777827945106268
  0.3236371514736701  0.7169088368912208  0.8412809696531378
  0.2907534392188815  0.8194828067099580  0.8693680972907890
  0.2409603742040775  0.7821569271664056  0.8024083017138344
  0.2483826652694308  0.9008513438334977  0.7261191049885419
  0.2630856294680154  0.6923832450178895  0.7132155409032936
  0.8362087358378633  0.7188829710796849  0.2900005657528731
  0.9385281179422710  0.6727608625880483  0.2804480643965286
  0.4403727914599184  0.8667724974709291  0.8530585932832584
  0.2579562002468346  0.8889460648113741  0.7875835019499946
  0.0661880922467783  0.9842058987053049  0.8845892976709048
  0.7196977063671356  0.5661571682885443  0.1799192824498647
  0.2378311980091828  0.9446024628423452  0.7687426759298807
  0.4233649769498610  0.6952246618924762  0.6564240299206140
  0.1473917738922668  0.8899323693319089  0.8068922263971836
  0.8995216628549770  0.2570325254460237  0.1210029305492363
  0.2383567570612773  0.3620267177702542  0.7822049106727548
  0.5365374860173866  0.8480044147838923  0.6615482949604229
  0.7153588579930606  0.5024187697436702  0.1961643625737400
  0.4504304445584313  0.4263651591291246  0.9591553795143213
  0.1505962160394956  0.9063267992437801  0.9785158639675392
  0.4149313871550514  0.6088184351504315  0.8379175764845592
  0.9547763445952736  0.8918726653255159  0.1137128235780104
  0.0410673084463702  0.8205608403921840  0.9960836424449633
  0.8851761725028470  0.7048507047265195  0.0287759860353110
  0.7487444296528702  0.9524275151501265  0.8810412072977816
  0.1158929343357591  0.1904256404802696  0.5968589962734934
  0.6134097126701664  0.5390231362869640  0.0377183736815483
  0.2306055963615664  0.7942350436949361  0.7414956051196825
  0.9700500986266684  0.8914473215819728  0.0324423663828761
  0.1328775534669306  0.0505019919522536  0.7985702466854963
  0.4718665893511968  0.7325963192578477  0.7208311076282707
  0.9242743835096194  0.9840747901909142  0.9889611312577614
  0.7094106972544707  0.9022197722814561  0.8756860663041715
  0.1146023945119126  0.2043924983156090  0.5365964180050776
  0.5233825618028807  0.2273590508935908 -0.0022163601647948
  0.8165725211888002  0.3319697492663958 -0.0117555119203012
  0.5868966830917954  0.5552489685611535  0.5420623467653720
  0.9761033524499748  0.9011556934979654  0.8007560086583587
  0.9047624030157222  0.9543878932367734  0.8217451263696052
  0.5250991851436765  0.7001031704209570  0.4715918128236026
  0.6780237046197523  0.7456411460644033  0.6125548699717709
  0.7581090942111826  0.8082960915715238  0.5771069284588958
  0.4800010589872187  0.8365918032575964  0.4771433922252005
  0.8334603290786846  0.7934353860712552  0.6022005660827272
  0.4281717712505600  0.8501982845939616  0.5182473474252818
  0.9208012822184978  0.8800826751832859  0.6737693481057555
  0.3351165118014512  0.9828175055135031  0.4497653139463637
  0.8873994017407608  0.8469990282838434  0.8388544591778898
  0.2832631393498328  0.0292268072089035  0.3618023878395525
 -0.0009680560642390  0.9904955998641590  0.8735657036957559
  0.9238177482275710  0.0221869611012095  0.3377879031980465
  0.0397065812470464  0.9955097989316808  0.9437528194765767
  0.9315281186629299  0.1132399836653491  0.4205916649111229
  0.9275748921104151  0.0654468589765520  0.3788087155741354
  0.5953206303886652  0.6546125828819954  0.5567518250744583
  0.8882275420844852  0.1532276680965926  0.3264482271254034
  0.8317783209530073  0.1558829233342912  0.4236044935591586
  0.5923762757911120  0.0162252162907097  0.8551873267571802
  0.8351335834033022  0.9729119137250992  0.7356386736634732
  0.3199922055004092  0.8287946694553828  0.3724830909871653
  0.5204392845016631  0.5381291056677813  0.9053652349558392
  0.7441965577726145  0.7369652615696906  0.6408967788618357
  0.8362838234658521  0.8404876654040412  0.8823069432996313
  0.7048726130594257  0.4123855243802796  0.3381799550311685
  0.5383578412275416  0.6705793559210496  0.5355796186799220
  0.7839751382781481  0.7171401243514832  0.9927531937061749
  0.5200087020606649  0.2833384526632081  0.5574774124427595
  0.3731827562178052  0.2381662776947018  0.5734010667741617
  0.4259240289037477  0.0108628589293131  0.6443521787744543
  0.4497057328140746  0.0533097672146439  0.6835595498325178
  0.5031090284590315  0.3053221996844300  0.0037156794895375
  0.4476329697492936  0.3177049605026774  0.0529469977321714
  0.5977571299737666  0.1353134012805087  0.7739604570226063
  0.4464774061856464  0.3650351368451167  0.0923454101808748
  0.5106069234728111  0.0783529566314316  0.8130876824187483
  0.3982709362521089  0.3924392150590769  0.0645769832356512
  0.4526899926001600  0.3787244708267118  0.0302568767063998
  0.4008868617970359  0.4571706783264058  0.0460677655306269
  0.6565220317438564  0.1625494244392253  0.9007328255271820
  0.6188667332592839  0.1445101963875608  0.9472716762241314
  0.1777153053145001  0.9763838545196633  0.3891019824819875
  0.6613302992321769  0.4398019596956291  0.0838690552708295
  0.5988897045489648  0.3197558942879127  0.9174598747725800
  0.3234581656810253  0.8749521123256427  0.4168700193060206
  0.1603564308255088  0.8286358143554977  0.4343091033756624
  0.6061698770614272  0.5736387555889340  0.9649148767580726
  0.6665126465886001  0.5497838830881685  0.3356028609285592
  0.5387865098463953  0.1422596176012388  0.7516077393818955
  0.6163579288840653  0.0593329629287336  0.0246012027681263
  0.7189848604820194  0.0294315224294305  0.9529900177201645
  0.6308680075039049  0.2190290215424294  0.8872230883683009
  0.5760559737758084  0.2039220370108485  0.0255469094116351
  0.7371883412921078  0.2558328184072939  0.9265519241895459
  0.6819086351697756  0.2535274922737644  0.9550806407871718
  0.4845043771248731  0.2355116924132903  0.5607735371149054
  0.6634560429103933  0.2489693127417273  0.7261288110840293
  0.5587712334615819  0.1165894301774083  0.8771927007830416
  0.5518044939891038  0.2173180847477078  0.6404579984290918
  0.5011192109849915  0.0557054484694002  0.9800395479999472
  0.0735126272044651  0.9704483721482299  0.4664329617118531
  0.9660322278490127  0.9660441773520253  0.4914518604765402
  1.0436842819856980  0.8319770108083887  0.5169506701762298
  0.9825593166364612  0.9485243462573064  0.5516643874063527
  0.9407618924813723  0.9846449459520367  0.6517299229468915
  0.0097210205368096  0.9714206678434580  0.6499422527186850
  0.8511408850911805  0.7790853700065808  0.5034954417558858
  0.9528997285201305  0.9054708476718930  0.5126539430279682
  0.8827601135149907  0.8287448189848352  0.6691376507877822
  0.4858737349376026  0.0044739656463641  0.6658910817689114
  0.9332438568927078  0.8352451277913771  0.6238049202648733
  0.5504155606095155  0.0986751212285552  0.7089915031427254
  0.9955913501894398  0.8763419584727977  0.9267222582449188
  0.8730374660261593  0.7083683141317895  0.7447222117393886
  0.8455367490278263  0.4087313814299225  0.9249278073999064
  0.7579900885074569  0.4117883158954294  0.2420469253484509
  0.5871056472777946  0.5985237504789125  0.8388939528712036
  0.4465881676465450  0.4102799710996086  0.1357846745326850
  0.4670768656262985  0.7375567713889440  0.2165746041293639
  0.7906418007117876  0.8046538835486285  0.8069812591268152
  0.7150255848868144  0.6723569655597939  0.6985202858297137
  0.7038547234737130  0.3864201900967202  0.5421359159009127
  0.6746307581045127  0.2359421790226502  0.7869445744083854
  0.5518373343565409  0.2506782917331939  0.7422012334597656
  0.7335949470332450  0.2277417986379045  0.8096104976276239
  0.2604316681464372  0.5865303146053150  0.0163876123253832
  0.2011027157353767  0.6132620822289105  0.0463455570056987
  0.1417753081550051  0.7562439300661851  0.0383844285477765
  0.8148213318249040  0.3920576778782230  0.9753756613930141
  0.2048594064896571  0.7660635911127958  0.1225329305293557
  0.4934526012595298  0.0749455565032770  0.5806722425216241
  0.0681337717905773  0.9012350200762647  0.0810087559914966
  0.0094228870973100  0.9027201527828475  0.1807719597709382
  0.5412036715682369  0.1127832296811539  0.6449916820490686
  0.4899477905716482  0.1051935408166386  0.6866151142389738
  0.2602724311308235  0.7837403676106213  0.1925481729058158
  0.2554505181830466  0.7524843062688605  0.0871231595756047
  0.4414427647476098  0.5367132710973184  0.6565965877237726
  0.5481304751969287  0.8340296705088548  0.7247048918695415
  0.7553329637436715  0.9603790016753314  0.1812991849675793
  0.6360039670750354  0.4363733515376682  0.5729724768821661
  0.7102661927575556  0.5701844702526783  0.6840226357785429
  0.8103589036912506  0.5830911704106527  0.6043551873594372
  0.6333289710714993  0.2083696608166679  0.1023465029798100
  0.7604841764641369  0.5882743548927327  0.8409283010809654
  0.8229147189630808  0.5818275640750997  0.8623710907615891
  0.6419499167518348  0.3043897426362292  0.1850655857204023
  0.9908929995600098  0.7256977902517501  1.0050738398055610
  0.5472254541824657  0.3961098246317964  0.2314370938834398
  0.6462015308925031  0.3485380629365893  0.2257839419559498
  0.5395656401536879  0.3946552335838459  0.5393082819964538
  0.4520781294980850  0.5054572400317213  0.2216624987234039
  0.5054268722373422  0.5204775150935074  0.2921508824013856
  0.6563849027171873  0.4104451613035428  0.6935745032724636
  0.7334927505083882  0.5132033245328932  0.7021487194035776
  0.4557393834255500  0.5661418544347984  0.2047610461946550
  0.7049881993851038  0.4495939175954334  0.7592837487880907
  0.4089107664687842  0.6277762500220604  0.2841280075545739
  0.7751273682012114  0.4297108709334260  0.8423436764574997
  0.4074921235523723  0.7569442690977258  0.0252566374520541
  0.3614340890809456  0.7740425378611613  0.0607269171336941
  0.8396079264974255  0.8101120384207452  0.7706723711685322
  0.7702785299135249  0.5784685097029568  0.8997231588877411
  0.8317732951260162  0.5592767905247944  0.9909194201362165
  0.8238479147575395  0.6190915691856665  0.9691525074356696
  0.8824217679969339  0.7281506242827414  0.9100314835392789
  0.1553217869405415  0.7805001536365752  0.1548435419139552
  0.2070247597054732  0.7818927019261710  0.2873677174805209
  0.9217025197123245  0.7450919161915683  0.8105415541874572
  0.2230543541905005  0.8660963843421594  0.1360958418987256
  0.8357379951792535  0.6467612988587560  0.5409443452964607
  0.8834523423884718  0.7997879745220692  0.5628304554591228
  0.1674026356463257  0.8862284023146008  0.1781485107671682
  0.1195853692165547  0.9163961188572161  0.1512349803969122
  0.1275383134823047  0.9594078726793763  0.1929017185961417
  0.9405370891127609  0.8196063175382883  0.6921334686256095
  0.9841339023263804  0.8728293706907055  0.6996546971302355
  0.6614698519519799  0.9841028673577800  1.0059580850612901
  0.7706757895299874  0.0299444866646369  0.0925486493550454
  0.0302595819361742  0.0377350915376081  0.8815162108386928
  0.7375670541454392  0.6032176011816937  0.5237629548214920
  0.6976152173726685  0.6610146146309935  0.5362715703858075
  0.5913251491864102  0.2870797091868126  0.1141215672591234
  0.5022681652969730  0.4423085909231906  0.1440322530139886
  0.3076480300030969  0.6741589526958566  0.2946365086189196
  0.5538851486087812  0.6255178169131582  0.9916933258261692
  0.6745224190482945  0.6569341569580579  0.3668851701013238
  0.5446053021271465  0.4466794242144866  0.8179240851200390
  0.4358762884187584  0.9491087708913901  0.3753352036590463
  0.0271162382822334  0.9291823590319928  0.9265244546066954
  0.6059654852724148  0.5190763101084562  0.4980985473398957
  0.4530606336699434  0.5206600210307439  0.1620809768752892
  0.6907762083834125  0.5972330263432462  0.5588980663119367
  0.4028268563596819  0.5506250913187359  0.1360182175508932
  0.3039520205687201  0.6440372183386096  0.1888632405971502
  0.7743516472903711  0.6634441659297327  0.7208229254104921
  0.3618749009115914  0.7219742176599325  0.2438197476784197
  0.2527179752604898  0.6754949436419562  0.1641725478275187
  0.4808943107038598  0.8736731846913761  0.3540503179676410
  0.3357986811839205  0.4060939136796400  0.8102334351107383
  0.4302369964402521  0.3965247836429842  0.5639568215562344
  0.4977697168795311  0.3764431089394077  0.6455012569018883
  0.8940368093184775  0.1819984208796628  0.2016625289305821
  0.2806645875449266  0.3485072946191467  0.5735017780333662
  0.2025008301087337  0.2484360004438606  0.5636525505414475
  0.3265233878931820  0.3856151711551404  0.6403894591773439
  0.4241902865373545  0.4288748577033322  0.6704843285864726
  0.7475126564249066  0.3359482936453511  0.3258489445257889
  0.3754024272854412  0.4230736172921376  0.7079542681600659
  0.3397770670654927  0.3413006379567102  0.5947089932362765
  0.5697582741794561  0.6740808009042907  0.2678348896271550
  0.9703392344548304  0.7829738314419056  0.8760076326369256
  0.5107505707517375  0.7547720651719062  0.6195555306075831
  0.4073781094198951  0.3541973909910449  0.7880026499449151
  0.4223447864105855  0.4944175182070338  0.8781077389573334
  0.9883843364774809  0.1082646746988043  0.3215187130848658
  0.5429134945392284  0.4794038308840243  0.9216578151870359
  0.9437262580773033  0.1857381540674420  0.3340467256437820
  0.1901406524198011  0.1366981820488757  0.5770726341528210
  0.1543324088753764  0.2402664084519801  0.6048423924380285
  0.5888812192649158  0.6327750370145141  0.9456283953977594
  0.9488819691078439  0.2465879009185427  0.3150977707896115
  0.9362490241890674  0.1043225546054670  0.1849246075463719
  0.6666997012318062  0.5657256142605085  0.2755287026837193
  0.7135100146529184  0.4882744728933122  0.2559004959345848
  0.7508263526837599  0.5229245717483778  0.9254569263492960
  0.9478294686519406  0.8398543706678177  0.8597639410355057
  0.0628474558175201  0.9168237855135379  0.2498040134150552
  0.2568271217623300  0.1172093085176274  0.6633683522874714
  0.1327728720804411  0.0523326162246703  0.5192757979441032
  0.7374138398590860  0.9643002026552656  0.8187429204007333
  0.5008337775627931  0.5277916949844743  1.0090456314269922
  0.4837097744202418  0.8265948940553316  0.5373510290111515
  0.5670870086128031  0.8016200119932770  0.0099565310155288
  0.6092702124042230  0.7979764229537475  0.6397951450817140
  0.5140602280655939  0.6089378636931624  0.3880776552060460
  0.1749319269800189  0.9275363616383387  0.2198046835816888
  0.6120564425361734  0.5359950068037312  0.2667256143423060
  0.6136668022524854  0.6615623970914273  0.7810742806851119
  0.6265254866182843  0.6476755689692443  0.8410649006915623
  0.6519739679740543  0.7121553038230126  0.7818763578560560
  0.6415004155689780  0.7564822761049392  0.8248008769923502
  0.5644565991017648  0.6906502762080352  0.9239395076616983
  0.6769477913059688  0.6858575436447338  0.9053248416254999
  0.5190978892929726  0.6737726583224214  0.3640886934475307
  0.7230060663187364  0.7289091823459244  0.9665856717691144
  0.4766508882148098  0.8119223276013223  0.3703665369891018
  0.4725187547581970  0.7663893235997636  0.3241865318668811
  0.9718252503259430  0.4316554924411593  0.5012639824977206
  0.7227009946896027  0.5643330023530388  0.4078134808788423
  1.0284888080444188  0.0039785538345024  0.2001408809343061
  0.5377310442507582  0.5941041308236807  0.8809557459062989
  0.6905498253791099  0.7615740602870114  0.7839018404358256
  0.9031716832981056  0.2892061929408877  0.2248839150900658
  0.7984897892838408  0.3209461422456527  0.2930519713845741
  0.2001237298989562  0.0956714819755606 -0.0099738744869937
  0.2475465316375926  0.0669808439963852  0.9557418120072568
  0.8760957079112126  0.5295759586815389  0.4713953477638246
  0.6501610147108381  0.5598723470316087  0.4973721271491212
  0.5440231340331807  0.6817543108209124  0.6988286501084718
  0.5914654467337556  0.9153294108162617  0.4360534784333646
  0.6467501954316867  0.9197176892930641  0.5704691571071985
  0.3747142989827821  0.3238495681379132  0.9603228065042405
  0.6513923383049440  0.9950262577426221  0.4882108888079273
  0.6411205162358132  0.6560513253084804  0.5158110578034449
  0.7397950421589985  0.7201892593864460  0.4814396491979299
  0.5409706307686469  0.8412036339441947  0.5634949047194306
  0.5887299952131947  0.8812768245406517  0.5617977752399970
  0.5401005094675597  0.9285449744314080  0.4729875462821834
  0.9466578561829727  0.3254388182142174  0.4696555165756535
  0.0087457423116879  0.3599235801398379  0.4816690658909689
  0.7677782602572371  0.4602488520641749  0.4571890812953459
  0.6150200640166029  0.9461899210655361  0.6670141891335214
  0.4894701432333888  0.5744541079493972  0.7221940867024554
  0.4519088278129614  0.4921774264716729  0.6119087614369290
  0.6254510132111353  0.9341218281762947  0.7322101561734359
  0.6310845511287272  0.8023338182669104  0.8677483239031760
  0.6155269038470806  0.9779762549459907  0.7746225174050972
  0.6360773050016100  0.8437969680384889  0.4157431267469034
  0.1847211285995852  0.2037046861951441  0.7894249697456476
  0.3060070939198361  0.1916456177977414  0.8328577698012698
  0.5334780239257679  0.8643679479958817  0.4948482573728441
  0.5849795780379773  0.8572524510976965  0.4533040402049749
  0.0030526599716122  0.2635714747556450  0.3874034129398582
  0.1657615297014791  0.0168887905883448  0.6433518664842769
  0.6686950364167984  0.5816158196872210  0.2147697565221614
  0.0000355162553737  0.2484195445093112  0.4457181364779321
  0.8200613171640807  0.5487331496913387  0.5040799601377377
  0.2005338864968260  0.0296454457181746  0.8900330601914095
  0.9162113227401489  0.4113710501167122  0.4074130594227159
  0.8507186730958141  0.3361746503163306  0.3617432248274775
  0.8033341867157980  0.3662442128058671  0.3324028911801424
  0.7672187558102034  0.5026233806879140  0.3284223102043680
  0.8093236441341778  0.4117326607573757  0.3727422918124955
  0.4050400146656362  0.3863499217290292  0.8947526272686507
  0.7718561716771574  0.5304761460232655  0.4357773466959429
  0.5056153821618153  0.4704720367569822  0.0246826000370390
  0.1580791105835010  0.0298747849280498  0.5790271641040562
  0.7907281675008382  0.2264268587276573  0.2075141481307695
  0.7448337353269656  0.2711779229714313  0.1177209179347985
  0.4339270161744686  0.9320376314931202  0.4373981645471226
  0.7071505093291296  0.3964977682982755  0.1726211175122467
  0.8179289855441125  0.8613986453917567  0.9907488440324403
  0.4170007558232828  0.5627789649120044  0.5320264635178727
  0.6018652563970339  0.4268696042440803  0.2399423258337893
  0.5194416953637061  0.6066254810156747  0.5565094260775184
  0.4698067162709227  0.6005281274985119  0.5997600002008623
  0.7089042932951510  0.4412774244942939  0.2143811235645633
  0.6602024271251385  0.4727322514288875  0.1871299382262293
  0.2235457765810297  0.2207450157413122  0.6881335990869271
  0.1564634783491320  0.1045672748351395  0.7415966381074582
  0.3075970509579439  0.1587804586271015  0.7286998182649843
  0.4986929289202822  0.0514523164734579  0.5320442135937673
  0.1710261204687206  0.0983031850453546  0.8043645657627407
  0.9546249549690013  0.3411201885007342  0.4022069005307075
  0.2704723385121653  0.1411909288091366  0.8315230478423234
  0.3288122071110558  0.1335200488911157  0.8541211258974020
  0.3149307812148264  0.1787439564556802  0.8923803766811694
  0.3746950064106260  0.1727085252392185  0.9161034234549383
  0.1676441734029452  0.9968541126340237  0.7904658547897978
  0.4750076152777655  0.4332846866621882  0.6306990847673422
  0.7134619711201988  0.7044393723714851  0.8018785060094784
  0.5553293461921992  0.6379565925329574  0.6577029643865101
  0.8185194040473502  0.3135459393223091  0.8748739951068069
  0.1553029522437422  0.0731045368204019  0.6324863282632008
  0.4748718385976477  0.0624930387130571  0.9156592203815174
  0.2098355267793805  0.8132782663923294  0.1654559871868824
  0.2467937539827394  0.5311799069113396  0.0344603574646921
  0.3024683017411777  0.6147821459321000  0.0847233583857130
  0.9359354715985625  0.0842877859527288  0.6693013569300265
  0.5279164034716725  0.1551919296777688  0.6859824407692022
  0.2940313819643496  0.4387354838829080  0.0753336790938379
  0.5323701612635741  0.1229420648639414  0.5780617200007829
  0.4552315926771587  0.1487733104591313  0.4927304327626522
  0.4089747119298883  0.2809350492482524  0.0197022450161584
  0.8518643920451288  0.7653060915608237  0.7265182787947234
  0.2203416741007688  0.9279941735876394  0.4323855172064989
  0.5819815273236328  0.7969160820039970  0.4663325373954719
  0.4338824298487475  0.0122980561475264  0.9152714938306662
  0.5292686516341891  0.2184273900450868  0.9083628318892311
  0.5081526304755347  0.3651690313705239  0.7082190331005755
  0.2133016496578690  0.8232722209044571  0.0966488104880855
  0.5065852121959954  0.3978223537035167  0.8144878654003004
  0.2247203089599608  0.8813051035492749  0.0693765236767117
  0.5547389090264769  0.4353199448308007  0.8798614762323329
  0.4773223634002671  0.3344976873760080  0.8715964304514069
  0.1814392554927099  0.9441612740131330  0.1552725788042324
  0.2894411770139863  0.9551618423998185  0.1209100680268582
  0.2855211120731269  0.1806156714505652  0.6053861442701836
  0.6776424604718523  0.1505166528135983  0.0224693128989965
  0.2656725809573467  0.0701038097239213  0.6179158285494231
  0.3113231576230799  0.2771602640586186  0.6532773459962091
  0.3441186764505950  0.2081561747611312  0.7327115568551815
  0.3924099893782864  0.2472857893575137  0.7984956228538247
  0.6613414442574147  0.2835786856024047  0.0017663674680420
  0.5600567288986915  0.2727078158068545  0.9129040356836859
  0.6064392690301198  0.3643457635136690  0.0229784972087702
  0.4395212218297543  0.3156566783658146  0.9739930894650595
  0.5049650163350549  0.4580992134476886  0.0854693077393740
  0.7376271099767988  0.2295709096565180  0.3042436313829598
  0.8380079452431538  0.1836121334459763  0.2981367165907650
  0.5583238236732918  0.4895935276292761  0.0922700719384362
  0.3911314065343994  0.3492020753954536  0.5533006365437948
  0.4537568702103592  0.5518792639359225  0.0330587836151052
  0.3609324478106605  0.2831659499459280  0.6136724602182253
  0.4587162650135290  0.5976179319295011  0.0822003678938286
  0.3043442595223122  0.7445550594080595  0.0477213124848715
  0.6639159271526777  0.5682463869044214  0.9883694519098675
  0.5622971229826537  0.4896678811570128  0.5988902277385374
  0.4708189256079556  0.1648829836289293  0.3471135434952196
  0.6222910417598078  0.5142850613190535  0.7205601907349380
  0.5736435404047386  0.4776697867746571  0.6561565571518168
  0.6325609696055164  0.5012529637500314  0.7809490297071521
  0.3072829916187321  0.6299629223573914  0.0256090760311836
  0.2537799188814191  0.6441466933374010  0.0592136298138862
  0.6820119767165230  0.5403002717143364  0.8456919736456702
  0.7093308235935014  0.5835710200345987  0.8828287712158950
  0.6491960820570213  0.5906235700192550  0.8619750127055078
  0.2417636118611368  0.7649580638691565  0.0214004959585068
  0.7195210866928227  0.5707799173896778  0.9472857911660258
  0.6982780221434916  0.6266670427130115  0.9263820191438723
  0.7390534180591186  0.6763889635551339  0.9855560600623441
  0.1992534359383922  0.7780097657464613  0.0597603073718253
  0.1702275599174060  0.9639165696991979  0.9680754634075892
  0.5123441843324293  0.6141399923853530  0.1531744222408873
  0.5510394787280289  0.2825199819068812  0.8490274483203297
  0.5735991357618888  0.2117812423118620  0.9569137412187920
  0.4021210716332949  0.5038644860965887  0.0936637654380886
  0.5950458228432245  0.4517016989134374  0.7785624234107761
  0.5342082008747417  0.4590164665311174  0.7583492699278860
  0.5605165227868103  0.5548391978596213  0.8038382196545132
  0.4060982198893885  0.5865841492702931  0.0130896985088143
  0.6911032371282567  0.5287309107989426  0.9063420426999517
  0.6529541747183133  0.4774615606620626  0.9028002586457132
  0.3055730221275494  0.5672630293504468  0.0461403388175872
  0.7186755435933002  0.4514943682870541  0.9842532491499754
  0.3577473915331771  0.6474314766616657  0.0924850637326072
  0.3347728964702219  0.2034673352557781  0.5054507264554498
  0.6811946804245165  0.7743933137255054  0.7225323716949362
  0.4099945400943437  0.6781080566434718  0.1033466237961821
  0.3789222866747666  0.1391358413447458  0.8122110308907263
  0.6454771683340228  0.8170955762962808  0.5380749599209721
  0.6976211194434117  0.3018165184441942  0.0887775351803116
  0.7035728820995988  0.8815053496413240  0.6127119551836878
  0.6512074165192316  0.8471552230234517  0.6450355732111870
  0.6587152943425485  0.8328150640890968  0.7038260577354120
  0.6056056603344846  0.4414044672261824  0.1782620238964765
  0.6957875461266719  0.8827535908668914  0.7027486253027263
  0.8091259842761013  0.8801178080148117  0.6903942205640815
  0.5581620506840100  0.5206624160737282  0.1954312388858729
  0.8076532122513713  0.9113956997604008  0.7965546583676909
  0.7967080539460826  0.9553016701055670  0.8391554267084862
  0.4128389229683771  0.7239477763385108  0.1475348491650356
  0.3508559803583333  0.5662540415296643  0.3966039275431795
  0.5674568270012857  0.6600744654471867  0.1005379496444288
  0.4646425204389104  0.6923626131967634  0.1713589617774742
  0.4155796214152820  0.7532302635344043  0.2537551378938041
  0.3702259445505420  0.8299866738020508  0.2744236136827608
  0.7293998189982632  0.8106420540264585  0.7857305791179848
  0.7080799341121158  0.8698877270732707  0.7689712308325322
  0.3252270136930774  0.9239949081953437  0.2329041792862274
  0.7791190723600337  0.8176882663780639  0.7470638182842637
  0.7686221889838224  0.8918698713062241  0.9017612376169466
  0.3302483839980713  0.9698963324074401  0.2790895460684680
  0.8724455259922689  0.9930085666390890  0.9024752970586907