Cr N  Ni
 1.0000000000000000
    38.6909066207142374    0.0000000000000000    0.0000000000000000
     0.0000000000000000   38.6909066207142374    0.0000000000000000
     0.0000000000000000    0.0000000000000000   38.6909066207142374
 Cr  N   Ni 
 1596  50 3725
Direct
  0.9801195258082559  0.9330831333391690  0.9083428408469150
  0.9695249568866587  0.3963139550828199  0.1510458153593950
  0.3619255232301213  0.7677758756209961  0.8451893015626643
  0.2912707722118580  0.8189510500908318  0.8670982138860247
  0.2405618428566483  0.7820232500244200  0.8017351144866405
  0.2905586752528777  0.7873353819591169  0.7609273454504299
  0.2636872874693387  0.6921830586023289  0.7130345305927750
  0.8370647385378090  0.7197268997364464  0.2901545839890661
  0.9382404954852688  0.6722207137441707  0.2815191122695831
  0.4406921478317518  0.8670282418803090  0.8542636775820823
  0.5752937324516989  0.2267008800028498  0.8698171432941764
  0.1620714512873656  0.8273389438568823  0.4355395118813667
  0.3192371282597982  0.8279364940782146  0.3713900325742809
  0.3237259072402944  0.8731655305407670  0.4155808041920494
  0.5992483061670908  0.3215982501855537  0.9168062219716195
  0.6567444239000029  0.3916120407711738  0.0378344605398794
  0.2211938504230440  0.9229485060466825  0.4315683203481336
  0.2255760553025137  0.9690222541092751  0.4755693715879055
  0.9347520722903169  0.0876430502150918  0.2477423390885124
  0.3797124831249110  0.1069635814016851  0.7062498918869020
  0.4707359183777886  0.0309136674644126  0.8101147385579149
  0.5379166791458347  0.1767772414584484  0.8607438321538801
  0.4905581015473179  0.1692230347831526  0.8994916040483194
  0.8362141616457581  0.1502714932203295  0.1929866614481230
  0.4621536546882922  0.0735981559311202  0.8521357275140290
  0.9358561917025496  0.7947999618018262  0.5701367840601458
  0.8578611243808789  0.9477867682516852  0.5224544267141491
  0.8631034114998773 -0.0035331530136771  0.5623504378354118
  0.3710941650544529  0.7964438142615125  0.3951166641639147
  0.5668393453577882  0.5670445816339287  0.4677744112528723
  0.3654387006189491  0.7512487688026789  0.3499973473399158
  0.4919391653432809  0.2575697028888131  0.7223429407869791
  0.3108764553626524  0.7362989028172311  0.2793758646142928
  0.3150910296570802  0.7986438591614085  0.2643640766790100
  0.5687310037458130  0.3237951078787482  0.6211852231303903
  0.4694145507442783  0.2813713900657285  0.5975437056848971
  0.2688458276341335  0.8579941643905753  0.3484574046344397
  0.6187275074490021  0.3622836878371860  0.6893744559599014
  0.5462118650612244  0.4138031658477909  0.7135316482027625
  0.2133472993280230  0.8431158736209683  0.2749361741831872
  0.1741739203111102  0.9633120239920379  0.3342093263524376
  0.6287716249059414  0.3830016491608580  0.8595876200266075
  0.6879607876345254  0.3754296944823004  0.8798365754620087
  0.8251088774732888  0.0439727278190041  0.1668418674620733
  0.7706296143388409  0.4655322636951060  0.9438489608525619
  0.6482926464296169  0.3822121670237032  0.3300543604103157
  0.4894626233971697  0.1375484949335894  0.7921289929781663
  0.5069970406792287  0.1152334114396328  0.9188290386852747
  0.8089579773730504  0.9066600623838772  0.5684156138002701
  0.6389329366467987  0.6039800082331177  0.7990034358997847
  0.8409970631110457  0.3102398743185576  0.4900372824755883
  0.8960846605478735  0.2920745743016020  0.4575266352768803
  0.7922836133873449  0.3410259044244751  0.4602844661154318
  0.7354625475595633  0.6807677885683351  0.9251077876559447
  0.8038480551495378  0.4021375802090519  0.4356050652407992
  0.5642407451791701  0.6132956762423869  0.5130727607556399
  0.7535194064896741  0.7545021082879517  0.8049876444201640
  0.5642818581097993  0.5832093103788045  0.4065762636942113
  0.7752700407303611  0.6961978103707012  0.8245640429394752
  0.7033731423154569  0.7168782887864863  0.7387978040100217
  0.5184203180558461  0.3211489630601427  0.6639568964788328
  0.6897735854164763  0.2726806019739096  0.2133861397514933
  0.6009393566614915  0.2890384815240352  0.8103087379062617
  0.5794187419862548  0.3441425285314226  0.7922987127385607
  0.6976382695851948  0.3631126224043766  0.9414213208892586
  0.6619483561394980  0.4667063027819159  0.9630176362107788
  0.3595318479455757  0.0856860876669053  0.5366069362036638
  0.4184130153923675  0.1240196873316469  0.6029383377493833
  0.3680100162137864  0.1177842312944586  0.6444469431559681
  0.4167389726650703  0.1551226554072797  0.7100771487327520
  0.5142197394225507  0.6282763891301940  0.3185987112696215
  0.7373142900017480  0.6472106422628990  0.8226471819985959
  0.5519304934180447  0.2822764342996679  0.8506697712489699
  0.5801692732446337  0.2135624479451828  0.9435611212562749
  0.8939570226791493  0.2470225737229507  0.4133811762991306
  0.7865750124988136  0.1994198342568220  0.3330991453458778
  0.8409639804680329  0.2295294242767122  0.3414641655262723
  0.4225879884351245  0.0240305009139784  0.8518253639782534
  0.4019722289679403  0.0809333285394140  0.8315443454659478
  0.3876634553535380  0.1841265045310287  0.5152048308831083
  0.7363212006247907  0.1963274032946578  0.1986932287586030
  0.6913428673629219  0.3055874337301125  0.3175620604084699
  0.4561710749104219  0.1731851202121939  0.6098796543496400
  0.7585955770032345  0.4275352261759254  0.4074297208565213
  0.3927833046924246  0.1779940947376675  0.5888346765822015
  0.5747630863203785  0.6906370082877397  0.4338822337901127
  0.5365876713735309  0.8014624731522423  0.5073201883523984
  0.8152899680171999  0.7806808329197404  0.9281358466983365
  0.8622856080799286  0.7860824920993477  0.8936744869931205
  0.4270806923557039  0.8071451267364670  0.4727765260200525
  0.4847912438185478  0.8847949568209299  0.5233590061455513
  0.0321703806710222  0.0681240665523003  0.4192287456557109
  0.9853324720106119  0.1490243032378100  0.4391418713384731
  0.6112895711372240  0.5280057082360976  0.6600198895867135
  0.9302946612683011  0.1591182881815209  0.4651507472571708
  0.5997890377106997  0.5726702299053772  0.7023611969701675
  0.6274191770722984  0.6177185588301232  0.7375718527793040
  0.1683167988064161  0.0134284867156278  0.6424784847674012
  0.0016243146332764  0.2426192015393235  0.4513478975811547
  0.5874943182472095  0.5561107828999046  0.5342396755469194
  0.9778939973669052  0.9019026491795085  0.8002326644838978
  0.9066445397736091  0.9546272499353080  0.8223092343901180
  0.4735680790273158  0.7319377419604182  0.4446248929212157
  0.6763254734433554  0.7451914831384304  0.6107144558809550
  0.7618305641443590  0.8048830548173674  0.5778541501295729
  0.4811362661463462  0.8373808700519013  0.4771714918864246
  0.8300524421091335  0.7925386450133071  0.6036478553306552
  0.4274996124272405  0.8509282408607386  0.5167822065712511
  0.9211277404095636  0.8807330003702555  0.6744838285008330
  0.3287209566370882  0.9197667767521107  0.4622186632077908
  0.8894659327799708  0.8466359604708671  0.8387559942949278
  0.2874467985643347  0.0132589981738906  0.4206893360346310
  0.9308005845630852  0.9972320234604131  0.8600589257930913
  0.9231111339261798  0.0219947493222057  0.3418703934615797
  0.0364481254646120  0.9984557468673230  0.9422177409857756
  0.9269152488189740  0.0662256142444283  0.3811647761699649
  0.8801432306131581  0.0908151818355740  0.3475776526655089
  0.5946486421752641  0.6549628411904096  0.5557049239599613
  0.8873138781677875  0.1510497190244352  0.3267173324541478
  0.8376121366169198  0.2151382184524220  0.4027459156618789
  0.5915841908580524  0.0174821715698422  0.8543106111766396
  0.8218636261674854  0.9843064778965267  0.6752533955682730
  0.5261025250564910  0.1870258416940080  0.7983497090849430
  0.5881486089746303  0.1487210504785211  0.7105520572352202
  0.7434737290623324  0.7366129970969194  0.6400246365762495
  0.8382012850311734  0.8401581643940648  0.8811119626685555
  0.7038326699277964  0.4123367629211940  0.3372092890917013
  0.5176902124183306  0.6064392586849642  0.5566812624274984
  0.7841339852054050  0.7180641888106732  0.9925743370372747
  0.5180778037137793  0.2833420727657124  0.5593286894314835
  0.4277701370148883  0.2442288609035664  0.5390826473367684
  0.4261133690857909  0.0106227514736918  0.6432437427992906
  0.4495371834512387  0.0529790445381689  0.6825520237134939
  0.4985699982142577  0.3125668600926895 -0.0044197591576121
  0.4504407030753726  0.3106183999735422  0.0411141226282219
  0.5608060824597429  0.0862508069164395  0.7698534689045086
  0.4457386136190791  0.3629509836022504  0.0920963593780575
  0.5115933894101502  0.0803421730216111  0.8119962549948760
  0.3971286734503389  0.3352642787294832  0.0109889503731373
  0.4463173974472626  0.3780068509349524  0.0238776855696378
  0.3991529641945990  0.4573588852187722  0.0461691339097069
  0.6589850697057207  0.1622082806193013  0.9014814750269626
  0.6177106139931732  0.1478057880232291  0.9460286973959864
  0.6399845392967307  0.5910841678745044  0.6025027336131189
  0.8108234342947197  0.8453206081071818  0.5858295788790472
  0.8588283580878895  0.9266045710557482  0.6054650779589367
  0.4570470330095287  0.2942827434169363  0.5338266596335122
  0.4124827262363048  0.6734342388686519  0.3287951061983324
  0.6162212547103010  0.0622168040941690  0.0254349456363149
  0.7184229005011743  0.0138022217841335  0.0176882975901483
  0.4544380922406308  0.1476571114945933  0.4939116052779350
  0.5307904639773160  0.1226140201638629  0.5796837191576958
  0.2946655345824135  0.4999427270441437  0.0569395988889698
  0.5777423987053201  0.1604240079073641  0.6443538949465939
  0.9356191450294040  0.9863925832804754  0.6524446761450451
  0.3512759870158211  0.5816197276089993  0.1110471806034141
  0.2479313525837177  0.5808970032462517  0.0763435466686473
  0.2084169026559174  0.8140402212722192  0.1656923586185580
  0.4523413732833709  0.1158974408511773  0.8961393423083597
  0.1652105763631379  0.0589501826494067  0.6943367380446372
  0.8195280947048597  0.3132752212911145  0.8752381637928581
  0.5554947917606899  0.6377688055431961  0.6552949825240817
  0.7151067508527391  0.7047803895792590  0.8013755154360156
  0.4755453941859905  0.4334722069008928  0.6305851045906119
  0.1933891544709639  0.0412470035072936  0.8264043068930849
  0.4103040305930022  0.2245414695961490  0.9197100265545518
  0.2658958166062673  0.1715041725848832  0.9376621331884293
  0.3290880964985294  0.1337796151033618  0.8536250233721774
  0.2193021271468518  0.1350462492943483  0.8715094309680286
  0.9527382002146397  0.3401402974022715  0.4027386362782595
  0.1713335088712488  0.0972504023493782  0.8060504461257354
  0.3069471667635210  0.1585034676032074  0.7288570920144194
  0.1573296217792817  0.1042015053096880  0.7405964348190498
  0.4996347205841931  0.0510771995865401  0.5305093021404400
  0.6476129210903753  0.1747470649184594  0.8417141788617829
  0.5764806303590613  0.1983107624676906  0.0288436755912521
  0.7365142410699111  0.2567402774575552  0.9251499968283341
  0.6828742429499224  0.2549359609001416  0.9558003261769076
  0.4819897590418179  0.2333337693145961  0.5612756787563733
  0.6632722037374796  0.2499109919377089  0.7268029078135865
  0.5591122736549110  0.1198350080247376  0.8762792841186728
  0.5500416688138641  0.2175628879109731  0.6415687905842212
  0.5085659686682937  0.0585157527384575  0.9822401115453256
  1.0242904104103223  0.9896142192699244  0.5021255221435399
  0.9687659801805273  0.9587466631726097  0.4982959590830576
  1.0460016730532673  0.8337498009837888  0.5214696638608488
  1.0045145840610432  0.9461771854899844  0.5483307853205527
  0.8620494081982757  0.9872681068874222  0.6360619583757512
  0.9600807564028656  0.9442507174964305  0.5963997045093542
  0.8494708386066443  0.7740532026986949  0.5045532365890135
  0.9546451117707021  0.8994250669580459  0.5123196866664592
  0.8715051987448699  0.8462463726298093  0.6071146644494827
  0.4867989690079546  0.0036620902790063  0.6648094257618297
  0.9311602440489981  0.8363962602570535  0.6230217674304355
  0.8156574183900853  0.3311773419971069 -0.0100058335382014
  0.5196695307339276  0.2255382332598414 -0.0033396423627042
  0.4411618477025380  0.3199746330111254  0.9757089580451982
  0.2588110642784588  0.7843895327924247  0.1929468961918419
  0.2552062093555758  0.7518066168433226  0.0870908415905598
  0.4404279092846012  0.5362616653660901  0.6546227628805777
  0.4807185779574661  0.8721938329093644  0.3538157707163975
  0.7702936429459701  0.0158640065899763  0.1582043943624743
  0.6358099713315002  0.4404217387494810  0.5664650033198674
  0.6844953260685440  0.4747116924911713  0.6372238333270172
  0.8106935821455529  0.5822767532012710  0.6034339972565961
  0.6325920171175926  0.2097311749670707  0.1030818069237689
  0.7610698924507266  0.5886485127844345  0.8399546066504820
  0.8231726260541115  0.5816920671944359  0.8625503229378290
  0.6347975788890637  0.2422980535066611  0.2054868642392395
  0.9916037469174276  0.7280879062334125  1.0048751168057661
  0.5469143798843020  0.3970783048509100  0.2313037645403108
  0.6462923189629175  0.3505313022062300  0.2259830664941452
  0.5390034314403328  0.3933153194040577  0.5354510247435261
  0.5516882405193738  0.4574273106900530  0.2133051245550642
  0.4550981047655726  0.5516198546382779  0.2650675724803471
  0.6568087294487415  0.4103206748126196  0.6929323793647371
  0.7331804777189427  0.5124786249579495  0.7014601638153340
  0.4557525345485646  0.5667385341264560  0.2035486574450207
  0.6832135814505602  0.5063692983161315  0.7412652283425990
  0.4078244616298106  0.6275687483850075  0.2836754784699678
  0.7161082585468598  0.4376504254534072  0.8208791994558843
  0.3491699946960612  0.3271469392818828  0.6579845368756503
  0.3359379631270151  0.4051869344673084  0.8092020366754797
  0.9017134455581085  0.8023874917978187  0.7940148058139531
  0.3070263533230490  0.6748374605905081  0.2937443431510930
  0.7700920135892176  0.5789847152931670  0.8996103058167684
  0.8227041505246945  0.6186791344844180  0.9699516871564070
  0.8830943223575684  0.7288077052888153  0.9100801651824375
  0.1546707553513050  0.7813655440763968  0.1547660398596888
  0.2086449041419393  0.7970411689985437  0.2277862622942416
  0.9223918914500410  0.7457500188780263  0.8112172371963131
  0.2208860493132004  0.8665641905700850  0.1364790112409489
  0.8358111112576939  0.6462913938358640  0.5451339708383579
  0.8056839777587785  0.7929571138624312  0.5432366821904041
  0.1662738995727375  0.8860371584348897  0.1805157285438365
  0.1168383133719877  0.9175018263990143  0.1560250524951409
  0.1253194919709637  0.9604331990835390  0.1969574381950656
  0.9411068113394954  0.8205460080856404  0.6913527031180804
  0.9849380063808961  0.8744790631583437  0.6964088807114890
  0.6641005731101246  0.9819474131333006  1.0052392155487244
  0.6705621398333905  0.0731063012254904  0.0997434172694616
 -0.0072524632904056  0.9896137161171523  0.8829403478356099
  0.7364127217701075  0.6005174663709286  0.5214819554555419
  0.7034358362316951  0.6542922204319608  0.5388334968201343
  0.5898189458578631  0.2871299132228440  0.1147733140230644
  0.4935830029853767  0.3801942908588212  0.1618840323756627
  0.8319858632274777  0.5595393708690192  0.9905784334439777
  0.4900547373156290  0.1050894885063282  0.6858356835783328
  0.5402266060651010  0.1110279560543989  0.6447442775092548
  0.5224312671616953  0.5038470418287356  0.7995197231328385
  0.8135277679764175  0.3938713053507340  0.9744734327340128
  0.0529074261900978  0.9301469524750683  0.9321596981065772
  0.6129234626605626  0.5275377253104621  0.4971070926178601
  0.4524270853476798  0.5197959363091822  0.1605064382991880
  0.6913067199271873  0.5952011481386754  0.5574946246066177
  0.3502055026406779  0.5666930485415776  0.1692542990522611
  0.3025266356615091  0.6442828573613656  0.1885245548738620
  0.8351838317558187  0.6570709986512934  0.7404140663001996
  0.3614983565780126  0.7220976783379622  0.2433432259341482
  0.2520815527225191  0.6760562689929559  0.1644405953382071
  0.2040990991223651  0.7669183051999463  0.1217544986596155
  0.4927339011348174  0.0741209943749148  0.5790546009744721
  0.4287830989379350  0.3951676503371674  0.5625560276907597
  0.4981443571426730  0.3766810370099591  0.6450337925910546
  0.8932948118178926  0.1805695514291516  0.2024135199345412
  0.2795395880894254  0.3472669280666965  0.5734452173189628
  0.2627077825000925  0.2394158917725445  0.5856269685008976
  0.3269260373466594  0.3851818368761108  0.6404843228287999
  0.4252768257563325  0.4281149048406948  0.6705638917470098
  0.7471368853560680  0.3354516393339451  0.3262322513661113
  0.4130859264022450  0.4727494734016338  0.7136036215984345
  0.0604424477419401  0.9052848809401765  0.0861330192886942
  0.0065624310079352  0.9035656561492902  0.1841385989826874
  0.9490923696259905  0.8399602567702995  0.8602718327489500
  0.6758284038517329  0.6567137199840590  0.3650274316289785
  0.1436991179944536  0.7554684875518612  0.0392786714507782
  0.1988563284132430  0.6126511845405351  0.0470835857211966
  0.2536409704442090  0.5914781322426116  0.0151988189349369
  0.7112621349176895  0.2852930448113424  0.7920637813764315
  0.5518295066209069  0.2500243041861510  0.7439370626996634
  0.6744458919905332  0.2365938981342857  0.7871319646443732
  0.7317224223503868  0.4225401481789609  0.4946789899599409
  0.7147162938630055  0.6726172258936499  0.6980702024274559
  0.7800095136502996  0.8171423371879514  0.7473322563679615
  0.4672460187362892  0.7208884641874467  0.2760454334088185
  0.4456791927929721  0.4104521981053092  0.1354865496880156
  0.5873458986297951  0.5999415933549270  0.8380103125599087
  0.7581906231404301  0.4116457368197770  0.2438652220540638
  0.8462602758651178  0.4084896067477908  0.9257465976689170
  0.8240422776873648  0.7013530118644841  0.7845375625993422
  1.0016740200250196  0.8773533763293689  0.9272885733405432
  0.6653920390502961  0.5495783366123513  0.3360274484981851
  0.6062798771616111  0.5761534351974538  0.9628946332436150
  0.5208644024710852  0.5386905114108350  0.9037548326235377
  0.5650201470346953  0.5966369085905486  0.3446997291591546
  0.5585608501293934  0.6257584871338902  0.9910486427510762
  0.5696794638869771  0.6735603266219533  0.2670321438725926
  0.5497972256322327  0.0986775271280349  0.7065588396911383
  0.1735572899807835  0.9279787409190847  0.2215261266954746
  0.6091472117049851  0.7989713043138892  0.6378651533974065
  0.5065117606342373  0.7818649661271134  0.7194299231229712
  0.8218074851453943  0.5502813818807161  0.5046484172892394
  0.2239685624414533  0.2204558638091149  0.6877994994660924
  0.2401706766590896  0.0782162696311479  0.8917384487145467
  0.9165598360925596  0.4097639851852841  0.4108898699889750
  0.8496213007779116  0.3367987314234205  0.3633638875969646
  0.8033754720836657  0.3661342569039964  0.3335027336352155
  0.7610315489891113  0.4581654118011812  0.2850271861357619
  0.8162622094022638  0.4734980340007319  0.3549789465926837
  0.4056546165761835  0.3872535041960040  0.8947569940727381
  0.7699624515904108  0.5320873477890670  0.4349530555957713
  0.4530050740163125  0.4401107039090112  0.0130012532766985
  0.1574622415924954  0.0279917369043182  0.5821671023372377
  0.7900150315706531  0.2264811368387480  0.2079462700142834
  0.7928154431456463  0.2408549902016744  0.1457100960196842
  0.4349148575875195  0.9328233739842358  0.4361493853234998
  0.7057207612533200  0.3957744248658827  0.1721187748326410
  0.8170554607131002  0.8606275273228484  0.9856145030434177
  0.3787725987194190  0.5097606920108723  0.5322081420650175
  0.6014096200037526  0.4274594489111769  0.2404140199014606
  0.4803448927745981  0.5547514731809891  0.5558075209231584
  0.3628634876492697  0.7744271594857375  0.0608323600562871
  0.4069348031848879  0.6069627754912064  0.5750703879047737
  0.7091860248387283  0.4419986853053809  0.2139172941702981
  0.1993772666385622  0.0939614630083053 -0.0095884280137370
  0.6078810891201055  0.4893527261936302  0.2213147960471841
  0.6107246058650336  0.5352910304956320  0.2658522863132131
  0.6686021846484180  0.5817117808564725  0.2123065183841969
  0.5766309909968169  0.6124736596487584  0.7778493521138313
  0.6143714007365493  0.6616057725870207  0.7808532194242268
  0.6271477392948203  0.6493522934741834  0.8417211096904396
  0.6525046530141280  0.7126869976295060  0.7810063834191103
  0.6432664545247077  0.7571776601218994  0.8232969860001335
  0.6153436435696539  0.6952691278861364  0.8836681641292440
  0.6761538583453269  0.6875444894111959  0.9040179440554904
  0.5190449378413835  0.6737794480854934  0.3622472343785561
  0.7232755535280473  0.7293053565976265  0.9656466649885354
  0.4768947192789336  0.8116715512578144  0.3695949491161837
  0.4214492736885805  0.7980775506269014  0.2977339948637361
  0.9690886569949863  0.4320355763476971  0.5029949514718021
  0.7165880118843952  0.5035411056186891  0.4248501451409593
  1.0269546639860749  0.0044380081660822  0.2027748965650685
  0.5370791900184120  0.5947234351621628  0.8798279756727834
  0.6914125056868432  0.7618446317735575  0.7816531113868833
  0.9012918823593351  0.2890271286562636  0.2254705124392595
  0.7982109246959250  0.3216035044191597  0.2939436608164665
  0.2483817467730466  0.0653431478396042  0.9568937947114141
  0.4083827101207727  0.7570726416158104  0.0236186071758957
  0.8755407501991234  0.5309883879825114  0.4696435923068815
  0.4353796792196599  0.9490017168257275  0.3745596637482795
  0.4338823669252130  0.4493741320760677  0.8365845511103276
  0.9875324825107462  0.1075069494663875  0.3225579062225516
  0.5538247143865014  0.4682830095947700  0.9812249153387276
  0.9389777107971279  0.1355271461620966  0.2928529728497350
  0.1890208972697073  0.1363556399083967  0.5761921240180052
  0.1535887288926491  0.2392265966900348  0.6058177594925025
  0.5885463029677708  0.6340968944776330  0.9449828140469350
  0.9467082602101892  0.2440692512631165  0.3157188902740504
  0.9365139129581221  0.1024903670287567  0.1851785026645670
  0.6606771178598912  0.5048789038552938  0.2916180441800499
  0.7064829441622174  0.4279554292516625  0.2758007496003876
  0.8034601992465215  0.5274391153887399  0.8872228494209731
  0.9602520944738596  0.7955735075751310  0.8156422316265008
  0.0627778453141506  0.9168662516144218  0.2536975947944494
  0.2565538165850247  0.1172182946620041  0.6620089980637806
  0.1347879063813915  0.0558762818688031  0.5181033316754011
  0.7374729589003548  0.9641909798408730  0.8189054313118496
  0.5014649863695940  0.5311182546907554  1.0080293120615993
  0.4744599453445486  0.8229346731625656  0.5390774424288227
  0.5670033307930327  0.8004372454484441  0.0096998296232952
  0.5100087038046166  0.7553965421444531  0.6177651261794350
  0.4079979093337516  0.3538445410330499  0.7878426319074133
  0.6149427947823015  0.5500215939515944  0.4340231078453202
  0.5906117929947583  0.9011541396602842  0.5001353701499009
  0.9966973077878905  0.2133439947467564  0.3452118738901959
  0.6439724279669289  0.9206959739997158  0.5708748258219581
  0.6494666401661552  0.9790845858166447  0.5524679952983826
  0.6479231855226528  0.6613916663332524  0.5186517834174207
  0.7398730705322650  0.7195355027422103  0.4801719897776513
  0.5400281061919445  0.8419401830826466  0.5625788756176672
  0.5891078663429102  0.8835431512858916  0.5615832728381072
  0.5407728865001125  0.9308109638946465  0.4715240147999435
  0.9468409625007052  0.3243651074451507  0.4688471606435990
  0.9575597349803450  0.3913397865664001  0.4516156485712926
  0.8904340842540569  0.4089421737730771  0.4940313218054513
  0.6127557005814591  0.9458545594767261  0.6682076277041401
  0.4891245549320603  0.5755314978129852  0.7201190351820463
  0.4522907013723881  0.4915810985248826  0.6123938537799960
  0.6237011612499886  0.9340461671304401  0.7347677390464012
  0.6320418417608779  0.8030418494586246  0.8668675784109875
  0.6151534128219467  0.9797197577208416  0.7750005524770234
  0.6374897011321632  0.8429366553880849  0.4147793773449963
  0.1866611660596831  0.2055913029550721  0.7920464438363763
  0.3056254451652481  0.1914413452961852  0.8338278675266629
  0.5400705876079130  0.8706325290068427  0.4873303228532669
  0.5872894670721710  0.8558602433283141  0.4514514295369790
  0.3772796199772266  0.3278193215949625  0.9494027273986584
  0.8526787779516946  0.7656516763419637  0.7264107205243929
  0.6673885901638104  0.6341874301407198  0.6383705469204557
  0.5834333200597998  0.7964757721512890  0.4661541601918265
  0.7664937959479693  0.0007669370669596  0.2225706893064561
  0.5781388733616257  0.9608553243154312  0.8791519777164786
  0.5081721737086216  0.3651044288946121  0.7080317447081833
  0.2098391210630627  0.8261251354494058  0.0959504105966102
  0.5062579279249877  0.3967362667598708  0.8150112273919413
  0.2217393596365636  0.8808871244510200  0.0690842997236906
  0.6162923975984421  0.4272313581235984  0.9012802547098144
  0.5166878406544810  0.3860977826734109  0.8745508814813261
  0.1803275510499392  0.9444578154222014  0.1581309827055243
  0.2379951107728633  0.9866802332394827  0.0958958895123043
  0.2973854629804799  0.1362194889472031  0.5616016984385515
  0.6783184119592648  0.1519114584582786  0.0233668897162666
  0.3059502796453606  0.1228606906188117  0.6245925118878253
  0.3117300351847871  0.2767597895375949  0.6534418793176667
  0.3439904051514539  0.2084316599826631  0.7333543436242588
  0.3918917116169884  0.2474000013788149  0.7981251413730118
  0.6586444089320346  0.2845809917585328  0.0017209266748772
  0.5621146822551374  0.2719915656628182  0.9140812492529690
  0.5552822008312922  0.4443180658747957  0.0482964716957582
  0.4887184937193573  0.3262240184813689  0.9317045877843912
  0.5038778730455262  0.4569671997813186  0.0844319577720305
  0.4093819046890073  0.3208556106181752  0.6814495506565068
  0.0794472633047297  0.0382803344177642  0.4440328695427615
  0.5574732106015406  0.4884595641147165  0.0907421511547582
  0.4562898626677792  0.5824508919574745  0.1439310824494210
  0.3899017500453701  0.3469601508976642  0.5552585498945961
  0.3595772766335972  0.2827016176885253  0.6151365645243422
  0.4581441101380887  0.5972608487179422  0.0836323826195086
  0.3056613552501888  0.7446555176215764  0.0468980746567466
  0.6638987657697974  0.5700811962650197  0.9871896102553736
  0.5622977881130768  0.4895013991152775  0.5974106952833249
  0.4703333639084291  0.1647760678292083  0.3465131177983935
  0.6237562590685222  0.5140795013669894  0.7201263699197483
  0.5621737270827764  0.5231194430017455  0.6980200011772081
  0.6334171651340994  0.5021380004565243  0.7801719461456146
  0.3059092926322792  0.6295267825624995  0.0251211799695537
  0.2548463404254757  0.7078487446690821  0.0402134182281536
  0.6818113436938059  0.5405146658454507  0.8447537059482977
  0.7091209128980148  0.5849817920408812  0.8817617991957495
  0.6490019704600876  0.5920276995998778  0.8612622653499689
  0.2414896791123694  0.7630634850776974  0.0215432603486049
  0.7186075304051798  0.5738146711833976  0.9467252319302593
  0.6988336330699098  0.6282993402250814  0.9259118232704988
  0.7391447877605519  0.6769717109681642  0.9851724602035838
  0.1990950848215380  0.7783891882023115  0.0603685826403437
  0.1268113558420313  0.9417769217238978  0.0113141644886784
  0.4547523056521249  0.5361578345666289  0.0998027813454035
  0.5309763457062335  0.0243670272261316  0.8315633301847891
  0.4001451080240049  0.5153045524116497  0.0362071483841068
  0.8092318134926084  0.9111837932908321  0.7960793484451704
  0.5581032783818760  0.5184932279565494  0.1954987453182699
  0.5348232203680705  0.4598436033348434  0.7577188750172019
  0.5828789905339883  0.4969395805708370  0.8197642599765120
  0.4053080850770917  0.5871543552719871  0.0144458150630108
  0.6935448103388475  0.5308776631192029  0.9051418913888448
  0.6323651977262419  0.5362615254067237  0.8837958560587549
  0.3016379876679765  0.5697036364775048  0.0430928260624893
  0.7181369011554845  0.4551323260046071  0.9851790856120299
  0.3573753270408686  0.6485870614362770  0.0930339817228744
  0.3339182480424908  0.2030837063294083  0.5051151967212888
  0.5726506736240646  0.7761961420339090  0.7409735042528423
  0.4098996957144201  0.6772876372064474  0.1031496822058653
  0.3793006858853999  0.1396258887592002  0.8125260583598644
  0.6459248815545845  0.8165839136060957  0.5372398574337243
  0.6952534684866010  0.3022641960569794  0.0895097139511785
  0.7047427417424778  0.8791177360967921  0.6128974889099464
  0.6506838420209591  0.8466991007998070  0.6451084978508871
  0.6588327266946861  0.8329400227635012  0.7032139623766915
  0.6040018444537384  0.4410193145912794  0.1787824676294333
  0.6958426234125976  0.8822515880670666  0.7038610634657093
  0.7971856547767474  0.9233854701689199  0.7338143215818850
  0.3750971070603596  0.1733052157359505  0.9155677319104946
  0.5942980703205084  0.4530329607826460  0.7777952076277568
  0.7982125205455035  0.9559559398926221  0.8396783213553271
  0.5360486191916203  0.6701944040419205  0.5345547612557113
  0.4126382066289777  0.7241961370913623  0.1471021661445670
  0.5658134185056511  0.6442627670063379  0.1615203484769098
  0.4129820985753947  0.7068504276131783  0.2062499625239462
  0.4157155339263586  0.7526920234086126  0.2519612438490383
  0.3704990422655797  0.8301189174956886  0.2728647964459036
  0.7311909094916204  0.8109511170087482  0.7863833751910575
  0.7091199911543288  0.8692442304479470  0.7691431825378853
  0.3239731403004948  0.9241023931043716  0.2323592494374322
  0.7492840872674300  0.9191490169958794  0.7730360990610637
  0.7692811208399875  0.8923710895365965  0.9014410682971247
  0.3297898856342969  0.9690256121854878  0.2784288678811642
  0.8738140920346960  0.9912584077339800  0.9033988606965109