Cr N  Ni
 1.0000000000000000
    38.6909066207142374    0.0000000000000000    0.0000000000000000
     0.0000000000000000   38.6909066207142374    0.0000000000000000
     0.0000000000000000    0.0000000000000000   38.6909066207142374
 Cr  N   Ni 
 1596  50 3725
Direct
  0.9767806792193672  0.9346253519409291  0.9062926987955093
  0.8372121777514976  0.1823579590491272  0.2976869471600820
  0.4227222512008290  0.0239445336687596  0.8520483247410005
  0.4011046536150287  0.0817685197828650  0.8316538559443640
  0.3870687747803599  0.1829472196986815  0.5147649663731829
  0.7365768869251484  0.1958705761401532  0.1990059466685977
  0.6911805525844681  0.3056329591026921  0.3172331043099466
  0.4559381754206526  0.1730590273705736  0.6100142602817680
  0.7593285575428721  0.4268294220660408  0.4064105286525995
  0.3928815799111585  0.1776679410156818  0.5891400263921779
  0.3013954878682991  0.7412627889626104  0.7180552268297992
  0.5746622870072770  0.6899826630941039  0.4349105638692293
  0.5357447398544193  0.8020983705025736  0.5065805734852510
  0.8151927845227381  0.7805362387391076  0.9287110188610386
  0.8615926237505767  0.7859833785478222  0.8939099010162360
  0.4271636978329971  0.8066517786649690  0.4728473034800220
  0.4842779674550751  0.8847922299939138  0.5239839409828192
  0.0321456796922433  0.0678792846617568  0.4174703261941766
  0.9865080758980905  0.1465507678663262  0.4310320901272938
  0.6117456634822138  0.5283451048020303  0.6600245024175045
  0.9313952448949837  0.1590254006690726  0.4599941647232358
  0.1911633052158526  0.5556208985611267  0.4606975179592604
  0.6286877622146801  0.6174975036542274  0.7379900852065788
  0.6387850459014740  0.6043665825587599  0.7991632579268085
  0.5108093721999226  0.8168276134005265  0.8280498109578170
  0.6485074833467303  0.9091075519368582  0.8529273070933976
  0.2866564161590323  0.6994040639960670  0.9418641439181810
  0.4502371873717311  0.8230394225797756  0.8093883824707757
  0.3011355947543964  0.8061582100558548  0.9396817926915738
  0.4000473630835717  0.7842495978215283  0.7434621526886958
  0.4993763410319831  0.8280309823530567  0.7669349586889602
  0.7911759941644650  0.8112491867818513  0.2488388237850586
  0.3397493203855260  0.7773883643415876  1.0026721946378938
  0.3046893671428699  0.6724552092830967  0.5143691689589621
  0.3289722514608236  0.9022750644239661  0.9785782674879272
  0.0401924439311570  0.5633935559134798  0.6284175977157410
  0.4023360655034653  0.7190196003361833  0.5364966378914906
  0.4141173645059705  0.7077353801354191  0.5939855438325381
  0.0543166288117203  0.6520286753175746  0.7061906679208139
  0.0505821795250805  0.5508244390669668  0.6897793569230752
  0.0381935602472666  0.5974030961473938  0.7306956299328772
  0.2519802611016200  0.7697153464517540  0.8632238804689043
  0.1808640107423518  0.7889836144647473  0.7796223133757303
  0.8877820448462281  0.6536779502680599  0.4372775814195940
  0.5906679752739635  0.8476333412938164  0.9609151817238155
  0.3814445713917477  0.9456376751858390  0.9857654871130270
  0.5996072967274599  0.5734572622899869  0.7028270916041444
  0.8935354398935492  0.2472867798890477  0.4126454478002971
  0.0130084443275750  0.9313044560930309  0.2869627203047498
  0.8562823518696445  0.9324453553869649  0.6052659350849703
  0.6396030099117724  0.5904365493896043  0.6022316228314961
  0.6172232448264700  0.6300303764004846  0.6785089787665333
  0.6163448009069411  0.5989711771883928  0.4776985037898283
  0.6552462850308400  0.6805731282906240  0.6810584653135169
  0.6655736969134879  0.6681098071779425  0.7411711442944976
  0.3076718418241506  0.7235277836308186  0.1110904655160382
  0.5594832025754398  0.0457787493797216  0.9498153554866945
  0.5793026419303807  0.9606183121229337  0.8793733281061256
  0.7419456689089199  0.7677042262510231  0.7435069669788811
  0.5320396058851583  0.0228315902246312  0.8307782016878081
  0.4003565879219463  0.5150565118898996  0.0359102655720217
  0.4094733338102151  0.3208038177113101  0.6810580540445444
  0.0795884672860387  0.0384510180643110  0.4440789530892061
  0.7660021430617261  0.0013058746477286  0.2223567971880623
  0.4014712356313377  0.0460172028453714  0.0108003047219415
  0.0473728916206665  0.2130741134544022  0.0196379915706062
  0.9199284357506108  0.2418823880705908  0.9152883085791643
  0.2643566488734388  0.8031313037756145  0.0637929932515082
  0.5189112321468302  0.6897596498628904  0.3025549729586309
  0.4438228834692419  0.1598962091222256  0.9496788833615775
  0.6177679103928720  0.2434768566951620  0.9891775335325516
  0.8109044949202554  0.8447114406432982  0.5848938480524003
  0.7860579266600685  0.6520821806484679  0.7829202334994572
  0.8422475680973128  0.3089783672993454  0.4910692789442581
  0.5274471456489797  0.1868455756266163  0.7985869888081770
  0.8974694573872468  0.2922719140928872  0.4580633270825428
  0.7927256181282627  0.3408009400348202  0.4590430515589732
  0.7349683166641313  0.6805997118200874  0.9253539250928894
  0.8044339675451969  0.4011842138790190  0.4355194591020130
  0.5667027617580457  0.6143699159475348  0.5148126400156132
  0.7526243092224091  0.7545252386899960  0.8052769035727628
  0.5642127612415204  0.5828683127067951  0.4074195711621406
  0.7754659840343088  0.6963748179153456  0.8246913771249242
  0.7036823450800581  0.7171010377156755  0.7397084027198483
  0.5188513790426923  0.3210644456931664  0.6632379242279477
  0.6895424361968464  0.2723795182945101  0.2129481003306526
  0.6009230016847771  0.2894235706297137  0.8093988842329857
  0.5793603033194208  0.3443105024710930  0.7919529714513244
  0.6973351835579900  0.3630835802130397  0.9413635888749929
  0.6555390018454433  0.5111524938099736  0.0078685375538410
  0.3605941472575686  0.0848835866176246  0.5371507082254084
  0.4174626399757286  0.1232522627069511  0.6036216296224260
  0.3675220218626380  0.1172324717484494  0.6448894407202612
  0.4166404346348784  0.1548827245493478  0.7107750538601862
  0.5645763515336562  0.6128901707240962  0.2847785120562150
  0.4128205252796389  0.6734462749864708  0.3292788193088380
  0.4590694355178301  0.2944084968104380  0.5340383703643953
  0.5569360957703247  0.0857128311423326  0.5418289903861613
  1.0041034630437695  0.4423481809300654  0.9704295594916832
  0.8367266692922094  0.7344774246370985  0.2297554911710289
  0.0239259984969034  0.9580958445552106  0.7210100779487160
  0.8791522356840829  0.5352406052640420  0.0191141667847288
  0.0676776496607237  0.0510805020707051  0.7760587985403723
  0.9043633064366126  0.9160441141013087  0.5500145014628570
  0.9114108748466478  0.9463080982629584  0.4229661853310975
  0.0550144740287862  0.7934683348552691  0.4589022395168224
  0.1847426823460026  0.9223719867389294  0.5497174601817519
  0.1836711173139855  0.2371166065022906  0.8945301665997981
  0.8044135699706910  0.3493177156513866  0.1673300661953602
  0.8656881303175626  0.4257533331619410  0.2178411581880178
  0.0971675544672976  0.8722318976757012  0.5799868960281696
  0.8610240080589698  0.3795162362639629  0.1749339639623133
  0.0365507169721270  0.1572478753823538  0.8013568736223030
  0.1499726237304781  0.8695903607490632  0.5516488624138784
  0.9131927000004233  0.3968703487981219  0.2458273521838977
  0.8427513261991667  0.2436943479407771  0.2779906752688360
  0.1077242428117381  0.1028945698725866  0.7799534825475353
  0.7217738335640985  0.7857238885305764  0.0086503891488776
  0.1619834513862981  0.9818216398599690  0.5273144996043032
  0.9494820275967305  0.2254393664747840  0.1501151802584859
  0.6108518656687442  0.9979395632146570  0.0411303667587214
  0.9471183403769726  0.2120793366981940  0.2102600119927546
  0.2786847320448202  0.9504705204219625  0.4379516569582390
  0.9214321149129060  0.7142457728244171  0.7059946814574763
  0.0534060119424613  0.2300916286183422  0.6847522549546280
  0.7214600605263415  0.5961711544403665  0.2855267948324853
  0.1453994506063512  0.1489041647096030  0.7889447348220139
  0.0886462152567681  0.9304907720165024  0.8918696359782824
  0.0211534118519960  0.9336646518129026  0.5914358993207720
  0.1088089941769382  0.7776684082654234  0.5935115713722177
  0.1104657014417371  0.8095499835790481  0.6981661598001109
 -0.0032010347397583  0.8229496365629742  0.6503951270912870
  0.2949971653222215  0.3883157969275002  0.9113438606053497
  0.2714412270032641  0.3254460186714892  0.9713884705406112
  0.0521624281489201  0.8142139962386743  0.5783723747845648
  0.2478951337440826  0.3498316816180607  0.8448138560276429
  0.2332489365272564  0.2427959748372130  0.8544767986159288
  0.8392784969782905  0.7407796409178279  0.0058176601192249
  0.4311884541822509  0.9213957821543218  0.2679235872196247
  0.1976982312003985  0.1558513326755668  0.7455196810582696
  0.2232078806184143  0.2548797257545624  0.7936195444904384
  0.4766855610831235  0.8276126581880415  0.3085363022957897
  0.1226977364665567  0.2129564693313286  0.7679451486534113
  0.0290187550072088  0.4736760936468792  0.4274551063644053
  0.0157422419719830  0.4180065604603683  0.4550058096807548
  0.0630956663127451  0.3894730922018884  0.4813704665930845
  0.2580197894727000  0.0179765289688514  0.6482693785145794
  0.5606047787583847  0.2741223870788117 -0.0108498928472680
  0.6331298016656449  0.2620266577293590  0.3730509683290031
  0.5907238068678963  0.3831135155519766  0.4274289182803945
  0.9330536891138465  0.4640021957349547  0.8851939734328649
  0.0545738594338871  0.4464552687161772  0.9318947406866824
  0.5316912723964917  0.2730201243529097  0.2732530813578101
  0.3945662537705234  0.4583546626123119  0.2752904229555619
  0.6906121697417956  0.1585237097893589  0.6233176566390920
  0.6458719830448907  0.2229642549051472  0.5616953761780096
  0.6593303421941238  0.2102720347361062  0.6208849952575782
  0.7243910485618867  0.2069441056923312  0.6409648071574323
  0.7004889659889892  0.2630552417699070  0.6240427236124326
  0.2947096473738585  0.5193460606622101  0.2227752053829274
  0.8113162234434255  0.2967047513653712  0.7087890549370706
  0.8699330407157730  0.3189369042075962  0.8331417338055643
  0.3527305358079373  0.5805004198860230  0.3365121790284732
  0.8091917344529719  0.3279217284067954  0.8149987995176033
  0.3488156076444088  0.5349660352631815  0.2922792781402909
  0.8857498138546709  0.4271046663583436  0.8229117923177780
  0.3541585130061227  0.6130205722181248  0.2140693171267992
  0.7462789696769833  0.3680873810485722  0.9001367313111877
  0.9169160789788708  0.3554227281594254  0.9021206077077381
  0.6680097259614005  0.0442783875853355  0.9879603928962999
  0.6853344137720901  0.2234565658794561  0.8470779554503709
  0.5863489977081211  0.3036789198181416  0.2810098683670951
  0.7629445753585015  0.9375681114276614  0.0067649921554398
  0.9836568276542080  0.4703573928931372  0.8462640725423776
  0.6029009721946995  0.4423921360030783  0.4053004472642198
  0.7909381136199961  0.6214233754471008  0.6789846892802281
  0.8245099256734866  0.6708138195189038  0.6789605624856710
  0.5085694732779431  0.5344209692699329  0.4586204137095047
  0.5085570897812288  0.5508088231095043  0.3978957192114779
  0.4608108494453342  0.6258780760052304  0.4156137591014819
  0.4799542825336671  0.6594891198506826  0.5129859111868638
  0.9560152946378718  0.6747137021521747  0.8899304819134002
  0.9928929275329662  0.7248459667060340  0.8923147553847366
  0.6101338379785407  0.3743730195738347  0.6251047815024665
  0.7840413171941730  0.4893934874424447  0.5610740057097555
  0.6466072732699157  0.4239646027152565  0.6320774472773940
  0.6584266633843732  0.3780648513474248  0.5827060478614592
  0.7444174861346926  0.4686735514611326  0.6592964454840627
  0.7932087050407185  0.5059773303229155  0.7230768277875220
  0.4821236887243768  0.3729138837511867  0.4595734561348736
  0.7452773120949013  0.1590174473842335  0.5788529511911649
  0.7380120401374060  0.2638844039784973  0.4097229897001651
  0.6158457354466319  0.1214673233097736  0.5461288298890232
  0.6343718078089531  0.3460428908103067  0.5199170722486627
  0.2082686100753172  0.7658685223356517  0.3507090951258214
  0.7362628678800573  0.1955296184692475  0.7006789038522200
  0.4832183460433339  0.3040572179726859  0.2457592023600757
  0.9421752021346714  0.5219491199056067  0.6025648994734017
  0.3900961773639440  0.4122756295060331  0.2328792301902670
  0.9732098967823695  0.5858414844117869  0.5459097501354049
  0.7608854128170099  0.0578869754630644  0.9036608938642360
  0.7863957181538636  0.2330105690174870  0.4367553828791292
  0.8147516303313446  0.4479805064672400  0.7402857244056819
  0.7840024483237240  0.1871407551859555  0.3952435090952960
  0.7277668262663703  0.3608231267534025  0.6698789934381750
  0.6686073705787429  0.3657894876418006  0.6483567901393791
  0.7363378506146457  0.3349078017084585  0.5638040197731932
  0.6802151304588051  0.3204275330399000  0.6045587832919708
  0.9812862156876289  0.6052080717532138  0.9724488529269839
  0.9151827257721712  0.9937603284280002  0.4646562869771498
  0.9486445568643539  0.5730917605916120  0.8710229926565608
  0.3255144466065593  0.8576037559256502  0.4806267422132110
  0.9004096011863875  0.5359274381793200  0.8053479745092846
  0.2692965542356381  0.8200832960237092  0.4807294008492639
  0.3620700250400161  0.7053085851163893  0.3038027388849389
  0.8739961616927038  0.4710538910474240  0.8661329718526974
  0.6122792628022123  0.2086256162818490  0.6593587244021544
  0.2654284572839730  0.7964755728981880  0.3621234211434879
  0.6390174934731836  0.1555626991538598  0.6665439522077118
  0.6285357637773328  0.1630325019288799  0.5971620786412862
  0.1548980276347338  0.7344322166388826  0.3403706374288626
  0.5343149480694757  0.2875613321319475  0.2118747763941446
  0.7743585074558244  0.0566137543588746  0.9646009197199262
  0.6912349232735080  0.3417743452332380  0.4238218403628117
  0.8640724030230547  0.5161734835403801  0.9109604958731413
  0.9194128442277821  0.5082571965668405  0.9267370419015559
  0.9715243139279990  0.6885516074207529  0.5610032325843213
  0.2351030623399364  0.9724925788582038  0.5469192604500257
  0.2647018689833763  0.8415725986018564  0.4078500304089059
  0.7931442232372160  0.6742124900170339  0.5075027854888902
  0.8417889243583806  0.5114716744000793  0.6838626578790659
  0.9283585663653524  0.5985743080015177  0.7486260510444774
  0.8500628562773331  0.8343208765470248  0.4950458086664050
  0.8426948576251315  0.5434173096229579  0.7870232539021303
  0.8941040912467136  0.2284380185147990  0.4749036044005369
  0.7481601059707275  0.3350770558115012  0.7943320650676291
  0.7008364630794548  0.2977038385289730  0.7308014814616627
  0.6405973610574484  0.3052076239088169  0.7075805355998779
  0.8660588338112729  0.1864801851837500  0.5194062803927664
  0.5794666289451722  0.2796910426630742  0.5793625002963573
  0.8720440866163242  0.1198131336156283  0.5249034457575079
  0.6402608901518726  0.2697027032075796  0.6009710120416031
  0.5395625675771012  0.2232936881497547  0.5812932613075582
  0.5535110891761854  0.5052912896564276  0.4806915569647340
  0.9226122965949093  0.6096206835524632  0.9505413347073419
  0.6608684826164164  0.4535831829669588  0.4753146650761816
  0.2705104649044847  0.8922732970238728  0.4571684267653994
  0.8637046155035702  0.6901344512593076  0.5797187618402138
  0.9078580570700342  0.6252159014628877  0.6262003864375422
  0.3060565100122967  0.6586391913749770  0.3550593646248419
  0.0261526188496469  0.1694936175277998  0.7392667143797197
  0.7125653733387889  0.0046363813250573  0.8979227825304029
  0.4078222193565367  0.5964428630961905  0.4067705951736500
  0.4548053161897797  0.5351539569147489  0.3271634517314412
  0.6739824365611951  0.1109279345509381  0.9188461587536249
  0.6958581677021051  0.0579772144559542  0.8837448542395593
  0.6213766891679063  0.0790132682003095  0.7930280717118378
  0.5486325574608401  0.4281621712770473  0.3362919756524819
  0.5706519696296382  0.0420231634418565  0.7268018572568585
  0.7910206819278418  0.2501320724901642  0.9279662030796884
  0.9666775478820697  0.2107118422377279  0.8239259851402022
  0.0441570209540952  0.7355965950010352  0.0758441718378985
  0.7473949910686146  0.2138855288043044  0.8715368310780267
  0.7466669301632204  0.1832164029104726  0.7611048389018042
  0.7202022229450101  0.1214786119782799  0.8181669609527997
  0.6489164801936783  0.1423789235722084  0.7326711357356926
  0.6985686254216654  0.1469718563046541  0.6905686114266263
  0.6779349434652091  0.1508490686048232  0.2523996267697108
  0.6017340165166352  0.0551743609238154  0.5647695823884410
  0.4755510155663785  0.0150671705758661  0.6005370638392123
  0.4371918667343881 -0.0375496489132966  0.5436210500656292
  0.7247635063403337  0.1095495789607081  0.3455508650982597
  0.8194429350118579  0.0491103803009241  0.4028043695186163
  0.3597961194050571  0.6720834010796505  0.4259899816820904
  0.4382322242228223  0.3500776856160868  0.1553502268085185
  0.8779285128270584  0.1243295292830847  0.7561239253870368
  0.8676441507426215  0.1360396663237907  0.6949547770351334
  0.8287394963153212  0.0868144116656442  0.6922638428136293
  0.2413871296849845  0.5392100596583661  0.9734262676927780
  0.7482627885463665 -0.0157798741478721  0.5900157323805636
  0.1340838941627426  0.4080423243273534  0.0244559455715487
  0.2458470746512159  0.3615868203086701  0.0122145905007952
  0.9439956253957882  0.2364149374301469  0.7035624981627351
  0.6705354430242405  0.1623685367725259  0.4915762850193001
  0.7238497578310797  0.1423303600855646  0.4521286734907614
  0.9071940158768154  0.1539927026953793  0.5868876466003573
  0.8690281560314755  0.0568435094169554  0.5425088721853698
  0.1900591306221352  0.4869729904729748  0.0809781414686861
  0.1407188473869829  0.5653618924220302  0.0992258929145115
  0.4878797422881239  0.2869444916240802  0.0807744250611318
  0.9531954080356223  0.4775824318665121  0.5592111031069342
  0.9050395880279115  0.2183308046256603  0.8052105450637138
  0.4694674088290337  0.1352333135972975  0.0119519932637361
  0.8458324889422562  0.1940290893147418  0.6783822391514529
  0.5706883588977074  0.1180993632263775  0.1074046230660052
  0.7997061203638200  0.0248661018236809  0.7519606890096242
  0.9554404426889377  0.7102085487851411  0.4988410875506967
  0.6800694596680537  0.1853615810676272  0.3588392150717209
  0.7675299958662565  0.0322549361315548  0.3319704049800486
  0.6725364558844734  0.1601262561055149  0.5585170194311374
  0.9969241628300798  0.3935564216673612  0.6962000797561465
  0.0067960807856929  0.3807810069908291  0.7558806940634271
  0.9088115329850980  0.3372662495625999  0.7323214838669063
  0.5611468183288453  0.0116469667709767  0.0757634756184334
  0.8824264340274788  0.2434410055317571  0.6834104800670159
  0.8605102152774113  0.3015796833954150  0.6688238525511729
  0.8506045602003727  0.3146558748048034  0.6077235212145392
 -0.0025477120442847  0.7949170315438854  0.1560403771521798
  0.7839636854992390  0.1604403670266638  0.5238800081769733
  0.7467393141009085  0.2325994772586360  0.5389000663853659
  0.9845217602006432  0.4377560109088176  0.7409941297451729
  0.9905099278078480  0.6895650041257447  0.1256086587195253
  0.9485834694244398  0.3557031020679004  0.6318193002213144
  0.1483132238648030  0.6743219519957794  0.1245590453792349
  0.0110051967495626  0.3107311258296086  0.5546628252271403
  0.8439688804356935  0.3276439061088048  0.5456743980821896
  0.8426227824688359  0.2496845358353744  0.5050075042648727
  0.5698053771422588  0.1027395805938875  0.1695555642452053
  0.5136648056826481  0.8489499172338556  0.9335897478113714
  0.5983008538650321 -0.0016641444790294  0.3601414914800158
  0.4434000724405637  0.9126662242959043  0.0142083965070905
  0.9571317234292511  0.3747618315140461  0.7976527565046371
  0.4987087945885357  0.9385372705335837  0.0214963335077468
  0.7859906064246629  0.7170503025593336  0.3861526712799494
  0.0924253830349832  0.6722605683321641  0.6028930869820655
  0.7408688721298140  0.7790974310302270  0.4676903146859736
  0.7884621373893106  0.8257230003114295  0.1876902451043128
  0.3379998308074132  1.0057613378197403  0.9997087908216232
  0.8038667731859134  0.9308206686294000  0.4472397404324485
  0.3334345718947103  0.8903339883562104  0.0399760439638207
  0.3584938401305343  0.9630152326840098  0.9210044762091963
  0.3684303446696823  0.9181410357364315  0.8749089541957077
  0.9746238752136995  0.4072520098914150  0.0856019658649139
  0.3084807788763559  0.9261296931953995  0.8537864314997451
  0.1337288616212979  0.4492628032527105  0.6216593643732479
  0.6212686639216620  0.6625836871414593  0.0069524477801995
  0.4802656298246425  0.7950815894584451  0.9355030474575993
  0.5191323919916097  0.7555951464007095  0.0593858926870820
  0.4707569569029710  0.8353305961467545  0.0779851627308582
  0.2311590288231705  0.5272471901968002  0.7522599123107291
  0.2875552298488244  0.9493230343771165  0.7278929723547085
  0.2951287797281944  0.6222194101245813  0.7935739659329920
  0.4410028752296129  0.8905058005809240  0.0711856330276590
  0.2802605640007828  0.5656661751645221  0.8173022114316434
  0.4468122223070076  0.9546572745380980  0.0551501752442718
  0.0756405648272776  0.6938797545311051  0.5424608629514884
  0.7959006391872269  0.7373874855976891  0.5006022996226609
  1.0057995351182334  0.4135851264329579  0.8632273926245307
  0.4390804193460124  0.8497487102478801  0.0183927447883552
  0.8168032764463492  0.0951799499904666  0.9125080349391468
  0.3757166614733929  0.2735197006348373  0.1084517712511184
  0.8751988227610757  0.4397934458798005  0.7611391201171855
  0.8762798636047775  0.5453156155405604  0.5229840615904212
  0.2425653707556180  0.4687483935366692  0.0484949198073813
  0.8715578428944599 -0.0442254653999591  0.9790193282177235
  0.8793518515219584  0.0154499113674048  0.9568267211526100
  0.9894543064636470  0.1435190459729787  0.9621075398927762
  0.9007966274395480  0.0968846407427533  0.8814364769892806
  0.9936243501676855  0.1383811918345925  0.9002741921329027
  0.3693670050164013  0.2331739513675407  0.0635254708527009
  0.9490613249031500  0.1017865166506743  0.8397179018537777
  0.9084323952231043  0.0543441458642124  0.8392739216627578
  0.4146286543577626  0.1550613478965448  0.0438383160307999
  0.4106386643047359  0.1085529709827294 -0.0009233555382648
  0.4708912342974865  0.0593159667459273  0.9153783645031246
  0.0054934156011029  0.8742791321526352  0.0777628638276697
  0.7707870745595006  0.2149941683774861  0.6001994665799124
  0.4729938593690286  0.1947047545165214  0.2222007525664375
  0.9350332135175142  0.4322860760039575  0.7812393786602131
  0.5102441922969675  0.0428743290155715  0.0496945697473406
  0.5149103827952789  0.0873292570780344  0.0972497003347341
  0.9810516762173347  0.3183131767745465  0.8143309858455181
  0.3285107485686377  0.8698364747773928  0.8722159069942982
  0.1483703326393387  0.5241665603362189  0.5059865581401098
  0.5070343167105071  0.9801843351086016  0.7952743693218366
  0.7461088959514224  0.8855687084100045  0.5013080718455666
  0.1864866131760475  0.6111035151100177  0.6093350274143512
  0.3089559278504711  0.5953906333575510  0.6552117787905591
  0.9816878525780411  0.4838611573800331  0.4627656175562959
  0.2597440826023161  0.5899625776271371  0.6937499217712301
  0.7813719729240612  0.7195280780364151  0.1572928292093352
  0.0649750045762347  0.6396088424940505  0.7668531655560729
  0.9307398089431155  0.5772690345072387  0.4220939061540633
  0.3334358255885531  0.6719219927953295  0.7970412373405683
  0.2852323821560145  0.6662854274405521  0.8374176898317789
  0.8317337433859397  0.6399092122570318  0.3664490379318012
  0.2195671448984478  0.8067769543169317  0.6780048252435503
  0.8802037948410870  0.6452950520485328  0.0418813489156970
  0.3755416442634675  0.7563433338704046  0.9049766594191080
  0.9321077785253077  0.5969883311321140  0.1292906335693172
  0.0814912738065720  0.7163116644666806  0.6475520116072397
  0.0705058249760374  0.7327650811453341  0.5884079460967196
  0.7937486079598681  0.8063416794473428  0.4815283035501617
  0.3546184560903205  0.6153597902017466  0.8160384946510468
  0.7343101305527377  0.7664332496602383  0.2992092177693826
  0.9439202303276447  0.1645480819047217  0.1660542138768920
  0.0225560179722022  0.7240209211944266  0.6278035099695715
  0.0706980605079050  0.5249757047439564  0.8096486601819207
  0.0395445302613167  0.4562075780417773  0.4883221699795802
  0.8964572298902364  0.8110933117041762  0.2860275196398802
  0.2434616480971064  0.0453968569348143  0.7858518499868801
  0.7475399686016031  0.9096438869497694  0.6059838697761405
  0.4163880508908381  0.7872805830639625  0.1300001765418661
  0.1082365409749328  0.8746240427827823  0.9097146138918991
  0.3660844728907692  0.8193011052027722  0.1062016822204583
  0.9475844687939599  0.8290194996339086  0.1309759413749869
  0.8437323824193432  0.2257249358012843  0.1107101650779752
  0.3179464423813865  0.4823069833857261  0.9594650822388888
  0.9881361909558622  0.6434715675468480  0.0785691806283361
  0.8840469870536021  0.6906365308652627  0.0871198709733399
  0.0245682262667441  0.9225348413925542  0.0468061200648575
  0.0492632167560710  0.8489137726707069  0.7810840317877571
  0.2956003548450847  1.0003285240925857  0.1684871211309004
  0.8930107490716755  0.7988822458195600  0.1194944350192407
  0.8618074133617588  0.8739431902920067  0.0524266130911951
  0.9420225991423212  0.7829005084691902  0.0847011649182214
  0.3525554841981070  0.5133731375181894  0.7968283730720414
  0.4124080192467357  0.5071756942021539  0.8176010682223499
  0.2297912397988533  0.9561076890800705  0.9886938304823193
  0.3243327829729229  0.4508532727951801  0.8536487830535464
  0.8846765229358167  0.1030189450624014  0.0491058966488812
  0.7808717551696933  0.1334015716380173  0.1194061932705907
  0.3006101482197390  0.0704414309607249  0.9145279645986336
  0.1977743987489468  0.9281040686392054  0.8720004427502250
  0.8889055697515822  0.1485447618820613  0.0956259712661493
  0.8857987105461765  0.7523391201536640  0.0721840304438365
  0.8511009673980189  0.9035001933668584  0.2438050295104064
  0.1879974650319391  0.7281299586289305  1.0152128449993827
  0.0627489135017235  0.7083575403812019  0.9743059149367431
  0.1048098998058613  0.3660805606017478  0.5121263277796230
  0.4014314304602966  0.5183192258615719  0.7581934883396478
  0.5185096949733609  0.7392931135529295  0.1186662612822602
  0.8186176649888375  0.9678775552370386  0.0145512541290634
  0.7766190889854896  0.1191313356393838  0.9420598189069632
  0.0333729511219429  0.0316615546992237  0.0686174046853949
  0.1696554789834275  0.3467537643271857  0.5939385418472302
  0.3481586978445134  0.6147265833310221  0.5521582060368261
  0.3363486627015490  0.9512223689877557  0.0223892436758238
  0.8637662540002216  0.9209548597233447  0.1033935094349362
  0.2878668314089391  0.3669894681264075  0.7428257669538385
  0.2489286278789181  0.9666061228241448  0.9362634536344021
  0.3337609105792160  0.8759109037840224  0.1009373777686678
  0.8388029631803340  0.7676811160605168  0.1060079206763959
  0.2654378778275012  0.9114313060994343  0.9543921734644476
  0.0445365667843132  0.1218683654267918  0.1598320249377866
  0.3927497469392303  0.4978460097106482  0.5925696382122990
  0.0865945423666939  0.1283824103720203  0.6546887766036996
  0.3596747324428412  0.0607076384196325  0.9363393139779824
  0.8828553023064384  0.0886434561543252  0.1116310305186371
  0.1385923038800293  0.3523970371313470  0.8614828733374883
  0.4376182394156079  0.5883996140124447  0.9639905123788144
  0.8234237645392248  0.5011868795750789  0.0103668689370388
  0.8713751643423122  0.4548436663933367  0.0933659578766707
  0.1512581265864621  0.3072634176168808  0.8165855822074141
  0.8278583614922570  0.6752972855681704  0.0114321607025679
  0.9589470791196467  0.3038874305541701  0.0673773109775764
  0.3727429897473735  0.9721751478852322  0.5805089721125619
  0.9673364411371368  0.1502113524812350  0.6098009921443673
  0.9083252723683671  0.3189194596129871  0.0982335109685706
  0.9008426880748085  0.2730623744471079  0.0640245836780859
  0.6285282908286211  0.8160753476128418  0.0793262884919572
  0.6779710995807895  0.8000304586250908  0.0456992149880903
  0.9391610436616158  0.1510178602091915  0.9960054721013778
  0.0499669588570102  0.2969843304315936  0.8924825977944473
  0.7077823703895556  0.7865071182706286  0.9470294537827506
  0.4075185442971610  0.0580505396314414  0.1834061958757203
  0.1394169816519812  0.5049233069549678  0.8918277290711273
  0.1629870188107207  0.4458040509778759  0.9115214908906503
  0.1051080248828004  0.4546450277224869  0.8900384073644438
  0.8222779991839032  0.5322216597404169  0.1113605293959164
  0.1420823611748758  0.0361622366405428  0.8655031588543250
  0.4250536573821947  0.5965291439058514  0.9013347623439733
 -0.0130023937254879  0.0255142902700596  0.9285951146212637
  0.2081913919821249  0.3306330834703339  0.9547477315893920
  0.2736559980970620  0.4454141963508212  0.8918069834303359
  0.1855080995155338  0.3885997948293904  0.9301201264245940
  0.0205612216272286  0.9633479923487930  0.1589588482812757
  0.0578814237519192  0.3204440860078878  0.5032908840428421
  0.5763800982999039  0.6125352904121627  0.7770770298022305
  0.7898182100937605  0.8416900440093757  0.1265118176075596
  0.5045767640847177  0.6637160904210505  0.8002434708793276
  0.8934908294948026  0.8167012729566365  0.0599079637752698
  0.0824534251125463  0.7796226984199965  0.8595069546812913
  0.0350073597640320  0.9096196634081636  0.6747244951251437
  0.4053338169288350  0.6206761744963092  0.7750651369692594
  0.1189853203086500  0.3077117084078070  0.5254535810833955
  0.2398030587879601  0.3284802739237410  0.6764228045932904