Cr N  Ni
 1.0000000000000000
    39.0510843612861720    0.0000000000000000    0.0000000000000000
     0.0000000000000000   39.0510843612861720    0.0000000000000000
     0.0000000000000000    0.0000000000000000   39.0510843612861720
 Cr  N   Ni 
 1596 213 3725
Direct
 -0.0600418993976431  0.8544277899875674  0.9687725212039516
  0.0560438717732594  0.6434611748724188  0.6774519285838829
  0.6903889044659228  0.8373994024645616  0.0796477135923580
  0.6394900968675938  0.8509584242173801  0.1115179520125224
  0.6428045989650842  0.8985569202150875  0.1558561209147027
  0.0741703297736706  0.2845578350804091  0.6343621308154562
  0.9343863074883093  0.2014329146067679  0.0402118444978396
  0.4497825444342646  0.0332415769445450  0.9788961178220328
  0.6469094396573336  0.9448400990832994  0.2001312758632453
  0.5108306482652722  0.6655351236563281  0.9520356274686593
  0.3166152592745742  0.6704325856813900  0.5347631020258747
  0.3361069475967161  0.9583311322370051  0.0246894165104190
  0.3647509952379324  0.5809579752670364  0.9274091496644893
  0.3489234709807167  0.6371278595263323  0.9019772611747102
  0.1071758929300217  0.7753503170952912  0.4740147025834850
  0.2780590313110848  0.9714574071050905  0.8246453689971062
  0.5448711197729830  0.9091796920716945  0.0475716712407140
  0.3375446063405693  0.9379074337387101  0.7422929269312567
  0.0610973713150225  0.3275696031648010  0.6842023557063402
  0.4982080026032769  0.0001736977559959  1.0024777498672057
  0.5820879169649610  0.8072785170785279  0.1648599492772168
  0.2544946015943081  0.7002515031814538  0.6289020318781885
  0.1061460005988260  0.3474354654878522  0.5688606858374612
  0.6744462889335471  0.1861608882297903  0.3539202060845513
  0.4454696979050898  0.8133654670719588  0.8002964981350834
  0.5413644922396356  0.8572941213906601  0.8265875070374570
  0.2576411208355358  0.7432513225377455  0.9067176644610903
  0.5146093716414178  0.7653257097069804  0.7766087884068911
  0.3181279494463897  0.7437314786275629  0.9290106059869317
  0.4354274598201031  0.8274209345673337  0.7370300558934082
  0.4726386889430050  0.8774072439079199  0.7418949088858118
  0.7887226413886439  0.8100570290299229  0.2384848617577172
  0.3474217699815089  0.7621120516605596  0.9870029654460936
  0.3796886280654505  0.8069529189751818  0.6094085805890452
  0.3243992029885153  0.8527967387154046  0.9341260060815282
  0.0318784272976559  0.5556537265998414  0.6465596828552832
  0.3811435977351825  0.6628177895231135  0.5640719738882104
  0.3665325540958010  0.7009935854667643  0.6149499188039129
  0.1168652946947242  0.6361791087108222  0.6993031634573637
  0.9891316096238131  0.5336267002302213  0.7420095607920604
  0.0873282402420612  0.5711138585243289  0.7570946067926446
  0.2362404355128438  0.7703706310204155  0.7815461050378081
  0.1401365618987782  0.7282506740529622  0.7509285852231928
  0.8207560048626297  0.6317289909363466  0.4288333837812227
  0.5932909750134535  0.8880204097660360  0.9568804057536199
  0.4784210552931972  0.9345779489687905  0.9638525683486701
  0.9811324711083781  0.2876862687211908  0.8802059395200653
  0.9676602467064324  0.3600190294570538  0.0401465493177290
  0.0600446561098541  0.8706660853934749  0.1957142013239166
  0.5757558078127590  0.7330200943945224  0.4708748582315563
  0.8059512704808428  0.7670425490215265  0.9347378340200940
  0.7279356475121561  0.8207813978859940  0.9626092129589585
  0.4247275864950553  0.8086607884272504  0.4561293433954477
  0.4336438721061225  0.9343323539368950  0.4213386886931516
  0.9332143627405463  0.1264020555902559  0.3513219161783103
  0.9861714446042182  0.1356300465482898  0.4286486760203934
  0.6037692695641632  0.5179036889995201  0.6673579492568810
  0.8681419525258505  0.0837013225396974  0.4111016076500086
  0.6501014758796250  0.5528003290453409  0.7345956385162870
  0.8888168151287636  0.2494366180097102  0.4132508267714530
  0.7106383762649947  0.5452237600858445  0.7560211868403944
  0.6370946280198035  0.5969230905326930  0.7837342260027533
  0.7367804727282083  0.6367238617895722  0.8122162175822506
  0.8365370109858618  0.3138030345806144  0.4886759083913825
  0.8930331885216671  0.3582457752367805  0.4372883411699183
  0.7323521129022044  0.3605592535990065  0.4993380825167742
  0.7827500642925170  0.6731792183937270  0.8805777803555941
  0.8069479333668663  0.4478812613078940  0.4830810367724450
  0.5892751115449019  0.5477258260803762  0.5430867072115935
  0.7503791408638339  0.7466139594254286  0.8040623809025329
  0.5687199949305807  0.6101777243176989  0.5181347070718730
  0.5309326613224301  0.8399416477555678  0.3683915100533478
  0.3218223723031344  0.8264748275891249  0.3610754253062436
  0.4318185678185092  0.9008917554261964  0.3134154131127648
  0.7379674488041162  0.3230697642331734  0.3897431430839340
  0.6256727580676943  0.3541722560022320  0.9137955231923124
  0.5969765479436134  0.2939852963446908  0.9640699890545574
  0.2689341688092862  0.8585285880788771  0.3320312600691236
  0.2849856617362985  0.9399334195159876  0.4878478941333665
  0.8596243165793561 -0.0072923797015505  0.3196963744061684
  0.4393396288721447  0.0773019803358510  0.7910522812630201
  0.3907929637833319  0.0414500394562961  0.7224394624511485
  0.4558037192289266  0.1845721784010163  0.7757167684243448
  0.4668188437006126  0.1712610574803363  0.8399397010652762
  0.5146860914091222  0.1262929094797824  0.9718060255991211
  0.7731524456757106  0.1103677061307062  0.2422526727938231
  0.6245348200108912  0.2015808672239514  0.8827607948389353
  0.5227395511228933  0.1910235521297917  0.9588043670996199
  0.7823957521227455  0.2155864528887439  0.2691920461383698
  0.8348531202933770  0.2323882795240859  0.3414295063481796
  0.4131832429100011  0.0143221328311913  0.8484042479675479
  0.3893873516383133  0.0731840665645221  0.8293734728176038
  0.3221417873800029  0.1836459430290238  0.5732737263270562
  0.7290327573115244  0.1996875143426240  0.1961999692233246
  0.7341213365751893  0.2769781341673182  0.3460910799942810
  0.4485898915401383  0.1702865928192676  0.6083745275431741
  0.4252208544768811  0.2269914921912298  0.5945503812808433
  0.5811606075880664  0.8095819259603698  0.3950220168798943
  0.1956717529341619  0.1358607677718793  0.8071257346183233
  0.9938696002534003  0.7180060537564799  0.2176337463505598
  0.0761458487126752  1.0161313534693264  0.6302445604707143
  0.9332933361755607  0.6095422052485248  0.0674369789176982
  0.0586099770270924  0.0422466351600053  0.7773576240861360
  0.8551562445383164  0.9608711196887126  0.4489617003385339
  0.9581202685709495  0.9800139653355293  0.4175540417113834
  0.9518101775298953  0.8561218650344169  0.4584222064304261
  0.1855911189075757  0.0415436645934997  0.4738902502930269
  0.1338364186409194  0.1703097231414511  0.8904814277786840
  0.7665514461315917  0.4553956083645182  0.0576822442561334
  0.8618805274361576  0.4267414719598189  0.2174555459893349
  0.1342206790939688  0.8680601292293402  0.6205669854724846
  0.0025163149705740  0.2766072039813787  0.3238307301539263
  0.0975898877462103  0.0897309716351426  0.7824338422507867
  0.0238548159899013  0.8663832695728964  0.5483212452035950
  0.8460188041649656  0.3066561889037223  0.2594535357875010
  0.8078549603370497  0.3639937267704620  0.1062999149232907
  0.0249776426793169  0.1112309660497242  0.6952401270960769
  0.7452672131731408  0.7608380702761786 -0.0203333873001035
  0.1263309067998014  0.9908952645373986  0.5323876043328842
  0.0013858648536959  0.2607032897754862  0.1571075713572357
  0.5339104604715430  0.0018101200740186  0.9019330071868378
  0.8910064247083056  0.2304608163762852  0.2445400920010583
  0.1475384635024824  0.8279346973886360  0.5794336555706182
  0.7024898158244722  0.7100188023508052  0.7366967189437740
  0.0760703093719995  0.1489176162907610  0.7636421417287580
  0.6573021812201010  0.5024033479479630  0.2931109635842952
  0.1074179213600279  0.0763367644582039  0.8463743278416176
  0.0689814573982570  0.0251672586601477  0.8398794509308294
  0.0305270868627539  0.0836293381957296  0.5881400418092735
  0.0547305950477480  0.8116996231103064  0.5740596811555678
  0.9543575299211065  0.7814499632282745  0.6513606008512116
 -0.0024792515127606  0.8197936563493066  0.5970220350207696
  0.3440128156314181  0.3602478922612509  1.0028490382530262
  0.2588648085904646  0.3115339548242322  0.9652820776091391
  0.0987749494557044  0.8160776844589571  0.6163879862815254
  0.2602607857655007  0.2795637928979109  0.8616290502746879
  0.2439996853661799  0.1716222388671480  0.8722042936158070
  0.8366331284989814  0.7315402490629076 -0.0059426784056031
  0.4361074826189734  0.9159977385844131  0.2507122814237966
  0.1043686885702094  0.2128988236421000  0.7081234624109164
  0.2121480631283110  0.2427024431701962  0.7963477298253335
  0.3833788030869243  0.9452247662296294  0.2215303708808808
  0.0649394533602888  0.1921344501834688  0.8082598509804346
  0.4805981078574992  0.8391666535150432  0.2340611193663636
  0.2629622096215253  0.2185750835625576  0.6529202151548447
  0.8377472231567230  0.7137474157162741  0.0559122583534469
  0.5710320477032546  0.9498702266485308  0.8800764688285271
  0.7959824796916658  0.6283175463297395  0.8355080685255721
  0.8372719986254865  0.7664517264774564  0.3258736880435860
  0.0961842521174509  0.6877214193424261  0.5001004606534833
  0.4387153748505053  0.9417033007437972  0.1217127473109296
  0.2675797778581491  0.5506247929373047  0.8204759419732927
  0.3681525541852909  0.8238397426839885  1.0173771067083595
  0.3450415269154495  0.6210084033920295  0.7299732648659489
  0.2817893587685569  0.9430655071124382  0.7177413876288781
  0.2335490647458023  0.4700901693304414  0.7103856573249232
  0.3699578269313659  0.8057726370233397  0.0870008399702293
  0.5743188055083167  0.7233450108563967  0.0197934226191107
  0.4663336765244215  0.6559614667353832  0.0568261660038756
  0.6242251156187678  0.6518986403071879  0.0019601770561027
  0.1279381037362924  0.4389477013843797  0.6274839505592418
  0.3083828085785157  0.8740140825356694  0.8007860699478467
  0.9211161584210539  0.4384788040046361  0.0620994872816802
  0.3387468714944946  0.9644806059892719  0.8531417630014559
  0.3011861364637778  0.0049859013399618  0.9321511999027624
  0.3167543474396776  0.8551058958358286 -0.0030872991486673
  0.7965659067147710  0.9216914648887657  0.4978779722111664
  0.3984551291681477  1.0074908934927511  0.9632817978172112
  0.7407904898700585  0.8397067929687720  0.2119254098545484
  0.7588388328340518  0.8195363920300439  0.5150333888031092
  0.7810224112852003  0.7188718230429221  0.3770431037973645
  0.5395006809773781  0.8979071253367353  0.1172763249468242
  0.2567349885007066  0.1284857552593057  0.8278167212860260
  0.3399563376637872  0.6481523155725618  0.8377554547666780
  0.8287636424399553  0.8115374214171226  0.5426023967169711
  0.0664389203376026  0.7406505086052764  0.5430462606458072
  0.0999835842833083  0.6667293316937557  0.5789256737337358
  0.8211313766966135  0.5337451705395495  0.1119074568019958
  0.3962750023076814  0.6428125229548788  0.8631637900752286
  0.8875037617703867  0.6830850862158450  0.0823920208609457
  0.1578255102245054  0.6584538306698490  0.5984978235727897
  0.8537656385592837  0.6522229341432163  0.4839418560459807
  0.3024972885012480  0.5988538910704602  0.8318260944681611
  0.3314395930941842  0.6628939159084228  0.7749624685196763
  0.9577903726811811  0.6092883861927567  0.5026274313116647
  0.9929473016048179  0.6847468555324349  0.7880981081214520
  0.7834495765726432  0.7157465312296798  0.1509049071148618
  0.2870507056915993  0.6293354311532017  0.7094256564664919
  0.9143114720314979  0.5270275662696227  0.4378992358098143
  0.2705380005715166  0.5193110579605167  0.7168555851395034
  0.1684913631088735  0.6146596332802859  0.5531012775916443
  0.6938391992609153  0.9111885162099396  0.4783332833158668
  0.2129334347430099  0.4358036471148488  0.4641328330370666
  0.3599338671264017  0.9060624848926034  0.8697698219574181
  0.4885563326857957  0.8724926962142949  1.0369330054337680
  0.8407339278509044  0.7279937000477391  0.4482982878072582
  0.5360856660713845  0.8735375939741057  0.5257937954681714
  0.5837311898943240  0.8546521206460332  0.4442328293386499
  0.9859259230215310  0.1549364725519490  0.3582779034672615
  0.3087356555206029  0.3183203299398089  0.9262386491093262
  0.2065690537671896  0.7670614754678763  0.3345729563807068
  0.6530708956015818  0.1017499650461191  0.5133584265983820
  0.6536940603825252  0.1208509613727455  0.4463887661542273
  0.6270122635806149  0.2943114550272315  0.4772787889149209
  0.9281160251224004  0.6845268652622973  0.6002606990731779
  0.2272265670527386  0.9663530277352047  0.4577795907412925
  0.2181796136384798  0.8474074160148454  0.4453102043576955
  0.7999028794657858  0.6895283375708443  0.4986162537335493
  0.8321722278329797  0.5024573847599040  0.6937167542062671
  0.8796467259311849  0.5367400667527085  0.7615906460124435
  0.9010952418055808  0.8137533503122539  0.5108545149694479
  0.8194770979979547  0.5439213932493387  0.7388075927015989
  0.8372865891621810  0.2008953127551479  0.4645606381499424
  0.6305697214789434  0.2969492882256677  0.7027927319217434
  0.8232071561212948  0.2242489789140987  0.7228649457673877
  0.6084450624175977  0.3534805480608406  0.6875094053411305
  0.9306746502715155  0.1116141146715646  0.4180164822959942
  0.5708974046735980  0.3045336300114355  0.6815614886219276
  0.8630272147357851  0.0716231768572998  0.4771155871574321
  0.6366099439268037  0.2683178598375918  0.5983552223659200
  0.5375964391274808  0.2231164091650619  0.5735906361398353
  0.6160933908659192  0.1614874995523770  0.6079318692109204
  0.5230718135493868  0.5525156061836309  0.5191845731222989
  0.9489470572033862  0.5417901042888935  0.9410786762999565
  0.7078144766611005  0.3949730369039470  0.7156305041733455
  0.6473638090654624  0.4573505463911137  0.4772014182193747
  0.9951046473449381  0.4293294534142488  0.9759727811145962
  0.8537298855956794  0.5015130142501315  0.9138488642328834
  0.7338558857003616  0.3104021815861128  0.4535590132942742
  0.1174046222842193  0.4119672906768932  0.0181338160408079
  0.9082773919407459  0.3395243372636067  0.9062280081663168
  0.8468546856327431  0.3479169127920329  0.8830138852499364
  0.9098152562932129  0.3088249284067604  0.7972239586438904
  0.8343902588181782  0.2449219064985624  0.8890457860724834
  0.8971659534655329  0.3521530394605177  0.8462076867043571
  0.3888256888509850  0.4587957314205167  0.2754706746294341
  0.7408447732337927  0.2923318550945643  0.6857429232019564
  0.6508860190956985  0.1668194234983133  0.5025541284541707
  0.4893908783563146  0.4125025655689266  0.2678145529136968
  0.9839575278584879  0.4380519210408223  0.9157512293994613
  0.9716023571895326  0.4541260092299850  0.8551885489602635
  0.7346649614911046  0.1702881602403890  0.7555834422285707
  0.7290285123492234  0.2177597731234513  0.3639488178667097
  0.7831080493601441  0.2334570800651369  0.4352561216448873
  0.7762509574337478  0.3704834266704278  0.7986156123593388
  0.7688654690834398  0.1270792872721119  0.4122561508563169
  0.6581029288926779  0.3587498291326572  0.6502194180736944
  0.3546041964317990  0.6786230461986101  0.4189445439334948
  0.7099057521937520  0.3694641880093792  0.5940199339130298
  0.7322727892297851  0.3070751699527051  0.6249665019102810
  0.8807783925701339  0.2619805011284516  0.9568533905084072
  0.6585205518082734  0.0164593677220217  0.1151753548292192
  0.7043833225158262  0.8808316562026743  0.9415728608934063
  0.3975501901591720  0.5333345232983665  0.4812699201745957
  0.4996714454809994  0.5986737346179114  0.4391938872314213
  0.6507482316559692  0.0495060104866664  0.9183194690857377
  0.6840571846694667  0.0528626433052382  0.8760323770297096
  0.6442231960970277 -0.0006928139490643  0.8746720904845351
  0.5967684583408432  0.4573941115648817  0.3460190209170533
  0.7207129714602745  0.0216581109612752  0.7274280234933218
  0.7269730889036564  0.1570880172079862  0.9179336280059467
  0.4712205094682216  0.0182067392455634  0.5802430113448481
  0.5757764464254178  0.2452503709142023  0.3000357727249393
  0.7629115531244409  0.1463018999150826  0.8771203939061365
  0.6974608416537258  0.1547163680664892  0.8562820969316310
  0.7656099490514291  0.0665560989773987  0.7241732366857468
  0.6971566165399395  0.1231511240175559  0.7513307050282791
  0.6070758788044262  0.0364338195092895  0.6842033900799173
  0.6821627401467303  0.2599929359279451  0.2750473086481659
  0.5465060148828520  0.0429262108081864  0.6642700351348693
  0.4849091096047787  0.0527114443674867  0.6372213123200332
  0.6535283468020792  0.9819142848939405  1.0071885349521512
  0.2734464454806484  0.8831684742459517  0.4419773724302680
  0.2460014428029465  0.6769263685894259  0.3889003213237069
  0.6117849447553733  0.1349410990780845  0.5534090214925060
  0.9346473257926237  0.6203062100951503 -0.0019567890269387
  0.5338926362924883  0.3353321993899857  0.2541159211299752
  0.9136029017439683  0.0062174572276428  0.3927467598526870
  0.9254546410761858  0.4455763258294723  0.8932122813300608
  0.9341954577854261  0.5542817003345203  0.8893482704525328
  0.4773381646493969  0.3053832677201490  0.2457040281249998
  0.3287620197730597  0.8394106995262814  0.5276047480513226
  0.2205851166919786  0.8730477772396027  0.3673995439531214
  0.8901645147914495  0.5207728467444268  0.8187934626965486
  0.3490877946670592  0.5953814732976015  0.2718842975375882
  0.3213407017296100  0.8092702066494859  0.4194601838358295
  0.4022918038175914  0.6123852528421434  0.3408766888243985
  0.2952122201365940  0.7001396483449029  0.4763930133756701
  0.2919164817946800  0.5519003744892010  0.3241315765676730
  0.8748683568858047  0.4106112462586722  0.8279229833112381
  0.8109809114045072  0.2691403763727526  0.7678492706848474
  0.6259969616324862  0.1443482737098064  0.6699797698726110
  0.6964553762240804  0.2587707689970762  0.6220087193603406
  0.3219206919988982  0.8418288099823688  0.2947516907958395
  0.5563263320738613  0.1952151332709651  0.6927546712533003
  0.6754484222099161  0.1149261945763509  0.5758779833131106
  0.1635407889455409  0.8408710427336361  0.3575350543575258
  0.4618033155330649  0.2745511505187138  0.5957830802158435
  0.7363992580660861  0.2588203192116454  0.1792355035317192
  0.1987182988345330  0.1084155442544310  0.6960788538070718
  0.1869683342976590  0.4830426127641875  0.0782484668739795
  0.0877147632726275  0.0787295893044260  0.6049548372706948
  0.4706708780633649  0.2299518222630603  0.0983393216560257
  0.6796310308686999  0.9180510892269483  0.7559826389786496
  0.8850096561929466  0.2142439004541076  0.7444558241547504
  0.5622468057734397  0.5530669579471801  1.0060693266169201
  0.8358687887516260  0.1830362670307482  0.6760371032249093
  0.4346455829447577  0.8248009795477054  0.5123824941112677
  0.9554441945716183  0.1953248814003110  0.8252349523711453
  0.4937004550730394  0.7574368316119393 -0.0145307353429401
  0.9786501564658826  0.1068323656179986  0.7312131233673109
  0.5170425013733222  0.7521933577307189  0.6097330856963387
  0.8147595360345575  0.0647522038181091  0.6798857554370206
  0.5080518756578312  0.8985959890319084  0.6370128050111342
  0.7424947999999079  0.0308527918107857  0.6182004614267204
  0.4058828301293135  0.7359604628315966  0.0120101341466451
  0.2351279250683884  0.3339501227382944  0.0719913372979215
  0.3621247838311403  0.7591686961259079  0.0484765830525648
  0.7149778382845825  0.1456825105209871  0.4483742995262275
  0.5350253047250922  0.8407112260548965  0.6594699526418678
  0.8579198221045263  0.1238166853078737  0.5227243485131167
  0.6189420847140330  0.3403465509726454  0.7480874995789523
  0.7654960808017970  0.5934481360847808  0.4160685937882186
  0.7354629992745760  0.3522353661855877  0.8979582221535886
  0.9742708584366766  0.1617234805273131  0.9500971637932205
  0.2136844329360740  0.2123983808063707  0.6906478243798199
  0.9811014184045768  0.1165582512077806  0.9054684990561065
  0.3558782984650173  0.1715616250110134  0.8563372208888077
  0.9858407045733184  0.0930840412558130  0.7946734201686384
  0.8543772073294178  0.4335257058778655  0.4433991008291784
  0.3596337758279022  0.1739536455815462  0.0791007762158184
  0.8491207361821511  0.3857146695053437  0.4063509689823196
  0.4611346085329109  0.1405003471107589  0.0034929819099501
  0.7965792275300527  0.3684867686643990  0.3348957640868991
  0.9503921869262825  0.6759157448553383  0.5012407486338351
  0.7524027510776223  0.4433844642216329  0.3477054380945318
  0.7686767376688778  0.0597506687294202  0.9578515859164413
  0.7661670174483424  0.5648729053295243  0.3101564260554514
  0.7820793378999262  0.0867514099990241  0.9006264475771738
  0.3953613192764697  0.3732789113024441  0.8906987432830917
  0.3708931860638153  0.2788772531031972  0.1087450198681942
  0.7604118589330610  0.5498811989283491  0.3717937716121800
  0.0223768614938578  0.5716092979872115  0.5889198614868605
  0.4481464876333832  0.3778387198432884  0.0220045193190167
  0.8656586740310264 -0.0420486250098763  0.9791614610615105
  0.1817063249941705  0.0296520987821076  0.5447870433101138
  0.7216611398675744  0.3956193378138173  0.9414303050185802
  0.5997978452050202  0.2620372755414069  0.8620975168242279
  0.2498063043302521  0.0619059686416318  0.5421647368114789
  0.1841559201172126  0.9567309366697103  0.5608959211881019
  0.2248739783538123  0.0488009894466991  0.7159116847695044
  0.2122092157111374  0.0946075221456268  0.7662981389182090
  0.1466818348999155  0.1000596124630315  0.7419519249106963
  0.8941968195359825  0.3109045896267320  0.3962675746035619
  0.2065986987920821  0.1212178471607818  0.8681111244790415
  0.3291138911608889  0.1090447370957611  0.9149308841695406
  0.1994282574777807  0.1506094244998109  0.9713004398792281
  0.3497427308367194  0.2026108559204598  0.9609768340645886
  0.1196489680323055  0.0348449387148501  0.7981046564071648
  0.4674642151650647  0.4253985708012357  0.6309628136409545
  0.6534054277880742  0.7036828440350291  0.7743812813649555
  0.5827382823577729  0.7262355578561123  0.6904620511540651
  0.5814366209385192  0.7932081873511727  0.4550982693789783
  0.0987753034322463  0.0637549507891934  0.6732217920101221
  0.4382625630267992  0.1027943880189972  0.8965598991939336
  0.2104026214342738  0.8068891766669245  0.1521772416926086
  0.1883902787082721  0.5196194645096968  0.0144235765843969
  0.5916030331074269 -0.0004092842075712  0.9219774599552059
  0.2615922308351147  0.8210346452159164  0.2223465011543681
  0.2577164406460061  0.7447346247324100  0.0711950324746679
  0.4413845033440442  0.5121376278383450  0.7200830329513522
  0.9904192565735072  0.2036451024597696  0.4053675317451544
  0.4110776495706480  0.1174579213192928  0.6040280430865195
  0.3790516950406256  0.0569289871348015  0.6589479365332013
  0.7373285153846324  0.7900670858764390  0.8489555903133919
  0.4460669327746636  0.1973890251889019  0.7156734642165631
  0.5060240962143638  0.5797056743309486  0.2719709802789764
  0.4607444179287600  0.6567172392175756  0.2869590513024127
  0.5157658538820413  0.1778051440759411  0.7952053117338965
  0.4733182879114969  0.3103617056237558  0.4741791503954250
  0.8428101769982160  0.9785144227720142  0.6024571141683372
  0.8179222610402180  0.9014252840901547  0.6280201385637956
  0.6329306168278584  0.5854077186705512  0.6139602608511425
  0.6799670914571543  0.6187288242584705  0.6826729895929163
  0.6167378229771207  0.6555424128225781  0.4500607394667462
  0.6481774207148958  0.6933017382670503  0.6079004088894654
  0.6662437066574001  0.6610288866303258  0.7296454115076676
  0.3118420686842938  0.7602568234736820  0.1428618191441241
  0.6942824910811289  0.7256836978439476  0.6757166543380557
  0.7797509371060580  0.8108892128105415  0.7498886941917950
  0.1726652168361579  0.9323780651418383  0.2120891055392046
  0.8333197608332383  0.2148139922710510  0.1699346681647342
  0.4309471051050757  0.8874444921730448  0.3759542898161606
  0.7613284253094751  0.6484076376563433  0.4663249619702894
  0.3943212529636387  0.4768477900541919  0.6555735064328255
  0.6627889832695738  0.9756128288129984  0.7287339723793431
  0.6692282285891102  0.9602476603535831  0.7968236859306035
  0.0609027739044444  0.5086670801112263  0.8180941819557166
  0.8964037403985702  0.2476170826011374  0.1799824840872224
  0.8898183169387414  0.8117643780580811  0.2725896677543517
  0.8656906667835998  0.9879708733979855  0.0838238529006665
  0.9385390354804114  0.1847848011739534  0.0995303565352702
  0.4164683899304742  0.7908642087624561  0.0548992832085960
  0.1393951706271007  0.9019416979721591  0.8987623859281221
  0.4210088657153980  0.7446106827097734  0.2406464547609532
  0.9485799456241530  0.8089977059775789  0.1789510494310677
  0.8296701982281492  0.1656651400676079  0.1238338357684512
  0.3228619504067513  0.4241039409131925  0.9149688351179815
  0.9910532296610022  0.6419425508296501  0.0749458428428414
  0.9415548802532422  0.7029306870487182  0.1527312636153692
  0.0734572546851920  0.8356811110475627  0.9868329806341922
  0.1547558639196238  0.8352499801281522  0.7438364179832947
  0.3371541038923468  0.9777117428457891  0.1916838585767581
  0.8446203372911825  0.8080258350834439  0.1429628848048633
  0.8517838409005918  0.8820712679665486  0.0578130543028747
  0.0021259962636648  0.8110796423010437  0.0824026505557307
  0.4010214280580251  0.4910515699108032  0.8175400940735318
  0.3775945248719350  0.5483980402239871  0.8028497649572079
  0.2528183858729823  0.9026805512104301  0.8871152619605331
  0.4492091478335262  0.5295848367309229  0.8822700719538479
  0.8791163905112128  0.1088236706896625  0.0440389075434743
  0.2756097762607677  0.6139932322473026  0.5315690303653635
  0.7782907590835391  0.1665272501978318  0.9936317338204167
  0.8539157513786616  0.9452684496536867  0.2725575098855922
  0.9425398785529348  0.7166263628973136  0.0923924333504690
  0.0803480875396730  0.1033717294674749  0.5431222269509883
  0.8521136489623109  0.9014832168159725  0.2302479605994179
  0.2132006369413345  0.7293627540391927  0.0068862151307159
  0.0974817458917372  0.7298050994249923  0.9592869758529571
  0.1726614702739914  0.2918481266380058  0.5522903657653002
  0.4184711444378654  0.5708230626725701  0.7060062227009151
  0.5218117276667269  0.7306251034232555  0.1110753507903124
  0.9179685469421189  0.9723769086208432  0.0478317923027527
  0.7795726029364602  0.1820643850437248  0.9339517467554356
  0.9786941675097490  0.0670027948974599  0.0359309534655949
  0.1583441717813275  0.3683743109197059  0.7018379505999854
  0.3582436799993574  0.5784685629129208  0.6829297686850673
  0.1896156359947340  0.0348351486144442 -0.0027658145741767
  0.8565773549745301  0.9315349842772601  0.1043305055884202
  0.3283496589192804  0.3630726652544351  0.7050946373699315
  0.2058175625027686  0.8928214865314097  0.9277465988900860
  0.3770311241814317  0.8536643939791794  0.1279163127959533
  0.7902161874899801  0.7911136835767604  0.0720354556894154
  0.3164346558788163  0.9117191582899826  0.9102366789739753
  0.0386788357667208  0.1260692291371124  0.1546344242643047
  0.3425075527388982  0.6068001704545029  0.5557553928090757
  0.9292352030081590  0.0646907360340788  0.9007712508186123
  0.1311707586139884  0.9192245197673536  0.8372908545620766
  0.4756384340464184  0.8064673484339910  0.1286168338789827
  0.1994078133304987  0.3161151730358943  0.9508919650765809
  0.8245051157962255  0.4369034501803652  0.0307390352029439
  0.8177062360237874  0.4454333455459020  0.9706770256789188
  0.8684629548428568  0.4549456306592908  0.0949147543155740
  0.1401125780278120  0.2926489662425198  0.8205130649058064
  0.7082374859364602  0.7262473245810988  0.8996319580030391
  0.0365114909722993  0.3070254281047264  0.0107893714801620
  0.4235850422015500  0.0604971842005087  0.6168775812103505
  0.9828371783551120  0.2583800776507513  0.7725325216457313
  0.9607411035949169  0.2997394717883849  0.0562228191579057
  0.8494726598445126  0.2888202804570320  0.0903896066831221
  0.5848020442965041  0.8315624376894835  0.0405939340467367
  0.6760646413966444  0.7431436619252944  0.9944932384890687
  0.9842248303893234  0.1100302912787810  0.0797787725979875
  0.0815452088771501  0.2992599549876419  0.8033725337197557
  0.6592773277056132  0.8068551025710833 -0.0091969311500129
  0.3391970099318758  0.9885762628827758  0.1305421723821572
  0.1473213006720368  0.4683909767389957  0.0156774092367595
  0.1553052711014275  0.4283884676132024  0.9127329865161753
  0.1066197295288426  0.3926139160372838  0.8487461959658771
  0.9226141234369698  0.4848597363485394  0.1066330769449210
  0.0942613693049578  0.1191964400357692  0.8880121195787688
  0.1507889909982314  0.2779733935439527  0.8821169410473904
  0.2847088063837402  0.3747909702368992  0.9120745919519629
  0.4224772107455247  0.5740068213392905  0.9473259354277975
  0.1759463653281429  0.3729500351220222  0.9306758457002393
  0.8057976954804816  0.9429228326766129  0.1396510699363754
  0.0230228666975526  0.9726139688024869  0.0805832098286133
  0.0008203791312460  0.3409676783757233  0.4914585174760029
  0.5410818687521983  0.7028953775351864  0.7927759088809527
  0.8958122813107564  0.7920237724313967  0.1092621682384093
  0.4503844204488255  0.6490722896697815  0.8245910238591796
  0.8983998975177110  0.8061333139245430  0.0461918645412563
  0.1247967350710547  0.7957516482769158  0.9027850705830338
  0.1676895574058893  0.7933617654924329  0.6987860453677793
  0.4416119001937042  0.6621178230218127  0.7615222384367047
  0.1728443676699425  0.2422299620414505  0.5100955082796654
  0.3021484992813382  0.2692635602768136  0.6572303229154408