Cr N  Ni
 1.0000000000000000
    39.0510843612861720    0.0000000000000000    0.0000000000000000
     0.0000000000000000   39.0510843612861720    0.0000000000000000
     0.0000000000000000    0.0000000000000000   39.0510843612861720
 Cr  N   Ni 
 1596 213 3725
Direct
 -0.0528252986867707  0.8604641529913198  0.9704766807801539
  0.3501546824246880  0.6366091993041588  0.9074376197157908
  0.0518587332514069  0.7848658044581659  0.5110440247550723
  0.3291998766110399  0.9797527787080091  0.7853413565750371
  0.5404386653249664  0.9099311043905055  0.0513395053160548
  0.3404496416830143  0.9390747165781222  0.7418896592902133
  0.0630136920840642  0.3265539211787917  0.6991353579763122
  0.4947827192674514  0.9875399452567619  0.0644654395321326
  0.5262785751769252  0.8395808166133275  0.1400879100933017
  0.0165121316157304  0.3369339009550929  0.8994618899845557
  0.3614032768849814  0.7296049439182402  0.7266350753091060
  0.9664561768900042  0.3627866044742827  0.0502527977093406
  0.0918916950965899  0.3888834280327420  0.6132031918495402
  0.6763818124376005  0.1834039374859163  0.3537399928633913
  0.3207401151851146  0.8273187819744854  0.3639466801342272
  0.3207155414610911  0.8750331868399335  0.4063102559077495
  0.5839705510377194  0.3051087348270124  0.9062574815347741
  0.6257249608509595  0.3379176660602337  0.9752811976775813
  0.2721935812185682  0.9027492556623210  0.3870661363997196
  0.2727066060955581  0.9544893490618901  0.4279804076682698
  0.8693327320998046  0.0481171241198635  0.2995020050194729
  0.2166146241713881  0.6277322429583555  0.5130516985848398
  0.4788543482411893  0.1301143927966857  0.7921081607542176
  0.4673727609541738  0.1728082610283678  0.8403178344164326
  0.4682846046690229  0.7587714523302151  0.8183095549087406
  0.5427304172118893  0.8587169605535026  0.8281119507469764
  0.2531612950860305  0.7455378007832474  0.9091235061114501
  0.5059550692510287  0.8093090557370061  0.8232642666165358
  0.2941720513858754  0.7959384022332044  0.9692691855826259
  0.4374066226361989  0.8297139699179271  0.7392804383002375
  0.4960497045615408  0.8231523102597978  0.7613742811125529
  0.7880829665793544  0.8106025367292474  0.2396187307245722
  0.3362858880272973  0.7529709081971149  0.9876640858994862
  0.3453892964607411  0.7590412713495037  0.6033387202245863
  0.2991624337283601  0.8661482910214185 -0.0156561774726817
  0.0309417414476133  0.5532263497123727  0.6356162958452245
  0.4163918856020323  0.7095754137149103  0.5841188774829760
  0.3656421013277990  0.7020109350651748  0.6178431423015457
  0.0800208194963874  0.5862092603954265  0.6943732073285367
  0.0279679099491361  0.5809698640664583  0.7339418693650870
  0.0879935940837197  0.5722356929017774  0.7521955952710991
  0.2583915552713463  0.7162973068458021  0.8002942624401136
  0.1398772916945497  0.7309119864977452  0.7495614515261273
  0.8190501756685397  0.6352481960597168  0.4325019007792599
  0.5948329707505172  0.8867467440303829  0.9574966317727727
  0.3856433532348769  0.9389815284379982  0.9842012034362071
  0.4296888520721616  0.0937554790384961  0.7275281519932626
  0.4409190870380629  0.0804183035498351  0.7903220755095614
  0.0125965564793993  0.9291480742788492  0.2769612235093464
  0.8914220020939696  0.2474173813067006  0.4127121100711769
  0.6382842865561685  0.6001259391655976  0.7852608438478318
  0.7361896667431912  0.6396330288060372  0.8133226047662698
  0.8393006224590475  0.3086685412733089  0.4929054753862745
  0.8912823619456454  0.2931265316705683  0.4578833255482939
  0.7890804027715830  0.3405415508810663  0.4642572702689551
  0.7314283905219431  0.6688992131973528  0.9191498871027820
  0.8057396999633435  0.4389376776446351  0.4914435077484877
  0.5627101831469243  0.6113926608720436  0.5255079373502637
  0.7503958462862597  0.7500979850565199  0.8025958725578844
  0.5559730902524936  0.6260754181461702  0.4530651155789867
  0.7929864637718905  0.6340082188514935  0.8378812163815424
  0.7033281845800805  0.7130091538831250  0.7356527479178883
  0.4731231074625014  0.2640815337500615  0.6533855998800523
  0.6832713984419759  0.2760681104102503  0.2148537597599908
  0.5992953170105009  0.2637338485294279  0.8608087536994222
  0.5679926911400431  0.3344097797349381  0.7872093315236156
  0.7332798350811562  0.3527750972077224  0.8968996952895083
  0.6592483381152271  0.4057357081790557  0.9241394952620000
  0.3593105018334806  0.0854567257853004  0.5205448637337106
  0.4098755674629354  0.1232861661183108  0.5948158386893467
  0.4233807364047949  0.1077019971073292  0.6627582900971691
  0.6296968818385154  0.6138709099460901  0.7239580874893613
  0.5119015835640631  0.1266936044590920  0.9678634473836569
  0.8295887520277517  0.1369771265398371  0.2529360616375083
  0.8688604996640964  0.0849406023952085  0.4169806528803250
  0.5058860824250287  0.2050639891813245  0.8949478595378988
  0.5182868444296849  0.1905809311908416  0.9565211179829561
  0.7822191663245138  0.2004404634353886  0.3301338431750597
  0.8327119332809048  0.1840092526957100  0.2963114492546342
  0.4142682766991280  0.0160247616739172  0.8461500493261005
  0.3894607162260225  0.0740410650410619  0.8286487497821906
  0.3803348198737013  0.1895731947831272  0.5288382461192991
  0.7318061577740070  0.1967149954091831  0.1940409167249676
  0.6870809547048984  0.3044578470413447  0.3196891875505357
  0.4490782323567651  0.1694654491405202  0.6038622491182107
  0.6466761383362333  0.4407911467006317  0.3144983442639606
  0.4263846817184401  0.2284415311533370  0.5875277521843135
  0.5705768835139093  0.6808420261792446  0.4269609521520641
  0.5261528219336155  0.7518233893173606  0.4475247378879532
  0.8440051801262680  0.8226256257604637  0.9348012920045129
  0.8009681170579591  0.7686312418457836  0.9434852023974225
  0.4953892562118787  0.7794132948846875  0.4890579695828038
  0.4517499961751524  0.9351478412867211  0.4934930223107539
  0.9845285038376409  0.0884108137824872  0.3789832153786327
  0.9981191840385569  0.1210091045839457  0.4261836365632057
  0.6033153635078137  0.5224982798619302  0.6667993962875837
  0.5913658343449778  0.5657031135778168  0.7146369661636931
  0.1467527376531839  0.0965983323808915  0.7283374840533452
  0.8956746875273169  0.3078430103239203  0.3972619959794539
  0.8816291021920510  0.7177315924633723  0.1882839889948239
  0.0169102031765306  0.0100527923051777  0.6768860436802935
  0.9322295678697979  0.5644205488006125  0.0184803684786369
  0.0474563320975370  0.0437213749879788  0.7745101525885457
  0.8568787929710736  0.9567873971755071  0.4506430438796134
  0.9082637503525065  0.9391640191652503  0.4150317088637970
  0.9454896299538751  0.8515324864735474  0.4587898370619505
  0.1703621115736635  0.9793108511913864  0.5010964793561087
  0.1516701779313159  0.2770197862304158  0.8772393445999380
  0.8076217523681898  0.4594980737904464  0.1943324560752404
  0.8593998029487329  0.4255729555306017  0.2235473482023123
  0.1166089626306099  0.9451085100165521  0.4887290911359237
  0.9059996019794374  0.3491209011569339  0.2054447135112017
  0.0848988951972266  0.1357044259782899  0.8187085465070618
  0.1114215913972033  0.9242053632611017  0.5533516446488022
  0.8532364445899340  0.3647063558748301  0.2388169524823244
  0.8509282633509518  0.3202910844671910  0.1980028622955373
  0.1111072169877896  0.0482637423744498  0.7189982924237839
  0.7346939843440436  0.7740859198846581 -0.0088391877795325
  0.1159057893022446  0.9860809108057509  0.5470543271657785
  0.0028425738519603  0.2577230413486882  0.1570692298745084
  0.6029970020065683  1.0002699041857297  0.0414353299949539
  0.9449230881369121  0.2128668352051410  0.2070986918535654
  0.5709215524345151  0.9561601848773897  0.8769191587590118
  0.5031423251913328  0.5772344305219996  0.2723500134925214
  0.0630288390620105  0.1628263225847171  0.6930101194900952
  0.6576078134461066  0.5605552006302578  0.2721152470343207
  0.1063591757441599  0.0800312854183684  0.8408576561092038
  0.0740017706403490  0.0273466875994075  0.8392031607697376
 -0.0002269545845979  0.0419701552998367  0.5473097728306147
  0.0577120550487725  0.8234305882953210  0.5615505962510415
  0.0456846270499450  0.8605846377857490  0.6022911812235683
  0.0038060077358598  0.8156567844796301  0.6001887927562889
  0.3084693324601619  0.3051443596797851  0.9841080072062618
  0.2564342685633003  0.3102669093633008  0.9630283773697161
  0.1001936887254476  0.8228508941172549  0.6138103264880672
  0.2597492260846791  0.2799509979189125  0.8578448135591742
  0.2228476402090454  0.2309464360970978  0.8515856791190194
  0.8364834791345557  0.7357555967730827 -0.0029249068555831
  0.4301530106801391  0.9160998525999396  0.2547356796589929
  0.1556535508259651  0.2495055240479293  0.7685275407932917
  0.2137258930728237  0.2422890406887686  0.7900428299310461
  0.4798196479710560  0.9025425752438010  0.2223364219449484
  0.1129522115301411  0.1960668919795203  0.7627146913003534
  0.5334055170301724  0.8700068415931570  0.2484337727367115
  0.1689897538389936  0.2031163913525963  0.7198026768583108
  0.8354546479789350  0.7155462583902717  0.0581508672044557
  0.1664831372706129  0.8143017466977646  0.6408919651844991
  0.4463917710249101  0.1998721905975560  0.7121862924701448
  0.7796807912392221  0.6862835814021538  0.2734029572867421
  0.3936954752802245  0.6591234220326232  0.8039252339630359
  0.4398920906713607  0.9347485086373256  0.1158442922559014
  0.2663714722991495  0.5526568482647449  0.8223392864688631
  0.3762557286034708  0.8583487983810402  0.0588194092548133
  0.3176886939737448  0.5538013463850808  0.7844859348352018
  0.2927330675885146  0.9292844264545119  0.7783968342009390
  0.2187837665842104  0.5115936201551605  0.7507758044663462
  0.4702275319850199  0.8252793389590118  0.0711313417633594
  0.5199422980658841  0.7467751014385793  0.0518037261994935
  0.5156174354107675  0.6872523990055295  0.0686317484777324
  0.6207278548361655  0.6549689320275366  0.0001755754660115
  0.1297372409102010  0.4389426353722721  0.6217283913205990
  0.3024806507953434  0.9179889508042742  0.8416993260045372
  0.9199022296634233  0.4865978049843441  0.1090890396075115
  0.3366346210568694  0.9653596673586740  0.8535497938335089
  0.3614388948947330  0.9578298122211145  0.9173010961497938
  0.3295872954993213  0.8894114704008910  0.0342389769058144
  0.7996961627877283  0.9290790373520657  0.4343596664086065
  0.3930353085358532  1.0011185274067465  0.9657573174213531
  0.7886244287322219  0.8224110446574928  0.1789467728101537
  0.7306862570721178  0.7782920738746698  0.4598095712874403
  0.7803410964923420  0.7187693980158764  0.3791311721029497
  0.4907605062163084  0.9232919642996064  0.0822379918187402
  0.2047260342429308  0.1187735193223841  0.8681492413963626
  0.0948485140000318  0.6875708417253463  0.5078738413258306
  0.7935510050198386  0.8105785282107694  0.4724444038001067
  0.0790197753045528  0.7323068825054665  0.5521867778152507
  0.0855727668635702  0.7145857296413161  0.6129809843400517
  0.9302273464034487  0.5962822971024824  0.1279857048373154
  0.4009511721965145  0.6426340228851936  0.8663145329078377
  0.8804129968706508  0.6244838328620542  0.1007848079043589
  0.1916567293567359  0.7372959606774157  0.7136950933495732
  0.8652391608981547  0.6027336699914975  0.4545860886269780
  0.3429675441206251  0.6534010310449017  0.8442770715208255
  0.3327906012738212  0.6679181942480692  0.7781412670061135
  0.9631696899068781  0.5620299295265826  0.4569807511760259
  0.9925410851384728  0.6844346773199522  0.7691157141134862
  0.7800230648706464  0.7149838216929626  0.1501769963936521
  0.2452428710551379  0.5801523816822405  0.6991393750049253
  0.9666973827378218  0.5010664913474394  0.4732468738468690
  0.2988396339562496  0.5887295027257012  0.6580830233017542
  0.1939877807091886  0.5577294068816793  0.5716361074590774
  0.6932703150081724  0.9101499152099737  0.4728488889628648
  0.1680353563240562  0.4643827066640594  0.5191023860671489
  0.3328825581562898  0.8575187671725056  0.9242111514889000
  0.4880631062875387  0.8721721397590616  1.0347683842573057
  0.8349919945682812  0.7282783572061902  0.4517181373557478
  0.3443750225746481  0.1000967343612442  0.9248052585741842
  0.2497436010577326  0.1581097370801110  0.9281311078671679
  0.3483492130182561  0.2015274605505090  0.9578460410681646
  0.1830944034817036  0.0276527045300603  0.8196243686778808
  0.9790161958897140  0.4411455974785723  0.9246996193274547
  0.9693666504932695  0.4569313123656646  0.8641396550483287
  0.7241398642085035  0.1884778410595488  0.6929198539227289
  0.7353561063710570  0.2756973323801281  0.3468855945043248
  0.7844903628807446  0.2301071139464171  0.4355527923755499
  0.7666867441452820  0.3879842513616618  0.7401971065659836
  0.7808170399963428  0.1858358245923238  0.3912814067299675
  0.7202017668079043  0.3576917842366336  0.6689369450365714
  0.6825981437514562  0.3073440692156481  0.6612664849750169
  0.7122648807677389  0.3761876387596511  0.6054995982639426
  0.6738008763012512  0.3238463694168741  0.5997706383921716
  0.9326611295758087  0.6251468225807644 -0.0000040974416391
  0.9164902110922815  0.0023843933018985  0.3972616369695701
  0.9323208014542466  0.5556814639630200  0.8949586525503043
  0.3176409266321958  0.8513788713361016  0.4637012904438822
  0.8879024644459971  0.5226815993095149  0.8238052142970889
  0.2650043197992663  0.8164205960495939  0.4577826686445489
  0.4027218926289684  0.6561057354378560  0.3823154928068024
  0.8730824574753520  0.4138786105066357  0.8330708773176001
  0.6658808916210694  0.1970160380693677  0.6721928901936649
  0.3147892518778515  0.7778425613379715  0.3144235695622081
  0.4376743459991173  0.4238564759982479  0.3031122513900689
  0.6265233446596696  0.1459502226747883  0.6684179644570754
  0.6157503549996932  0.1614900459360143  0.6074910216607209
  0.5426522217380525  0.5008020369867349  0.4823568006410036
  0.2055415545706150  0.7656634256042653  0.3382437764185248
  0.6211400213629913  0.1224751693166307  0.5587942136128951
  0.5662193624990973  0.0839757848650213  0.5431719225027440
  0.6825678072771032  0.2754338376381419  0.4437185963480554
  0.9282769025750452  0.6923506413995687  0.5965221524415448
  0.2196977901519036  0.9170433427781826  0.4735491250382849
  0.2157300077610828  0.8554093993693779  0.4323106286860587
  0.7972712121039537  0.6934046226943599  0.5013663675442579
  0.8331294162507976  0.5063204539751083  0.6967634825685495
  0.8788974162832955  0.5387256990341240  0.7650343874904117
  0.9434643566488089  0.7943134680339954  0.4725242226819632
  0.8201392188094239  0.5469444177315018  0.7418466332294806
  0.8387107270219324  0.2005338368425618  0.4573827452734927
  0.7290744530178386  0.3397402285400666  0.7309318709539732
  0.6913307363192563  0.2900060431872470  0.7240251862171626
  0.6298589610257072  0.2970215078560533  0.7035284186856633
  0.8665828994649788  0.1331379337924888  0.4619776281584574
  0.5821706867102696  0.2632163347089210  0.6355438339282055
  0.8613745876335444  0.0668966547456795  0.4736126580274649
  0.6357868377252919  0.2714740637498512  0.5958696507536222
  0.5372426677171918  0.2295196204676788  0.5719035948221314
  0.8808401179827635  0.5480226187756837  0.9481287503873193
  0.2662842729657657  0.8844392342020695  0.4516922113235687
  0.6492005078328209  0.4539087374863102  0.4795273810868843
  0.9108661291826623  0.4906098542572044  0.9400122689623789
  0.6114011129921324  0.0703310054833530  0.7867750023073942
  0.4913007736492698  0.4412547998152729  0.3706508742558117
  0.6240365490325227  0.0274257520207072  0.7418402177617186
  0.8332426526321558  0.2212064636584714  0.9442204376806745
  0.6582693716211008  0.0141304485386735  0.1149310522874536
  0.7002816554478563 -0.0029637864521170  0.8970432070242531
  0.3971781025714707  0.5921828668505426  0.4046624803762646
  0.4465534738078144  0.5319237426841849  0.3248743226245467
  0.6608937460243085  0.0498079581249727  0.9212734777776880
  0.6827067559899089  0.0549620057025210  0.8732985739185445
  0.7340061597980632  0.2051019222298188  0.8580417512131828
  0.6714327845494727  0.1498345811142737  0.2506032522492170
  0.5452396707976134  0.0452804761399266  0.6614453659611718
  0.4846912016189924  0.0556493452570489  0.6401081981568796
  0.4699053009618874 -0.0221016833959002  0.5389937693927221
  0.5821759690237980  0.3031537784734320  0.2834377133942581
  0.7586560127381113  0.1526763263902014  0.8772905881883413
  0.6864960609514846  0.1698812428717398  0.7946414320883007
  0.7095674124063999  0.1128430861484536  0.8118563579812011
  0.6378317954333159  0.1335639007683517  0.7290064582236698
  0.6072315353991257  0.0406907822938711  0.6786704984413825
  0.7059480825689530 -0.0307913053128116  0.9724743906024106
  0.2990836805521641  0.6596680444727114  0.3513238315300643
  0.1613877374239039  0.8389799189534776  0.3556859394201553
  0.9195055995397394  0.4479211106679952  0.8981999271639310
  0.8513534531466235  0.5042614886149543  0.9201454977802914
  0.4780562236223562  0.3016941579499031  0.2459986327718132
  0.6868547218312711  0.3361212943223156  0.4260146650645331
  0.2122356191275286  0.8249715670477293  0.3226248169873048
  0.0049391221771321  0.3845568859107563  0.9414345222353196
  0.3479729935563961  0.5932956000371139  0.2744571874016775
  0.9027230450336216  0.3414237906623399  0.9140145445331690
  0.3970412253589575  0.5624683748335283  0.2988300161154112
  0.8433729360740211  0.3489998804009359  0.8868582020765473
  0.3457279975050301  0.5806764774026191  0.3342865165436854
  0.8945913451981973  0.3536189845953987  0.8510733780242080
  0.7996285694846732  0.2878596437028973  0.7070320628041743
  0.7974725597484238  0.3156132252296837  0.8143403996812976
  0.6947663561223076  0.2629169896534133  0.6167476246057421
  0.8480807214086441  0.3216618163881710  0.7777357199457525
  0.6070502471965024  0.2063250946844069  0.6511139976600413
  0.3884980375915597  0.4554458311775967  0.2741761844515390
  0.6656237752900628  0.1666385241228288  0.5651287659455719
  0.7149992445443565  0.2026645784363461  0.6314112768796765
  0.5341177986770120  0.3326780141194707  0.2548830094838476
  0.6476464221729510  0.2302509733082061  0.5524371876200107
  0.4141838018021232  0.7022260494362519  0.4243488767264659
  0.4583108387356910  0.6549536699924448  0.2875818247047753
  0.5169678280439534  0.1787332599660763  0.7948367051319947
  0.7615380508628468  0.5956056372994101  0.4208314768179741
  0.8839919402350109  0.2209216831437976  0.7414256265486702
  0.2171379644182351  0.2114494525420951  0.6841505151105778
  0.8356951700635153  0.1874852037840769  0.6731504065092159
  0.2275372157160302  0.0635852301744872  0.8860472546607727
  0.9952418994161806  0.2475353941525152  0.8243245013242112
  0.8522997543686299  0.4322798356705139  0.4447346734113183
  0.9284210645280366  0.1056596162896412  0.7723059108472705
  0.8471517638107821  0.3382123802365009  0.3669508733822142
  0.8151930378121064  0.0740093293735053  0.6765297488859057
  0.7982978606012893  0.3673901524160522  0.3378532690538217
  0.7439960255816316  0.0159005289210517  0.6025790414736693
  0.7557128250348298  0.4438619059173769  0.3545950142003879
  0.2385057605611373  0.3526897542092561  0.0099507621754886
  0.8082054310180388  0.4747426552105041  0.3599197356047940
  0.6988119538484299  0.1512885635117817  0.4693358786980894
  0.3928802001777617  0.3734063687529712  0.8916786592931731
  0.8405777789054685  0.1462898173568851  0.6240406606547125
  0.7612679571399809  0.5506099698144081  0.3761519307577494
  0.1843735335260764  0.4815584731472044  0.0753875263662630
  0.4388899616134999  0.4100224651728587  0.9549092101551215
  0.4707931021711503  0.2265144905134745  0.0980073812928497
  0.8698954593367890  0.9433528758605104  0.5796684160916982
  0.1661408646288304  0.0298923256529775  0.5595660177308408
  0.8196755913767508  0.9092174565164225  0.6235630889899487
  0.9206508463879516  0.0608609569139314  0.8320191581118451
  0.7913526485928628  0.2920216833358384  0.1901201101813700
  0.3593724137505183  0.1692117494439642  0.0774262971476813
  0.7505604044358235  0.9242135135179562  0.0675013762170524
  0.4506722348310248  0.0752228541125553  0.0178473601553826
  0.6515321812640421  0.4549104088895981  0.2519839791327180
  0.9483138469638607  0.6780968936514714  0.5013755631204310
  0.3983550978638334  0.6185066263112678  0.5192605480226968
  0.7690797087539765  0.0575336207521937  0.9589889594282754
  0.6031070648615640  0.4829005258884113  0.2236603610343951
  0.7814392914812076  0.0914735059497278  0.8975776258048829
  0.6587701657690045  0.5292294855533235  0.1701031697368238
  0.3712254209223669  0.2715164684919015  0.1066130737015931
  0.6147413658927261  0.6570085933419718  0.7713524850205900
  0.9321247063311036  0.4750998624078292  0.5244245754538768
  0.6634553695181598  0.6922439587195244  0.8348331737126382
  0.8674348523876537 -0.0457935827391167  0.9789771635990182
  0.6101587358495345  0.6854337542217966  0.8763856276306986
  0.9701235166949295  0.1784285082106561  0.9425670716052986
  0.5147260450694999  0.6847098432506563  0.2965726285237663
  0.9703002254279670  0.1203754425799439  0.9033366228192775
  0.5209609304959922  0.7467950693630054  0.2811617025248820
  0.6337595205679892  0.5895597994330150  0.6150423213338877
  0.4507566443631161  0.2955848895733627  0.5304689858229257
  0.6711276817257112  0.6381056169031172  0.6256898922883453
  0.4673909753295201  0.4296665512115369  0.6302610588408605
  0.5838008699425412  0.7292517064497928  0.6925778204402223
  0.5955611085361229  0.7789477677254601  0.4722945915793123
  0.1346916927122270  0.1083118234099534  0.6594309369663617
  0.4411738568148815  0.1069346385612843  0.8932774850522606
  0.2082962249885695  0.8075039553595820  0.1541464893810504
  0.2427940894937133  0.5276669302159775  0.0306431977140906
  0.5705581764666728  0.0518282683619377  0.8907394425981771
  0.2637260682788441  0.8214764942509746  0.2265818753285337
  0.2562913387536598  0.7452410709608437  0.0743172859635136
  0.4420908707066339  0.5137839820146958  0.7212640405268623
  0.2020895881474985  0.1050164380008802  0.6868365302562331
  0.1092209189555640  0.0496332888406279  0.5388501826406455
  0.7291677782720225  0.9577001079511379  0.8151492162205826
  0.5617281996648773  0.5508804328820418  0.9960031390611982
  0.4375098934148409  0.7812528306778238  0.4667620799890352
  0.5056995039829368  0.7577016768986742 -0.0048799957310786
  0.5163192793788182  0.7523088308256719  0.6134457833617539
  0.5546388285286645  0.8020173366001312  0.6179885486651344
  0.4000288863971730  0.7387995397714255  0.0163367589707173
  0.3597942814414591  0.7780493599590210  0.0465505393751235
  0.5394288118767353  0.8450763053680136  0.6609986700907239
  0.6528605814886671  0.7064167187551815  0.7758124627229431
  0.6053746595550705  0.6022355917345943  0.4834020905311446
  0.6572160141651175  0.6798790623849136  0.6716230445024360
  0.1604095981801090  0.0515813564868116  0.6776855664569024
  0.6671259002429138  0.6637203497570902  0.7309508234928271
  0.2553468819895543  0.7294054755290692  0.1368821075516525
  0.6950229412557701  0.7295741332814932  0.6766930974699878
  0.7769552336087190  0.8139058304826554  0.7462103485261260
  0.1696763967690876  0.9280827262741107  0.2111702812838075
  0.7867921036966670  0.2408913262320945  0.1423594404930369
  0.4248132648463048  0.8426997028758497  0.3342873682556905
  0.8040469138200493  0.6166096195930751  0.4990711861923831
  0.3959134139918228  0.4787756814642248  0.6566395031135039
  0.6805513413955738  0.9201187621392782  0.7511642262745865
  0.6764286987612650  0.8017121132970876  0.8247456651700468
  0.6691486260577357  0.9633903933729420  0.7943416094205568
  0.5791226758760049  0.8060308333671037  0.3965389734074376
  0.1965996921169245  0.1354039229643558  0.7999452592102301
  0.2451831772646085  0.1738353032804484  0.8701933870368112
  0.5224646693018642  0.8833033611316696  0.4750864874514684
  0.5805272498551886  0.8514987290961413  0.4479395701129065
  0.9917001235818682  0.1500427194922719  0.3637916577875563
  0.3065886929960165  0.3185288032049445  0.9250210264683997
  0.1738387351200216  0.0093231121993289  0.6223100235887190
  0.9981922712626631  0.2012399296293147  0.4031129341979885
  0.2126749738656150  0.0898473565882727  0.7561183496142765
  0.0601842237164513  0.5066194424589044  0.8056638325547669
  0.9555837033244866  0.4359440009807847  0.4850782070464147
  0.8897264784112372  0.8120286982311354  0.2763039664728387
  0.8141026497959700  1.0005811818013268  0.1183083373039831
  0.9418954812124530  0.1814819826988814  0.0983904013401340
  0.4172470495029459  0.7932917282546014  0.0626511371630226
  0.1020654363932400  0.8556932088733260  0.8899597991985584
  0.4169961601811101  0.7633077956788024  0.1808942850233104
  0.9488728498236857  0.8242849055558208  0.1187284375891727
  0.8376245417227104  0.2122182192135842  0.1721760240998978
  0.3599943956161290  0.4731799228543309  0.9189343049833482
  0.9892004527022245  0.6407528183129052  0.0743658492976469
  0.9352213015782294  0.6529937339764235  0.1083184199420043
  0.0721100071338299  0.8337400445063553  0.9875040474437000
  0.1648263928772154  0.8229582627849342  0.8040905204261860
  0.3431227867443197  0.9688743332156128  0.1849808979357621
  0.8414388794266273  0.8069134941663604  0.1441941304429103
  0.8536067668233539  0.8834264791011313  0.0635120180931697
  0.9452524368658867  0.7780434822759742  0.0721744013274094
  0.3798142838945673  0.5497933254068409  0.8054301136964435
  0.3873838328889652  0.5374174950542219  0.8598492016506309
  0.2529727833234434  0.8478586461944793  0.9211733542989458
  0.4494012412135425  0.5307229222003170  0.8832098716922537
  0.8801665644629343  0.1076627943712498  0.0417478831815706
  0.3179988707326754  0.5191376324240453  0.5123434219392765
  0.8857740731439020  0.1484875595640513  0.0867107083008617
  0.1860426935403892  0.9154249850179660  0.8602272827108374
  0.8896344171887716  0.7458194830892422  0.0651055080014468
  0.1015327306490429  0.0861143042960641  0.6016452595158404
  0.8498239637997035  0.8994685632294565  0.2319434856841383
  0.2123792600426197  0.7324433679043554  0.0066230703441745
  0.0981011550694994  0.7297421316266318  0.9608698793416536
  0.1760697095964197  0.2949412309183324  0.5478639400778975
  0.3834118488176087  0.5207619235665775  0.7002027549276735
  0.5195066223763654  0.7309974647753311  0.1126670211219444
  0.8179889640889676  0.0179791403985894  0.0541692776126016
  0.7748377370738058  0.1661748986865744  0.9924732225629063
  0.9822220028568638  0.0618013525656131  0.0286882791329602
  0.2107111606402596  0.3752323988864108  0.6580249833996791
  0.3548093491370775  0.5967040751934107  0.6191411837671398
  0.2349678462991076  0.9633396509958924  0.9877528328141003
  0.8587005146682173  0.9273008798784552  0.1033495317283308
  0.2785415406757622  0.3558171923772382  0.7405111404081580
  0.2550897041757944  0.9019451582953566  0.8879203982323877
  0.3716681467370522  0.8592167603488349  0.1381626471381849
  0.8372553197129493  0.7608024528606857  0.1017826316541357
  0.3165152070920603  0.9171278164785895  0.9071433155148754
  0.0423161800769848  0.1222925810901090  0.1533578702210603
  0.3660224860749209  0.5510128875928968  0.5772243114716107
  0.9004454855404449  0.8850208003473909  0.1978119331656701
  0.9083778945431709  0.9296330095306912  0.2401732785375031
  0.4720434126136054  0.8075826165910748  0.1306749470422248
  0.4228075976187585  0.5794098520134777  0.9485490544073226
  0.8161811085506873  0.4867980962716327  0.0715743789449308
  0.8172597540959907  0.4976137331823631  0.0127528122719818
  0.8652926607716774  0.4564916634856100  0.0971292633161801
  0.1420973862238981  0.2918606443955574  0.8101457568336760
  0.8294025219639848  0.7088249188031089  0.9450078560341545
  0.9596678515989999  0.3000728986470970  0.0653750491288089
  0.3827433963007287  0.9701814095904581  0.5737724363353462
  0.0029341332625504  0.1208714574370382  0.6280830182170825
  0.9046475839377452  0.3173390545492699  0.1012459235931711
  0.9009433732279709  0.2723801204374485  0.0597636805121922
  0.6314313169854415  0.8069339379601880  0.0695738981953369
  0.6842293801087521  0.7901375393919006  0.0356007990957519
  0.9864836446626184  0.1088148041410819  0.0824509253710262
  0.0660926810591237  0.3450327105138980  0.8634517938046367
  0.6579662377076249  0.8086867966621207 -0.0139968046789833
  0.3918335319898286  0.9526671616017806  0.1489971253497058
  0.1878062852051422  0.4808436851797565  0.9112332792862297
  0.1510766162685510  0.4280914047594774  0.9059137088164145
  0.0929967781335545  0.4329686207797194  0.8831860446445485
  0.8189260861459378  0.5324425096934182  0.1119214502464953
  0.1123059867995823  0.0632426210080118  0.9010002622776402
  0.1264138702475717  0.3307855844659002  0.8568662063643335
  0.4185648345623794  0.5843344918889010  0.8870748971123426
  0.1973274429718128  0.3177397008687518  0.9484124627995836
  0.1732957166511625  0.3712840208060371  0.9267466809246515
  0.8062312912943004  0.9403249519655398  0.1390611804846135
  0.9746096494778930 -0.0006808703935042  0.0494882341651852
  0.0584272403442873  0.3131851643873683  0.5010727799643976
  0.5406102367657669  0.7049269409379273  0.7965361115770047
  0.8438813396204246  0.8221235597198238  0.0850180343167771
  0.5037220005422500  0.6573542596708496  0.7866831871686557
  0.8993167487984988  0.8059692084090075  0.0481584785373569
  0.1354774070443772  0.7572565615641567  0.8563329957421060
  0.0690650695170897  0.7809266924054373  0.7714021330521764
  0.4428659399753489  0.6642311321343857  0.7648938295331112
  0.1132361822952185  0.2356570086009539  0.4871107079217564
  0.2336355706168694  0.3191349358519364  0.6729993064820317