Cr N  Ni
 1.0000000000000000
    39.0510843612861720    0.0000000000000000    0.0000000000000000
     0.0000000000000000   39.0510843612861720    0.0000000000000000
     0.0000000000000000    0.0000000000000000   39.0510843612861720
 Cr  N   Ni 
 1596 213 3725
Direct
 -0.0549275137121859  0.8563926408399316  0.9686185498132883
  0.5008389823891947  0.0260684273753062  0.3417797185173048
  0.4036254968018774  0.0908433602347981  0.2890173966781361
  0.6514263467394155  0.0052617151918609  0.4182849651839959
  0.5145956194615928  0.1170631381907976  0.4281186519783091
  0.5145374720022611  0.1345029851413191  0.3678995969918674
  0.4186623395802018  0.2124887984319619  0.4830497316460094
  0.1772854427174944  0.4610319849356750  0.4264403305376570
  0.9113332650399993  0.3302840961395276  0.9736387178793975
  0.6515753214990546  0.9908873282162968  0.2443134191615753
  0.5614681704287373  0.2149820196743306  0.8597731561628079
  0.7175601517739928  0.6754113061331382  0.4300099402681279
  0.7691252689474150  0.6592279217303499  0.3987488463393927
  0.3754145045004554  0.6873494950429491  0.6776816933967257
  0.0672220816213010  0.6042897008280590  0.6271292587534021
  0.8172893629023122  0.5783183299581608  0.3834801962227099
  0.9277155191390255  0.5798049742615442  0.1910363431605803
  0.9811339403715017  0.5957014679324573  0.2607273646716977
  0.9175567648433911  0.5354620094372161  0.3805943098716954
  0.8619616783284040  0.4572942586117722  0.3244896577710238
  0.9751834089756808  0.5179180929044613  0.3428850017618312
  0.5495826080922046  0.1077959502702396  0.8729938226907578
  0.4145935465593293  0.1654376440303732  0.4398322743890020
  0.4834835324159424  0.5387784526395599  0.6208323862918876
  0.3629240843967212  0.0130678816326833  0.8930976386221512
  0.8527674020957584  0.9202587952936890  0.5151803979212910
  0.8948738237070588  0.9645952931138830  0.5125450546917880
  0.8303920947146040  0.9698075348935250  0.5346971631124782
  0.4242911348194652  0.8230056300365006  0.3987208300397987
  0.5518561486548422  0.5338234918299044  0.3624796733371595
  0.3663463434983157  0.7475252368919255  0.3382526426285044
  0.5061231104432929  0.1927034547557363  0.7328191288087923
  0.3100139954569644  0.7315676384074393  0.2674873451713478
  0.3656353849608057  0.7769158041263660  0.2120848803214120
  0.5610881598719739  0.3221860547169498  0.6190431912996213
  0.5028381185278445  0.3309400996627295  0.5954660710347717
  0.2629087472202317  0.8098288896803540  0.2841604367314896
  0.6588208539465299  0.3620521046633531  0.6483572999310049
  0.5507926704284452  0.3639407367149159  0.6660105289546021
  0.2168246351579176  0.8893784963950558  0.3059261828347781
  0.2704943011828578  0.9166928478516462  0.3212651625626930
  0.6574606737298642  0.3901058354455876  0.7561083319535566
  0.7920632707234501  0.4795915888694959  0.7927888794740732
  0.7695574049666634  0.0762501180484105  0.1350527490255483
  0.7085522914764192  0.4469367050652929  0.9303844909601244
  0.6421461128034118  0.3793001586036499  0.3325022757149767
  0.5838485599955677  0.9391531946835935  0.9392742428205625
  0.9119714801009677  0.4280336574734311  0.3543691405559808
  0.7977139662784968  0.9203571441447430  0.5611234845831385
  0.7370840663714988  0.0987986778193956  0.5959763468429881
  0.6244127199992076  0.0718377067450090  0.5670557781957875
  0.3849562343605298  0.3244491336650032  0.0768171104157395
  0.6079538759497067  0.0429862947124947  0.5109122328993375
  0.8889652093811570  0.3831701773485594  0.9560947032297602
  0.3738113478621433  0.3175217815169703  0.1446716290482771
  0.0287678606272546  0.2964225067870606  0.8551569748411141
  0.8293684620789364  0.0628197539477262  0.7585867624466383
  0.7507225292326651  0.0004766999258023  0.8573277659010081
  0.4005148392158094  0.2766964959860503  0.0168655198872048
  0.8233130396364187  0.0408907261889977  0.9268245453844406
  0.7789447195022663  0.3445314406053748  0.6903524755871571
  0.6731610908608238  0.1508875081817690  0.2486261043500375
  0.6130350575500767  0.0754381049958896  0.1937379210523052
  0.7459344360081562  0.2704059615870966  0.5804678151179902
  0.7028061468065697  0.0239432161594018  0.2500982053241497
  0.9601319005316569  0.5005182376005235  0.9043092011585615
  0.1141402167536283  0.9196399733926882  0.3810102402556869
  0.9436338730052961  0.5025772591930969  0.6819125474144663
  0.9063224580170464  0.4525507175738449  0.6737836065850209
  0.1113838333063763  0.8705673538559258  0.3299957235719481
  0.9207814798583741  0.4098075383492212  0.6302429944761127
  0.2867705618749504  0.4335471350513316  0.0719439323448623
  0.5926378269101652  0.8647651070606475  0.7873932882033219
  0.6795233866015409  0.0174133432263362  0.7716695722552951
  0.7847162944118696  0.1768459820606564  0.7145962477769232
  0.9350936779539387  0.2222797645039014  0.9731587433896224
  0.9222444253819022  0.1711004135315954  0.9240891788339325
  0.6090524928268215  0.0451486794574847  0.0860263966233756
  0.8677006809503423  0.0511942159039634  0.8789057506035733
  0.3697607335733162  0.7161425952192706  0.7842196901563274
  0.4295742700337538  0.7071744087539676  0.8083540459576770
  0.8359060099206882  0.7312360663104607  0.2229096398927781
  0.7398133230598368  0.0105129227235447  0.7937972933891241
  0.1078450375399481  0.8405459466535828  0.2222957644097626
  0.5894902047794103  0.0017793451195182  0.6444736120918807
  0.6943501828978592  0.0388005116984089  0.6615130963805490
  0.7181221400150593  0.0780349041411304  0.5393624840714946
  0.1004730933654251  0.7334712775536524  0.1942256954345982
  0.1940782668914583  0.6250827385808976  0.2062352992815456
  0.9611648899490571  0.2246288262913278  0.9267543257187566
  0.8476624881397888  0.2021324590968225  0.8409127673962091
  0.8358144801509287  0.2133379205250526  0.7807844178725796
  0.8078767159746003  0.1128052376345536  0.7289803079315409
  0.2420739739147513  0.5599740926672777  0.1313362167555968
  0.8590169048930084  0.1578953203660090  0.7964791853874786
  0.2404624567709009  0.5462365912808534  0.1904393148462180
  0.2892739359868809  0.4808569622182278  0.1138723858101450
  0.0262855958510460  0.4355848130076396  0.7221333820269840
  0.0454415492704598  0.7177957751795073  0.1266183391981508
  0.5357024428875354  0.5443987964976816  0.5845535753883885
  0.9993055592750453  0.9530059107197179  0.7353632883381623
  0.8262911167228170  0.9628600036650780  0.7428427600271413
  0.4460084324560780  0.7692192115900983  0.5289878321836495
  0.6744376327975145  0.7638852934621704  0.5539995681767849
  0.7225842502377109  0.8005717704950347  0.6207759943889710
  0.4705392449956491  0.7475232459595539  0.3731072670741153
  0.7627137098437802  0.8546663177521573  0.6254013495495795
  0.3700171375953072  0.8919374649949801  0.4720884844930413
  0.8240353221617448  0.8848638377041633  0.6934403013527387
  0.3079621926295120  0.8914244326075860  0.5073423557358520
  0.8687610337416453  0.8830866218080309  0.8877314099121083
  0.3396477459236379 -0.0006532126178239  0.4841171968818182
  0.9592314153229199  0.9677589417835550  0.8875370928841290
  0.9181751408667244  0.0183725093340306  0.3251515365911621
  0.0217667037456253  0.9882372023223382  0.0178083668567399
  0.9262469627529460  0.0568795630228197  0.3699049421907880
  0.8727723380318485  0.0929009489348777  0.3405905376645345
  0.6367919001955646  0.7147427006057093  0.5508044976157671
  0.8779221000623497  0.1084519370920586  0.2804399418356548
  0.8350317027139483  0.2157337471265598  0.4016932968241237
  0.5817568220776180  0.0081970723880524  0.8539846380677729
  0.8636258339268258  0.0890251624257056  0.6261106826631361
  0.4984504319543870  0.0005939368088936  0.9971230768297290
  0.8354458506694638  0.4786023456647645  0.5914652171807955
  0.8033376765829244  0.7300906960356237  0.6552646943912007
  0.9185460311001795  0.8880772152153521  0.9180682602496417
  0.7022463971366756  0.4736362888552585  0.3236448923095277
  0.4647645677549756  0.5662382820783148  0.4941837824570513
  0.7823972665369036  0.7514984173177568  0.0265143251846939
  0.5230357257955287  0.2892094208461914  0.5581560617221726
  0.3684199640804616  0.2283919810637927  0.5165021027729458
  0.4301599603892633  0.0104656997734490  0.6359330015523400
  0.4403220587797754  0.0501239291017852  0.6818152420699378
  0.4791532511735149  0.2914037686729440 -0.0052970080056453
  0.4588862058537811  0.3519629019417734  0.9710288437064968
  0.5513158142145387  0.0773767385742211  0.7683294756945859
  0.4393181679592039  0.3116406680471007  0.0452973807262744
  0.5007423787805071  0.0712555446650326  0.8101500194310552
  0.4931534553674011  0.3438394767370819  0.0598052981876048
  0.3917214219802440  0.3849654130235980  0.0577715041770795
  0.3331943199517700  0.4072219970485623  0.0992640613418232
  0.6720029361440926  0.1202657125104512  0.9079777947241062
  0.6176187842279446  0.1368790252623672  0.9461097051649493
  0.3970348013677137  0.4962410297993946  0.0903111987704625
  0.5236302161827056  0.0146918084146346  0.8301791158279950
  0.7412902886357773  0.7632984444070106  0.7432162629960580
  0.5299703998026136  0.0076562757779687  0.9046008525773553
  0.8106695830861929  0.4120418125768234  0.6417765324682320
  0.7007787118294887  0.4579998590197776  0.3838245563524565
  0.6644387621349097  0.2247926165796600  0.7776751881610976
  0.4743774828584379  0.9359888622303539  0.9585006737466645
  1.0193171377670436  1.0051956601070631  0.5101578454283288
  0.9555601287300639  0.9355112812021522  0.4968138406266239
  0.9689308010462899  0.9255789772691714  0.5603041448004317
  0.9587285801287169 -0.0055130936514997  0.5311249546738833
  0.9103182318484386  0.9663178082738982  0.5848222623552608
  0.9207305024685630  0.9594199312244163  0.6485703359321748
  0.8439673010658884  0.7772225427402706  0.5004461748219606
  0.9759347019512896  0.8813044167103593  0.5962456990740745
  0.8716174466173509  0.8530663572636845  0.6081873645386414
  0.4932400869342938  0.0000919702909226  0.6630290496508268
  0.9154308292839868  0.9114236056958651  0.6068152349145821
  0.7312007879531470  0.2635409817149789  0.9568012697980276
  0.5221474909113122  0.2383537355994546 -0.0011152067613138
  0.4711700515387318  0.2513573589154342  0.0357115282250452
  0.5235027695008058  0.0649386392730468  0.5909372399538836
  0.4734422702190201  0.1803547456503812  0.5063003910653788
  0.5013511240463535  0.1177834073530392  0.5151100315026452
  0.3406326198951295  0.4822607709887321  0.0151999164740602
  0.5690470528689762  0.1535281222350346  0.6459367194513745
  0.9285164670496052  0.9588824034460736  0.7137473818261283
  0.3476848141283166  0.5734320232632335  0.1066317025401283
  0.8516940385868507  0.2917727407872445  0.6660126693479711
  0.5474789974532671  0.2127680564865531  0.6326201817871352
  0.5333834678595888  0.2565837108093398  0.6783214282643940
  0.6873236626016944  0.3168189811895014  0.8314239969013214
  0.2588259519898854  0.5780450011513558  0.0018339598403537
  0.2013139642595525  0.5979942819944875  0.0328411999688856
  0.1578000542173936  0.7473703974302524  0.0342878138381531
  0.8664952543605612  0.4868846035463505  0.9798551319455010
  0.1052652543106985  0.8260863652480880  0.0495606087256059
  0.4566202910803742  0.0765761741356716  0.5685922124168818
  0.0755235350948168  0.9552104338226668  0.0454477744080702
  0.0218607279201815  0.9560572673120462  0.1480036405749715
  0.4692446684092277  0.1143663039011044  0.6160806894612657
  0.4802407980554287  0.0991281873265356  0.6828047429187536
  0.5390853104457380  0.0911468662703526  0.7046168320227421
  0.5878944709539990  0.1256716815657847  0.7707750235089006
  0.6104574279319920  0.0609306394299528  0.0245259823412467
  0.7582142114051234  0.9860708952180638  0.0472602185405774
  0.5772922800782693  0.1704633869031818  0.8156743475681504
  0.5734594424838376  0.1993800569049466  0.0276447928545843
  0.7262521902428704  0.2351317914924884  0.9039806658924755
  0.6771376386320311  0.1702514409724760  0.9623256270923878
  0.4818330424454665  0.2373527699712864  0.5484084700866313
  0.5428853392817873  0.2416745129649405  0.7376454829427204
  0.1995347833824717  0.6513872630858499  0.0810002562115086
  0.0056176651688433  0.3420269606146849  0.4898448736709659
  0.8827572778830851  0.3774911446832156  0.5586754784118303
  0.7902464531901378  0.2153067889656957  0.4959348907766790
  0.5735134615459530  0.4551358345711797  0.7158730808198889
  0.4043980165114617  0.6231766527648032  0.2793389534834670
  0.6948554883063801  0.4390144997773310  0.7632709878739838
  0.9579476828163317  0.7899127324981196  0.8171029662797749
  0.9191284099022898  0.7398954729176527  0.8080829255954841
  0.8215605615991263  0.5622304972577797  0.9850122081125166
  0.7692619957299108  0.5944859868665997  0.9504661415031385
  0.8761125256298423  0.7170816203581669  0.9044580633158099
  0.1531778369229400  0.7751804411971853  0.1449236296999566
  0.2785302897961947  0.8805163182935617  0.2704761508529689
  0.8833002723434706  0.6907288700473277  0.8024251821379605
  0.1602718890193500  0.8410237606907784  0.1235119498075550
  0.8193932304042881  0.6881196660335464  0.6141510732721167
  0.7824326081270033  0.7508999528390933  0.4842700890785082
  0.2143274511858765  0.8546713137192885  0.1970998482975611
  0.1180950700306002  0.9155016465869830  0.1412745784920110
  0.0721852809947998  0.9748803231464492  0.2207026675875028
  0.8934933762245415  0.7951798648262336  0.6260058112365969
  0.9604902947307571  0.7659397088393134  0.7100038045941239
  0.7081929573561055  0.0004986238795228  0.0805472710287000
  0.6655897034423375  0.0896666959977705  0.0341421413699966
  0.4515668750417698  0.5620642447064996  0.2023073449984857
  0.9955521280725557  0.8319277610211128  0.7944219136965369
  0.7374191501453137  0.6058224808711846  0.5345424261432137
  0.6652671864458045  0.4907685469301839  0.5830872504817318
  0.7076775352852896  0.6637783916371338  0.5128069223202349
  0.5845418481751055  0.2885915281006380  0.1182019215098382
  0.4892791490238102  0.3778499631091949  0.1649856108058750
  0.7703437438602962  0.5654968052908230  0.8898532833292616
  0.3569190666430752  0.6542501558685297  0.2544299969745060
  0.4412666988558490  0.4074363199056482  0.1365074441514266
  0.5117111437761834  0.4912487675353069  0.8033769142390864
  0.6584722490299501  0.5476178453478532  0.3362307946937663
  0.5110615307573041  0.5119360409656195  0.9747660620660369
  0.5157597327449969  0.5982000389847768  0.9747844519493780
  0.5158193583488754  0.6703543451890599  0.3558063663750114
  0.3391359033248988  0.3510446428160472  0.7638111015448467
  0.4819442052675408  0.9156052287100455  0.3915619299482209
  0.4306635759131150  0.4215816239761392  0.8950384091744165
  0.5483006608137057  0.4560548648308404  0.9809228064397766
  0.2325761459905758  0.2466321259102633  0.5218733459291044
  0.5759658612494037  0.6207241082543575  0.9321834994613933
  0.9283258784666385  0.0921906718711301  0.2461208004835357
  0.7418378485348545  0.4714398046479124  0.8299924476302226
  0.1354202766561073  0.0488354463497365  0.2737762048570139
  0.7618804681794761  0.0186356444024220  0.1535754584555956
  0.6360265842258728  0.4241693221439915  0.6334086974476723
  0.0273803829337764  0.7559570578862596  0.8694170982515744
  0.7161843387285940  0.5227201941316553  0.6522450164346005
  0.6766072212701898  0.1975559533127385  0.0647957532267108
  0.3530774090378964  0.6045241596712218  0.2107021891034623
  0.2549721925493866  0.7153538681328078  0.1958792704027664
  0.9555381810866654  0.8031515336758536  0.9371536093347348
  0.9441006988901748  0.8327160317673677  0.8704218381181211
  0.5976324990819223  0.5271654638659872  0.4960241008721721
  0.4429772157177822  0.4540970599291013  0.1795569163621282
  0.6861383522152036  0.5960996757374909  0.5767995429512299
  0.3466336735699458  0.5600548857815496  0.1671285717431913
  0.2977128617715369  0.6228163627457040  0.2459502156233120
  0.7768326108903173  0.6634329313157047  0.7121613194778071
  0.8237460742747779  0.6982643524597423  0.7815551672167196
  0.7506124354151937  0.3925306932141471  0.3083608492384774
  0.4050686211968783  0.4643272017884390  0.7146366074840992
  0.8278575828862814  0.3947678675938222  0.9291960865190081
  0.4247737505740032  0.3929376308734331  0.5574235157858560
  0.5294340448465406  0.4217839783064591  0.6532027647082086
  0.8835278632345971  0.1347857268017907  0.1509084855338318
  0.3264569870497490  0.3471325838546724  0.5313490902882900
  0.3814388424677382  0.3722543575851072  0.6613273015310877
  0.2568876412784045  0.4146269172775147  0.7252320536825528
  0.3677576566028185  0.4148791031577784  0.7078827580373608
  0.7535064788413580  0.4091571704416362  0.2444537760255094
  0.6984614501557443  0.4247142499622409  0.2761451723245791
  0.3607257771548477  0.7014459381649054  0.2952538799045892
  0.5547521165663246  0.5802016937345340  0.4050496986111876
  0.7601403308703214  0.5851248891619211  0.8239286105052883
  0.6656598599304341  0.6082439681247751  0.3171859908966793
  0.8082156152854082  0.5889448733533740  0.7881036652849460
  0.3341689727514837  0.3335125959416196  0.5943192551563270
  0.6808370631483881  0.2263849075901269  0.1622119392712341
  0.3771163917546695  0.9188436273950726  0.3513750793761320
  0.9867402326006742  0.7288237272041056  0.9866181819972530
  0.3853398250030479  0.3861968270359283  0.8305208312284564
  0.5413813159359779  0.3937827879035975  0.2347921584409745
  0.9842044905504136  0.1074607571768128  0.3162474350093057
  0.5926886187814363  0.3781251700799807  0.2014101488265698
  0.8859929695441263  0.2005566613690899  0.3699766434825285
  0.5284900356715109  0.3936024536559573  0.5412490490547309
  0.8083472369681058  0.3015782442151074  0.8724050414514978
  0.5492340673173888  0.4991411735894254  0.2593139782072704
  0.9475929362294676  0.2466677152945418  0.3182274740881788
  0.4481406279929758  0.5331162333403532  0.3273966920926387
  0.7099027391987166  0.5332601057780529  0.3033582654303240
  0.6996368955081300  0.4140432969596711  0.6574774709772881
  0.6558728333121764  0.5650339147694361  0.9155744294241056
  0.6861452144664475  0.4555826387624964  0.7048085107669735
  0.5504552275044999  0.5403818781439871  0.8138590317928884
  0.7767951063413381  0.3752445769366318  0.5600709441678188
  0.2081942251945667  0.7775272090318538  0.2765633784200213
  0.7765340123791858  0.4863440960498588  0.5672625180291967
  0.4740019174237059  0.5530794413117441  0.5590182744022384
  0.5948815539119275  0.4411021859545226  0.4073056799704342
  0.7056025130943758  0.4395396562151230  0.2174512622225825
  0.6395307587552795  0.3642108076429099  0.3944324207977056
  0.6101176116146858  0.5479837330163588  0.2036514230016113
  0.6288557828308494  0.2577753452913144  0.3719265094117049
  0.5795476720374320  0.6071120207900100  0.7622202661918055
  0.9319418169231382  0.6983319601233494  0.7622759187147781
  0.6262377503133302  0.6403577543676974  0.8303450092676743
  0.8655320759098537  0.7231429823330344  0.6801076486474856
  0.6027030152224910  0.6990079491614726  0.8152229286881567
  0.8918784775604777  0.6377876764559484  0.5887446623680849
  0.6376409835512167  0.6263944116905775  0.8910260355724243
  0.7622027727896288  0.0348443020843193  0.3285830185188674
  0.6568912707207325  0.7225533599800584  0.9361702689130194
  0.7657357806039820  0.0799434550407650  0.3703936035501065
  0.3629540312718879  0.7594506093094856  0.2796345977559079
  0.0488265822670912  0.0863053081406841  0.8260225472572602
  0.7011653076497669  0.3942028223141701  0.1754651223203279
  0.8598924689193410  0.1227472920735985  0.6844152479135994
  0.4094527485112223  0.5648672077017701  0.5356538718096856
  0.9531754592716452  0.4879174985129860  0.7407784387947219
  0.1860155284998767  0.5169150851307793  0.0120979147796108
  0.2988453708177983  0.6373318462298376  0.1786584168494944
  0.8946555518864717  0.2781808405482528  0.2888247237262137
  0.1821531946574613  0.4230949988041419  0.0314706785559736
  0.2274538845476415  0.0945948503687546 -0.0085069521842793
  0.9465387417896775  0.1840964550879686  0.6582569256842308
  0.7590268839347968  0.5150584572500876  0.5010237969469276
  0.7127238544767845  0.0973036550172371  0.4089971749918038
  0.5906925563317836  0.8985137792591243  0.4969761555368404
  0.8091142997842423  0.1522144427745027  0.5011466292415471
  0.6804719494846052  0.0007437385991017  0.6135443390586899
  0.1383390208761180  0.5612601005753746  0.0928284039426924
  0.7503426754962464  0.7153018838490069  0.5353481102413662
  0.8974151753667272  0.4686823679478348  0.6157463003692459
  0.5861008579425506  0.8714802959921486  0.5584795121404652
  0.4661630594562441  0.1861904922033527  0.0534277113988402
  0.9437423548901932  0.3274168847318933  0.4703119256980591
  0.5147570190364980  0.1534596815690269  0.0780882651763644
  0.8920646986666189  0.4072761635731573  0.4941629212094493
  0.3788778716868264  0.3663259514077398  0.1911505704839239
  0.4633061109927344  0.6058070058703063  0.7763158560796494
  0.5769875531909521  0.2446242368498983  0.0734745892252664
  0.5361213133606507  0.5829458500554108  0.8643738476819750
  0.7312719998544217  0.0544868093034826  0.8343277807002314
  0.8505021071205185  0.4293925407784635  0.5425659997808936
  0.2477133026185174  0.6414925656312879  0.2787867250649943
  0.0404751572057365  0.5409958864471213  0.6937229235328463
  0.5734425263126830  0.2112976532457467  0.1952635207278601
  0.5149339422238965  0.9761381075344651  0.5525627124687479
  0.3833746297220891  0.9228098905474647  0.0430640202093923
  0.9675668364639772  0.7421885084824302  0.6019573090752144
  0.9713585607050486  0.5713516472608888  0.6277369900996473
  0.3838494214844168  0.3963471803448206  0.2962737620119199
  0.0460631944510570  0.6773737113418343  0.5482909835782339
  0.7343745643182369  0.1421238188273080  0.6467388745995349
  0.4319055063940022  0.3932169938266470  0.4267859918785827
  0.7744931298488912  0.5138422752458163  0.6740690776354438
  0.7880780034030782  0.4711418443937443  0.6275071050010473
  0.6872739503100174  0.4356378767737476  0.5926074937506119
  0.6802699392550343  0.4481278415398462  0.5334506678735835
  0.7345533845986598  0.4274635935236523  0.5630521928045594
  0.6920389144927155  0.3853386859006699  0.5296281453439704
  0.9791252967509713  0.7487078734845465  0.9303447010720037
  0.9284883464512658  0.7232353797578858  0.8662415745319331
  0.4553568794535759  0.6242493269501762  0.4094400916052728
  0.4508932154687563  0.6199066163219382  0.4755251447733972
  0.4961839877855527  0.4865585521186807  0.4145560002493803
  0.4078946192503513  0.5214533435909103  0.4888707947183166
  0.8495290839712947  0.6138222517834138  0.6882091790308057
  0.4907981045177679  0.8523816076763445  0.8644666466259137
  0.9354757994407540  0.1561206783778538  0.2265648519838972
  0.4916430906991073  0.9858635139726257  0.7273035406640289
  0.7923873701050430  0.2696837739324225  0.5410578056565127
  0.9735513133100567  0.7247364414478173  0.6624852905352362
  0.7569015775329698  0.0235274421704251  0.3910973072796073
  0.0994099430328413  0.7176040486134528  0.0293739055188752
  0.8153330159619561  0.0164645512920490  0.7000899977331204
 -0.0019336460394955  0.8395947301116904  0.0122915583114441
  0.7626404919227370  0.2095384935770064  0.5935638802320268
  0.4644226450871525  0.1678927025491828  0.1130860304534046
  0.9233386780584467  0.4202561536666434  0.7951538032353611
  0.5601014938705234  0.0763547979766555  0.0584243815935006
  0.5576558367714339  0.0456977056614601  0.1856688132667896
  0.7125106914357884  0.1367798173521176  0.5256542202382298
  0.9918709727378436  0.3961961281405861  0.8821643861729653
  0.0322033675166736  0.4513634883379168  0.8886767584290420
  0.9382616657164253  0.3777405786270147  0.7515835300502646
  0.9587678847234318  0.3194422622155869  0.7651453555392624
  0.9005417407510480  0.3297167410041497  0.7406907525760976
  0.5604949071471936  0.0611283905847686  0.1192587207712510
  0.9171844404609784  0.2851609811049109  0.6899042187969054
  0.8668905623174754  0.2500561707649205  0.6235658566652629
  0.8481020628842061  0.3081040902868897  0.6081166279657930
  0.0565663668438656  0.8401902899012555  0.0890743924226582
  0.7454188690463841  0.2330840278715013  0.5329688291505966
  0.7892622762709990  0.7763926071829164  0.7038787530593549
  0.8968500505960258  0.2314836538187834  0.9136050778109172
  0.1741711376819670  0.1760914934207336  0.6020628931090747
  0.1358084481544620  0.0575076040503113  0.5103015399890231
  0.3449843306178872  0.5665353541102174  0.3962312458243296
  0.2548545849391954  0.7826438750495809  0.0079296588469716
  0.4492830732335005  0.3494904827050490  0.7457901155004535
  0.2675808463927528  0.8554844305295898  0.0983473537741964
  0.4957798709033116  0.3848988340151355  0.8116009533521793
  0.2197147431969187  0.8838702585492231  0.0684888607241980
  0.6030694399859706  0.4084745789606848  0.9002462283563155
  0.5423136982689887  0.4201233222633163  0.8775239686899918
  0.2821224782771021  0.9577660397517592  0.1194617484067298
  0.2253839221889780  0.9274691343715282  0.1107146113414558
  0.2706217068881343  0.1790291779794753  0.5532035880279536
  0.7216448821233081  0.1203762390119167  0.0439080864628316
  0.2976480218508397  0.0907754459615906  0.5674624759603565
  0.3256680158776398  0.2136454942608453  0.6708691303887555
  0.3960840121527511  0.1930882158677598  0.7539495610444350
  0.3836060058705053  0.2365026280950548  0.7972116030567161
  0.6301236118156622  0.2463691116559577 -0.0208049776715692
  0.4667623216156543  0.3209945110013571  0.8679025961644419
  0.5551055694797098  0.4346650034189282  0.0494242568166963
  0.5097098626310328  0.3571664263394984  0.9375130223435791
  0.5566760140079922  0.3879924412660468 -0.0008837872064605
  0.0666816551748690  0.3803412530375362  0.2518608215251025
  0.2977151066788152  0.0277687258182156  0.5847316079529148
  0.1127700334171419  0.8848749981271682  0.0343796158831202
  0.5548480141970854  0.4827553223435626  0.0921760927425507
  0.4567340076908218  0.5782454314448371  0.1426907411991457
  0.3526695597515480  0.2803437263349540  0.6138004049294438
  0.3999055677619942  0.5571328606673188  0.0698138268498866
  0.3040761299348468  0.7249068837977347  0.0366729260066784
  0.6598134189915709  0.5577036105586769  0.9842559795566549
  0.5657316209051977  0.4727134385668702  0.6596257932409556
  0.4588059178845783  0.1206334456859154  0.2989203116222030
  0.5592582540884596  0.5012048121471074  0.7675976106724669
  0.4934289766094813  0.5232746943581091  0.6817941919195518
  0.6143737375105387  0.5096720096336570  0.7260460501193877
  0.2993379912293812  0.6320158973928506  0.9422259490725698
  0.2528092939060098  0.6873076088443723  0.0268031148207294
  0.6090973005814356  0.5324827030250914  0.8368538401244578
  0.7068029394652047  0.5765482272997891  0.8704430037040382
  0.5955400453784820  0.5729873166573942  0.8827874390402457
  0.2778579777275626  0.6900301543390405  0.9232746068539858
  0.7185743393576315  0.5522746882379499  0.9398528229371603
  0.6971908166948368  0.6193805858157305  0.9191036882823108
  0.7171945920409515  0.5980230109630545  0.9890837296048255
  0.1634466661756319  0.8553661863959593  0.0608370846241103
  0.0076079924086857  0.8717161242358374  0.2926112514943275
  0.4752233457180672  0.1538855191182031  0.9082970768883415
  0.3393739482817550  0.2896494407007235  0.5498099807823768
  0.2955323904121537  0.1786596861386092  0.8309155980726035
  0.8008249062220923  0.9055008285195647  0.8009333620317455
  0.4006199602020085  0.9132078696926682  0.5918538671157677
  0.5805732783912518  0.4653131850770187  0.8881077529857710
  0.4086583423905207  0.5730522090774121  0.0105650428980994
  0.6844610362588621  0.4994374255721644  0.9207956578951931
  0.6162053986921432  0.5172700750403336  0.8937741867807312
  0.3050996890849322  0.6177846975686890  0.0117677334574332
  0.6610194254060455  0.3949014462353101  0.9857107217901308
  0.3038958388128029  0.6522902713421177  0.1194736305163495
  0.3271784895139080  0.1873248438531294  0.5672600960292767
  0.5308356450317703  0.7213477026370224  0.7283573543198205
  0.4111548043662412  0.6667103083008649  0.0936952219635672
  0.3091671413761784  0.1357727398559247  0.7884832150923472
  0.6531446487723240  0.8169842964829467  0.5348358353172878
  0.6985074017464112  0.3504639347614990  0.1343358578613209
  0.7077220648813400  0.8577302673380062  0.6010179027491351
  0.6582329222059985  0.8507410662354900  0.6419655236273127
  0.7132963721216086  0.8358895899096288  0.6665136774717527
  0.5885555838805638  0.3335451322734134  0.1591913215024698
  0.6336642549718648  0.8857143487143858  0.6871754450796380
  0.8229338095094523  0.8510945651148343  0.8179379234220233
  0.5834453267639221  0.4387369043464521  0.7815580094538183
  0.4484700372331153  0.4817392173317022  0.0561367964345919
  0.8090286867583401  0.8923331668533053  0.8626269518443179
  0.3671808091375492  0.7895555600043158  0.1515032147368208
  0.5070269552093335  0.5467923742125775  0.1712439589907342
  0.5597877479036668  0.5783184511452838  0.1756013209420457
  0.4132402125618118  0.6992400024125814  0.1982717447799125
  0.4235860421944888  0.7939375783566804  0.2890217152112884
  0.3709898132063770  0.8245476672568266  0.2584462028950604
  0.7201521553287203  0.8204047872627291  0.7279046899693039
  0.6669137859699802  0.8142746846876240  0.7653201115687840
  0.3264502531533964  0.9212230033926554  0.2467756177394774
  0.7511921691826353  0.8996177611439794  0.8379347675215466
  0.7604842994992592  0.8753386453649330  0.9646961493319539
  0.3390574760951542  1.0011262231538389  0.2977218957465947
  0.7961555004972786  0.9368530359128057  0.9074303312575285