Cr N  Ni
 1.0000000000000000
    39.0510843612861720    0.0000000000000000    0.0000000000000000
     0.0000000000000000   39.0510843612861720    0.0000000000000000
     0.0000000000000000    0.0000000000000000   39.0510843612861720
 Cr  N   Ni 
 1596 213 3725
Direct
 -0.0596836506492848  0.8545198533962884  0.9685328084750818
  0.2825568070894544  0.7660797128701008  0.5746091977908593
  0.6798593835596058  0.7477901564322826  0.2204714481197831
  0.0083231680844502  0.8525094692953041  0.3586444339888282
  0.8803519542570825  0.0952317363926713  0.8222403519864839
  0.9958302929709207  0.7352854056345611  0.3884631957389346
  0.4878057984114485  0.9831813928821677  0.3766317307540748
  0.0972355290615628  0.5563051853363884  0.8158192260606306
  0.5426150306667079  0.9637765017413101  0.3315505894291397
  0.7726411911918865  0.6266430788064971  0.2911786491692323
  0.3173326852687351  0.6705849368617844  0.5343232727496463
  0.8768596775872886  0.5961489663166754  0.2231572805382355
  0.7687062737163194  0.6100958154078364  0.3508388170115982
  0.6398760621172788  0.8986701468325896  0.8566433814831633
  0.9372993790815883  0.7143515136935920  0.3167856730390833
  0.8713452348464668  0.5346232981827423  0.2428491196746785
  0.1630982644598609  0.7081952437942516  0.9853730957872084
  0.2313715497006244  0.6862733070772409  0.9606478765025535
  0.4251175512532199  0.8412591982092270  0.6738374066599898
  0.8579254434697147  0.4131964933507971  0.2800407460130354
  0.9017463628548831  0.3694002985930698  0.3734131645978435
  0.2540461564567715  0.7012462400121087  0.6279106576863392
  0.9492844224575792  0.3098859287475505  0.2949355778209579
  0.9429455204087469  0.1979171812626914  0.2705753123548100
  0.4450179673527315  0.8133979638649234  0.8000030178413473
  0.5413034162326648  0.8570042146973619  0.8266591322127028
  0.2579224596462151  0.7432070411899909  0.9065707806455287
  0.5143927231987775  0.7651543584606443  0.7764315797750441
  0.3182750177206135  0.7437484197457397  0.9287888994606192
  0.4351351004079949  0.8271032150593809  0.7368066734497202
  0.4726191308431922  0.8773990328571331  0.7422200985093036
  0.7890302089595914  0.8098865982090514  0.2390501803512284
  0.3476898673496412  0.7622467153564960  0.9868128287396151
  0.3794336360334729  0.8067042867842020  0.6087618506993553
  0.3245442089560744  0.8528651480299688  0.9345253957505758
  0.0320151900192837  0.5558389900289012  0.6473209217396146
  0.3811924957806378  0.6628800886833867  0.5631846413446719
  0.3652449886092947  0.7004504399367562  0.6134937322704823
  0.1167040672715492  0.6358748316532770  0.6987249617204838
  0.9894033090374899  0.5338637629445493  0.7420635279346353
  0.0878289091097256  0.5711515116275043  0.7559922972788187
  0.2363265592721971  0.7701092882860330  0.7809700090553598
  0.1399695170635974  0.7280056405747747  0.7505332108576699
  0.8205535240834768  0.6320618534599871  0.4294050366381170
  0.5933660281586847  0.8878312727831316  0.9571642571624578
  0.4789723765851809  0.9343745391069264  0.9642294094438092
  0.9623622854710350  0.7686812841189972  0.3100834223016268
  0.8966374906782835  0.3241853889418419  0.3307107655342939
  0.0602686945944886  0.8707925664437242  0.1961321036684900
  0.6749240498862810  0.1860854540448893  0.3542459027830585
  0.4318537510670556  0.9010614172419651  0.3132770842902124
  0.6256161980682864  0.3540453244167533  0.9136003000858530
  0.5972248575344017  0.2934159195281110  0.9635144257975428
  0.2696022320821924  0.8589360325168436  0.3319053131864109
  0.2827025102146343  0.9359465882378191  0.4880113628963903
  0.8590704159726644 -0.0069612080729530  0.3204108672061023
  0.4395564122309951  0.0770075667769372  0.7911143126323685
  0.3911162305225029  0.0411656320414643  0.7225852347841709
  0.4559050184337375  0.1843697353803430  0.7757819909431500
  0.4670148116077018  0.1709344137393260  0.8401166361242917
  0.5154189667580317  0.1264706583408946  0.9719596962064089
  0.7733318812454983  0.1102581754333174  0.2429621064921158
  0.6752580415997390  0.1920818198613145  0.8982113368100079
  0.5239133882564935  0.1910475448514271  0.9586624667158850
  0.7826414037220820  0.2155824152723775  0.2692326438458094
  0.8349196780133639  0.2328528636390227  0.3413144948352444
  0.4134576835357247  0.0140216146186551  0.8484223585335022
  0.3895712940748506  0.0729084183379840  0.8297565445792529
  0.3222443891004384  0.1835223957431837  0.5736775760881648
  0.7292957466561470  0.1996411926711757  0.1964243174885113
  0.7341078430577698  0.2771126211215047  0.3459635489028012
  0.3218013579583943  0.8265790486071689  0.3607667722166894
  0.9662057613608498  0.8101159492519922  0.5338837053921771
  0.0306539986062062  0.1301766486474001  0.8646842823446604
  0.9674694767935185  0.3614917238404426  0.0393020604406475
  0.3866944789354815  0.8189634073733042  0.7763299889820767
  0.0561732621553823  0.6431059708868281  0.6763206682126311
  0.6905914962824143  0.8371400194984063  0.0800389281230894
  0.6396786303095258  0.8507748929845710  0.1117879027123417
  0.6430183337740393  0.8984472657561853  0.1561459650847113
  0.0740470826167914  0.2842206697097023  0.6352292264859349
  0.9345221855882684  0.2015994384021209  0.0405572543264341
  0.4502324144914601  0.0332410696677165  0.9789663151415346
  0.6471109720059623  0.9447799612726350  0.2003075282170112
  0.5107590797541111  0.6654896591606596  0.9518776134197805
  0.3363787037993001  0.9588821575208795  0.0245185108316150
  0.3646706558845758  0.5809600245531912  0.9271673504075821
  0.3489104048009984  0.6371175409268121  0.9017820942921172
  0.1070323312672837  0.7759411570871038  0.4746333538381700
  0.2780971143306663  0.9708915058468878  0.8241389903390571
  0.5452585964499397  0.9092484609834762  0.0477471243154427
  0.3376948715292233  0.9376842614009746  0.7418066148995751
  0.0610374105792736  0.3274356593480419  0.6839469816659798
  0.4986055625861403  0.0003174077799581  1.0026181753457777
  0.5822461381182237  0.8072634574150895  0.1649864049275203
  0.9809540859426372  0.2877430146488386  0.8803058991935961
  0.1055749590245680  0.3458308515802284  0.5697433903454905
  0.2501783872506576  0.0618523681890673  0.5420660988512223
  0.4101126914136262  0.1188835270880162  0.6043502796594673
  0.9936546182615269  0.7179824583719941  0.2188098465264407
  0.0758173292572499  1.0160936620877805  0.6310542998632412
  0.9329752493079024  0.6097495867193963  0.0680093236003528
  0.0586765147276958  0.0419668766355428  0.7772551705573464
  0.8552945225147771  0.9608745245164094  0.4493540907351817
  0.9583766697888653  0.9797940482457757  0.4182087755666081
  0.9516260900047653  0.8557656569604644  0.4588317022840884
  0.1851332397326752  0.0394919409532719  0.4756102561385939
  0.1335931142691315  0.1705511346592280  0.8906533340142140
  0.7665941883991128  0.4551832283005027  0.0577887780943548
  0.8622772499468219  0.4271752657064610  0.2173075644787221
  0.0758530392583997  0.9131928033155192  0.5403840156494838
  0.0024063247203469  0.2768854302380081  0.3224366433876857
  0.0976403971619953  0.0895749359883380  0.7827142250915639
  0.0226718955377465  0.8661146312520343  0.5485077892844422
  0.8460776611120954  0.3067441648559165  0.2593304424003943
  0.8074936449243107  0.3642765415492489  0.1066073655248327
  0.0252799916202530  0.1112098746238298  0.6955443859334375
  0.7453448041139652  0.7607173379169759 -0.0203475850105146
  0.1267010682930978  0.9902959095232238  0.5350652758144037
  0.0012416383546243  0.2607557982623323  0.1571500025039405
  0.5342239605250310  0.0015772904362267  0.9020030098954718
  0.8912032838206501  0.2303476317119925  0.2446283374155958
  0.1479489140963674  0.8276201292651582  0.5783301264944735
  0.7377680759505981  0.3232380861980470  0.3894560083692516
  0.0760514332593282  0.1489200042037794  0.7638887920389782
  0.6564913061223722  0.5037690060420715  0.2930879293011876
  0.1076225269763784  0.0762062466812326  0.8463117742852001
  0.0689002342343680  0.0251147918815062  0.8397936122475556
  0.0298547423298169  0.0855190859435744  0.5872074833651865
  0.0534208975625491  0.8122819594061501  0.5753759067951041
  0.9543008902581820  0.7810686411452116  0.6510330676943323
 -0.0038602342468962  0.8200352875534700  0.5971291955317780
  0.3437891221487658  0.3600625417030803  1.0028656757769872
  0.2597032909390460  0.3113504231147857  0.9655921360643210
  0.0991853132367948  0.8154014722543788  0.6158243320716823
  0.2603594841527860  0.2792992691746059  0.8618500035603469
  0.2439772537456351  0.1712469016191721  0.8723189749032860
  0.8361598751612359  0.7319578583854196 -0.0059529801113409
  0.4361178365723528  0.9161872711514544  0.2506491349843261
  0.1045133671822936  0.2126745060678778  0.7087430478305635
  0.2121010957263992  0.2425716027697368  0.7967171103500862
  0.3828771743161325  0.9454777048871114  0.2214649009960858
  0.0647322880267726  0.1921423330061507  0.8085114139063834
  0.4806247585288639  0.8393092700612350  0.2339608759685265
  0.2634536657333846  0.2184911683325761  0.6535360136454011
  0.8376827877796543  0.7139617179343728  0.0560878863706058
  0.5711872531764386  0.9496327569049947  0.8802250809335262
  0.4484774286708662  0.1705434804352168  0.6084587884798990
  0.8390348752527216  0.7635056495173207  0.3259093198997542
  0.0967582900467323  0.6883707228076184  0.5001593487691572
  0.4388420212594645  0.9420063915861798  0.1217839636724106
  0.2667794980438365  0.5506550135867937  0.8203509684132807
  0.3686168809935141  0.8238093838664617  1.0173121559238383
  0.3448108857261884  0.6207139189078221  0.7300307231619182
  0.2821177775135958  0.9426757739223696  0.7174502850674375
  0.2333614648260509  0.4701108819137717  0.7104066856881586
  0.3702310033071660  0.8059814155205667  0.0867482568221381
  0.5741162204902147  0.7232906791979852  0.0197860735168537
  0.4664190933344055  0.6560770024017729  0.0567062770896071
  0.6242834508695473  0.6518357855220395  0.0018354258354032
  0.1278257020021603  0.4388823032872732  0.6273366421258567
  0.3097181147866398  0.8728823956921155  0.8004083889157122
  0.9212057923346997  0.4389267552319778  0.0620428736903316
  0.3392348600402198  0.9632136929843588  0.8520975582502931
  0.3014518402861976  0.0017625419957226  0.9300719891258666
  0.3171360074637309  0.8549945419172345 -0.0030525889860028
  0.7955923504981860  0.9212815187199674  0.4994499517232041
  0.3989723147424253  1.0070067021309539  0.9634286242141776
  0.7410182200187474  0.8395850657330929  0.2122907780609736
  0.7562390682391429  0.8187020476267252  0.5117550861615583
  0.7811336338015963  0.7188536176749257  0.3772710047628873
  0.5397683499809596  0.8980378717279481  0.1175183736372570
  0.3795540020235586  0.0565276192636308  0.6591010008277328
  0.3397897349630081  0.6481596961006748  0.8374641605940929
  0.8279881497799408  0.8112014843877230  0.5426729036313002
  0.0653190602462706  0.7396297460643934  0.5424343414070568
  0.0997256468672367  0.6663746774660999  0.5788903330947466
  0.8210442154137911  0.5338531684783071  0.1120750357095535
  0.3961655936151116  0.6427408404557086  0.8629192478366361
  0.8874412433638968  0.6833299162085499  0.0828425203162091
  0.1944613963132645  0.7080342119056100  0.6063265267743051
  0.8536167803934667  0.6522858515485668  0.4842156553097249
  0.3021688919202601  0.5987340886152306  0.8316340398187890
  0.3311824453859368  0.6627425837715035  0.7743745236761639
  0.9579342899281010  0.6090661081516840  0.5023139539193027
  0.9926637115130202  0.6848485277705515  0.7882471217790662
  0.7835756548940179  0.7157848094133616  0.1512279202620460
  0.2870698419225139  0.6293450709331672  0.7089625539043862
  0.9143893809692143  0.5269223564137782  0.4377844470849057
  0.3202782934569887  0.5283039380671622  0.6774337573137617
  0.1684346052643017  0.6141930486893807  0.5532503004972023
  0.6935710833924914  0.9117397686766792  0.4782108054947514
  0.2127595976770422  0.4358819366789838  0.4641037612178439
  0.3602110529538419  0.9060004017073616  0.8705000158808955
  0.4888674470336910  0.8728967354352131  1.0372424717518365
  0.8409295881044273  0.7276043940973942  0.4485162525969873
  0.4461611503552288  0.1971133347528494  0.7155636747393577
  0.5058504785037377  0.5798418047723385  0.2720110185168685
  0.4607977234327436  0.6568642706847908  0.2867877056809070
  0.5158639734532457  0.1776930532188233  0.7952940128102054
  0.7406745185835789  0.2921235093882839  0.6856629056276315
  0.6508325543035077  0.1673443197600672  0.5020710404293491
  0.4895736192018780  0.4127178579744953  0.2676417767490993
  0.9837082439060849  0.4381180235726301  0.9154825614796719
  0.9713251052861561  0.4540378033821937  0.8551108839512729
  0.7346164284065240  0.1697022591528320  0.7554369774461965
  0.7287813842060710  0.2171663050786991  0.3640619635576990
  0.7831460409433701  0.2341355491149368  0.4355381668675605
  0.7761482822903628  0.3703923917345290  0.7986005264183562
  0.7744021954222327  0.1408808259244143  0.3500870071189253
  0.7078060517516847  0.3947809738034032  0.7156748830833042
  0.6580583748648674  0.3585106790021698  0.6501049133212791
  0.7099013196967721  0.3694769110885504  0.5943336786487237
  0.7321619448994127  0.3071532909636462  0.6248571210886372
  0.9343562131614987  0.6203300996840684 -0.0014006946910716
  0.9141579801073589  0.0065013662092732  0.3937063745393341
  0.9348315598628925  0.5548828159761985  0.8886813646063233
  0.3289101452637642  0.7959297543791795  0.4812230043004123
  0.8900271504289167  0.5208475438743115  0.8187251539120880
  0.3208782523643010  0.8098768260888106  0.4189330640119799
  0.2962854952543544  0.6988149829625924  0.4755727296698070
  0.3887974090521977  0.4588665155446758  0.2753455250593582
  0.8743824368528158  0.4106850527518738  0.8279559647462622
  0.6261230930298189  0.1438509309741398  0.6699399155908139
  0.8627430209158887  0.0718060768406780  0.4766131663091423
  0.3216019063081521  0.8424390437060999  0.2946165678517559
  0.6748845336418766  0.1152058787674176  0.5757789920274911
  0.6164690416644428  0.1605482830175949  0.6080808288297324
  0.2061362551751675  0.7665003811270606  0.3347662761637766
  0.6528462381516417  0.1022366710986985  0.5124574459422510
  0.6560997053273879  0.1201892300953395  0.4443971762011909
  0.6268234223322394  0.2946776243784290  0.4770313842943243
  0.9279202211137760  0.6840920419480376  0.6001172218774760
  0.2270496837662563  0.9645635562890770  0.4583357893478918
  0.2166309846008778  0.8459657400142140  0.4422075853337576
  0.7989011685869422  0.6898906964304787  0.4989629923106301
  0.8320941928688530  0.5025110934564709  0.6934280264147632
  0.8796970434894857  0.5365055225873496  0.7613662257899462
  0.9012915797705651  0.8137608680444961  0.5109781591884903
  0.8193625906175327  0.5439362304750874  0.7385350158608555
  0.8382787839335087  0.2023279145159829  0.4645925234131557
  0.6305132221204373  0.2966682978899797  0.7024168004541929
  0.8228769193977309  0.2242180728099161  0.7229779563930082
  0.6084989411605791  0.3530342289972798  0.6874167311355843
  0.9314448742183640  0.1120115822725656  0.4193663316138080
  0.5707023929060745  0.3044599380285891  0.6810402133508365
  0.6367185806946705  0.2680384575604936  0.5981603570456504
  0.2465667120326705  0.6762639567955836  0.3880954908634549
  0.5378585894435396  0.2230170022961578  0.5734288351675509
  0.5227881693659189  0.5521472030815792  0.5192105702328665
  0.4995741980008158  0.5988516825913509  0.4391408178301409
  0.6513084109201763  0.0481700941876624  0.9183462609910826
  0.6844111162622679  0.0525742105154181  0.8757612265019303
  0.6448563047615141 -0.0010250038026213  0.8747179187446834
  0.5967045531996945  0.4579358619946522  0.3455291524858186
  0.7235879369131345  0.0176831117401418  0.7266038015148036
  0.8809669262278733  0.2628557012255988  0.9576033683505454
  0.6589255359288866  0.0163188691872588  0.1155836201324283
  0.7042758545845599  0.8803826855422492  0.9421205905303629
  0.3973911913593352  0.5333628100395454  0.4811920176302785
  0.7243322920647943  0.1618968694802701  0.9182916453731126
  0.7659338928455758  0.0644756111765983  0.7243892219058851
  0.6972415353614215  0.1222272805841123  0.7510278872801142
  0.6071061388827426  0.0361702338330332  0.6845641392608069
  0.6823553342573597  0.2599961365680020  0.2750537853137291
  0.5464893077218519  0.0428175925979424  0.6642594649226499
  0.4863606899904219  0.0527181170163320  0.6377280204224479
  0.4721356527865361  0.0207772780578075  0.5801208086723663
  0.5759449729958060  0.2454473008735846  0.2999477181450166
  0.7617704565692704  0.1468169661568353  0.8778743415763040
  0.6964866474237452  0.1547947277669791  0.8566831092031918
  0.6533185844626499  0.9814138844734211  1.0080284625658342
  0.1639508632371143  0.8407057032706879  0.3575670540928925
  0.3550478202040998  0.6782782518596149  0.4181304900148999
  0.2918223608243105  0.5517754428194621  0.3240900499946044
  0.9487936070039794  0.5417881357219502  0.9411027958214732
  0.8107520742663580  0.2691333235945773  0.7679124330768425
  0.6472774994240532  0.4569614629904881  0.4770967929403278
  0.6963671682621827  0.2586027707662029  0.6217490931412603
  0.9947215553682661  0.4291559231287261  0.9758075809195355
  0.5563384117236732  0.1950240669880535  0.6926884577819142
  0.8536373714771732  0.5015012202549057  0.9137404807840459
  0.6111955724349970  0.1355224996638907  0.5528729923970773
  0.7336932484683849  0.3107533023058537  0.4533648587416098
  0.5341295160767672  0.3355430969188778  0.2539009041149569
  0.1174027824744472  0.4117534396808993  0.0179611026144387
  0.9250818124489445  0.4456742621593536  0.8927202907920804
  0.9074821441758796  0.3399559584914977  0.9066689366585904
  0.4775376974873938  0.3055557725129576  0.2455667330665478
  0.8465398011565934  0.3475388669141698  0.8829368790678155
  0.2179894291067211  0.8913011284994755  0.3035256577592394
  0.9094620778226117  0.3089410587107744  0.7974963375040941
  0.3490816011001119  0.5954319432840107  0.2716421044307989
  0.8336284127145871  0.2443345728596051  0.8889261981788622
  0.4022800572826880  0.6124379795426029  0.3405963071427748
  0.8968328677015207  0.3520189541766859  0.8463184407201492
  0.2741160856470372  0.8830774606693808  0.4412087659135539
  0.4252237838754321  0.2270827655469568  0.5946550681610024
  0.5761329281764210  0.7342527956183208  0.4707155810889078
  0.5838850302074587  0.8548716970429884  0.4441857624905650
  0.7429068326729348  0.0339087009946985  0.6148925583325664
  0.9859801639775340  0.1555127854543220  0.3581863669806765
  0.2354931120244435  0.3341755974110657  0.0722437793260142
  0.3091808530919476  0.3174982526212249  0.9261950515424562
  0.7157338414009429  0.1469850426194129  0.4493351381874108
  0.1840776310709439  0.9574697468538139  0.5630233799388393
  0.8590663212893418  0.1248594986998162  0.5227454660343874
  0.9960570416498508  0.1904742745744861  0.4679034451183916
  0.1871299474086613  0.4832071428496352  0.0781785888378901
  0.2251729257585154  0.0484829166028935  0.7159995160102471
  0.4708419059709028  0.2299846951179267  0.0981232968328325
  0.2125278126668605  0.0943048907571546  0.7666818462422703
  0.8847644664170390  0.2143122095755509  0.7447609806484322
  0.1469297032312424  0.0998522079747629  0.7422462868046240
  0.8351977753237596  0.1830254442134130  0.6765074831829431
  0.8937712124613035  0.3113624841712917  0.3960755317584127
  0.9551695102808138  0.1953565156731629  0.8254630782350248
  0.2064514689662614  0.1211287774803769  0.8680509204509040
  0.9788116366575316  0.1069237089714558  0.7316149257511201
  0.3285816451682852  0.1078576024844715  0.9177879103921895
  0.8145777347128126  0.0652354480181383  0.6797665585041679
  0.8059379510437112  0.7670634140502618  0.9347479100641118
  0.1997722998732291  0.1506368194984221  0.9710966093970897
  0.7280587979429087  0.8209542383452407  0.9628161451299366
  0.7806191878557187  0.0885591191580592  0.8988105629163998
  0.3498288389100556  0.2020763652589065  0.9610778681023706
  0.3709406512478943  0.2788863776781160  0.1085297022843271
  0.1198075894932564  0.0347283020131528  0.7982433551881853
  0.0227645006406350  0.5701004657251653  0.5896941047604300
  0.4672060289151761  0.4253339843257671  0.6308512477528189
  0.8655880005795193 -0.0419570072632266  0.9792412342957114
  0.6532690903826269  0.7035154743490889  0.7744210344714317
  0.9739857770674724  0.1620987026436767  0.9502113297932063
  0.5825147590748444  0.7259206344006790  0.6903621813499712
  0.9808493750921957  0.1168541422876176  0.9054882894874721
  0.5817240161091488  0.7935030558571723  0.4551311791264144
  0.9858592717382025  0.0930971847078726  0.7950550877260337
  0.0987348716350838  0.0637800219487390  0.6739281824633886
  0.3597082283936071  0.1737137497768781  0.0789562817226963
  0.4385622812258875  0.1024707952930855  0.8965673068961308
  0.4614132844294494  0.1405948870185044  0.0033631722646569
  0.2103908217247154  0.8072893180893568  0.1518308900531357
  0.9504277985050312  0.6756825809599285  0.5014749486383248
  0.1882687851565075  0.5198504635088905  0.0143924929013364
  0.7603383273462287  0.9989171767440150  0.9861481874113761
  0.5918201767584984 -0.0006499822139338  0.9221075821292668
  0.4248559795922875  0.8088442043603943  0.4560428549923754
  0.5309714087494318  0.8402055274980562  0.3682566221023016
  0.4336097471672296  0.9340991749341239  0.4212718106808134
  0.4730885475461340  0.3104650872104671  0.4740182545065580
  0.8176364739605569  0.9007363314644886  0.6263322903309249
  0.6331328831243762  0.5853197824262087  0.6135398883677093
  0.6799750667129728  0.6185506519570219  0.6828583716802989
  0.6149350451720147  0.6556648507379054  0.4516596852196580
  0.6592844443230136  0.6535592847293409  0.5620414613747294
  0.6662293322318941  0.6609298574690494  0.7294671418220101
  0.3118642675751163  0.7606637198695249  0.1429289151768147
  0.6940476721944890  0.7254837223656118  0.6758097437818255
  0.7785344680957851  0.8106874610058648  0.7495388404638359
  0.1724050276820908  0.9327531004648137  0.2124035051687858
  0.8336624835946639  0.2146159777553158  0.1700268787686182
  0.4309450984584892  0.8875540249262724  0.3758410121509754
  0.7609786162395199  0.6480254259566595  0.4669516874540229
  0.3940633005369126  0.4767148951032791  0.6554846022341189
  0.6638230601962430  0.9743899669670517  0.7283136466693885
  0.7372500416293406  0.7899807669275438  0.8484680723168939
  0.6690137452794548  0.9598230658187442  0.7969486889925717
  0.5812438906529844  0.8098587818713954  0.3948999791693517
  0.1957781070581875  0.1356527381705235  0.8074362958509785
  0.2570504226479887  0.1279236679974270  0.8282257151926071
  0.5364710718106501  0.8731384362517324  0.5259242522644499
  0.8425138569268177  0.9802849463728308  0.6024203796791093
  0.9336503100038409  0.1265254374961265  0.3515260897255828
  0.9862946219005908  0.1384225628444245  0.4268621642760652
  0.7357811561411554  0.3518095966280126  0.8980370607569053
  0.6035005946680052  0.5174065808322234  0.6676902317465714
  0.8684946482068649  0.0840717701338563  0.4108937922889220
  0.6500460746652319  0.5527078643459946  0.7345834305979809
  0.8883775377922716  0.2498167322051440  0.4130814868160467
  0.7104947423375936  0.5450886155386722  0.7559047527374446
  0.6369890122236247  0.5967192755025300  0.7835628888625129
  0.7366954204280951  0.6366137944595823  0.8121323668496213
  0.8362810300558816  0.3143467568986457  0.4885321204949064
  0.8925385651419041  0.3589805067869112  0.4368794872108452
  0.7322073220274171  0.3607210772589587  0.4992311910799693
  0.7825778369093400  0.6731408866522355  0.8805046159713328
  0.8067605409016751  0.4480820722380987  0.4829341044506413
  0.5889335094693666  0.5467230444000227  0.5428322416090822
  0.7502403173921811  0.7466480171637850  0.8039620914517384
  0.5683598933840900  0.6095486970561294  0.5183118863162525
  0.7957899112007084  0.6283081854134351  0.8353863428995015
  0.7023070259248854  0.7098738985224622  0.7367205249904972
  0.4617458415025777  0.2745797493945575  0.5956704062008996
  0.7366965483061637  0.2586952394402849  0.1793637954213202
  0.5992523086434040  0.2627952738667280  0.8611727648240104
  0.6190860703475055  0.3397820143136854  0.7480308040358395
  0.7217341605908103  0.3950902530705223  0.9418023934870992
  0.0604236861278158  0.5083634152288953  0.8187023853165198
  0.2650261683097609  0.8806929379796850  0.1989676160941770
  0.8897928723714313  0.8121646475133323  0.2725229452259752
  0.8660557028810950  0.9878553012896257  0.0840405449183171
  0.9392897299248812  0.1851405098368482  0.0997721387310011
  0.4167984724361378  0.7909708794000851  0.0547486326487173
  0.1396474842166384  0.9018880101959565  0.8988597760886000
  0.4209787313321168  0.7448881829988968  0.2405116078790194
  0.9488247245827560  0.8092883716104440  0.1791433254950293
  0.8300684590147607  0.1655928527453258  0.1241833931076816
  0.3227019667283174  0.4241650581332102  0.9146778224392067
  0.9910992391874874  0.6423872009556082  0.0753106385617437
  0.9415081228028663  0.7031180397449683  0.1532776459195067
  0.0736374768096062  0.8359772468609467  0.9869001839350277
  0.1546734198324390  0.8350612882113133  0.7432563834144618
  0.3374113305007566  0.9781314616041724  0.1913842127252532
  0.8448919603329785  0.8080510258934207  0.1434886357436371
  0.8522333405647632  0.8820562706754242  0.0582660744598883
  0.0025259956518746  0.8117107910112106  0.0826010954788531
  0.4007856676154465  0.4910282726171092  0.8175592467395858
  0.3774432406813037  0.5482831773419150  0.8028023651331102
  0.2529686403167810  0.9023094674770575  0.8867856360760810
  0.4490172627062985  0.5295302148851769  0.8822837112917816
  0.8795116922315133  0.1089485731247774  0.0443754865884594
  0.2765577124182952  0.6137168074143110  0.5324449355527647
  0.7325385901493097  0.2498582268207350  0.0106946737455488
  0.8541698045467419  0.9453554753142620  0.2733907830879022
  0.9425530596860087  0.7170068394682986  0.0927923345052171
  0.0818154814287299  0.1011930774623233  0.5439300871412749
  0.8522242065236751  0.9016572522656601  0.2307524673140371
  0.2138750825468941  0.7299134094860750  0.0070757621629590
  0.0997168111002867  0.7319412393474417  0.9578499225200581
  0.1732586942079480  0.2919116424694251  0.5532050940916946
  0.4184490704393453  0.5705470838261896  0.7059537766275582
  0.5219265083926966  0.7307502920121971  0.1109906558836423
  0.9183900599809497  0.9723407480716721  0.0480697085202285
  0.7796728934013121  0.1819205393473443  0.9351371278998516
  0.9794207974413617  0.0674059485661272  0.0353643868058002
  0.1581924236771058  0.3682008904579035  0.7020357404057755
  0.3579386723185192  0.5783357705173000  0.6829981616303803
  0.1896583227967756  0.0357624455963383 -0.0034171832299662
  0.8569435989924997  0.9314733175397624  0.1045682617303629
  0.3281657459957578  0.3630822477834736  0.7050559596248080
  0.2061379193117727  0.8929298647729930  0.9273167807125438
  0.3774282503714459  0.8540282804148819  0.1276177778347285
  0.7903362275466443  0.7909294208403631  0.0725985435198866
  0.3169338130715464  0.9118105667140575  0.9100467351934064
  0.0392663884587011  0.1257319710934437  0.1545260002756086
  0.3426019629761200  0.6060400632605384  0.5548729887554036
  0.7789246871684277  0.1666709926406751  0.9942981700783211
  0.1312768470232882  0.9189954426448839  0.8371669612112682
  0.4757730657449895  0.8065993992441737  0.1286340855789196
  0.2004009738695735  0.3156009660880661  0.9517843925614530
  0.8246721178359410  0.4367954570603208  0.0305833103208888
  0.8174723956429917  0.4453143837469911  0.9707316303641559
  0.8683409086714278  0.4551068180844365  0.0949406767064296
  0.1399965331282984  0.2925395333696871  0.8209244971774557
  0.7082084228764399  0.7261401763870947  0.8996823821149775
  0.0364960130623950  0.3064434759853774  0.0112499147179162
  0.4616057614582354  0.0804016806322101  0.5687852072528389
  0.9826406091903478  0.2584129250568519  0.7727195884138558
  0.0023632501994349  0.2772882278279053  0.0968372636876643
  0.8497791000053387  0.2888383962060277  0.0904395635018952
  0.5850191771987904  0.8315094032793852  0.0408610417644884
  0.6760060527547757  0.7430630092702268  0.9945464689495002
  0.9846859416030784  0.1100640199316823  0.0796496640454887
  0.0813093212951026  0.2992177140391868  0.8035736269332486
  0.6594095240209480  0.8067287763135852 -0.0090010582993292
  0.3389696328866438  0.9892928547224732  0.1303599169408189
  0.1472942221004860  0.4685558545782229  0.0157248999944372
  0.1550797094035082  0.4280776887771530  0.9128894455259158
  0.1066182279765992  0.3924092370002694  0.8489873431742505
  0.9225587576300492  0.4851966212974786  0.1066451757024159
  0.0939373570087735  0.1191617635953226  0.8878912070156597
  0.1503474439454054  0.2781346969865091  0.8820184478240691
  0.2634219840200370  0.4306952275503367  0.8938870950098771
  0.4224395376960325  0.5738365424450282  0.9471764460094559
  0.1754212303409933  0.3732716441131593  0.9305198753168553
  0.8060868866448033  0.9427965291162709  0.1398792943948763
  0.0235415395113300  0.9727191592630112  0.0804982608066594
  0.0008408450528361  0.3321796477613527  0.4900575984213091
  0.5409570166149856  0.7026795988145502  0.7926220048651769
  0.8960685492682474  0.7921853786081559  0.1098496033357256
  0.4502562561147521  0.6488271615872352  0.8243098086178140
  0.8988008412177151  0.8061496883623982  0.0464367191029996
  0.1249224614453400  0.7958593388310504  0.9025720346124187
  0.1674491990000059  0.7934161004909005  0.6989720552151871
  0.4414142840338387  0.6619373080950595  0.7610079683240391
  0.1714292249534742  0.2424572210164282  0.5113397229519081
  0.3021795874165966  0.2692662646338430  0.6574698805563957