Cr N  Ni
 1.0000000000000000
    39.0510843612861720    0.0000000000000000    0.0000000000000000
     0.0000000000000000   39.0510843612861720    0.0000000000000000
     0.0000000000000000    0.0000000000000000   39.0510843612861720
 Cr  N   Ni 
 1596 213 3725
Direct
 -0.0598760126738557  0.8548070993682019  0.9687368795830607
  0.8593921765478920 -0.0073849941781059  0.3196098550369312
  0.4396092666381578  0.0777505428796404  0.7894186794150994
  0.3911214774610329  0.0417579565805477  0.7218666465007944
  0.4559324326252422  0.1847955439932219  0.7753000690755567
  0.4670354898010483  0.1712273720435855  0.8398049281192730
  0.5145691580183981  0.1259378898819123  0.9715451846690831
  0.7729874604800381  0.1103086526985538  0.2422678099666573
  0.6244612781402283  0.2018625331642592  0.8825123663749141
  0.5226546305025236  0.1908348712068106  0.9586682625978148
  0.2546257813702663  0.7005393286954125  0.6290309757465334
  0.7823214173053354  0.2155078220582952  0.2691917838706936
  0.8346849757449841  0.2324068949955301  0.3415480573230547
  0.4081619313063475  0.0169954667680548  0.8518042928678540
  0.3905914775388005  0.0723332577053800  0.8279523653491735
  0.3224289081146919  0.1849684442098919  0.5729899927420017
  0.7289576891526398  0.1996222060835958  0.1961873022725811
  0.7340154767129242  0.2768718620183423  0.3460289380726412
  0.4484058294641556  0.1709967946818999  0.6077074350992800
  0.7377862928616623  0.3225724243630940  0.3892697160517486
  0.4251402274035493  0.2285551332090704  0.5936880043360558
  0.3175615414019049  0.6700910446327871  0.5348435214753036
  0.8056650837149952  0.7680042437155139  0.9345624327193509
  0.7268664284702631  0.8204307868512790  0.9606751808189271
  0.4451245005483606  0.8140020621890663  0.8006965707543316
  0.5403151364757129  0.8574766728152783  0.8272471870820983
  0.2580023631574133  0.7435272213219217  0.9071647224655488
  0.5050147963995334  0.8079094789469922  0.8217893163000115
  0.3182224516378129  0.7436869691413543  0.9290873299600561
  0.4351814235346350  0.8276573507086578  0.7371408597173644
  0.4726106370820516  0.8774012325385500  0.7416635540040557
  0.7890243521400113  0.8098422295116967  0.2387738733736745
  0.3475323991445963  0.7619268391591657  0.9870364231158131
  0.3797601128792927  0.8071678419469496  0.6096103343851639
  0.3240818500472322  0.8537431430626251  0.9346957609289972
  0.0313554176418836  0.5567105154869538  0.6460632388308961
  0.3816567129126194  0.6624576506964629  0.5642126149985491
  0.3667897250313082  0.7010551108689368  0.6154493857668861
  0.1162763090677033  0.6367564208499764  0.6990235030231017
  0.9893678623179132  0.5340321850636149  0.7422891692330884
  0.0874860008802935  0.5715928925028154  0.7566857144806892
  0.2365228764112910  0.7709960135853776  0.7815621622034327
  0.1400250731510861  0.7287319400624054  0.7507625882940960
  0.8209122255850205  0.6313674628441385  0.4290043961368288
  0.5941254443258052  0.8860455126566255  0.9565990359156386
  0.4822209303580494  0.9354823819930914  0.9658595569085848
  0.5756829398608986  0.7324330452340070  0.4709070693262378
  0.5308873953353614  0.8397625345802029  0.3686331639208523
  0.0598640670888873  0.8701181221771067  0.1957947960782165
  0.7353821119140297  0.3526602442038766  0.8973834824003670
  0.2502234317984058  0.0622309275314798  0.5414796373743855
  0.4108824222678898  0.1180816278400888  0.6037046162892291
  0.3793418748887780  0.0572923210456874  0.6586384287987896
  0.4463687871408386  0.1977381335068424  0.7150148121987743
  0.5054792718877889  0.5797430838384163  0.2720180313826208
  0.4606741061754590  0.6565749926110410  0.2867586542548329
  0.5158846046706477  0.1780533345465519  0.7948090174579048
  0.4727507448115441  0.3102382183691366  0.4742474466170823
  0.8416551166132031  0.9785332991991555  0.6027291047473519
  0.8177512471371583  0.9013402597378166  0.6280593119677103
  0.6329891391595579  0.5858706420078138  0.6139918531445118
  0.6799452668302712  0.6192188309931496  0.6827840282441824
  0.6058031928700259  0.5977366330082253  0.4718756942223406
  0.6483340000904694  0.6937650548463303  0.6077879366751063
  0.6663324173513204  0.6614071069193777  0.7295487738550274
  0.3130110169058235  0.7603596985552039  0.1430683462024094
  0.6943513905459444  0.7259992695492179  0.6756445246741403
  0.7797547227063532  0.8109982953914788  0.7496941945634337
  0.1724142190301487  0.9320578589278170  0.2124166785708474
  0.8333198438528296  0.2147968235535298  0.1698664826445979
  0.4310642062331912  0.8871591921646497  0.3766151964236371
  0.7212762824158380  0.3955938235448556  0.9413807676917891
  0.4245219658124877  0.8083164108730873  0.4564128372447243
  0.4335524509609642  0.9337918435238165  0.4214352964747242
  0.5997763743159855  0.2621763488104081  0.8619170407676182
  0.9329488986805754  0.1262126562433671  0.3513427931270728
  0.9867145925544794  0.1351293093932299  0.4271003091317519
  0.6039195257193349  0.5183887424032574  0.6673979440032972
  0.8676504885295222  0.0835582663363207  0.4108408637797072
  0.6501311656146354  0.5532167031965942  0.7346930098118561
  0.8883353666549130  0.2495441892193150  0.4133528260234698
  0.7106918631745441  0.5455758197873418  0.7559597830977920
  0.6372320173849321  0.5972034187936794  0.7836877163681503
  0.7368007676987258  0.6371274802955539  0.8119502538696786
  0.8359619545211739  0.3146007299434721  0.4889722721613751
  0.8923860879422910  0.3587412306902638  0.4378909912684488
  0.7324100781800023  0.3606750143127863  0.5006621088637287
  0.7828243835769347  0.6736073364365696  0.8804428646639809
  0.8046127387252573  0.4481381499945177  0.4858097611371826
  0.5899736869228079  0.5498025635722268  0.5433338596150874
  0.7503708910132868  0.7468295807420561  0.8039103858745847
  0.5686647463033216  0.6107581722044841  0.5174481338562350
  0.7961868848713292  0.6286947284120357  0.8354003115112164
  0.7025545587286549  0.7102710280677550  0.7365153428495197
  0.4623935997820615  0.2752041591453573  0.5956364638982553
  0.7364546728438259  0.2587083403316078  0.1791955775140567
  0.6193983700821740  0.3402947181544486  0.7475852707948089
  0.4416691949512674  0.5125771981231636  0.7200808184460505
  0.1988539928286970  0.1086269269644102  0.6962356088020041
  0.9941894580453936  0.7174110743811482  0.2175439510475037
  0.0763835888291165  1.0159155296754603  0.6305332769233024
  0.9334446886983723  0.6089955888854012  0.0671873735786472
  0.0586263675553160  0.0426867645683031  0.7769281103003837
  0.8545285214663358  0.9607928393003202  0.4487370885365511
  0.9574863347272348  0.9798731450984282  0.4175962792924787
  0.9516165405650219  0.8552892812928018  0.4582289587221868
  0.1854065361981823  0.0410170289773420  0.4738210816677310
  0.1338136678880958  0.1704330883561012  0.8901549298185061
  0.7669704048297249  0.4551342433361039  0.0575804821767596
  0.8619243358836883  0.4264100786979079  0.2179110275342770
  0.1343308745622691  0.8683184490006189  0.6206409144157917
  0.0024453716495839  0.2762900662758229  0.3243352785194373
  0.0977892964448771  0.0902173575331692  0.7817408953150441
  0.0232956529258769  0.8666412849455594  0.5475320608917259
  0.8460518097284067  0.3064755068935501  0.2595400964020436
  0.8079730646054735  0.3638922903584824  0.1065998124847133
  0.0255146156673667  0.1115823908660492  0.6940014647825582
  0.7443344843987767  0.7611025167956853 -0.0195136864826734
  0.1272409372946929  0.9897047496210282  0.5325984646598850
  0.0012783361603304  0.2604631796805479  0.1572829522275828
  0.5307747116846909  0.0030312727480544  0.8996257959964387
  0.8909197990508263  0.2303460898603313  0.2446012170281629
  0.5687329568723630  0.9536931050680864  0.8776143513030041
  0.3948638105003038  0.4767802067397791  0.6551851439271634
  0.0764890107266673  0.1491290088970835  0.7627959194908380
  0.6570695025524110  0.5024934126747971  0.2930122233158345
  0.1070112423987098  0.0766348590110351  0.8461553187651112
  0.0687086116946292  0.0254058854275441  0.8395608568046070
  0.0305729276371768  0.0841331273589940  0.5854656594238044
  0.0543649783313009  0.8121092162520399  0.5738553463994823
  0.9545220343887051  0.7815390129748456  0.6510716410820221
 -0.0032527913296617  0.8204146481105721  0.5960082433324414
  0.3440701718293178  0.3597514002260758  1.0025942784789055
  0.2592399985303931  0.3107907583731806  0.9649426404089558
  0.0988886593129515  0.8164499244714813  0.6158670990955376
  0.2604744284404533  0.2792370817233963  0.8614945752859222
  0.2439650378142791  0.1715135679308076  0.8720489792971756
  0.8358463313839362  0.7324332658429629 -0.0060555570244815
  0.4358791027223182  0.9157581206376505  0.2507194031775510
  0.1048022969215076  0.2128266660153687  0.7066072507122499
  0.2123776887054136  0.2427914916215770  0.7962476706156131
  0.3831781562523076  0.9448949898865613  0.2214061957079163
  0.0652016004669715  0.1923005236519599  0.8073631734875077
  0.4802182381400414  0.8391180633176384  0.2346405808322524
  0.2635392626713521  0.2190756016390008  0.6528288262243870
  0.8377476175645870  0.7139518909245237  0.0557344048793904
  0.1482076983351174  0.8291073232796753  0.5793340917858526
  0.7617362969881561  0.6484074863328261  0.4663431963720880
  0.8374814448351838  0.7662033011015759  0.3260143144716085
  0.3398805387411108  0.6487764709103077  0.8376494734007994
  0.4387888530255125  0.9416753992094962  0.1221944756254029
  0.2673097728259892  0.5509543261222463  0.8205823965483539
  0.3681716559093525  0.8235574851956884  1.0177332921748234
  0.3677757226818101  0.5632265706581807  0.7430529844335277
  0.2819540027279085  0.9433317450290275  0.7174958975903263
  0.2339714489563567  0.4705090693685712  0.7106315259662432
  0.3698229686096021  0.8057749364453214  0.0877827125223389
  0.5744363412385294  0.7229303049843805  0.0198989025060973
  0.4665443550979392  0.6559277389535940  0.0567633054612597
  0.6242555594874252  0.6514503764392047  0.0019071774407450
  0.1280404238682132  0.4400608430448579  0.6273487922187819
  0.3083929157029029  0.8749304977374157  0.8015603075685501
  0.9212642203101805  0.4383773908300757  0.0629217422621608
  0.3397589426010714  0.9679626737017879  0.8579935014518044
  0.2987187677147710  0.0041927970830527  0.9328198469730939
  0.3170142198749042  0.8549651366055808 -0.0027809926428011
  0.7961287554290343  0.9218748971962074  0.4980888655712566
  0.3989372498572553  1.0061884699100665  0.9644502626570460
  0.7408354393479084  0.8395871570172794  0.2120282170612998
  0.7591015463039538  0.8195537250335957  0.5149178862772790
  0.7811694443044003  0.7186931663610264  0.3770518790026237
  0.5396132687372841  0.8976737356043869  0.1178279651390557
  0.0877578306903407  0.0786411318604574  0.6043838649279011
  0.0969593687288103  0.6884835028999757  0.5001447394533403
  0.8286068360474895  0.8117798919657423  0.5425797340548019
  0.0664044763013812  0.7406017157885689  0.5426584640099439
  0.1005749554732275  0.6670187403541140  0.5785618820759862
  0.8214168181636410  0.5333211742413576  0.1118124418208030
  0.3965599172780717  0.6429363407471738  0.8630668798531527
  0.8876573321599911  0.6831212738050760  0.0824620866128631
  0.1581012683931472  0.6591541324363203  0.5985899643105062
  0.8540295842092224  0.6520215557404240  0.4839950955336635
  0.3026985112292047  0.5992357090475270  0.8315548168261574
  0.3319782719703595  0.6635282308207107  0.7755190182590034
  0.9579840540051658  0.6092680582643070  0.5026149898221939
  0.9930092692052239  0.6851586304673158  0.7880212289090314
  0.7837672677491381  0.7156150173988358  0.1511175663637612
  0.2865776795056347  0.6295126519492394  0.7094557983062769
  0.9143925471460009  0.5267838685253857  0.4381415720621254
  0.2712091217304120  0.5201831466396123  0.7170522190960801
  0.1687041007587230  0.6155375462964722  0.5532086595910830
  0.6935962962901551  0.9112794807781340  0.4785948623629763
  0.2121766345994069  0.4336061392425948  0.4635702350350108
  0.3610634119763558  0.9058395942868529  0.8698127896932737
  0.4889613875948948  0.8722034244679411  1.0374377447363248
  0.8408751093703810  0.7280467502310819  0.4483076679119333
  0.6882458862177986  0.9036829740108855  0.8173209439134468
  0.5624935195256233  0.5527027594700600  1.0053719996090660
  0.4342630763125847  0.8252128585148434  0.5124580109047780
  0.4937179449734747  0.7571891043398681 -0.0147335401818673
  0.8468321995821914  0.3480066388871471  0.8828306943559500
  0.9099212098259004  0.3090915238092935  0.7970311425989322
  0.8345013364742293  0.2446840319358850  0.8886515035254913
  0.8972103170187600  0.3522528215038961  0.8460888090942327
  0.3887585973700263  0.4584978463388327  0.2752925668034187
  0.7415956330083230  0.2937817393920436  0.6855006193849924
  0.6511058160730403  0.1671581013748821  0.5024847769856988
  0.4893567420686817  0.4123454796599536  0.2675977351074229
  0.9840353139721115  0.4377083485361514  0.9157036817117843
  0.9717103904317496  0.4544215473742210  0.8556643929706547
  0.7247256226314701  0.1849660239345974  0.6956151876889113
  0.7288997414428352  0.2178087508533960  0.3639542950758117
  0.7828798685326137  0.2336570018995071  0.4353719934319301
  0.7762785626853247  0.3707014032533287  0.7983804233505657
  0.7685710390372789  0.1271692228861966  0.4122314948600937
  0.7080365289377710  0.3953741139831525  0.7151880448426091
  0.6586675086578833  0.3590169583991672  0.6499786878910246
  0.7117213241926316  0.3701914533691306  0.5969803626442608
  0.7329530753461629  0.3088911856681578  0.6243928456039721
  0.9350739464100851  0.6199495682763156 -0.0021707192636330
  0.9132249233634415  0.0061277967173176  0.3926149199208261
  0.9083898716543084  0.3393513727690437  0.9059251541429827
  0.9349619636836665  0.5546420152518812  0.8878168945849814
  0.3274794823509242  0.8386345957160583  0.5273906655327142
  0.6310428285566269  0.2972191321111233  0.7025188401036184
  0.8901925168713424  0.5210120300589005  0.8190414881650313
  0.3210380688212244  0.8089500730387321  0.4192029787899901
  0.2951647533291655  0.7000427382404749  0.4760841622960242
  0.8747176489609261  0.4110249171269207  0.8280332494039453
  0.6261068156545259  0.1446511037066782  0.6696348901537837
  0.3211100072327802  0.8416385873559860  0.2953357219120177
  0.6755903211555200  0.1153495857056056  0.5754483520087222
  0.6163572404891464  0.1616694450240340  0.6077820762605953
  0.2072272369487184  0.7653555844914584  0.3348913721511049
  0.6531467160196879  0.1019999282964704  0.5131629390928691
  0.6536693153788525  0.1209527007011410  0.4463926313434524
  0.6268533687464946  0.2944294214054574  0.4769269211381959
  0.9282822700978628  0.6846170763172787  0.6000726644261710
  0.2271052624876181  0.9658805814915770  0.4577792966556282
  0.2169784967839255  0.8467065752986679  0.4442921942793819
  0.8004397315882145  0.6896987425853751  0.4984463196147048
  0.8323488168151655  0.5024587213748668  0.6935320046541770
  0.8797936129836760  0.5370364459079754  0.7616968636513494
  0.9041777657564321  0.8159157625902379  0.5110911706677638
  0.8195678318243287  0.5440352759566074  0.7387171695971744
  0.8373668329470532  0.2013278177141814  0.4643122120758116
  0.8227791228998048  0.2247694774009075  0.7222591090379934
  0.2730773294335042  0.8828063218518180  0.4421357757955763
  0.6088904621396247  0.3533630244154244  0.6875628589452095
  0.9303964068612500  0.1109974776791437  0.4182554109381626
  0.6599122521145990  0.0723645640406720  0.7486357308654372
  0.8808939931578870  0.2616909806582899  0.9564584265857481
  0.6584653820753490  0.0166669976670927  0.1153178941145576
  0.6886075749234768  0.9382369217678851  0.9222142229175525
  0.3975101144767482  0.5330506861582902  0.4810513669706148
  0.5065075032807300  0.6106959897694968  0.3760041201614643
  0.6491451007552823  0.0495131712231403  0.9189429802080316
  0.6825596265403107  0.0532732564992687  0.8775191005282749
  0.6429255229097414 -0.0004974078509014  0.8748525757642939
  0.5967926892323007  0.4572931259278016  0.3459023433311166
  0.7272535992630389  0.1572358263467739  0.9176326413846774
  0.4847963142179822  0.0531582925729621  0.6364269128282467
  0.4711933828442015  0.0180546788272591  0.5797177857839303
  0.5786754925933443  0.2900950638126912  0.3436210668924652
  0.7625823621000659  0.1465478822222787  0.8761607370501929
  0.6973757487990011  0.1547484968580435  0.8557921223050025
  0.7661223797555268  0.0671456816920762  0.7243350135228530
  0.6967237178363018  0.1225672040322570  0.7518164042339461
  0.6067119931888759  0.0366436413244669  0.6838290150916722
  0.6822757345418243  0.2598416426972547  0.2747924457020194
  0.5462572316277332  0.0432813044761851  0.6635717954037921
  0.6548283863340177  0.9829976083753320  1.0078361004936662
  0.2464153609628938  0.6755281622893409  0.3889428819881729
  0.1626168480933795  0.8418463030479747  0.3569155284461085
  0.2918314601066307  0.5513739378441957  0.3241263025449279
  0.5713840886739393  0.3040980819715507  0.6814622955311548
  0.8108868049652670  0.2693170884571833  0.7675245691536657
  0.8621119322660010  0.0706356182240767  0.4770655012637058
  0.6965312450325137  0.2598527710397163  0.6213140574462130
  0.6372685579254002  0.2687206865335444  0.5978860815268957
  0.5565038810240187  0.1955112960328212  0.6924847879779893
  0.5376183784862458  0.2234213903770464  0.5734331293463177
  0.6120140657288513  0.1351323493779988  0.5532035821469509
  0.5233782278657613  0.5533976089420725  0.5190742485487566
  0.5339104083085601  0.3350834248167947  0.2538597465630917
  0.8821066075528592  0.5460430721192755  0.9443193236785766
  0.9251937492263251  0.4455491700608589  0.8932030161873066
  0.6472463019785458  0.4565048795568293  0.4774410761457983
  0.4777661785385735  0.3049688305000428  0.2458059496567360
  0.9948888375174876  0.4293185117599420  0.9760493992512951
  0.2209852756249543  0.8740644547491936  0.3666641947642743
  0.8544342741590066  0.5031005709732507  0.9142910959847441
  0.3491263881944026  0.5950453172550207  0.2717949252056894
  0.7335725244586792  0.3104135294499656  0.4538958312553243
  0.4020379445546327  0.6120857488547152  0.3407127894349093
  0.1176046477840675  0.4115763039767620  0.0183057942552480
  0.3553657049422833  0.6779786330036996  0.4190023735164182
  0.6625327579730932  0.9763759893276803  0.7297207912535147
  0.7372748746976119  0.7900708046988414  0.8489813049719612
  0.6056541624401016  0.6692253445982352  0.7071440422317430
  0.7420248204495259  0.0317169951290709  0.6186888872243754
  0.6241640274176921  0.6388669868921659  0.8296152239406032
  0.2363121999378559  0.3344173765490571  0.0706538189979461
  0.5813385573469882  0.7569454485438346  0.7992816396260785
  0.7149841787361716  0.1458345283642311  0.4483692024473401
  0.5682921467238802  0.6714407462702194  0.2621627553371466
  0.8590246618506945  0.1250601039331390  0.5235959697499986
  0.5230827563771895  0.7477799837611017  0.2783125485833939
  0.1871016826858299  0.4825881444778746  0.0782323347609821
  0.9610392115327097  0.4418741634166049  0.4798565216493841
  0.4704742318916121  0.2297749667304182  0.0982070892313737
  1.0264085727647525  0.0066503452308918  0.1943047842843159
  0.8852059224023622  0.2146569029750718  0.7440966194008267
  0.6305529600343481  0.7624284267947844  0.7577123492820358
  0.8353808007950502  0.1836294915874973  0.6762635262814770
  0.8398136708901794  0.2647622088868579  0.2176298169170365
  0.9556980490662527  0.1955889123247614  0.8246183497522933
  0.2385706941338889  0.0482070704808978  0.9527639481761825
  0.9787060239046320  0.1070160289866699  0.7312376162624993
  0.7075031115501126  0.6122895516170980  0.4602718529361953
  0.8141140805982116  0.0649559533601733  0.6800546860571108
  0.5811146454276753  0.8094954006825325  0.3952033200587716
  0.6144220642627876  0.9264180432969734  0.5486511118455946
  0.1959157366614968  0.1360516099410828  0.8070743738033000
  0.7810141305903214  0.0865391469221641  0.8999619136453557
  0.6716913185056494  0.6834113223756985  0.4629523333561575
  0.3704917887498564  0.2789460013328214  0.1082878871742290
  0.4804165911526024  0.7810994028038816  0.4845493148719714
  0.0226194831999517  0.5720492284473877  0.5889237940708310
  0.6405577285765869  0.8848859954984400  0.4532769545189962
  0.8657018622125928 -0.0422743950007899  0.9795508522415978
  0.9546759096146531  0.3903039205652841  0.4501920231270257
  0.9743882412414595  0.1611284055027521  0.9496089860995613
  0.5709717482992399  0.8895600327337633  0.6624050789650383
  0.9812990348765657  0.1158790573410537  0.9049182731213796
  0.4014948449070221  0.3139063560047765  0.6806745013077751
  0.9865461402480805  0.0933818383551499  0.7934300856300149
  0.6014998081687212  0.1886793300567657  0.5387801496104008
  0.3593948043228644  0.1740092532787210  0.0792726397715458
  0.4213839340742875  0.2806810894839227  0.4666994685056128
  0.4609126545467491  0.1397929689454254  0.0029905484263084
  0.4351325722189567  0.4990730106789787  0.5540630230023116
  0.9505732990907488  0.6756334006802736  0.5012201353448527
  0.0314282389749621  0.5177191621440297  0.0212649869562966
  0.7684186224571528  0.0596235641513345  0.9582713872193765
  0.2551689550299996  0.2006512120089439  0.1502141477273361
  0.2572765487628696  0.1283050633962975  0.8283966195428731
  0.6681609292912342  0.9610287234872127  0.7964493864305500
  0.5356292771406028  0.8741057124582798  0.5255334350403430
  0.5170348656200396  0.7528246353182224  0.6099837670189847
  0.4058865355973571  0.7356205639790280  0.0120934607899678
  0.3622955960233911  0.7589480334070632  0.0485981600539354
  0.5350574844728245  0.8410761199685859  0.6596827616106433
  0.7656495373839155  0.5932903915335845  0.4162351271907433
  0.2140800310825915  0.2127302347468546  0.6905427151411840
  0.3559630997984454  0.1709936841526898  0.8559506753189635
  0.8532848287741597  0.4328457421104038  0.4430708337189306
  0.8488304958866110  0.3855400989911276  0.4068058902654130
  0.7966312370172894  0.3683683386282496  0.3348761362104559
  0.7524038913431239  0.4432732486282929  0.3475439624254079
  0.7661875129671417  0.5647599222056018  0.3102291603221722
  0.3953314219355131  0.3729555262435971  0.8904769417984846
  0.7604950151397084  0.5497948242111343  0.3717318829648175
  0.4482876648017591  0.3778502529580408  0.0213514154224354
  0.1816653538818988  0.0300651271571229  0.5448257795726812
  0.8963656308572110  0.2475060279854241  0.1799485699469195
  0.7527927578220245  0.8802495209090377  0.0274224421667442
  0.6541970054143962  0.4560197916695940  0.2518357523070267
  0.3569116022310132  0.6693168226872366  0.4828071013103451
  0.6097459581328588  0.5347011457247474  0.2697416005073354
  0.6600475250666423  0.4849161724917874  0.1291227884091810
  0.5078683903408674  0.8990406082042857  0.6370079613949362
  0.5836786078239018  0.8545545349818834  0.4443812463547264
  0.9860749116188953  0.1545306967130146  0.3585137247846256
  0.2621596717365283  0.8211050297768550  0.2215646716430319
  0.3089579874584375  0.3174657644740657  0.9258319994659674
  0.1844442496625178  0.9565894816035561  0.5603243513736467
  0.9892708699182774  0.2038985511674846  0.4059615245728108
  0.2247918380341528  0.0489936530953100  0.7156301745168386
  0.2121125571703057  0.0948265657466363  0.7661050471989546
  0.1465877199107496  0.1004563529794938  0.7411452327110910
  0.8939262347988909  0.3111399974190236  0.3965151831210036
  0.2068894664484627  0.1212973951992132  0.8682843537674954
  0.2870697995973904  0.0584452554879935  0.9074298907972367
  0.1992155572029458  0.1509523505831753  0.9713077459830938
  0.3497978581806673  0.2010538511954210  0.9601094190174159
  0.1191173810264478  0.0349716419365318  0.7980504873132508
  0.4681583870739421  0.4260389895810944  0.6312218716989194
  0.6534161655096847  0.7040134530807572  0.7743652002659319
  0.5828227618347277  0.7266105658042611  0.6904976977287686
  0.5815215616870107  0.7931164236923034  0.4553024779463862
  0.0994865076956532  0.0636038315566430  0.6727659561147556
  0.4380683492760403  0.1030940271728496  0.8958733814564811
  0.2104098085199117  0.8065288256755073  0.1523381542380083
  0.1884634573543336  0.5193441393985464  0.0144333509250707
  0.5893728340689945 -0.0007352056778526  0.9204403767668712
  0.2578813977083641  0.7444624741715826  0.0712552794737458
  0.0609761677560583  0.5091218302542014  0.8182050185621883
  0.2058023406169358  0.2150210701425214  0.1855013305810902
  0.8904894717202008  0.8113452780091259  0.2730239371477948
  0.8130850114220687  1.0025913721161597  0.1196188955014318
  0.9384081807151189  0.1847138293723228  0.0993770128860862
  0.4166383591513065  0.7905323805294545  0.0548247454824820
  0.1392111976580510  0.9029522890588171  0.8990026053560212
  0.4208537398751216  0.7447535258540502  0.2405784757230304
  0.0012927097792415  0.7941293899956117  0.1418982660383342
  0.8296380297340237  0.1656904191616982  0.1236652628996998
  0.3227746091334702  0.4237063031418389  0.9146148481156872
  0.9911407119665600  0.6415823644762834  0.0748902892655574
  0.9418076643155014  0.7026430884483991  0.1527117683302066
  0.0729497246438175  0.8354334523590770  0.9868470379930273
  0.1545216971165895  0.8358143331936356  0.7443447756205817
  0.3368815506296065  0.9772801599706750  0.1923357303283724
  0.8448990963922423  0.8078568154157333  0.1433748744851233
  0.8520089628727311  0.8825723695442422  0.0584795607685186
  0.0020377073894760  0.8106138737869235  0.0828153720974970
  0.4012145703535277  0.4910558771972193  0.8176131737064811
  0.3774321023446734  0.5488935207218452  0.8022580446994007
  0.2526577353756075  0.9035396860109586  0.8872569503545755
  0.4490751489968199  0.5294666333237718  0.8824696123520547
  0.8790639846389193  0.1085624168281235  0.0439621355686126
  0.2762770165849520  0.6138176660416365  0.5315932771501450
  0.7331128684850183  0.2499892524966208  0.0099755483205283
  0.1808542556757061  0.9268678273199384  0.7983986935982279
  0.9426614726321035  0.7167879976492899  0.0927846562954229
  0.0795631206982436  0.1006582992652050  0.5403612781852862
  0.8518515451702895  0.9014690424425403  0.2304699584073200
  0.2133009849423842  0.7291811517170972  0.0067666763960819
  0.0972451034242378  0.7300037270689232  0.9591636692192074
  0.1736706605411742  0.2942816318791205  0.5520604301825747
  0.4189912328635568  0.5707528235520759  0.7058651784133426
  0.5220674143269980  0.7304019577406293  0.1112261170036686
  0.9179987337788199  0.9724392752380374  0.0478888204640374
  0.7798903437976885  0.1817012260900810  0.9336962303887837
  0.9786113108368864  0.0670161562566920  0.0357763376259728
  0.1585329847473937  0.3688536144133096  0.7019366703245271
  0.3595541670230153  0.5783564382069437  0.6839786843232939
  0.1882086504365250  0.0338576011639162 -0.0022012087146204
  0.8561258551037514  0.9315851790237761  0.1049749015814577
  0.3287703094774309  0.3631756207968762  0.7049532689438203
  0.2055479790284112  0.8927188444431526  0.9282279323736633
  0.3772115816669091  0.8539543892169430  0.1293216896978994
  0.7905394906181267  0.7911042339604193  0.0724882168652015
  0.3183937671567548  0.9166421299762646  0.9097560063399039
  0.0382761568630509  0.1260088385024264  0.1547694257756150
  0.3431690403259227  0.6066510476460003  0.5557948417584987
  0.7784953407863868  0.1664618623639254  0.9935659649341263
  0.8536711803139212  0.9452111272891296  0.2724820181352927
  0.4759737631248308  0.8058493092648668  0.1289072714397197
  0.4226865343926809  0.5735840353598604  0.9470694274742933
  0.8248846445638290  0.4366920052793002  0.0309327450566841
  0.8178844770737025  0.4450830343313683  0.9706720859958519
  0.8687670233788264  0.4546790629826015  0.0950742657325889
  0.1403228175824412  0.2926798482169439  0.8204284730932213
  0.7084895102968264  0.7265511251860822  0.8995513042459046
  0.0368413764574967  0.3067008540814867  0.0105536474269833
  0.4235201734364152  0.0608961639624286  0.6164253617222207
  0.9832035091929562  0.2585267994650348  0.7718853859879851
  0.9607469880416820  0.2994516655385808  0.0560518566421371
  0.8495056268704164  0.2888080949398181  0.0903007032137872
  0.6359048298621728  0.8031872619399107  0.0667731156263209
  0.6760371632075749  0.7421939675752151  0.9942814474411650
  0.9839756916140903  0.1100024093891698  0.0797338023692283
  0.0817866592741484  0.2992890651828695  0.8030764271894023
  0.6590986172392650  0.8062328531315921 -0.0091370499724391
  0.3389418434096693  0.9883056693147708  0.1310098247769335
  0.1474329733830475  0.4680625780325326  0.0157280777734860
  0.1552976805603714  0.4282865069970003  0.9127214916202517
  0.1067446839204279  0.3926399546113431  0.8487751333513868
  0.8712309950877948  0.5018312094614160  0.1391971740723706
  0.0940542830176200  0.1193862417112623  0.8876550310441887
  0.1509026587817644  0.2779256592764988  0.8819908753266089
  0.4600651590932371  0.6341006837237113  0.8911925044605652
  0.1997517744415599  0.3157442565374054  0.9510187740975824
  0.1759525931548934  0.3726967125253481  0.9307158247556828
  0.8056018169395318  0.9428853228312191  0.1398755740610873
  0.0230835487167054  0.9727182865284745  0.0801741862953288
  0.0001612860457803  0.3415501194176281  0.4917146468161086
  0.5411437732983287  0.7033235386856104  0.7928557354410150
  0.8961025756556142  0.7919817416910945  0.1095101936555101
  0.4508085242457003  0.6491791967112420  0.8246903103823159
  0.8985065862358762  0.8059104749080042  0.0461919890645601
  0.1362534441189927  0.7557708967383787  0.8569467358458770
  0.1675988594223140  0.7936664976402636  0.6986767216429345
  0.4422430916588777  0.6634178038855520  0.7619403184891833
  0.1771995959944429  0.2370385510717802  0.5114911365628847
  0.3025338756530710  0.2698354855669702  0.6567473134551717