Cr N  Ni
 1.0000000000000000
    39.0510843612861720    0.0000000000000000    0.0000000000000000
     0.0000000000000000   39.0510843612861720    0.0000000000000000
     0.0000000000000000    0.0000000000000000   39.0510843612861720
 Cr  N   Ni 
 1596 213 3725
Direct
 -0.0600734366898705  0.8543557172519282  0.9689615243171210
  0.5757889166888581  0.7321050956159058  0.4710051788721328
  0.5309551336529629  0.8395984031851654  0.3686534076061036
  0.8052933177947741  0.7676371050554912  0.9340216286394917
  0.7260817003970246  0.8204439644271339  0.9602328974224666
  0.4244279402268498  0.8085174471609767  0.4562712353196893
  0.4338024410882570  0.9340321171306313  0.4213146048073214
  0.9332984194957628  0.1264324271314418  0.3512024338279696
  0.9870779512409532  0.1353475812391244  0.4268841756670161
  0.6034278799370344  0.5181322333057817  0.6680172156043864
  0.3170455749221687  0.6704463197321743  0.5350678626045967
  0.8678936895825800  0.0836506589808609  0.4106667178048262
  0.6498785966530440  0.5533449815739924  0.7353728263947458
  0.8890921007013759  0.2494080158579394  0.4126745554731397
  0.7102343944426496  0.5456456561953889  0.7565950965405901
  0.6369008954420942  0.5971955782059007  0.7840223937157825
  0.7365761262784338  0.6371344412094065  0.8121392308415422
  0.8369789063352986  0.3125330528641026  0.4877932184926745
  0.8934879764339775  0.3581629124450441  0.4369666430688718
  0.7327736336803334  0.3603509631039977  0.5001605002557150
  0.7827185288009136  0.6734281913513649  0.8805593188227369
  0.2543618281143060  0.7004846421729759  0.6290248034282253
  0.7501475643891339  0.7469151517464570  0.8040286571982215
  0.5685896260420186  0.6105597889598224  0.5174414838145711
  0.4449643878093246  0.8139045636159452  0.8009197147708121
  0.5402797267883270  0.8572203370389740  0.8279384076459338
  0.2580131570666351  0.7434065700232309  0.9071321679071084
  0.5049755259339701  0.8076425111202657  0.8220208125678661
  0.3181240696359582  0.7436950551685312  0.9291968346239424
  0.4352066565165382  0.8277173046266905  0.7373536963193694
  0.4725272912561350  0.8771564257735059  0.7427168694599475
  0.7889931694236789  0.8101226380492564  0.2385630371543980
  0.3474634040752779  0.7620843792260183  0.9872158124216607
  0.3796046822244383  0.8072220855382009  0.6097144252232322
  0.3242301637910513  0.8536050872707450  0.9348317657735798
  0.0311220103760459  0.5568376015701259  0.6460599645105484
  0.3810157335160086  0.6629382391304258  0.5643878674058653
  0.3664593489734963  0.7012447562620825  0.6155289546702147
  0.1159353326629317  0.6369265860714304  0.6992988821211009
  0.9891122052596867  0.5340024957923721  0.7422568117325352
  0.0873042111175225  0.5714408233889381  0.7567705969265623
  0.2364776458383001  0.7708840028795996  0.7816245071216974
  0.1399926711633827  0.7287306604243597  0.7507363233646590
  0.8200582829186213  0.6314647974025979  0.4286125262644648
  0.5940462951721134  0.8860661810525459  0.9566092016952080
  0.4810964888321592  0.9335048256186314  0.9660037939727194
  0.8029871802429859  0.4491757158714846  0.4833437503858594
  0.5897239032361129  0.5497131618425001  0.5436575487190073
  0.0598177445002213  0.8700956752389524  0.1957782931249515
  0.7797294779323344  0.8109976818989882  0.7498274103120419
  0.8333337688935988  0.2147613666576556  0.1696071580245630
  0.4311794034750824  0.8872549230321845  0.3765327190441976
  0.7600755262889942  0.6482842957072458  0.4670525359563522
  0.3945165332525740  0.4768056020869510  0.6547606806255899
  0.6618506516253283  0.9760798666575473  0.7300415179505514
  0.7367608369475656  0.7900012174303288  0.8487733036942371
  0.6677490773665282  0.9610636811712797  0.7964846955435151
  0.5810447229578807  0.8093238210614424  0.3953045843777711
  0.1958746766676570  0.1358007781095443  0.8066646603396630
  0.2570318781353596  0.1282350851651453  0.8276578843156089
  0.5354119908543767  0.8744649041799790  0.5254857872040608
  0.5835215972551837  0.8542997305541418  0.4445598099130211
  0.9865072422379150  0.1549369562536773  0.3583405524219950
  0.3091695731330040  0.3172816625959941  0.9255604319457530
  0.1845526331781071  0.9564836807198657  0.5603325051740787
  0.9899707374173540  0.2046988576137727  0.4055181893410797
  0.2245271829027075  0.0488403280964525  0.7153548534423732
  0.2122302038260070  0.0946376337153748  0.7659096363232815
  0.1458389226605235  0.1005657540697387  0.7407395293397262
  0.8946179301161156  0.3106277848671599  0.3953945589822229
  0.2066630886526964  0.1209810707358299  0.8680221917819869
  0.1725040420082810  0.9320620239038414  0.2122576520710279
  0.7960441151958348  0.6286784497074425  0.8354863012828955
  0.7022556748279073  0.7104551234082469  0.7367387748110129
  0.3130189940451878  0.7608174808978186  0.1432049205816764
  0.4628829138380431  0.2752643239123880  0.5955919838058736
  0.7365005858879771  0.2585285004558804  0.1790451027675997
  0.5995609403262675  0.2621331796462617  0.8615336807271216
  0.6194283795063251  0.3399206263292736  0.7473580536932373
  0.7350893735330707  0.3524125505602451  0.8973825297867876
  0.7211066791139846  0.3952512771984454  0.9416899870862816
  0.2503233041273107  0.0622423896342976  0.5418403741080690
  0.4113898822989491  0.1177125013676665  0.6040121584379926
  0.3798240085884338  0.0568337594643642  0.6590769496319765
  0.4465228947945413  0.1975849153804053  0.7149233187500683
  0.5054783701140014  0.5798469664329364  0.2720670066494566
  0.4606753503538318  0.6567104712943713  0.2868959946489387
  0.5159488629798262  0.1779234605785968  0.7947125604553907
  0.4731372512527754  0.3098002825697991  0.4744240370317320
  0.8417698178216383  0.9786914916394135  0.6028290698384114
  0.8178112722803786  0.9013943801754232  0.6281713066661934
  0.6325275437724923  0.5858962917468031  0.6147747919178534
  0.6795234047885433  0.6193983268739716  0.6832972997801146
  0.6051703068874406  0.5971121761159606  0.4708871570911917
  0.6478913089887530  0.6939513647322192  0.6080939912163250
  0.6660028172957064  0.6615148765239617  0.7298788188851535
  0.6940849685858429  0.7260312666621479  0.6757355079602356
  0.7660319254311121  0.5648255344396550  0.3099469603503990
  0.3950195281844034  0.3731137872987115  0.8901482886515373
  0.9944665792699383  0.7173832381611844  0.2172390414113038
  0.0763616200343036  1.0160501793151058  0.6310052779675058
  0.9335696655625262  0.6089843776945697  0.0671176845509868
  0.0589003623389822  0.0425860807065635  0.7766565452867050
  0.8545992165171565  0.9609268525024732  0.4487522616157845
  0.9576596278090457  0.9802948663754224  0.4176249632570744
  0.9516517819040479  0.8555707015318010  0.4583199408409855
  0.1855029686144111  0.0411919926663747  0.4739048138062319
  0.1338706732577346  0.1702710068423789  0.8899123134037974
  0.7666780357120794  0.4550214566223507  0.0576301867915393
  0.8618740726524416  0.4263791410366877  0.2178739606181500
  0.1342212926179800  0.8680780815907089  0.6211921976144976
  0.0034155547457419  0.2774407185886873  0.3242077285656145
  0.0980399528724694  0.0901208544152184  0.7821633165640304
  0.0232259956281820  0.8667195040586463  0.5475797550113443
  0.8461200727020955  0.3063532882865889  0.2590721843453203
  0.8078897739682124  0.3636443500373966  0.1061528836590005
  0.0878490526147473  0.1063667119351189  0.7166253471346160
  0.7441337650216758  0.7613629285186583 -0.0196790096747739
  0.1274675523664867  0.9895192251328304  0.5326948405974269
  0.0014713367645438  0.2605200174449849  0.1569418372028311
  0.5293624241489199  0.0034376495451888  0.9026853919871825
  0.8911647997934989  0.2301691582730470  0.2441410935220619
  0.1480145328331613  0.8291403164469680  0.5794397726576986
  0.1987777582319061  0.1504881499834121  0.9709586548810776
  0.0771139897942571  0.1473835815740364  0.7614587559746583
  0.6569232866268691  0.5025039318862804  0.2929583844430341
  0.1069662552785677  0.0767611967934098  0.8461081815745700
  0.0689085303633353  0.0253027168287794  0.8396273351462051
  0.0307371843938553  0.0842625241042541  0.5856594821863333
  0.0542933053241414  0.8120981430982039  0.5738979172121190
  0.9543534321168926  0.7815685356385864  0.6512283897873248
 -0.0033859378480650  0.8203751713970570  0.5961242888447519
  0.3442529423447807  0.3594864740715371  1.0029723950755334
  0.2606784022588710  0.3103035458754899  0.9648883550515510
  0.0986961143316496  0.8164749183909727  0.6160374461501776
  0.2605056184707248  0.2790370197955986  0.8611354440995982
  0.2440780629428984  0.1709301443521103  0.8717298555725913
  0.8372804864299217  0.7297026920284686 -0.0056366324838368
  0.4360830195572507  0.9158680860463372  0.2508212170872820
  0.1045436840722003  0.2128677398601319  0.7065326980113363
  0.2123287112949848  0.2426357673347369  0.7959555260775060
  0.3825783818329501  0.9456840220956361  0.2215592744086945
  0.0650937298182949  0.1921786932385616  0.8072469975479103
  0.4803463137348379  0.8392050349704295  0.2346251315380267
  0.2636053592779768  0.2188393961378610  0.6525644722757710
  0.8381987298000645  0.7131284120952095  0.0562454760633412
  0.5687304765956047  0.9535304350251760  0.8782294126409197
  0.2780322795903961  0.1000928597670046  0.9540312595980837
  0.8402410745718139  0.7666341509372379  0.3247227990263690
  0.0967700682306580  0.6886106512610919  0.5001980961994336
  0.4382971876885480  0.9422008887198801  0.1227502660423575
  0.2669989732985988  0.5508236432954114  0.8203725474469525
  0.3680651835089188  0.8236809117325341  1.0178432071607255
  0.3674810009415318  0.5631401226900132  0.7429469875790445
  0.2816722189687682  0.9432177356469462  0.7176917852134366
  0.2337924475161551  0.4703621194209810  0.7100375890792862
  0.3697558647998739  0.8059740704131266  0.0879595132091382
  0.5747706047325101  0.7231682001093676  0.0199444513809015
  0.4666174695826227  0.6560203350022779  0.0569539413031448
  0.6242433201619505  0.6512970763494087  0.0019414675904012
  0.1280340848689944  0.4399358313034418  0.6277534761171523
  0.3083075473951969  0.8749380504817886  0.8016931280589614
  0.9210323820452869  0.4384454022081740  0.0627213898998865
  0.3395784917955188  0.9661417870108417  0.8593882759721934
  0.2985303323801450  0.0045529545255727  0.9346256564125196
  0.3169965275722307  0.8550765073041106 -0.0027056748226250
  0.7954514958825930  0.9219607472498843  0.4986500145386206
  0.3983237969497410  1.0067234744735618  0.9653225678249908
  0.7408399548902656  0.8397578623378538  0.2117560072549882
  0.7592289186086020  0.8197406014801899  0.5154090885346778
  0.7782941054003095  0.7183617869613198  0.3779447990407726
  0.5394041992728917  0.8977849884881873  0.1177888394970491
  0.7604512177515607  0.5502689324067349  0.3720342908955181
  0.3396097945266028  0.6486496834614387  0.8377225750327111
  0.8285992013300003  0.8117250962041801  0.5424191707461878
  0.0662455944874304  0.7407415117024252  0.5427923404650800
  0.1002967743545202  0.6670386825968899  0.5786511075731937
  0.8213466787778413  0.5330610580575684  0.1118985066635755
  0.3962029053496812  0.6427695293852480  0.8632681162526155
  0.8879941055842079  0.6824559358911467  0.0825505787949109
  0.1578411410967694  0.6591279304935862  0.5986739802723006
  0.8529888053151922  0.6522876901145587  0.4838537638709491
  0.3023733176762549  0.5991248744679546  0.8315165224931756
  0.3317105951711114  0.6633992518494489  0.7756368771689440
  0.9577956500499416  0.6092394263590554  0.5025538192785061
  0.9928752237043659  0.6852467328459493  0.7881618407534113
  0.7842345984743169  0.7153993695503001  0.1505750115247550
  0.2861671828035424  0.6293027307000174  0.7093680400477744
  0.9142307396300128  0.5262032441074929  0.4382714264115606
  0.2709613419598940  0.5200475724256057  0.7167037336823914
  0.1684226099824086  0.6154857960478610  0.5532059777697944
  0.6934575314451540  0.9112879932884437  0.4775680238068973
  0.2191296021385861  0.4426132704666603  0.4662015828376036
  0.3614200514510768  0.9055296383011505  0.8703439862155523
  0.4886359322679550  0.8733250147189576  1.0377794512429237
  0.8413290961239991  0.7271982371457001  0.4488632827245157
  0.4499321270840992  0.3775838790716967  0.0192154854549175
  0.1817588828746183  0.0300789438277863  0.5448240135730062
  0.8965391888690227  0.2474561444219712  0.1796463426096012
  0.7536164930604721  0.8803173043607641  0.0268044382197615
  0.9347278764435732  0.6203103242597182 -0.0023214548590977
  0.9134367650610687  0.0063418439178330  0.3925568300528448
  0.9347425587753581  0.5545521877273080  0.8877772124033416
  0.3273923441502505  0.8388004734697435  0.5275415243945297
  0.8898984831050909  0.5209382404718418  0.8191324730015275
  0.3210802255603395  0.8091105554131258  0.4193662014197019
  0.2949625791901948  0.7004909365740573  0.4763945337503326
  0.8745049415463946  0.4108722545312617  0.8281633897704357
  0.6262773239183751  0.1440843865914031  0.6697975057059351
  0.3213436914818221  0.8419400031837037  0.2952523406545707
  0.6746247725889074  0.1515284328281145  0.6264869652474155
  0.6176305190130248  0.1613947517100970  0.6078302051346811
  0.2072418339898187  0.7654121343882792  0.3349333992677306
  0.6532744555709509  0.1007770612868605  0.5125621267360297
  0.6537191404959450  0.1204590183967869  0.4458341810991940
  0.6272557180712638  0.2942491975871918  0.4766879938721866
  0.9280586089956476  0.6846879111278085  0.6000881813085226
  0.2271829780664154  0.9660653636403489  0.4577707630033454
  0.2169686998400575  0.8469564196456100  0.4441790855878106
  0.7999128308329626  0.6896671224414870  0.4986443824553387
  0.8320302016573057  0.5026680980179019  0.6939683351462459
  0.7331293822866106  0.3095832482870682  0.6235916191887526
  0.8795064539173352  0.5370508051835060  0.7617980137849160
  0.9038565942689638  0.8157874119803119  0.5110429945854450
  0.8969970708224213  0.3520951901054767  0.8461563724237277
  0.8192834371082043  0.5441602653391344  0.7390314837120516
  0.8375539391575297  0.2006848020601996  0.4641403987398380
  0.6311582266951432  0.2970846480516875  0.7021625632519547
  0.8225807095157501  0.2248433543753850  0.7217837769752198
  0.6088726008788780  0.3531883451424058  0.6874246962575182
  0.9306768775496371  0.1111224742020652  0.4181173249055672
  0.5714144985676195  0.3041930460658493  0.6812277965905611
  0.8623949604493781  0.0706603606923204  0.4770672040655421
  0.6374372857438477  0.2693394983637489  0.5974536069529915
  0.5380986458637967  0.2233006667646077  0.5735392867456794
  0.5232961019271908  0.5533215764183145  0.5192560896354264
  0.8820881044966407  0.5460192971124952  0.9442213437560997
  0.6472459706070784  0.4566138834088243  0.4774868547691786
  0.9947407912500417  0.4293388013998891  0.9759901177674452
  0.8542099402579110  0.5029047312693411  0.9144031358245719
  0.7337260489066675  0.3097055817533067  0.4534425896210958
  0.1175687093552428  0.4116296476922032  0.0182607688113977
  0.9080208677189675  0.3392800474146041  0.9059845646512342
  0.8465974446807558  0.3477731413912032  0.8829878950841320
  0.9097682204903031  0.3089168651741487  0.7969557269481368
  0.8342516791890401  0.2446625456794465  0.8883202574401196
  0.3888106518322865  0.4587570743048138  0.2754019287114580
  0.3552807229782158  0.6774930750304077  0.4193139128641686
  0.7416280633026767  0.2939413443708206  0.6849407757684700
  0.6515391864054229  0.1666586891390387  0.5012234285933107
  0.5968881589895185  0.4571683300826400  0.3459613148227298
  0.6598498430618018  0.0721094933734611  0.7488699265830885
  0.8808107623168833  0.2615491395880031  0.9563277010289788
  0.6584998885514720  0.0162816967360683  0.1154578157826379
  0.6884951881594750  0.9381499164273914  0.9223618618889452
  0.3985904947127462  0.5328263081523595  0.4831323243495856
  0.5063854066788289  0.6106378791094575  0.3760134846590052
  0.6485682730969522  0.0489335301794580  0.9188099560886347
  0.6824918564079124  0.0531994513578332  0.8775820808333455
  0.6429022092500772 -0.0003849863434453  0.8744167409065385
  0.7268205292097758  0.1567507462733080  0.9175567226272633
  0.5464494200097767  0.0431907552780554  0.6636380858612461
  0.4846847486447907  0.0535940899266045  0.6359535653863680
  0.4714730481904372  0.0178959025360905  0.5786733888639818
  0.5788742744651780  0.2901273509529733  0.3436552231734921
  0.7623618527348678  0.1465400364643532  0.8760108408386363
  0.6971302471031419  0.1545385462229686  0.8557296749637825
  0.7661073096617198  0.0669053399190606  0.7244470611805665
  0.6967473064948829  0.1222676514128082  0.7521851868901122
  0.6066386864842891  0.0361213518430496  0.6840104386997110
  0.6824362192495539  0.2598045115264426  0.2747110815821293
  0.6536512446358262  0.9827713802768467  1.0071240366672105
  0.2730488784947729  0.8829786997152757  0.4421406166753049
  0.2465744119526241  0.6761451557407359  0.3899239850534888
  0.2212256390452065  0.8742411870617178  0.3667265203084447
  0.4894775994654898  0.4124085328110840  0.2676203192337483
  0.3494763349555239  0.5952707473475439  0.2720973853418412
  0.9837051338334253  0.4376244373014331  0.9156203039018577
  0.4020748594866051  0.6121934278160402  0.3406321582985152
  0.9714676532487228  0.4542558168087020  0.8556114899204361
  0.2919869240818527  0.5515537414223349  0.3242810215377063
  0.7247607022028691  0.1846038872290438  0.6950252796716995
  0.8107097061066940  0.2692929203399029  0.7670851962875098
  0.7290588759181060  0.2174363708794433  0.3636150567319508
  0.6966268198899053  0.2602222216503131  0.6208281240525277
  0.7831792834529139  0.2328788570285103  0.4348328197632435
  0.5567631682942756  0.1952763992719885  0.6922872229184561
  0.7761187169361490  0.3705291569998101  0.7985190878737938
  0.6125353191202587  0.1349001786000849  0.5527698710469618
  0.7687022361005750  0.1267574875816641  0.4118662147629906
  0.5340636881339544  0.3350905633595496  0.2539813118781434
  0.7077430396635217  0.3953523546056422  0.7155558484164760
  0.9249581296554196  0.4454531591474303  0.8932198528258936
  0.6585027111747818  0.3591210311972391  0.6500597154170257
  0.4777962299236498  0.3050454461614400  0.2459785697120699
  0.7124038946360477  0.3711145028103401  0.5966171176804860
  0.1629085133248256  0.8414217184265127  0.3570230235629910
  0.3498128036223563  0.2016417815286238  0.9602049475502050
  0.1195103463616022  0.0346429918048822  0.7976243102811386
  0.4218053392373677  0.2793968710299118  0.4672627259032568
  0.9556060933375208  0.1954095779016729  0.8244243824722577
  0.4345864196126329  0.5001705943047954  0.5524463777717142
  0.9783518708224236  0.1065897891321021  0.7324233863922572
  0.0312479414836993  0.5177514633805073  0.0212421899009972
  0.8139562312345078  0.0649756200408930  0.6800529070271187
  0.2552983851405164  0.2011607278361210  0.1502116447236357
  0.7416978434126261  0.0319562769703483  0.6186288417062970
  0.2059664007230437  0.2151469372683991  0.1854655219919590
  0.2371536649853101  0.3351199617131421  0.0703675423720348
  0.3092613330074287  0.1277492101949006  0.0076009264545446
  0.7150077316188844  0.1453850965421768  0.4480549241084857
  0.2499184902663041  0.1102850867780441  0.0517097002423149
  0.8593371717951004  0.1248145591581934  0.5235493110130187
  0.3058625769879373  0.1423072508806610  0.0692077516869452
  0.1870084134644694  0.4830143457360872  0.0774719594438197
  0.2450792883498876  0.0970402197740820  0.1220810342428597
  0.4704014259752487  0.2306489377486341  0.0981510204360984
  0.2925271498095218  0.0797684919144253  0.0897329186060006
  0.8850638927103497  0.2146161750642993  0.7438473715558321
  0.3395324199093200  0.0705583517729753  0.0511868064407007
  0.8352180210686033  0.1837294195493551  0.6759264735240360
  0.6532163444609944  0.7040534885671008  0.7745051266658454
  0.3583019155109594  0.1869864426295608  0.0202206082891145
  0.5824719595436826  0.7266168552451278  0.6907291914810848
  0.4605702473880138  0.1402803645317647  0.0029746197609936
  0.0270838812434454  0.4860351313792418  0.1392981690327539
  0.9504878838147823  0.6756860878051083  0.5011937191883931
  0.0759447653295050  0.4224473696969499  0.0591613689375921
  0.7682770933144579  0.0596732226206287  0.9582005128481463
  0.2461863112770813  0.2898889330598264  0.0157797532207124
  0.7808584344730214  0.0865485549864150  0.8999156513985198
  0.9585053466644805  0.3355880150187148  0.1703380634015990
  0.3696741958540282  0.2809123538406382  0.1072008921263513
  0.2187611778519872  0.3355228087910028  0.1502294481278166
  0.0222961014813578  0.5721428590025660  0.5889270292750285
  0.0870129976357604  0.3155305479631380 -0.0265823843962791
  0.8661780495428177 -0.0409792665599314  0.9794542101947573
  0.3435458513313198  0.4355210584056431  0.4410540438515383
  0.9743749326757266  0.1612766495662867  0.9494131474215031
  0.1261976767250492  0.4599662242395371  0.2982611033131630
  0.9813228152328403  0.1159955852632154  0.9045663965829005
  0.4176220681132760  0.2467468737075479  0.3611422106908617
  0.9858781901281072  0.0929489056855051  0.7933610629465309
  0.3667532402562264  0.2644275956078709  0.3963887734036623
  0.3592825078220445  0.1744045551004106  0.0794453670322206
  0.5619327682355059  0.1242692601135435  0.3343482847985045
  0.5813232338571954  0.7928666792049776  0.4554675404744006
  0.4680039273030490  0.4262359788113122  0.6309287732585349
  0.1383806764626453  0.1143392622570357  0.6751066976446684
  0.6541934387054829  0.4560289738976647  0.2518548436436090
  0.6092706372045236  0.5343819252446993  0.2699115672637378
  0.6600564724714114  0.4853065786593569  0.1291441535736747
  0.6053190869818308  0.6691910547292498  0.7074083499727979
  0.6238658609801122  0.6388525932387993  0.8297953468761232
  0.5805172345949097  0.7560727109704696  0.7994000448580166
  0.5684576055773742  0.6714641806631624  0.2621692533948188
  0.5231022504269452  0.7478313671012063  0.2783668518434768
  0.9612135109707641  0.4418441810031194  0.4799784609713639
  1.0265746571074739  0.0066300472593041  0.1940947417577848
  0.6298941358784870  0.7624857813626158  0.7579379527780472
  0.8399407476132764  0.2646677540365527  0.2172469112661863
  0.2382355390220851  0.0477692525397345  0.9522592230572511
  0.7027725439640387  0.6128000101437463  0.4646995718211053
  0.6148697328555711  0.9259530791462565  0.5489265976746550
  0.6739468896051481  0.6825164064437994  0.4623722624602556
  0.4802363133857486  0.7807529118869249  0.4845559214079178
  0.6404067506143113  0.8845476133133090  0.4534108568287719
  0.9549277906688115  0.3903247659715565  0.4500767273829241
  0.5703679063630870  0.8901592945893413  0.6636974824073025
  0.4014129700439463  0.3137926657390732  0.6805020778366395
  0.6021935673040556  0.1881720090806024  0.5387897175027122
  0.3560482638175118  0.6690009819739612  0.4827652695907831
  0.4381248133424440  0.1029302822495922  0.8961669191031822
  0.2103893801016649  0.8066342531912714  0.1521661898226911
  0.7968314309998579  0.3681480518603694  0.3344718965978745
  0.2468737886548803  0.5290555325802787  0.0314154294800489
  0.5906301826961715 -0.0026278780617719  0.9210356288854485
  0.2612970624966938  0.8208168001968260  0.2223691227439920
  0.2575084498192613  0.7452071549341170  0.0709531786882097
  0.4413482675459046  0.5125365174640933  0.7199640072608113
  0.1977950387489338  0.1084637301402101  0.6963625332043801
  0.0881785292594057  0.0783682617767529  0.6050912656985591
  0.6883243898463418  0.9040546912777934  0.8171766040079431
  0.5625756461697902  0.5522615782080332  1.0049124224450101
  0.4341575119641222  0.8250366137651429  0.5123237140741274
  0.4937946142871861  0.7566881395727222 -0.0145908340946701
  0.5167831817352448  0.7526710388548290  0.6099765389692059
  0.5070175241954914  0.9001169747929390  0.6374865561294615
  0.4058026294019601  0.7358039826640771  0.0123524987169489
  0.3622713884625301  0.7593097501150800  0.0488065796681849
  0.5349166196754818  0.8413071234956473  0.6605382702223555
  0.7648560476493723  0.5950488888434682  0.4176226459484735
  0.2145436811936260  0.2130030038398194  0.6903214687781942
  0.3556650346693830  0.1708618601516381  0.8557866523958796
  0.8539964811225519  0.4319251752839182  0.4439122299870806
  0.8495558457297254  0.3849268285501514  0.4057958934838299
  0.7524947551607869  0.4433708593948112  0.3475487859364369
  0.0607465636883153  0.5088032092419711  0.8180094638005876
  0.0804762646077457  0.0368071174451813  0.4327864082490627
  0.8901844333022009  0.8118931729083740  0.2728560687728472
  0.8131403535974623  1.0028580663824900  0.1195505073899831
  0.9385635048890013  0.1847222294157581  0.0991726614560247
  0.4166286519588946  0.7909441633696662  0.0549520695788611
  0.1387789613953257  0.9028555310238109  0.8996460843284582
  0.4208205826574375  0.7448951287454385  0.2407705000844752
  0.0008753246485558  0.7940510785562612  0.1421314076467633
  0.8295266007425850  0.1659578159108454  0.1233835489276005
  0.3225247830856908  0.4236296946064714  0.9143508319624080
  0.9913918702626106  0.6414322983775723  0.0746421505135657
  0.9422455106518726  0.7027597080405361  0.1526119803464847
  0.0741165535470643  0.8355242020245728  0.9874906212582909
  0.1641351032537901  0.8207389951209855  0.8044992644513431
  0.3378386279808867  0.9767523249195791  0.1910015652149500
  0.8447886938522435  0.8077024221130319  0.1433018555186115
  0.8522606014628380  0.8820371504652956  0.0571399204100910
  0.0018342346037079  0.8107940236868263  0.0827719707257836
  0.4007976187431230  0.4910897235318201  0.8174923785954512
  0.3771373685494063  0.5487565208364615  0.8022526309548341
  0.2525422035898899  0.9031553689818500  0.8875085711704597
  0.4487270661008479  0.5293989166933589  0.8826868534068881
  0.8791494952201951  0.1088018125233104  0.0438035384325414
  0.2759147626431375  0.6133957442437480  0.5310590800846651
  0.9599702216591376  0.9148317504131115  0.2018856203320160
  0.8538547280394546  0.9454432577838099  0.2723712627092320
  0.9431775886019054  0.7166037252295502  0.0927765779902955
  0.0797923816735757  0.1007179326398610  0.5405808212129615
  0.8519106778986361  0.9017373949997296  0.2301788798510211
  0.2135743505092432  0.7292542869912018  0.0069933192268423
  0.0979481164625049  0.7302568158368058  0.9602915862769346
  0.1731599498801761  0.2940778718335055  0.5525530294363461
  0.4186897354012277  0.5706096146750653  0.7059635958734363
  0.5224356862822593  0.7303464065551425  0.1116182741213423
  0.9181057048890016  0.9727451652771739  0.0474260367860053
  0.7794220902370246  0.1816300177877297  0.9333666589403397
  0.9787716418424175  0.0678718304817831  0.0349765092415116
  0.1584479270232228  0.3687508362854964  0.7020272247354138
  0.3592324181167428  0.5782761841277101  0.6839234195033830
  0.1878644071852378  0.0337201232282190 -0.0027021075671526
  0.8561915995659966  0.9318382230006984  0.1044995864285538
  0.3285637142545788  0.3630858185163225  0.7046306038610118
  0.2054779952105965  0.8924960644493398  0.9284309710811159
  0.3772628823342015  0.8540587933727448  0.1292877414145620
  0.7895921634618184  0.7769796207554939  0.1341537221195114
  0.3187125616182396  0.9162328391780491  0.9101566680109260
  0.0385708723493862  0.1260727389084526  0.1545760184492443
  0.3423682413524717  0.6068177386242138  0.5563167497628257
  0.7336042120309803  0.2496216304480739  0.0102794326293821
  0.1808804370178569  0.9267226832651764  0.7986150826091193
  0.4761387620259235  0.8061073987003227  0.1288193592055835
  0.2010371487572936  0.3147884136519999  0.9515652362996845
  0.8246205812656914  0.4365756783856252  0.0308307560821453
  0.8177755163147501  0.4452232918835374  0.9707119312914683
  0.8686131711783897  0.4545658172209733  0.0950265609468788
  0.1401977954437744  0.2924787612722277  0.8205312967315584
  0.7082257496829061  0.7262479520900540  0.8995163183808080
  0.0365035793772699  0.3067320234417279  0.0109389678688198
  0.4235171627408543  0.0607186886342570  0.6166460440976345
  0.9830721374579401  0.2583261819090382  0.7717665127778947
  0.9606666247297762  0.2995966351753274  0.0561863376587553
  0.8498564383487091  0.2887497842961289  0.0901158333205490
  0.6362803649489588  0.8031101198715105  0.0667023715396017
  0.6762344912097621  0.7420309485253151  0.9944809997535846
  0.9841969207123235  0.1102169317800888  0.0797779473139180
  0.0815851340712789  0.2990645537877081  0.8032476496534107
  0.6591142186055416  0.8060566364399614 -0.0087917164787009
  0.3878283865306686  0.9585072894311262  0.1578082360929626
  0.1478106881156323  0.4678087480968726  0.0156286102406893
  0.1550518712342939  0.4278545102251443  0.9125397995924522
  0.1065673724578775  0.3923420674043554  0.8488604927866513
  0.8711932336517392  0.5016715204762418  0.1392426967514300
  0.0941627542312199  0.1195727002162739  0.8875264954828630
  0.1508684846960726  0.2774152740464506  0.8815549456459115
  0.2847086888356983  0.3739831345615194  0.9114007005059943
  0.4226367898938570  0.5734944652453445  0.9470891532393984
  0.1757709714708866  0.3719424615690983  0.9306566545003629
  0.8057202524910033  0.9430489175339527  0.1396989566300622
  0.9715334750561290  0.0036335661895590  0.0541247955582010
  0.0008869119502205  0.3422474660587561  0.4911988487745271
  0.5408800499963875  0.7030709290323188  0.7931876026582307
  0.8464532406627889  0.8206100040282487  0.0824559710892538
  0.4504834447033100  0.6490642887640615  0.8248627893252594
  0.8991732382393658  0.8055327152967268  0.0456667139609860
  0.1362832995260321  0.7554498132830733  0.8575345427415746
  0.1674320859366568  0.7934131679838605  0.6985873488835290
  0.4418929100568541  0.6632755492755634  0.7620714543111426
  0.1763056979190805  0.2387540299335960  0.5109919808048319
  0.3025581116935015  0.2700412006717946  0.6568049468391345