Cr N  Ni
 1.0000000000000000
    39.0510843612861720    0.0000000000000000    0.0000000000000000
     0.0000000000000000   39.0510843612861720    0.0000000000000000
     0.0000000000000000    0.0000000000000000   39.0510843612861720
 Cr  N   Ni 
 1596 213 3725
Direct
 -0.0559602933240584  0.8565815461647217  0.9684733444281356
  0.9055258174757582  0.4515518063320029  0.6734452297856263
  0.1122292106006986  0.8708383240570339  0.3293710144412592
  0.9211528741378279  0.4088151505491666  0.6298085493911068
  0.8097952351316446  0.4110620376792324  0.6401294067531222
  0.8358486741192138  0.4762077860950670  0.5899227961293479
  0.7747787967418726  0.3766187335758170  0.5595514753345517
  0.2090705676583439  0.7770380237303692  0.2769094857528038
  0.2478309399497511  0.6411909868914234  0.2780722403621808
  0.9528817355171306  0.4862880088520427  0.7414476966102693
  0.2908236783572091  0.7504187803499222  0.6395687339119178
  0.2994747604220262  0.6376919518451197  0.1784391851211861
  0.8523543451899116  0.4300347090663842  0.5416219343155561
  0.0407479520706441  0.5365925726211178  0.6913235674169091
  0.9358457074220753  0.1566076361692355  0.2271011812847346
  0.4920908216742821  0.9839061720296983  0.7274039513328223
  0.9735463903052576  0.7234955486870672  0.6625766223650572
  0.7577301083711164  0.0238579645096687  0.3907647980292090
  0.0985272683312290  0.7190411474273409  0.0307394886113682
  0.8179224304772957  0.0137824636638010  0.6994089070087767
  0.0263339344011736  0.8828030960424526  0.9711724598741227
  0.3182826544111873  0.6697652358328122  0.5347990999357813
  0.9231518849770058  0.4195140452291476  0.7953835100470503
  0.5664626082148252  0.1379220739879911  0.0421693504220083
  0.4445997511721911  0.8153374212540568  0.8012326562135917
  0.5397316533484731  0.8584972310291503  0.8258052259988230
  0.2565731252178474  0.7439701965072877  0.9069430641340819
  0.5042264049153188  0.8089954308262882  0.8215669190542900
  0.3006747219065585  0.7994517306263993  0.9678689899888512
  0.4348208010207291  0.8288237150750614  0.7380489301154233
  0.4940032965210014  0.8223698195322334  0.7595970554569089
  0.7901354163202364  0.8095445867157125  0.2385918836694516
  0.3432263046990989  0.7568971831024384  0.9874886820500482
  0.3793044020418784  0.8059575861790480  0.6094675643888900
  0.3242842307923595  0.8565699907017248  0.9325015689389029
  0.0305752799909697  0.5584376946513016  0.6413347115021444
  0.3791891094967470  0.6616084289136719  0.5635923725306872
  0.3659761152351061  0.7008970669995935  0.6189255241946535
  0.1167342379486969  0.6390932644284599  0.7003908337352752
  0.9896620660492725  0.5350074903860156  0.7498336165708759
  0.0876822126429123  0.5707691466815993  0.7548481365062389
  0.2365496959182176  0.7718228326244345  0.7815346188248847
  0.1392608940429929  0.7292149599445610  0.7504479140314529
  0.8211002683275217  0.6318453133666365  0.4316566547496529
  0.5936275101214835  0.8861220870650132  0.9555531477678101
  0.3899542215953989  0.9375002982651909  0.9802443496971807
  0.7632775598421068  0.2071198807887859  0.5964572448647266
  0.4641595000059214  0.1688506494884856  0.1136074950568215
  0.0597551646134527  0.8690242863280406  0.1967265464944863
  0.9656099057846205  0.7382575172002270  0.6034758135656710
  0.3831490140324108  0.3969244180653785  0.2953490869298648
  0.0442736107397641  0.6782051571007620  0.5493821285963710
  0.7333759341013869  0.1400531638494932  0.6486744080519845
  0.4337846466068866  0.3939996703971460  0.4225817749091038
  0.7742166803521191  0.5126681540751437  0.6734972928515908
  0.8003743875710415  0.4282118915374896  0.5812348915389566
  0.6877052516814983  0.4330883303846851  0.5913402695184896
  0.7131104942865760  0.4951528057738262  0.5488515683848636
  0.7326826516349694  0.4243113557343425  0.5599955797121771
  0.6854295085468533  0.3858043836596292  0.5282481987157875
  0.9299014446018590  0.7488726626488040  0.9672736608347180
  0.9880734239740777  0.7090694703019581  0.8820609802916957
  0.4562057753402731  0.6253677314579041  0.4088977337797599
  0.4502927431687159  0.6197687183856916  0.4748821515825067
  0.4993426263792818  0.5367295672318373  0.4576736908018730
  0.4007080583843081  0.5282954347163776  0.4816984740537864
  0.8494858282501170  0.6120261038215223  0.6879657574973668
  0.7753389892766647  0.4830491369089224  0.5660572767257367
  0.6437778864263588  0.4142855578408560  0.4358772204672507
  0.6399160147972413  0.3667014542176675  0.3949469630940494
  0.6283796168549242  0.2602587234961820  0.3721971540790674
  0.9716344702367934  0.5690223059317076  0.6276498213308362
  0.5582673243678137  0.0472602074257771  0.1861601572985710
  0.7087937587814523  0.1408719358497020  0.5246921309497132
  0.5175736360588603  0.9764924750923298  0.5508904546790935
  0.9936627662519839  0.3946938610527370  0.8812659138027515
  0.0320253963256986  0.4484867881624454  0.8887767673026203
  0.9375999519150876  0.3767761842767851  0.7501697642047770
  0.9589560874144784  0.3190394188468308  0.7626238202045087
  0.9014239802712172  0.3282507276368191  0.7401957621916970
  0.5608030381866882  0.0612434414422422  0.1189714030344256
  0.9154162332254119  0.2843276736703783  0.6909709794707343
  0.8665082270152629  0.2498516087598441  0.6241925333000250
  0.8474992236760354  0.3079915378005017  0.6078138572103814
  0.0551946372933286  0.8397896191833287  0.0905809342338123
  0.7894741897654246  0.2726165395758080  0.5397946454537059
  0.7409540093288601  0.2380042649824313  0.5311916240540809
  0.0273075177441390  0.4332985068911623  0.7246074296820986
  0.0450932498424282  0.7171293702383995  0.1274655195918040
  0.8502056162947199  0.2911985046554387  0.6656605029438073
  0.1994064799281698  0.6606829710371322  0.0139127292901608
  0.9893242953822865  0.3705818279034290  0.5528350353842710
  0.8828722564186340  0.3779325206147149  0.5579028005661788
  0.8054360899074099  0.1540838182238967  0.5044604693456596
  0.5734296295851417  0.2125020897496991  0.1952592172922474
  0.4905090095629961  0.8526408202364216  0.8655759051416491
  0.3857979470101231  0.9235597604911685  0.0424056382061467
  0.3886215023874768  0.9710016652298747  0.0931358080380992
  0.1831585909234924  0.9020414379512970  0.6881885319934122
  0.9388360812489444  0.6867381200400391  0.2124074728892223
  0.0773568197770930  1.0184812506543632  0.6311694728023900
  0.9330717742459806  0.6067471089643274  0.0659549950543120
  0.0602134622237738  0.0459209702141207  0.7763987022174813
  0.8554847730046478  0.9603128644528033  0.4455032229478296
  0.9596808174771948  0.9789617093609783  0.4160050573523660
  0.9534251040602757  0.8553162632875322  0.4566942886882444
  0.1847642801193400  0.0384391117094417  0.4777010144533538
  0.1127917549195668  0.2291798781670256  0.8722081905523007
  0.7604715641699569  0.4405385489156895  0.1210216545565335
  0.8608467456233427  0.4267524686186854  0.2207865790776770
  0.1378836557454188  0.8689133637949871  0.6165024845365781
  0.0040348585425037  0.2756974426610558  0.3259625457776842
  0.0976499932644793  0.0928527716774691  0.7795029335523699
  0.0702497552108127  0.9129418483432896  0.5467802749359441
  0.8532734380095586  0.3658779389318789  0.2395358443011767
  0.8022556081748021  0.3498373154898537  0.1689596260651770
  0.0868056447414909  0.1071333637087962  0.7148369988133308
  0.7457155362932223  0.7615118234106588 -0.0232660007426877
  0.1312534610157072  0.9850205625195548  0.5423225102037720
  0.0023606350029643  0.2591462561854779  0.1589585663428950
  0.5556097800279308  0.0410123994508434  0.9512586129063275
  0.8916473209108066  0.2299532328826909  0.2443366175819402
  0.5696505576122776  0.9535672341144720  0.8764950619206977
  0.8652273141539191  0.7206415632162284  0.6802571826950014
  0.0573555724676572  0.2100730338003527  0.7471753561154340
  0.6564839305496148  0.5022315542599703  0.2936881704435020
  0.1114173846074833  0.0785376509289956  0.8377782298309269
  0.0711582442725965  0.0292870722271683  0.8419030773671550
  0.0299193672265162  0.0864357653225355  0.5851523185281400
  0.0528793680266009  0.8165950795249484  0.5713413665644042
 -0.0008338588117111  0.8051798871291761  0.6897436765482408
 -0.0040427480165510  0.8245003329454568  0.5952602011026423
  0.3419539599430960  0.3615961020864711  1.0007056021889127
  0.2572565568098664  0.3120875515469081  0.9637942999069410
  0.0995779740549117  0.8200680930874933  0.6137789304691372
  0.2601286912382130  0.2797746139285597  0.8591665555309107
  0.2223958179539384  0.2297521828928506  0.8529638537114944
  0.8334945976060980  0.7334657779445750 -0.0081492143979701
  0.4344408701272043  0.9146514971854756  0.2490984954636541
  0.1073384635334496  0.2149873510738019  0.7048337199926554
  0.2141696236360865  0.2431600085884910  0.7928765012689747
  0.3865898285072396  0.9446376858358433  0.2204644987990587
  0.0643833588228151  0.1945838066135706  0.8067089244401189
  0.4792947910269075  0.8385409028191412  0.2332338714594827
  0.1242060005555166  0.1577770983988411  0.7211199159547272
  0.8386610341925631  0.7133570563426085  0.0552284839610606
  0.1521037117913304  0.8277811361130468  0.5771136138938685
  0.9318232498746392  0.6964515310620799  0.7628220817768473
  0.8347923234828042  0.7190791911604026  0.2794708582209151
  0.3388733154141508  0.6506884477115825  0.8381272231662953
  0.4380810196936651  0.9407896007768939  0.1207022770726207
  0.2652063977229606  0.5513948579100248  0.8196745717602560
  0.3646837059737517  0.8216347653186844  1.0150944082320654
  0.3675179342701193  0.5650524386056885  0.7435191442417131
  0.2904181286797051  0.9288822630894495  0.7794183727925863
  0.2212534328557854  0.5151780484569509  0.7529299943908222
  0.4207464968694853  0.7729757935335265  0.1144615041153765
  0.5248829211581039  0.7424675742168692  0.0509901411766722
  0.5184870653357285  0.6840810260067524  0.0684940523240824
  0.6244283833381316  0.6504486791405429  0.0002162321631830
  0.1313940497207230  0.4398269813195934  0.6235472198003407
  0.3078974592227613  0.8745897259720841  0.7987366038407467
  0.9759816484016465  0.5175597099934056  0.1166396411082641
  0.3387358163923544  0.9655196170229673  0.8487422782074580
  0.3031018067940592 -0.0006820024377677  0.9263625513006395
  0.3124193700363241  0.8561930833975394 -0.0042885207969258
  0.8036651338257145  0.9306355328056736  0.4376174541538169
  0.3956855100992624  1.0074022752468650  0.9594994716427133
  0.7412319429712915  0.8392671012030809  0.2108228118840764
  0.7318104573419483  0.7648163733059629  0.5174248719397053
  0.7799346612000383  0.7187024199808224  0.3792555789196657
  0.5391541912441901  0.8970570748480291  0.1160076056781162
  0.0821430182208976  0.0097891695723089  0.9229198635516813
  0.0927660054089762  0.6862087069370451  0.5081732681437916
  0.8250904643085963  0.8137915118654200  0.5389032957421400
  0.0768243715748412  0.7275246160851236  0.5542100791693703
  0.0866981346521291  0.7101366944756178  0.6202090216506292
  0.9316094265699488  0.5940191907851341  0.1290262651502354
  0.3972532311450581  0.6432327986944422  0.8640335904974159
  0.8882065351554210  0.6825621669870398  0.0827003631715973
  0.1522482990149789  0.6878121409149025  0.7038538456889376
  0.8547034840011808  0.6513770184207102  0.4854647806469925
  0.3012817654218316  0.6001203859346438  0.8312397276858652
  0.3321297607544596  0.6642158957185758  0.7766910616368220
  0.9673050547997460  0.5586708030234159  0.4477084639238474
  0.9902962565944774  0.6882791098495801  0.7795935338622924
  0.7843252693529179  0.7148428103302509  0.1508444156740137
  0.2859692182987190  0.6298757318440119  0.7089480279101106
  0.9146354059790782  0.5262737286822029  0.4407565833260840
  0.2717664090784700  0.5214274222589692  0.7153199546530878
  0.1684067267326425  0.6166086688094766  0.5513683829462085
  0.6972394457350473  0.9124359189884448  0.4643385130631866
  0.1836141780776096  0.5110843045080389  0.4722932188943699
  0.3151332902614333  0.9193339530705507  0.9106729314086683
  0.4884932267453155  0.8722617857993196  1.0348053849988219
  0.8407236576435483  0.7288111279943783  0.4492805653010871
  0.8975448032428885  0.8408919528704073  0.3827881943301442
  0.5326266452839866  0.9207466723126470  0.5763715256751456
  0.5375245041490022  0.8999963162134009  0.3499053702451796
  0.4772432187276506  0.8243457110699033  0.2950613984434206
  0.6216500696795496  0.3131057128888030  0.6424376818345905
  0.9305655943184893  0.1104582914939372  0.4171638678286765
  0.5718062823562980  0.3055904752571667  0.6818966200790778
  0.8627501996337460  0.0701678739925519  0.4739503569628202
  0.6373131001859730  0.2713672793087050  0.5998325133893272
  0.5382326731293238  0.2262068092929627  0.5735108655339261
  0.5246859663380962  0.5547246314500121  0.5200675907386272
  0.8783657764026923  0.5480238930788034  0.9470737794149946
  0.6472063566387045  0.4588301084124904  0.4769274708795095
  0.9882635739262715  0.4302509761466077  0.9826113867348127
  0.8509865148111102  0.5030475063372745  0.9164835632083922
  0.6864129173187881  0.3381099792194574  0.4243511870346825
  0.1141224018229106  0.4128834763064548  0.0157571017387055
  0.9048492219612294  0.3433414759622835  0.9069765415385866
  0.8443270129635789  0.3475363976762850  0.8845851150705103
  0.9091092044601311  0.3110396190158573  0.7972760622492668
  0.7979786650000472  0.3133679019251199  0.8147157155398772
  0.8948453543750522  0.3548291980969211  0.8477240386751832
  0.3892628641876551  0.4571758662133222  0.2756277668970141
  0.7419131169111989  0.2959020608030361  0.6869111186237267
  0.6500345220779364  0.1651447377763909  0.5012379824787880
  0.8230865101416092  0.2267922128014260  0.7220603111016451
  0.4903090185685719  0.4106196513163468  0.2674022372831080
  0.9802159196569760  0.4401322515020932  0.9228794716956666
  0.6149084702994835  0.1628054369358203  0.6091050999253780
  0.9815931993990501  0.4105782479414559  0.8163335555596885
  0.7249126333461692  0.1852364745547503  0.6954210469631903
  0.7294780036709462  0.2172113102875388  0.3645297233556609
  0.7840739309755123  0.2325855392176986  0.4353843537998697
  0.7758756245833845  0.3711121854460089  0.7989997614324399
  0.8288783837423693  0.1577397960783630  0.4202871202382568
  0.7210329295588473  0.3546102914371450  0.6681839318502314
  0.6610553446171160  0.3602690652483418  0.6486112525393211
  0.7121929190207077  0.3711941887835494  0.6001250098516382
  0.6746723188637971  0.3180632354802332  0.6050164830031036
  0.9338701195295566  0.6211352496272284 -0.0001993633568379
  0.9133267886065800  0.0042855789240879  0.3914954209333505
  0.9325017485732388  0.5553742098579443  0.8955455611157960
  0.3237799603146762  0.8537784537590274  0.4673044539817338
  0.8884877104818976  0.5223450151604176  0.8222777355272493
  0.3216080657623370  0.8072015405863623  0.4203989091122932
  0.3258334641498959  0.7407047408642733  0.4417709978982942
  0.8733182637257555  0.4130021751057896  0.8308574932448595
  0.6649492835245381  0.1938206387331566  0.6750750373505293
  0.3220871106966756  0.8392026656005708  0.2933354035592970
  0.6262962780295581  0.1447024763953105  0.6694118179195000
  0.2072861172611159  0.7638764891268468  0.3354987275870637
  0.1650020254723189  0.8398458807813013  0.3584202308620792
  0.6534469599993009  0.1018315447673163  0.5097954738091263
  0.5959553453705735  0.1359688142587023  0.4925685745688226
  0.6465633475682809  0.0477983832232005  0.9178702063515493
  0.6839710500604215  0.0524002813393227  0.8771101311134764
  0.6233442145719167  0.0563191553415467  0.8517149814125202
  0.5971242001044006  0.4572833430662754  0.3468497748332249
  0.6590691454526932  0.0732199047713644  0.7483318959624613
  0.8786278746202462  0.2728240807748811  0.9623913515744036
  0.6590021619481249  0.0152947959352276  0.1143116500660298
  0.7024046666965795 -0.0061942526521181  0.8978472907906336
  0.3959542931431563  0.5354867092340261  0.4222350465607628
  0.4519475277905524  0.5798475784441106  0.3678548590341553
  0.7242039218017778  0.1535847470200067  0.9201637322087988
  0.6966590833992448  0.1226388793364937  0.7520303167764080
  0.6046737558986015  0.0379933039283857  0.6848472465976438
  0.6817212918399811  0.2593168934389525  0.2764397806651384
  0.5424957359422543  0.0441602556458397  0.6623329344726903
  0.4794437340816786  0.0546278402677393  0.6329520741863547
  0.4556315439154284 -0.0258190630052455  0.5281046574156041
  0.5821611830282089  0.3047621095106838  0.2820247422686020
  0.7608670287692638  0.1470821993564804  0.8784150715177615
  0.6976916595970162  0.1537609573520060  0.8551862979318453
  0.7672713288408953  0.0667185401352461  0.7246869046070000
  0.7058878557762788 -0.0302732314877860  0.9722773706013352
  0.3595411817191750  0.6753169147758761  0.4159574107238250
  0.2737682809162110  0.8803206564823437  0.4442083794744742
  0.2919967100100977  0.5510174693752425  0.3247950211697743
  0.6286242023293593  0.2944155636503860  0.4774289412295156
  0.8607997738758458  0.2731377308743772  0.7333137508692401
  0.9282366105655356  0.6872149286058672  0.5989056556697122
  0.6949991120357143  0.2609681735827265  0.6215524890596651
  0.2279768928657597  0.9639536857228557  0.4635804945319554
  0.5567733748638749  0.1969146439281838  0.6926616083597613
  0.2168647778815832  0.8443998890998894  0.4460704949892488
  0.6764298643945356  0.1157851503757323  0.5737332158005166
  0.8011114012724598  0.6906909558784554  0.4991057336253380
  0.5338416660144950  0.3350277957930721  0.2539074722233348
  0.8331328266358003  0.5036022748196991  0.6958565828198798
  0.9205337176617062  0.4479341360986634  0.8977157246513637
  0.8797583250371290  0.5382129607398112  0.7638601416843390
  0.4771357386600903  0.3043792414983527  0.2456010362693208
  0.9106406621456994  0.8212496564448546  0.5111202004860969
  0.2210427890518348  0.8724229327695251  0.3685730066947985
  0.8196813285335450  0.5452148383341429  0.7402554260130680
  0.3493915707692519  0.5939909246278104  0.2724152155439313
  0.8376364403164884  0.2007260933913745  0.4628603807199956
  0.4029382969674139  0.6098712433947634  0.3403825410911384
  0.7292981623372254  0.3366820799911523  0.7309323960654351
  0.2412901511809818  0.6746907957121140  0.3927244805670055
  0.8921882129092412  0.6355300462561340  0.5879441523760258
  0.7626630336654021  0.0360410769316339  0.3286608858510877
  0.8638574372665332  0.4738593286274205  0.2634121481768859
  0.7421797230816637  0.0342593363402322  0.6167068255613191
  0.1524614322066989  0.7034785616315333  0.9902166239052579
  0.2371312557844861  0.3530968712524957  0.0117960516899935
  0.2385511718852433  0.6843430340772162  0.9596798384868449
  0.7158516586129624  0.1446202347068583  0.4476990493440853
  0.4739853165486859  0.8493520998728533  0.6338319100518442
  0.8208099958598017  0.0984030622504137  0.5698214233630882
  0.8571209051757651  0.4116625911058910  0.2819333134646781
  0.1852428341169367  0.4811719051845629  0.0764041275235897
  0.9095750545104587  0.3981071271178737  0.2493160858287752
  0.4699253177380798  0.2294783136808946  0.0993248859441365
  0.9700815772548447  0.7651943661423244  0.3128320674545305
  0.8845546489610713  0.2181790682223362  0.7439424230079635
  0.8983018064256799  0.3232449491470671  0.3321629313984771
  0.8346405675289610  0.1857640623402509  0.6755943773353793
  0.9493237846996885  0.3081402002488924  0.2971518228735404
  0.9556440070535289  0.1968637247260115  0.8255464604436972
  0.9434081688372620  0.1975888624555635  0.2714096560271178
  0.9298042452194785  0.1022252985570069  0.7755186854716645
  0.9604997927865261  0.8728873298002690  0.5176439005221455
  0.8137352531847120  0.0666780823244664  0.6796421731127568
  0.0461898647767989  0.0855983355429662  0.8236790561442051
  0.0879849324548480  0.1194755161639822  0.8854442178126508
  0.8580904560167809  0.1184919441376596  0.6872586976006512
  0.7830705345876594  0.0868039921256369  0.9019447183949046
  0.3704859861595766  0.8657030687197621  0.8267521224834089
  0.3698844004269260  0.2775811262541976  0.1103212672428442
  0.0534310556258740  0.6470769477519747  0.6759579127480405
  0.9844243292197072  0.5258326267668406  0.5832134360982136
  0.6918959111624949  0.8357348109080540  0.0767773309419511
  0.8670848158001835 -0.0430170860736294  0.9801646407464710
  0.6400548921133954  0.8498024850217444  0.1088965510309129
  0.9793698184374147  0.1556847000542708  0.9496947739368484
  0.6435775300567471  0.8980280923048864  0.1533508012664798
  0.9818429648474606  0.1162012877301623  0.9073064626074481
  0.0761187279282785  0.2887620070567888  0.6342731877561638
  0.9845342522862609  0.0926090751365040  0.7945472568322471
  0.9338402005718138  0.1992790808160613  0.0400409683355184
  0.3594235206693757  0.1749750748888529  0.0780957782883304
  0.4489892961532105  0.0189368860945396  0.0359960539067955
  0.4595446357121737  0.1403256613470247  0.0021784056281821
  0.6501834309576625  0.9570328585237222  0.1349525449741657
  0.9503401517949328  0.6770382283768275  0.5014467852875955
  0.4635777530202124  0.6682552354711707  0.9944955607758412
  0.7686603352562820  0.0592865250767200  0.9581413462636392
  0.3265502812224464  0.9576681065749767  0.0202285823956095
  0.1842901198191605  0.5168892061542052  0.0121468463086815
  0.7657736309787502  0.0810408183622931  0.3709694105355338
  0.1791719809469408  0.4239939848561167  0.0349281901309984
  0.5689620289544213  0.0272749085490365  0.5525069612009285
  0.6257822676272211  0.7480401987130498  0.3147031368727993
  0.1993611627487744  0.5766057649396261  0.9802970677110285
  0.7577584454879630  0.9871941208724989  0.2811489907065317
  0.6720423812469893  0.6854837240400471  0.2342961258719894
  0.8008115015552494  0.9145994335096851  0.2652579204825366
  0.0272151843818968  0.4752809448877513  0.9881795660078614
  0.2014150186778099  0.2010786053237719  0.0159624249157414
  0.9511494669523473  0.8108279280159042  0.4119298423716305
  0.2836846688853427  0.7649659708086904  0.5798697339889626
  0.6794133866474064  0.7472639813372044  0.2182344151102108
  0.9525009352672281  0.8686699887682193  0.3948429129253684
  0.8823334798977764  0.0954402707559911  0.8198803030708575
  0.9463766445449239  0.7593407721375406  0.3637905955703289
  0.4883985922007001  0.9795529582976417  0.3760562379236559
  0.0973116856703331  0.5566756292592074  0.8127605575719379
  0.5432429686646744  0.9631598309730479  0.3316158278374091
  0.7171092916434022  0.5938194686795887  0.2838572848026683
  0.8213043633402173  0.5947777002862614  0.3198267606415822
  0.7702760740679511  0.6096118828844357  0.3527539667960357
  0.6018479997847913  0.8510985054010871  0.8488724181838666
  0.9345728611493813  0.6554522629742477  0.3370559095591104
  0.1265189229761126  0.6370964159530496  0.9345009285571629
  0.9604564246971508  0.1439957773011783  0.6103454058823063
  0.7124808624029414  0.0987224129667195  0.4089459166719265
  0.9471696149624119  0.7326709556684093  0.4878288869864128
  0.8523325869290023  0.1980012906621974  0.5253442599104691
  0.1390626823126337  0.5607103472806050  0.0935276994639626
  0.8975724782731795  0.4679138069176936  0.6151409313459407
  0.4650699564448982  0.1853963183893473  0.0552573050955994
  0.5151540535054792  0.1531984278359883  0.0789510896182340
  0.3807477056732162  0.3655758053517910  0.1912385691416018
  0.5733084838017676  0.2432946700091690  0.0717609357826463
  0.7314231982148162  0.0531751076018482  0.8332062763169611
  0.8947916923012493  0.2288657250025325  0.9138697484956273
  0.8376632701697841  0.3376789399099592  0.7158000091831634
  0.1968032744907484  0.4679270088072513  0.9759396755519952
  0.8188870019043039  0.0300748940094005  0.9919639649900500
  0.9247702821902678  0.1231214071572665  0.8756587506836544
  0.3668394386896358  0.3090934225412891  0.9536588708702637
  0.8962173902294440  0.0039201664530514  0.8017511363139314
  0.4079586069566756  0.1130853478810792 -0.0040559153078268
  0.6101286246519027  0.9693679051343808  0.7724020276231758
  0.8905277486945081  0.7768161619782600  0.4032077725744868
  0.0921298379888850  0.1500325183290697  0.9924099850877650
  0.7350663862480583  0.7439913851843089  0.1243114632677227
  0.2940197036401359  0.7285659499768837  0.5326690957091993
  0.4030359689348241  0.6319647789969465  0.9283544093256410
  0.0609827181874513  0.5070068574393777  0.8065317524934520
  0.3495624329409565  0.6264659779464447  0.9691024344263512
  0.8933276601280603  0.8110653610321783  0.2756782259844121
  0.8135790215570285  1.0021273975467220  0.1195511838622454
  0.9409003236391422  0.1830471569622055  0.0989355713989371
  0.4162166760722684  0.7885073141722229  0.0510653884622141
  0.1010617258787827  0.8548040599900633  0.8892696169994153
  0.4201827333486997  0.7444889992684085  0.2404646295287422
  0.9507305224895894  0.8237253057224877  0.1163538324291322
  0.8311906075445890  0.1649158423243617  0.1235566562782058
  0.3205443931081935  0.4239722142877969  0.9141657413363358
  0.9900013244662521  0.6402340155456270  0.0756268918768331
  0.9415648682954095  0.7016181221201140  0.1529261111595000
  0.0727031302951510  0.8355524078434803  0.9870289220927219
  0.1639506868534929  0.8216975584375149  0.8038155215719832
  0.3369975382529827  0.9648956248552867  0.1912585817709513
  0.8450223839000670  0.8070672067597044  0.1432745377796479
  0.8509258290647684  0.8829760892202766  0.0592392518302644
  0.0009645481902591  0.8088740968705220  0.0809705732767234
  0.3999888075535607  0.4922601075742083  0.8184848887186492
  0.3839678919347071  0.5343391548558919  0.8592961144669847
  0.2534269692432906  0.9037001913188532  0.8855813519641051
  0.4474907590063232  0.5282341186242643  0.8828855344353261
  0.8782193098530897  0.1074422631360202  0.0442653105435498
  0.2748188446825101  0.6122223955648550  0.5335838694077722
  0.7806098710722555  0.2137480786619610  0.0403083182632597
  0.1807386366771899  0.9276375692794545  0.7979846636517927
  0.9429846802474466  0.7155906629612008  0.0915401893459924
  0.0756793354323921  0.1003316823341072  0.5416729108431423
  0.8521122607832465  0.9004864094702142  0.2303716971433437
  0.2137166955195904  0.7303703007077403  0.0065967286822854
  0.0985008246535816  0.7293970889267753  0.9589776776072410
  0.1754139350367711  0.2906178785312944  0.5493515371479807
  0.4193394629806794  0.5722361505674635  0.7067569025264759
  0.5220337195367900  0.7284655547867516  0.1115051078736690
  0.9175221692303936  0.9709081153086669  0.0464407083277219
  0.7798317147779092  0.1824222942912284  0.9333052412081125
  0.9786391415745059  0.0674563120007203  0.0376168320838176
  0.1611692503755612  0.3699367516567496  0.6973304191096635
  0.3502416280358158  0.5912724479692787  0.6231377255632349
  0.1804362075853831  0.0453971583446142 -0.0169038086151090
  0.8563283117449219  0.9314793432243990  0.1051745111055244
  0.2794738493754750  0.3560678502212681  0.7430953736781909
  0.2047419666782359  0.8936233286120802  0.9262703850989504
  0.3744997280245610  0.8539992710764235  0.1301336979644453
  0.7895446683962511  0.7762304186137482  0.1340907359895687
  0.2813095425184787  0.9598155498696503  0.8834746338567392
  0.0402670384664080  0.1246600401564449  0.1549894656628315
  0.3423947431540744  0.6068567463923358  0.5546640336246631
  0.8733070253128373  0.0620358762886793  0.0008624317633155
  0.8565634581104209  0.9450462648784553  0.2753494394302680
  0.4780357803003012  0.8061418142718139  0.1253394232601042
  0.4230239373763024  0.5729692193544118  0.9414205783993251
  0.8240622751408913  0.4365899297188756  0.0327566224802443
  0.8152525328611591  0.4973726486755883  0.0127238764021380
  0.8667332735262960  0.4549783751164245  0.0974729471458101
  0.1440917424737860  0.2922510584240100  0.8113241667758728
  0.7673850172728789  0.7192776024703498  0.9239292021731823
  0.0281228672282430  0.3139694589731022  0.0243073928780909
  0.4116773748560097  0.0703024160711630  0.6175350899184653
  0.9923199270429466  0.2193421647682586  0.7270225635122735
  0.9074686273943310  0.3170453676797660  0.1002518358486840
  0.8505291812587878  0.2879438642386674  0.0927866437668935
  0.6383734967289878  0.8043948797754744  0.0657059088402174
  0.6794514011037533  0.7273012121762629  0.0543464350019257
  0.9843802863346536  0.1098459143086468  0.0816248584065095
  0.0785573404223220  0.3002230615748719  0.8174377482443360
  0.6610562897201823  0.8063776288928026 -0.0116047764221432
  0.3882193919454130  0.9568484461740339  0.1553327077818659
  0.1426956484923017  0.4649487545670077  0.0120674229399769
  0.1512095185514684  0.4271937365796342  0.9081411344916788
  0.0923293581589788  0.4327997470044230  0.8835645218223488
  0.8198933323985172  0.5338149225925599  0.1129589200500428
  0.1103761494566509  0.0626282943096646  0.9031276113422002
  0.1276960208029241  0.3315624737860187  0.8586461147891500
  0.4583443610882463  0.6342130699963965  0.8912314923940842
  0.1968239480428102  0.3159812426510744  0.9500549850616739
  0.1725203930014443  0.3711955309210182  0.9276323776924491
  0.8058946178124865  0.9423070529560540  0.1397419872984072
  0.9720047287588685  0.0026836913393656  0.0550559583592037
  0.0584264295033676  0.3136116498904338  0.5045823326727572
  0.5402567007611838  0.7035246923130017  0.7944099198127177
  0.8459238343587806  0.8200141524597984  0.0830578152460486
  0.5022326105839197  0.6580925925652918  0.7830068762854540
  0.8998786962433980  0.8046889072979559  0.0454281666624156
  0.1353832476568975  0.7567682510023737  0.8570452241650308
  0.1177719415552756  0.7878351670151410  0.7349353261834096
  0.4420122494395585  0.6648785254992133  0.7618636248008005
  0.1710143468408169  0.2335185747490456  0.5089184181619727
  0.2448993098685177  0.2762328797900743  0.6325993993559778