Cr N  Ni
 1.0000000000000000
    39.0510843612861720    0.0000000000000000    0.0000000000000000
     0.0000000000000000   39.0510843612861720    0.0000000000000000
     0.0000000000000000    0.0000000000000000   39.0510843612861720
 Cr  N   Ni 
 1596 213 3725
Direct
 -0.0575908770124237  0.8552870391336732  0.9694431316102095
  0.7844721591440696  0.1758983159798912  0.7162269837551898
  0.2903882497809424  0.4817046253817500  0.1149827752961766
  0.7328322299657153  0.0983313528755400  0.5971859792249847
  0.2877469867258969  0.4348788273197988  0.0714766989206074
  0.6186402238314869  0.0724990991482380  0.5635734743660749
  0.3922006155865693  0.3246865301339814  0.0676464992331538
  0.6604774860439860  0.0297200450838420  0.5297195570507786
  0.8889193080695003  0.3840956070596008  0.9549234196401949
  0.3768503623337383  0.3186287690758934  0.1564050894327965
  0.2899973137485091  0.7503268059541622  0.6393705956241569
  0.0293738817764615  0.2949681343503762  0.8504317615452147
  0.8269743205956906  0.0613569314422251  0.7475613712407131
  0.7522058621038168 -0.0017698342776887  0.8580114382917028
  0.3981712780947161  0.2760992499036276  0.0167544141277137
  0.8248365092027943  0.0390323116485349  0.9254121163654327
  0.7795399101166733  0.3451663321299897  0.6909800428388644
  0.6731422853839431  0.1510326656308691  0.2487051845704216
  0.6136871931142962  0.0764961991406007  0.1932417838518422
  0.8076910963936148  0.2617962262541875  0.6015908268065300
  0.7031213240868839  0.0251445307644501  0.2502987742171653
  0.3178375190511162  0.6701358056771320  0.5348394628277193
  0.9428858530006295  0.5009252267214545  0.6820780772610912
  0.9053760609697445  0.4511639818780277  0.6732645110918343
  0.4444232084909526  0.8149354701167099  0.8014114323359049
  0.5395117481538296  0.8581910916480335  0.8262198475658348
  0.2571814495686841  0.7481203880519843  0.9032826148880471
  0.5039486554359578  0.8085918217880957  0.8217750042918713
  0.3008621695173939  0.7982826715949694  0.9677964754512912
  0.4343104558262266  0.8284203657777468  0.7381179388052476
  0.4936454541545885  0.8219797041297136  0.7601034585389497
  0.7901285632087399  0.8096901307211815  0.2385775728698695
  0.3420903843683659  0.7560710812806022  0.9878140517869924
  0.3783044312574745  0.8056818617834199  0.6100988615497422
  0.3242426691734722  0.8567803191102839  0.9329987567619293
  0.0303007664788296  0.5578801532753466  0.6411914557425205
  0.3790403250560351  0.6616630424764997  0.5637609923487932
  0.3654871457437580  0.7007448716796971  0.6188112060931135
  0.1163360022527737  0.6387056191501433  0.7008940362605087
  0.9894590674187500  0.5345167727921490  0.7498952612199224
  0.0875282728827995  0.5702498736912542  0.7550383906199905
  0.2360266049842976  0.7717395782457491  0.7810987827335851
  0.1387466335025619  0.7289605750918202  0.7509590468732775
  0.8202806709881580  0.6318178826788099  0.4316012203453514
  0.5935555873206708  0.8856195924295549  0.9557398489186877
  0.3885293666333648  0.9385230824860511  0.9823154951182648
  0.9579084336136378  0.4998716361689369  0.9048187252447959
  0.1148622763215293  0.9200093342587982  0.3774349604729989
  0.0594232538764226  0.8692772857758552  0.1966430931065902
  0.0314230333837955  0.4481313843232135  0.8891442073227265
  0.9591715856329706  0.3186741164789932  0.7624855915742152
  0.9012073607399577  0.3278186592798924  0.7399867510396283
  0.5609780758873145  0.0615157456021276  0.1186679733686139
  0.9151607281743042  0.2837549308712307  0.6907021744153442
  0.8668223081037175  0.2495227419036758  0.6242069300700769
  0.8476108855586569  0.3078763471556537  0.6076907327996068
  0.0552702464577890  0.8401006622200945  0.0908418265863367
  0.7896933755188184  0.2726647205394119  0.5396946439931479
  0.7412966992445634  0.2381150039590984  0.5311178261342214
  0.0269801650814870  0.4330420036431947  0.7242686634831771
  0.0452087684514388  0.7172942133791953  0.1271259208513213
  0.8501984115177916  0.2906881804382453  0.6653476434787549
  0.1999594233236358  0.6598414155186575  0.0168561062983782
  0.9894933346299813  0.3704959451897922  0.5524512010189204
  0.8829520744039194  0.3776710183957213  0.5578679569970780
  0.8051109259653995  0.1546983713458145  0.5048849459145771
  0.5735593769675470  0.2127878031177358  0.1952761196565075
  0.4902986274967145  0.8520887514559409  0.8657253871775913
  0.5183154978423250  0.9768166975949587  0.5503019684355721
  0.3840384621974138  0.9254070506501640  0.0441689179181759
  0.9653376239794002  0.7381833474766732  0.6035030121447030
  0.9376942756029003  0.3762132681685006  0.7499465044399717
  0.1119759622287758  0.8710838804438884  0.3293537473122465
  0.9211772908264413  0.4084217441880684  0.6296154926940016
  0.7091399330276432  0.1406065862398889  0.5248900312617598
  0.8097029255854917  0.4108174351740461  0.6400415617563286
  0.8357343168283938  0.4761099389733627  0.5898710478601723
  0.7747946700615971  0.3766424752189653  0.5595160403586166
  0.2090465214489260  0.7777764147258899  0.2768281275843600
  0.2476668015961638  0.6416583961772107  0.2782812183527513
  0.9526976738873988  0.4858259108452063  0.7412836600415156
  0.2996234068523744  0.6383385177443662  0.1787321743611761
  0.8523926730937241  0.4300143505094519  0.5415824694505874
  0.0405121052356488  0.5361712935404067  0.6912656303760536
  0.9360466626780938  0.1567026578975117  0.2269845509389210
  0.4918342417356510  0.9833371774364009  0.7281428155717972
  0.9731214301702196  0.7228863332972236  0.6628532034226197
  0.7579107599194544  0.0240777647239103  0.3907168523882896
  0.0994699193151045  0.7194062059196314  0.0302138205009545
  0.8180453872516866  0.0133763457071740  0.6997266043914298
  0.0261019705653890  0.8813839234761704  0.9718444781490420
  0.7637871564735518  0.2073292520502772  0.5964571257699189
  0.4642517770641914  0.1693704975386793  0.1134972116688348
  0.9231045227774306  0.4191126245275812  0.7952320927147477
  0.5666808156929051  0.1383941948625229  0.0420891550030273
  0.5584348270165711  0.0476377512824811  0.1859000363785996
  0.9933471929283872  0.3942855723619603  0.8812538689173829
  0.1394751508760856  0.5609727423907908  0.0931298741549149
  0.8973849869890902  0.4676904042497420  0.6150051890312860
  0.9388742456728357  0.6866535686498870  0.2118928223545128
  0.0782205407957703  1.0194032599035752  0.6311801896393089
  0.9332523351265586  0.6070543681457429  0.0658863000789747
  0.0597521522340821  0.0451015377041225  0.7760410257852608
  0.8557986507600348  0.9603688750140715  0.4457778303358890
  0.9599103500885933  0.9790343376223387  0.4161894830029170
  0.9533124781231305  0.8549954345916395  0.4571742569906200
  0.1859086601851103  0.0385939700989164  0.4765667321674129
  0.1126085658455001  0.2286703112648474  0.8724446338325303
  0.7609338442253185  0.4407097829218641  0.1210983625001844
  0.8610073419479843  0.4269087501418226  0.2208270416668929
  0.1351152239836809  0.8702029740533876  0.6185712754027574
  0.0040640785112390  0.2759167852561986  0.3257631954825310
  0.0975091000455175  0.0924842128947512  0.7798817576517867
  0.0244792182896946  0.8671927625766720  0.5479280907403102
  0.8534499757084465  0.3660292556771322  0.2395751912756700
  0.8026164869346150  0.3499071816961392  0.1689599471005417
  0.0868489949929283  0.1067181949751804  0.7148350671495354
  0.7458157272260247  0.7603935257909207 -0.0244550633246304
  0.1336251561674124  0.9852838915716826  0.5413200526018497
  0.0024991064040903  0.2593068870328190  0.1588302487657990
  0.5304369444179927  0.0044847895093761  0.9012854808142589
  0.8917753494575955  0.2300256025533246  0.2443832290492630
  0.5693519785907528  0.9529106343084323  0.8772902120928953
  0.3832938943349979  0.3971587414886872  0.2952161925719433
  0.0569636080618835  0.2095162604400692  0.7467665495717309
  0.6563336388938600  0.5023322673649554  0.2937457070212954
  0.1114337839912909  0.0782440407524553  0.8380233136712208
  0.0709936418577050  0.0289486557084363  0.8420044157534233
  0.0303944067696663  0.0854746702703845  0.5852176859151236
  0.0534740435826625  0.8156232831421794  0.5746738828945943
 -0.0011884100260834  0.8032879387602674  0.6906961575634922
 -0.0045329334303776  0.8233157020065381  0.5959033517422035
  0.3419277420980836  0.3601252076246574  1.0008902916062987
  0.2573633861454853  0.3105588641465554  0.9630924522254202
  0.0993872682496202  0.8192038036738684  0.6154415139890201
  0.2599894869353293  0.2789859233424599  0.8587326818781422
  0.2223308177009767  0.2291545095635329  0.8527409957121417
  0.8330214114422377  0.7335585525182372 -0.0085839396637879
  0.4364780916003280  0.9153537828943878  0.2488566365820927
  0.1074046211943451  0.2148185862057755  0.7050251460856991
  0.2141242072251920  0.2426487218171137  0.7927728326436121
  0.3862393366688919  0.9460139325965841  0.2195048273746132
  0.0644935088040786  0.1940479137980427  0.8070635531632269
  0.4795837476653056  0.8393424872874050  0.2329040980974884
  0.1242935592184043  0.1575356338148613  0.7213728283092443
  0.8386140005743827  0.7137930870266935  0.0549685972776612
  0.1490620600641029  0.8283935722911289  0.5784729475209046
  0.9713068321177327  0.5686924837516185  0.6276356024049349
  0.8346180894763908  0.7191424408427159  0.2794797898171845
  0.3385533681639805  0.6503010585064749  0.8384642735016666
  0.4381897703346910  0.9410952055908189  0.1203613354016679
  0.2647823551253127  0.5509737204569748  0.8197481729983854
  0.3652136880601884  0.8216279836511062  1.0150987303062962
  0.3671661952024043  0.5645516463627313  0.7439092496737632
  0.2901317252183446  0.9285214036107612  0.7795577339101183
  0.2209514598314115  0.5146211556425222  0.7529068040653594
  0.4210437902822844  0.7730738776450649  0.1142138954710817
  0.5251043951169563  0.7427375308862252  0.0509518274231811
  0.5190693625616714  0.6848823309277394  0.0688561158234175
  0.6245168579426631  0.6504037887723237  0.0004958643331157
  0.1314769223002884  0.4396931837267231  0.6232682737021689
  0.3074718857546633  0.8742781325353812  0.7985102896317703
  0.9761868082953185  0.5179799203591959  0.1166677135246066
  0.3388455719575820  0.9651246716263409  0.8485291439359062
  0.3032608520288089 -0.0004398307953820  0.9263748968796183
  0.3139636008929492  0.8565046798331927 -0.0038536938346920
  0.8042005924825072  0.9313883355397564  0.4357260808476717
  0.3953856235172531  1.0074053193974528  0.9603473533902736
  0.7413294447221314  0.8394858364153862  0.2109856850801341
  0.7320713594636291  0.7660081218758218  0.5172644358659165
  0.7796508878409062  0.7188008271037066  0.3792790892923488
  0.5391037022476640  0.8976244808680508  0.1157518206062283
  0.4652074174284067  0.1856911916831106  0.0551083646334912
  0.0922635072239279  0.6871771393278793  0.5081649001181450
  0.8255254991466686  0.8144491596481962  0.5390318155620226
  0.0760549764282826  0.7271805453726513  0.5541061040153206
  0.0863137596668396  0.7093951239348835  0.6209150608572992
  0.8754452457047747  0.5642083717062110  0.1212092143856001
  0.3965203373270814  0.6435037395562803  0.8632489366275724
  0.8883106524957126  0.6831607867056310  0.0826437294073866
  0.1518112924541116  0.6874228360092781  0.7043516868819935
  0.8543030943400428  0.6515816324910229  0.4856545148059668
  0.3008854615950404  0.5998664837588189  0.8309698708324819
  0.3318805350645440  0.6639227534346795  0.7765828354120548
  0.9681758170189311  0.5589617862172902  0.4475136370519022
  0.9899637186217677  0.6870780784310048  0.7793120918684043
  0.7843870471344044  0.7150796795636275  0.1508252190603923
  0.2857012199947380  0.6295990844253445  0.7088666057425226
  0.9147126404595550  0.5265027758539733  0.4406760344319534
  0.2714505230764249  0.5211424205670230  0.7152567535436791
  0.1680787035879912  0.6167258222097532  0.5516908056559208
  0.6959652974954094  0.9132554367750905  0.4652916962676149
  0.1835354660919347  0.5122234341886929  0.4721963536679526
  0.3149351544633785  0.9185706715263292  0.9102601707837008
  0.4880324919539742  0.8733470532644599  1.0349078054117706
  0.8406699113051372  0.7284179801831470  0.4492894745619214
  0.5152725213334658  0.1535907535434658  0.0788887442566396
  0.3807281049813512  0.3656696950296697  0.1909426742492779
  0.5734174923605717  0.2436853522617966  0.0718258839442361
  0.7314493618995851  0.0527093745069014  0.8334950450764625
  0.3210184736781300  0.8078555166176263  0.4204948434028030
  0.3248907692372973  0.7413891652811597  0.4418956920823353
  0.8729030288748858  0.4124123132971599  0.8307013875190432
  0.6656852216581352  0.1928218015838629  0.6749091791648452
  0.3200756477379695  0.8602960082967412  0.2278034563479094
  0.6747215286712521  0.1516373900252402  0.6278821797359131
  0.6171952072274336  0.1615378960349009  0.6090958294244936
  0.2072349080211900  0.7641943803108884  0.3359923325534379
  0.6536637660583954  0.1017971176535971  0.5101543534561565
  0.5965800828962058  0.1361204605564018  0.4925488531654681
  0.6290295428859418  0.2945673727789524  0.4773903227322813
  0.9279303006188144  0.6871824605095508  0.5989678172355272
  0.2290623683995604  0.9646263150311459  0.4624107259695768
  0.2168614172623094  0.8456220838129973  0.4467601310863176
  0.8010182902737284  0.6907671493111175  0.4992805598323585
  0.8328127144189592  0.5032591105101067  0.6957703564300123
  0.8794348866117332  0.5377523320073708  0.7637861269932039
  0.9106036524485587  0.8210960508967813  0.5102810014216770
  0.8192231136599648  0.5448306299643028  0.7401868628751529
  0.8380717750066131  0.2000812834629445  0.4634115515925592
  0.7292500168924976  0.3363510987221769  0.7308870380883592
  0.8882332314385164  0.5219349515702199  0.8220511614010887
  0.8231366646040016  0.2266103138353236  0.7222263649836570
  0.6216115560433315  0.3126636146461539  0.6423219966709618
  0.9800518658296917  0.4399736053447272  0.9228244008858502
  0.9311494076702611  0.1103922942800764  0.4168476049142939
  0.5719778875607707  0.3049255835451457  0.6817134116677352
  0.8633626584124773  0.0710590574183440  0.4746602327773595
  0.6374561156263922  0.2715056707393551  0.5997309154980147
  0.5391787777919257  0.2246852960450911  0.5736974668023779
  0.5244691454107074  0.5551237369110746  0.5201016321488126
  0.8780183512323542  0.5480142849618077  0.9471324156580836
  0.6471641271350348  0.4591522617717820  0.4769933180890639
  0.9883733439362784  0.4302969259168972  0.9826074961632731
  0.8508050890994249  0.5031634129907059  0.9162528972916802
  0.6866191233808412  0.3383311911004154  0.4243681310377210
  0.1141835568124043  0.4129692777291177  0.0152092147721438
  0.9045441620127853  0.3431076867341274  0.9068368852143950
  0.8442677061353155  0.3475238326599309  0.8842681047997453
  0.9093089438674756  0.3109154318345308  0.7970341269831983
  0.8220233083470869  0.2543773070361448  0.8277110700305405
  0.8948913696494226  0.3548894618442398  0.8474940879045301
  0.3889181318924378  0.4574428490053579  0.2760211654987484
  0.7419106196088598  0.2957230584398127  0.6869331072454479
  0.6504813433817858  0.1651326221932109  0.5006710140075525
  0.4896162119029969  0.4110733710594477  0.2679349478217136
  0.9818243626684685  0.4101948045744357  0.8162237358211178
  0.2738397013590638  0.8806666587073060  0.4442076485550100
  0.7245732630731648  0.1846868175833614  0.6950701993152005
  0.7297389803160667  0.2173928266154700  0.3645445589009292
  0.4017382095366132  0.5316897153632452  0.4823187064897618
  0.4516246333287981  0.5802414208991571  0.3680413064706629
  0.6466963758044114  0.0475929291625080  0.9180509535456667
  0.6839777137818310  0.0522048956880900  0.8774314363787796
  0.6230762311655398  0.0561341705463615  0.8518354269439586
  0.5970168666732003  0.4574936684267152  0.3468950029942638
  0.6590409840795290  0.0725549487208375  0.7485558847955696
  0.8783773351854323  0.2724011480106047  0.9620747201283025
  0.6590723399417827  0.0155237985858939  0.1142473336546233
  0.7024777047353492 -0.0065250216429781  0.8977940894963508
  0.7241777865074099  0.1535315112782384  0.9201096895601212
  0.6977614311175141  0.1534744807541501  0.8553973755706660
  0.7673441377625801  0.0663881147339219  0.7251612780246685
  0.6968382248528268  0.1221881082200868  0.7526308528151638
  0.6051788677324038  0.0367563579469276  0.6849962533916844
  0.6819742487931665  0.2594956565162252  0.2765330599403334
  0.5434921862695536  0.0435829253721588  0.6612329210809820
  0.4797463050899460  0.0542330145817007  0.6331724544108822
  0.4565551442442676 -0.0254951222570187  0.5280402477676380
  0.5822777476556112  0.3049942246611441  0.2820463502926382
  0.7611476859209820  0.1467913587960063  0.8779909728249320
  0.7060834668475610 -0.0303695163061168  0.9722579956250610
  0.2410032023724347  0.6752634378365121  0.3930533966429940
  0.1644920767868150  0.8395976276293993  0.3588167229868993
  0.2916574024842630  0.5514698005097929  0.3248588113113020
  0.7843227644112454  0.2328335519530493  0.4352279693910757
  0.8609116566802610  0.2725866721325349  0.7328907743514574
  0.7756529685329914  0.3712628014536522  0.7986499754876559
  0.6952632108359492  0.2609728975282765  0.6214170254269638
  0.8293030361427172  0.1580191399951087  0.4201857940308282
  0.5568052500269373  0.1959937029735076  0.6922611850172119
  0.7209499996539677  0.3543773247871835  0.6681689382595885
  0.6759109006709251  0.1158175679050554  0.5742201583595973
  0.6610174815213530  0.3600518029648127  0.6486330319943239
  0.5342556847103141  0.3348494358396317  0.2542819076651119
  0.7121095910864019  0.3711297537708472  0.6000496648129142
  0.9203847951334538  0.4478012824700685  0.8976252876236672
  0.6744943054289938  0.3180573649590401  0.6049574370645872
  0.4774148911658028  0.3042286722032165  0.2460761920055791
  0.9336881176063345  0.6214720660323676  0.0002260661426979
  0.2214446529587960  0.8716824655671686  0.3677184498941903
  0.9137981800131838  0.0043805513273883  0.3915249272646799
  0.3492413829507245  0.5945289636196579  0.2725389310683251
  0.9321761454471886  0.5549866470060993  0.8956715708911976
  0.4025493340437851  0.6104489177774962  0.3402905712039904
  0.3237637514022610  0.8541046126252609  0.4679626284432573
  0.3591541623193555  0.6759995507882076  0.4159720541022042
  0.0442792922190469  0.6775285342992056  0.5494698138381452
  0.7328838408904068  0.1400812637487576  0.6485347616175600
  0.1303279335233421  0.6316150841032976  0.9314438570512023
  0.7420305376430171  0.0347085735934411  0.6171912244325137
  0.6256952548398013  0.7483101383595833  0.3146808118340353
  0.2370778568241076  0.3535897564928288  0.0114355493135211
  0.2005387137976155  0.5734168928918250  0.9816278993304536
  0.7160518667565420  0.1446416630064650  0.4477336911843540
  0.7578495094052432  0.9874484186333369  0.2811312065278939
  0.8600094829966844  0.1269408754319759  0.5247421602606857
  0.6719344663336456  0.6857717049293759  0.2343728677989177
  0.1855110413558465  0.4813901556535226  0.0764542573511434
  0.8008135694374422  0.9147718529976600  0.2651920497951803
  0.4700099522197301  0.2300186407410790  0.0993004275107140
  0.0272936327436234  0.4752913436718553  0.9882852933075615
  0.8853011277071706  0.2170968222392270  0.7440366407651350
  0.2013968456341912  0.2010735764561183  0.0158127488606396
  0.8349650663975086  0.1851440071652782  0.6755674942162602
  0.9510666194941573  0.8106743300288706  0.4116089856259194
  0.9556088213118753  0.1965949696557119  0.8256189610444595
  0.2824736136121798  0.7651366844124090  0.5794105273677080
  0.9298737835276693  0.1017914108220962  0.7749756681761900
  0.6794289689895445  0.7475339546431495  0.2182885520112390
  0.8135658569430090  0.0663493678445668  0.6797337211818314
  0.7738638938718008  0.5124307204025601  0.6734466123539086
  0.9524622278528937  0.8680884344651770  0.3948065074803011
  0.8003517955663126  0.4281708395680124  0.5812132504068226
  0.7830002911869814  0.0867028630235634  0.9019191021432531
  0.8821787672772951  0.0963736047649876  0.8194225147551565
  0.3692872942008815  0.2785500087642128  0.1090735704114152
  0.9464780024963376  0.7591975823440369  0.3636267597118950
  0.9841833146900502  0.5256889645079922  0.5831934610694686
  0.4887478766718102  0.9801054187714506  0.3757619503425806
  0.8670024455941810 -0.0429571947700638  0.9801181360136393
  0.0972372265723403  0.5559931270893225  0.8127859463932867
  0.9793937325434459  0.1554431108210402  0.9496653620831932
  0.5436697157636101  0.9638453129842532  0.3313972825129012
  0.9818135711783629  0.1158622270123087  0.9073345295847999
  0.7169317821138791  0.5940081792826880  0.2839045230853646
  0.9850101423581503  0.0922272138930096  0.7945455854698609
  0.8209104923444189  0.5949112721641444  0.3199268504715577
  0.3594867654250651  0.1754588607451966  0.0777032063344172
  0.7699157390725803  0.6096144240609044  0.3525937298526786
  0.4598190462203430  0.1403786326198638  0.0022800630822065
  0.6018329767284133  0.8505172039814369  0.8492048751365503
  0.9503365466332150  0.6771725078247680  0.5015469023835050
  0.9348425328254149  0.6560094377768246  0.3372451646088261
  0.7686702059622127  0.0591870169350641  0.9581547377188694
  0.8639286536757277  0.4741349515658334  0.2634501736948252
  0.6875635297043020  0.4329664762827801  0.5913542838209160
  0.4336692505673310  0.3943255991659162  0.4228895875400468
  0.7130454360579453  0.4953630799419260  0.5488765496331468
  0.8946873296703380  0.2287810233069118  0.9141140918061003
  0.1980536530476884  0.4668025111031628  0.9763433732483046
  0.8187853727360150  0.0300511531958199  0.9919117992420561
  0.9248053525219371  0.1227581499040779  0.8762512177361421
  0.3670774524172200  0.3084165143814047  0.9528508812657217
  0.8967396781079239  0.0041854522919335  0.8022714594705992
  0.4078788536768614  0.1132573729714985 -0.0039793679432272
  0.6098365828299650  0.9688674987844292  0.7729336192016704
  0.8900276299503590  0.7769106068857357  0.4027707011083729
  0.0921216491901662  0.1497850847789926  0.9925056213047954
  0.7352310171598025  0.7444026431709558  0.1244293944643665
  0.2935065113857183  0.7291470166933670  0.5326604061718666
  0.9476373187626775  0.7330962996884400  0.4877680016707390
  0.4009680683959920  0.6820460423382080  0.9668948877197701
  0.3883853288938528  0.9706839868355273  0.0913218375257218
  0.1828731983851615  0.9016353763429183  0.6888210741883547
  0.0817801473710273  0.0095113561173066  0.9230973051554219
  0.8977737500284368  0.8408701855134656  0.3822716576868846
  0.5354122827305785  0.9217324096324707  0.5774624739525661
  0.5378705184483309  0.9005057597740252  0.3496322777327695
  0.5265847475775555  0.7937707577376495  0.3223693527678579
  0.5705370720250953  0.0281867138502068  0.5526910363575709
  0.8376600990644912  0.3372383600775617  0.7156234429389750
  0.7326009597596942  0.4243839205331399  0.5600024348957943
  0.6853686111919914  0.3860269308659773  0.5283001696534277
  0.7128252366841807  0.0989471632054716  0.4090347037575963
  0.9294565036151177  0.7505430888950860  0.9676174921577119
  0.9876106410360826  0.7083584871275981  0.8823344267910599
  0.4559014335401650  0.6255625264227046  0.4089750573032524
  0.4498331892884510  0.6204744054216542  0.4757873770401619
  0.4988165969610780  0.5369294158909703  0.4575242636001496
  0.3553374386686952  0.4920199746219102  0.4778697224717635
  0.8490421469409684  0.6116975135093586  0.6880004603466388
  0.7752243469577166  0.4831169598002421  0.5660703930601857
  0.6437983029829503  0.4145606283765619  0.4359669303507340
  0.6399217581375023  0.3670372926465226  0.3950125299039555
  0.6286244787755209  0.2605168725557874  0.3722147310278608
  0.9313659630363526  0.6955225479486801  0.7629394229801008
  0.8648406760120183  0.7203205424368075  0.6802800245856502
  0.8918446243979521  0.6354548738038118  0.5880718444159485
  0.7628947611362998  0.0362634509179530  0.3286725766614736
  0.7660883278812177  0.0812719044791469  0.3708818648240382
  0.0463083352680459  0.0851377473900470  0.8236266786581128
  0.8580179593535817  0.1177707070587360  0.6870865703261434
  0.1843300929109770  0.5162640216355904  0.0124257005441263
  0.1785582691203054  0.4240357038946286  0.0350127703300375
  0.9606670940369469  0.1433893785232722  0.6101559456612993
  0.8527773493390490  0.1983957814058470  0.5252112136162193
  0.0607710432288923  0.5065416808052976  0.8065205992984688
  0.1589495790578134  0.7071855740388452  0.9876196880310688
  0.8932572484568765  0.8111284845289249  0.2755277112531015
  0.8135837490889534  1.0022857368821763  0.1195111011191100
  0.9406097006934300  0.1832468172442377  0.0986304244790807
  0.4162626729606479  0.7885351198750702  0.0507274564937385
  0.1006027624829357  0.8545554076402743  0.8893239619710455
  0.4195685307872458  0.7461030822944471  0.2407650435530014
  0.9506734409877550  0.8239490259137753  0.1161002314119177
  0.8312773046237754  0.1650273873069341  0.1233388518934655
  0.3198136549361589  0.4227936714647786  0.9132675800225356
  0.9906880883131692  0.6407948213136144  0.0752450917161467
  0.9417195626130802  0.7018411618537375  0.1528218358707394
  0.0726756289475289  0.8363165853558537  0.9870873560793312
  0.1632714257253940  0.8217489665875221  0.8037727470535231
  0.3403507279683440  0.9714318840428184  0.1889658527424007
  0.8449685741984214  0.8072554573399525  0.1430911278598029
  0.8508752020319511  0.8826258325320734  0.0588993485175309
  0.0010183982990417  0.8094295078432081  0.0812408825342385
  0.3993369492923842  0.4918414411820062  0.8192726481875116
  0.3838254329234199  0.5345071327714078  0.8608728044701897
  0.2531956348455631  0.9035176058892009  0.8857875263754669
  0.4462070736427526  0.5278075948267900  0.8834506641875901
  0.8782718375888890  0.1075592854986752  0.0443480750819349
  0.2744590987632569  0.6125309765415831  0.5335444191179103
  0.9088493883666848  0.9310841044060068  0.2377430802238257
  0.1801692530082404  0.9275680154671171  0.7978536312420847
  0.9429967335555116  0.7156526022427534  0.0913036981366791
  0.0763642778593054  0.0998671927299459  0.5414181502742501
  0.8521548586779467  0.9005420550964780  0.2302584013058309
  0.2130173089010891  0.7296651047730496  0.0082926807459763
  0.0978145020901056  0.7319428822351499  0.9617740996898033
  0.1756195489561028  0.2908192997106711  0.5490687120064206
  0.4189803227464642  0.5717094756913003  0.7069397889932604
  0.5222921507015750  0.7291438181402534  0.1117534953165649
  0.9174061779369902  0.9709391033411323  0.0465488595609549
  0.7799537170020419  0.1821719905880169  0.9331322197098200
  0.9785148985353961  0.0672248340998732  0.0376531336583243
  0.1613924845807682  0.3696348267465970  0.6971890719751349
  0.3499415821991745  0.5913450671864745  0.6234516581747903
  0.1805458443782801  0.0448692111920167 -0.0169903057897173
  0.8564342579303724  0.9313845580522572  0.1049466921672054
  0.3299529094027260  0.3640658622449257  0.7039633630021371
  0.2041439649880027  0.8942261763196366  0.9275746263998833
  0.3748303873571742  0.8541716357430797  0.1291034056758950
  0.7895679240084074  0.7765594387810851  0.1338914337597707
  0.2811177797251654  0.9592953717118979  0.8838866255713591
  0.0404482670346704  0.1247250030728908  0.1548944100220327
  0.3419455010091490  0.6074062688098303  0.5548130454945547
  0.7303356745700142  0.2461296624104146  0.0144723628941861
  0.8562254849711215  0.9452697727879382  0.2748881714303908
  0.4780424762586451  0.8067528780432227  0.1250775832280927
  0.4183681528117483  0.5741419309027573  0.9461460206024268
  0.8241186583908973  0.4367475462304252  0.0327200638217294
  0.8153020602968339  0.4974853657266938  0.0127323881535722
  0.8670766313737300  0.4552052109888778  0.0975756851646552
  0.1439261291925986  0.2916556639881387  0.8109186777732946
  0.7081657933302803  0.7273010648478168  0.8999314908114224
  0.0281117835621638  0.3139041837260688  0.0242835366121634
  0.4111074911357233  0.0693511029987853  0.6169506723267973
  0.9939468935682201  0.2197715526094882  0.7268117179027906
  0.9078795598779584  0.3167451275736446  0.0994020857154419
  0.8514775559156414  0.2875198621582228  0.0918984788534137
  0.6382983984549048  0.8046318166536516  0.0658378649317431
  0.6795465363385623  0.7277192815254711  0.0546613814088541
  0.9844863067686939  0.1097114978537151  0.0816606407683157
  0.0782494382630755  0.3003006933888169  0.8178503162475492
  0.6608799906298561  0.8061989727702555 -0.0107320311517449
  0.3890598696056520  0.9574352975077310  0.1542533878517298
  0.1428863684710589  0.4653350182223373  0.0117834802905751
  0.1510041304515396  0.4263195003057365  0.9082026158685093
  0.1060326287203494  0.3867879397516540  0.8398688287967150
  0.8208747194845595  0.5345363961879476  0.1129854041028972
  0.1102457856639558  0.0622420949473209  0.9032764719624704
  0.1277976479983461  0.3309412405556222  0.8582309195829984
  0.4593027838702569  0.6348863647776233  0.8904313324108200
  0.1966385937763278  0.3149874172983237  0.9494724243934382
  0.1721032353698170  0.3704550831293026  0.9273092386229420
  0.8059775294268980  0.9424724206375155  0.1396694858116660
  0.9718824815653486  0.0025970730997525  0.0550615142562583
  0.0586445944529903  0.3137557199802708  0.5043966146894153
  0.5398634993344739  0.7030252358851283  0.7945444146204262
  0.8459542188811964  0.8201713488517683  0.0827035604781975
  0.5017440050769332  0.6575854407562243  0.7830884261007051
  0.9007152786169048  0.8042779383361751  0.0441691014634057
  0.1350401050460077  0.7563742631187744  0.8572848117814120
  0.1171414376185228  0.7876480331582111  0.7355010993185211
  0.4416615175417656  0.6643993249230035  0.7618955417312103
  0.1714276186808575  0.2345528182187576  0.5085624439347142
  0.2450009123599081  0.2758964914376494  0.6323170485168215