Cr N  Ni
 1.0000000000000000
    39.0510843612861720    0.0000000000000000    0.0000000000000000
     0.0000000000000000   39.0510843612861720    0.0000000000000000
     0.0000000000000000    0.0000000000000000   39.0510843612861720
 Cr  N   Ni 
 1596 213 3725
Direct
 -0.0533314521062521  0.8588214938616110  0.9719454620391225
  0.1422599918205716  0.6595035510622940  0.4129386501710295
  0.0547094204854931  0.7377912223072751  0.4672825740916676
  0.0554249962046594  0.8659470999217456  0.4437987065494109
  0.2619693030855459  0.2274628139350771  0.2551306384877504
  0.0529166272147017  0.8316688374661457  0.5022467027113390
  0.0096263337349130  0.9500631140815052  0.4578769817958760
  0.3588784120586735  0.1512337250378220  0.3676691797806665
  0.5447078949920523  0.0104246093785324  0.3848003969465303
  0.4040766165026148  0.0899695931977253  0.2889281253275868
  0.3015661179015274  0.7386100467365151  0.6987724261060538
  0.6512577653639456  0.0056670809722369  0.4187908149008060
  0.5149673031042574  0.1167589774516377  0.4274085284851072
  0.5153436775871257  0.1340488907144531  0.3680742622103600
  0.4189321873476581  0.2263438056832327  0.4218345812126851
  0.1763975473904120  0.4617498603279692  0.4286181419698225
  0.9103828644799867  0.3308412619000322  0.9759818372881025
  0.6524196065575187  0.9910389190346598  0.2431873853546394
  0.7215876547989039  0.6716722134068185  0.4283740167764933
  0.7701257036919746  0.6619785526899934  0.3964667128293098
  0.3758071465785844  0.6894886992781343  0.6783127900117101
  0.3182772201354755  0.6683315672831386  0.5321761014286730
  0.9273756486132773  0.5804842555977728  0.1906557491562930
  0.9807951790825011  0.5967732015169195  0.2600214196445405
  0.4679740381721963  0.7598947130385666  0.8159513599881050
  0.5422806459655868  0.8606391453080704  0.8265376720652731
  0.2536669338455311  0.7475774988051480  0.9074695794448853
  0.5057297670704655  0.8106407992894712  0.8215672622350358
  0.3005332192876364  0.7960540809909527  0.9676531017836685
  0.4369780940874241  0.8304534371257437  0.7384494151490568
  0.4959712997779074  0.8246142256573572  0.7598902100261554
  0.7881560868590600  0.8095309317637110  0.2390992266387450
  0.3333228233581130  0.7478398224774075  0.9862305159107306
  0.3833928549664684  0.8086141700970008  0.6094077098327408
  0.3161521431296325  0.8546744733923733 -0.0046322354647826
  0.0293238081066873  0.5608659529307538  0.6437275303650493
  0.4184966747259710  0.7086874436806189  0.5810915103965052
  0.3667107478095476  0.7072270615591388  0.6106898674359478
  0.0778235805446972  0.5872309959871899  0.6955620861937762
  0.9925112188163546  0.5378275268964385  0.7527343211038602
  0.0884065093626738  0.5728338328845202  0.7543917775150317
  0.2594340305732613  0.7153584403833328  0.7978779610953369
  0.1408685240495316  0.7312707118164765  0.7490896372065100
  0.8190930527647771  0.6339508486085791  0.4333931261004886
  0.5951798873735639  0.8895983653466129  0.9550966311451382
  0.3885433155676432  0.9365738453054222  0.9854719326122597
  0.0663511918549639  0.6032049627373023  0.6286975475699664
  0.8161347278317558  0.5799975189853961  0.3855540815070664
  0.0637322259094733  0.9146186597687186  0.2415582377942714
  0.8353139101588352  0.2155761702003459  0.7797351795196023
  0.2423280418795743  0.5600030666368627  0.1315306404397731
  0.8579213276608370  0.1591584405323100  0.7956057040614671
  0.2405693064990922  0.5463180278285059  0.1909399110749598
  0.7833376753534985  0.1803832681189273  0.7132931145656110
  0.2892880435677910  0.4806427230589182  0.1150069757304898
  0.7366014255957334  0.1093958710050444  0.5938307657973301
  0.2864020337758769  0.4335089222522048  0.0722113958373069
  0.6301966317127575  0.0736481737043069  0.5678194839536573
  0.3851487470305480  0.3250651894320050  0.0765815695330298
  0.6078348483821039  0.0423882746209507  0.5151897890880390
  0.9415541880452023  0.3922843298226505  0.9174800051760017
  0.3736902135180553  0.3175147632329718  0.1428344691484881
  0.0270046225922076  0.2950704701232746  0.8570833405606950
  0.8251664203678594  0.0685430716355875  0.7485959501275028
  0.7493836777508316  0.0006509091592704  0.8519861665383962
  0.4007041769012224  0.2767567772565068  0.0159639409200194
  0.8178869688863284  0.0477380047869488  0.9149967134874856
  0.7795517173238251  0.3465851776058462  0.6920116526559179
  0.6221170353404617  0.1804570454731548  0.2213181549632335
  0.6173029015779108  0.1172226714457619  0.2373888537381941
  0.7440862495216557  0.2740315120587298  0.5789136399191738
  0.8043319938458779  0.1179325036234547  0.7282120899160440
  0.8668814525599084  0.5509112699194390  0.4139664798740418
  0.8628097767773916  0.5051816589737604  0.3709038144139633
  0.9652628819745483  0.2358209540106836  0.9221371777260263
  0.9709352441837327  0.5212694932325654  0.3423784543733893
  0.5845303402511879  0.9441840560679794  0.9380296898534336
  0.9104275947732726  0.4286856762413583  0.3557306145630306
  0.4142969898517336  0.1815565918542690  0.3776876567626855
  0.5044933758663637  0.4812188766418490  0.6388266440931611
  0.5935113642990278  0.8657070767154900  0.7876402104754706
  0.6782091370059911  0.0199367154195876  0.7679973515424812
  0.9262808889696010  0.2301665385990303  0.9640798279315100
  0.9157157697386497  0.1575670571884180  0.9117731340978997
  0.6096843906109288  0.0450777236359875  0.0840252057362273
  0.8144952388171907  0.1420021142478868  0.8974273475752496
  0.3715287166029608  0.7183406164890730  0.7834710682931517
  0.4317270759347757  0.7087726768516401  0.8088820118809077
  0.8340608056124643  0.7308216241207931  0.2204360274614411
  0.7386303997408313  0.0131845199248981  0.7878093115948449
  0.1067096253053493  0.8391964941622166  0.2240543186660414
  0.6515556608835801 -0.0074206229193536  0.6610750919115280
  0.7003658299279535  0.0383354804183084  0.6577133438419599
  0.6751311589194259  0.0278069024691424  0.5395039018297533
  0.0995564671548970  0.7336329997358703  0.1953947697967703
  0.1998267889049566  0.6850070792676425  0.1881103332942929
  0.8474405811837392  0.2019438939769714  0.8394805934366179
  0.5028568691837005  0.0335656932375394  0.1088830000061222
  0.9160767886898723  0.2862009798814268  0.6884027387611429
  0.8891406531918479  0.7152698373423473  0.1858778649607682
  0.0666235142797199  1.0175796002629200  0.6341001983686153
  0.9337395428218307  0.5648867119429714  0.0145817827063366
  0.0354275726145936  0.0449133930614193  0.7822530156638339
  0.8553345199511878  0.9597405574523813  0.4487586628900803
  0.9064707854868326  0.9441983870907564  0.4106959419178505
  0.9518278505875367  0.8574375451730718  0.4490253295084583
  0.1773014179634999  0.9760752380729339  0.5039383532545613
  0.1146320402571213  0.2302461267356404  0.8670468511945884
  0.8112731736715559  0.4553421977130056  0.1947970237807956
  0.8602026440515957  0.4264604759032163  0.2204708137146885
  0.1255300925637695  0.9314545536459683  0.5054220437266995
  0.9546843806540313  0.3215826612774945  0.2360271038940355
  0.0907787876543798  0.0830995073758824  0.7761338633283640
  0.0768692656971158  0.9174405695347955  0.5494156196180568
  0.8535088231764125  0.3655912555902546  0.2401446955653908
  0.8496438083004018  0.3188045574954369  0.1970040965120672
  0.0851167292664175  0.1049853920269198  0.7145469738455249
  0.7422347025904601  0.7714570489843040 -0.0154295294046755
  0.1243290622281962  0.9763495603520572  0.5472047113045051
  0.0026379886504619  0.2567018263008923  0.1594977446496442
  0.6044679472616095  0.9998065481234836  0.0397964438214200
  0.8933260372113744  0.2293733520784199  0.2435391147030558
  0.5699232938115610  0.9574548296796281  0.8761915467207717
  0.9589220035927678  0.5004277940330359  0.9059452455972439
  0.0607227334410016  0.1630549270672131  0.6977023884480845
  0.6589755190663689  0.5612365327061164  0.2715660180535761
  0.1154784486238456  0.0791143841939746  0.8419078629993778
  0.0748306106737196  0.0320348158323928  0.8407503193233039
 -0.0025019578974969  0.0416014929927617  0.5604286144104225
  0.0585447961358766  0.8162488346100841  0.5578792556860693
  0.0468702322825813  0.8657256688696680  0.6054652904717599
  0.0033724802882427  0.8103906270913396  0.6014405475816503
  0.3103331814087067  0.3047400362418355  0.9853440749561909
  0.2571340781918042  0.3094839914562243  0.9626429528114074
  0.1009849460537094  0.8209683782185687  0.6133623777213050
  0.2606190953138295  0.2795911262111039  0.8578655453407513
  0.2231864671269768  0.2300259059480188  0.8516804705805964
  0.8365808399127197  0.7358791891028675 -0.0043634472643582
  0.4313318217807654  0.9147347145544236  0.2499975275252106
  0.1025343727359040  0.2084663069530107  0.6967544602560566
  0.2148400449046243  0.2421900288927233  0.7904814457870077
  0.3847384159220502  0.9438382881189719  0.2209020661676971
  0.1134129740028650  0.1965375641261130  0.7635115876926813
  0.4753533701539976  0.8379569292843538  0.2364706946779797
  0.1205651706203601  0.1532988215868975  0.7131696757401212
  0.8359874950077988  0.7145326723321136  0.0573586901002395
  0.1611630988930028  0.8116927628721271  0.6365103249510229
  0.7057443522832898  0.0226328089281745  0.2518388364582136
  0.8306589553877110  0.7166165966503433  0.2826597755570195
  0.3948859777592658  0.6577661208321162  0.8015932369179524
  0.4375939817492676  0.9395220225339078  0.1174337291299260
  0.2644959444693312  0.5503686225025322  0.8205193007839533
  0.3691865049733965  0.8066441233783809  1.0026775552931879
  0.3687770300801208  0.5644248331704127  0.7457885360875305
  0.2926232536801622  0.9301007310463953  0.7786613601004758
  0.2200906673461192  0.5145696777433899  0.7530975663360375
  0.4701117388685201  0.7607580449157806  0.0819667592702583
  0.5222025154176690  0.7437391580551984  0.0515853089219329
  0.5175802748114091  0.6846251125719779  0.0696413350849872
  0.6256201464235837  0.6529818527865883  0.0052950956918806
  0.1288475064510390  0.4401479759803054  0.6237857892059824
  0.3015431205519853  0.9170995741465749  0.8418370109150650
  0.9200473338711721  0.4862823564821049  0.1104614533880029
  0.3509058781305197  0.9683516392997074  0.8488498560884145
  0.3544176833619432  0.9538840758374476  0.9173522710427939
  0.3287910105175148  0.8940257066656327  0.0399810768416107
  0.7999952152396480  0.9309401849961169  0.4343445936754541
  0.3948405158056196  1.0059086016454231  0.9649553877769689
  0.7393587872139313  0.8392812938132892  0.2114076154655726
  0.7333463712267533  0.7779472209523279  0.4591457351154656
  0.7804424281673723  0.7192784929283804  0.3780359519908474
  0.4903851165743988  0.9212058477949637  0.0813583739026064
  0.8652223103637423  0.2544596077769115  0.6222417248810324
  0.0943504363525586  0.6834028054808261  0.5067577374258606
  0.7931294859037890  0.8077771620385453  0.4778868028311198
  0.0769620082996251  0.7264946628328274  0.5560481206380197
  0.0863935581405946  0.7120867760769276  0.6198602291124542
  0.9307913301137116  0.5961068296646658  0.1273009464507868
  0.4014161126499408  0.6411705295626042  0.8647901739977851
  0.8822097949714071  0.6235888648391188  0.0998893597809872
  0.1917283720336807  0.7381406172152661  0.7118400152870832
  0.8730709654038593  0.6043617395705010  0.4594890605588954
  0.3416786737508004  0.6493505388726279  0.8433556215953062
  0.3307040420357136  0.6656631527196097  0.7746548851175253
  0.9660082573751777  0.5606105613710152  0.4521941701826446
  0.9921155836219887  0.6890674639531699  0.7806231073919185
  0.7820592419839090  0.7144638085858488  0.1510116678708629
  0.2465878886926465  0.5781169250932844  0.7009116420751900
  0.9618240865284244  0.4957513264031401  0.4716431439096227
  0.2985977503254761  0.5859171936921341  0.6587139330729571
  0.1694132729702268  0.6173666759762717  0.5509386068128279
  0.6941549722952591  0.9113740722737160  0.4740053929667859
  0.1833141808570205  0.5066220190112526  0.4733328961698536
  0.3143515151712694  0.9089143114460095  0.9145581245273499
  0.4869934856619275  0.8748075670963628  1.0384522107127001
  0.8402802191790868  0.7277784493708167  0.4503766856318487
  0.8457178766588508  0.3135570429363143  0.6085147491274048
  0.0041286856228744  0.8534557755940642  0.1275031621129280
  0.7874779905708423  0.2679419231171877  0.5403800388842596
  0.7437581363743414  0.2307417996930781  0.5315128777285982
  0.7809055497897298  0.1843380767390128  0.3916185971393787
  0.7205588039161025  0.3595723201383680  0.6686524555778681
  0.6842644694203761  0.3089058281542181  0.6619109585150905
  0.7117913800734185  0.3755794777778334  0.6053785064407855
  0.6741549714724808  0.3251101386120256  0.6000037224161913
  0.9329129519958120  0.6264041749900715 -0.0008429212467138
  0.9123409195286650  0.0024118513067157  0.3950970068890715
  0.9329667263664059  0.5576230644814645  0.8951971793322244
  0.3188808163155153  0.8522683933623648  0.4635558740753816
  0.8879822561914879  0.5246384508077330  0.8240318966860068
  0.3204008351393436  0.8068022071287728  0.4185066889194905
  0.3538197937378793  0.6783607047540969  0.4221720171638579
  0.8723403686327950  0.4145246478116253  0.8333679979383243
  0.6634614759748142  0.1980069471621107  0.6723156959520378
  0.3152714375204196  0.7767670576501275  0.3127089845332149
  0.6244959048989169  0.1484307487629335  0.6678353423153014
  0.6127222313945365  0.1657962334007564  0.6071222531481004
  0.2064274693634458  0.7624950242954499  0.3368413503156678
  0.6132855027708142  0.1318310213557466  0.5540380093645725
  0.5604986724191316  0.0867168368493733  0.5379760210767801
  0.6820465419390132  0.2736507152860651  0.4439113833677533
  0.7755863084233316  0.3733717307341380  0.8013805798930872
  0.9286081218005747  0.6890963484349713  0.5986981598010600
  0.2255133807601865  0.9607800022121928  0.4626158833630302
  0.0612689899591525  0.3763310212089149  0.9683091776642432
  0.2138607774740212  0.8426402135140635  0.4469856988079945
  0.7985682174599165  0.6909563949233645  0.5002062735899687
  0.8327601798738375  0.5060756780727287  0.6974561944405364
  0.8794278066804445  0.5400672832752086  0.7651049861028558
  0.9492061560915189  0.7945828826546740  0.4790515591905829
  0.8196998413761880  0.5474345094073766  0.7415751003386669
  0.8376993298269749  0.1981780469632906  0.4647290438529023
  0.7294203883637465  0.3398233738919412  0.7308970054842195
  0.7005269649709099  0.2750835460701128  0.7843828541302644
  0.6300684565684176  0.2980647334993652  0.7052644409594547
  0.9279230782764429  0.1087917641948151  0.4212981888779614
  0.5828820831516039  0.2643600230773904  0.6368546517350935
  0.8682744705615426  0.0694588459724279  0.4720592670398396
  0.6378531965153840  0.2728730883997463  0.5967010522400681
  0.5374072614749777  0.2319534865252239  0.5713512017374220
  0.5432615830924533  0.5011869652000985  0.4830341406010216
  0.8817514087766488  0.5487355987608706  0.9465688501479524
  0.6468233541247145  0.4580853859941720  0.4796128736900267
  0.9107040632598805  0.4918357226641333  0.9398191813884587
  0.8509294331965301  0.5030010617948044  0.9208845170945463
  0.6873044861809424  0.3342770713707165  0.4260665292414676
  0.9021588344085416  0.3424591484829502  0.9129230295734680
  0.1623078855392629  0.8376202443780437  0.3605815451297024
  0.8432999005379036  0.3484327636385092  0.8878963288502894
  0.9095100616783027  0.3141680819970781  0.8008006926202726
  0.3985065992970129  0.5930476595673206  0.4052214842723712
  0.4510802650447563  0.5781961420977035  0.3694904252727845
  0.6534293306058092  0.0491899706513376  0.9190051528091563
  0.6806998525573551  0.0551979812675081  0.8728988028419125
  0.6093047816070434  0.0714962111030780  0.7870971193412327
  0.5426085160817048  0.4248033712446713  0.3403499542411655
  0.6589845137017561  0.0753680656937693  0.7432145134016047
  0.8340301559142560  0.2223140500547419  0.9440516353382429
  0.6580433028417570  0.0141587585371859  0.1126716434902422
  0.6988591928949359 -0.0018291121698280  0.8949716679632334
  0.7344365952986990  0.2042785068607942  0.8547425590483482
  0.6864294093186264  0.1689261499343523  0.7936796904210085
  0.7091191270584797  0.1124025933840183  0.8095857141960248
  0.6371791100903100  0.1326531775479077  0.7279569242859973
  0.6083643758570201  0.0386318278804618  0.6824616824162072
  0.6764888949293028  0.2104710537854175  0.2324309310412259
  0.5456222883609421  0.0449807509591542  0.6619833172634466
  0.4828692683900729  0.0520151382325983  0.6338180602711707
  0.4487381478838259 -0.0262576132683611  0.5326485362858780
  0.5829857226071314  0.3027347252376170  0.2829344761849517
  0.7608833749739905  0.1510295248946484  0.8753781345865117
  0.7070129968149330 -0.0308591751052346  0.9711957998485191
  0.4143524888452825  0.6968861765663354  0.4234746639368365
  0.2688158583492271  0.8807860733647982  0.4423338197489223
  0.6054222532495760  0.2081755967545616  0.6519594467967780
  0.7976867166977031  0.3169514928091787  0.8149097133196294
  0.6601890203135983  0.1719458184759576  0.5649576519025866
  0.8358685626319560  0.3647765142456453  0.8259252884886301
  0.5338268973113838  0.3328214283382347  0.2548241300040258
  0.3890787840541295  0.4551724382667239  0.2765532502756107
  0.9187095267407716  0.4489159649304970  0.8982018130440531
  0.7415532080120835  0.2995894319778133  0.6850366410463390
  0.4781731632537618  0.3023995603890872  0.2468260872362981
  0.6530007288287586  0.1613227985411035  0.5012521846377236
  0.2133443668090992  0.8044586058756896  0.3902544852354754
  0.4903861104211869  0.4090133730851929  0.2686860724775384
  0.3485408160715894  0.5926039659455511  0.2742592072727676
  0.9790886268433644  0.4406475726839016  0.9249177018686224
  0.4010274028302008  0.6078212283483939  0.3427729743336970
  0.9683938850245333  0.4572731612279093  0.8638753408199726
  0.3469869990674929  0.5791925861202778  0.3349035209954858
  0.7247660571464539  0.1887036866663426  0.6920668776676007
  0.8610103237618282  0.2763482768858208  0.7318718923276540
  0.7303403547177969  0.2144371183922694  0.3647924576360216
  0.6940319453322418  0.2669341742468548  0.6190487791774018
  0.7841497855131302  0.2301744096031867  0.4354403152722098
  0.2996490780723724  0.6594894246729305  0.3507578866717755
  0.1178564027830786  0.9307827339258949  0.3136547368083913
  0.9424497258381384  0.5021631907300057  0.6802281832451754
  0.9813443071638723  0.7506429619820051  0.9320371248238660
  0.8403711087446627  0.1488511362555885  0.6245434571543599
  0.9283133374422857  0.7249055257779934  0.8666450141521550
  0.1845143025618885  0.4804415672094254  0.0766848328636752
  0.4528965102317737  0.6228998498252286  0.4094965998540753
  0.4710891323360961  0.2279783739535855  0.0969174287803780
  0.4498388538407218  0.6210796467768139  0.4784623760338866
  0.8849524116674536  0.2211962902360274  0.7421170381294249
  0.4993421959062724  0.5486959197049498  0.3985967573020592
  0.8341069738578599  0.1879882758726334  0.6716340985869370
  0.4103796092793992  0.5185891367064892  0.4906425378088686
  0.9957014572726728  0.2495183813887589  0.8252073136148870
  0.8496713855798884  0.6140931265546442  0.6884841362131904
  0.9279282401437897  0.1047711750470061  0.7716338968184625
  0.8162368117953532  0.5371042146685817  0.5759277548248763
  0.8119897836080245  0.0690249990070213  0.6822488783310882
  0.5949703941780727  0.4406315987079872  0.4088994346125355
  0.7387357078902566  0.0112221022404320  0.6160278422054589
  0.6325616357003214  0.3519613970104255  0.4612182054625902
  0.2380315059901812  0.3521101830561075  0.0105621528759062
  0.6295093793245903  0.2569446388562481  0.3719892953789221
  0.7180179109457524  0.1409782884338304  0.4472159982679342
  0.1097897455711626  0.8711877651467693  0.3324869197046467
  0.9317619692645780  0.6988427914475707  0.7629844835132129
  0.8684353921094701  0.4040561441607330  0.6666052859979422
  0.8681598178300934 -0.0479160307181282  0.9804153268301737
  0.8667921337224767  0.7223434732382228  0.6800075752057033
  0.9706794629584511  0.1843772640138443  0.9465115083422373
  0.8986853284697460  0.6221520359356737  0.6498239147317044
  0.9747967903826632  0.1253552312244589  0.9042048374644723
  0.7625015821346920  0.0344521626391175  0.3270713949631313
  0.9824444224934308  0.0913065760083086  0.7961357845438553
  0.7670134008524446  0.0781601740322647  0.3697524569676640
  0.3595793725091802  0.1726304492710118  0.0774689552314664
  0.0233453796304124  0.1443289178843981  0.8010570391839007
  0.4604581608212653  0.1410282838924611  0.0003891617254463
  0.8553154946531901  0.1212505069971462  0.6823890717093138
  0.9510423316280330  0.6767874991234172  0.4995593991618500
  0.1859705239006389  0.5134504274568377  0.0132007558444363
  0.7604721209944036 -0.0031113013533144  0.9192570912679416
  0.1757409568398596  0.4200270717146047  0.0327227803725322
  0.7762403494941168  0.0936216084061649  0.8963891716675326
  0.9450610664025125  0.1849566480812187  0.6570441992963411
  0.3723886723600554  0.2735508606947912  0.1078825168570847
  0.7133142273955870  0.0968194138281557  0.4084103362244579
  0.9229454315763888  0.4566653087684572  0.5198558480901120
  0.8093835335482502  0.1494440505270865  0.5005886062815249
  0.8106386994717129  0.4137985024941321  0.6431183092841014
  0.9134896349777062  0.4370023653003691  0.7351537431462043
  0.8343094816656057  0.4799449287291673  0.5910198230873441
  0.9755837084043993  0.4270695663377704  0.7595220385366072
  0.8909953148612939  0.3482858410877527  0.6779543044759286
  0.1991436782803173  0.6518121693585389  0.0823244667334049
  0.9502068540244302  0.3188457577449540  0.5310852769070185
  0.8836055069491723  0.3816395180870812  0.5573652593045058
  0.7899395673526031  0.2133788075675981  0.4948332864088615
  0.5739887047587476  0.2118303777177938  0.1947852653777639
  0.4922643064060115  0.8526889085536147  0.8658212614762592
  0.4955815882145014  0.0040423199874790  0.4946959421168988
  0.4375572234976133  0.9078957340085263  0.0114234855367158
  0.0274133942699326  0.7183405621507233  0.5942582310169795
  0.9710747872309157  0.5715707385195982  0.6279550423551793
  0.3831567245323645  0.3962434380782739  0.2963469055961716
  0.0438234425142989  0.6785087015752239  0.5513677419714279
  0.7184505880497929  0.1669723649736347  0.5822551949544370
  0.4804692187467740  0.3635644739242593  0.4588538327736166
  0.7743882981227205  0.5144192383185391  0.6753245535099086
  0.7482798743907562  0.4221261315459666  0.6240219964176097
  0.6831157255254501  0.4342021169496503  0.5996713501449492
  0.6784890765768151  0.4507836208002579  0.5359180019089451
  0.7319324925604190  0.4312042479247469  0.5687969814586881
  0.7148621088365966  0.4034998666198519  0.5180836058311761
  0.0455999902397736  0.7188356030697937  0.1264044153339748
  0.7693721460122638  0.3768466250488208  0.5650805868900933
  0.2073527527409086  0.7771384646881350  0.2782119719326750
  0.9589835048108016  0.3183951277629258  0.7680527168670117
  0.2476461985241704  0.6418613175109209  0.2786713622476209
  0.9514702592982622  0.4835050076752514  0.7445499470071315
  0.2976671214569190  0.5896545507717859  0.1408308706869521
  0.8485385101211276  0.4251296632895378  0.5412881494288642
  0.9572446786108684  0.6140091550826582  0.6737123553827654
  0.9370042286363569  0.1544685439052733  0.2273867573116867
  0.4935023503149557  0.9864711699464574  0.7268219528740822
  0.9736479246175067  0.7253273939392842  0.6639856534129003
  0.7569188979969760  0.0210324981360504  0.3916825040097121
  0.0474429174151038  0.7330885697676200  0.0621855277607058
  0.7835164435007348  0.0161690632210067  0.7392800059046613
 -0.0026052058468390  0.8370942928680034  0.0184894512933924
  0.7607530530126870  0.2162465259223078  0.5917498110152783
  0.4645444852895558  0.1681328727593384  0.1116643783911642
  0.9240136901537005  0.4219966029507978  0.7936235866117131
  0.5600549560530688  0.0755848982743070  0.0566701992280799
  0.5092951977866986  0.0928667384118594  0.0908495374267126
  0.7134754197701122  0.1384066175192172  0.5250881569271850
  0.9918885579062688  0.3955315302654706  0.8832282299541189
  0.0319267179846229  0.4510237662148511  0.8905256874473853
  0.9381061787564755  0.3766001318135786  0.7516462694546072
  0.9004656996178841  0.3307914318373862  0.7425294046709603
  0.0607562474850335  0.5072112172791792  0.8071179796379124
  0.1382877175958057  0.5619246687257302  0.0919682909682712
  0.8907333057424632  0.8113889831898138  0.2753229546948462
  0.8130283737608819  1.0017773379892219  0.1175989450210744
  0.9401615718713899  0.1803598424040454  0.1010379729223071
  0.4127264055465462  0.7936496225210383  0.0560177981645973
  0.1042696695392353  0.8557658920368878  0.8894649522705609
  0.4174335081898503  0.7609289812561909  0.1801170617440632
  0.9500044604912178  0.8236252946077346  0.1187836229380587
  0.8291280968572363  0.1491124615057347  0.1906927694822019
  0.3205447385020062  0.4243770509360594  0.9138546248795685
  0.9889560240473448  0.6417166096231148  0.0748217197312444
  0.9364355415502924  0.6550878926298750  0.1093601639656736
  0.0737386837103278  0.8362660374186440  0.9870816242226289
  0.1656638712183407  0.8232516158918379  0.8023595651177553
  0.3399597161187938  0.9704851014323440  0.1914771958912913
  0.8426540478011741  0.8059534523938457  0.1431835371135556
  0.8534860143073831  0.8829796470093079  0.0637430569452738
  0.9461884475889620  0.7781487881190853  0.0726698945648625
  0.3772757790342346  0.5500134330181180  0.8044237134112483
  0.3857209760121053  0.5355983216553983  0.8588695828537969
  0.2559374639782759  0.9013809972356120  0.8851350462042020
  0.4488313844184359  0.5275686029764433  0.8836304177574350
  0.8802481175220597  0.1068753886043823  0.0406526101781806
  0.3033268394600085  0.5084549355223638  0.5106739153907741
  0.9018905741790807  0.8832982946631517  0.1979371681157033
  0.1914529065230347  0.9134473902384169  0.8584430922832417
  0.8896292440023678  0.7454523279996613  0.0651099086273778
  0.0391480148871742  0.0830926226717463  0.5886995752808444
  0.8515689502904586  0.8987401659401382  0.2315543035348969
  0.2107469423936929  0.7291572998684659  0.0071406869579211
  0.1003374983186705  0.7289884017986471  0.9581059262986061
  0.1758815604752441  0.2963739527838202  0.5488268637283644
  0.3827736883906470  0.5203911155010751  0.7000590702977018
  0.5209750914473453  0.7297430475107950  0.1115950009301173
  0.8168826143519725  0.0156629948691061  0.0531545864003059
  0.7768719469176593  0.1683238803636656  0.9925948329643648
  0.9803441017371406  0.0609243915759641  0.0354147040301220
  0.2110050269874428  0.3764172581527525  0.6578946638248793
  0.3512234285178891  0.5947257351153546  0.6178624549612155
  0.1815203353041249  0.0441666004540809 -0.0167322684150324
  0.8583311582963639  0.9266903746676702  0.1027829670881350
  0.2785458272960232  0.3566261045820733  0.7411717462111755
  0.2019329642967190  0.8955638690482225  0.9213891449730326
  0.3740728651802511  0.8548441766211570  0.1335957264055888
  0.8383659377334036  0.7602109283510353  0.1011890707434420
  0.2861661050831522  0.9537470630186027  0.8933844328044462
  0.0412979504670367  0.1216288354124614  0.1558922846133303
  0.3425704709217922  0.6068497670445931  0.5565616650036164
  0.7296373076192830  0.2469925073947617  0.0130503861765034
  0.9076379030791830  0.9292774553369599  0.2397223039595441
  0.4742502500240804  0.8058247676782355  0.1285839841137190
  0.4209291469638860  0.5783304330753674  0.9474159270409075
  0.8173909850882272  0.4860997046640221  0.0731616623145414
  0.8190998990304109  0.4989660620593352  0.0140983272191479
  0.8658517119136485  0.4557260713071959  0.0988557228095148
  0.1426040989051055  0.2912973192232928  0.8116678201379978
  0.8303264326386938  0.7093586087670143  0.9435236988106405
  0.0279450587594110  0.3154036518810058  0.0277083042177846
  0.4095422911718428  0.0310493021864745  0.5668906136568364
  0.0036399573603564  0.1732917000792220  0.6774652205631044
  0.9065490445558269  0.3175321573512498  0.1003458250957298
  0.8511723019990168  0.2873023139341538  0.0907874092925899
  0.6328514229696693  0.8063593376036400  0.0701327284717985
  0.6780354937717770  0.7302069123575219  0.0551670934027528
  0.9859991651146736  0.1066571442485247  0.0843055835498130
  0.0639616128025646  0.3455632542904879  0.8653597846437141
  0.6577486401526345  0.8112227740932897 -0.0174769526986758
  0.3882324154921256  0.9558590735057392  0.1523769123838380
  0.1873224040982675  0.4806393309448801  0.9124293536528225
  0.1511571079737225  0.4298783686419670  0.9073910738830624
  0.0904545711657525  0.4338515039356087  0.8842708147841005
  0.8199209788721163  0.5322027249276708  0.1139838135825186
  0.1123153436692689  0.0622402282845192  0.9058962142026449
  0.1233117148556107  0.3297739884788888  0.8580222109583637
  0.4589457451077494  0.6340973203672677  0.8912366309177261
  0.1984474748999261  0.3166168001667127  0.9534984109372295
  0.1726130543138129  0.3714085615638806  0.9291296648327525
  0.8054299095461003  0.9425521465346990  0.1376070681961214
  0.9736109639741983 -0.0008489875827457  0.0523394515968215
  0.0585048514885034  0.3131036401785221  0.5006481907552371
  0.5416847900188342  0.7055706729671852  0.7948901619505369
  0.8448950357147048  0.8209932307844336  0.0845315006192556
  0.5038610253608207  0.6584997669329274  0.7850313874392452
  0.8995480122364786  0.8054765841593535  0.0478411059336325
  0.1366831679513990  0.7574748070782780  0.8551737785869957
  0.0699814188909182  0.7819576839963227  0.7716692470054318
  0.4432650928001151  0.6656368852426945  0.7635486919646455
  0.1113752608382716  0.2447364444253559  0.4849744625799780
  0.2455699244695156  0.2765220767646920  0.6299894543146037