Cr N  Ni
 1.0000000000000000
    39.0510843612861720    0.0000000000000000    0.0000000000000000
     0.0000000000000000   39.0510843612861720    0.0000000000000000
     0.0000000000000000    0.0000000000000000   39.0510843612861720
 Cr  N   Ni 
 1596 213 3725
Direct
 -0.0529362486113532  0.8592208676601735  0.9715468593794089
  0.1757444186036153  0.0097151962838419  0.6249946524361796
  0.9965316835227318  0.1952452932223313  0.4065887411262481
  0.1631353092138797  0.0521353729057168  0.6791436315791768
  0.2143463500638413  0.0908680866373138  0.7597855369403465
  0.1492258545408454  0.0976330197837764  0.7323457620116016
  0.8957917997959790  0.3049497083678624  0.3968073433617619
  0.2057336894890300  0.1213533403587855  0.8660730825166564
  0.3331462278060617  0.1011714977416280  0.9252885511608169
  0.2487106392181314  0.1602287842532684  0.9281363596569274
  0.5612511405254539  0.2152363664234457  0.8566742120281324
  0.3470017825345474  0.2022910823499791  0.9573710792274498
  0.1275408432782461  0.0336921927509891  0.8009022816638833
  0.4675308491539497  0.4302044459085598  0.6296884974656110
  0.6529464862360410  0.7077578719419708  0.7746932868174523
  0.5832232518984699  0.7302489266932660  0.6907041122327070
  0.5770954907988300  0.7902467671716998  0.4571906491989791
  0.1350388963526097  0.1104265212332932  0.6598720640980423
  0.4410024814717830  0.1064924407140466  0.8930730666547723
  0.2075273922660001  0.8074863270026892  0.1539665124913366
  0.2418602643302571  0.5271452778285383  0.0299537461824693
  0.5274129081285623  0.1654198910187803  0.8536346307906115
  0.2553978390015623  0.7451141424838937  0.0740284334460309
  0.4416466319337503  0.5146362626784949  0.7201834241154204
  0.4280090627406585  0.0034853890896430  0.9152749309190013
  0.8502396739876042  0.9337139006025018  0.5169196164384532
  0.8986471854462053  0.9724552226072499  0.5188178880450499
  0.8342632940707966  0.9825551510786910  0.5404291253153289
  0.3714372351419384  0.7948207631546131  0.3824894733441703
  0.5574082769152517  0.5927725181954633  0.3425686722786134
  0.3660557090255101  0.7479582216483701  0.3388004247913782
  0.5059192913766382  0.1935284574642796  0.7328157209194792
  0.3092493484101624  0.7325877654172407  0.2686903546366822
  0.3641417370003107  0.7751391808057743  0.2139319328596781
  0.5602645153216199  0.3242447876552208  0.6176268113764135
  0.5026215667746964  0.3320788228778178  0.5974261574223810
  0.2615217757512002  0.8104464968375155  0.2867195152372563
  0.6065993435057943  0.3583242197959327  0.6873144060913361
  0.5495366490922207  0.3654930473772722  0.6631804333616075
  0.2173770604111970  0.8828163673088972  0.3067238265066878
  0.2704511580597205  0.9139590917878253  0.3180892290882383
  0.6650181984137574  0.3740282754570477  0.8179020202996062
  0.7537013153711295  0.4327692953942507  0.7871832782656194
  0.8200988567500826  0.0447063753355445  0.1597906550110560
  0.7048329051633406  0.4476020907378894  0.9314813131423245
  0.6426859665258904  0.3789464155821887  0.3332072760761777
  0.5709964398396368  0.0528335014702669  0.8923039941337967
  0.2625994012133538  0.8248037639708256  0.2264555326999207
  0.8025790383318478  0.9214000455041259  0.5590466159958639
  0.6518461784216829  0.4546368470419903  0.2526413340034735
  0.6042883528754875  0.4827445056489126  0.2238801627131894
  0.6568174630763303  0.4824632949110667  0.1282034782986096
  0.6151511769817252  0.6586139663477220  0.7692821837556716
  0.6637153630678594  0.6935765444688481  0.8339615402040901
  0.6102249152502930  0.6848521192622713  0.8744674495547899
  0.5153525081573505  0.6843392299074331  0.2954582227001028
  0.5217198238808372  0.7476357768603241  0.2790023726658396
  0.9568310558980088  0.4325637963776978  0.4834583895254922
  1.0248139955902520  0.0019457876474741  0.1959219288222549
  0.6310476294569705  0.7670163662098485  0.7579362219136490
  0.7872233697171540  0.2595559573931275  0.3127244007716875
  0.2393840076807680  0.0462841054588719  0.9509861020696243
  0.7045067423795673  0.6140513796784026  0.4626059946056190
  0.6160796904946636  0.9219915213611226  0.5609944484748759
  0.6716479841375982  0.6819640100431434  0.4643396324030039
  0.4890496950127168  0.8242206975301887  0.5323201537571881
  0.5941226149760537  0.9546922768925216  0.4698834002188565
  0.9543828510330793  0.3850096269235081  0.4489258302386709
  0.5722350924310605  0.8964560178162668  0.6621114878989490
  0.4018677395372525  0.3163728912180228  0.6794955108859509
  0.6029753318417589  0.1855055977460761  0.5382941976959591
  0.3949928991452545  0.6221391721257824  0.5176275148301345
  0.2036098128964439  0.1060233169215701  0.6897518018463029
  0.1102873647502865  0.0510330777194612  0.5393135151270401
  0.8438831001701579  0.2592143537818390  0.2180206092683863
  0.7288958078476310  0.9583210428252048  0.8150076166469903
  0.5634947522915497  0.5536583471303261  1.0055274953804916
  0.4333682850891666  0.7851465330189311  0.4626772587241930
  0.5068498775638707  0.7550769846968718 -0.0057387926713471
  0.5158681117746906  0.7538459721107258  0.6122081249276621
  0.5534169779354343  0.8041813250737575  0.6163248635659125
  0.3961796157601377  0.7396334915328567  0.0110508002825134
  0.3579148470473256  0.7635908623089854  0.0548791289632764
  0.5380823328520382  0.8473720562113167  0.6593376903806992
  0.7631203070226688  0.5939016127913885  0.4208146804894131
  0.2178125628046734  0.2126955260413908  0.6854633731894918
  0.2820715187951099  0.0712399406807406  0.8458038176031893
  0.8524413292807135  0.4319682000511573  0.4480816772079370
  0.8495813205926706  0.3831304938816514  0.4079539642918045
  0.7981415463853883  0.3664178946428919  0.3372343102438296
  0.7546911042872479  0.4435238983417967  0.3543868785074655
  0.8080957038685174  0.4734920608954470  0.3604438322806874
  0.3914255295688443  0.3736974477777845  0.8902976729509979
  0.7613961619699376  0.5499210949510025  0.3763005741364137
  0.4376551273176665  0.4098060383163942  0.9549004801746978
  0.1684411204940087  0.0336900188879143  0.5603533095819633
  0.7527070245166583  0.9246727562228254  0.0657239261279696
  0.0249697855420662  0.5176323283108898  0.2471420998070466
  0.1946230351298542  0.6803275271093051  0.4948822518089567
  0.5730557730999043  0.5985840475659209  0.5942322375988212
  0.9925627448694466  0.9501808411714854  0.7413736875223234
  0.9004278040157815  0.9568226382968352  0.8276405918906627
  0.4446705735364295  0.7690191748931073  0.5297336936522730
  0.6751365661001183  0.7648578759909417  0.5550244808840478
  0.7234443737468812  0.8003794978025788  0.6204691739235670
  0.4736504536536170  0.7908743545973970  0.4196150266690303
  0.7517438502616668  0.9088734585547709  0.6039227192047301
  0.3646643286938536  0.8944960418785866  0.4732445206744269
  0.8259562152868857  0.8861214792070921  0.6899117328597747
  0.3188783158009604  0.9166107067361758  0.4465628496472415
  0.8731799490594662  0.8888238049547504  0.8860523958317648
  0.3454351015413348  0.0097855294962902  0.4855074918041375
  0.9539851316154569  0.9694706044262574  0.8768187047015075
  0.9196046164655637  0.0176671035502045  0.3291065033111127
  0.0291113452298092  0.9474813451667117  0.9670535624489776
  0.9280441903856950  0.0584855536184291  0.3754307627087803
  0.8750114363353727  0.0924666680954849  0.3424778647011727
  0.6360311128656470  0.7142130449204616  0.5512647356212160
  0.8828464563722140  0.1514961122741603  0.3227009807529280
  0.8400122123427805  0.2166598121492258  0.3990211822455186
  0.5841614568500364  0.0096740425127484  0.8500741868965753
  0.8642460418522286  0.0333078289671550  0.6494278952672533
  0.5550824950951386  0.0403228389906494  0.9469028092997213
  0.4101965049042083  0.4069375856514105  0.5072697674699717
  0.8037025515999665  0.7304605538211500  0.6542826156050540
  0.9277067963281860  0.8885308542546837  0.9104213327229946
  0.7011968154896796  0.4739630149778374  0.3243417106236016
  0.5231318118374043  0.5599492809832520  0.5203397752625302
  0.7777789361867132  0.7128410804562824  0.9810001754369648
  0.5147304635445189  0.2915692239734949  0.5568939025138470
  0.4177639945565096  0.2537882078503210  0.5271856827718119
  0.4396401809026473  0.0070458118408692  0.6359074945700316
  0.4430433780458571  0.0515574820654349  0.6817613466883734
  0.4782281370936709  0.2910836543264466 -0.0070496095945720
  0.4578894808926205  0.3520576044747499  0.9708734481740106
  0.5527910655946908  0.0781048500421118  0.7658819727440274
  0.4390943958737298  0.3120469792750366  0.0437840075106247
  0.5013200393072300  0.0730721467434915  0.8095455205228678
  0.4928602184522907  0.3448645708816024  0.0581801377449463
  0.3893886270221106  0.3843065420484859  0.0573197913371955
  0.3882775127295984  0.4380132698334037  0.1070515624202637
  0.6705280805917737  0.1197405736500217  0.9072478936535386
  0.6169295731533955  0.1337780206290495  0.9459020411259307
  0.3957981736836047  0.4946311315951736  0.0900953674782229
  0.5261585634257636  0.0148900473113693  0.8291721609962720
  0.7411234085583831  0.7644573758352098  0.7423557365471914
  0.5366020521044150  0.0041999077527057  0.8951796943678964
  0.4711852829143002  0.2411879950856193  0.4900502298218880
  0.6978441072173353  0.4427711269217997  0.4503071386445212
  0.6644070171187196  0.2274448128268432  0.7773857228360884
  0.4805198893785664  0.9411880855798519  0.9581896263145897
  1.0139860970849668  0.9901836775917079  0.5021705655917833
  0.9581301873922945  0.9530336141098523  0.4952264335432166
  0.9684845898266995  0.9165740637834697  0.5602376566238483
  1.0053719267822849  0.9759269788632094  0.5605084805885301
  0.9335917228692142  0.9595754966275138  0.5664308519497386
  0.9736973390318310  0.9514773050144989  0.6123117266723025
  0.8421427892801543  0.7746570700311520  0.5000933092972694
  0.9196652208169179  0.8623212776681943  0.5705656478493474
  0.8693753644800775  0.8592180819297498  0.6081675802929121
  0.4947051616303069  0.0001291995557579  0.6636794805941947
  0.9156498474133739  0.9101474790436900  0.6035929999479662
  0.7288974751827942  0.2625161847527958  0.9573677179208303
  0.5210769045217292  0.2373927599170731 -0.0025897630346720
  0.4698492095859989  0.2503882433510036  0.0336615458811423
  0.5063381887933545  0.0649984373067683  0.5306418801467241
  0.4970776742270542  0.1212138953798150  0.5185099280546810
  0.5157924192297214  0.1211283718554518  0.5760974069017807
  0.3388587232530861  0.4823561332500745  0.0163610572928545
  0.5670082755270699  0.1546286955755451  0.6457613672771642
  0.9279106746294359  0.9575749186926676  0.6800550590289008
  0.3478838247457074  0.5729684356244849  0.1077184500158116
  0.6454229859351511 -0.0383057227798123  0.3716799901467691
  0.5478984817651481  0.2137518635344196  0.6309824047279199
  0.5570770818579709  0.1992686630814852  0.6911147642025903
  0.6869407121049027  0.3188089584762726  0.8324541633902309
  0.2583926092672972  0.5776035381657876  0.0029107070608188
  0.1995542846490879  0.6017957262851903  0.0372911773177527
  0.1559492085049078  0.7482052482766837  0.0355883802382416
  0.8665419165325217  0.4872857318923219  0.9796246812968611
  0.1536118101730051  0.7955889683025884  0.0810887642061326
  0.4636024689656731  0.0777840929978548  0.5703090614322863
  0.0707721097184014  0.9440991288620941  0.1173511790158352
  0.0187219579299284  0.9592831976141157  0.1538415502068776
  0.4687560402161147  0.1144788570366813  0.6187912933412448
  0.4799878833607005  0.0999111135938012  0.6827786865960932
  0.5400036507318097  0.0917188109160070  0.7027160890478782
  0.5882705163571992  0.1275773461928014  0.7692782154792390
  0.6097941071752897  0.0578881264381102  0.0220278264215839
  0.7595580303944319  0.9846786614631154  0.0464697634695726
  0.5783615564933056  0.1718989118213914  0.8147630451009130
  0.5726310237425608  0.1986027934569153  0.0265283559855693
  0.7230840487046073  0.2360512765417907  0.9040079053011795
  0.6740629864770581  0.1688284578263884  0.9618254743900853
  0.4784848243668193  0.2374189379331442  0.5485554023175455
  0.5933551435867229  0.2487612238039694  0.6960294036380199
  0.3561325466615432  0.1363386829491905  0.2017362888288795
  0.5955507390772228  0.0176501069510643  0.4594162924059620
  0.6015257313353770  0.0858343566410044  0.4456571969409919
  0.3932476341381887  0.0126903539117648  0.1356593376778065
  0.4414106363007191  0.4064094205745338  0.1358291359999181
  0.5117940816148340  0.4916872585974225  0.8026411969322015
  0.6561007784175998  0.5444773536548289  0.3370737764443569
  0.5091204375393346  0.5146467062513106  0.9737732436462243
  0.5153514419439866  0.5968340257127235  0.9738609374065376
  0.5139194994067121  0.6700939100580940  0.3542571527998604
  0.3382784647136257  0.3511557690323621  0.7637025968987391
  0.4826120045678477  0.9167011637730240  0.3924302152219685
  0.4301658153262856  0.4219724086135615  0.8956130143364924
  0.5468878431124347  0.4579663785144024  0.9815599929955660
  0.2302923552142485  0.2463954263246425  0.5205664729294548
  0.5775129533729331  0.6176595069211454  0.9312442589563308
  0.9330599597800500  0.1050490722157401  0.1790300712217965
  0.7420331591040119  0.4732778697563370  0.8316627426256340
  0.1273482273900514 -0.0124612898578511  0.2955504089321520
  0.7624360910029722  0.0147474509292988  0.1528011866499747
  0.6045849409450567  0.5003445411610897  0.5627180600024566
  0.6361435016603437  0.4239148760523244  0.6339056493009659
  0.7147831139747978  0.5235503985463751  0.6532586163800498
  0.6754428966078766  0.1968117939626506  0.0650008306516570
  0.7603171207536168  0.5872722867273766  0.8234463508004600
  0.3559673404350358  0.6536962924668924  0.2555082713205706
  0.8084827653891071  0.5908352680802931  0.7879530174179036
  0.6813666659948626  0.2270479852740375  0.1616117432659581
  0.8095062266104897  0.7107885630834595  0.5555418820250750
  0.9892243945800545  0.7279619236945194  0.9888821270306004
  0.5412622630439444  0.3931444655028665  0.2343407700057161
  0.5926682414554396  0.3781236702843248  0.2018399477426824
  0.5306698458519584  0.3957389298298368  0.5354778154827039
  0.5470876421237670  0.4517840698201315  0.2152374340440154
  0.4498263612142611  0.5459360056038267  0.2648600494256604
  0.6986771136803803  0.4158422387508880  0.6557008332416148
  0.6860570127167414  0.4586766009603593  0.7044002370836224
  0.4512441116629579  0.5600929660353363  0.2027002489864432
  0.6376171500515855  0.4474949666265599  0.7409988556216937
  0.4031681382076110  0.6225854484707212  0.2797986271387964
  0.6820593318071791  0.4822177608041989  0.8103985416341866
  0.9565693495464647  0.7932094066411297  0.8166704108116419
  0.9192861108144447  0.7423556386132479  0.8069929976939151
  0.8330608949258407  0.5505888121135238  0.9813764816270679
  0.7552497919597212  0.6138369850702636  0.9444326871206571
  0.8784352714439519  0.7195316561501633  0.9023253729277837
  0.1540073350696116  0.7782899840611476  0.1438317843138182
  0.2674685322157070  0.8711776170776928  0.2699242026776748
  0.8827887115310388  0.6926540326626370  0.8013563548088368
  0.1589833961095201  0.8377832685830685  0.1268169692238348
  0.7796038001063371  0.7485071447068795  0.4858248166110045
  0.0287719318035667  0.7580095939794576  0.8699106539081047
  0.1640180956048934  0.8834298882111765  0.1709800208060537
  0.1168230489804553  0.9140695995675207  0.1437107172390859
  0.3517733569993054  0.6048145785246341  0.2107185917017592
  0.7772696373219707  0.6647795987185579  0.7114246885389840
  0.2983639921995078  0.6375774379586209  0.1791148107322182
  0.2540060820185596  0.7155502098281752  0.1962883187190712
  0.9574029468876381  0.8056474347778859  0.9394219592040091
  0.0066590887473043  0.8214062221383726  0.8539605182924487
  0.5957984970988461  0.5306549372227718  0.4950831112150346
  0.4428670019342521  0.4518971264836958  0.1785492715744783
  0.6836775767511702  0.5972725642862590  0.5783343453398277
  0.3465436026614334  0.5597039999433101  0.1668883013127342
  0.8241235680523115  0.6997880191747093  0.7807209264895592
  0.2470729227388123  0.4265771853826858  0.6625463454782650
  0.3670591544622713  0.4155182478490285  0.7085147759151607
  0.7509284621152392  0.3929694233368273  0.3086263067168389
  0.4040517011814192  0.4645135751585455  0.7136927803133695
  0.8277150969688130  0.3942327038800867  0.9302332869534405
  0.4222224356217110  0.3930058900207483  0.5612997214279163
  0.5280278235127152  0.4240052498985770  0.6512865569833505
  0.8857084950065151  0.1314555962228204  0.1520204275553625
  0.3248418523556071  0.3464269723284347  0.5308506846915571
  0.3712708947062978  0.3857486723626301  0.6013788669345799
  0.7529331022551805  0.4097908528954694  0.2449768058722690
  0.6985544923159460  0.4254301294094452  0.2779306545699048
  0.4096012906466993  0.6852016232265041  0.2609016257058581
  0.6541946857930421  0.4996693640240313  0.2937120262732797
  0.0721615863704057  0.9737114620708333  0.2233525834459768
  0.6519651279517801  0.5649970254359776  0.9137789518043679
  0.8811158745472645  0.8364663038856487  0.6705864662525328
  0.6047329868105692  0.5636951481365736  0.3701403065844586
  0.9607580254934335  0.7679042659365177  0.7087519793970251
  0.6618148659391363  0.6113577203426446  0.3179844199823217
  0.7095016609234613 -0.0017783956450796  0.0796460165785975
  0.2833185973806178  0.3274787554312268  0.6346301688166018
  0.6662324164635370  0.0881676120464628  0.0337368860264407
  0.3777280671334026  0.9207304357376398  0.3528095178858112
  0.9237221000550402  0.8961831440906938  0.8509358159306775
  0.4211932807551534  0.4354115624922166  0.8354296772989026
  0.7377029901235012  0.6062025541084844  0.5351486059762729
  0.9849728125653090  0.1058190624548312  0.3184383626272627
  0.7075633535899637  0.6672235689377161  0.5191190527140903
  0.9403111729945969  0.1817798120759251  0.3334411868212011
  0.5846262116913030  0.2880494994999756  0.1169800971689119
  0.8075028816445430  0.3016698112844008  0.8744491156834363
  0.4895213350788970  0.3770923257184930  0.1641296194038296
  0.9461045779375190  0.2424541914923685  0.3184933271156691
  0.7698831896983566  0.5685170115455102  0.8899854054251191
  0.5499000293669110  0.5403219399552586  0.8127891396661051
  0.0339772046275302  0.5179448075957352  0.0297180551764954
  0.2564147678330220  0.1963402655691607  0.1507786851859401
  0.5439633739335911  0.0108715566608831  0.3853129630427585
  0.7008394761204748  0.3933990690427574  0.1758662490334411
  0.4041983041620085  0.0893794605885686  0.2888844868055851
  0.3766693078246279  0.5075537403480804  0.5361512496890433
  0.6511168421085677  0.0058556068982685  0.4190491748346802
  0.4743864627136918  0.5550992438227474  0.5603028847947172
  0.5150915424320780  0.1168283268618663  0.4280583682051662
  0.7052685900259221  0.4393793768502660  0.2178282212915463
  0.5154727021796307  0.1341973426103847  0.3680142071180800
  0.6080358842368884  0.5315002813587166  0.2702594069578043
  0.4190449800010183  0.2268282247979450  0.4224572543717544
  0.5779135107158453  0.6081216394399457  0.7622864717650106
  0.2273160347467431  0.4486071041148775  0.3955096415214610
  0.6261854157605615  0.6424438826652835  0.8319519530270749
  0.9101738693909456  0.3307777925189386  0.9770790653297552
  0.6035981239727769  0.7003079056716532  0.8145787798472606
  0.6541637172881768  0.9870501768216060  0.2428455554859648
  0.6680968555347487  0.6766332016932165  0.8922108186391445
  0.7179063292544146  0.6760905081134425  0.4309683947078472
  0.6576585531012141  0.7264793822041358  0.9386767502407360
  0.7686828487412543  0.6593796844334762  0.3983652587646503
  0.3634498789905243  0.7605714950946679  0.2795188701517951
  0.2517032405358708  0.1479853457211761  0.9899102599565253
  0.3754112411111676  0.6890004807948373  0.6796995301495451
  0.2553045982958507  0.1674915396546136  0.0435407906449495
  0.4638855671928628  0.6060099413045921  0.7791682387822849
  0.0665954905506184  0.6050080954747404  0.6261410150532716
  0.5349606826582293  0.5827997223458833  0.8648025665757469
  0.8180122135576049  0.5798563812880221  0.3845941454003330
  0.8947674052114460  0.2768093972924154  0.2890052058172696
  0.9271828669571553  0.5801307569250554  0.1905656629707904
  0.2128301350539589  0.1086960589097854  0.9280712264028029
  0.9812453272149800  0.5959841457293593  0.2597367187037162
  0.7562262618692416  0.5183974094779014  0.5036936999115559
  0.8682134761918325  0.5505418261600586  0.4127106316845753
  0.5849665061717443  0.8923833799466988  0.4956124292561519
  0.8627582419425263  0.5053932008819155  0.3705602836492475
  0.6693321803227180  0.9809715807319280  0.5511243004148348
  0.9713657762950365  0.5205442537695586  0.3421303633042903
  0.7294043274725321  0.7148576014406336  0.4755740585728999
  0.5856579545383735  0.9439456700179011  0.9384226336954042
  0.5860017616515146  0.8734898220415865  0.5595966848694126
  0.9104611282117475  0.4287310303427576  0.3560337464350288
  0.9421480122737668  0.3237872502167102  0.4715099545162333
  0.4144506464665211  0.1811735943298503  0.3780574119857219
  0.8960380491794988  0.4069445479591400  0.4848952824020272
  0.5046561120142343  0.4815035364833001  0.6373537601408037
  0.3016860519318835  0.1217203320144462  0.1310031336301143
  0.2082249730670205  0.2101655882922733  0.1841946335418322
  0.2449821402004121  0.0912988970640625  0.1288558729359217
  0.5688753529197981  0.1482922906172301  0.4391432587065335
  0.5723278297721675  0.2115234273601668  0.4232088789463552
  0.4706361895537103  0.2949152287420657  0.7603094779760330
  0.2825389117079949  0.4062334921399928  0.1962399533631308
  0.5236884050891181  0.2260790268236083  0.4563659542403767
  0.3300599741843184  0.3950172360805592  0.3913356218524888
  0.0436643937855832  0.7166158474600831  0.3548968415116174
  0.2233598925284920  0.3969338996796992  0.3545498853219299
  0.2838021428310231  0.4762962175573763  0.4046331276530424
  0.3737370168066489  0.2505282209156382  0.7372797687740641
  0.1286718748578944  0.5059533449066638  0.3392930601978595
  0.2328559134507246  0.5056458729999621  0.3743772277771453
  0.2403121148857547  0.5495285188692227  0.4195586532286807
  0.1900067199087344  0.5677695091678958  0.4473042421460421
  0.0897956611761614  0.6133395915213240  0.4618650256253773
  0.1418820143034349  0.6590882414548365  0.4138850153912963
  0.0527874126628843  0.7389243388169745  0.4676215678250529
  0.0606663163397355  0.8624215643536950  0.4361339177520547
  0.2621981669847673  0.2263499106180433  0.2553754913545048
  0.0517564495802699  0.8315799209345498  0.4947622262026087
  0.0044653241932874  0.8828077177457522  0.4721192577204121
  0.3600942340724239  0.1506396094893553  0.3683823356599007
  0.0260174840303278  0.5330187855173569  0.1809660521258545
  0.2925447790646206  0.0810031391288262  0.0865689240791013
  0.3438658321729219  0.0672448041450106  0.0482363158709337
  0.1153799497854253  0.3496132992129972  0.2785377219030301
  0.2542592635002582  0.2269000127233553  0.0272630814406571
  0.0246185850897306  0.4855794481190577  0.1430759045767864
  0.0724880305618496  0.4069312763272860  0.1259806160115848
  0.2429061261658706  0.2859436184354791  0.0164327218087839
  0.0164791988540588  0.3768798927194163  0.1213961771840239
  0.2175664106750558  0.3172444235581625  0.2078510350518026
  0.0794383500735645  0.3168590690187557 -0.0132107803351920
  0.3361006989804591  0.4388579648512506  0.4289712082098523
  0.1260664250596457  0.4589186608796791  0.2982378497679536
  0.3649852664358418  0.2111924706619641  0.3510850263154129
  0.3681913403476782  0.2583511757445508  0.3961858986160987
  0.5654591546726321  0.1207595351058599  0.3329635230019078
  0.1258581370906650  1.0072807615612036  0.4722248847089839
  0.6256871756106402  0.2132638296310752  0.3281608576010020
  0.4710249917162009  0.2265942558457708  0.3256951887841341
  0.0468515961391011  0.1790822491968231  0.3729295235046168
  0.0988086268445216  0.1505983407819221  0.4003538444682110
  0.1309928512780862  0.0325458970420385  0.3377408946364685
  0.4802010020499919  0.3340447988197872  0.3514242983454684
  0.4855612128333432  0.3765302355383962  0.3911682206000349
  0.4771949296513120  0.3077226079838655  0.4767058558947956
  0.2917708458684268  0.5183116342008813  0.4497675204630320
  0.7898993508247830  0.7760758710919140  0.7023244381598428
  0.5933862161710313  0.8655025713251187  0.7875721195352466
  0.1833614714638253  0.1797525918700504  0.5964361449446400
  0.1602334248171907  0.0551008258337657  0.5003919830571112
  0.3462927412916707  0.5677480389483797  0.3954730732592085
  0.2520346345723211  0.7849295532132092  0.0075397423990066
  0.4485245340255793  0.3500638906183919  0.7455437768061416
  0.2671434146556923  0.8542100140964984  0.1004097986713974
  0.4947183061486004  0.3854052395361991  0.8113138578866191
  0.2190585678301511  0.8811939631472450  0.0719762802064791
  0.6016777367948503  0.4095546279881039  0.9008537625476968
  0.5417513739491598  0.4205994969450780  0.8785156097080444
  0.2819811242171506  0.9558895245574106  0.1190605796666482
  0.2245497133820848  0.9259762962176686  0.1124534611889728
  0.2687631653213484  0.1795463448842567  0.5535438380481991
  0.7210804656111031  0.1182903153662028  0.0435917612618348
  0.3157380400106078  0.0852581711957464  0.5518404094101458
  0.3264575562372463  0.2135684014345187  0.6709499767110980
  0.3960544378615952  0.1945586092740634  0.7550048424307919
  0.3835039007308031  0.2371938888302805  0.7968999237180744
  0.6281579469204502  0.2444575792999076 -0.0203942259482180
  0.4879133488821981  0.2652537867901270  0.8823203730349429
  0.4976084849862960  0.4050463883168419  0.0412238067529019
  0.5082846894656012  0.3570378205371312  0.9366339117490359
  0.5560420166281832  0.3889315851218644  0.0004957052531545
  0.4533472378199520  0.5251947178669457  0.0989180544874286
  0.3031701078850226  0.0278356025209906  0.5845831951022276
  0.1130324090544898  0.8837118758306273  0.0382650122926259
  0.5535997867325491  0.4976443071346869  0.0338946150166117
  0.4576284140652247  0.5771721564760901  0.1454042818714175
  0.3547142872697145  0.2782386912441644  0.6115635526821086
  0.4610133310281915  0.5908657414894840  0.0777180544507749
  0.3028156893981179  0.7259728698500160  0.0361602562460754
  0.6575597375561308  0.5569985624307191  0.9824732548087205
  0.5656016974337500  0.4738382858482346  0.6587182990395262
  0.4650773971967567  0.1653123130635735  0.3419610415065697
  0.5610534903373121  0.5004080194156275  0.7653060516686279
  0.5527626848679401  0.5163386147608227  0.7042569500371404
  0.6254023102656480  0.4932282163468814  0.7922762959558781
  0.3071620568410310  0.6165879956203577  0.0125166123230781
  0.2517133442323237  0.6904896802631358  0.0288349418223203
  0.6665535623754713  0.5233515367244594  0.8588837320225334
  0.7058553150286898  0.5767946978635342  0.8669711135982100
  0.5951478981880973  0.5753853244824603  0.8856746172492591
  0.2692360552953248  0.7352611210063762  0.9736360415874056
  0.7151791634152153  0.5543071206292873  0.9407210797268744
  0.6930807760467617  0.6186175673825014  0.9164459878068931
  0.7111222636390873  0.6059046831486024  0.9854789433231160
  0.1610691619781021  0.8523001354863088  0.0630098380844850
  0.3909875299979201  0.2241569664842818  0.8580927063645857
  0.4750829160108840  0.1533368332969314  0.9092596413630514
  0.4030798474570649  0.2883220041853890  0.5709617407939560
  0.2959484209857403  0.1801275397379749  0.8310197761281485
  0.8008213947381555  0.9076511175937231  0.7967440677919351
  0.5240202433827704  0.4509599531932149  0.7580228597229762
  0.5788322213539445  0.4659973435488675  0.8882849787060679
  0.4087980319261162  0.5727037142174017  0.0110731448374748
  0.6835457274825332  0.5017839176780110  0.9204683778882643
  0.6151165529479440  0.5180359857764081  0.8950186560814360
  0.3534236891933356  0.5875515402977530  0.0477513255074739
  0.7100847125871880  0.4342023309441079  0.9916292170147478
  0.3038471509596766  0.6526542581371347  0.1198942298681590
  0.3663836213807736  0.2347437034681037  0.5714444459626330
  0.5302629742575113  0.7220387967904287  0.7288007386090795
  0.4102871775716119  0.6671033825013526  0.0934703958882944
  0.3702635609876536  0.1295020421535005  0.8123891540790220
  0.6544923963784839  0.8204944524386365  0.5369274733056723
  0.6931426329211341  0.3330479809014964  0.1947857472336264
  0.7038532941405229  0.8595431712262395  0.6017249524430910
  0.6540483441221185  0.8523508998546006  0.6423153664785661
  0.7111742065063916  0.8371745982457559  0.6648085590030561
  0.5967800622743881  0.3929344461139299  0.1374588170977533
  0.6343002891996908  0.8857895127237413  0.6844262677857981
  0.8478400170568607  0.9111258713043283  0.7656708564785444
  0.5816335553195516  0.4398665452695378  0.7822631504986405
  0.4469300905566890  0.4826322289629698  0.0561359189871939
  0.7885572824062355  0.9522727893217602  0.8389806183647958
  0.4177871813703378  0.7751175108103479  0.1188973689783460
  0.5039167053476600  0.5454400037856408  0.1674961050130752
  0.5589213677214511  0.5778122498366007  0.1763935971989411
  0.4123152073376895  0.6986485810228806  0.1985357609770275
  0.4227434791246841  0.8095077504235371  0.2225339156990958
  0.3682717630929604  0.8264829400592538  0.2608608217913184
  0.7185199198225216  0.8217096622339436  0.7262580255975023
  0.6665267577495598  0.8152704215453715  0.7651907446174790
  0.3203525168900745  0.9239381560476643  0.2558907051971100
  0.7508436352045988  0.9030494071588598  0.8375215836754722
  0.7645458773379297  0.8790787412977100  0.9653493780114598
  0.3407866347040970  0.9936816556684874  0.2908275446840405
  0.7966832862768851  0.9390610828834133  0.9055333765005673