Cr N  Ni
 1.0000000000000000
    39.0510843612861720    0.0000000000000000    0.0000000000000000
     0.0000000000000000   39.0510843612861720    0.0000000000000000
     0.0000000000000000    0.0000000000000000   39.0510843612861720
 Cr  N   Ni 
 1596 213 3725
Direct
 -0.0570250747272510  0.8551651783035239  0.9695459058536360
  0.7027595099192351  0.7110859897436592  0.7361016485728035
  0.4738344315108671  0.2627627970024708  0.6571127735862886
  0.7383816639644549  0.2601721120966857  0.1785237493641604
  0.5984154622121342  0.2624498877892757  0.8620091205649283
  0.6193948643374030  0.3391979893292887  0.7487125169087340
  0.7344712677309485  0.3507331497873157  0.8961369209487428
  0.7192131580524854  0.3922319285504683  0.9431880852377681
  0.2932098083048880  0.0987502382322464  0.4888527607401010
  0.4086907893544584  0.1233878707438062  0.5980862819009892
  0.5480084532710925  0.1076383558459872  0.8713471597481561
  0.4194958326287211  0.1079413994197197  0.6635979406184875
  0.4463190263172359  0.1985101105127756  0.7153317408158166
  0.5061924128420886  0.5781809495870536  0.2716589825010783
  0.4608081204018686  0.6557193785029204  0.2862675845023004
  0.5157168036308653  0.1774922507789213  0.7942527582462344
  0.4758280915801751  0.2981578380609841  0.5354091150214193
  0.8438716374708302  0.9803811095593461  0.6026994258510576
  0.8236513203758143  0.9030319516858721  0.6296708205751517
  0.6327173301598505  0.5874935491822199  0.6158480218763931
  0.6798829564684854  0.6203199302273197  0.6831091669734627
  0.5524168459741938  0.2268125466519769  0.7971410787948225
  0.6667060103574924  0.6628389046393863  0.7293890187701286
  0.2570990102005432  0.7285960097755424  0.1341712462070468
  0.3580731705215847  0.0109809496572844  0.8942038625042054
  0.9039154517793005  0.8713449862235251  0.4904437037378147
  0.8906154601063490  0.9653104854601787  0.5153255540637223
  0.8205898272989056  0.9643117318752833  0.5356889745413107
  0.4251256652654328  0.8221860484856923  0.3993764287756250
  0.5516095738722044  0.5349467913316068  0.3622794344183029
  0.3660946888426417  0.7480418637338054  0.3388800458928237
  0.4673210802725014  0.1415713870078047  0.7309934974270030
  0.3101243797032044  0.7314205872735681  0.2685753176460815
  0.3668051594710472  0.7770900134873580  0.2120322892189299
  0.5616616320272909  0.3201108924768223  0.6197416756548895
  0.5027410342667366  0.3290610890471238  0.5965224333458274
  0.2640882304260130  0.8079350538450528  0.2846757420657078
  0.6222786911477051  0.4119356971712914  0.5187852374018761
  0.5513376687004515  0.3619783950193935  0.6660085728291321
  0.2138022213506148  0.8396399789864376  0.2574999326644374
  0.2724390157618193  0.9167611626483914  0.3211144761827524
  0.6660188673528900  0.3728515400672496  0.8169842545071287
  0.7919416134295896  0.4787460336630400  0.7930675524113046
  0.7687084608349745  0.0625317227648132  0.1970439595589747
  0.7024861994332540  0.4509588490089519  0.9291808767311764
  0.6421874278175657  0.3804860172665199  0.3323354306661604
  0.6058371158853284  0.5973575602990309  0.4718374284014256
  0.7073413085119793  0.6888438411315460  0.6307666454086182
  0.7956717389367475  0.9352220899257803  0.5816351074683692
  0.2484607027402645  0.1606751545266605  0.9301195779800630
  0.1192925495400570  0.0347047364894471  0.7979477262772043
  0.4687390383392842  0.4279936418329858  0.6323845935337712
  0.6525059344069113  0.7042293929647733  0.7743942907240253
  0.5834079322285277  0.7271973280411539  0.6913080023488820
  0.5802755824231968  0.7934916352180403  0.4568259494904563
  0.1359446947218908  0.1132379837790035  0.6701915441051394
  0.4381489394735443  0.1064547025292365  0.8954869629931801
  0.2133392896743258  0.8076191900551039  0.1547924575460498
  0.2437856122898618  0.5253575925206797  0.0304066282775585
  0.5908515047281238 -0.0028253865227050  0.9187970848323618
  0.2651969501003144  0.8233536099744666  0.2244126670265390
  0.2573611713466911  0.7445028256541123  0.0714477477320941
  0.4412611759441776  0.5145922713247693  0.7210033423459433
  0.2015993698351841  0.1072026274893373  0.6950962195712104
  0.0898435834674055  0.0795734181104160  0.6062991184616191
  0.7290783630838160  0.9562309440854538  0.8196765866768153
  0.5579344784798003  0.5535695090153883  1.0040467629850598
  0.4346729440742722  0.8236537676413700  0.5135278386486273
  0.5054622889584052  0.7548026730415095 -0.0080643121924279
  0.5157673468466575  0.7520207272301004  0.6123480642979655
  0.5598338845967055  0.8048361332833618  0.6188670050313619
  0.3485851220120236  0.2023331540278054  0.9586675076352018
  0.6946109210964552  0.7269150055557673  0.6751860245044990
  0.7790388873395543  0.8124659995538064  0.7482887838682911
  0.2044632629373584  0.1211509285718214  0.8663989343708729
  0.1728889877858612  0.9304537008700956  0.2136462123989491
  0.8349855909379346  0.2142592257041913  0.1705564237512551
  0.4264840955259899  0.8381216485480603  0.3313796356912515
  0.7614699394417321  0.6485746229052433  0.4691813490731563
  0.3952050322451722  0.4781754076755133  0.6556986042486916
  0.6608873693096485  0.9761105158235955  0.7304549251842271
  0.7362519692614682  0.7906320542324229  0.8484832456455899
  0.6691419635827441  0.9615627833304943  0.7962193859640669
  0.5800075857098372  0.8085456445594928  0.3945723890666408
  0.1970119106158686  0.1359238331031209  0.8051440178750083
  0.2560703957674286  0.1276227575879713  0.8268122077707732
  0.5381535359476508  0.8782374935576041  0.5259752014135360
  0.5821394147761757  0.8533604601615069  0.4443848456362274
  0.9873752693175900  0.1535199431058661  0.3597715028605806
  0.3064100201446991  0.3180385015610420  0.9238510882428463
  0.1884801487896342  0.0187510329201935  0.6144762905525867
  0.9909582920490022  0.2027442895234448  0.4065777412917545
  0.2256916310255780  0.0477290883255392  0.7140362941431229
  0.2134924176307086  0.0936348682576193  0.7640513775463537
  0.1473126207523798  0.0994253928868528  0.7390274753048306
  0.8955763782905000  0.3086625233704611  0.3953745409402519
  0.3264906312793131  0.1061522063675487  0.9182379990477110
  0.5337946634712245  0.8292292514684093  0.4861541110824061
  0.6400595063695775  0.8837150875304907  0.4517823348398724
  0.5563750097725423  0.4857535810343219  0.6010098859461740
  1.0008205162729547  0.9507100572652203  0.7347678886490584
  0.8275410841826301  0.9593405119402494  0.7361974674641220
  0.4463936226819104  0.7702183809297216  0.5295624320172081
  0.6745308140275119  0.7627830838960487  0.5540167811651464
  0.7231341754794384  0.8004190068719944  0.6217103122308132
  0.4713721007704382  0.7482656696911061  0.3736435632176369
  0.7667520853534779  0.8558978203090507  0.6272421926984902
  0.3737559682456882  0.8932142076746717  0.4732198119911478
  0.8264540466964964  0.8851865668380557  0.6918873269771799
  0.3143916795155228  0.8923805809089563  0.5099545533566714
  0.8684530136298145  0.8825806364831624  0.8867469558855163
  0.2977047776326560  0.0440794351524516  0.5097888405324369
  0.9590505138179212  0.9688485069989811  0.8857149516681173
  0.9187804462771570  0.0186219011771013  0.3252639684193323
  0.0225740439241576  0.9876887248977948  0.0186894196272560
  0.9219087499683213  0.0473526488426859  0.4405517147407135
  0.8729741206095695  0.0945384253715454  0.3414714270529033
  0.6369714755664786  0.7136800437482087  0.5512790897334970
  0.8778971123866427  0.1092101401341558  0.2805558008527251
  0.8353930084223226  0.2173501386964516  0.4017253253329465
  0.5821307065400202  0.0063554077505994  0.8523224464393325
  0.8679220193922923  0.0265115655793789  0.6467497534273312
  0.4791626614712672  0.9927115053481912  0.9377279130023841
  0.3584390715744195  0.7545475471501658  0.0499149015642031
  0.8026989908889347  0.7282157245827119  0.6552786926006270
  0.9198169798272504  0.8877824711728334  0.9200654711311291
  0.7042495536486603  0.4722298227987780  0.3220045255769944
  0.4630075531444013  0.5631031562651519  0.4953410807742021
  0.7826160572347760  0.7506346253579063  0.0256390171988556
  0.5226366778943957  0.2809021783886363  0.5561863354167432
  0.3666268889986399  0.2313543422192295  0.5164973410935210
  0.4308027462677387  0.0058917582058218  0.6309721577308420
  0.4954265025723180  0.0396265853714078  0.7010521700347160
  0.4914992329191102  0.2924088358793184 -0.0064557485196259
  0.4988465620914113  0.4063073455188079  0.9773530015022086
  0.5497829383807272  0.0755005543604800  0.7676835975242623
  0.4440469499599329  0.3072325595449477  0.0352808220025043
  0.5003648180222443  0.0710217171245126  0.8097303474544022
  0.4964354386500346  0.3436093595902612  0.0565882144768025
  0.3938591795224881  0.3861380017244968  0.0560624890555383
  0.3850278012712469  0.3718978388111282  0.1245159684974958
  0.6699699605896458  0.1243426544147086  0.9089791365912829
  0.6147769322162548  0.1339048551702988  0.9463700354980114
  0.3973820007804621  0.4967217616097189  0.0916302876074790
  0.5234691868843521  0.0139221789675666  0.8288211125872209
  0.6192196466951043  0.7768176679341434  0.6977199460038341
  0.5100458705418812  0.1091124262010121  0.0297440047838294
  0.4031201185817409  0.7338532017114463  0.0116367402326265
  0.7014884184259244  0.4588838555099865  0.3822929062186281
  0.5471460530747919  0.2108953737655589  0.6347946041453388
  0.5461862118831136  0.9808185845706421  0.9661767651653365
 -0.0024698810327843  0.0384192874264100  0.5594744846534139
  0.0167410446054399  0.9363282655344586  0.5190258793292154
  0.9170770944815392  0.9089388645830327  0.6029705176165941
  0.9576062669568171 -0.0061866690954255  0.5248577634523182
  0.9079606065672704  0.9636825251824329  0.5812685378469743
  0.9226717376506909  0.9625673730118627  0.6447933980403124
  0.8440849665207134  0.7759060846866501  0.4997519399790030
  0.9801106724846315  0.8841871781939814  0.5980240131282170
  0.8748036761838052  0.8504481317751680  0.6066289131104031
  0.5009485372737902 -0.0089160797810275  0.6596874861064641
  0.8572817574299981  0.9189246982544290  0.5730381410070511
  0.7271928390148943  0.2648069334552988  0.9563119629111877
  0.4487692251223059  0.2511179964976109 -0.0152165150899309
  0.4701876491143881  0.2497386540172604  0.0394836558520538
  0.5264028493860387  0.0637324770225825  0.5932722573013444
  0.4712391909997957  0.1817770763390428  0.5084417854247931
  0.5014953328397866  0.1181358988203710  0.5164450984824241
  0.3442013442742821  0.4879825863635911  0.0170384424143801
  0.5681986434338928  0.1516920030733725  0.6481429129295906
  0.9322368914466547  0.9565174825248386  0.7090453829760753
  0.3501276808006997  0.5741374423476016  0.1067957927426108
  0.9540210085362621  0.3877176027960955  0.4515761049567456
  0.6633313417641078  0.2235624090753373  0.7795598658117221
  0.5334802997166571  0.2555526761619508  0.6783270005225950
  0.6873383240870040  0.3165429539953827  0.8324807073598798
  0.2565655249305631  0.5750320790701061  0.0034081174977263
  0.3004884121289867  0.1195515911966920  0.6193556244632307
  0.1582721471410132  0.7489188830649903  0.0344227060951438
  0.9181292935474773  0.5084476357770905  0.9939422782723591
  0.1009302761862792  0.7628705180983205  0.0704287613165431
  0.5042033013683274  0.0565661398100058  0.5302489498839973
  0.0754833645091247  0.9541395156402059  0.0441853601165538
  0.0224056600001016  0.9562051992706436  0.1472793997122729
  0.4656224055962608  0.1149863825464384  0.6191694189097555
  0.4785142229201153  0.0980669328906546  0.6827315676319815
  0.5370820043127971  0.0879637126380716  0.7040552337429858
  0.5373221254598949  0.1198410104357886  0.8116544184499416
  0.6106925769112260  0.0603856314138097  0.0238790465198212
  0.7588546355056645  0.9862710543251725  0.0474079692782669
  0.5745575317669870  0.1686991512669941  0.8151256297409988
  0.5724619201515294  0.2015665112655347  0.0244119924744573
  0.7199582562750986  0.2396128404152981  0.9055962354912147
  0.6759988191883104  0.1694317689310152  0.9603191457471839
  0.4743799544173377  0.2348067091759446  0.5529860329998295
  0.5430509539392473  0.2408438026368880  0.7377796567289042
  0.5687156952575282  0.8908189405097042  0.6633457298601229
  0.4020360486198681  0.3150403972720316  0.6809921681724339
  0.6029404826106649  0.1906409913499681  0.5389006524933296
  0.4710242344981241  0.2466546423112649  0.4929787927381742
  0.8224628645203509  0.5587435322389963  0.9836845729194824
  0.8278100430912529  0.6145209745020234  0.9644891508221237
  0.8762398129943426  0.7159677124707026  0.9047398724630431
  0.1538166159663782  0.7753974913418233  0.1455655225593575
  0.2795009673254775  0.8804591641347810  0.2704140948201479
  0.8828741613184689  0.6890949565305564  0.8025626819538617
  0.1602092850213728  0.8415970038535799  0.1249212382596178
  0.8183771708043612  0.6860425398997326  0.6143507006350903
  0.7830882129361927  0.7497695440266888  0.4847423865041752
  0.2155431118421257  0.8544388224241083  0.1976138958660809
  0.1191126411815398  0.9148111940959309  0.1407928344181539
  0.0726811998724863  0.9754931875138674  0.2207444198368415
  0.8934538381345600  0.7918074817041812  0.6257218249003750
  0.9600185442500608  0.7638325925576798  0.7106055632256080
  0.7094708624312608  0.0008279503558630  0.0802209492661378
  0.6664638209631629  0.0895254448943676  0.0339022590747005
  0.9945831865458505  0.8296430595920583  0.7953355116633058
  0.7377102723084691  0.6040902270511076  0.5357211809816661
  0.7092969797415034  0.6635205324338653  0.5172943474886251
  0.5888141960905098  0.2859735612898533  0.1151112907959618
  0.4901574113603828  0.3792247609275120  0.1654247985876326
  0.9184355988393406  0.7381292943708159  0.8084908849160733
  0.7683903570829944  0.5637577330228414  0.8872313592147482
  0.3572927394233711  0.6552673075687203  0.2544756972184392
  0.8064729959619332  0.5880531070550791  0.7890735080168013
  0.4431981380725170  0.4072598886036053  0.1363731838944208
  0.5104621031446412  0.4912186989906537  0.8034883680614309
  0.6587551656408281  0.5474958843190746  0.3347971879557919
  0.5089395390112621  0.5148064533104124  0.9758250308333787
  0.5134528932275731  0.5968389425988239  0.9757014858292380
  0.5155271200658011  0.6712080414284699  0.3561454158914840
  0.3389516525641615  0.3500214169468885  0.7644597904095436
  0.4834754314942369  0.9150086663688392  0.3902421528440420
  0.4303257668385969  0.4208014991574956  0.8948092491823328
  0.5478570258949338  0.4590744221128913  0.9799384513383608
  0.2350931959009216  0.2437560676069246  0.5255079938201396
  0.5723394787507872  0.6208842912697752  0.9339497796757359
  0.9282456494814297  0.0930123724716042  0.2469421787155485
  0.7428631161474835  0.4723427167590658  0.8299758992581885
  0.1278957671013991 -0.0092269752314510  0.2926527193028409
  0.7626268980562075  0.0183086027430826  0.1538050382460360
  0.6658276867825305  0.4886539444793569  0.5815351054249420
  0.6367466772973509  0.4212766709177622  0.6343169971867679
  0.7153605869047927  0.5212294450815234  0.6516107664961578
  0.6297069481119312  0.2330099402127337  0.0431833257705082
  0.7572591849276530  0.5814287551523770  0.8272417236893137
  0.6811541746696405  0.2266685482795641  0.1620689751075890
  0.7012841209743915  0.4259313223340059  0.2789886216753073
  0.9870465001769262  0.7284279012549932  0.9881440716842251
  0.4934489525937593  0.4250480495297670  0.2058535858683780
  0.4444410994978069  0.4545048138406496  0.1794976489303053
  0.6837429319637114  0.5942660702805782  0.5767044791716253
  0.4037681328247518  0.5921104382645955  0.1759855374942221
  0.2983157328401769  0.6232306078360248  0.2460202993253307
  0.7761368062111029  0.6617691967116376  0.7122799744769482
  0.3536951130069811  0.6050167401749307  0.2105443792992173
  0.2556688100204033  0.7152033993508824  0.1958022330020453
  0.9552671754173361  0.8025299960717034  0.9404014350742979
  0.9438078973429285  0.8313528284037385  0.8719413267765201
  0.5978445772486449  0.5333468631698079  0.4935281180396093
  0.8231549629661356  0.6967495097379240  0.7814958787550271
  0.8837329744213323  0.1345191259467434  0.1514055051140387
  0.3248925149054273  0.3451103504954375  0.5349320098091990
  0.3722991586868276  0.3845829070724608  0.6023008822542908
  0.2571487947459655  0.4135421490870205  0.7259218645144295
  0.3676655353819975  0.4152937794604121  0.7091779744200092
  0.7486009813455377  0.3969423447821014  0.3070041841066581
  0.4039937333819746  0.4640928805638042  0.7145145960378280
  0.8286830044724501  0.3937442476586612  0.9294565907790077
  0.4230609050113520  0.3898706121528182  0.5588093739434138
  0.5291881431270473  0.4204672428239762  0.6529137035486111
  0.7529674302006815  0.4112149147401393  0.2453276528115424
  0.3599032032161979  0.7022565862518343  0.2954988883338326
  0.5488266959664561  0.5404130351745154  0.8133652774035716
  0.6658833161696560  0.6094191517640096  0.3162093020202608
  0.5937614697043068  0.3796078913157209  0.2010490193971792
  0.3332906829729780  0.3327714779314849  0.5976223497399499
  0.5288030662868085  0.3932041890939971  0.5421802640120132
  0.3781484518273985  0.9185951208766442  0.3507113507619287
  0.5496466022872782  0.5001446342726442  0.2590342606827218
  0.3849205574840042  0.3855797066794106  0.8309773934197611
  0.4482549492575619  0.5336414267326389  0.3267959971488669
  0.9837416302686310  0.1086820107534823  0.3175602439528665
  0.6999471413403320  0.4122777889164781  0.6569003747778419
  0.8856725372084840  0.2025073934912010  0.3695447065756541
  0.6864381417839714  0.4543066982766537  0.7029495826865638
  0.8086032276505766  0.2996016270118339  0.8735475677863377
  0.4518196843204749  0.5632257550863315  0.2018048743456977
  0.9475306584527771  0.2480577602418353  0.3192781171466977
  0.5729553618515937  0.4545688658909152  0.7159215056991731
  0.7097902485184292  0.5331074836624958  0.3022362320041044
  0.4044613641800390  0.6240889595858149  0.2790414563490458
  0.6550500302732724  0.5637709516139946  0.9148655404530620
  0.6820666016412917  0.4804451709094330  0.8084726336435741
  0.5545403287393863  0.5809966162034848  0.4041127044975082
  0.9574102028309749  0.7878841868622244  0.8182068740453877
  0.0252374537952602  0.7545057367226241  0.8715851489554145
  0.5319471190392577  0.8408615483124033  0.6602772709016801
  0.7647395255883284  0.5937424126491804  0.4198789212951385
  0.5697215239673323  0.1825302497268333  0.3178464632281650
  0.6973893065583462  0.3802392374198266  0.2374668210474823
  0.4739780109709403  0.2748911225975215  0.3694002636272530
  0.6109668780347232  0.5487285370766449  0.2036344579823978
  0.1520333743623788  0.2008070021207406  0.3440491902434958
  0.5776281423505698  0.6051395151127126  0.7619845382145793
  0.0458093658734371  0.1685793050105151  0.4363947056452448
  0.6241512301773464  0.6405883345530879  0.8293527909193225
  0.1319292004403376  0.0355273503359755  0.3354368882119751
  0.6019360669696965  0.6984641456540285  0.8146627157340636
  0.5357795637029523  0.3654708224483930  0.3572825422059809
  0.6330244484292123  0.6262200410778942  0.8900414824852425
  0.4851417105782369  0.3799867881073911  0.3907983615639630
  0.6588327022807090  0.7212827509049513  0.9346451574414328
  0.4750563216734817  0.3085409225454206  0.4746077710074004
  0.3163525360702971  0.7739550812201699  0.3130038340024444
  0.0600658879456018  0.3213586429477154  0.2726790277217688
  0.7020241861947348  0.3948417016500875  0.1744480181674374
  0.2908773460194923  0.5179186954815806  0.4517746086614093
  0.4069739081045441  0.6025679637765514  0.5786379387188341
  0.0793495344130661  0.5034303197623632  0.2113502051607105
  0.4752691552024590  0.5537175203158007  0.5613229524576892
  0.2780289941802176  0.0712511412016647  0.8452253254823330
  0.1431189501216160  0.6495227557726341  0.4782625771699591
  0.8537481550016405  0.4329932094580318  0.4460204694865794
  0.2192746891857417  0.0935224181596505 -0.0082766559523844
  0.6415019248668468  0.8991267143075520  0.3882077886730561
  0.7586655959072137  0.5164653925042023  0.5007683410388911
  0.3558457366412892  0.1386143488165063  0.2019313463077934
  0.5951980476557315  0.8946469669711372  0.4895777758252477
  0.6001516444443543  0.0388577647306617  0.3873077112552413
  0.6843046948458587  0.0055768499481003  0.6169265576057689
  0.5962003506384322  0.0186360773999709  0.4544311522478541
  0.7506439289108333  0.7155762823421508  0.5355029366496438
  0.4472755487947452  0.9995409112756766  0.1008672010044741
  0.5898870459654409  0.8747000150264014  0.5571279070728953
  0.5473291599556248  0.1010772595693426  0.4634580566036807
  0.9437134479299548  0.3263770687213084  0.4694381988727085
  0.0336428620809387  0.5812901137528087  0.2260750785453341
  0.8916024374872379  0.4070602765806051  0.4889358537023620
  0.5735111224942993  0.2159867861044667  0.4228223272418791
  0.4619471824455554  0.6052998107973796  0.7768388954641020
  0.4710050498613678  0.2930464869660869  0.7620911532573765
  0.5348141469196902  0.5823583663919787  0.8644112601042839
  0.3339780888016421  0.3934677703486987  0.1636766474368567
  0.8947330664076341  0.2791742119196581  0.2891871360890770
  0.5209085790710910  0.2176925302871307  0.5172242774154756
  0.8496310824700792  0.3854046200084985  0.4078255507820300
  0.2168970333372285  0.2128116582020540  0.6876866720132716
  0.7969422199730358  0.3683846389029529  0.3360369068992127
  0.3999949576331054  0.4481178396497532  0.5521135715096275
  0.2554393987017780  0.2001692132202135  0.1510545857488656
  0.2070962547171619  0.2136641896166332  0.1850306476758363
  0.3057208453205313  0.1298754333366171  0.0113260001765942
  0.2572541167813936  0.1726544422179138  0.0459791140337162
  0.3032654658923010  0.1456828651929639  0.0715458405914060
  0.2464668740835628  0.0957225747320900  0.1227258105538971
  0.2960687659723640  0.0790334932475951  0.0887171263869531
  0.3475646562219804  0.0655430242583347  0.0486527901430910
  0.3576103047414204  0.1884708288818817  0.0196198210987098
  0.0261819015983829  0.4870558647294917  0.1428624531287731
  0.0730366542975056  0.4218849664151435  0.0656551630384342
  0.2431044722502869  0.2895411968796279  0.0135545754142051
  0.9577132174185087  0.3353626829237907  0.1735712231222448
  0.2191834130800873  0.3339721019180555  0.1485475699886733
  0.0793392588591923  0.3185804881788484 -0.0128567725581232
  0.3450253741347165  0.4349036227748714  0.4395451193709134
  0.1261685008850440  0.4598008614245698  0.2984521301169246
  0.3632121741843953  0.2157993579080457  0.3521478782426863
  0.3676393291233727  0.2624149823330880  0.3959869181958427
  0.5639033334903437  0.1226710018462537  0.3343671309478923
  0.1281764548801036  1.0068009465716419  0.4672710809157467
  0.0341638618889556  0.5169623553000197  0.0289111540207438
  0.7529533469418463  0.4438119846668999  0.3488860832948300
  0.8086707647566133  0.4742714042258542  0.3596917145987263
  0.6301978923020043  0.9255019240135112  0.5577020801287855
  0.3928286231169428  0.3725359971339225  0.8901708699450268
  0.7625741947024011  0.5504885222258949  0.3741521761111549
  0.4463437123926858  0.3764892434843674  0.0222445853723234
  0.1851135777161987  0.0287934676240087  0.5451721714309719
  0.8975031877051829  0.2473838697568195  0.1810695995838681
  0.7530490121776640  0.9276219599646111  0.0666993940195234
  0.6530470380623414  0.4560711318904247  0.2521298296744021
  0.3998414768535384  0.6198768196511516  0.5171548011335245
  0.6064410085453232  0.4837753158037781  0.2234341586198137
  0.6593608202993801  0.4847778872340950  0.1290173329907389
  0.6146511923756318  0.6550499820071909  0.7685632597884696
  0.6600351211156921  0.6897455307590133  0.8337872898099811
  0.5876321563435823  0.7427882253949658  0.8568260285701562
  0.5674542958656864  0.6713091990540423  0.2616524072856448
  0.5227357852023107  0.7476000674683924  0.2780047583325431
  0.9592088372504902  0.4379776909226224  0.4814551209538958
  1.0262478775487429  0.0057566957871084  0.1952955259222108
  0.6295341618961512  0.7634017641221091  0.7566361391521131
  0.7899428971717661  0.2748231107412120  0.2506180208605534
  0.2376258262338056  0.0494475937739211  0.9498369213508813
  0.7064018239559814  0.6145592447857875  0.4632946810371656
  0.6721960026296407  0.6820442643014401  0.4633575445778287
  0.7894540391610186  0.7750639502640322  0.7042527000934765
  0.3296434234542025  0.3960476375415237  0.3912666465311317
  0.1743486484027074  0.1775392099494190  0.6076316847535745
  0.1262457485133156  0.0547693028427406  0.5182489665675153
  0.3456010630509997  0.5662338542863514  0.3962643650224666
  0.2524912096989206  0.7833857227670867  0.0063237987548002
  0.4493638761688318  0.3491343789208419  0.7461304037362027
  0.2690816018955497  0.8540721976467758  0.0995356196927762
  0.4953114239078114  0.3846063044635597  0.8106514525060657
  0.1702848224068481  0.8986528276555993  0.1055684070630464
  0.5939141686510384  0.4250639479533904  0.8400793485445179
  0.5421800612028110  0.4195002056007853  0.8769909048213352
  0.2816731736369903  0.9582553627950195  0.1208399629027684
  0.2264055386915903  0.9279925545285370  0.1145621112487725
  0.2737136391732475  0.1815719330628839  0.5537063468783741
  0.7175358926270644  0.0743889213540085 -0.0020254319325443
  0.2930027733500801  0.0968098208682353  0.5666151970074315
  0.3254806692389715  0.2130041229750362  0.6720758918961192
  0.3958855154155771  0.1918736736134362  0.7546501472564433
  0.3832946337933948  0.2351386651393120  0.7979421907322920
  0.6184969117801262  0.1962510558246824  0.9418061531643055
  0.4663900837616111  0.3197066432880970  0.8675295067007347
  0.5556035802073640  0.4359457540913954  0.0490515813136919
  0.5122346910966968  0.3566706013112204  0.9320663925276635
  0.5601882559337213  0.3902364541389432  0.0003353165979973
  0.0665509617830016  0.3815972413614978  0.2516030353348122
  0.4738552162333561  0.1534359196405922  0.9089520075263091
  0.1151364150313282  0.8822603190316971  0.0322201267592479
  0.5564643810416839  0.4832342073287210  0.0922862070971466
  0.4544486616214369  0.5792354649546037  0.1412392136014732
  0.3531667479568894  0.2786326221557747  0.6148300983703874
  0.4046256460149516  0.5598560732979605  0.0732488013638737
  0.3074656284277580  0.7256753413110267  0.0357846160163502
  0.6578905183153533  0.5560963211472061  0.9846285320238355
  0.5655258316442783  0.4710181871582224  0.6589774064536708
  0.4588795007600409  0.1226353075002885  0.2987456885090563
  0.5399733263631766  0.5565547176384366  0.7524317002814912
  0.4922260648375054  0.5221221461646977  0.6819353803541335
  0.6137088628475702  0.5081298056900408  0.7256863274284260
  0.2951004153211899  0.6313887343276512  0.9410332402080618
  0.2725920530146528  0.7334330384231698  0.9738533075668662
  0.6084159383014867  0.5319113116144401  0.8361533257771518
  0.7084184744115734  0.5713665076603960  0.8677958203399087
  0.5934762940143258  0.5733950689135614  0.8845005768950154
  0.2790436948973374  0.6871185601639450  0.9222483211032970
  0.7161137933482968  0.5540209099546158  0.9388578311504076
  0.6978354406097332  0.6165751021901312  0.9207230460583600
  0.7179537222640068  0.5984568120823786  0.9913430897263797
  0.1623588662740353  0.8551896373713848  0.0626804992965161
  0.0087323568894243  0.8724212725337361  0.2920530039473614
  0.3005003116314293  0.0243396656089368  0.5916934864111880
  0.3399860882554003  0.2889017653142700  0.5525998836675627
  0.8097094073589305  0.8915593816167506  0.8621023229901056
  0.8013841791096502  0.9040345658404972  0.7994167938710531
  0.3943687934412043  0.9104233111433547  0.5906333998979371
  0.5951286840096881  0.4527457864416646  0.9449526573254388
  0.4607585356407998  0.5444416547009753  0.0363302064229095
  0.6851889530559404  0.5096157758844956  0.9120600910863190
  0.6175234573238220  0.5184623412897218  0.8917403981418083
  0.3053589870544917  0.6149042276140100  0.0117952678711619
  0.6600345843705326  0.3935537401303943  0.9889977072015066
  0.3044776395049952  0.6525207210516393  0.1191113717104470
  0.3275884490554695  0.1875505533265960  0.5685573857631566
  0.5291699170357370  0.7200983331755157  0.7281226482015494
  0.4117339540180374  0.6661815062283998  0.0941335569877548
  0.3077807808345676  0.1346725711700132  0.7897403625354957
  0.6537354581464891  0.8172863033165002  0.5345892831787615
  0.6996898037099740  0.3513245578703724  0.1341040793690757
  0.7080848156236744  0.8563415450258752  0.6035178648457713
  0.6631385503162935  0.8451723618158827  0.6445813720066109
  0.7190463503826963  0.8366954682626575  0.6687991445514613
  0.5332858579617125  0.3031295379319414  0.1515775073301134
  0.6320235898665317  0.8813193253458488  0.6825935987397403
  0.8227693674645588  0.8497493261374570  0.8177637011766664
  0.5832925899185832  0.4377311476725495  0.7818937321194991
  0.5330889627506920  0.6658154625085400  0.5233844771633004
  0.2946268003795779  0.1772688597846824  0.8318385051130477
  0.3679364709947044  0.7900400242305794  0.1521413460299603
  0.5063523266237364  0.5482808789320068  0.1697737978762209
  0.5602601919303034  0.5790529498547845  0.1757390662168493
  0.4137348394354204  0.7001879774905538  0.1979652077122210
  0.4242849271230464  0.7942875561794341  0.2885067818384648
  0.3719050696878385  0.8250320998875410  0.2585196521088957
  0.7163898103208222  0.8183759132342651  0.7277903259021541
  0.6656496097436811  0.8120424303237398  0.7653279695230785
  0.3273556810752122  0.9212980724739377  0.2465530486903304
  0.7511583291024581  0.8977683497100383  0.8379782936313156
  0.7612364450392461  0.8749965920344042  0.9651291913510278
  0.3464544448563889  0.0628257362603564  0.2818071184727686
  0.7968845420835124  0.9357547012414973  0.9067317132441848