Cr N  Ni
 1.0000000000000000
    39.0510843612861720    0.0000000000000000    0.0000000000000000
     0.0000000000000000   39.0510843612861720    0.0000000000000000
     0.0000000000000000    0.0000000000000000   39.0510843612861720
 Cr  N   Ni 
 1596 213 3725
Direct
 -0.0540812187229026  0.8582399512656197  0.9715661490260002
  0.8178475428374861  0.0621777902356283  0.3358562137270059
  0.7665815071710876  0.0781127154081240  0.3707371114464596
  0.9668792924443643  0.1515207576609761  0.7776894216614916
  0.8573406022444592  0.1227615256078183  0.6835067883108835
  0.1853612438263266  0.5137558483367476  0.0123656797091517
  0.1765820095070303  0.4199262226816702  0.0319853972570361
  0.9355669027511930  0.2280417330267221  0.7023528185628826
  0.7134114823539117  0.0967790718933131  0.4076021499461601
  0.8085584372309025  0.0862360062247776  0.5083176064849493
  0.2224314169195230  0.6271332559320537  0.5101088944347848
  0.1374378255272071  0.5621153095746942  0.0913802537623273
  0.9497251898045004  0.4796524336347087  0.5814112624683730
  0.4656201234849325  0.1852857081502930  0.0523883806899166
  0.5141788769993946  0.1530347787583281  0.0774401429746395
  0.3787941823189971  0.3640305522991448  0.1910638557307535
  0.5763978407525430  0.2439046259545344  0.0729189612669130
  0.7321930912868019  0.0570318298101826  0.8327687965118602
  0.9198511221475012  0.2975815898082632  0.8656561438840414
  0.8780950899932376  0.3881902356333019  0.7287046223873710
  0.2335770995117036  0.4615491535069398  0.0423336689212728
  0.3014689952215363  0.7393589012392698  0.6995253603648138
  0.3427255319155478  0.2426489908873966 -0.0012754732694246
  0.8976535019837697  0.0096715698409096  0.8044350946680374
  0.4686998163393338  0.7594486871090558  0.8167239396675213
  0.5431184629149506  0.8591327909842356  0.8274723892265565
  0.2540862171228799  0.7466451524121618  0.9060628782265796
  0.5064939129112284  0.8098671748938797  0.8220665987390043
  0.2997623715296291  0.7957417295616043  0.9665662292094270
  0.4377090498986831  0.8302135877539104  0.7381655459587261
  0.4963913468818179  0.8239204169378087  0.7607013413017681
  0.7890502926114852  0.8097496468295248  0.2388301396971992
  0.3313436839357266  0.7463503299526086  0.9856284725854462
  0.3424432427893545  0.7618685060090593  0.6011981277787850
  0.3152763358548911  0.8526605724755486 -0.0043125546667642
  0.0291162513125684  0.5648630363261129  0.6441234007311667
  0.4180656618504414  0.7106434469439650  0.5828581054680122
  0.3659075484179985  0.7076775759586187  0.6128866103446466
  0.0771547438467459  0.5864312093962755  0.6913404062471840
  0.0310872542597843  0.5788809961678442  0.7353366727269641
  0.0875441867955467  0.5724470861911551  0.7508755436247009
  0.2592406644052873  0.7158305337106733  0.7978489350925025
  0.1403488144631987  0.7312569162346856  0.7487142036552281
  0.8215984613176571  0.6328680141699109  0.4317116074811902
  0.5959452947888205  0.8885335581618776  0.9567245911363232
  0.3852426162063631  0.9380483227173401  0.9844889311709273
  0.8710311479740798  0.0109117021897492  0.9630081737062161
  0.9182238294089967  0.1081729203856878  0.8712881939064061
  0.0125590985256741  0.9288369272574045  0.2785270803025663
  0.2836326277410360  0.7688522839636036  0.5761638767575658
  0.9512928284432792  0.8680760893544974  0.3965649178088583
 -0.0146024613645555  0.0819996186179614  0.8594782450902257
  0.8423479089451583  0.8250170023389647  0.3131652808119783
  0.4910963964891036  0.9807110298449992  0.3733249811242118
  0.0963807689717582  0.5568770373139778  0.8116901012638789
  0.5443573011171255  0.9570923727943742  0.3328943217234043
  0.7188920605360304  0.5939606763200591  0.2826980369192723
  0.8204115373480392  0.5970153657323022  0.3206743324512297
  0.7693789178056577  0.6094122773214048  0.3539917146133728
  0.5813615237956664  0.9089387207249812  0.8314502944482189
  0.9851869540527735  0.6424092920666123  0.3013868483430162
  0.8673433494856837  0.5164618975900674  0.3082270789703886
  0.1569595215587764  0.6993117746168850  0.9900994831162319
  0.2236510527665771  0.6867576667264967  0.9642696955557613
  0.4798951824719975  0.8529390112964090  0.6360436439103003
  0.8554810062917692  0.4147115076071467  0.2839577573447937
  0.9105764210622656  0.3983368828435375  0.2484606676226874
  0.9667768214301120  0.7666597549263074  0.3122771364770974
  0.8991770659615298  0.3203372943587626  0.3337416449462122
  0.9505546726411619  0.3058946033210699  0.2977581244401402
  0.9434754332725254  0.1964483166075372  0.2721069594791963
  0.6789898977729705  0.7478590901566277  0.2163577551879464
  0.4069173367968283  0.1120596404277660 -0.0051148206536187
  0.5993968356389918  0.9860570614399023  0.7060570327887116
  0.1976418389808510  0.1507573542521994  0.9686307592997834
  0.8913386566936219  0.7784675522880484  0.4025064167925931
  0.1018095861362850  0.1058160993227328  0.9425882546452999
  0.7306394148304097  0.7305315875853133  0.1837995149633021
  0.2233587009711123  0.7981630228177455  0.4973994041100864
  0.9473731083052377  0.7335732045130822  0.4861955511094886
  0.4046056337327235  0.6342775736134011  0.9289403239881265
  0.3877364687440378  0.9697418154057498  0.0881834353000700
  0.1874632618522930  0.9042629430119804  0.6858843666337796
  0.0751718335298707  0.0128343065922699  0.9015721325663764
  0.8464755356990337  0.8676123175008544  0.3583083160554429
  0.5072643396729223  0.9152516049620871  0.5760195545792394
  0.5358722635429457  0.8970722904450871  0.3523034557436154
  0.4761213150189843  0.8243466548570348  0.2973882549329595
  0.5138288699837802  0.0230637352995342  0.5441838551092819
  0.1499597670774730  0.5826224932659748  0.9432822828171109
  0.5755105883117237  0.7769257893967911  0.2889539056180254
  0.1867474811902730  0.6364175628268905  0.9555983935232215
  0.7587879104945756  0.9850713531498910  0.2817563345598766
  0.6738508747737484  0.6849528385381248  0.2331735291689759
  0.7995312495591501  0.9133884651313536  0.2670778543065804
  0.0286369640678738  0.4769917878303358  0.9890330839846081
  0.9459715208150147  0.8066188485086525  0.4128486559672762
  0.4429778962282326  0.0811277288393977  0.7901262421740709
  0.4799570187438634  0.1304078550930157  0.7920494759448609
  0.8883513205588796  0.7158929461348434  0.1880699866691997
  0.0161576127038966  0.0122896509288853  0.6764557490209709
  0.9339584091813166  0.5645352774371528  0.0162707256960823
  0.0412133891901329  0.0442443324863447  0.7762768028239225
  0.8565441939533854  0.9574060516686392  0.4484622091388826
  0.9081365692167194  0.9399549114364149  0.4155451390757629
  0.9456553898458294  0.8494598734677588  0.4606905997610463
  0.1716627850065773  0.9790540235965280  0.5001565757407869
  0.1510972011326412  0.2776370907358984  0.8780384773716159
  0.8106442086260536  0.4565207192105014  0.1941648852071831
  0.8594090126393827  0.4270490454831836  0.2211022224401805
  0.1214034233926957  0.9372562340665730  0.4981980421782928
  0.9052017154038362  0.3496170013660387  0.2053421951548841
  0.0933876367687884  0.0878043438462991  0.7742261701436339
  0.0840584174693496  0.9205603874783103  0.5480555664029849
  0.8524960921671748  0.3653012030697607  0.2383169968971408
  0.8499599180930322  0.3199673163354509  0.1976378260031931
  0.1119592220055371  0.0443595335922293  0.7135080502430322
  0.7350309013525615  0.7744787404642464 -0.0095616269762920
  0.1193799720922798  0.9809229797847409  0.5476895972663620
  0.0028629696590902  0.2569413179193267  0.1584695836324890
  0.6041419569216865  1.0000539773949506  0.0399940597373521
  0.9455700545899737  0.2112424767147094  0.2078925093180013
  0.1578514154292100  0.8112228329977833  0.6334902717730156
  0.0927452916773407  0.1226499808695566  0.8817866536421073
  0.0648007347635261  0.1627480377420133  0.6934444262367049
  0.6585179171218847  0.5607472660810983  0.2711257781836589
  0.1081496836248983  0.0804685763001136  0.8420474438471330
  0.0746584430370611  0.0285519258440698  0.8360602825715996
  0.0012910462064301  0.0452019656093375  0.5472866631480332
  0.0520509701006899  0.8189029807507305  0.5550503937995822
  0.0446911877908074  0.8656683839129999  0.6043602081696072
  0.0000324050282112  0.8139889209823153  0.6072594774952561
  0.3064964594510780  0.3064803024896866  0.9864965614482327
  0.2557955373135823  0.3105202657293010  0.9631453975307211
  0.0990386088936827  0.8220160254345767  0.6125901741941647
  0.2592832169975038  0.2806428329347200  0.8583132889670020
  0.2225461935012891  0.2316435046796451  0.8526800945412135
  0.8378769354731062  0.7354399651481592 -0.0037259085070532
  0.4302560688053720  0.9168055153582204  0.2530796375539096
  0.1559313563565998  0.2495714084751192  0.7694461200439564
  0.2140678584076961  0.2426393309722967  0.7914021966937020
  0.4439602206793884  0.9714074728374035  0.2295494681340404
  0.1134023925718063  0.1960282070226314  0.7636486105424721
  0.4738666129155944  0.8378264169522350  0.2374946180267979
  0.1227221692589027  0.1549721169023419  0.7137812948122805
  0.8362596417471548  0.7150582833853675  0.0573817697609775
  0.5718623122904363  0.9565733971459084  0.8762400093363687
  0.8989436837804007  0.8814208145807442  0.4328661855939023
  0.7806125154200099  0.6855697310695811  0.2730346305263039
  0.0911088039225835  0.6857417011805792  0.5071149003781691
  0.4384163497950160  0.9387411960270837  0.1167463221073097
  0.2656942819591913  0.5525727841491701  0.8208312647710257
  0.3779199225494486  0.8602719136927837  0.0599803568172642
  0.3174702473007521  0.5580004385526036  0.7807993298623007
  0.2935187163201721  0.9306502999531571  0.7791184303959883
  0.2178805845408132  0.5124639057044704  0.7496074816592966
  0.4684906446232523  0.8242759169619991  0.0680149493414094
  0.5212091491395495  0.7437450263662549  0.0517994198948983
  0.5166435130316366  0.6846052812342210  0.0684176503801656
  0.6232365183054980  0.6540832877122342  0.0003423938250119
  0.1297051261279079  0.4385062737885460  0.6220329754487853
  0.3027317146840193  0.9180490329225995  0.8412728111010060
  0.9199375487452958  0.4860984430250211  0.1101216039539839
  0.3524561081104424  0.9704216669180944  0.8508389810883655
  0.3560657744692187  0.9538871785303495  0.9184685162804466
  0.3288379015952098  0.8940201810684737  0.0379479281535090
  0.7995996495640874  0.9277713583614079  0.4350722161116525
  0.3914997840855702  1.0046882162834350  0.9611005547397029
  0.7895905066233437  0.8216022008046712  0.1782505900833663
  0.7335629760007363  0.7776537341990702  0.4582889188264094
  0.7812541144030883  0.7183219434360367  0.3784074540012439
  0.4900776397821317  0.9225717054757888  0.0823971718924289
  0.4680927293691378  0.1728935105910249  0.8403099549562759
  0.3955635795023547  0.6576781296518760  0.8025400734801688
  0.7892480364536901  0.8070290864415824  0.4781627404998873
  0.0762429629167326  0.7295144994959250  0.5575253648573200
  0.0852544878734355  0.7130728773074861  0.6196328715578597
  0.9303625819726906  0.5957503850247738  0.1273830465731564
  0.4014585776589580  0.6415308945397860  0.8651151154634360
  0.8825322890483448  0.6240221145669753  0.1006701425303242
  0.1913684998143229  0.7379997831715149  0.7118180625682408
  0.8669122248753732  0.6005000353226576  0.4540887872476568
  0.3408436542335174  0.6496576754124652  0.8430238286869099
  0.3288472987556986  0.6657934790982712  0.7747325098553617
  0.9659445823291586  0.5575012130547713  0.4504366785045579
  0.9907372370424328  0.6935541938157617  0.7777587387753124
  0.7816747074011768  0.7144634777096610  0.1496980191300097
  0.2452788350901377  0.5809950570478832  0.6976502964575826
  0.9624922155174563  0.4965201948131009  0.4667924579228279
  0.3001777175628084  0.5890348385418533  0.6568704711728693
  0.1705817254717547  0.6182537669568905  0.5448079588628538
  0.6899459784137535  0.9143751221894613  0.4643794012726182
  0.1702007497249837  0.4617487231776495  0.5195775594597410
  0.3295296369462181  0.8499676110106067  0.9254764750117145
  0.4872290855826646  0.8740443390285191  1.0374413529984963
  0.8367815801849997  0.7265538816910384  0.4533298746728867
  0.5126233414029824  0.1283224394331553  0.9671821550135985
  0.8298685626933208  0.1362878678048088  0.2534623273415912
  0.5063620755656377  0.2063361635134242  0.8948370965699004
  0.5195601615681339  0.1930044883846263  0.9542485574227664
  0.8373595592906838  0.1993014858512933  0.4586034867062810
  0.7297460298542631  0.3406028252121743  0.7317109957462555
  0.6919217239079176  0.2910615096833827  0.7248014484747956
  0.6301064381399843  0.2981371110298148  0.7038414349493268
  0.9263884321470438  0.1129236976123801  0.4248987193158357
  0.5829769821595510  0.2639305014195787  0.6355221761000444
  0.8611561429294288  0.0681506584271502  0.4746519245011811
  0.6364346436305461  0.2722958396796227  0.5960772669512530
  0.5367093076058180  0.2301408289219773  0.5723701948360799
  0.5417482296551890  0.5028956529026314  0.4809858011123914
  0.8819033934109886  0.5485637146548473  0.9462937053355832
  0.6470828014065151  0.4582650434347461  0.4787807139554279
  0.9111105047155079  0.4917708791059451  0.9402005736774710
  0.8510883020399624  0.5025651753098351  0.9210352856141419
  0.6869676993550993  0.3356589936723257  0.4255333671954591
  0.0627425461810942  0.3757263228677606  0.9674014683901133
  0.9035141073509855  0.3419894378437707  0.9148750018614156
  0.8427428532796396  0.3485911724192341  0.8887078125524095
  0.8946947073484856  0.3536399186933116  0.8522352465007070
  0.7976322666975140  0.3157958344631969  0.8161221450461698
  0.8355034767822357  0.3648926791787648  0.8259419224244862
  0.8204997438904088  0.5475725792150932  0.7417297417537057
  0.3891501839190922  0.4548696717515807  0.2756319658090641
  0.7151892066950506  0.2046872590638276  0.6337310758832932
  0.6662286370371712  0.1985012786950113  0.6725018447060125
  0.6473724654567484  0.2301333496858978  0.5512022368013495
  0.4903170980343181  0.4085312077168020  0.2680637231910309
  0.9798565314195402  0.4407175231645137  0.9245717506081832
  0.9687172701390280  0.4576305441695319  0.8640329298226024
  0.7251396531973147  0.1905592202382169  0.6935123122805246
  0.7316648133905718  0.2153362807316314  0.3646214023261953
  0.7834370204673700  0.2306299036106579  0.4347975806324801
  0.7671525395324188  0.3885188601057232  0.7412908599124634
  0.7805022149442368  0.1848782311308991  0.3905427603805919
  0.7205238263120696  0.3592093937569770  0.6689422897205515
  0.6838135813123692  0.3086359577939352  0.6628928991081756
  0.7133453950720535  0.3755422855575053  0.6035783905915826
  0.6743388665869966  0.3240570191170082  0.5996724795119509
  0.9332414780572397  0.6261443553197249 -0.0003115481989648
  0.9157463269149617  0.0035922856095324  0.3972506217323851
  0.9321848576971086  0.5566819591655380  0.8952046197796738
  0.3161695048500449  0.8502962229164587  0.4613629268131549
  0.8881077022126869  0.5239744178394196  0.8240165914750178
  0.2688363602815450  0.8089026238746231  0.4549150313239255
  0.3513896829409726  0.6766682413867255  0.4226005852217635
  0.8721181759925947  0.4129204543589333  0.8342232381465134
  0.3152584954095312  0.7756546105800490  0.3140632548740381
  0.4155772232192545  0.6969332615297268  0.4232528181431289
  0.6264035850599881  0.1481077790780476  0.6668938880831048
  0.6166044611660358  0.1626868760128786  0.6055892128539824
  0.7006488993041051 -0.0027794918091999  0.8972943890482613
  0.3980453871195012  0.5933265690357747  0.4045553108169642
  0.4463639415737555  0.5317005080343712  0.3252227256244123
  0.6592183951423382  0.0498412337744926  0.9213868529284039
  0.6827566273837388  0.0553595434292133  0.8736595515706379
  0.6112227225981663  0.0707680272448845  0.7868693720971788
  0.4914803654601522  0.4408491458271197  0.3715816100584052
  0.6228350363232898  0.0274725448470349  0.7420482272577276
  0.8331958357911713  0.2218542758862873  0.9445386965662741
  0.6583420351519399  0.0134766934528178  0.1140426067755059
  0.7345048190617872  0.2044041440929067  0.8552843479528398
  0.7606319680291475  0.1519057474578605  0.8771515153982824
  0.6871925018536581  0.1697275146869524  0.7948105628858589
  0.7100413118373416  0.1122121132510803  0.8121255604302837
  0.6381046816317033  0.1345355694598449  0.7293324975698524
  0.6122810751537425  0.0381442900208619  0.6780852772564722
  0.6705744754922812  0.1495098676540794  0.2506197804135035
  0.5461975783116187  0.0456289910813997  0.6596691561568067
  0.4851242041992330  0.0575610063940720  0.6373013639156684
  0.4694852953427645 -0.0222468509272745  0.5365243193752491
  0.5822857196849318  0.3033726648012557  0.2830048978334052
  0.7073390097157024 -0.0308595826840000  0.9724503551029393
  0.2681692971640933  0.8833799902373850  0.4429695669873003
  0.2987801262754923  0.6583964308538324  0.3509014549192607
  0.3476244734946313  0.5923170434713785  0.2742185637657655
  0.2065007660135496  0.7652062751904247  0.3370405457362340
  0.3968933845843416  0.5622700436250875  0.2992362534352092
  0.6195307632407707  0.1283541526340780  0.5542551743555449
  0.3457954214943424  0.5800314843688797  0.3339874727251499
  0.5703261543549099  0.0905267667871531  0.5397902675599933
  0.8609730104981468  0.2759635838687893  0.7320638797214080
  0.6825829406818319  0.2739971537288480  0.4432018782629866
  0.6946707333043046  0.2665173072224761  0.6187753752444412
  0.9294945430359750  0.6928321485581562  0.5983209985212345
  0.6069821574163080  0.2075733247844186  0.6506504036403107
  0.2198397205465218  0.8991645370048341  0.4784597602417740
  0.6655268570851952  0.1731741526557402  0.5651588814141609
  0.2139529342224893  0.8449787759008344  0.4473509114225746
  0.5340238747764772  0.3332997698487609  0.2546768868506464
  0.7975759523758426  0.6893774521179140  0.5009373362792525
  0.9199927303824055  0.4480450277028746  0.8989638031348559
  0.8334856912609323  0.5067567259038627  0.6969273198076632
  0.4780782260812297  0.3021785440657548  0.2464795678224145
  0.8793706598460678  0.5402905727575614  0.7652656506431795
  0.2124940146976760  0.8243405642320036  0.3247029887219753
  0.9492246391638267  0.7894721522348395  0.4728763404113202
  0.1654911507288359  0.8359949791531771  0.3596050918533896
  0.3737565479643503  0.8673612691728769  0.8251566101584410
  0.1086220442486572  0.6569643809044137  0.6338681609101876
  0.6383493746802500  0.6004248114929190  0.7853729224654212
  0.9281803468342565  0.1058609830906945  0.7723281813435190
  0.7360969353557292  0.6411219139177584  0.8127411188223105
  0.8151857314796056  0.0753388820130257  0.6736243375740988
  0.8379689997946722  0.3097975524336325  0.4918562746225226
  0.7436486910473538  0.0441270074644008  0.6038109245716419
  0.8913676795027820  0.2921275180067179  0.4580238288191898
  0.2379244151828361  0.3512678234086354  0.0103749233736427
  0.7886026341213160  0.3397165490881580  0.4640681722456347
  0.7176361738828636  0.1415599979857991  0.4463384071345348
  0.7324298138184185  0.6703983639033695  0.9183090470055700
  0.8406886407409166  0.1463714573033692  0.6238787616551270
  0.8048271094991649  0.4402221282546038  0.4917810315855782
  0.1836794518992918  0.4805380055856303  0.0754484489134176
  0.5915716001599830  0.5543307388548425  0.5440119670079064
  0.4707430899015962  0.2272233860959063  0.0964031027287088
  0.7511499977922835  0.7501881937568914  0.8024383820376709
  0.8851360975163107  0.2211498586220921  0.7418051668998599
  0.5564048595642838  0.6264125353591418  0.4470496720769327
  0.8364262378292212  0.1875948384578885  0.6730009665840399
  0.7959783728525770  0.6320918975427561  0.8369927370366946
  0.9954446679717608  0.2476248218078072  0.8251242634957261
  0.6375663576916391  0.8503009556322322  0.1088636311062610
  0.7034657593031687  0.7135227301037486  0.7351497691932729
  0.6428605966241726  0.8968678574210771  0.1526490425103980
  0.9493398002822256  0.6765346072321442  0.4997265884507921
  0.4734154432667211  0.2650757976157982  0.6547430725887003
  0.7685210978794834  0.0603274025559808  0.9594172225349513
  0.6833519010772182  0.2757281379470130  0.2150275337064556
  0.7820739212020740  0.0926857667346135  0.8987473493780068
  0.5987408844313189  0.2640581392064355  0.8605999789269174
  0.3710702776327068  0.2724261439317559  0.1078553143326914
  0.5676903524473285  0.3349024832725370  0.7875928912076868
  0.9212382904680868  0.4576841621144100  0.5204524354586058
  0.7325093456556886  0.3515607567807630  0.8977438608595143
  0.8676794241910248 -0.0458613862784286  0.9804834203313690
  0.6594437167656623  0.4051354593570665  0.9251779055610748
  0.9687389168058880  0.1798580774986503  0.9437251626261564
  0.3579335965135746  0.0947503070723082  0.5165111205657773
  0.9699893033765515  0.1235207006603806  0.9036658071129313
  0.4047893587883467  0.1269907794638316  0.5958355684166451
  0.9238852619496540  0.0644605525577123  0.8332846347055950
  0.4249219493988635  0.1094113957924015  0.6636291735323508
  0.3590743611479634  0.1720361690153563  0.0776376547780776
  0.4471960800707395  0.2010184006394255  0.7133744343167605
  0.4533448000415138  0.0761786189492424  0.0193580718564962
  0.5031570368845401  0.5770398793919775  0.2718304238545690
  0.0760960427643299  0.2870671083999891  0.6290903245198165
  0.6899831193415864  0.8354294555827897  0.0750856612377359
  0.8815370349999738  0.2344937167088103  0.0076023548520744
  0.7818510947430106  0.1996170566432786  0.3308030437611728
  0.4145686982356581  0.0141431948163677  0.8462119631635902
  0.3910812407973972  0.0747995478191715  0.8299077611587575
  0.3716751916794778  0.1591798691311963  0.5337328614588911
  0.7307719339859832  0.1964887056708155  0.1945281756743537
  0.6867165371974975  0.3041846998068745  0.3193239812318224
  0.4471481980524591  0.1729593698449736  0.6047117712904998
  0.6951280593781833  0.4085843648458928  0.3454864928694278
  0.4251731908332299  0.2305286224814602  0.5911049039809144
  0.5697793982011995  0.6834094396306416  0.4257737440422425
  0.5249626789829271  0.7489480476665339  0.4468544721467818
  0.8458483226233302  0.8224960586433526  0.9346386171861923
  0.7796381650402879  0.8201499724913736 -0.0085075931840730
  0.4900273245142734  0.7788146042175723  0.4887429058682207
  0.4444844797009723  0.9359046262867758  0.4925975067334968
  0.9829512790693694  0.0881407353069404  0.3807334199586642
  0.9966887127287847  0.1320540988066403  0.4274679389445844
  0.6033841559796248  0.5226950762933088  0.6676530695324263
  0.8666758225465623  0.0835229012650784  0.4174316686796725
  0.5915329322455257  0.5662601213777413  0.7159271532380195
  0.8911546942922249  0.2452868236115658  0.4130242401160666
  0.6297239131168768  0.6147446009263264  0.7237532652040333
  0.8329448020914757  0.1834971075966420  0.2956272945939788
  0.3883727869160966  0.9849711561544634  0.0256510003083805
  0.6494824053983453  0.9562818019867068  0.1337215322206331
  0.8612733833287711 -0.0118367136731883  0.3204805287125904
  0.4642993126917458  0.6692327517701214  0.9966245775687615
  0.3305903086818931  0.9552704311780853  0.0232343088471432
  0.3593553532759535  0.6154883754020292  0.9724565980972083
  0.3497719879037834  0.6354814572213610  0.9059687338286370
  0.0691536148903878  0.7793583250669629  0.5163287117376792
  0.2756568114814675  0.9743846518522253  0.8189258028646794
  0.5406307717247785  0.9086930027663931  0.0492156729466233
  0.3425930701722992  0.9397300423309437  0.7416147753015983
  0.0630168577009280  0.3275703408558495  0.6996202703875648
  0.4956602675867098  0.9830983586291525  0.0615720047906291
  0.5271682890623774  0.8376124321061114  0.1379059648239537
  0.0162815070448469  0.3380714941081817  0.9002704089591098
  0.9647416652743075  0.3622750365090227  0.0506715465167547
  0.0928050880475327  0.3891872300748125  0.6135242358500043
  0.6760750784636763  0.1830141211129334  0.3539399851476900
  0.3199892099916352  0.8254878383477663  0.3620119863143950
  0.3706612203514812  0.8546528657137896  0.3690451601743502
  0.6198911220666911  0.3537522531632811  0.9138568376585214
  0.6223843988006436  0.3358640671407982  0.9730159715749050
  0.2718777645478357  0.9024227080152812  0.3836943309145536
  0.2741837079466435  0.9538927725043679  0.4269798302823718
  0.4314666990293565  0.0945747738076968  0.7281118494396444
  0.0601193470080697  0.5064203669757352  0.8057965217936527
  0.4579313661150380  0.6549440103981214  0.2865337114707273
  0.8907466072056044  0.8106387566850807  0.2766115159888875
  0.8141432411243485  0.9990700237990480  0.1174244308043702
  0.9399203915669759  0.1804703587452220  0.1006073469207700
  0.4126658336904754  0.7956194176535482  0.0569176983959313
  0.1061901546940710  0.8547795155851525  0.8900372183973613
  0.4173208418642480  0.7622176711385960  0.1787537410741245
  0.9495188806740132  0.8234775550269796  0.1199254055610445
  0.8294195025905260  0.1493393919222294  0.1910884184892729
  0.3598509016577742  0.4741915482110373  0.9182367047651190
  0.9883858891512610  0.6413024726472127  0.0759923272977120
  0.9358692588206703  0.6549134910853590  0.1102387288410333
  0.0844948458817390  0.8421544367283658  0.9879971610802643
  0.1660128576271369  0.8232522939493756  0.8018462369208342
  0.3411294316132491  0.9707933464815991  0.1857868980577233
  0.8423706478934234  0.8060015075671788  0.1442573566799042
  0.8540331357525257  0.8826979492160217  0.0634369156793539
  0.9461760532813552  0.7777660529908748  0.0732870836731421
  0.3787181029023896  0.5509404334316712  0.8027690707417914
  0.3867771518804166  0.5368589283444339  0.8570142462289427
  0.2499245280559388  0.8485781386662572  0.9210782725730382
  0.4496286510229088  0.5291721652049413  0.8814071466262690
  0.8795385972028493  0.1073527474406752  0.0417237216353315
  0.3123827544716036  0.5176242173245837  0.5110777820779628
  0.8854492322806300  0.1489644674773474  0.0878238617450266
  0.9082428218360187  0.9291427697033233  0.2416024843434731
  0.8906629596878662  0.7450369420449079  0.0654038784963495
  0.0381511773658477  0.0803960201758806  0.5889824139952607
  0.8502379081893544  0.8983220105045863  0.2319350182649803
  0.2101281901435557  0.7251848295844115  0.0072268655531250
  0.1002939838448009  0.7286013694340535  0.9592970947812574
  0.1759317704912583  0.2955234914285623  0.5489907502766326
  0.3817069467169076  0.5223856269565746  0.6978982357940885
  0.5198891059365131  0.7298764914867999  0.1110639550489257
  0.8168615106698215  0.0153370050281566  0.0539325537298586
  0.7751911483396660  0.1674661122991165  0.9926833550995561
  0.9816415729058355  0.0615067493984434  0.0296499798484976
  0.2112093343712887  0.3754210735586715  0.6580532290674764
  0.3525712428480025  0.5940917078578651  0.6206949428147209
  0.1973785519746739 -0.0006234032139050  0.9458397314812851
  0.8579958722974097  0.9270379705542675  0.1037393735706421
  0.2787203735043425  0.3564295469243492  0.7417200296837198
  0.2598765377255952  0.9017147479378566  0.8826799319010614
  0.3715911472541140  0.8580547085591167  0.1371397846931095
  0.8383688231482872  0.7599777701855622  0.1014436531671807
  0.2826845590257933  0.9553512964750128  0.8909229396154600
  0.0411199453124403  0.1217724855870307  0.1547719966749008
  0.3651716837076024  0.5529925954056359  0.5784708953926805
  0.9007319843427242  0.8839094472039309  0.1989781097153201
  0.1910804671823183  0.9138931577070659  0.8554855703521940
  0.4728401205726753  0.8065406644091855  0.1291576404628568
  0.1965099729982706  0.3181999131928033  0.9485481095047439
  0.8162618002756377  0.4862100555342426  0.0719675076891662
  0.8184869520287069  0.4985887374443670  0.0132052678495524
  0.8653076665186580  0.4561058876270545  0.0986431852141696
  0.1416858811396298  0.2920833443552993  0.8107810709122992
  0.8316043845762624  0.7095763411561958  0.9438658088564806
  0.9579099632302239  0.3004344344179480  0.0649090006165956
  0.4259770414698476  0.0193425124862286  0.5703348313165278
  0.0024482372426091  0.1754685193358397  0.6764939471945179
  0.9043804408259739  0.3174070599704955  0.1021012779836610
  0.8504444603871617  0.2876747191948881  0.0908514921027813
  0.6328728136205563  0.8058451301747337  0.0685728465946000
  0.6857012570977186  0.7891374115993205  0.0340584774228199
  0.9864062248001305  0.1081367361847712  0.0833115167606180
  0.0651431100922486  0.3455138080478639  0.8643923217034174
  0.6585446680617321  0.8061793484676418 -0.0167301256244460
  0.3900864325798926  0.9541360358553543  0.1509964187661419
  0.1874698241426475  0.4812346302952881  0.9111267072892826
  0.1509811181220832  0.4284404800777887  0.9060215284969140
  0.0925758296009493  0.4331136278115026  0.8839231765890880
  0.8195313611852887  0.5315567920426614  0.1123276980506529
  0.1144272819675866  0.0627226203509378  0.9025079434363859
  0.1256705190521146  0.3311906708082966  0.8575759732152014
  0.2309911088100519  0.3689449175539820  0.9485541024264014
  0.4216687918943122  0.5787043160171588  0.9486381957895273
  0.1725684957114997  0.3717171330897636  0.9269998626538128
  0.8062987199112548  0.9394360796438987  0.1381211281593930
  0.9737770474879446 -0.0007530279821454  0.0517082549302696
  0.0585076042639265  0.3135551076277009  0.5024419585666328
  0.5410953693513950  0.7053191822885604  0.7954518430242952
  0.8450037547312019  0.8210681520420622  0.0849933533529773
  0.5038491719999179  0.6577355578761177  0.7854876516485636
  0.9000095562579401  0.8053092066308924  0.0487570291343107
  0.1367973037302740  0.7575028183756222  0.8554263277914834
  0.0699390507392831  0.7818977449912525  0.7714471138359590
  0.4427059348741560  0.6650480091842408  0.7634849881753190
  0.1116925986275025  0.2441315122272197  0.4849398126407004
  0.2453216928044819  0.2741069254423418  0.6298482129641291