Cr N  Ni
 1.0000000000000000
    39.0510843612861720    0.0000000000000000    0.0000000000000000
     0.0000000000000000   39.0510843612861720    0.0000000000000000
     0.0000000000000000    0.0000000000000000   39.0510843612861720
 Cr  N   Ni 
 1596 213 3725
Direct
 -0.0094074560722490  0.8675490946771041  0.9549909434763776
  0.5144357383430328  0.6855053087774091  0.2951137532163980
  0.5190566972248085  0.7482375353563180  0.2795034565576729
  0.9528057012817831  0.4345202869476231  0.4849447780173317
  1.0178581639490303  0.0040331274205424  0.1891551425989654
  0.6308349585962663  0.7665237622700976  0.7582810598134019
  0.8414452855545660  0.2427373162114334  0.2775835311339606
  0.2382293915969537  0.0468097651651105  0.9552759740062002
  0.7074475700978659  0.6141078455796087  0.4553568166086314
  0.6232662877859847  0.9217721900264904  0.5671974318949623
  0.3610608917525996  0.7286976193009810  0.7251771735053671
  0.6722957665401530  0.6850448853094763  0.4618304474016043
  0.4869119146384154  0.8236932363029587  0.5321523177113228
  0.5540001273918135  0.9376826769175104  0.4752518292641613
  0.9559868351447297  0.3841471878154439  0.4502967087365929
  0.5735586030161925  0.8961129895857169  0.6640848579633287
  0.4016830798403737  0.3146030367755527  0.6768984837529628
  0.5870974462359750  0.1972409308994966  0.4838197843886410
  0.4741931356237126  0.2491925173602047  0.4902672959383854
  0.4116945552289801  0.4070191109726040  0.5047480689847867
  0.0421886520070842  0.5190357425532989  0.0326770597444517
  0.2177872389928270  0.6261591973102084  0.5135522832975831
  0.2049112741600329  0.1954624994927147  0.0167628617989756
  0.2543305733086850  0.1479867594091772  0.1020639428132172
  0.4698948976702940  0.7607263383781193  0.8182018785215397
  0.5428841290513311  0.8606752938070861  0.8276778662692958
  0.2529834412962001  0.7438269643125081  0.9074628530293709
  0.5075110518219315  0.8099169336274968  0.8229480686475926
  0.3001854756863978  0.8052830966699313  0.9671979318481161
  0.4386929169132070  0.8291810022105600  0.7403829338685489
  0.4954196082411432  0.8232417312922884  0.7610560358197270
  0.7854999774601180  0.8113111887320160  0.2372657252188833
  0.3224391987092978  0.7528642795307696  0.9850597085936746
  0.3457343995872260  0.7585053094494582  0.6011452147479377
  0.2518301256162228  0.8336500013333925  0.9929297509723169
  0.0306745546296433  0.5431688519766981  0.6360752124139648
  0.4020748135311364  0.7513948796575703  0.6245172486921726
  0.3646879823433617  0.7020692172587298  0.6165813393572407
  0.0779137152600212  0.5832643889095327  0.6959134070942249
  0.0299428266002751  0.5754902484790761  0.7337275016807727
  0.0875603040398357  0.5697266559008112  0.7544894318379988
  0.2580895192509893  0.7146581556104055  0.7996984914794859
  0.1385211500141722  0.7294153913072032  0.7531120296309562
  0.8337760660451089  0.6837743807772325  0.4104471330277888
  0.5951501135953617  0.8905369250762076  0.9582050849917055
  0.3879401632642571  0.9347165637824231  0.9858912823632674
  0.2602225742106829  0.1937667316975700  0.1496195328530807
  0.2097316539708739  0.2091559746186800  0.1846573822783049
  0.0093565509366872  0.9282720242072809  0.2756356585353749
  0.1159040901262367  0.3480265737471784  0.2773841165949091
  0.0248201201679331  0.5188213119812063  0.2475596206198368
  0.1947124387770374  0.6920805597207517  0.4981074817503671
  0.6459833517350153 -0.0368814917846577  0.3785934784313506
  0.3599632305615037  0.1334797614468547  0.2016712327875111
  0.6036833593326212  0.0316756201825798  0.4580847686682989
  0.5931246551341467  0.0920584880988274  0.4221827103345603
  0.3952478854478823  0.0115681961587042  0.1375994154052969
  0.5882783349792112  0.1430913124448409  0.4502329615303978
  0.0256194815924234  0.5332610454668427  0.1808969656654182
  0.5750316826497508  0.2087697932158612  0.4269134608389588
  0.4716010692948944  0.2942728824706122  0.7596027534721193
  0.2815447594314383  0.4086684145023770  0.1971819521426650
  0.5244186471464525  0.2246002167555236  0.4569930092305835
  0.3230519129939848  0.3344423011699825  0.4111730087185612
  0.0418651835449204  0.7205456399334255  0.3550888089635854
  0.2248940081258665  0.3963831335009891  0.3575136029676108
  0.2844947714579701  0.4751409293634423  0.4113973564114480
  0.4124192495860190  0.3012473146905963  0.7375064498463207
  0.1264539350919747  0.5038270742269666  0.3384903076869946
  0.1775377862796599  0.4718076888165599  0.3689037569217437
  0.2385692101790508  0.5520455131704944  0.4181946347509252
  0.2895017306092705  0.5241723948676139  0.4504667400195472
  0.3039456053402385  0.1186083455759593  0.1299404228468469
  0.2483715847402002  0.0896973023845604  0.1199715919249518
  0.4853242964534050  0.3775421794480868  0.3929532848332541
  0.2973182277392171  0.0754928022970368  0.0823111754288270
  0.3469705408229562  0.0455685357906581  0.1114135450093130
  0.2564810209664085  0.2265782168670004  0.0270233838376064
  0.0254461473113636  0.4847827430022897  0.1471125626355637
  0.0738963239369715  0.4052809025121822  0.1280033898774416
  0.2477449538481016  0.2860150347430701  0.0158669873708712
  0.0193392546315028  0.3758790900099776  0.1232994999670930
  0.2193183031722482  0.3167922376116816  0.2078870605053405
  0.1386657157559364  0.3530819536019476  0.0302766491601605
  0.3345951428808028  0.4451104391858444  0.4241533440942450
  0.1255659994821482  0.4576151761407260  0.2997899511549255
  0.3661542715372277  0.2119534986835372  0.3494648226451628
  0.3694981044911666  0.2596755751598085  0.3931801648003601
  0.5675241438643659  0.1194703043085514  0.3381485942382407
  0.1381399577335353  0.0151610493120606  0.3990503992307399
  0.6278590467773908  0.2123585652024149  0.3287639742990329
  0.5228161201855284  0.1955432488961674  0.3539130407708332
  0.0485195317420416  0.1764251350714094  0.3688102785374814
  0.0992742018729227  0.1472744753701712  0.3969442199912733
  0.1370846208393777  0.0305324796454870  0.3369632955560006
  0.4809297924971316  0.3344137777003377  0.3526316866397984
  0.4810837683745598  0.3090356394323715  0.4798851068415514
  0.9295234430991007  0.2159199727546468  0.9716048278669537
  0.9203347669017280  0.1719739102267697  0.9221655975092184
  0.8794783091074264  0.7184277484810904  0.1872025852801754
  0.0154126519838993  0.0088993874372168  0.6779317995421759
  0.9356414474637441  0.5545125087518096  0.0232028009472547
  0.0500132028036796  0.0434539514864907  0.7776454088356141
  0.8602225979671220  0.9520251739840124  0.4583644639301933
  0.9030972895653600  0.9455602479083083  0.4102419078189202
  0.9461344821292985  0.8572366879766926  0.4561864616588291
  0.1693875985068019  0.9795359855569628  0.5017879837912435
  0.1746361031621906  0.2180426492231415  0.8933857363950338
  0.8098354077102174  0.4570027873760662  0.1939130189265143
  0.8578972691015484  0.4247558872176175  0.2221139769347696
  0.1129115578720127  0.9482822523476925  0.4928340559405698
  0.9083332679804095  0.3516296751217101  0.2058561022615387
  0.0874219080044635  0.1360664782894316  0.8185367100598536
  0.1132400752621815  0.9258881940151961  0.5577268199463457
  0.8521637496438967  0.3681413555389853  0.2405811938901887
  0.8477321730963767  0.3177865925630073  0.1954561903593058
  0.1005655875398133  0.0896410282556624  0.7734331157314090
  0.7293355279436945  0.7785507341940249  0.0015920189319767
  0.1178897514297703  0.9896696449821062  0.5516553312904916
  0.9518814671051881  0.2712780324101007  0.1949634034113285
  0.6021949060630485  1.0053412684828542  0.0399678914636337
  0.9474929754929394  0.2101826090601854  0.2072969489003461
  0.5695196317328091  0.9576627228833096  0.8774120222104724
  0.1369377511172260  0.6007612788338510  0.4253916132337632
  0.0650147169396144  0.1623619298235037  0.6941960419411370
  0.6570968305689143  0.5609099349333195  0.2704122867953113
  0.1091964051618631  0.0791146602054531  0.8414864310818723
  0.0754226154844678  0.0260651234367483  0.8430378893820033
 -0.0027644638864841  0.0362195942417540  0.5496560659413859
  0.0594102255866874  0.8241596785657371  0.5648840469349680
  0.0450349689501350  0.8604831194832450  0.6050695763948267
  0.0044923024561871  0.8139047662929372  0.6011937752033143
  0.3122633379010546  0.3034019037071948  0.9856647082938160
  0.2602877061827817  0.3085726305624142  0.9619797025454921
  0.0999977811686878  0.8225460100286036  0.6150343107354881
  0.2638709212698940  0.2794116753473780  0.8572604577062393
  0.2273049858598712  0.2284725339095566  0.8496252873160398
  0.8413130907260979  0.7309822445035327 -0.0032544610718199
  0.4263412119295096  0.9173067521618434  0.2570071099829512
  0.1559180130972378  0.2464989749202201  0.7651240310347031
  0.2159919037389988  0.2407908045057613  0.7874574386341187
  0.4757124235021352  0.9032439367576748  0.2278639429424580
  0.1163573233444425  0.1980914582094059  0.7609994111960486
  0.5296260351798590  0.8718688298158720  0.2485483535834702
  0.1648764068135720  0.2018302797049947  0.7236536293480312
  0.8346390051773342  0.7158320751321405  0.0583594166588175
  0.1613144867825205  0.8140019487812777  0.6413335702377281
  0.1853623194498039  0.5809562551471603  0.3891197766433910
  0.7776408699019863  0.6868167386433217  0.2728063474446938
  0.3911558765096887  0.6572977821961695  0.8027128358175057
  0.4270286000833416  0.9106240190726995  0.0878592574106649
  0.2659166589281725  0.5487197678824380  0.8251834576916773
  0.4192663708857470  0.8689365661667680  0.0472529177740977
  0.3192876903520753  0.5564069885414573  0.7834355902783821
  0.2947039619918054  0.9277671430745587  0.7800414225672030
  0.2187570734385444  0.5109218227967282  0.7514309272362224
  0.4704649208118369  0.8263502558944062  0.0726387110223910
  0.5176999878113551  0.7486565231910405  0.0530942293821008
  0.5152322221886682  0.7020994900597214  0.0069972765261329
  0.6225332026008680  0.6571734355287328 -0.0019028942913187
  0.1296777952045612  0.4378731332569745  0.6216063271925614
  0.3023663054974084  0.9142228198576113  0.8467364242679053
  0.9214722659356986  0.4844125670411347  0.1094004437821080
  0.3414821234990281  0.9655896665094841  0.8516268512356893
  0.3526605078973415  0.9520911815684220  0.9177004907475607
  0.3785474331716950  0.9271809532839085  0.0442873755835719
  0.8005064149793010  0.9289428471083617  0.4321600526726781
  0.3870947036150050  1.0046288503971714  0.9571313794220797
  0.7859784079219571  0.8234617071228085  0.1771980379056701
  0.7327185229932301  0.7772266448571863  0.4586980973000848
  0.7801278921845048  0.7180285760087918  0.3780359930409604
  0.4828452605231099  0.8885322670203314  0.0491322813186481
  0.6114387728701257  0.0481674975451481  0.0834236890836166
  0.0955775168299418  0.6831439927725473  0.5064121292580521
  0.7948072342657907  0.8059892703565498  0.4711324261131589
  0.0718871110252611  0.7355952512633973  0.5496749209520546
  0.0825284893283261  0.7138253499102266  0.6145960565856577
  0.9296269291860779  0.5951887806939934  0.1280573459509696
  0.3806369511745906  0.7030751261000351  0.8479701835267052
  0.8803541989411341  0.6235308946190117  0.1006824819199302
  0.1890698749651519  0.7370264347401128  0.7165821016128154
  0.8645936100015437  0.6022091661531708  0.4506504204435480
  0.3409940801731025  0.6509354062836226  0.8406355783860551
  0.3315713887973554  0.6653065888000401  0.7790646258597840
  0.9644716174914706  0.5578450398421195  0.4456107366932410
  0.9983953651704194  0.6732521725956595  0.7607473786371043
  0.7777295265665130  0.7155387336838559  0.1491908690095916
  0.2444602312174785  0.5792472502292315  0.6996813894122694
  0.9631871848131485  0.4985449590071964  0.4734791631847315
  0.2974865437759661  0.5880826783227686  0.6584348597119368
  0.1934731715424077  0.5575169178759115  0.5720061431267098
  0.6938091403413871  0.9153740526301503  0.4729023812459172
  0.1264587981512820  0.5181060916196033  0.5036658315365118
  0.2897717075165047  0.8155330793400328  0.9127657732656430
  0.4704436726938869  0.8453436626844972  1.0182088303364014
  0.8382918727197121  0.7258550153956344  0.4505091960866175
  0.8137974298846501  0.1412203807640872  0.8988713791247500
  0.3691053990632794  0.7144827211757779  0.7867581892465738
  0.4295677511762418  0.7088118186880311  0.8116481941736041
  0.8367865031731803  0.7937680649102796  0.2032739301278752
  0.7285173053607693  0.3408960241645299  0.7312172039741875
  0.6922961390581950  0.2902901177891622  0.7253577927379826
  0.6293864445951221  0.2975133670792043  0.7038461174983655
  0.8381697143475810  0.1469762142951333  0.4776863422103320
  0.5807141993397553  0.2629092705379565  0.6355373034061376
  0.8624423405922598  0.0620658784005991  0.4669222889019727
  0.6323841802627390  0.2725495331143836  0.5955909991139510
  0.5363512443766894  0.2295405421499671  0.5726836770505753
  0.5412544784498592  0.5043992940702148  0.4801258522572787
  0.8777843309354351  0.5537217907594112  0.9416673289931266
  0.6508825413942430  0.4535994526341833  0.4777265392657410
  0.9042853550162647  0.5028489187101035  0.9342783125389391
  0.8442560369208864  0.5058602378736685  0.9183915751572950
  0.6878440668659866  0.3370036011499222  0.4245696554416032
  0.0067446295817197  0.3836140437007973  0.9474854440578975
  0.9038560204543510  0.3486227629640113  0.9035326538837316
  0.8447968784907222  0.3531124368543321  0.8824044334958461
  0.8943629201587657  0.3609542693419633  0.8432819537867595
  0.7982605053313826  0.3177712182813529  0.8131513404126898
  0.8481074299393314  0.3250189086987880  0.7750207983619333
  0.3884566660734621  0.4561328409965000  0.2741890078682716
  0.8452717229347352  0.2016392712124855  0.4549254280295212
  0.7159521773292536  0.2035531802635437  0.6309037085664166
  0.6475412798263153  0.2306263334392289  0.5549576668028269
  0.3136859311908949  0.7805017965618560  0.3212069373128922
  0.4377585665288173  0.4246135107671093  0.3032491098221136
  0.9828777128463230  0.4401214772772423  0.9292983491611994
  0.9756255037570987  0.4508789315871954  0.8719099109590994
  0.7252694945486960  0.1900022813483365  0.6926635619667332
  0.7365055115481334  0.2745174571010642  0.3463260684652563
  0.7861998321517256  0.2284842178257859  0.4345168927363297
  0.7655448633121721  0.3898769699573464  0.7380395551302387
  0.7831494828691419  0.1831710733670515  0.3903164820379306
  0.7197017235637274  0.3570204206033259  0.6695799682294273
  0.6597281256084573  0.3654211449298173  0.6446878738103466
  0.7119710550252443  0.3766093313334192  0.6037777186485219
  0.6710396417944720  0.3258821107636972  0.6005681766645030
  0.9796787436351583  0.5933284650042403  0.9686092076259062
  0.9113021785814411  0.0042405059352607  0.3921675719667221
  0.9299627225370123  0.5553560016688516  0.8993437869782390
  0.3140217071802945  0.8495430142323106  0.4621585558522693
  0.8833089089787758  0.5263489225423335  0.8181479288560571
  0.2607707841518354  0.8175364767912715  0.4574612085599016
  0.3627452980820313  0.6828697352651427  0.3594746022744755
  0.8707102756577170  0.4189402165182244  0.8270364913474769
  0.6665685428279844  0.1983976876570378  0.6710844057402340
  0.6271878593929461  0.1477084170083166  0.6676965886049353
  0.2616399301589887  0.8842051892125251  0.4513655003376802
  0.6163224195119152  0.1615503683504551  0.6067903555576615
  0.2037693907132917  0.7663661558123334  0.3386010414290685
  0.3973273596086496  0.6019104669189814  0.4066003529726571
  0.4463180434094968  0.5336488364552158  0.3242732974736967
  0.6707388491913222  0.0587579292832637  0.9201555113302013
  0.6797201972846696  0.0555548439402554  0.8685042644208243
  0.6106591993733811  0.0713894488647298  0.7869673372351593
  0.4915514645732050  0.4425560779521984  0.3703175037535267
  0.6242743573026353  0.0277372572509438  0.7439834084100792
  0.8377063889463409  0.2248325972896920  0.9454951775339093
  0.6638653109997334  0.0417902866072547  0.9860425804085294
  0.7014983205740647 -0.0000151977735936  0.8960770487802847
  0.7356490653691808  0.2066232689559910  0.8578478357489154
  0.6869600740737872  0.1710508945444122  0.7940652408295023
  0.7085249623535576  0.1147903860887249  0.8119110044815905
  0.6383132266768041  0.1343835525263182  0.7273528762401531
  0.6478381975113839  0.0887055131230786  0.6844523615422451
  0.6746542121930900  0.1472852660542740  0.2512197280526436
  0.5516005494497115  0.0440708644311603  0.6648357229187408
  0.4800201068433928  0.0137286324176108  0.5978273588024430
  0.4677348298263424 -0.0194025815592755  0.5419667568876375
  0.5833248736416499  0.3021125539735111  0.2838453228372704
  0.7593412151810324  0.1533407959920563  0.8788376447527440
  0.7029869103215234 -0.0268855722528195  0.9728813141843327
  0.2990186563212669  0.6571736056748694  0.3479043691788563
  0.1555928707571164  0.8405137147184832  0.3566051401316707
  0.2093097514230391  0.8268612837370510  0.3237298182593994
  0.6189078468061855  0.1240467262389617  0.5587040940290918
  0.3474101485949017  0.5926014951598568  0.2718076241728548
  0.5648324235229839  0.0861265223155450  0.5418395687906125
  0.3965409996944740  0.5647103457256835  0.2986839055739534
  0.6834541724959627  0.2753156875936506  0.4427342207162945
  0.3454137637473399  0.5803542267398827  0.3325217462096672
  0.9268781995550437  0.6920495950867043  0.5920801915556859
  0.7998624636365927  0.2899040098308782  0.7061579806825053
  0.2154517495278715  0.9190028547492002  0.4734655566391358
  0.6934220522459225  0.2620218283585932  0.6162394182015472
  0.2112725856065492  0.8565513244429551  0.4322239737028550
  0.6568226236972502  0.2118727307028614  0.6105439037016371
  0.8048109925840470  0.6749443604607857  0.5019645879824599
  0.6656261362283256  0.1669209833571946  0.5648031820308801
  0.8295893940580629  0.5081241896307486  0.6934466056555985
  0.5352037366721000  0.3326213034439828  0.2556142745165455
  0.8773585723326039  0.5405748866953952  0.7620461106880624
  0.9181048199951565  0.4581719361810139  0.8906454030658411
  0.9449998611981787  0.7997486220413954  0.4703286340304469
  0.4807682990545881  0.3011937925785041  0.2493834185876838
  0.8172544914731377  0.5500697304037676  0.7392266307293245
  0.4092400145828963  0.6740139772814663  0.4081394081257527
  0.1402156467781661  0.6599968338278853  0.4117028262946917
  0.0491132944104521  0.7432151848839109  0.4672472572026782
  0.9789521574994009  0.2989464710373261  0.8790334697698715
  0.9572916007385910  0.2026298032175888  0.8227037894508461
  0.7799493926489286  0.0636054260786346  0.7924211877515539
  0.9283618557479490  0.1075959660147718  0.7739202398878462
  0.7518383214516338  0.0021701073287723  0.8536315766436934
  0.8159792325126377  0.0755347899882234  0.6804959565155517
  0.3984116167577811  0.2740157234170299  0.0178802254098207
  0.7491730574455338  0.0098342250048103  0.6086986239101139
  0.8102390773065579 -0.0022381845374826  0.8807492092027731
  0.2430241675477003  0.3499444992545578  0.0100288493752134
  0.7781401289809974  0.3479573711469847  0.6919680347811944
  0.6982047423155807  0.1508845402478060  0.4705284580219753
  0.6244664575779965  0.1783431817212544  0.2233328948949257
  0.8434515821507118  0.1444994908787562  0.6292244982306791
  0.6199544118410307  0.1184470513718040  0.2387734653657306
  0.1872900854572902  0.4795405006814811  0.0751091934631311
  0.7455853361005698  0.2719374568835784  0.5784160901089083
  0.4707329277072670  0.2248984243610071  0.1001723466526842
  0.7131334391539053  0.0335646590610871  0.1880436857881284
  0.8850764715982785  0.2247363165832238  0.7426885951575180
  0.9961519286296447  0.5494752158306492  0.9270485217534550
  0.8365469503066860  0.1895621943269508  0.6742118848905823
  0.3134891394805846  0.1936227918969977  0.2807112904822637
  0.0629705835407997  0.9457038601626201  0.3477261381863980
  0.0565359033294819  0.8516356613049291  0.5005114894170115
  0.4505924807564756  0.0766267347136592  0.0163270880784645
  0.9923543396160740  0.5331257917594070  0.7569676911974530
  0.9536287731863267  0.6854895750123735  0.5052457231671754
  0.9093066802325825  0.4416647379004963  0.7268088571530333
  0.7748322741504241  0.0576785775916699  0.9541218923717895
  0.1071628405817272  0.8712229118119383  0.3348404392546759
  0.7788650438463826  0.0913807953430415  0.8985090290984763
  0.8641139037825232  0.4076767469414952  0.6583669505756132
  0.3722462834385062  0.2695156806954309  0.1088873603522430
  0.8077918543274589  0.4152908529053747  0.6353433541746248
  0.9336735535099608  0.4742930110659023  0.5249478428910991
  0.8571319277067767  0.4243187951769474  0.5969941741795450
  0.8642396441629607 -0.0427618086194826  0.9777727852025192
  0.7652788977431415  0.3795153777717025  0.5737839375738880
  0.9763287161251422  0.1775788291889673  0.9475935174657213
  0.2034943801111951  0.7777880301328758  0.2800916869724019
  0.9783843198772703  0.1280386895983090  0.9069870530475835
  0.1963642718609257  0.6718285679524126  0.2487430227187377
  0.9336089225022128  0.0876605104222452  0.8346054567997441
  0.9268001021172440  0.5436727473580669  0.7270756130974736
  0.4130054836592116  0.1538160412926159  0.0397397205472326
  0.2945857443366021  0.5767654071794158  0.1999742775651120
  0.0015772951309711  0.8862089222393619  0.4716368806165179
  0.0508750397020923  0.8074525556514546  0.4508897014165355
  0.3622281110914103  0.1650861479052384  0.3068072214250667
  0.7417953796164123  0.0147279127690326  0.7911137058792220
  0.6493467500663115 -0.0022623031498753  0.6785423628631143
  0.6924154358536722  0.0410840249995084  0.6762474666383878
  0.6742929732955306  0.0038184582743259  0.5797355338543670
  0.0967882651179083  0.7339110289825710  0.1949884383996148
  0.1978508684540657  0.6860438168390853  0.1873266545706669
  0.9606606527833522  0.2385329307501022  0.9279816648345229
  0.8478301413035871  0.2037823949542887  0.8416085083766279
  0.8354625395108591  0.2184853459690015  0.7803236994339805
  0.8063684228281361  0.1234857699220599  0.7343911962203535
  0.2431645044403187  0.5674217120076492  0.1056516207029803
  0.8485977766827546  0.1757342335791754  0.7387529066945221
  0.2413189512846812  0.5460981293600964  0.1900363875473676
  0.7953365701961027  0.1345375104669136  0.6670876548770955
  0.3396535125584529  0.4514579176022920  0.1428984292170931
  0.7416786195952181  0.1012130672362657  0.6033392896588120
  0.2837772650019326  0.4197217347782255  0.1347461892665367
  0.6625849173218128  0.0947562144120722  0.5220871575039694
  0.3833786330858307  0.3708699281065074  0.1284316057324592
  0.6154126012777656  0.0364383087511574  0.5203377653534635
  0.9639840299812957  0.3440719905467337  0.9245983739267016
  0.3300142479235301  0.3446843779831056  0.1229931143972259
  0.1055018067145388  0.8420252779636530  0.2225707042407631
  0.5528502515630056 -0.0004644597580170  0.3862581091892445
  0.4072016011259090  0.0892668159666263  0.2927324506278296
  0.5936767627504032  0.8672655253652387  0.7875807180673775
  0.5592157913619964  0.0635202452208508  0.3618589581449763
  0.4859971995681568  0.1312867106674954  0.4657162794472530
  0.5161343394013632  0.1355023378445127  0.3677313382470165
  0.4197031207112235  0.2285550760940637  0.4223110555451352
  0.2314559320004342  0.4954950502252220  0.4390641042591530
  0.9130397485763876  0.3353851918705493  0.9652146583002810
  0.6544619910097127  0.9857231661208952  0.2484027103991075
  0.7810009335980943  0.6983534556404513  0.4399835257292420
  0.7694723402611835  0.6619343298705923  0.3959476126470812
  0.3720837331405996  0.6879568763815620  0.6784056110309340
  0.0636660631682795  0.6009922166577653  0.6298739230328412
  0.8168968898589628  0.5817845435331472  0.3849525348826563
  0.9258817309733802  0.5802280567912798  0.1907379120395404
  0.9812708175806901  0.6124379851666893  0.1983702707024642
  0.8651280614340926  0.5555819777700814  0.4115535744695604
  0.8628372600174919  0.5066905127557307  0.3677029582441906
  0.9151745210564246  0.4904055397270937  0.3375470335507426
  0.5835405145682210  0.9444743159845265  0.9392708703032652
  0.9099294054379889  0.4296947019995019  0.3570523841117682
  0.4158300862071407  0.1825791207648270  0.3779409904977403
  0.5038794112018304  0.4807094505951367  0.6370921881649372
  0.6830628661130712  0.0190819810506705  0.7670868061477047
  0.0610795443863564  0.5025191431547701  0.8087466591709326
  0.8602798201007240  0.4369388668806475  0.5304750155848974
  0.8859127156968188  0.8115921679826261  0.2751805461300035
  0.8150032399585655  1.0015884277501619  0.1171059820564047
  0.9441469015815831  0.1793481603509021  0.0980961435091576
  0.4156012847052009  0.7984493228851511  0.0605515111871704
  0.1007042772650595  0.8551801546555855  0.8928297610688044
  0.4156294596891583  0.7631105786434292  0.1815388422224922
  0.9466767243526736  0.8249884809492061  0.1165434077295622
  0.8379890223809622  0.2139697985315574  0.1730503789730101
  0.3622192042974094  0.4720430456964151  0.9201141858334831
  0.9888090994193782  0.6417961131933207  0.0727626930436526
  0.9341620953412731  0.6523447178935013  0.1068653171856476
  0.0552954327099346  0.8227035010158772  0.9883583911914653
  0.1045528690929672  0.8291849743227038  0.7837710057414681
  0.3320612204761200  0.9765043972162462  0.1954934806958658
  0.8387334041992882  0.8085994385321884  0.1428630378496555
  0.8510634775384245  0.8832000158973778  0.0598009950010021
  0.9425715214563172  0.7800572606476797  0.0688264000282947
  0.3783462621115278  0.5507723227214467  0.8062009738296204
  0.3880546183504959  0.5366897413104714  0.8619831621927848
  0.2373404282909825  0.8473618008269185  0.9315907619641474
  0.4514294811825591  0.5289642379269409  0.8852874383942757
  0.8819620470174246  0.1060252684800486  0.0440865592625487
  0.3159153361321779  0.5217736663650168  0.5106782929784895
  0.8981209468015378  0.8852763602886881  0.1967223991219666
  0.1873980078463111  0.9165813736729036  0.8639572991767541
  0.8872817380123282  0.7478519019252272  0.0661343223676094
  0.1000144705455003  0.0866368955788885  0.6035300308708078
  0.8468696775616341  0.8999055599949644  0.2309702946105879
  0.2012718839131777  0.6744216285544994  0.0163243485488512
  0.0947377735770035  0.7371003119276159  0.9617269375463775
  0.1725005597914816  0.2982045533920587  0.5456395479298092
  0.3830861948026873  0.5208461187199832  0.7009296022034989
  0.5185896784944471  0.7343379299466903  0.1114912895681306
  0.8189172625282106  0.0199397637822526  0.0527481118454632
  0.8290644824685395  0.1366768641870655  0.0149484146795900
  0.9855269686191498  0.0722560934622088  0.0199344277350014
  0.2120465468939267  0.3758301084742884  0.6568804305326429
  0.3524972535207127  0.5956745770043951  0.6187848258649591
  0.2353692247919384  0.9624173324006355  0.9868055596389446
  0.8569864604079256  0.9281527875248159  0.1019781186755678
  0.2790605113344355  0.3540830269954418  0.7404587821103835
  0.2559817485306748  0.8997496135927084  0.8896670010555079
  0.3174419156052640  0.8882055624477163  0.1102035165290489
  0.8350571412421318  0.7633829315680082  0.0993124526177232
  0.2805798703103873  0.8782611872247417  0.9597021250957032
  0.9929815589790368  0.1463283819244243  0.1270459723331950
  0.3636691021454262  0.5511670008252308  0.5759518624671023
  0.7454288218817232  0.2895878388829655  0.0617359162632322
  0.9050998896508473  0.9291575329569325  0.2396595413557745
  0.4708302006956460  0.8121757544237321  0.1316390223187020
  0.4288348213531969  0.5802577858211693  0.9516706856446786
  0.8207939072259418  0.4849337379439592  0.0718575996359978
  0.8178845389023666  0.4948665107392182  0.0156166209524709
  0.8698706970381554  0.4537887704902955  0.0964840083291310
  0.1441481616727734  0.2907100346716875  0.8100004762129051
  0.8528431475044598  0.6848196737518701  0.9546553899389058
  0.9582090489991572  0.2988101974428325  0.0727577374209935
  0.3804729362856744  0.9701257658438753  0.5743791312159771
  0.0098741247609013  0.1086599355460926  0.6355171158159637
  0.9075477644617302  0.3172948100620700  0.1025693752748943
  0.8950017938533777  0.2782271115048583  0.0625185224798010
  0.6281010998715095  0.8095008808924067  0.0687442680587980
  0.6800276622877454  0.7955079883522367  0.0384519039615020
  0.9936073479197340  0.1626046247340430  0.0684841195293488
  0.0713884966178659  0.3441295231728813  0.8698535974235365
  0.6560514235318947  0.8120800525863323 -0.0123073951950260
  0.3867322433219702  0.9574405741987262  0.1618086686581561
  0.1895334298527025  0.4785350785876133  0.9127702956681045
  0.1539960419506264  0.4270037814364982  0.9072486768127596
  0.0953065892199892  0.4316990819877014  0.8855743099835365
  0.8204443352580639  0.5315441119793892  0.1110836285560358
  0.1144926618217413  0.0619169664799206  0.9008153024000365
  0.1301993299915143  0.3301329486601208  0.8584752886045327
  0.4218795602671398  0.5830838285368003  0.8855625838864211
  0.2015877915526353  0.3160549712194276  0.9502153407258932
  0.1768213377105119  0.3701002382551202  0.9278814699255694
  0.8037102878495804  0.9416261337733021  0.1384950063706090
  0.9789933808002408 -0.0012084265890536  0.0483914058464881
  0.0580114998059697  0.3093905011073805  0.4999091632286423
  0.5429232579835492  0.7059939926454488  0.7957254349777310
  0.8413304848652314  0.8239828760726576  0.0806560749100758
  0.5056495497007284  0.6568055462565388  0.7857518058835915
  0.8946184693038772  0.8110938171647585  0.0480718472065860
  0.0766350901666101  0.7644497662701848  0.8359089424232570
  0.0673442955691319  0.7792462502478885  0.7750022655392431
  0.4404402312056027  0.6633003190817054  0.7641489877073374
  0.1160238489276825  0.2914275578549333  0.5213053802095825
  0.2340316700936785  0.3185139174298881  0.6727161834014135