C  Cr Ni
 1.0000000000000000
    38.7782925608872873    0.0000000000000000    0.0000000000000000
     0.0000000000000000   38.7782925608872873    0.0000000000000000
     0.0000000000000000    0.0000000000000000   38.7782925608872873
 C   Cr  Ni 
 106 1596 3725
Direct
  0.5212949421277506  0.6502010942337134  0.9834395078211438
  0.2458576530811183  0.9930346012484108  0.5563186578879510
  0.4043117103588428  0.3295657574982513  0.4154887802638133
  0.4614038056171766  0.3808320673062672  0.0572062664659587
  0.5791944033510079  0.2401732541385744  0.0209279555750385
  0.2644537765372724  0.9300554565674656  0.4827882814442492
  0.4070069046639774  0.2196974551787801  0.9770904484132104
  0.4307276559753572  0.6914391311243721  1.0051133169949649
  0.9456219147469030  0.9552649553409629  0.5416270984320337
  0.3182858784686388  0.0089498407612321  0.1411873692964925
  0.7453734335240544  0.9211096124125804  0.2933247169453840
  0.1891456561076037  0.8260751899776586  0.4720058077889528
  0.1055575107811404 -0.0151557673182012  0.5062608447876740
  0.3964434884185067  0.5768783113046252  0.6790644949322352
  0.1700145489929377  0.9425437449403098  0.5872966059900114
  0.0059997272639953  0.8007643846477572  0.4987842184847267
  0.6904588866990580  0.1665476737690082  0.4690892493899335
  0.4423789161228167  0.1837014917494127  0.4146247338620843
  0.4821534892114583  0.0955074858540362  0.8808247723672229
  0.3932968379867803  0.0236048337293658  0.3465298370158914
  0.1886758034226171  0.8801103145563595  0.5195951252362181
  0.4168925319461663  0.5518961387048985  0.8036072853411067
  0.8055338091673735  1.0247472178431893  0.9530384541063298
  0.3737045260786207  0.1401796710553714  0.9840520265000723
  0.3112602045464378  0.7234777678380923  0.9896382538889151
  0.3462763789151921  0.7986977325371069  1.0102485547217865
  0.0824395764236912  0.3004801625588617  0.4333760790046301
  0.1840128979839273  0.3276234112826001  0.0302452679835645
  0.1914287625466076  0.4140688200964835  0.0263272084973131
  0.8496247452631490  0.0794394657645823 -0.0285448171701023
  0.4476323522164390  0.0279182868234829  0.2683062503277176
  0.8488147980174816  0.9859412371038732  0.9005873967868124
  0.0575819531244419  0.8652549913079310  0.4959789105005221
  0.7431479107778405  0.0019759411089520 -0.0005897345399321
  0.3349071846625313 -0.0377179173399690  0.5403691498027084
  0.7419266318419035  0.0769028687397794 -0.0100902611102366
  0.5289313358490669  0.2291789624010768  0.8889892513122977
  0.5749226185638032  1.0309071068343034  0.3579404544199375
  0.0618747608308110  0.7368872396419994  0.5232903761129368
  0.2658196766972988  0.9186203019527641  0.5660947546008762
  1.0538580822858918  0.0675327283850676  0.5310560401806018
  0.8770437371956458  0.0015468291970618  0.9744500049394951
 -0.0632912703952190  0.2984907258181227  0.4927492901913202
  0.1455389188713562  0.2341567744313800  0.4361821383467307
  0.7671886721163398 -0.0062591030456900  0.2687820890716693
 -0.0412488648901673  0.8713336129184257  0.6383744515872185
  0.5641723394766612  0.1549333001991241  0.9132161036546159
  0.4216745961770076  0.6730582473307970  0.8331812967104080
  0.5469649571036275  0.1667234062943687  0.8444009815395251
  0.6702577165244947  0.8587354797366676  0.5402769508224792
  0.9944081056917954  0.0269927718401276  0.5149048962789434
  0.4194338050213209  0.1614743035144452  0.9225660674191059
  0.0687334188351648  0.3817479724551259  0.0898583406670709
  0.5618932631192780  0.8341459674620962  0.4753891929613861
  0.7199343948761233  0.6436438947835670  0.4888749151808015
  0.2643337128204981  0.6013147459394631  0.0226202526932683
  0.5788110387706814  0.8996911185305664  0.5459295883189298
  0.3933603574180861  0.1163322456609257  0.4465620504825869
  0.1013529313038651 -0.0746703148211528  0.6250986767345005
  0.9768914009895010  0.4221558633189682  0.5301107175651327
  0.3642393458835889  0.6393835241047432  0.0258016379568280
  0.7424203979437620  0.2763834572667612  0.0709202241799422
  1.0333999757410028  0.2845375783267541  0.5145576884733305
  0.5517684566481413  0.7793741881216432  0.4309530556694119
  0.7334663020987604  0.3653158317044707  0.1001833578401935
  0.0953689663550492  0.8102871815649242  0.4742167641633544
  0.4749956884429765  0.1677606993680562  0.8793678395227630
 -0.0442063952197108  0.9463015566859457  0.6187417743487095
  0.4003279948376569  0.7637083123039909  0.9713439477205481
  0.3605644983714123  0.3730475334897923  0.0788241577192730
  0.3836758045321472 -0.0014094857094009  0.2556858859945641
  0.5178945550673887  0.0289382669047307  0.9820280957214994
  0.3761596002486000  0.6678474942965428  0.9553169682068099
  0.1051582384825849  0.9176272580012380  0.5272468008508978
  0.1349513763251114  0.8305344401243755  0.5349297348465187
  0.4916423702721602  0.5950843607912966  0.5178025502541946
  0.8491940129843498  0.9014994375367402  0.9574293828794882
  0.4890270560105945  0.1362041595195254  0.0373741110636836
  0.9149096837499860  1.0145025100653122  0.5606421453069018
  0.1087176679924651  0.4029394531271351  0.9894494612518289
  0.3265680192772580 -0.0088774966815198  0.3357787403454555
  0.3239641673617908  0.9607399908751956  0.2387564437618377
  0.2214494074166861  0.9712301701807454  0.1815997883287752
  1.0532149885106752  0.2111866959043556  0.5296280094170980
  0.5548959064241439  0.7633484233065099  0.5071863365780928
  0.0262695742842844  0.7746481614097961  0.5798710254160128
  0.4636599741834727  0.9692318041930349  0.3445532574112911
  0.4025432951060365  0.6936083239580608  0.7076831571868076
  0.1918714641922532  0.9480589286098560  0.4947300304279040
 -0.0570245976763276  0.8203800137540460  0.8984310235419779
  0.6660247902476638  0.9067419826144031  0.4339774450289015
  0.8380287764469213  0.9549939963629906  0.5726005997434284
  0.5799706721962279  0.8897902682562284  0.3995904411034293
  1.0112347528739563  0.4095397806655695  0.4394064042401181
  0.7567447945894372 -0.0136863782304472  0.9116566946657173
  0.3707552557880574  0.2485699206738524  0.5140895165558679
  0.4856899162620898  0.7876297761119417  0.5005884646181985
  0.8696683249869152  0.2985212440182756  0.5244675114453257
  0.2777302060660383  0.8542905540544524  0.4914023022276248
  0.9483401717077583  0.0863265541274421  0.0385071180507068
  0.5754474414391473  0.7813714755535247  0.9489652606413733
  0.8556656784999276  0.0814071537133225  0.0688830839986965
  0.4973698071064202  0.1912836574038579  0.9740201073280719
  0.5217326315323747  0.8141188687627697  0.5615553856487132
  0.2762489373543614  0.8473042799545165  0.9494767912653359
  0.8184439922874220  0.9447666022116658  0.3183594298788467
  0.5986381469981176  0.4496206209082881  0.7800880999858019
  0.7717020543921962  0.2763923267601916  0.8106165945544324
  0.8218007303048618  0.8862422806208831  0.9128418519823432
  0.2396473461816418  0.1498796162450711  0.5335604230078943
  0.1533340721668541  0.7593350060282806  0.0481124560201299
  0.7570984010439074  0.9568488959494110  0.1785749207713050
  0.5056538185398960  0.4718745676740885  0.0237477384818520
  0.3796747927775370  0.9147951016696207  0.3623698815282826
  0.1191876798615475  0.9478536832609581  0.2651412943787748
  0.4587747098381493  0.5932466589293339  0.0832282060628745
  0.3171475625242913  0.8097141531493669  0.1976500298328025
  0.3624903608537695  0.7736823106065426  0.0515655117989123
  0.4076292993513279  0.0398304963184090  0.2378456368033445
  0.6658227105359095  0.4616761908468734  0.9659742503048726
  0.1095354779618824  0.7401365315072528  0.5420713808572932
  0.5864563440682837  0.4340687987602982  0.6159055658132401
  0.4604648659241574  0.0963266240265809  0.3573240504451682
  0.6656842188434603  0.5642101399606643  0.7274067133195058
  0.6088487323315230  0.4366430211803733  0.8403451833892764
  0.5664182572676175  0.5205427557785050  0.7017629709741731
  0.4914390663811018  0.7708568633788847  0.5495497573442294
  0.5222351236201566  0.6079466278203166  0.5608969789776590
  0.1767573013398882  0.2128678116385684  0.4693939603908512
  0.1943706684169768  0.5973392152733487  0.1040983554880772
  0.7039252491817325  0.5937737040421475  0.8267464271375132
  0.6377144856733018  0.4985517008650741  0.7838909801594087
  0.3094709170306796  0.6282971572752616  0.0179302121567839
  0.2509858897624759  0.6439115063501766  0.0498572264200795
  0.6875150699502319  0.5365944348731327  0.8492971945527081
  0.7051388304772284  0.6233569718970314  0.9348318584256834
  0.6284561726657476  0.8918530386691329  0.6795142295149550
  0.1430546694589388  0.8114870396578386  0.4890192700834635
  0.2288244235116122  0.8450401805547992  0.5021726130858091
  0.9510575188792738  0.0392925438854046  0.5921623885635440
  0.0209684928778507  0.8466059763805918  0.5261994672442711
  0.4696528060652189  0.7336806482304985  0.2160100623218237
  0.5288951623568582  0.2225312385836977  0.0010435734917483
  0.5131138375374431  0.2257070049434650  0.9367038440030916
  0.5297745219773490  0.0809421707125388  0.5313490459282515
  0.5093031376774679  0.1344701148045273  0.5200333844337930
  0.5226071813301865  0.1240078663424368  0.5801972549959029
  0.5725460643582614  0.1611248585538519  0.6480938921773083
  0.1560755025362378  0.8008740445247655  0.0943117899746843
  0.5115286228543338  0.1677767058849485  0.6281856991062680
  0.5625970738872526  0.2051308904723210  0.6926294336545571
  0.5046899341966034  0.5327425152502432  0.2325743642208556
  0.5397867839289883  0.6645654413838573  0.5421070900699594
  0.8118688988756155  0.7348527940084219  0.8774095599259106
  0.9151404901137230  0.9163776637935812  0.5420310795198839
  0.7875285240473826  0.3369676662876652  0.5194703605257118
  0.7709358120037825  0.6854561622396712  0.8720680377637737
  0.6450622974319551  0.5992559322950772  0.8053966230678461
  0.6340629584106682  0.6141656365673819  0.7435859267085910
  0.9006278375172250  0.3086150901315693  0.3965897944633227
  0.6056935589197298  0.5716498822799567  0.7060787027450390
  0.8208512134318131  0.0995784635999147  0.4446942182968914
  0.3585038590956711  0.0897682904557288  0.5334741530017258
  0.7061570216082270  0.3516713128826429  0.0021754517527350
  0.6003500985348421  0.3167175111218684  0.9133301256352327
  0.6303430801829729  0.3488190596185196  0.7505456256349411
  0.8559884620158769  0.9454559414638641  0.5220634163110295
  0.6592451271699606  0.4864426294093481  0.3554548225479990
  0.6467775104947591  0.3800009411719806  0.3291500813485643
  0.4447613125866105  0.1249937176098421  0.8943002737371584
  0.4536045786513860  0.0748589003668874  0.8467113252296937
  0.6927009113665042  0.3179504341084533  0.2534587002443515
  0.3950108639172387  0.0825931697780456  0.8275288876414566
  0.3846199767487292  0.1256980624780061  0.8693828807414588
  0.7883061330881986  0.2112620709877749  0.2678893716526460
  0.5263831714329781  0.4720486018398943  0.6977730154376497
  0.8976706760679397  0.2905023288859518  0.4591968017261606
  0.8469248044590993  0.8869836014201186  0.6379419182804198
  0.7998240398702225  0.3530175207651906  0.3951190677166958
  0.8270889871984912  0.4366757024555263  0.4808011511199544
  0.3931520417725287  0.3026609010092050  0.5086242691845212
  0.5255449314672520  0.1860528422898338  0.7988769603005971
  0.5143267649587618  0.6392198319319787  0.2591523969304136
  0.5187541145691598  0.6700142709639550  0.3644648498389476
  0.4407409602984523  0.2222795680777980  0.6507525846534314
  0.3741875721067089  0.1066539268510235  0.7029831564869127
  0.4122375328953591  0.1280050261197410  0.6011459435156984
  0.4305384121981613  0.9155809130085371  0.4950573036721610
  0.9844176024249833  0.0912551579542131  0.3850175062841324
  0.9771269245881633  0.0840218625768377  0.4556720379555914
  0.5741921918580685  0.6113972260899863  0.5196203430843355
  0.5967249940157436  0.0689022551416413  0.5582218282712695
  0.6596130079212974  0.7633071778612934  0.5477787282646572
  0.4719509968288794  0.7358928881837902  0.5019854040114377
  0.8922623752869507  0.9654750087992279  0.7544568125974033
  0.9633788283356601  0.9433172323667984  0.8409710573590046
  0.9323159559679307  0.9818892625087939  0.6507790720693822
  0.9510372033782547  0.9246456928835024  0.6664791823021158
  0.6648734432000031  0.4472282031883244  0.4773402446478395
  0.6555980259303321  0.5463871771986129  0.5618094071263834
  0.8114768332507524  0.9121689996489449  0.5630647501871048
  0.5770528247161859  0.4778493098063423  0.6585244358719949
  0.4107752266100258  0.7438218796602164  0.0211713568672720
  0.6966461661923323  0.5226926673653801  0.9095661660968303
  0.6161865339568584  0.4986150030142981  0.5585188441976209
  0.5800862349241981  0.2837092719693848  0.5744068237995313
  0.3839399354178619  0.0641344408236162  0.6584279010366283
  0.4430831035170824  0.0572376583474769  0.6794451883149850
  0.5431013169062991  0.3126035504706304  0.0824444399867525
  0.4590741701844541  0.2244348773619958  0.9759324552562457
  0.5559066240782705  0.0858306423508318  0.7660848557940096
  0.4412009793928278  0.3600113237530506  0.0985138606935552
  0.5002206097831201  0.1314418239077437  0.8515011106405636
  0.4962185079372905  0.3440456595171552  0.0561546849277287
  0.4065276125571907  0.3747380447992764  0.0525262791094315
  0.3445633456963722  0.5029571146771344  0.1860249456531581
  0.5943080020583784  0.1664847340781161  0.8742574984005522
  0.6888299615083633  0.0925145562089417  0.9822635569213635
  0.3994830494298173  0.5017024158831489  0.0907035971317596
  0.5261072402811630  0.0240419047843963  0.8263389059152707
  0.5714315386409659  0.9607430490351939  0.8713485482241523
  0.5478604310990310  0.9965399286432568  0.9538308613329622
  0.5287660039227047  0.0570839862563606  0.9393364577480987
  0.5568776629805546  0.1201236502839616  0.8734344639466788
  0.3521325996608035  0.5826129706808336  0.1043540151704192
  0.4011615368227480  0.5158617474875737  0.0324494669093668
  0.5031299577121815  0.5015479483658173  0.1278398069031532
  0.0251155450967791  0.0544967408851570  0.4872307968574188
  0.6867913975869273  0.4757651572429580  0.6398259799244891
  0.0120400663417619  0.8856839738001305  0.4785262791908607
  0.1305936142570174  0.4571381179034530  0.3002405447388123
  0.4694475619922312  0.1785736896849567  0.2806755446845902
  0.3714932383434010  0.2594529806553548  0.3979723462711145
  0.3731459044326260  0.2731540690318867  0.3346098864327338
  0.3248010934055406  0.3408279299578480  0.4152588823857272
  0.4265476293918093  0.2871217294002966  0.4031797553021498
  0.9935228476847834  0.6867352129610818  0.3504683994834984
  0.2364841052015179  0.4418581313139213  0.3945979331005524
  0.1931587356004228  0.5779821876264306  0.3982556117404997
  0.2941828683954734  0.4747533770994307  0.4053505042258655
  0.1334079866693483  0.5029903315785501  0.3441853443362209
  0.3625538752170162  0.1653744967401745  0.3054288239951552
  0.1899910651359343  0.5338245113983064  0.3541901023894919
  0.2979409490218328  0.5801268906815134  0.4329605091186474
  0.2437652419388788  0.5642185541393641  0.3632925113412186
  0.1356842979446257  0.5327912113461075  0.4520093398649682
  0.0993140477591999  0.7309911233803285  0.4354542985884098
  0.0243310027457550  0.7478621741095316  0.4900621563899574
  0.0456987312963713  0.8204068499695357  0.4696741167280518
  0.3141938908173640  0.1973920797241484  0.2836985162691750
  0.0415445530970848  0.8282777629338691  0.5819141961742487
  0.3596416250810145  0.2872221259844219  0.6130062772958216
  0.7765816900561828  0.5329348464494045  0.6058075374222029
  0.9644472804401605  0.0023106759249597  0.5457522420777927
  0.4198089652891764  0.2493126966777159  0.5263879621959650
  0.7392622889869042  0.3100033537724814  0.4528415764802537
  0.0718949261550380  0.8853639138051873  0.5458427238505816
  0.9211933102220891  0.9696387993817445  0.5875009768196993
  0.9819116330173221  0.9902571242118742  0.6106982622094476
  0.8073758982711177  0.7592324867970620  0.4853237655179269
  0.4721512948222222  0.1189929215984773  0.6215872793994976
  0.4832910714146596  0.1062223099622979  0.6830952503994082
  0.5341584343077724  0.1107834635245314  0.6418809005362979
  0.5953812743705444  0.1357590255714689  0.7702203609824535
  0.5770753706849917  0.1885725889264356  0.0330911412864914
  0.7531136932762890  0.0337255699213806  0.9554935194852006
  0.5865909289168130  0.1789311640762811  0.8132813987052244
  0.5755517510762121  0.1752447418666063  0.0914122049042076
  0.7098103431196332  0.3134087554105083  0.8970612277984364
  0.6256353451687552  0.2482949843624087  0.9906357026056448
  0.4820642836644150  0.2415165619024449  0.5500605829045475
  0.2572928527785379  0.7348592649413244  0.1437148998623136
  0.2668828119640254  0.8424062789007244  0.1733897538080099
  0.3702780651099065  0.2415334823605278  0.5649919040711658
  0.3553424554568478  0.6471507969411170  0.0782348476685838
  0.8094331851469936  0.3545801222243483  0.9232752177080423
  0.3539001273573088  0.5912797716357330  0.0434070084501020
  0.6273453485411751  0.5440420545817765  0.8283432052025456
  0.7712498781455794  0.8193944785287330  0.7388335918878681
  0.7789279164623516  0.7755534023939319  0.6941286759715173
  0.7804932203726894  0.6843623364310417  0.0493861374915093
  0.4939875578788811  0.4091539466039891  0.2675752580360203
  0.5305715735421127  0.5633075131253392  0.5154293726306486
  0.8221710447598802  0.7915988876999156  0.5925066159214673
  0.4802513454970209  0.8328397572380069  0.4749396079528455
  0.7467448791187316  0.8462775695358739  0.6139516522504532
  0.3697643641222274  0.7767721738237029  0.4514096695611717
  0.7986281222110181  0.8806517431865929  0.6813543316864004
  0.2357074947797023  0.0180185833575300  0.5150283292968967
  0.8622369033198082  0.9030154155471948  0.8107542017100577
  0.3835689138479662  0.9622410206258024  0.4088126819204707
  0.9649606104651047  0.9722996093319511  0.9467939290044715
  0.9185453706769537  0.0168441966258502  0.3352919557719238
  0.0512338907386450  0.8347605534193276  0.8377785544643491
  0.9409429195674138  0.1687449160215896  0.3945629470711990
  0.8792964788613149  0.0913383645704487  0.3458181789671300
  0.6445033047777960  0.7050897484853622  0.5642285505166399
  0.8368416168764519  0.1696692329061801  0.3579113709608389
  0.8363344009423679  0.1448727621531911  0.4811503838726258
  0.5926006979252603  0.6993533995879152  0.6067422325013418
  0.7725557177256491  0.6747333018325306  0.6706677330058047
  0.7288792287491704  0.7688924218406500  0.7316042985545337
  0.5335023978536748  0.1653513361760222  0.9514831346614800
  0.4566790877727516  0.5249621110778088  0.7211062046044737
  0.3596062777712143  0.1163582044822400  0.2606857002432232
  0.3033195424557405  0.1907841241291824  0.8314904293692497
  0.5343808317795296  0.9182359900565149  0.5310243939215923
  0.5893929436107056  0.8583068908106664  0.4399247243040487
  0.0338985314963311  0.0785399744783110  0.3507175869501233
  0.4082197543904675  0.2688760128457623  0.9601821293192992
  0.1648034894199783  0.9255301808709463  0.6350379978855233
  0.2153873024052982  0.0738756052739968  0.6570084408703259
  0.5696916355286172  0.7351942223840446  0.6872785753362184
  0.2642844776707563  0.1094711130055936  0.7224175955537496
  0.1945277396684839  0.1612209230660045  0.7454129671771148
  0.8470487865522809  0.2789309593595653  0.3833641451511244
  0.2166334067612851  0.1323872972302623  0.8702210513379499
  0.3328150235656052  0.1601003049382250  0.9564884054523115
  0.2693795393951421  0.1697497093428619  0.9390054007993244
  0.4585147539405241  0.2652953501469810  0.9280836873115127
  0.2256217276613973  0.0900624146194554  0.8269855380008999
  0.4493317711583202  0.4027834190048109  0.7928775683868871
  0.6403134964612940  0.7143377957269622  0.7686532766304750
  0.7190542159865241  0.7228213894793866  0.9591677405966579
  0.4638446758262995  0.6558242177194732  0.2923638274419298
  0.6624722695261029  0.6894895387071365  0.8912930013938468
  0.2440906359295266  0.1981170190182642  0.8115942517515108
  0.5374690594203292  0.4266769933917395  0.6524758387335736
  0.5302353862945892  0.8233476794081570  0.4395987304882006
  0.6184302914596077  0.4227521989284481  0.9007151707931456
  0.5840851480257984  0.7898050230638736  0.4666498934830210
  0.5697582537942187  0.3873025345368388  0.8355634856580653
  0.1799492730681416  0.9910449742833360  0.2088902227517868
  0.2279008799702683  0.9401807368141940  0.1386204466232134
  0.2919199838608265  0.1435730037444465  0.5584662142998985
  0.7700875608448462  0.0439741719589698  1.0205940621018452
  0.3419753237584010  0.1799724585738177  0.6259713748422968
  0.3321686413740408  0.2234525560962830  0.6690208362653693
  0.4030702249072702  0.2025367641021612  0.7511352642239419
  0.3330084124234176  0.2542207339977123  0.7749040321969922
  0.7206477032913443  0.3011011136331181  0.0310290654154574
  0.4807648902516829  0.3315773065229248  0.8694920222297448
  0.5532311815511459  0.4366378549329438  0.0479023811397210
  0.5313815700045340  0.3702612559579497  0.9359323848972555
  0.5006640912316924  0.4541167971852704  0.0825380986394464
  0.1781932094358025 -0.0023504415104826  0.4441441557918859
  0.3173591307200491  0.9277227384817217  0.5706468571960330
  0.4319267586066803  0.2952994910588909  0.8023340281498201
  0.3714494855804609  0.2734195880936314  0.6741895455753066
  0.2573175668099425  0.7838629454314741  0.0229269544882180
  0.0483416448391547  0.1842301430921895  0.3689203207748203
  0.2529606490990418  0.1232160162403177  0.6601524358663917
  0.2169566796134140  0.8493588146954133  0.0413324909240271
  0.7135941475980023  0.9624729714246537  0.0225934456589879
  0.8344499407667949  0.1354806687398139  0.2528136144816773
  0.8707790154876082 -0.0557413217272811  0.9790941858020140
  0.6586957087560402  0.4134314897789537  0.6958879460141049
  0.6975043953920879  0.4615176174118102  0.7003682292478562
  0.4036406555041445  0.5954887809271470  0.1772451190121966
  0.6478545210788723  0.4554568692374771  0.7396631322073999
  0.4067205166925070  0.6105308380265271  0.3450625463477945
  0.7476029290174696  0.4972512407839925  0.7663251384945813
  0.7536253491453515  0.5986631710973144  0.7872710756897262
  0.4082817354855748  0.6253958071643663  0.2830789246160960
  0.7738500947093179  0.5711660368977440  0.9096448750669744
  0.0786861773975884  0.9353304896460474  0.1107205094982710
  0.8326657694613930  0.5565482323840553  0.9953377250812501
  0.8731178680230971  0.6114630645753164  0.9396794990178510
  0.8706028672762701  0.7257098793203929  0.9003228882903855
  0.1553488216199361  0.7813191816170811  0.1540256174807799
  0.2109026852106818  0.7941821421376182  0.2245154272324683
  0.8533780880255329  0.6394832702367987  0.8157864015444865
  0.1097453948429867  0.8578581632522374  0.1750286450176527
  0.8374655389162529  0.7373327973618491  0.6103386404470231
  0.7641478035791602  0.7617274560258264  0.5248580023210666
  0.1652285544795879  0.8875589287513462  0.1849182254323367
  0.6716993642739002  0.0817249917109026  0.0367587931649659
  0.5242972878064535  0.1776749028985222  0.8886244819344763
  0.4138250016346688  0.6878592493344252  0.2663282148866030
  0.7444849707404163  0.6069074012079120  0.5222706024761844
  1.0302490302818115 -0.0034338521090300  0.1927026662972175
  0.7076361725465923  0.6580747158135958  0.5373440956134578
  0.5987184449581732  0.2885753102709427  0.0369236837879260
  0.4923050116631709  0.3772553156721611  0.1615052494652385
 -0.0584676584405284  0.8379042084510729  0.8507124455254471
  0.9397440688621812  0.8087454460804403  0.7432757072790855
  0.4961668885451606  0.3921251324081973  0.0989707171517710
  0.9611767489092068  0.7816709588262146  0.8653919531492795
  0.9304924862464953  0.7559390562570000  0.9646489413746541
  0.9374844106589378  0.8725981263033680  0.9059495971433482
  0.6093177557431423  0.5144985687927690  0.4955724957843278
  0.4521629089303675  0.5171407363279367  0.1613260781093539
  0.7057348537028297  0.5843716055277369  0.6263775807411114
  0.3505345298319940  0.5661428442025329  0.1669431366558657
  0.3538331746517558  0.6124065248745885  0.2103190123880408
  0.8432138066296996  0.6538541375865832  0.7533796089810477
  0.3628569693494473  0.7185296350353586  0.2384995838972636
  0.2569410012611212  0.7179102761695504  0.2040358104688100
  0.8414347823072391  0.7970674674412205  0.8215797303311252
  0.8676820728398577  0.4140068221832350  0.9921163730380212
  0.7898459374394262  0.7628078876960105  0.7548078526320442
  0.9101624361203395  0.8787898831448174  0.6630457485361163
  0.6047398659545007  0.0408635118879224  0.3973463262801062
  0.5091677526768960  0.3957386287107563  0.8132729628138278
  0.4601040283197523  0.3599808326331987  0.7462939759713589
  0.5586208076288024  0.5330163305227332  0.3637414492828687
  0.2193700215589387  0.8847766502645930  0.3163010760413690
  0.5097388894906169  0.3655072854029786  0.7052235882733923
  0.6687063202435996  0.3978967322182201  0.7558241535940108
  0.2744515682161759  0.8991253145026256  0.3887400960554554
  0.5086012934729899  0.3347639541658400  0.5961627957402317
  0.6299821049669969  0.3182706574750696  0.6429709670448343
  0.3169443886459405  0.7940718420165800  0.2596564327929612
  0.3159464806320201  0.7780533984141343  0.3201805238988606
  0.5122570510578900  0.2008620030454864  0.7336111417692631
  0.4169520241945703  0.7152854025250627  0.3723447857681753
  0.0489684677675799  0.7550175803216548  0.0122532579965128
  0.6454061257731559  0.3476159084474888  0.2255055346454377
  0.6085993341625631  0.5005470560915422  0.1620616226987878
  0.9462953745781666  0.3862872416713710  0.5053644935420185
  0.9935958381655196  0.4288085797363743  0.4828513625314204
  0.7718726355846474  0.5053206099140281  0.5012398078399901
  0.6790340194854251  0.9274124986726298  0.7457193751008367
  0.6700222309272001  0.9701623089040671  0.7893561435697605
  0.7502277938440924  0.8751012874848946  0.7216857163793896
  0.5564082183426867  0.4998324103959648  0.0331230310781505
  0.3294773864925999  0.9415116146852612  0.3385197171765696
  0.4351068290900683  0.7863010546771235  0.5188161012359143
  0.7080394827935298  0.4780572254720911  0.8672744370289139
  0.4132379476815666  0.1694753753401991  0.9712698376630967
  0.7200411721158894  0.0410321957907787  0.1262658437555352
  0.5131686629432568  0.2311385243789799  0.8388946079483555
  0.5705121030498286  0.2204916106992603  0.8580762915729140
  0.5472487091285073  0.1278948318331304  0.8093967922205925
  0.4454833127787203  0.0879871119539297  0.7863720347081739
  0.3944509323938766  0.0511291072024699  0.7213923338925132
  0.8781842128611254  0.0601338640099401  0.2387803273845242
  0.2324065223995968  0.9696832882667732  0.4715069354992710
  0.2184913333753426  0.8552083526833498  0.4385500588366437
  0.5516611812610834  0.3222072530496400  1.0153292698964269
  0.8618939881560937  0.9975569428719221  0.5609883846527948
  0.7981570108360758  0.9725626084774206  0.5484620968771659
  0.3706879793502690  0.7921374797754395  0.3916639589830421
  0.7398199201809946  0.3769875974230506  0.8381956958517717
  0.6020737723688346  0.2868528506127538  0.8064118069570901
  0.7385808223943416  0.2404534198561783  0.2401675450910547
  0.4803386101152758  0.2708061745358131  0.6555276307906842
  0.3912198313904588  0.1855468296095949  0.5829198581671191
  0.7280821533365853  0.1097249957528598  0.0385606163058415
  0.4509388379554313  0.1772499338161399  0.6057976476842997
  0.3851266240574640  0.1955982695695372  0.5168082177598647
  0.7167730500949527  0.4633832842890616  0.9274238708106119
  0.2705595512908511  0.8619897438254001  0.1145517553477369
  0.5632961576820789  0.6361910413313155  0.6629728016577857
  0.5395023039213918  0.8076262977303930  0.6093320105314093
  0.6798925741226819  0.7636736724678655  0.7734874892603818
  0.8424414314029598  0.2421629081634890  0.2774119244265481
  0.7919227063264244  0.2583924307551216  0.3110806114020027
  0.2011895592401104  0.0834489462881769 -0.0058526255956611
  0.2458040552042569  0.0635787987368488  0.9543452679684646
  0.7651599696134432  0.5634406645970934  0.4824600212639244
  0.7668233574456221  0.6583396194869123  0.4963537403481643
  0.5923125569615096  0.9480065896014714  0.5423573048620276
  0.6192767383126930  0.9350905389936649  0.7241723574462501
  0.6426230742351355  0.9821547601222538  0.5494549200692583
  0.6336153550885975  0.7130662855605724  0.5081228960780305
  0.6907314717963844  0.7396321166492474  0.4590426266931504
  0.5342368546328827  0.8086714219932826  0.5098128897394877
  0.5581527715441129  0.9107239218277049  0.5920745840841700
  0.4879131743723776  0.9627292616995891  0.4440503192414140
  0.4511282554893158  0.4222793543521307  0.9557845037509721
  0.1300164760535753  0.0404160241160792  0.5932508441341811
  0.0747041870548842  0.0232886084644714  0.5149202418079946
  0.1244776045935272  0.1814587569164380  0.6601492921781384
  0.3154704403044258  0.1932646398976805  0.0541942946834678
  0.3225482162610348  0.8273617843129838  0.0449619617635988
  0.4915521875503926  0.5264166425606541  0.9508434238874405
  0.4792341931165082  0.8286101469468364  0.5348418240204049
  0.0643107936198035  0.9321437963990669  0.1939577918264376
  0.4450094074697311  0.5403721281919387  0.6609706922081940
  0.1713221526841721  0.9480301962842452  0.1692119195147172
  0.3956343579420624  0.8064418804697517  0.0009977594968809
  0.5278234510142644  0.8502900734038218  0.6518701987901024
  0.8206672639440542  0.5326493357355758  0.3388919015342537
  0.2230663523633691  0.2252407700121012  0.6874646339635920
  0.2359627306129991  0.0767728143201729  0.8903191714880435
  0.9729516759081173  0.4433839881760089  0.4199464277160089