C  Cr Ni
 1.0000000000000000
    38.7782925608872873    0.0000000000000000    0.0000000000000000
     0.0000000000000000   38.7782925608872873    0.0000000000000000
     0.0000000000000000    0.0000000000000000   38.7782925608872873
 C   Cr  Ni 
 106 1596 3725
Direct
  0.1008148463119085  0.9161524569469286  0.5297247525987274
  0.4484485090446585  0.0261923748123057  0.2706575846647138
 -0.0452456253398226  0.8903415938782773  0.5621010113881846
  0.8472382197048730  0.9806282181723653  0.8989856309738981
  0.5756201877154359  0.2382071055627456  0.0174780912273221
  0.2683732878072038  0.9328663638883221  0.4851534961402940
  0.3648389514313279  0.8209108528923164  0.0356499966752157
  0.2779434136028281  0.3356482089517829  0.0660920289229725
  0.9436671518481626  0.9568679863029608  0.5409113152188035
  0.2747624247117169  1.0424196616826300  0.1166129880467436
  0.7443877772635795  0.9209972564636306  0.2926193626819479
  0.0735980167476321  0.7686167918057187  0.5171010582015547
  0.4833779995928143  0.0173346269163227  0.0671023242928306
  0.3694595808232962  0.6413831819035994  0.6797341272410528
  0.1700428270186751  0.9389723655875544  0.5873541813419257
  0.0880350728426454  0.8395814877335994  0.5776812708757081
  0.6906091950428469  0.1671860305483981  0.4681782931091558
  0.3187330258282254  1.0341804377006798  0.2576039409621079
  0.8484938066426705  0.8987298107843854  0.9584591345652814
  0.5597490557326953  0.5797797620048085  0.5476865533732846
  0.1932217566636636  0.8832527934013155  0.5211737913279147
  0.1174363724267598  0.4131878022979103  0.4721400766231967
  0.8105813982824525  0.0253005673248765  0.9518472206446240
  0.4314283599085913  0.8852154812266040  0.1139756002110245
  0.3721025359963714  0.1414672773403551  0.9836186829939042
  0.6652060358862232  0.7970699261295447  0.4037251904645675
  0.7227185207613316  0.0567582255464812  0.9742492783984921
  0.1836374655225473  0.3307708251086064  0.0298339223692854
  0.5745339909835574  1.0312357879825145  0.3573300238536138
  0.3272302943444836 -0.0076256626278853  0.3378483307123975
  0.1286806372795268  0.7411117090856004  0.2396160048944336
  0.5727612787627461  0.7799315130226923  0.9505374222143578
  0.4945404475640833  0.5963815267689377  0.5091570506633032
  0.2591178284598767  0.8317457119236634  1.0259826185269818
  0.2166801034478184  0.9748605035527553  0.1754384846189734
  0.7204093993467999  0.6431001724119930  0.4891499231258305
  0.1942858405015806  0.4160122002314289  0.0263164451255565
  1.0469641997143104  0.7384125972062195  0.4532574594186898
  0.5279713486324783  0.2303694033514429  0.8874204527206238
  0.5482881114519518  0.1645389047347683  0.8451784283587790
  0.2699603444299093  0.9231461483884660  0.5667666996242410
  0.9928543457691263  0.0294445502485246  0.5147887069583408
  0.8578207252322284  0.0903463904685666 -0.0387593871140561
  0.4065422923899638  0.9713915703706810  0.0457331056791934
  0.1440099205219203  0.2346250914018758  0.4360255516636762
  0.7662639568315837 -0.0080794407208342  0.2684615214069428
  1.0873227692222791  0.9360449299716247  0.6159826995890859
  0.5612963638590110  0.1553967536575113  0.9151060605605015
  0.3930614899033483  0.7077149577043311  0.6504286360350494
  0.6689978565309644  0.8602410955385749  0.5405297781832699
  0.2234476601056504  0.2163714545281287  0.5431433339879823
  0.7872273258475825  0.0401161888505990  1.0448867120616154
  0.1487286771426930  0.2236461892936106  0.5118346967151371
  0.8741368000176500  0.2988229472740662  0.5190436754566796
  0.8578684741501702  0.0804040205212062  0.0725629878843823
  0.2655710560046468  0.6026354987545960  0.0229757939915619
  0.5797079609906816  0.9001038213016452  0.5459210571416714
  0.3951830926616619  0.1158576946149776  0.4455257801502477
  0.8887222287150167  0.8885786559713778  0.6230036154682890
  0.0043619047064562  0.3873702307501132  0.5559438716801482
  0.3639291765002167  0.6412198314772753  1.0261177625791846
  0.7333158036273617  0.2744634666803187  0.0681249911550509
  1.0331065411275342  0.2812366192909013  0.5146922250914688
  0.5522330025835439  0.7816749832894954  0.4316916813855918
  0.8820890550404533  0.1721315010922705  0.4774550975529594
  0.0295742499961778  0.8808065461025472  0.5867468693238214
  0.4748375082325441  0.1658785320588082  0.8787414253392640
  0.9501491269708896  0.9460093415503447  0.6220330143446472
  0.4119433736726684  0.7501903611419696  0.9778417260819693
  0.3592547632862661  0.3728594186179964  0.0796017357263941
  0.3854214120406065 -0.0025507702897788  0.2602993501051287
  0.5171736867645227  0.0298560551929073  0.9797574220640933
  0.3144418792835900  0.7248705293750103  0.9869215171111518
  0.1018873110779946 -0.0122215211677850  0.5101645645690555
  0.9061020198059516  0.3191901126215324  0.9403034355679690
  0.4929708275278387  0.1962074186657585  0.9675688240899382
  0.2807461642332376  0.8550098040368278  0.4919493680393721
  0.5234665776714853  0.8134883350384985  0.5617151168549646
  0.9145969434978807  1.0170115135782989  0.5600961702264202
  0.6433282634591987  0.2748386585977096  0.0338532964891896
  0.9453880105595238  0.0857073404271144  0.0383335917774969
  0.3249396559120957  0.9618387477691122  0.2416309809199307
  0.2618639973513568  1.0019279891659600  0.5509574845479540
  1.0539171732143950  0.2060161019378742  0.5288504820510058
  0.0248729028910174  0.7815217099129379  0.5743272065286330
  0.1700682101603431  0.0493637912359485  0.0801562079561640
  0.0191803897859216  0.3429067860560751  0.4646367822831817
  1.0152848190463635  0.2826272531503558  0.0499112479172867
  0.9670022478077793  0.8339675158151433  0.9257767957622244
  0.6004629593186492  0.8543931240322832  0.3877524749985162
  0.1404844361632494  0.8345459504122538  0.5168563315239101
  0.5808036651083718  0.8855721454997452  0.3947256457774015
  1.0142410270037114  0.4141078900069681  0.4361305035876854
  0.5554371411696624  0.7634952209417452  0.5072999510906929
  0.4865289902966104  0.7871454313632367  0.5021393475165786
  0.6459651128132541  0.0787528913836063  0.9981327938398283
  0.8183358179448148  0.9445225900326339  0.3200243853350840
  0.4218982321763781  0.1534520523327629  0.9231906981205495
 -0.0156617910671514  0.1385866302094362  0.4681769205446207
  0.0752251912916316  0.8293677806198274  0.4429294140382004
  0.4651010022820087  0.7762620686885580  0.4715205226025203
  0.7589825830746415  0.9952327385489397  0.9056657955327314
  1.0034373411616921  0.8384486541310002  0.4993066725536880
  0.6897138985857264  0.6419838484364498 -0.0138917581660368
  0.7335856349024985 -0.0272768500686411  0.9941696918856595
  0.3703925995880959  0.2476781406767305  0.5133557316101008
  0.6610578813463608  0.5112718252181421  0.0096280000866574
  0.1542517031380398  0.7580328948519133  0.0498689760882000
  0.5219506300337773  0.6094410769983504  0.5574815232164715
  0.1682890944408174  0.7435029776937437  0.5040436629641201
  0.3258921692851636  0.8839059566023180  0.3545201914878598
  0.5050630570392126  0.5324542849110355  0.2308262541863246
  0.5969799925438065  0.4198731711708565  0.6738099902170293
  0.4927912461871604  0.7704159685259532  0.5500526938087892
  0.5421220902431473  0.6644749850589247  0.5418212957561627
  0.4611214118154817  0.0979734233971567  0.3590550368289060
  0.6072277157319927  0.4371032810819355  0.8391575569209548
  0.6646732772478245  0.5646040889614445  0.7275160636058629
  0.5975123872973513  0.4505547181645941  0.7787441315483067
  0.5667289536664476  0.5225172281411213  0.7009653357756683
  0.6360192453948514  0.4985241934195458  0.7831046119542631
  0.3100756926316046  0.6299887302842772  0.0174408265119635
  0.2518426193059737  0.6455240834153615  0.0497276806148629
  0.6858566149503686  0.5368072086787821  0.8489803924680930
  0.3559551309665985  0.7725679660935746  0.0467843919299636
  0.7026754351032199  0.6237777219384012  0.9366445885528115
  0.7708826376278665  0.2767841847367704  0.8106059228993820
  0.2037562434448817  0.1622721692885641  0.4407471708779194
  0.3535769322102260  0.5926671482922622  0.0451072624156715
  0.1935012312484522  0.5974625952064687  0.1047018578707884
  0.7032263999114159  0.5937144981774707  0.8268868291325756
  0.6279967072845487  0.8926495704695018  0.6800254644460144
  0.1705663055566160  0.8095699547114511  0.4851214782236814
  0.2327220509143483  0.8490087949603489  0.5044408441918929
  0.9513391219968299  0.0385553769048672  0.5939151918353652
  0.0529667878124614  0.8470672591277173  0.4920677850011213
  0.4709800533250351  0.7329261669577800  0.2157415423227781
  0.1739003378559043  0.2132333680358653  0.4684120180248154
  0.5363654298293236  0.4599104705810942  0.7577184316550596
  0.4000251870117319  0.5111762697595922  0.0339662466821572
  0.6962193703046792  0.5229441818607037  0.9092195471922313
  0.6368633107974147  0.5312955445163448  0.8864953135988544
  0.5266779536020729  0.2180558800332700 -0.0011377011654854
  0.5112334824542175  0.2294427194714170  0.9345572284786257
  0.5300129093065487  0.0818649517836430  0.5323082876122893
  0.5086849477583663  0.1344143231285596  0.5195796745855671
  0.5210248287167161  0.1238883649701216  0.5817160592716717
  0.5720507106374052  0.1622369654587954  0.6479818228402520
  0.1562529206604309  0.8013504601165057  0.0947110662651686
  0.5113764562429587  0.1687734779778175  0.6285395103111784
  0.5606671658194730  0.2070367714707204  0.6938132918423516
  0.5047681957291115  0.4690903028496787  0.0230983592398568
  0.4588404070502288  0.5918368511527959  0.0820332060358663
  0.8433058321016280  0.8890353532177468  0.6429518943534648
  0.6597476720805115  0.7643391607553500  0.5480566524435101
  0.8375705418709591  0.3126538134191774  0.4878973125268632
  0.7431449809190903  0.6425958132789804  0.8328723530288553
  0.6438562187700013  0.5990371031228449  0.8045844248088611
  0.6342413363281650  0.6146555716525213  0.7442457873264757
  0.8996791765581830  0.3062725072049827  0.3950357412571167
  0.6050950725024016  0.5714824960357713  0.7062112002288097
  0.8219072683607541  0.0978487920128965  0.4458146968768975
  0.3591748314931750  0.0879593400731754  0.5331269511748896
  0.6971661145337549  0.3597880125077814  0.9409742533011350
  0.5986058381021379  0.3173435707963194  0.9134262356162538
  0.6291673238811858  0.3492347905445377  0.7506500650231870
  0.8550596758830098  0.9448887423484851  0.5223281646663782
  0.7103197133915047  0.4715905801501810  0.3187214503855043
  0.6459046073557193  0.3797878068841589  0.3288919995153469
  0.4473000827939031  0.1221364059038973  0.8911047749802360
  0.4568935233559023  0.0771090357534011  0.8494756367862617
  0.6933313216123017  0.3183313049498793  0.2536426618360404
  0.3969095432629309  0.0830710225389320  0.8269970040464183
  0.3856598279575408  0.1264030914917700  0.8693879413565657
  0.7879132772650863  0.2115511153345804  0.2681752666202421
  0.8042311177209257  0.3953910045491370  0.9736437157211855
  0.8943846881649424  0.2906456665250768  0.4660584783775846
  0.7715070839810103  0.6856253885491886  0.8719938169212820
  0.4724898439546291  0.7338953555029447  0.5044344016146111
  0.5778817152964967  0.6144581602224247  0.5173069263114174
  0.8912364604341747  0.9662319533881283  0.7558745159987383
  0.9626124336935583  0.9431620799437164  0.8417818504406464
  0.9303058911877543  0.9844766553464902  0.6536527178206569
  0.8915495377926329  0.9360874471266447  0.6456919664211664
  0.7111235854955057  0.4372761375381213  0.4414094600556294
  0.6570033014715622  0.5459503727145895  0.5617163431189661
  0.8107628080632417  0.9103194200646127  0.5663815493375361
  0.8270770298006588  0.4352552847345492  0.4800774247201952
  0.6154622716391737  0.5285545059731099  0.6618013285485983
  0.9112524937669239  0.9180536446142727  0.5461261270254476
  0.7923297555147791  0.3413171729183042  0.4585087232495126
  0.3894342641804581  0.3023243787825549  0.5072721966295043
  0.5272742214706755  0.1884673282552829  0.8024953734564397
  0.5148679612085975  0.6392960120098788  0.2588788364882706
  0.5193062248761634  0.6695236093060449  0.3637683884678098
  0.4616842410310106  0.1640573712398066  0.6669131020235022
  0.3739396336159562  0.1072973450306386  0.7028879716999604
  0.4111345307874380  0.1270256474913075  0.6005560566405013
  0.4315517224091381  0.9147425778095658  0.4947881954429149
  0.9836316228371633  0.0916548582653569  0.3853884658011517
  0.9896548922089927  0.1402270981973628  0.4198640255076678
  0.6323086955021677  0.1229888651085099  0.5579306920888184
  0.6859295577258868  0.4752802964858662  0.6399438682824179
  0.3684324615304881  0.2417523911085275  0.5646370111040554
  0.6175042530159017  0.4977045098148765  0.5588849810360613
  0.5792918128525907  0.2829318700240915  0.5745930296905317
  0.4192658382452505  0.0128760965956082  0.6406400968768167
  0.4444060739934013  0.0578541982867535  0.6781911450938156
  0.4835773298202606  0.2822136693054612  0.0794407772116217
  0.4551343831410907  0.2270624999296603  0.9738688123537176
  0.5568032812184778  0.0857731827884586  0.7659216908756258
  0.4431607604692103  0.3611527063667813  0.0974245052337718
  0.5004639085885964  0.1303573349602841  0.8505499921232482
  0.4965629115968720  0.3462762744803696  0.0570177827796890
  0.4035014031816783  0.3765491469730378  0.0542948685701828
  0.3969288643786363  0.4860565629842342  0.1520983511332568
  0.5930104371309645  0.1668753049391375  0.8765407945805794
  0.6915471883329661  0.0936437190843101  0.9843052672940985
  0.4000380588689106  0.5004727363390107  0.0931476059723628
  0.5256980199515034  0.0250115350708182  0.8273411428655446
  0.5588230050996358  0.9749686365763161  0.8106719340180697
  0.5477142467129454  0.9971537620720267  0.9534525894229953
  0.5280264391849042  0.0594675157305767  0.9376116631902133
  0.5559631640180229  0.1199256071358794  0.8744963461820567
  0.3519000291976689  0.5823318399907168  0.1055144424616920
  0.3556454869988190  0.6459683035631105  0.0790355862878674
  0.5042230876358579  0.5006857899044724  0.1266525069012444
  0.3587979189440449  0.2861622306435470  0.6122268723134330
  0.0394461699995480  0.6097270114940629  0.3322030484358637
  0.0098518484890456  0.8863567800188653  0.4773195927358292
  0.1312804436642865  0.4572348961502892  0.3001244258706704
  0.4185481118037735  0.1933089044923228  0.3160409691755921
  0.3717579777634498  0.2584334785147586  0.3997378899022108
  0.3725320806732185  0.2725171369848187  0.3359754580647434
  0.3251373155004956  0.3404024625919617  0.4150088885406494
  0.4241738732622758  0.2869411335806945  0.4059156707592441
  0.9936361366915532  0.6869878819051348  0.3501975746738241
  0.2334743756653248  0.4420287082983152  0.3943328101387064
  0.1891644729879221  0.5150843731209488  0.4137274559452871
  0.2924745716999395  0.4748894574162852  0.4053693593325532
  0.1341540880807818  0.5022462504548598  0.3431761590457814
  0.3624707533530608  0.1639672038818720  0.3062755307968554
  0.2411527192185368  0.5197037716441042  0.3169017879788949
  0.2987543235607991  0.5796906326705544  0.4306847428377115
  0.2460014904131810  0.5647771800008460  0.3623103977116076
  0.1418970943191478  0.5932460514803652  0.4324148009165415
  0.1468278840231894  0.6543164191429599  0.4155885555567116
  0.0283410784823214  0.7429394095099935  0.5004004251693202
  0.0630387760009459  0.7868712512721916  0.4675328543036441
  0.3144848220918467  0.1966126586202391  0.2829101157437091
  0.0395158714806331  0.8312023165024355  0.5830302938742132
  0.0244050338334508  0.0572922635403303  0.4856450675628359
  0.1689224981834803  0.9501884539122760  0.1696013095563282
  0.9633136976345463  0.0028747460380525  0.5468594498862348
  0.8614319181399376  0.9032952760276207  0.8117290563666389
  0.7426711783313252  0.3237773270772140  0.3915447168822397
  0.0706043848235713  0.8820152572574883  0.5483418591666454
  0.9190436165676723  0.9702767661509043  0.5880163879125296
  0.9791084327056070  0.9884230638989278  0.6121940506099358
  0.8068365453833721  0.7589383722352403  0.4852613593138607
  0.4706229394390887  0.1184739421466518  0.6192954614308464
  0.4836328454147084  0.1074080610140877  0.6828717448924164
  0.5345725186881005  0.1120714983748501  0.6421060718989605
  0.5957737094365488  0.1359416115294496  0.7698360013497051
  0.5777504793783614  0.1889493634060634  0.0330544360675739
  0.7601463557796513  0.0341139844685281  0.9497415819193430
  0.5880390681124644  0.1785263222486355  0.8142761914879916
  0.5765651636785982  0.1778091823634146  0.0914286669020273
  0.7085286878022902  0.3137597888939985  0.8963523843371659
  0.6249103597607844  0.2491980996617934  0.9913531485527998
  0.4804879259739970  0.2408549922634850  0.5500916498304499
  0.2582621794703230  0.7346737427784317  0.1433425353688468
  0.2100815004567859  0.8124561598209030  0.1657707226154066
  0.6946760172544107  0.2993911799334488  0.0903242461082450
  0.6455960248356795  0.8184695196082351  0.5278930616922415
  0.3749356295495829  0.1388591831431137  0.8096333962904322
  0.4051911369855462  0.6783172695278415  0.0355365195363112
  0.5535958509087553  0.6804325859690497  0.7082809987431119
  0.2302244826632552  0.0157993880877680  0.5154902956104176
  0.3847654569401547  0.9624757176363409  0.4097271168636263
  0.9616421519054831  0.9729930066007658  0.9475636334762089
  0.9185414526879526  0.0161497259211201  0.3370357993114413
  0.0512305372194586  0.8352388433946465  0.8367170987176979
  0.9412632252299871  0.1694178023044989  0.3957254397726870
  0.8795134026441396  0.0914138722773190  0.3455355721045635
  0.6441198973292347  0.7056700809066575  0.5645267342515152
  0.8885094449030404  0.1513961107304790  0.3261690278737295
  0.8399440325385836  0.2170416191876580  0.4004000748947478
  0.6536908847945222  0.6920344732398520  0.6275225275236476
  0.7397951142844250  0.7270643689213966  0.6881034413336380
  0.7300421355201878  0.7698513352255391  0.7335821139131976
  0.7696040865377451  0.8188790179393007  0.7389053671954691
  0.4190911379022809  0.2484543659213899  0.5267525602641452
  0.7792239454477468  0.7762078966199216  0.6939188953404815
  0.7808767569692388  0.6846916006130218  0.0492626485001394
  0.4942619974389106  0.4085863267493416  0.2667563372744620
  0.5298982990612346  0.5614320386722663  0.5126334649523132
  0.8212114116109538  0.7932146379005299  0.5923005603330751
  0.4812403102803117  0.8333562176313439  0.4762934416413769
  0.7458781044941781  0.8468918453534170  0.6139112088692684
  0.3701425697348786  0.7753359028488170  0.4521903499110040
  0.7972360346576839  0.8816478056196241  0.6833190390790838
  0.5307881586728662  0.1672263827410709  0.9531146679911475
  0.7763308013012791  0.5337194484700203  0.6062457757113902
  0.5998822781975485  0.9898340528802989  0.3509080884875833
  0.5373058777012969  0.4266140029008457  0.6519195764313498
  0.5356823121331583  0.9180064208023131  0.5292472588504595
  0.5867872281577524  0.8583718490211798  0.4427243684903513
  0.0351261048511629  0.0784407490354369  0.3525388231762672
  0.3823299417482407  0.3219050524425786  0.9502884646075221
  0.1383587016368883  0.0232406838565895  0.6565030337579301
  0.1649512989453945  0.0676428848636534  0.6980624255864761
  0.5704781301355167  0.7352308397073324  0.6880510656110483
  0.2155011660267264  0.1040531991557922  0.7621588842802597
  0.1554016867128221  0.1107629299311634  0.7414775291854199
  0.8446953833503007  0.2771393496773060  0.3837726856103703
  0.2167087067162192  0.1334708757788627  0.8694195070996851
  0.3328185201412908  0.1629042197516126  0.9560259911552864
  0.2679484304082647  0.1697992670838879  0.9368142949640871
  0.4038624671530848  0.2701157512131486  0.9620313088799830
  0.2258969264516237  0.0896958521141953  0.8271350578694948
  0.4378133669381196  0.4166876807821223  0.7308838272658772
  0.6405082430169035  0.7143361923417814  0.7691149482378572
  0.7161719590370733  0.7224511966403682  0.9580440286179658
  0.5202694133418196  0.6851742251286170  0.3036758498110434
  0.6613550349930187  0.6890062867159985  0.8917458887507879
  0.7090081938345816  0.9503480038529163  0.0336541548645499
  0.2445603074885272  0.1976810133191540  0.8110682688450229
  0.6409094511381923  0.8388554078219367  0.4125261395227999
  0.5841131730692113  0.7915144935441072  0.4674200813256848
  0.2061881935665460  0.1168612109777238  0.7002775854206501
  0.5685691551259870  0.3880940610717445  0.8351943421546700
  0.1807819624878908  0.9909441914940109  0.2117278883778666
  0.2258611017634442  0.9401047497663118  0.1372540180959785
  0.2908323257026236  0.1421848694778018  0.5580654940762664
  0.7565300278105230  0.0613094736502295  1.0117241998213784
  0.3409844286889232  0.1787563109297799  0.6255989212554031
  0.3308895232307571  0.2217559629467740  0.6687695335671540
  0.4027795252838717  0.2030609912365267  0.7506213001173389
  0.3326336998515991  0.2539116024316204  0.7744892339610849
  0.6667726176719904  0.2960316606016269 -0.0038487121447278
  0.4799118747336808  0.3340550405815668  0.8694338934162416
  0.5539664041493667  0.4360765271019057  0.0466788724915016
  0.5293458999360700  0.3719075869092187  0.9362717072790594
  0.5024210090145173  0.4525733592272765  0.0819914773955984
  0.1798799202545934 -0.0036246832316211  0.4442110914152157
  0.2489873223319753  0.0220134278293709  0.6400315192007734
  0.4313987599275335  0.2962597752160483  0.8022296889726768
  0.4085874328770295  0.3236896108019040  0.6787816215516392
  0.2572907230867966  0.7529886994349958  0.0842366782201172
  0.9970752291409303  0.1985334731892202  0.4026764016922214
  0.6166689936465380  0.4234578614751562  0.8990023840828465
  0.3033511971251346  0.1906969617538530  0.8311131584722979
  0.2136607473628090  0.8514243973345836  0.0432868225899518
  0.5232248585865358  0.1784140377892665  0.8871624411160922
  0.6732474136219001  0.0839429163047546  0.0399742136746157
  0.6581129503356695  0.4130700100140234  0.6956508990380650
  0.6965394471878379  0.4622536508010485  0.7000073950346688
  0.4553740764285623  0.5635977987461694  0.2052463080328182
  0.6471420156391159  0.4556149118125080  0.7389651620033940
  0.4072189147083065  0.6097190654373458  0.3445967193046879
  0.7464575310998042  0.4986851693898754  0.7665661970275841
  0.7364783855449274  0.5419699106243778  0.8101462395446039
  0.4083712016989785  0.6245036195827656  0.2829342588572438
  0.7731749947330970  0.5712934647437201  0.9089415836861934
  0.0777789264180148  0.9349903603336617  0.1090835934432598
  0.8334119436227085  0.5545929937869641  0.9937969721930452
  0.8726971518416060  0.6115424711492600  0.9393845290710553
  0.8707833463012079  0.7247984103422621  0.9002389386894041
  0.1555302184666667  0.7829677562802467  0.1534193592435726
  0.2122462385710761  0.7957514178387961  0.2245942875899428
  0.8532948069758238  0.6398041923031595  0.8153877166900099
  0.1086463544966127  0.8589338268216120  0.1751583884457655
  0.8256089168907583  0.7505563504519195  0.5493935737315153
  0.7637447131627683  0.7622883609582025  0.5247233498784649
  0.1648173619265323  0.8897455670403883  0.1861620486273412
  0.4537644483229855  0.5487805201201806  0.2658295864623034
  0.8693509065156985 -0.0588862070649675  0.9800093107530555
  0.4140203575611837  0.6871149415803807  0.2657256682177196
  1.0309958503736540 -0.0045611412961735  0.1914486898437585
  0.8697271839059246  0.8321725953652094  0.6593433152210451
  0.7081061071706515  0.6582344912881130  0.5376112902220834
  0.5808302865656518  0.2380173545038771  0.0714229839594003
  0.4922939029050454  0.3766148341827919  0.1618002562255908
  0.9014072644207580  0.7877865916195230  0.8426578567004495
  0.9303399583713152  0.8514623651484799  0.7890690383944495
  0.4445938261931527  0.4083404287661791  0.1362466391320915
 -0.0027979323383277  0.8288489317935418  0.8802102504341750
  0.9303720134968897  0.7552208460225077  0.9644332069528677
  0.9367141479716181  0.8722832302281163  0.9047513323282661
  0.6089207091473987  0.5136680887288975  0.4934365954161932
  0.4516697023719882  0.5157842082340467  0.1604115139211603
  0.7068334420293885  0.5841593211100545  0.6264875219059135
  0.3502182614847403  0.5659482106571292  0.1683349169561339
  0.3537834732079758  0.6126981663388915  0.2104568030814119
  0.8429856985882987  0.6538091695126956  0.7540621338278872
  0.3635131212565947  0.7194378351313192  0.2384676237242993
  0.2580567742689950  0.7185457498967717  0.2039738731359168
  0.7914964607045261  0.7918077678226885  0.8628215075666801
  0.8669370256865725  0.3524460378435385  0.9491926301516460
  0.8401893910225647  0.7678177729692156  0.7163232765359908
  0.7448904737161813  0.6069257565173811  0.5224328994504200
  0.8344988310705788  0.1350358216098654  0.2536876702114658
  0.5084064631168730  0.3966323099328852  0.8132843450195959
  0.4874124572427103  0.5303332890123940  0.9494051792469587
  0.4346500676860895  0.7858224606210307  0.5209620797191703
  0.2188322084992991  0.8845413141214107  0.3200017885077053
  0.5587715686261060  0.3716881682534175  0.6657612968102942
  0.6680462493019096  0.3977867850351461  0.7555903378117872
  0.2699341153293285  0.8535656725041117  0.3428590250150589
  0.5091915515175811  0.3351826200901631  0.5961778959874721
  0.6294071740532406  0.3188611068226302  0.6435131843078008
  0.3181728251339037  0.7932593114348619  0.2593539317715441
  0.3679154789141550  0.7633595989777157  0.2848474243057683
  0.5126488220028461  0.2017802752516184  0.7345570112298113
  0.4171448007302606  0.7153019291634123  0.3718475977316393
  0.0489719073340006  0.7542142137430156  0.0119590897932370
  0.6456271203859782  0.3473265723102497  0.2258245652927291
  0.5559933315134723  0.4833344055988149  0.0909326257177575
  0.9503814030820543  0.3912924235617812  0.5199858754718485
  0.9916684968431568  0.4296186377309311  0.4811511998676153
  0.8189978734136709  0.5507587387425855  0.5054082704234298
  0.6782384852785277  0.9279784622818209  0.7455681397106716
  0.6692441332995571  0.9704703916558922  0.7895067190723004
  0.7494777086972911  0.8760654214433120  0.7223384730383332
  0.5559743378846099  0.4988506469633120  0.0320250851276054
  0.5638050054641036  0.6366133715839731  0.6630921527822961
  0.3301021985457136  0.9427056730279605  0.3388342462545653
  0.7069962146399807  0.4785356997361929  0.8667987720387211
  0.7200794190130467  0.0404894570770157  0.1264738164480308
  0.7166224029332677  0.4633487049510550  0.9267371128060243
  0.5106305442140107  0.2347549020423521  0.8388604266582883
  0.5688289196060561  0.2205899732131864  0.8561797086330170
  0.5480611460903988  0.1280656862145348  0.8087896488346341
  0.4459901647954905  0.0886444718629421  0.7863145245310742
  0.3949383778069021  0.0514045410128499  0.7199220518622659
  0.8791440617218542  0.0586011995257772  0.2391741869139450
  0.2814141164742937  0.9472152262261788  0.4377818389137363
  0.2197769506682006  0.8705098094471351  0.3811461385250430
  0.5469473317961118  0.3227619215525985  1.0145950404577206
  0.8615461619847629  0.9980025070229667  0.5634965531547912
  0.8076467840721046  0.9665788230237160  0.5539229240453963
  0.3716667737491460  0.7920608626919844  0.3922095587711328
  0.6791325063968898  0.3849009095918181  0.8167930606304613
  0.5621376919093022  0.2391095675566852  0.7981122355959848
  0.7392109871822115  0.2415992489213701  0.2397245896483630
  0.4792065111512622  0.2713927912448244  0.6551599688065652
  0.4286251373622561  0.2348514464832022  0.5869978768836683
  0.7314455704789518  0.1464211179156714  0.1522468507391216
  0.4502324887643858  0.1763259622039621  0.6056088285865208
  0.3837302154987934  0.1947630275851779  0.5178208399049515
  0.4116804814866791  0.1710674827685864  0.9691380448079019
  0.5589295753861757  0.5319995961118090  0.3624727682664937
  0.2662758593888124  0.8627624954609726  0.1143697680979442
  0.4582673080653948  0.3605946418466972  0.7457383427515095
  0.4794108209552664  0.8284683263823094  0.5365792828407021
  0.8987692217890911  0.2737993885552970  0.2876271269056395
  0.7980142355192661  0.3196561545683811  0.2921877287748543
  0.2014269613213516  0.0857546907408298 -0.0086217881769763
  0.2475924968968029  0.0644789426215548  0.9518702652731468
  0.7655074510987382  0.5637358045414682  0.4820019667017675
  0.7668438470230025  0.6589442185972865  0.4974230325093494
  0.5905338490082889  0.9012708606693111  0.4960724884421244
  0.6188888925263848  0.9361810115772492  0.7247672586710981
  0.6440208282592778  0.9809603291129338  0.5507062403984353
  0.6350370893211631  0.7142337040189650  0.5079979140608257
  0.6907227875239096  0.7385612212829858  0.4599717896426978
  0.5348458420763295  0.8090202704139937  0.5108168045883340
  0.5600469306212230  0.9120314690608212  0.5915601173427550
  0.4888746556853882  0.9633374560885071  0.4434610923196883
  0.4497479710458492  0.4322651656570629  0.9563538989580461
  0.1277199341767975  0.0366873688772215  0.5938668101857616
  0.0710338812333644  0.0259899580284532  0.5180054979013858
  0.1827440535562732  0.1729724541939894  0.6838359970251362
  0.3059951791227266  0.1498834780717792  0.0068856897025435
  0.3124435900203574  0.8253053493636167  0.0406427036238609
  0.6807609843609089  0.7640489147838865  0.7741706501381853
  0.5404841219662616  0.8071922453145441  0.6097289550332174
  0.0628418011709221  0.9334467266432710  0.1951137451888342
  0.4023332951785378  0.7389628977066828  0.0265307395831976
  0.4838383602322205  0.5878008471550354  0.6631237825188672
  0.3943331515061383  0.7998516709385729 -0.0025905578011574
  0.5286603010700348  0.8502684801742709  0.6541816118142891
  0.8205577293982798  0.5164291521483627  0.4015650687602534
  0.2222950706483996  0.2237309016682295  0.6883696462590998
  0.2355422263208111  0.0772186248259540  0.8880941973308042
  0.9715983226709104  0.4401306869731764  0.4214102978157063