C  Cr Ni
 1.0000000000000000
    38.7782925608872873    0.0000000000000000    0.0000000000000000
     0.0000000000000000   38.7782925608872873    0.0000000000000000
     0.0000000000000000    0.0000000000000000   38.7782925608872873
 C   Cr  Ni 
 106 1596 3725
Direct
  0.7532138339375851 -0.0391633732027691  0.0660854650530107
  0.4491070420453793  0.0266308417689267  0.2653697986388776
 -0.0500944105654511  0.8917952357726063  0.5646066587955830
  0.8447423086045132  0.9808167574605107  0.8954095692564408
  0.9047022296387001  0.3194810401024890  0.9400366233466039
  0.1025693259004140 -0.0206944766814796  0.5088895702613865
  0.3756192029607939  0.6687717561231210  0.9573171960296882
  0.5190040738185603  0.0290770599224532  0.9807681996742995
  0.3864268374704341 -0.0038938454173669  0.2540295590300727
  0.3593441898642410  0.3727381994241604  0.0796527131789146
  0.3986377018308104  0.7635353386357299  0.9720126988115733
  0.9522549608838303  0.9475118823136155  0.6197492662853099
  0.4752685578097192  0.1642050028603718  0.8803339166665732
  0.0870364746827662  0.8414531566467821  0.5774547068042669
  0.8824780864639169  0.1752626038332513  0.4758235302974534
  0.5518060490146603  0.7803624911202222  0.4306935168545201
  1.0353355290775379  0.2852934090265239  0.5122712887267485
  0.7328487720042012  0.2758921593375960  0.0687742540542811
  0.3630581115483395  0.6367863625343576  1.0254984001818095
  0.0066283985872644  0.3881136805109995  0.5566300871499259
  0.1132377669309067 -0.0668406715621718  0.6283413077919782
  0.3941429716827146  0.1163884802799807  0.4455506369675680
  0.5786447692736318  0.9001380217705112  0.5462517197923031
  0.2643149302058145  0.6019653485971806  0.0226784325944300
  0.9148468512136784  1.0169383296085690  0.5598047873090192
  0.5617351023311270  0.8354103030535707  0.4767383849197482
  0.7232662317748405  0.0619665004633069  0.9780503982354241
  0.3224557698589924  0.9623308572499477  0.2372459888382685
  0.3702284847254190  0.2467260897166704  0.5134557403508733
  0.3247779005328436 -0.0060243117188749  0.3340920181173930
  0.1886054309863615  0.8330612720256536  0.2357967427926609
  0.5736737859735390  0.7792408280389300  0.9496585807911968
  0.4938476699875329  0.5966945384805074  0.5100788953652569
  0.1209690799892924  0.8252753496787891  1.0019459195738742
  0.2208566800780972  0.9733379164347097  0.1777342030635526
  0.7196843581495468  0.6438033397828175  0.4889829633097726
  0.8180725652284736  0.9443700074678546  0.3195335623202870
  0.7144085976091068  0.0722088943475558  0.0145500765652292
  0.4857443830146843  0.7864979801807488  0.5021665183228166
  0.5811871488122401  0.8846631079070335  0.3943293735344868
  0.8340008140642698  0.9581591488033634  0.5748375735850760
  0.5998960940749051  0.8530293913029986  0.3856010144898920
 -0.0562093785983752  0.8202989015908976  0.8967720355878926
  0.0146410032709991  0.2803702376178254  0.0516116419827606
  0.0206518983447595  0.3455052202881482  0.4638451542970440
  0.4415142837484351  0.1393942213931781  0.1396015131075914
  0.0235059332129247  0.7806454678990477  0.5763625239899095
  0.5553501793465070  0.7632941669848303  0.5071190439034275
  1.0147367140879215  0.4154010386381055  0.4360317302876131
  1.0512019200437059  0.2156305919676014  0.5337250677962986
  0.2211429913348276  0.2166655305882961  0.5418083940601615
  0.7915246189819789  0.0382865367552414  0.0452205361673030
  0.7576124033668918 -0.0060302602091331  0.9092445131575116
  0.8761304693486944  0.2981592281951796  0.5202764724165282
  0.8585048271230585  0.0808650757572456  0.0726507772733949
  0.3725565332636418  0.1399615251453849  0.9849044144742591
  0.8106478807771911  0.0243839425983385  0.9514801058812208
  0.1186923424320793  0.4139206869232814  0.4722768793548718
  0.1927949210609360  0.8801369042008750  0.5201966126176758
  0.4495864521324535  0.0529806761613144  0.3564271790921105
  0.4658042425382251  0.2240208949016203  0.9302876840889680
  0.3186860714310761  1.0324987366180516  0.2588384657700267
  0.6896934401453090  0.1669767701221578  0.4682825149390503
  1.0783904136516076  0.9221308734939612  0.5721694092964631
  0.1742512331784289  0.9456185233141604  0.5859307079540298
  0.3949120541081989  0.5777724523474699  0.6801243881795129
  1.0369252503601336  0.1573244377729008  0.4836694592758998
  0.0710924765525914  0.7682280475709238  0.5162751534939085
  0.7447598634423349  0.9208958032482579  0.2930016298466136
  0.2736213710308736  1.0436312554837344  0.1172985383934999
  0.9438176538874489  0.9582913327664897  0.5421976618530606
  0.2766531918862327  0.3350420353442769  0.0657249278882899
  0.1933371083400582  0.6257369591445691  1.0033062063075651
  0.2683563357662808  0.9322827437616157  0.4842667390042474
  0.5798903996831262  0.2413167066614741  0.0209587156137591
  0.4980626280358196  0.1882052012755180  0.9773588584997095
  0.2796134721745828  0.8550690742955610  0.4912338349613446
  0.5227110511870127  0.8134357686855432  0.5611817939615289
  0.4078350828494449  0.2208544174489604  0.9763988008907351
  0.9397483452247851  0.3354865552777247  0.0673137124334588
  0.9471461095303870  0.0851520236269463  0.0389202040692724
  0.1836253027377128  0.3306254161505171  0.0302690212752942
  0.2556795509977657  0.9990649741655997  0.5517451179857256
  0.6696281449419278  0.8592235036914002  0.5410171486502018
  0.5485392636979748  0.1632160698268242  0.8446335613079498
  0.3914515340106183  0.7066165782756306  0.6469391289780706
  0.5636456916400826  0.1537869176315374  0.9132148729806389
 -0.0446624814752267  0.8722652985665731  0.6388550436340147
  0.7669726109988010 -0.0076047348104039  0.2685998374047230
  0.1433461119300123  0.2357615812456426  0.4368041176653112
  1.0477421206000730 -0.0035936233342997  0.9802098884384147
  0.8831278511166721  0.0050687315444493  0.9728642995293344
  1.0533702390599577  0.0641943299444927  0.5326727136175888
  0.2693570686773942  0.9246911901316270  0.5681250700384196
  1.0466791176080041  0.7377086597112325  0.4532532286565580
  0.5740490145632025  1.0304412461530594  0.3569179938696908
  0.5287732567074638  0.2292843454941070  0.8889855935665016
  0.4206414685460277  0.1581502588099932  0.9233579821564147
  0.9621922307601750  0.1692579392277338  0.5066952239851268
  0.0775135270154735  0.8293922221327413  0.4430784498869471
  0.4640021410560365  0.7759818398675579  0.4713823401133737
  0.8576204873441183  0.0885317807887844 -0.0376875126764842
  1.0020977213175046  0.8359448618247163  0.4975252742391011
  0.3448905646529182  0.7992011081620161  1.0087145857114928
  0.7362354893793800 -0.0282339384179101  0.9922374236897817
  0.1931742675037551  0.4166321156050807  0.0257347617083237
  0.4625040568867548  0.5417947100927952  0.8888200406910699
  0.3528603338016656  0.9629755168359061  0.9132797820573757
  0.3663973287492745  0.9756792285456279  0.5733136030209741
  0.9300640621596912  0.0345698558784493  0.0297718235395427
  0.3795200729949242  1.0043500126000919  0.9509612699012560
  0.9746695994498996  0.1334227305269393  0.6772561358485232
  0.7541010793276467  0.9458416771103477  0.2451880365269128
  0.8420925141704397  0.7443966880881741  0.3972648540913252
  0.3876025882587088  0.6528763723296630  0.6371577346852454
  0.9590856505257898  0.9149900259583903  0.2192558933559770
  0.3987237949120009  0.6341381478011220  0.6947211942813593
  0.0395697114266899  0.8504464094579436  0.7718929432248913
  0.2888173536780360  0.3383323033249197  0.6375959322097625
  0.5997367477835164  0.6213001515845672  0.9533335105473160
  0.9486062471667560  0.2438383655112427  0.3163863393971671
  0.9379919880089354  0.1031061226396374  0.1864176190415322
  0.5444734891154641  0.5898918902947657  0.8856452032331321
  0.7831468631199389  0.1496753612373963  0.0550900598053494
  0.9834631337852751  0.1277288845841185  0.4920999485128316
  0.6419346133217706  0.7447134712072686  0.8762324188607754
  0.3559298168139591  0.0309879700525607  0.8239702815169266
  0.1215850785281494  0.3121615998703069  0.5279804762845710
  0.5845375588765067  0.6084241129702408  0.7863209783891079
  0.1533073288424402  0.5308626759507186  0.5091893503196639
  0.2093015639409004  0.8056706228773339  1.0007037011777895
  0.7969399756874541  0.2861173461384268  0.1867143683688432
  0.7047959415926341  0.3919834588790209  0.1709350901889898
  0.7699034680965915  0.8634066702871946  1.0079721839681055
  0.3796902131600687  0.5134759086663356  0.5352988481408686
  0.7112268101849085  0.4545712220236810  0.1530059742796838
  0.4411930761995276  0.5093813090819902  0.5506938649158544
  0.4655307994208928  0.5570767596500271  0.4968415556534328
  0.7112552160131678  0.4860265262702972  0.2594227366625356
  0.6063052558417189  0.4856677803954544  0.2223977222658514
  0.5536016008238447  0.4873866353742821  0.3187220915358923
  0.6606210344136419  0.5163296306288143  0.2317826242037806
  0.2864875203937330  0.5307785825968633  0.7210430180901044
  0.4145825640424501  0.7991953399355283  0.0656762166059448
  0.5592226660237362  0.7950613291046766  0.0001707630203876
  0.5200887156458596  0.7318989788569257  0.1183374751982618
  0.6709394728018598  0.6782089640631955  0.9543092565205910
  0.1367165623168329  0.4529358560576625  0.6270086377583790
  0.9762715457115048  0.4690517033451603  0.0701193714817514
  0.0456861133612090  0.5631848933517483  0.6367198158627227
  0.9232476021433933  0.4879913983447959  0.3315669039883304
  0.8931904632769987  0.7786901937705735  0.1757804494648913
  0.3816227186571620  0.5680861939085872  0.7853607869506921
  0.4159642833213575  0.1771487450647777  0.3796547846349418
  0.4610543793251768  0.7653762748737011  0.8166459822573311
  0.6002650748104136  0.8594985407842489  0.8425795849073586
  0.6749701119306907  0.0712783633313315  0.8107207698151232
  0.9654162771814092  0.2381569160119934  0.9335297901158720
  0.9240874709650695  0.1914969465928690  0.9261696760055244
  0.6163163929302782  0.0370470244315719  0.0851749009871560
  0.8081791655640105  0.0745884477694495 -0.0385853433331076
  0.0126002642055692  0.9300446714831500  0.2914178205374538
  0.7853735199127256  0.0693998797020348  0.7896706268826064
  0.1082155561061942  0.8411542624280504  0.2358927146880744
  0.6480804121585256  0.9983237471385251  0.6639490948635669
  0.7744867037372558  0.0827053576062784  0.7295580013555163
  0.7067040800575929  0.9598928468835349  0.5780786539738477
  0.1004323475450107  0.7329163884367779  0.2060298918453593
  0.2029450185796503  0.6878718300182995  0.1956434641790707
  0.9846403119660594  0.1836202777060997  0.9516894437505157
  0.6965487040545315  0.8996937657089163  0.5355285200092784
  0.5358037201497681  0.9349853007374492  0.9740829278448281
  0.2153568332883374  0.6357615781212609  0.5013590249498044
  0.8660012390344758  0.4418276269249706  0.3824839903161151
  0.8740048602584209  0.5484269628858063  0.4100202509347268
  0.6221602295353305  0.6579313675919833  0.7892377416854076
  0.1161264638671444  0.5410964661505816  0.7190634416061360
  0.1045715327571460  0.5564321369468920  0.6553439229747673
  0.3900044904950620  0.7556381883800167  0.6294632022535710
  0.6002994541283050  0.8884002725320045  0.9476598116431965
  0.4223310768708978  0.7125869093594571  0.8165875374838910
  0.3758427055665891  0.6755993896290551  0.7451206278813091
  0.5693020907911337  0.0852710420279176  0.2293366976592673
  0.7900258436163434  0.7057617442077707  0.4456975691159510
  0.6837555773018487  0.6806963240687065  0.4768105391945040
  0.3631521489326478  0.6888252816182113  0.6853027575199808
  0.0622487163788491  0.6210715590681629  0.6138557769998899
  0.8254221782976410  0.5771319933585332  0.3827789587608866
  0.9309265475230414  0.5788425895609304  0.1900393557432557
  0.9899816931425287  0.6729093363255206  0.1834017756169060
  0.4105582634529512  0.7250949632263078  0.7530204878222109
  0.2048380622116366  0.5662538480910232  0.5788749996016292
  0.7314763863520760  0.7648228020360077  0.0628082436944251
  0.9800756449284519  0.5375129954931187  0.5092647456945059
  0.5478174715712807  0.9865873323716879  0.7460077093365555
  0.0775530039701453  0.5221870309467107  0.8190306451634353
  0.1292569773802638  0.7424222734069351  0.7658601419395850
  0.4900188825927622  0.9936103563439103  0.7262038336506242
  0.5152634834323654  0.4856646100504182  0.6366939959566715
  0.3023447526565283  0.7619852580279000  0.8765588900088677
  0.8365891873268793  0.6874603821487688  0.4105426730096786
  0.3729746281350836  0.9472391408733856  0.9740182905478343
  0.8697718699478560  0.9672378102180009  0.1503720356383588
  0.2030310335146094  0.0863811326151575  0.5934209985917038
  0.1361809412069871  0.0352605573984649  0.8661742888357270
  0.0279442075766419  0.0645158272980598  0.4204462235153417
  0.0276133160141358  0.7993298386210808  0.5263300562819273
  1.0316064482186065  0.9109257308762960  0.5825112064339101
 -0.0011257854505224  0.7723915754134154  0.6583505245081841
  0.3402786412520269  0.3074279056761120  0.9958628889218353
  0.2238975434985548  0.3170289066493281 -0.0015530848519719
  0.0813617663086599  0.8855407234676117  0.6062123338796598
  0.3330767087679606  0.2842597097536836  0.8823460793253192
  0.2341460172726116  0.2405037151451259  0.8538095439388832
  0.8537581814409679  0.2118592513483163  0.8462745919476073
  0.3762918937243395  0.9486280676272887  0.2385766352037681
  0.1135716262731263  0.2248412753753021  0.7080387766631395
  0.2234257371884301  0.2541356247546966  0.7952599109940681
  0.9525192817888716  0.8055939209305503  0.4238497462265223
  0.4875021200048845  0.9641666031739189  0.2132661698264877
  0.0005294976618848  0.2262693869590169  0.2818503560593633
  0.9048423120799494  0.3338665546095753  0.2654999633764715
  0.9027234943950740  0.8839749631584777  0.4380975686781065
  0.9555574421011367  0.8644844259448833  0.4076475183304965
  0.0676788682468886  0.0865364540849220  0.8858593771426952
  0.6323822023786483  0.6453499718468948  0.8512060739984260
  0.5448605395786135  0.0086878628345552  0.3908807087690300
  0.0929381540381726  0.5777530697432363  0.7965911462259143
  0.6025842093988254  0.4394974510209256  0.4054741959330090
  0.7261023963426377  0.6244383668734751  0.3933194410370867
  0.8309625200096074  0.6398347556275696  0.3664389831159101
  0.7760311658644414  0.6083831517389212  0.3587554873973975
  0.5087993023662136  0.9382854600518662  0.7431433876480790
  0.9860555076830905  0.5939213639674525  0.2609857017134977
  0.8724151410498880  0.5174866275521551  0.3041972898671457
  0.1561584804812588  0.7012621909545587  0.9487423294235545
  0.2235941660431210  0.6972588564159889  0.9750654964705133
  0.5072276273952437  0.9069927776334356  0.6351625285582921
  0.8630551442061374  0.4092262913909653  0.2780307614024378
  0.9143599310202619  0.3942727395591723  0.2459407319284694
  0.8918742847991287  0.7469558689735862  0.2996365571680959
  0.9660512656925603  0.3788852013693725  0.2126745543920059
  0.1450076689528875  0.1533745836567904  0.7867646335804733
  0.5330004059596575  0.8694825004168555  0.2538975513954057
  0.1443361648476317  0.1236717095493120  0.6791047078707109
  0.9539667811515091  0.2716639865391792  0.1927477575286344
  0.7118467879734437  0.0173458809527928  0.0028190947898613
  0.6308249891345578  0.9543170290069923  0.8920111350119437
  0.7305323833823046  0.6847060350047339  0.3770838824554643
  0.4295989940010903  0.9485372486763574 -0.0036821174338965
  0.3873020907875592  0.6630903885289582  0.8048269158227608
  0.0554953266341596  0.7458652438366062  0.5616632010387417
  0.8350410303247423  0.7012435746697305  0.1206844974679861
  0.9315988924849345  0.5948649612766990  0.1299183853830544
  0.5104547706392900  0.5928815615085824  0.4517923519511908
  0.8832759521754338  0.6259177750985303  0.1042021744018013
  0.1791238463794404  0.7473959370820941  0.7268681406401044
  0.8293234879627476  0.6212089324594238  0.4236618138254933
  0.3229000066036746  0.7045398551222254  0.8935943364231242
  0.2917599884852500  0.6301493189344903  0.7479959797353084
  0.9241194280120345  0.5646212430475599  0.4821340473125743
  0.1235989005761881  0.6421872789596180  0.7424047932226385
  0.7804065924538566  0.6700504994897430  0.1117783151055788
  0.2417105702697263  0.5953001968822781  0.6789373125454503
  0.1822289469072983  0.9812924322588217  0.5080841505871350
  0.7253619170678992  0.7808186148988846  0.0007308842553080
  0.1065239431610984  0.1058388731361830  0.7824757517113152
  0.8536866966491929  0.3167118567554378  0.1962994985688994
  0.8391939372195409  0.7618003119961657  0.1032446355060691
  0.0761365474373702  0.1756886649141960  0.7023172477624887
  0.1492493559870431  0.8188315881540127  0.6485881614423251
  0.9443992321696892  0.1629881258139374  0.1683489792488583
  0.0033250531347570  0.2408159255385213  0.2207443990187159
  0.3906182352536648  0.9903555886040186  0.0176618001093060
  0.9363155030246428  0.1199309865380251  0.3546030085777119
  0.3804389645024934  0.9790936938521232  0.3448497718117728
  0.0776000685958763  0.2630384957057938  0.5233400618626007
  0.5919481595008265  0.7075107443913663  0.8121919894808103
  0.4690328923206001  0.6721588148739375  0.4565249499208864
  0.5060157144500445  0.5482759613666417  0.3985263425820827
  0.5086454330296480  0.5352040273965430  0.4559933883066077
  0.8532081862365727  0.6105697303523149  0.7093930170517451
  0.9127785148792144  0.9935968623782713  0.4632682156008077
  0.3725505277163029  0.7089207491270733  0.8535129946951373
  0.2013479766966834  0.9848091245683476  0.5683922968248413
  0.1346759052142555  0.2310218595467861  0.9350692274711411
  0.8193202427967845  0.5010614852081886  0.2332035329638970
  0.8646763547900814  0.4244966243316322  0.2163940398860578
  0.1270313052904399  0.9367985609283340  0.5044246916992555
  0.9011631045763571  0.2869690949045719  0.2249921040629248
  0.0353741640606406  0.1570265868309921  0.8044906951092985
  0.1806009170584087  0.9282745630795702  0.5386726615935118
  0.8574113250405879  0.3630450129239924  0.2367071606205121
  0.9575023727298223  0.8448365263488304  0.4734790029339921
  0.8821215563763605  0.2745478245407556  0.7913636990998002
  0.8397879854628832  0.9813734802173057  0.9472392009986909
  0.2970024285859701  0.5645024775855488  0.0352382064960075
  0.6853382590581100  0.4441083304160885  0.5332724114937583
  0.7658938235705064  0.5466978353028955  0.5445240501551809
  0.6155739295841017  0.3388733603566597  0.5169647307881398
  0.9794202439719860  0.7239424191219300  0.8821401889963784
 -0.0102757901554728  0.6806889618622167  0.8369284495952937
  0.7759882076811284  0.5617552737495350  0.7099772475376824
  0.2665233396287776  0.9049622300659799  0.9490045244330529
  0.5656478230584654  0.6778398837645839  0.9773345290296745
  0.6328469478594920  0.2606157524814778  0.3706521358378370
  0.9201579773166153  0.7027888248141302  0.7524020869564215
  0.6808568959415084  0.1856415720295596  0.3538414038388873
  0.8823632913883508  0.6748867223089702  0.6537477785398939
  0.9696499041617928  0.7088998620625382  0.7136583009891939
  0.8217846697024500  0.0626593479541650  0.3370865020955981
  0.6964714542403413  0.4313367989850537  0.5950780030882710
  0.7589582132113828  0.0588834778469208  0.5009499038878867
  0.7573960761870785  0.4249007317250891  0.6169958591252702
  0.4819359974499012  0.3685397692482307  0.4622330861843509
  0.9483967812485811  0.3866922723633389  0.7411025131638170
  0.0202607015231573  0.3344544166296723  0.7151000360034521
  0.9091313384691705  0.3369932593246963  0.7359021094794721
  0.5613788995712073  0.0244464442994536  0.0088344303684473
  0.9305739637472351  0.2467219998445783  0.6457797338906859
  0.8605891937371900  0.3009951626266306  0.6688164239396913
  0.8905594672434014  0.1987245195715016  0.6395331825286212
 -0.0008178390664064  0.7956518430543565  0.1534069316139377
  0.8585579535248357  0.2699292225009505  0.5630511625014023
  0.7493356365347997  0.2437738424933753  0.5334672608237181
  0.9773750172705635  0.4806267880551418  0.7906144375280141
  0.0450688462288744  0.7204449788829408  0.1348852726532898
  0.8880205479164118  0.3634241001513117  0.6130146091043852
  0.1472758921626603  0.6719787388104302  0.1249799836214118
  0.8427938251416899  0.3290685287522263  0.5466463661181559
  0.3006551313340178  0.8324056061452758  0.5308012546539235
  0.9112785829365064  0.1542100661044420  0.5128128795115591
  0.5791733417696651  0.2088495944541244  0.1947240474855158
  0.9376535437165119  0.4303652277628196  0.7856460087881005
  0.7682260959993712  0.4393734171437328  0.7832352132244503
  0.7236396608628907  0.1079859659155964  0.3414002626008357
  0.8494833977575825  0.7244611580465334  0.6706017249280788
  0.2720901312546970  0.8866913503031205  0.4532034699791667
  0.7376829928949294  0.2646253584677579  0.4084964920445198
  0.7880062150541639  0.2326770765279483  0.4353814628095292
  0.7882519056249609  0.3835000820989732  0.7998656958273500
  0.7344364887829405  0.2154722329877681  0.3639150647420937
  0.7289255387006817  0.3606419865913075  0.6706880556176487
  0.6687584932635338  0.3678903262902098  0.6486319502678847
  0.7039578692660533  0.3908224340977061  0.5449447813537063
  0.6794963782729334  0.3248082870313453  0.6047689204775308
  0.9923000708732582  0.6170643664964163  0.9775189824751320
  0.9188216922780422  0.0510105610402714  0.4449537980452454
  0.9437606342377525  0.5582324937144362  0.9168337384408294
  0.3259676177206118  0.8517891580300296  0.4739311122454441
  0.9337601093370076  0.5738593221979260  0.8538764791279081
  0.8802701030152906  0.3765086022852617  0.5557363982321808
  0.3628272683235078  0.6846746777115972  0.3623949985228449
  0.8879673105022236  0.4560767798263384  0.9322228521112377
  0.5888022835171823  0.3809532655983033  0.4284234947383788
  0.6218599960800041  0.1968332775414585  0.7152019410634857
  0.5817158510086395  0.1484184331772944  0.7083292628598117
  0.6862517540952088  0.2804148140201541  0.4421778200197258
  0.6898756829810400  0.3413990734367239  0.4255391791606278
  0.8662141720390395  0.5116331887620154  0.9152200433790700
  0.9259390100270942  0.5031462153344489  0.9346447089582309
  0.9808590167558656  0.6897213920397662  0.5744871003877947
  0.2215758488640864  0.9085155079356504  0.4888031334277948
  0.2691162297597210  0.8143243857039189  0.4653942397762074
  0.7720300221356874  0.6465275200328608  0.5611303621075913
  0.8460049036943953  0.5101169440004150  0.6875837044400666
  0.8966300801721803  0.5457553782851738  0.7541129462411827
  0.9292790143477740  0.7530960476563967  0.5267002715403803
  0.8474141640033511  0.5393722581277817  0.7930290932494589
  0.8476832581509089  0.2528820737140247  0.5062293477587541
  0.0487106343103564  0.4282641838365158  0.7664051253210497
  0.7388989161063121  0.3461762476775502  0.7320673902138539
  0.5789865318371167  0.3130250715004001  0.6818652715366370
  0.8017761852806465  0.1577175815073306  0.5303999104074100
  0.5895900135435469  0.2696965761398373  0.6364278833000003
  0.9146349349742617  0.0414345887393508  0.5136750728053522
  0.5392042674766206  0.2335662240788123  0.5712920665134569
  0.5294220776315551  0.2401392975974490  0.1690951570750418
  0.4956740761748711  0.5114271175316762  0.5137983341968959
  0.6066284357055175  0.4819059798241820  0.4520966246345218
  0.9384936303204332  0.6547652686887210  0.5113351430464601
  0.7013896844927771  0.2975099468506447  0.7284906350233818
  1.0103824539845039  0.4104861196458811  0.8673024316172651
  0.7028123990459556  0.1396501269019922  0.5144589893879125
  0.5049904645208639 -0.0388840109011855  0.1227549965504627
  0.8780987783773486  0.4379683028106378  0.7651562485981031
  0.1120206974515368  0.8707720708487467  0.3447014421578409
  0.9164013383525643  0.4574242699773535  0.6636813099267896
  0.8169241640389846  0.4167461402603025  0.6384623122596867
  0.9266773725530578  0.4126737564791915  0.6187562777920471
  0.7685707330378807  0.3817910221008082  0.5605391457050252
  0.1576233769666531  0.8083873036628163  0.2633253910180124
  0.3067251394481760  0.6712132752345750  0.2912880648562229
  0.0562589340817327  0.5481078985220115  0.6972651392518037
  0.2983828268043358  0.5804440205608177  0.2030437249316709
  0.8531508900805335  0.4415000626843775  0.5412120557492347
  0.9625448648499104  0.6083177624096400  0.6922381113852538
  0.9857734140960378  0.5714392093903174  0.6139107245620719
  0.3895379492790198  0.4100271720382062  0.2336143783825075
  0.9179788727911382  0.5967681942570050  0.5282882076874873
  0.4364476761278637  0.3467351568232492  0.1563911041199114
  0.9429550333787245  0.6555708356442919  0.9431273564426049
  0.8202266310598473  0.9939656862142167  0.1218980987681550
  0.8037602828486958  0.0180252743677804  0.9032790694581897
  0.9667270088297318  0.4935233938912028  0.7312154886314910
  0.1170049287329216  0.9167129467687171  0.3904209678623843
  1.0062589822002819  0.5546563309078666  0.9341948234767269
  0.7763099318718700  0.0727951012710566  0.1362189624527281
  0.8928181415051520  0.2299630291814137  0.7463131976133308
  0.2419177921870588  0.5337327638819027  0.2562634745969435
  0.8029342571430673  0.1451808973610648  0.6743425090446792
  0.3421856534193069  0.4559699895646666  0.1443907822783050
  0.7535182799863915  0.1082699616097064  0.6053356303642279
  0.2870874809593220  0.4259885685231554  0.1354232061629186
  0.6576013252111584  0.0998642674770337  0.5125649714671641
  0.3882189573378217  0.3781283172533611  0.1267831483108456
  0.6098030002297739  0.0513025006851057  0.3287916288903308
  0.7460008525352195  0.0478382424083616  0.8942706662114100
  0.8650033256022315  0.1979629187455304  0.9064635799516845
  0.9927225621237761  0.3028392698653385  0.8793265787302506
  0.7476732810987499  0.0204725770929466  0.7863909925597927
  0.7611679433257164  0.0049543559400800  0.8520352285530779
  0.3833160900047671  0.3289073223875060  0.0842039511617990
  0.8310821991940375 -0.0000185401149364  0.8500170353440735
  0.8490913285841527  0.3456762987937982  0.7143411387381072
  0.6277698581607773  0.1783086407911315  0.2220216506531472
  0.6238546420524171  0.1179689233228703  0.2399152090133070
  0.7504543281029072  0.2736827115794353  0.5805127466458871
  0.3317169445804014  0.3478913525034151  0.1170524377232698
  0.7976084268970275  0.0541347154298168  0.8504910355990386
  0.7500299454131492  0.0068088593214925  0.5820578907514803
  0.4212065471799775  0.2113201273833530  0.0257231502688186
  0.2350279996247524  0.4695964919314746  0.0483608453118484
  0.2580712077494918  0.3620789753767795  0.0246955814341807
  0.8209635349233980  0.2517098678196726  0.6642022013683653
  0.6542337559528729  0.1681382059062648  0.5048776608150384
  0.7255492170794529  0.1405774462391011  0.4445350551737365
  0.8404694624460544  0.1627655578823531  0.5751902434528285
  0.8074965533929649  0.0282789664968280  0.5312841719609195
  0.1873365244623487  0.4887864437714683  0.0819847383635750
  0.1408197051216802  0.5641501229208171  0.0978876727870979
  0.4757891100366554  0.2260580943624532  0.0989408348800978
  0.8861703804023191  0.5311090831902169  0.5892608932722039
  0.9532664160947782  0.1913306726437725  0.6608736861990849
  0.5229002704356213  0.1617889624270753  0.0181167158780828
  0.8426415164502475  0.1933227809455546  0.6800348239909800
  0.5085251731348702  0.0394243855024465  0.0363371512765389
  0.7691792949560735  0.2150632253468829  0.5974518852583806
  0.4703949853434690  0.1477113132377505  0.1783597569971810
  0.7305915451880196  0.1624748017951295  0.5912633270252390
  0.5227554262117664  0.1469354375208512  0.0803122182284311
  0.8041508081912510  0.1750655042732066  0.7807750279833139
  0.1603080408685566  0.5916966771621820 -0.0159511104322849
  0.8743612336245127  0.0908713376269597  0.6520633387755133
  0.8759370918554996  0.1229862047590156  0.7572181266918053
  0.8887667370584157  0.3930563233411171  0.7200913791306380
  0.9419148760405193  0.4498970396094376  0.5106085921021077
  0.3451478564369403  0.4218645455210080  0.9808338961562527
  0.8466399751602095  0.8509284924269671  0.4294029577774243
  0.8603331427951761  0.0380143995167200  0.9400766432688197
  0.9963453001668980  0.1288222157364876  0.9653731202948546
  0.9344893989225518  0.1471882597744018  0.8836686391042538
  0.9939473421412162  0.1386326919143242  0.9060236895483196
  0.3216730162861045  0.2550451046038464  0.0384259090712831
  0.9311653552826012  0.3113155071270179  0.8585202100886733
  0.9572768682088991  0.0882522931056306  0.9062556159335152
  0.3605843443629747  0.1193163444015202  0.0348176724376977
  0.4057274397494849  0.1031752435352168 -0.0034102010704866
  0.4097638069980402  0.0881535563812677  0.0577347199269052
 -0.0001813920775072  0.8145525040160776  0.0930718760715538
  0.8498448393921664  0.0318682142071198  0.6961190437983508
  0.0483346327508270  0.7383592902647709  0.0734251821148792
  0.9647017357042372  0.2092519564976131  0.8269637844377228
  0.9749255317716069  0.1647330226790360  0.7831471784117197
  0.9265176408556127  0.1293220548217325  0.7175032411174627
  0.9088393938649136  0.0531745003835186  0.8375953950033026
  0.1054542671368985  0.1371548586520660  0.8874934105131662
  0.8676360360096038  0.4387584952879787  0.1565088113483923
  1.0004468061805183  0.7929873525092437  0.3840898415428791
  0.5912752753419772  0.9307486135194991  0.3709602266343802
  0.7218048390158497  0.5931691519617767  0.2862611004415583
  0.0469761850951644  0.1330668284180927  0.0985920022099387
  0.3996871392706714  0.6271408911448332  0.5214007574847955
  0.8907101282450847  0.7489892251950765  0.0672943995781003
  0.9422265044587804  0.1330104056674465  0.0609628503095517
  0.1916352231597321  0.9272607120656181  0.8664912752623890
  0.3145359750216151  0.5661628299581815  0.5583335406603032