C  Cr Ni
 1.0000000000000000
    38.7782925608872873    0.0000000000000000    0.0000000000000000
     0.0000000000000000   38.7782925608872873    0.0000000000000000
     0.0000000000000000    0.0000000000000000   38.7782925608872873
 C   Cr  Ni 
 106 1596 3725
Direct
  0.1053410519226554  0.9125814342376094  0.5309590361758374
  0.0758727832607421  0.8288448556324012  0.4429182878379583
  0.8574805971834834  0.0888050669460307 -0.0388026714632826
  0.7592640920192890 -0.0058376025076494  0.9051052377508938
  0.9047308762544269  0.3194234924763540  0.9398817767484118
  0.1027487540600923 -0.0157982274712638  0.5120090419883411
  0.3122770627713798  0.7230705676085152  0.9906909872272167
  0.5191832795594657  0.0293984233881327  0.9810110246027504
  0.3860400180535093 -0.0036471299846064  0.2543995098168748
  0.3593172030999484  0.3728258866318810  0.0794669092200976
  0.3999349617934433  0.7607173304176817  0.9718306600580026
  0.9539558557193338  0.9475274139909303  0.6203309084290348
  0.4756381466799847  0.1649136893911104  0.8794164837300239
  0.0310697943020128  0.8782243113600280  0.5870670270612677
  0.8858973283911649  0.1765810206711743  0.4767165609245210
  0.5506755747019433  0.7785688441646208  0.4313147388871731
  1.0350774513903853  0.2839423556106497  0.5119910105142146
  0.7327701370382710  0.2762478875446978  0.0682381697384804
  0.3626660326791727  0.6394171242516895  1.0267231243348138
  0.0060712885973429  0.3876404705864374  0.5562221258865981
  0.8867085110744546  0.8950329504716298  0.6211246294327248
  0.3945846567113987  0.1157515834406447  0.4450863533982563
  0.5785019754088201  0.9004218032141513  0.5457489423973602
  0.2649360867541972  0.6025093687373076  0.0232718363580332
  0.9149993336574387  1.0159786934292461  0.5609454434379121
 -0.0463937891715031  0.8909755423664155  0.5639064541690163
  0.8464113816731956  0.9820782239476921  0.8980600222793014
  0.3224076617382901  0.9618544291451403  0.2377367445295748
  0.3703212536490300  0.2466329722858234  0.5130897068052546
  0.7242120409323015  0.0585275918622909  0.9721045148959182
  0.4945276261569354  0.5958474176208678  0.5092712630353925
  0.7210109573437002  0.6431856368567265  0.4892699421306991
  0.5614272446814721  0.8362075332376829  0.4769342662048655
  0.2933678767534676  0.8503784295639362  0.2097392716306689
  0.3244006255634374 -0.0057108969487097  0.3342458827733960
  0.2214437367901831  0.2163642016629998  0.5415500395084278
  0.8181050616455832  0.9442844392048857  0.3199028649071177
  0.6663964338497553  0.0475037904712158  0.0124665777474604
  0.4860566628818115  0.7874159761591266  0.5019920205763422
  0.5555706367301154  0.7635910755786703  0.5073795615933427
  1.0155581669844131  0.4155128064765953  0.4358763197414139
  0.5814035802079880  0.8853905885920269  0.3942973631377598
  0.8349923461236384  0.9574757603759352  0.5745661504385394
  0.5987424910979667  0.8528417340947722  0.3861744357285024
  0.9663899207060216  0.8348410233510507  0.9266129510696975
  0.0158662880684767  0.2810607210239338  0.0507167532930218
  0.0202839145886506  0.3449795802789243  0.4636981251318417
  0.3348323576335746  0.1568504933755508  0.0420883692985967
  0.0234759772965521  0.7781222577570743  0.5763742086663539
  1.0497693206075407  0.2138464044419064  0.5327835795555718
  0.7864578354800217  0.0402743841374811  0.0452906582943977
  0.4488983575994808  0.0267183983779632  0.2666422129033861
  1.0040721541783448  0.8385096242383420  0.4993354279764032
  0.2200701808305130  0.9727429796833869  0.1781245247794457
  0.2794007021017674  0.8549061455411541  0.4921611472089367
  0.3741271171112883  0.1397084381586950  0.9817065363211386
  0.8107811713624729  0.0246576765386649  0.9514195002946099
  0.1179303327264916  0.4131347538824096  0.4720749885096355
  0.1910109336859648  0.8805466672782689  0.5209043910506884
  0.6173340312654777  0.6340765712690875  0.5073890378574831
  0.4662566074588390  0.2245589206768106  0.9295484996026149
  0.3180670404093751  1.0322191692103175  0.2585583016751825
  0.6890429337590883  0.1670200498778680  0.4677367688581681
  0.0884578859111636  0.8349232132350212  0.5786447643646487
  0.1703530060073373  0.9393560119803678  0.5879915483411370
  0.3694140630629268  0.6412463190774033  0.6800131302092949
  0.4899872847039483  0.1362693688813598  0.0373929696829617
  0.0723198394364597  0.7669720062219686  0.5168318737092434
  0.7447508857391969  0.9207395132352616  0.2931302320153906
  0.2726530090353454  1.0440474054311235  0.1184445889229044
  0.9457408104785124  0.9582582994226733  0.5428668660237996
  0.2766713281056988  0.3351580615232820  0.0657455830081464
  0.1937054871582362  0.6243541714721224  0.0035057896527189
  0.2679352571335952  0.9316105356745589  0.4845380041276180
  0.5791272506969367  0.2424437172660338  0.0204008830936435
  0.8753649741285627  0.2989672608268061  0.5199190578252131
  0.1190267816353066  0.8260897599267369  1.0033228720655278
  0.5734245204444789  0.7792115327932237  0.9494529462621644
  0.4085903616755046  0.2212515084059595  0.9763020378844669
  0.4989133385872677  0.1887784243060660  0.9766695194225062
  0.5227377218807598  0.8142552720757968  0.5611862079917675
  0.1836884486589255  0.3305209259731436  0.0301639419579662
  0.9459199908140028  0.0852917629344495  0.0387426958730109
  0.6703299437379930  0.8592945039086479  0.5406016660196883
  0.5643883143421217  0.1540260220107938  0.9127523757945251
 -0.0431129265630014  0.8712653339068374  0.6394587947922978
  0.7667596548405018 -0.0076985889911740  0.2688374950157266
  0.1436290809385604  0.2360690646394988  0.4363407800131738
  1.0485559302087604 -0.0023529561870346  0.9825845951775154
  0.8849744359837355  0.0087015683023881  0.9717568689307838
  0.0464890379455478  0.0172266782648685  0.4807635943237111
  0.2683024148374717  0.9243546827299377  0.5686836038286477
  0.5489515115632545  0.1636435527461356  0.8441571615103715
  0.3931244176405174  0.7077870327322898  0.6505016944980485
  1.0472118773374057  0.7377034975244854  0.4532627426822755
  0.5730016357834301  1.0292604698562349  0.3564422886894842
  0.5290300228806391  0.2296879120860475  0.8883238713475288
  0.2552451574381420  0.9984553418708585  0.5519947025363371
  0.7340787027872729 -0.0268259938709464  0.9930403223159585
  0.3460019512250049  0.7995491511919945  1.0094389978167158
  0.8579081646119533  0.0801552702456931  0.0724237772953740
  0.9623702618479034  0.1700312476716731  0.5060405105724619
  0.4211379584689838  0.1584672189331655  0.9217614754878410
  0.4644041323995853  0.7764201597127357  0.4714266010240185
  0.9404132864430345  0.3353173472473294  0.0673548094655581
  0.1932961416685465  0.4167018208244657  0.0258014861916601
  0.3805904524977234  0.9789239360569465  0.3451282386376867
  0.3524710966880619  0.9634669968687604  0.9131188625039042
  0.6064844898651821  0.4855684903878794  0.2217792679928778
  0.9355266347498418  0.1202959388848979  0.3547532248530353
  0.3796483932136838  1.0057666853367413  0.9510517696777464
  0.5537498102782297  0.4871120092851648  0.3180445735587530
  0.3904036674571554  0.9914210442727951  0.0175064462837101
  0.8426277828694786  0.7443597227202344  0.3971137304859538
  0.6604858348205926  0.5162428461548478  0.2314554921434923
  0.3876368481491096  0.4404745772089597  0.8782644790246193
  0.5832838117276210  0.6086736016238851  0.7858988521385518
  0.7649526154740328  0.4971512069596339 -0.0083415713243929
  0.6217441609901191  0.6579239984642473  0.7892558077020209
  0.7246615502667882  0.5473984760071143  0.0136807053454244
  0.1643839042334275  0.5463190776919217  0.6798234553389928
  0.1250052190835516  0.4959319084768287  0.6726225328380857
  0.2035607059207389  0.6068044564474232  0.8874486875874360
  0.0652082471102627  0.5035592434736234  0.6532572350070320
  0.0786939687465156  0.2636942573786951  0.5225751517957578
  0.7942398649343675  0.8259081217275884  0.4107473873327206
  0.3558605073682217  0.0313482852668757  0.8238503609235667
  0.6318472427835067  0.6454650419174158  0.8512221703158960
  0.9983843990578357  0.3576199663031112  0.5936639645200861
  0.1532596051694928  0.5305310163553727  0.5102668310722653
  0.2066877483034141  0.8030198351998341  1.0009894381637325
  0.1158202010030164  0.5111693645439703  0.6113127767597679
  0.0763416798687734  0.4595126185561377  0.6079118575321820
  0.0260856036187476  0.4242164129076238  0.5316284951389373
  0.8837055185837497  0.6406571008563229  0.2689162629644760
  0.8066160358102571  0.9931330668091833  0.4245502182673166
  0.2203931646268585  0.7662778650094045  0.6278285116024773
  0.1019595942113370  0.2692145808133106  0.7527309808631023
  0.2207429820251925  0.6635270789036117  0.8655065763691457
  0.6404650724579255  0.8989747857800359  0.1659753722670421
  0.6333820810103458  0.8541751838599244  0.1215494709320672
  0.6823309745835270  0.8385103924453309  0.0853615008353421
  0.2858200488084715  0.5302865977257502  0.7199729989486102
  0.4143991296758702  0.7984479084102708  0.0655584996859168
  0.5589823576006647  0.7949984267615299  0.0000530618026945
  0.5209538989310987  0.7311803612788118  0.1184733267793296
  0.6703110738242545  0.6781535283921797  0.9542256623672105
  0.1363059484418334  0.4525592890102895  0.6271214297953623
  0.9764473342761905  0.4691155373432623  0.0700736814455754
  0.0462724134723217  0.5625065776430985  0.6360642905987441
  0.9233377946593262  0.4881728438665526  0.3313732505701730
  0.2032190891420661  0.0860869586252154  0.5931186758549447
  0.5917717356557931  0.7075963088417579  0.8120393298474498
  0.4157757707336373  0.1765819172468200  0.3791933448190968
  0.3806107276139184  0.6775208381617336  0.7537836115413048
  0.6006260399822483  0.8593624029246834  0.8425082210804640
  0.6756511585782851  0.0715672022775601  0.8097813046322064
  0.9652235734367147  0.2381478516465421  0.9330607418048643
  0.9240574394931491  0.1916776492479178  0.9256750626153030
  0.6163390572783443  0.0371287664569126  0.0869702765578073
  0.8081373353067335  0.0748136015850186 -0.0387929174203042
  0.0126189522530581  0.9304088159644662  0.2921037209960573
  0.7855250230467400  0.0692823327940330  0.7896793994447671
  0.1090425085208753  0.8411012808684274  0.2360259365548933
  0.6484719563702186  0.9985903336688947  0.6637240116329031
  0.7849314204220699  0.0389259879925608  0.6828773856628547
  0.7075219427876738  0.9601394989346460  0.5779869514857331
  0.1001917556884105  0.7330141864500442  0.2064303785727461
  0.2026004476614534  0.6879786196335407  0.1964632920419957
  0.9845511202611577  0.1836416379801255  0.9512201857565084
  0.6970765306490601  0.8997283235952691  0.5352130011558559
  0.5357423538283911  0.9356612514568426  0.9737189083250785
  0.2298987131275877  0.6358069899076292  0.5068382026633829
  0.8661314865195999  0.4418908165137752  0.3823615508864831
  0.8742724656493399  0.5485904645120283  0.4098062962655366
  0.8774148660483648  0.2966437457703863  0.9749605935325121
  0.1158271587989646  0.5409524337614755  0.7188284899012025
  0.1058158649875850  0.5560947772753964  0.6546211870593044
  0.5684553638976101  0.0857458698511331  0.2293700532719452
  0.3909120469177944  0.7563679317938509  0.6299729474810782
  0.7903352352413344  0.7055175483333715  0.4457703694265960
  0.6867738407274528  0.6816742606166497  0.4753523043272945
  0.3648852732685574  0.6900252102118044  0.6898987553528216
  0.0638919308038230  0.6198805039183690  0.6142102663280902
  0.8257455150033681  0.5772567544623285  0.3824621994052536
  0.9309625538506149  0.5790591066349408  0.1898948194391716
  0.9902704734845056  0.6726951064204736  0.1836735641300287
  0.4114361311496237  0.7282957837587998  0.7526479276452253
  0.2050725607796367  0.5654112213901460  0.5775956170103671
  0.7312660860064329  0.7650799931662865  0.0628105434461307
  0.9804022258094197  0.5374379574884662  0.5094255922781232
  0.5479710336240495  0.9869640388251298  0.7457357781847270
  0.0775119032080395  0.5219201435731107  0.8191979403582674
  0.1296473948004865  0.7420022182426051  0.7664460256020960
  0.4900609324409582  0.9941561598070764  0.7259758150383533
  0.5147744933341200  0.4863621018337639  0.6355704279731968
  0.3019428046806626  0.7619619895629779  0.8790948688334812
  0.8368850234339098  0.6874526456930888  0.4104456738812083
  0.6000158501105529  0.8884163161173902  0.9475375462963428
  0.3714570658523910  0.9493634925308513  0.9731429666318735
  0.4608083464854010  0.7663701526928840  0.8161030517672629
  0.4216356799382849  0.7130778874463716  0.8146485651697674
  0.8693959381612133  0.9676055709942422  0.1507775103072148
  0.1089616336095499  0.7944464981544608  0.4221647823545793
  0.1359891551164691  0.0355128989994684  0.8657985833562644
  0.0261961814208138  0.0695040712369993  0.4222277658144092
  0.0281831973560394  0.7983681101576300  0.5253130430433305
  1.0439912988178350  0.9282323810831655  0.5884495828705949
 -0.0009492781361627  0.7715436370910925  0.6594428806864900
  0.3402205363915304  0.3076485026548278  0.9957530985975794
  0.2240764614653981  0.3168726416892647 -0.0015913340559152
  0.0789345312909950  0.8805371090880523  0.6075621249171174
  0.3330888217462240  0.2845763819545685  0.8821241478858630
  0.2344190258104343  0.2406696579139687  0.8538185145019197
  0.8536772620224738  0.2120585166775736  0.8459035005704139
  0.3761723600628412  0.9484880210842126  0.2397284557023427
  0.1238056261664234  0.2127931738402915  0.7690742803006575
  0.2236937921669901  0.2541819450922514  0.7952515357897579
  0.9538117682329912  0.8058896880999609  0.4240834886481027
  0.4873830798429736  0.9642262813143762  0.2137412752643275
  0.0003504932083453  0.2262092116935900  0.2818348140048677
  0.9047689248509757  0.3339294151168058  0.2653602425962345
  0.9030874559470231  0.8839054325376787  0.4383206226910455
  0.9561107592943586  0.8645815074811263  0.4082545755306140
  0.0681619863997250  0.0868999380184600  0.8856492776046698
  0.6850111707482966  0.8068442025731251  0.2101397868460206
  0.5433953337733852  0.0087599330619244  0.3905817846676859
  0.0931419998183137  0.5774087945089216  0.7970666405434674
  0.6028854346231717  0.4394996958317547  0.4048100953712994
  0.7266542413473016  0.6241975268125463  0.3927997477016933
  0.8315323834084276  0.6398456929093166  0.3659923709004051
  0.7763357930982685  0.6084045563113170  0.3581187930890867
  0.5089857838325416  0.9389544577325879  0.7430691326721400
  0.9861118690474917  0.5940763112254003  0.2609804826088854
  0.8725817489465498  0.5175904835125397  0.3039658438827150
  0.1549983194167897  0.7004344686042102  0.9490438346222836
  0.2227389182957354  0.6974502219282909  0.9757660566201741
  0.5073779182341598  0.9076212266773297  0.6350439218958400
  0.8631604816357664  0.4092736206134404  0.2777865714149765
  0.9143734625879431  0.3943281443549137  0.2457762230120599
  0.8921955852002716  0.7472331511467444  0.2990454908638862
  0.9661460139339991  0.3788611338490659  0.2126191441207374
  0.1451441831804645  0.1537246815533839  0.7866092208294415
  0.5330878358152029  0.8694444516547195  0.2540925858182538
  0.1444343696073479  0.1238600098638283  0.6786657236376589
  0.9537692048655771  0.2715426985865809  0.1926974873293256
  0.7092638121719723  0.0211333165494005  0.0020784605985431
  0.5699425371953966  0.9605901497513164  0.8709448385865330
  0.7309913266776065  0.6845058158865261  0.3767941759951619
  0.4286485289019467  0.9485693604074850 -0.0037309252250927
  0.3867578625636693  0.6645491388480151  0.8127659509397812
  0.0562313185672156  0.7446473473236539  0.5615068890809933
  0.8348160064650872  0.7013633285990413  0.1205898636098456
  0.9316287078365133  0.5949392789711786  0.1298455093435793
  0.9792068645986179  0.7242252079187486  0.8824526758421306
  0.8832416513827165  0.6259337418847015  0.1040002705453083
  0.1797316169142026  0.7469744878866411  0.7276624175885367
  0.8298024503757924  0.6213808755166471  0.4233786817814343
  0.3223128070233546  0.7050103547296654  0.8947779856976689
  0.2928748804454866  0.6295020355614650  0.7519472453467002
  0.9242203494793646  0.5647446649819007  0.4820618971312555
  0.1240383006999326  0.6417883199886368  0.7427944533726990
  0.7803859255702306  0.6703085364673557  0.1116130520565064
  0.2438910461320775  0.5946531251302214  0.6807410934144287
  0.1833293554225665  0.9799078244399494  0.5076868069449016
  0.7250855775783680  0.7809781876936673  0.0008395907872796
  0.1061497342083774  0.1059231916048180  0.7826007278725127
  0.8536517840966675  0.3167094800448273  0.1961239054562316
  0.8390067451434250  0.7620148334278498  0.1033709768433464
  0.0755516360353790  0.1752486985229997  0.7019748345832985
  0.1498864995074279  0.8183666651141670  0.6493919556952589
  0.9441363501795165  0.1627703897229644  0.1683497373186114
  0.0032560087744501  0.2404837685308206  0.2212772170720293
  0.5821592677290348  0.7522544764411319  0.8562838802507541
  0.3181653372419083  0.4603536653396711  0.7963383717467500
  0.1881262609851259  0.8376034711707881  0.5483606227444728
  0.1799584066584005  0.3694936453699768  0.7634404658774303
  0.7598754213480700  0.4028863622511192  0.0080193820413408
  0.6156662410712581  0.3391326134576664  0.5166920497451807
 -0.0101809425171731  0.6804557728007119  0.8370293567426668
  0.4695752017585712  0.6720656243303783  0.4562766945228564
  0.5105439591527260  0.5923053278014117  0.4505401301106656
  0.5064099326043360  0.5477679488035699  0.3978468282431172
  0.5087701212144399  0.5339394602356371  0.4551226604361068
  0.8533449842613678  0.6103569500195185  0.7095400265288696
  0.9122685530022839  0.9929139828247562  0.4635366894999172
  0.3720472583119983  0.7097675445718651  0.8547999693276168
  0.1998831687468507  0.9835224812438598  0.5691101930214004
  0.1347373607392582  0.2310809247750816  0.9348440746482152
  0.8193726135061821  0.5011406861188248  0.2329234725176813
  0.8648856959975724  0.4246924251318692  0.2158784330674700
  0.1292647144492911  0.9439620300057145  0.5005856108461822
  0.9010665479288965  0.2869093438866250  0.2248693622852399
  0.0955974884784655  0.1496540054889080  0.8260130389964757
  0.1790192640757575  0.9284322427244983  0.5397968960268232
  0.8574850488655377  0.3630769209718904  0.2365187129423572
  0.9595550998152041  0.8436031323867459  0.4743668512754169
  0.8821619907392325  0.2745961313197903  0.7909529734040599
  0.8399350987433265  0.9820012889714702  0.9508296800836488
  0.2980474360390002  0.5649323138508049  0.0357109535483723
  0.6856168309561484  0.4447598278598242  0.5329343450019856
  0.7857472783215578  0.4906387782207193  0.5633636512305844
  0.7757847026973731  0.5617092277162810  0.7099576119392481
  0.2661328653640604  0.9058970284690110  0.9493325918699148
  0.8197848180687771  0.9947676351528519  0.1219080000416322
  0.0448569486836678  0.7203120931001330  0.1350932651174645
  0.9203866064871171  0.7026287560239770  0.7527153691995283
  0.6806568568237307  0.1855504033115014  0.3536739625744284
  0.8825496780157661  0.6744210404647294  0.6541171775100730
  0.9697826253017674  0.7082282231157350  0.7140053051226110
  0.8213340543271159  0.0626238090421891  0.3371464145933192
  0.6960505973902507  0.4314567552920938  0.5947223450817269
  0.7582956200283948  0.0585897413000277  0.5006424030334976
  0.7573303552015461  0.4247716017217287  0.6169198485869807
  0.4814773167556173  0.3682419255165869  0.4616778796506060
  0.9484138054422280  0.3864291984712949  0.7408545383111472
  0.0202793285348223  0.3342366572944513  0.7148241104147469
  0.9092735440418880  0.3368766211392304  0.7355712200244328
  0.5619330957415593  0.0252315873735983  0.0087011101552011
  0.9308579699396026  0.2466077530926166  0.6447611823139030
  0.8606108476241855  0.3010093216357383  0.6685038466647421
  0.8916992604800993  0.1986449456100697  0.6386194251738369
 -0.0013129097579806  0.7948216574881511  0.1542266647288054
  0.8588328324774096  0.2703716099270597  0.5628580584779027
  0.7503879648963453  0.2434386282077818  0.5329549404913068
  0.9773157776785897  0.4804581684982057  0.7905799152557017
  0.3630496704345275  0.6843461213762310  0.3630933303346475
  0.8877574565378248  0.4560016157532043  0.9321278026156856
  0.1470195112203579  0.6722161872415993  0.1253428761432374
  0.3005565603919564  0.8315889770422461  0.5311232002580616
  0.8800112049711493  0.3768998615435738  0.5556173687984098
  0.8604829483944231  0.1904239033367837  0.5204800199653176
  0.5783682207108577  0.2086886703447786  0.1943324157297489
  0.9376118345654695  0.4302166651907161  0.7855019390727149
  0.7679906456269174  0.4394602020496919  0.7830278915714555
  0.7236970581218655  0.1082693904018429  0.3415141429414287
  0.8497424351625910  0.7242039934747120  0.6709672941601118
  0.2720832366082741  0.8863407160687090  0.4539595885324561
  0.7375446880423011  0.2648053944381984  0.4082212456762051
  0.7878965573696979  0.2325790002314636  0.4351573131598754
  0.7881052800862490  0.3836129576381831  0.7995457449461024
  0.7344227986254346  0.2156685670956777  0.3634610217682933
  0.7287409666835644  0.3607656266543529  0.6702914541598917
  0.6684900264085613  0.3680751478457848  0.6481459399317973
  0.7032914343053669  0.3907992504233567  0.5442432944871621
  0.6793101861522749  0.3249889457135586  0.6043457911044468
  0.9923262471963722  0.6159830560629428  0.9778394970646498
  0.9178696096030677  0.0513416464935317  0.4455561492009734
  0.9434283802897442  0.5582890770688754  0.9160460232171163
  0.3258632875680635  0.8510421106116476  0.4746683761537233
  0.9336349127761101  0.5737603735706407  0.8537609766595692
  0.8425374749753940  0.3297204735494706  0.5464143051127895
  0.8879417646409496  0.3635689273132709  0.6128473739401809
  0.6327037825723684  0.2608008130105326  0.3704243060253454
  0.5291499512237506  0.2393963209478513  0.1685717448760304
  0.5391421882657519  0.2336454114729929  0.5709364450582579
  0.5818835914384858  0.1487987055350334  0.7079310211959803
  0.6860483600332178  0.2806731180690809  0.4417412721012243
  0.6897227215797739  0.3417482276883501  0.4251650689351483
  0.8659914827738503  0.5115119151719351  0.9150979019646314
  0.9258831538956503  0.5030608261142614  0.9344905434313561
  0.9809913520228424  0.6881504594407166  0.5747448432670756
  0.2207320021444830  0.9088473234453186  0.4898240449891183
  0.2690678581594271  0.8143145227747576  0.4660715823772037
  0.7731829415293344  0.6464397207684992  0.5616969114516838
  0.8459041878961793  0.5099747115899076  0.6875566761480364
  0.8965101290460431  0.5455969684330786  0.7540884377817629
  0.9286603644736573  0.7524300483918056  0.5276176264933481
  0.8471585668373045  0.5393072875030196  0.7929940111121919
  0.8481103324536925  0.2526698233939267  0.5062680623307875
  0.0486740558826588  0.4280456241738863  0.7663445480883733
  0.7387657746108539  0.3463624529626820  0.7316274060175606
  0.5788219094983591  0.3133577196440581  0.6814778875873652
  0.8017491746318756  0.1585347445518868  0.5331098290166859
  0.5895339561921957  0.2699569463495271  0.6361117021573754
  0.9132301100547315  0.0407169425418572  0.5150183106634971
  0.2642279824590403  0.7933022684564470  0.3576510686495076
  0.6220070518384018  0.1970899096586794  0.7148977358031947
  0.4957949275584319  0.5109958949298714  0.5127490305304654
  0.9390160783318479  0.6540918504640973  0.5117633645758932
  0.9427393452331525  0.6553853622289445  0.9433175853965761
  0.7013479232890640  0.2977564131330569  0.7280027159456515
  1.0103802683674277  0.4103331312346383  0.8671489126784394
  0.7027492621907582  0.1396155117716050  0.5138911454494757
  0.5048079757593031 -0.0391398227105355  0.1231780162991729
  0.8780347086921183  0.4379103432366709  0.7650393466707252
  0.1121381728468129  0.8703831315403566  0.3448649838047558
  0.9163762664106747  0.4573170941529106  0.6636320644218845
  0.8168061552393348  0.4166368500063061  0.6384098218727923
  0.9265789045748237  0.4123964124582672  0.6185542823848863
  0.7682756960131302  0.3818086747155266  0.5602643548792670
  0.1602980895361231  0.8094320597589253  0.2615970188124416
  0.3066192156419804  0.6710874380457006  0.2918130020390712
  0.0561345726087174  0.5476375266941007  0.6978787491473829
  0.2983505365622584  0.5803942325977467  0.2032208339152435
  0.8531919478052025  0.4414218943510562  0.5409332722445289
  0.9630327431653407  0.6078295961118469  0.6921620123629397
  0.9860559209559053  0.5708809307016972  0.6140273448789130
  0.3895652151270063  0.4098046457378154  0.2331277399522166
  0.9185501142001002  0.5963269716107495  0.5285186543457344
  0.4364869175280501  0.3464537048667873  0.1561488723573258
  0.6070521337795685  0.4818086622508047  0.4518161414802711
  0.5884231585504267  0.3810511661044645  0.4280256709213212
  0.8057676600813346  0.0185615113739631  0.9026689073930964
  0.8887344899844440  0.3929440006447322  0.7199240242289029
  0.6234377308577258  0.1184796623154714  0.2398837793970842
  1.0055187435603525  0.5548014940112890  0.9342481327593793
  0.7760486010821058  0.0727473750113096  0.1367784817658072
  0.8929316254864834  0.2299581065485740  0.7457651791123100
  0.2420103679363080  0.5336058643281562  0.2561847958621561
  0.8033903488177291  0.1456622820603893  0.6738385362058009
  0.3424153686168146  0.4558352795546103  0.1443676792693548
  0.7539876232992888  0.1081843118829710  0.6054053951079805
  0.2872190157169941  0.4258538457451315  0.1354746382751573
  0.6573143367310877  0.0999246450913635  0.5123833802201971
  0.3882801036234400  0.3780019129215775  0.1267662451725944
  0.6083813760590974  0.0519703917274594  0.3295379080452999
  0.7469668882055058  0.0478452236142972  0.8919533299076516
  0.8648185166253023  0.1982464764500062  0.9060779878057695
  0.9927400088928424  0.3027954356433414  0.8790083779193499
  0.7478608370744243  0.0204750953463152  0.7858851876077531
  0.7628142512288990  0.0042889474070708  0.8510010292164968
  0.3834637882395473  0.3291179073066696  0.0845945464868352
  0.8323696734079213 -0.0004013196320966  0.8507711577253333
  0.8490800987254727  0.3457000926630276  0.7141128295867833
  0.6275371517679939  0.1785671052551899  0.2221239155075695
  0.1599344124339838  0.5910254219852288 -0.0157351553987412
  0.8743671366233434  0.0911346806425454  0.6521057364078607
  0.3317875195070449  0.3479555028376458  0.1171006266067371
  0.7505798417555942  0.0067079103209464  0.5816788288831773
  0.8041728625486514  0.1751891594820644  0.7802746125568941
  0.4222507813576268  0.2101685857685733  0.0254612239695117
  0.2348510290389722  0.4690205259986285  0.0484854484227118
  0.2582317866887912  0.3621906157407789  0.0245168378038031
  0.8210227415004357  0.2518764721855845  0.6638293489970678
  0.6542175991914838  0.1683040089095907  0.5047501036514874
  0.7250712875604212  0.1406310135980107  0.4442506636645262
  0.8413335213182729  0.1630085777408440  0.5745642192250426
  0.8075345507933575  0.0277176198177680  0.5314404067635865
  0.1875015469715811  0.4887247531115020  0.0820771671503140
  0.1411680005987773  0.5643444031976166  0.0982944093316236
  0.4757211630178144  0.2246554826119078  0.0989574802689694
  0.8860662538214725  0.5309771818102585  0.5892209799306842
  0.9527993363467713  0.1916871087220189  0.6597589263433056
  0.5260394049952202  0.1629091155892952  0.0156355882061924
  0.8429251148660756  0.1935294117984799  0.6794829262847579
  0.5090853785088576  0.0380760033392629  0.0370429348743714
  0.7695433428230040  0.2147145390080206  0.5966265302280591
  0.4675129148541156  0.1465009633687462  0.1762708040455609
  0.7310616010655445  0.1627183467156087  0.5912058113807588
  0.5217240094322113  0.1456873824084152  0.0795857315404730
  0.7983739552355800  0.0547946189385857  0.8500654209537476
  0.7504816011744836  0.2736665809753537  0.5799037370838113
  0.1174408769127779  0.9163117736655643  0.3911639935948099
  0.1058599956812205  0.1374311224454508  0.8865756433435601
  0.8757790298753041  0.1231051748211748  0.7568463571248197
  0.9420293564596559  0.4497826722882349  0.5104471801898137
  0.3451858438768238  0.4222882188034670  0.9807413352425494
  0.8472440264340395  0.8506550701755241  0.4294647627434553
  0.8600514551618891  0.0383100272802141  0.9379989246393183
  0.9961904849708811  0.1290209888739355  0.9650772877757305
  0.9349933308617552  0.1474454219085531  0.8830114900472327
  0.9939501390497580  0.1385591684049148  0.9057712336848838
  0.3222205956469906  0.2560178945391793  0.0383624109326973
  0.9311748854074924  0.3112950705938735  0.8581839559304362
  0.9574687743914273  0.0885638929351572  0.9059664362587505
  0.3609878478946089  0.1165260629967920  0.0324183002393338
  0.4074078655723138  0.1040895634135881 -0.0047725822234624
  0.4092614493495735  0.0872757383977840  0.0574585737572580
 -0.0011764868407501  0.8138900483843241  0.0941631614836091
  0.8499467191471844  0.0321000329029290  0.6954315777503197
  0.0486248113299596  0.7381144765627449  0.0728852155913542
  0.9646924629384843  0.2094174083524631  0.8265620515152342
  0.9747132171511212  0.1644756016052396  0.7823629148598329
  0.9265644238771208  0.1293117572783302  0.7171850334285489
  0.9093911970526881  0.0535875615983294  0.8370326360327455
  0.8673250748148050  0.4386468922558399  0.1562711288833241
  0.9668762354744048  0.4934067452547565  0.7313191095437164
  1.0011269912889647  0.7932182444148403  0.3842789701147966
  0.5911097277907119  0.9311204794983867  0.3708374325163338
  0.7219508563729016  0.5931541224778943  0.2857874111976808
  0.0466455630836258  0.1335918382462454  0.0985322595104176
  0.4033454443111386  0.6285231598298996  0.5195248486066961
  0.8905216127631305  0.7488854023692093  0.0674195843841744
  0.9416779696197056  0.1330838437115729  0.0605287414058869
  0.1914615094623257  0.9274362157278329  0.8667187533720534
  0.3140052887098022  0.5654106284378010  0.5539026631063941