C  Cr Ni
 1.0000000000000000
    38.7782925608872873    0.0000000000000000    0.0000000000000000
     0.0000000000000000   38.7782925608872873    0.0000000000000000
     0.0000000000000000    0.0000000000000000   38.7782925608872873
 C   Cr  Ni 
 106 1596 3725
Direct
  0.3504651083737799  0.9412413157231307  0.6022887106573697
  0.2788808688069713  0.8503581222397678  0.4939358746422997
  0.4922821471223637  0.1971012210982120  0.9672020146235880
  0.8072471426578919  0.6798152369719842  0.1463086518294423
  0.9039557004471600  0.3112357904156526  0.9382432984966130
  1.0487643040420365  1.0142581109462991  0.4842578961223292
  0.2115568490521150  0.9580843177428131  0.5170564251299032
  0.5545630711114741  0.1487900973346402  0.9142124307395293
  0.1104964392828848 -0.0228869068107083  0.0171070122026469
  0.2677909466360129  0.4288400881397796  0.0357948360719887
  0.3929841113100327  0.6953223160708173  0.6359073462223718
  0.9493577836342890  0.9371407165310149  0.6113927182956127
  0.4738672131637078  0.1669660309430589  0.8795379102329711
  0.1492889793500328  0.9633144499273211  0.5542606436013652
  0.8800699891262140  0.1712404745283674  0.4750932073458933
  0.5523840585992723  0.7797807410252884  0.4333889655986669
  1.0316495815213484  0.2822201133817427  0.5171276040257032
  0.6185529763317008  0.3064580947088356  0.0778125615016451
  0.3615220670781235  0.6343267975419407  0.0249867935026615
  0.9270966261075948  0.9973388926326826  0.6366324652161888
  0.8800677188505399  0.9386691070782471  0.6250908832187096
  0.3934508182338279  0.1149247849706900  0.4478728929998130
  0.5790455863985640  0.9012314085298225  0.5457287704506957
  0.2627109837026059  0.6017073173754797  0.0245959749117781
  0.9075363930233182  1.0137731399334993  0.5646820242389562
  0.1209652865939745  0.2968067981129577  0.0210788184925862
  0.9895587132239274  0.3425287010988387  0.2040097342374281
  0.9958563791475842  0.3822090464884171  0.5502435511254415
  0.8674198976904540  0.2113215160741691  0.7145506504777994
  0.4199408439855169  0.1567393646411299  0.9240982208464152
  0.4657132543192138  0.7742389813350428  0.4746763734229872
  0.0811816683258196  0.8330961143999164  0.4343137685832407
  0.9673105561293366  0.1237562468680540  0.1577757195127232
  0.7958640975039512  0.0046244432616502  0.8933695889508164
  1.0089757586456871  0.8311479995657619  0.4835974838013135
  0.4652075437618344  0.7820507700701685 -0.0283092925263722
  0.8315380953977606 -0.0100366632819632  0.9619360203118128
  0.8153483211525510  0.9430631960063282  0.3208413537102420
  0.5708539757340974  0.8542648572214246  0.3999773915357132
  0.5042932277994643  0.8594580769599421  0.4533284971933730
  0.1353971441714296  0.9701376359157351  0.4765351111444017
  0.6169490830569025  0.1877863306193833  0.9129894649550753
 -0.0277736832341704  0.8314370666998179  0.9248641127155873
  1.0185615630198570  0.2807092788838609  0.0511676574451549
  0.1467346645092438  0.2867911464391922  0.4958488711302801
  0.9389125633434074  0.9493084084216069  0.4576592225970569
  0.2030281224603910  0.4929651838680611  0.0327272700868506
  0.2683445891109146  0.9167686947397869  0.5692475474752735
  1.0163426745764559  0.4151914011727001  0.4342570294414429
  0.9202372737644766  0.2532166712295222  0.4512093907415933
  1.0538197586783418  0.2008850733658325  0.5278182580127440
  0.9610298232142690  0.0943289265303172  0.0475705555197064
  0.5272764240854659  0.8131329313435368  0.5631542072774601
  0.4847777312133826  0.0602678259942536  0.1165755240965693
  0.5202333954504935  0.0815339082338389  0.6723432901523854
  0.1727400908459791  0.6159183232105659  0.4107901284608879
  0.8515775537115872  0.9189633735215850  0.1230650960088886
  0.0205143453913941  0.3421943224401688  0.4626789957179037
  0.1922340271950074  0.8785274927869605  0.5216773626801990
  0.4644223227625121  0.5103013088127757  0.4914123557066563
  0.7433198471539524 -0.0213300855830401  0.0321796181385274
  0.3193682064773133  1.0333740548244983  0.2593287372868076
  0.1942785218175684  0.2039316873003832  0.6502558687034878
  0.8820554634998956  0.2396515786034508  0.8888190721153381
  0.1693693954373488  0.9880675196054465  0.6411179550333918
  0.5235714190417809  0.3766477044994290  0.5008395536862710
  0.3856420211936630 -0.0021340398173301  0.2607613024245951
  0.5893570222178909  0.7192127707161046  0.9626281200922947
  0.7385900515332351  0.9213970549903772  0.2962077519893125
  0.2748744975216476  1.0445681782454459  0.1194181074983717
 -0.0131187402137930  0.9695640585726182  0.5395639589048185
  0.6509438623995055  0.1950241907030237  0.5221915312831577
  0.4344260689139528  0.7601701234398645  0.0501614207334051
  0.2752727681604336  0.9241257918818795  0.4814054187347450
  0.5760441161398000  0.2388824993259409  0.0184889044206192
  0.7124091998549056  0.0678609282055381  0.9093406364557263
  0.9890525747601984  0.8912356156891283  0.5458272371449450
  0.4494233114042144  0.0256638953227668  0.2733973662529460
  0.2743627274627852  0.1607677869692760  0.9773742039211706
  0.6863379279924707  0.0468959261623947  0.0025223758645522
  0.7844212298974259  0.0605617649040650  1.0059779819778882
  0.1842212888256999  0.3336612950678737  0.0316760070926169
  0.6858940382848374  0.9190820994517170  0.5997667000483721
  0.6684427816600214  0.8607384777300198  0.5392534745638476
  0.5484104556958007  0.1646573543368709  0.8451497492441632
  0.4055400288841924  0.6965575543503605  0.7129628891852021
  0.3373617756707243  0.0129729490104304  0.4713108456333089
  0.4925449791027866  0.7257620134171225  0.0794848501361462
  0.7697448153265811  0.9948046635568210  0.2717735015196925
  0.1443769709748065  0.2340657582534731  0.4361529976831561
  0.1896882036943182  0.8620147377535555  0.3455500460935298
  0.8487116027253460  0.0634478669654715  0.9605643186027212
  0.8430698675131184  0.9838557759273976  0.5258430105379519
  1.0170329731421859  0.8992843631012918  0.4547554580174796
  0.2610719728755639  0.3031047192780121  0.0179865683109431
  0.5275991201520271  0.2302651492833931  0.8873636864386804
  0.6786406247470768  0.9797960527029536  0.3517937288672324
  0.7227614402137101  0.6438344898055199  0.4881570802838576
  0.4801555403042521  0.0798402073129423  0.9557868386842973
  0.6290333899816890  0.9016047222745747  0.4573093330917423
  0.9774261406879964  0.8325835382898863  0.3944254207517790
  0.8747740426621289  0.3015771584176758  0.5186539639791458
  0.5859182691416357  0.8878122956514903  0.3995007332990269
  0.6350443606407240  0.0333373648060936  0.1892551534248988
  0.3242840143261487 -0.0066759228644867  0.3366107246961308
  0.3265547563083278  0.9639838655319311  0.2365626592765479
  0.6323868240602604  0.6465813387532832  0.8517921333554708
  0.7857010930753150  0.7134723556405592  0.3845754447886667
  0.7110429671486332  0.4535766460163738  0.1508133185384289
  0.2345305800216650  0.1782469465560719  0.6407078654196525
  0.3403093028796326  0.9763711411926477  0.8490785521987999
  0.4422832344771403  0.5117882939738516  0.5488153309596652
  0.5939813389870550  0.7065947631849890  0.8115591498689139
  0.3506010096301623  0.9648407029812042  0.9111235318561473
  0.4672666334724173  0.5612648498577000  0.4966376272027718
  0.1377000949713408  0.2594992533155611  0.5437733495262378
  0.7075956033887031  0.4401065506373509  0.2127004689251683
  0.3822280265200059  0.9791373562298683  0.3451638592197195
  0.6059692787799766  0.4853233599823921  0.2216996753925997
  0.9419137759931651  0.1822378614225426  0.3331358795401660
  0.3908509291062903  0.9957912868348338  0.0170884469445866
  0.4371777846915386  0.4481356346924231  0.8370407120357350
  0.7631251958665007  0.4962537486520208 -0.0099003707646436
  0.7255459383305992  0.5474880802314726  0.0139131414717625
  0.6229735559651770  0.6571693356128184  0.7890743307691440
  0.1657876861546441  0.5462440960682120  0.6808478596221705
  0.3799958794548861  1.0107765617900184  0.9504073779352704
  0.5546718954490648  0.4860234966055541  0.3184581538643974
  0.2802209964001651  0.6550603235426842  0.8902090699848503
  0.1522681248448737  0.5288110988605741  0.5099485781816187
  0.2548033569072721  0.8233336777931194  1.0159753986019620
  0.1270313121560946  0.4956058850927179  0.6745187533548500
  0.2036324122599445  0.6072298470392699  0.8886528760877711
  0.0656933529821288  0.5033622338279033  0.6540339325719605
  0.7921083457173635  0.8219062388272255  0.4117941858421063
  0.1156056603105283  0.5108247914429295  0.6138568281789927
  0.0759981337166837  0.4599097734631644  0.6087850915506000
  0.0162054946571782  0.4235628740178781  0.5321035954525427
  0.8827968744193115  0.6396473243717791  0.2698954405837564
  0.8047856964337919  0.9800037195084913  0.4890855217707633
  0.2205675616331047  0.7653228339706206  0.6281416376247282
  0.0911700035591777  0.2825654745779192  0.6904522967114378
  0.2973363890996633  0.5188195691187947  0.7830507924391944
  0.4076473483360963  0.8000322233249529  0.0638219191740862
  0.5787761626121150  0.7792247271166167  0.0636390044742724
  0.5177764777557941  0.6838169529132457  0.0719135210022940
  0.6214822681605694  0.6543420945130968  0.0035433191776587
  0.1361098332402474  0.4529445877962985  0.6267988099166406
  0.9772166647860512  0.4672913408841238  0.0706892772862428
  0.0470818788330488  0.5614807583608225  0.6369345975354292
  0.9229721073107168  0.4870243823407152  0.3317169388603869
  0.6629704414451372  0.5155646236924712  0.2310841717041225
  0.5830316201691648  0.6085517552713465  0.7859865201401236
  0.4162654422538018  0.1777572800869484  0.3791009712824672
  0.4618523253352313  0.7663081224020603  0.8169088477087861
  0.6011129498202895  0.8578807523591980  0.8437928387417779
  0.6845374655437710  0.0268519442514751  0.7676304321007642
  0.9348534317517478  0.2119174780215081  0.9829701434552951
  0.9281518497805820  0.1844059415917157  0.9301927474732113
  0.6179812518593059  0.0369744209582646  0.0847415910131417
  0.8016808178280961  0.0858797011240926 -0.0344421929841683
  0.0126313617197286  0.9309504134454374  0.2893796850166751
  0.7851766738908607  0.0683035307469191  0.7930638991018304
  0.1073795211923058  0.8421721354581574  0.2360123624095805
  0.6489116365197379  0.9980252268999147  0.6650079561825865
  0.7853950797633548  0.0383583471941324  0.6849381130845777
  0.7065453879841201  0.9589091651109546  0.5772067441005958
  0.1000769676189372  0.7349466786233859  0.2053068000917942
  0.2019139072549539  0.6882280003837179  0.1945047003167601
  0.9861028269458151  0.1836187633867380  0.9503799347397230
  0.6915046487987072  0.9133243462758134  0.4707760604748175
  0.5808869098916035  0.9452083276953267  0.9337433769581216
  0.2388103183674537  0.6340296087477196  0.5094904799568484
  0.8706936075697521  0.5008583150364990  0.3656968299826686
  0.8741760178603173  0.5462317449631995  0.4090797137611922
  0.6388543893969959  0.8982469797097381  0.1653989863961010
  0.1151519984156075  0.5413250376775849  0.7190740412130946
  0.1064714045842066  0.5557449123744825  0.6564142327256480
  0.3913680921658518  0.7504881560675242  0.6321848524272137
  0.5981062680605548  0.8873955126690519  0.9481290609141837
  0.4229676041382189  0.7131347143436265  0.8160674884187535
  0.3756322209866139  0.6768532451638922  0.7502451432172117
  0.6545304820911321  0.9863417568917535  0.2530153022472560
  0.7888587516635052  0.7029157997117552  0.4471534234201168
  0.7339048484542141  0.6661359817511052  0.4407073820351964
  0.3652521404944672  0.6903449685098210  0.6848169515526257
  0.0652630340289729  0.6180108412311863  0.6170075759210966
  0.8251088494271209  0.5764897628815119  0.3818636779628427
  0.9309835856665630  0.5795986780567052  0.1897255827143409
  0.9901424021460906  0.6743844626476219  0.1836957532882399
  0.4128826129317700  0.7268781815575284  0.7550890392073972
  0.2064107002562243  0.5647916677147914  0.5789228791223481
  0.8326842739114887  0.7305488430424968 -0.0014665987329144
  0.9782084085839995  0.4895195247780041  0.4647694735046035
  0.5481097282272848  0.9854380412283135  0.7469626638034882
  0.0770097207168657  0.5220651482814307  0.8203919353799068
  0.1299653440888170  0.7420336219937789  0.7663018139242458
  0.4886109503384021  0.9931089105858040  0.7265167017438120
  0.5155380633515632  0.4860116835319038  0.6366418112240182
  0.2415928330121730  0.7700519292200191  0.8565815426449720
  0.8338791852171431  0.6844392972468822  0.4099022049820437
  0.3652427568449849  0.9551864838281650  0.9671418348143641
  0.6028757631416851  0.4384195966717884  0.4050595823137207
  0.6825214197871710  0.8369067858938114  0.0853464116601989
  0.1352932029488389  0.0348807536721730  0.8665130927801686
  0.0228464824315840  0.0595122137798400  0.4853935719749017
  0.0464634416933438  0.8209852220755608  0.5737536490143872
  1.0346283204838504  0.8784741644884320  0.5591570267932348
  0.0002789789654283  0.7735938657501228  0.6593857021509285
  0.3497114084630807  0.3031355503267289  0.9942683267656660
  0.2120029283078651  0.3097101282587105 -0.0057429570303795
  0.0886174232298712  0.8278840872886630  0.6273166903196521
  0.3329616718769871  0.2840909872775261  0.8829268634514734
  0.2339488248580978  0.2414977405465427  0.8531984808739693
  0.8530762964069527  0.2108324156384148  0.8481839859899271
  0.3776921793686422  0.9503434825943406  0.2409056122869950
  0.1234635328123958  0.2119898716926036  0.7681761465608242
  0.2227149119384686  0.2546923757707317  0.7939141294302784
  0.9466402878171368  0.8062777726277290  0.4213130548863243
  0.4807200223030131  0.9025831718169820  0.2295949726217988
  0.0066732364097636  0.2879001603790904  0.2598108340037443
  0.9049819242339349  0.3344076550300275  0.2656402409909837
  0.9033385090590034  0.8774105050751394  0.4402670303270532
  0.9511981945087036  0.8730572837794423  0.4054643746674502
  0.0689860560058545  0.0856815719603495  0.8865321865547482
  0.6324614845810568  0.8537463792097068  0.1214535103167634
  0.4880024189394149  0.9790714647150587  0.3810519307110594
  0.0941846005946812  0.5778532541651220  0.7986616575287507
  0.0706404751768839  0.7205602843119316  0.6372598085507508
  0.7255599284227401  0.6378575582824353  0.3313819023848146
  0.8268562930125483  0.5926712101059688  0.3215359501974967
  0.7762425038856751  0.6063908254414907  0.3584143743564398
  0.5097993002494580  0.9382288336145219  0.7444258177619617
  0.9845635003974839  0.5955910946864155  0.2610936743447693
  0.8727693964216272  0.5157710228852423  0.3036446883746334
  0.1596805380719326  0.7014687000868703  0.9499441945770286
  0.2228724143544653  0.6985270556675145  0.9756561529125853
  0.5085446533825011  0.9060008003053800  0.6374338785400786
  0.8634197566635049  0.4078108410945354  0.2761814203941986
  0.9150836228382153  0.3938443587285514  0.2448820543114419
  0.8913610168555781  0.7468750884335590  0.2985158444859183
  0.9566527267699795  0.3184331647221832  0.2332656111638371
  0.1446335860319458  0.1539519793975702  0.7849099454534201
  0.5324912628688899  0.8686719936758504  0.2539998503121106
  0.1724534594893361  0.2181218737845095  0.7276023155414170
  0.9535952254930240  0.2728763489334162  0.1915437997309697
  0.6441327797850647  0.0359241400941636  0.9792324690655407
  0.6299853521367106  0.9522379894456593  0.8935911461360266
  0.7308795810464702  0.6989580805256487  0.3141029133847221
  0.4209881066485836  0.9496521564197994 -0.0033674043124946
  0.3875910639285309  0.6649423154475593  0.8109350805087613
  0.0580526600085782  0.7347089827329211  0.5741460199641411
  0.7210197616352488  0.5934751119529991  0.2865828996583658
  0.9334695920492899  0.5959219439108844  0.1306022456839320
  0.5114909678737644  0.5927264923361045  0.4485122784526697
  0.8838325053916269  0.6262802635067048  0.1040211774114506
  0.1800075627207723  0.7466797658769689  0.7279053647693369
  0.8284908108178497  0.6194335284543167  0.4246753969826949
  0.3230329016710059  0.7053281446534454  0.8955002185835986
  0.2940643879512672  0.6299209205524288  0.7505474340387969
  0.9251325216594483  0.5631548009978526  0.4824167827487661
  0.1242395032220237  0.6418629557451272  0.7436683584003013
  0.7787385879548648  0.6714230265914853  0.1072509015821901
  0.2450815790167669  0.5939411750777236  0.6818955178091183
  0.1708369670019513  0.9853773503614542  0.5109741196825344
  0.7300933813538295  0.7832224374606658  0.0027116909581743
  0.1059747780386176  0.1052633008594544  0.7824560723196173
  0.8539287362856779  0.3187442515318280  0.1951066453697791
  0.8365404686215108  0.7197767573477554  0.0578247210925657
  0.0729851429986772  0.1741324941272518  0.7017412198995162
  0.1384970402973055  0.8613521170267321  0.6930833662659247
  0.9423894016629676  0.1654041920672285  0.1675652565777291
  0.9478192128668000  0.2107373585646367  0.2100936882059518
  0.7571354936406260  0.3996120387226391  0.0097973320239923
  0.1068966158118804  0.7927550377055439  0.4205216969235908
  0.6837515873247568  0.8060346486603702  0.2099517108552205
  0.8743329941221805  0.2936190093192765  0.9749420378426525
  0.0977855856685097  0.4021547162149758  0.6219127661851477
  0.4691746199681404  0.6745203880997163  0.4566998950005972
  0.5081789639671243  0.5479977570966270  0.3982387040906019
  0.5085191542537082  0.5326602309184342  0.4594221788986166
  0.8545679847980965  0.6105095365782952  0.7079281971695447
  0.9093387098903823  0.9406300852811451  0.4189581542918102
  0.3726892926904080  0.7096894716812661  0.8558028522056302
  0.1989844691798692  0.9813837082989083  0.5676631985792457
  0.1846690485304787  0.2356909063686611  0.8954023467056627
  0.8199182936104239  0.4997146149813575  0.2331740554288363
  0.8654740400405632  0.4235222988191398  0.2151173070128130
  0.1197282006994413  0.9425444541297917  0.5156253213262360
  0.9096583351464449  0.3497724917098221  0.2016038310506330
  0.0952776352784748  0.1487279070718205  0.8253124753078188
  0.1814075622706616  0.9254825209956853  0.5411811425133529
  0.8562368577737094  0.3620698615106053  0.2365583790417784
  0.9578558669154986  0.8397940867520657  0.4751872632251077
  0.8426859472412144  0.2245819055799488  0.7889671371942791
  0.8455456844384822  0.9868572254532134  0.9110389353745734
  0.2974316935403439  0.5640727252634666  0.0360509137199105
  0.6858223071414653  0.4455184228525116  0.5314487332812380
  0.7868373576811605  0.4901521745384915  0.5616594357188062
  0.6203482438985732  0.3415439169519722  0.5196626345422001
  0.9803350306123086  0.7240348858596980  0.8831541279358296
  0.9402577367281644  0.6725915263033623  0.8773151832753742
  0.8266309970844057  0.5682263801330942  0.6708138941302060
  0.8381286419873198  0.7663475439284081  0.1033861335347230
  0.5640775421275920  0.6764224507306615  0.9771283622549459
  0.6313433880442882  0.2610838031969676  0.3702557249399887
  0.9205781196018042  0.7024153961634932  0.7530629738329683
  0.6787810913950093  0.1850162194584007  0.3547871536015010
  0.8854799668344122  0.6750543219808220  0.6520688522863124
  0.9448160880803653  0.6662576360739683  0.6757063503982521
  0.8199553893801401  0.0612463454841561  0.3367658266293310
  0.6963788389146094  0.4320943923272835  0.5940627222702317
  0.7601979350521602  0.0570123125723718  0.5018925617686510
  0.7564960514548947  0.4232855301891966  0.6162098618951221
  0.4840654016587800  0.3637579868488781  0.4610128769466122
  0.9495382918797768  0.3861409583314405  0.7405351554365970
  0.0217313974524537  0.3342384566221971  0.7147732102744434
  0.9104923964758955  0.3364394817108841  0.7350478178076795
  0.5594854124085612  0.0229109348907933  0.0083151941250976
  0.9211104493906541  0.2936212799033660  0.6889053640104672
  0.8599150448277899  0.3018611576052717  0.6690764449476472
  0.8924612212544709  0.1975145168502431  0.6382296264134553
 -0.0015946977918712  0.7951768500017063  0.1531899082824615
  0.8150543510699189  0.2191468128914964  0.5579969092841517
  0.7502368539881650  0.2439023702945276  0.5328157974374834
  0.9772030760716878  0.4793539458579343  0.7917010948905144
  0.0459431445675947  0.7217135889310546  0.1348428232125564
  0.9001268555416168  0.3489971857451157  0.6743124390358211
  0.1483735570404873  0.6748122793566400  0.1240623354820540
  0.8424852933163892  0.3306469884411060  0.5465822257061091
  0.2681834501694960  0.8107476938731755  0.4666342861086107
  0.8558700650426732  0.1889985309214413  0.5212534912024135
  0.5778241237261172  0.2092086223924605  0.1949905932942040
  0.9376759615688032  0.4303890569754826  0.7852428881860741
  0.8164160347544805  0.4467855101573509  0.7428293731783255
  0.7744293428932577  0.0910693081437306  0.3095690685071812
  0.9031128390720301  0.7326400973091503  0.6281467219357562
  0.2699568319828194  0.8805855575971417  0.4541208893982985
  0.7363026301014249  0.2645873618266584  0.4081476032660678
  0.7866866328805778  0.2329517574239113  0.4360351560872706
  0.7873436813694933  0.3828769952703114  0.7995018105927171
  0.7330710778619592  0.2153295360101699  0.3639120464742598
  0.7284788360486041  0.3613516006373945  0.6691721240225239
  0.6693444822594476  0.3690573965710546  0.6472934464476288
  0.7193641279547325  0.3755300609922424  0.6068225396050684
  0.6803151321893041  0.3252346824669708  0.6040777444827474
  0.0442707517791343  0.5919867835652800  0.0011023617958162
  0.9166450186125098  0.0054117700472678  0.4001425989364145
  0.9422349126449395  0.5605692631046351  0.9138279733550988
  0.3259109587048210  0.8496553028085215  0.4760180375712131
  0.9059648377554069  0.5320651652395491  0.8137988708770710
  0.8793826021040771  0.3770742677965861  0.5562062374030350
  0.3617413736615877  0.6859344923229409  0.3631696597599778
  0.8867369803713048  0.4241592715941327  0.8259858739121947
  0.5909836793932994  0.3795174169714239  0.4244817288244799
  0.6728684287428545  0.2040459891059614  0.6747182845064259
  0.6339462690594840  0.1543009704967838  0.6676870928983981
  0.6842506723408406  0.2809802471794826  0.4413347446863088
  0.6893891070556095  0.3415005017363180  0.4248418099370256
  0.8659438090175916  0.5121549967781953  0.9135300621792516
  0.9246436808245283  0.5040495218677831  0.9347976559421350
  0.9350223824462657  0.6819509492679890  0.6136295577621569
  0.2227939429435585  0.9098073911631258  0.4929303480215150
  0.2149386712900399  0.8553999040126563  0.4439851738452896
  0.8287107808250388  0.6522296974838796  0.5276186003154740
  0.8462026129048534  0.5113202215949486  0.6876056130547721
  0.8966250118264416  0.5461557152264598  0.7531951499837750
  0.9247901128740403  0.8093693890964109  0.5205688668726842
  0.8363078526528981  0.5539255485725917  0.7309249870486633
  0.8414624735858235  0.2049734424131083  0.4601015509176941
  0.9976394504075409  0.4220990974297996  0.8056252436296575
  0.7383794951085669  0.3458113329337941  0.7319599208517320
  0.6402578786638429  0.3050581345257525  0.7057739187576380
  0.8029298561298027  0.1556040940684021  0.5275821402648784
  0.5892613142420724  0.2699641649564082  0.6376587405999105
  0.8653131128030086  0.0723890358725582  0.4767594229299271
  0.5377928700928529  0.2334936347140077  0.5711831299017668
  0.5305713519799852  0.2393104620987736  0.1681905059301428
  0.5550375624529820  0.4980738643055915  0.4823807787539227
  0.6622686699113238  0.4494806692250694  0.4753808039672043
  0.9389131293687234  0.6513949913240802  0.5115389421016698
  0.7007751385475913  0.2970976858384319  0.7278027624926896
  1.0091052876497326  0.4101096065311437  0.8680957774234327
  0.7131168441367947  0.1398659883791568  0.5132246262097533
  0.5117466165396763  0.0186602051543922  0.1082479607081560
  0.9267579712549395  0.4427979079935875  0.7254042185164732
  0.1114833042513809  0.8705207834962155  0.3438933012934464
  0.8778954166314245  0.4074864759330316  0.6610026265524894
  0.8162386812036365  0.4173402522660999  0.6378451028465933
  0.9256069225817080  0.4131050301258602  0.6207234354048539
  0.7688310675973973  0.3817896509283602  0.5605817334918558
  0.1538881329891472  0.7483196354219261  0.2767809622704998
  0.3021870777898333  0.6261623211800496  0.2462166169500191
  0.0558624885463084  0.5484661286932306  0.6985828021818197
  0.2979247937346342  0.5818052834100946  0.2022080962993341
  0.8529900854454244  0.4420750025281231  0.5400977946463511
  0.9634674030163690  0.6081981649615509  0.6926126875442956
  0.9868189697789405  0.5709335952188098  0.6143855313561765
  0.3897836737185009  0.4101430702014565  0.2338245524671105
  0.9200700683547740  0.5963138133918005  0.5299562845002572
  0.4376002159830428  0.3454192592094330  0.1567739094817907
  0.9491590193263196  0.6588594805250433  0.9401096974647083
  0.8767526551578003  1.0268679624226573  0.1308944166509907
  0.8153887850043663  0.0391734629839324  0.9276951869716258
  0.9665262548003701  0.4927940731345599  0.7313571784105793
  0.0671513421402380  0.9474274100425321  0.3622737649703106
  1.0027718455889583  0.5538068868419587  0.9361167036660376
  0.7755808922924092  0.0726425819568201  0.1384119024571967
  0.8964867030729657  0.2303301984003365  0.7479558555996400
  0.2437460377291461  0.5502737694911407  0.1929791096795362
  0.8041686343446022  0.1435926025685509  0.6761112455436696
  0.3429536116606784  0.4540567349513602  0.1437651080351244
  0.7565483808982190  0.1077396264616999  0.6061183661643185
  0.2886581338004294  0.4237137560498189  0.1356890684029627
  0.6625378282314049  0.1064700246267702  0.5105078668591931
  0.3893981544914653  0.3761598361133954  0.1311584577724534
  0.6008645085370804  0.0278023400091121  0.4582941918845009
  0.7537635928743930  0.0381824448211526  0.9056766028409351
  0.9025718573039621  0.2451304696837742  0.9337649866877515
  0.9924809200459698  0.3017972300777255  0.8773207344600734
  0.7463939161597319  0.0193343723394520  0.7881653085731767
  0.7611305697707099  0.0015004308426063  0.8534364919384124
  0.3864323024515626  0.3329391122016083  0.0905208510404024
  0.8310885839362580 -0.0004844074127741  0.8538612808503293
  0.8487550214636581  0.3458879609268839  0.7139131069437881
  0.6279716508186823  0.1786596891079999  0.2233269999967212
  0.6227785234511732  0.1194721453094221  0.2422656310966231
  0.7517013008062670  0.2732238781981093  0.5804255335919754
  0.3321809200619508  0.3463935344046651  0.1226609653312080
  0.7985808244965716  0.0503972004620814  0.8597851067925294
  0.7680210912824971  0.0582620006775346  0.5591893817247248
  0.3765248387049431  0.2695136697874181  0.1073589206172365
  0.1856867289485598  0.4426429396549498  0.0362713776040616
  0.2448960831087565  0.3540831941233596  0.0262584267795164
  0.9431729635317485  0.2344227976318607  0.7049537547221316
  0.6697425176369212  0.1653731921156354  0.4873758755156488
  0.7743359100986836  0.1265640173913648  0.4138215572276581
  0.8555308583198560  0.1483617734544050  0.6362555132042668
  0.8124372695386949  0.0268382448219408  0.5297855768049441
  0.1882070929381672  0.4857026095265653  0.0814940383574560
  0.1402567158971764  0.5619017164815316  0.1003291316723236
  0.4762830171820789  0.2247769769341580  0.0978314583220078
  0.9526283949976352  0.4784160945524098  0.5657422272842920
  0.9047787279856159  0.1825219394376932  0.6990503556317536
  0.4713470847445943  0.1785759725685555  0.0528107617125055
  0.8413932868934495  0.1915663311608983  0.6784443826620764
  0.5190683811765762  0.0867115530806883  0.0943062540876017
  0.7706412245403326  0.2147787561505370  0.5975858905037638
  0.5202912471922835  0.1318391214497659  0.1417963508028841
  0.7331046815122338  0.1609819236386198  0.5912944507998737
  0.5704543206130319  0.1133851607709390  0.1096131393856992
  0.8040726032223325  0.1746744296395321  0.7832885333857624
  0.1805201095267610  0.5274863901071368  0.0047536163750964
  0.8250989870561014  0.0863521573063963  0.6919651870132754
  0.8661120575006563  0.1332122981222050  0.6979356749359319
  0.8877786702392293  0.3942043037998614  0.7202632853437324
  0.9411810170211679  0.4480125187682342  0.5120164153425661
  0.2877544413277148  0.4620183352371031  0.0045701857691328
  0.8482865805181516  0.7840832365755988  0.4440896920988641
  0.8742505023238442  0.0199194273181398  0.9563402261906064
  0.9980567280832570  0.1303799660029709  0.9640483841025914
  0.9354185979337543  0.1444775124391709  0.8852436576673038
  0.9939769487141151  0.1364054292513149  0.9067779992325090
  0.3725587393050823  0.2435494388357549  0.0046499761869341
  0.9305573212383953  0.3106647690997015  0.8565327310327566
  0.9468235966381354  0.0993900012616860  0.8436005973042104
  0.4173755299257498  0.1482858969495683  0.0390680171609404
  0.4022853645698600  0.1079283083484202 -0.0049885078534911
  0.4103087843856599  0.0906196685881986  0.0599647724676488
  0.0000618878473049  0.8148527977442157  0.0921102081624798
  0.8183810476844309 -0.0131265890855515  0.6711631924325603
  0.0492643007360808  0.7382955654336487  0.0727710763229224
  0.9648149674386732  0.2081330641541208  0.8278274037717411
  0.9744387460059457  0.1629674173895369  0.7832154242992866
  0.9254351771048701  0.1262321901598042  0.7189797742279774
  0.9088655383118535  0.0508961414122638  0.8429280197584024
  0.1055791976767362  0.1357009799103893  0.8856223847440514
  0.8683257768747359  0.4390344592524989  0.1546539576442428
  1.0009070787112861  0.7911605764479286  0.3819635371084174
  0.8691478627166043  0.9638937328037350  0.1451324896641555
  0.5397973213533126  0.9634670598071348  0.3442625317006330
  0.0480426230428014  0.1332563264553935  0.0970833142715016
  0.4144127765397174  0.6114082729131627  0.5789254545534832
  0.8901609274293457  0.7503172261283044  0.0673732367903334
  0.8886150790924952  0.1489750097074867  0.0946785547926386
  0.1911774942965707  0.9273128378416075  0.8654758701887191
  0.3164645791923933  0.5663015794107393  0.5557382808891593