C  Cr Ni
 1.0000000000000000
    38.7782925608872873    0.0000000000000000    0.0000000000000000
     0.0000000000000000   38.7782925608872873    0.0000000000000000
     0.0000000000000000    0.0000000000000000   38.7782925608872873
 C   Cr  Ni 
 106 1596 3725
Direct
  0.5233147534548573  0.6512200903432501  0.9847713449348503
  0.2789243939506311  0.8540745293727501  0.4911025029205708
  0.4967926370562663  0.1912548528291043  0.9741577974256816
  0.9476414715048569  0.0859307344019874  0.0385908705519698
  0.5799481848191861  0.2394558004909502  0.0202982738738057
  0.2673394560122900  0.9319624876702026  0.4847659119808678
  0.1932919285932588  0.6257586502449647  1.0033100948342892
  0.2872403524137842  0.3362515050553515  0.0696712083673519
  0.9447945967248061  0.9556654730835752  0.5422510138021462
  0.2724698446854916  1.0444174367170385  0.1194461085504693
  0.7453653594626485  0.9211289510541699  0.2927071727115728
  0.1936273801753316  0.8254817633411291  0.4716498699930139
  0.1049929422824969 -0.0155512445047700  0.5062833016230521
  0.3961549886026953  0.5780191334847673  0.6792687784989342
  0.1719319073033704  0.9441967181137928  0.5869453509559210
  0.0058070925845604  0.8007205116879169  0.4998899594318689
  0.6894139850230657  0.1667662530874635  0.4684855535020894
  0.4414402035554774  0.1836795444949914  0.4151453165946786
  0.4318116742258186  0.2480069213231101  0.8931548548619597
  0.3944571219929922  0.0232186977881586  0.3479986048928363
  0.1902684791393738  0.8830019704685330  0.5204159338994286
  0.1200321754004245  0.4152574132019729  0.4736519002195803
  0.8021224069488259  0.0220707846100054  0.9517907171366019
  0.3719543959007562  0.1402375443743693  0.9844874628964714
  0.4074866825557086  0.2203620140611409  0.9775484520399457
  0.0685365918163693  0.3814089764969305  0.0892407480817095
  0.2578010821879054  1.0002808009573292  0.5532748230260134
  0.1844116590872297  0.3278504271107054  0.0302482668429712
  0.5733314482906299  1.0301871427444933  0.3563541702833770
  0.4196439721307865  0.1591233905316002  0.9235443172027464
  0.9992302846713804  0.0966018062431844  0.4916176447245654
  0.0607921241937169  0.8628487745244976  0.4958130914080889
  0.4606244985237763  0.3814801521223630  0.0575680982953855
  0.8470573841921165  0.0771391978833541 -0.0271455492401708
  0.9925314862135914  0.0269913403288295  0.5153376186290574
  0.3456626499172943  0.7992364781970338  1.0087505853311403
  0.1902697636101929  0.4150056009128149  0.0294643238335729
  1.0576313309547263  0.7348964004018791  0.4579774816582853
  0.5291772505714011  0.2290402987815378  0.8888181634941880
  0.5634873127876546  0.1548564591399297  0.9134462989944698
  0.4213192430116531  0.6703903505271819  0.8314806397366085
  0.5473963935019115  0.1661546802106555  0.8445971025667672
  0.2682396040013517  0.9196196653448190  0.5668009857955330
  1.0535407449492986  0.0675461877092261  0.5323033381295725
  0.8748289770520776  0.0003792550563102  0.9740350819459715
  0.2894571452733522  0.9722662101958561  1.0053252940961503
  0.1443722180032655  0.2362171240750426  0.4367412577604696
  0.7679896458580993 -0.0063877471375662  0.2685379190459825
 -0.0420650802111486  0.8717492443276806  0.6385231903532596
  0.6702211716298732  0.8585669497461375  0.5403754633807620
  0.4207481221600439  0.3225370849319890  0.5389957232576399
  0.8554452621688771  0.0817698232486069  0.0687715352282721
  0.5218036463035043  0.8140509185457350  0.5618314022913936
  0.7442346963485729  0.0689464339688564 -0.0160756738816795
  0.5618515869099526  0.8342226842673064  0.4754519490520701
  0.2645456760800745  0.6022134148080217  0.0221730473006106
  0.5784027181665259  0.8998521588506232  0.5456897819427199
  0.3922052844640084  0.1146711726635108  0.4467242090179558
  0.1019645328504021 -0.0738819603372061  0.6246709467470508
  0.9793126332031432  0.4178387310942959  0.5281681396753708
  0.3628024099937989  0.6369667238436535  1.0247602950288104
  0.7431669228440531  0.2790167782333654  0.0712783807915059
  1.0335951178519502  0.2836981516373669  0.5151462288884542
  0.5519261096792224  0.7793826332419832  0.4310040915191514
  0.8797915476146850  0.1740039369465080  0.4770164501634285
  0.0848110284375306  0.8447529139930908  0.5786367287478689
  0.4755177964701912  0.1649274329251350  0.8802495798475785
 -0.0444621495184867  0.9465559532366360  0.6188682128472086
  0.3991585073207181  0.7636498075556621  0.9710871361871409
  0.3609971472435909  0.3743931855849035  0.0787893351559153
  0.3832980513099856 -0.0014130141147877  0.2569501572096031
  0.5180485480785615  0.0296400948189093  0.9809396309739286
  0.3751965121711623  0.6695144571149968  0.9561568149449564
  0.1039393293436762  0.9174972292221042  0.5284045910930552
  0.1361028248975789  0.8370022962168465  0.5153811928029371
  0.8488990502224664  0.9875896000869897  0.8967804594187775
  0.3865877466253659  0.9460484089841744  0.1947632967528254
  0.4478246089889280  0.0275491008943519  0.2685802094400012
  0.9148522038617665  1.0152046343875427  0.5609935423193413
  0.7892327949336777  1.0104904986195649  0.8148395256675551
  0.7402350702120017 -0.0008528232181673  0.0024606642697821
  0.3236253307222377  0.9605343536113601  0.2409296637175543
  0.8488862729615653  0.9018737455830395  0.9571455133701056
  1.0530589364082512  0.2113939418825487  0.5296846678657744
  0.0221293335840150  0.3446122004621904  0.4694483517042148
  0.1879430589255378  0.9504884772280446  0.4896392535457063
 -0.0569688456219641  0.8202329183608839  0.8982898436041024
  0.6658752349957527  0.9063064083027719  0.4343325624469627
  0.8374744257678743  0.9554484983422473  0.5729169646945171
  0.5800010713629258  0.8893828916132823  0.3995127147774268
  1.0161361733559335  0.4133465928922789  0.4356696307309215
  0.5550099916104662  0.7633929685218790  0.5073128936044724
  0.0246994094752921  0.7746369260736718  0.5796511037463842
  0.2149576981696652  0.4033482182802750  0.9666004488517711
  0.4856470972115219  0.7875579040576064  0.5009741895367331
  0.7276823654168052  0.0786038635995607  0.0176466088903491
  0.8182982583051555  0.9443879090671902  0.3188096879467550
  0.7199589754620627  0.6436872747459287  0.4888947680009826
  0.2203668922146155  0.9727168304356107  0.1793618258836168
  0.2765843418477709  0.8469565133375271  0.9494318259699451
  0.4928495771294628  0.5973815382658617  0.5102896299425628
  0.8723746229937650  0.2994947682549861  0.5197435816732392
  0.5746520167263235  0.7808874882179089  0.9494003257938473
  0.4828944507752538  0.0005133092808195  0.1339617497964681
  0.3251950369306168 -0.0074534057962007  0.3357743497825468
  0.3692155515970309  0.2470872263315614  0.5139215533995406
  0.0841262577776051  0.5465643359613087  0.0251260792613354
  0.1542869707518826  0.7567788535363833  0.0499915699689685
  0.9277251180537922  0.3396403267178374  0.9653552196060703
  0.0764493610315521  0.4120582635654534  0.1261009775578705
  0.3800252856632477  0.9147269721179624  0.3635956033766234
  0.8209202757139705  0.3127002525730915  0.8781733601249084
  0.1610175642341001  0.2750576902056803  0.0331487747230671
  0.4916913011264660  0.7706403090194464  0.5498403296786522
  0.0290936741478044  0.3877481447552988  0.0528836829769430
  0.1680923123041425  0.3974962883688369  0.4672434516672075
  0.3007198506509665  0.0081302841439791  0.1009658894409551
  0.2715331343431963  0.3563695651359463  0.4499734845235332
  0.0801829732430110  0.4729753487179678  0.1054517666928894
  0.1620997145202338  0.2396566622722494  0.1603403709388044
  0.4923250976737118  0.3939567344974806  0.3295408819775827
  0.5892689451619791  0.3171124489317872  0.2175254261584113
  0.6324688662058144  0.1540586501135102  0.6695297284523691
  0.6604499621102593  0.2175719837314737  0.6147645816529597
  0.3073061827117981  0.1173566686835604  0.1355065009850076
  0.0291829012254846  0.5029889169020594  0.3076582342775077
  0.7718881085491921  0.2759363434606054  0.8111017172079573
  0.1964750330959142  0.0272155783999044  0.0036955267389409
  0.4036709703158406  0.0245808192337597  0.0714089992707450
  0.1942403901065876  0.5955619284625175  0.1079230951095510
  0.7039752142154642  0.5938280180366842  0.8269574211276252
  0.5534618108312928  0.0543518201203209  0.6602042813583073
  0.0276336747233741  0.4867906210425055  0.3707066933861649
  0.1369191738852054  0.5841980966684540  0.4961904688017043
  0.3482939317489784  0.0359913402727576  0.3349190773729891
  0.2780021088928496  0.3485706893675410  0.2167829264391041
  0.3547925105572553  0.0485482637849708  0.2755315195263403
  0.2542894932544399  0.1909565736376145  0.4499849485461137
  0.1545042981180435  0.1913260129696414  0.4086342663514596
  0.0260707208642928  0.3861161371416619 -0.0068477205885965
  0.0093332682261621  0.3037574609555321  0.1988669059240346
  0.0353033200892137  0.5647998065939117  0.0608194086974012
  0.5292473047260307  0.2215164431870180  0.0006487194427439
  0.5125085285813319  0.2260335762489610  0.9364824866903123
  0.5301920626891745  0.0806040760860476  0.5312217774860439
  0.5092305068257540  0.1338461564441906  0.5201718629097785
  0.5226006466331905  0.1240015335449086  0.5805881606480697
  0.5727315101589272  0.1613196300860748  0.6483034833845491
  0.1568551335416522  0.8006006958154328  0.0934747542087661
  0.5123818112036399  0.1683264976876841  0.6284699925858005
  0.5620028906490558  0.2054935083148202  0.6928319974672768
  0.9773057513085166  0.5029703758739901  0.1745408787249997
  0.3030576138573497  0.0715496177997323  0.0887813185641309
  0.8468764799411928  0.8877505431477198  0.6385268184855527
  0.3744982735445028  0.1065330991331355  0.7032714189068306
  0.7871822461172834  0.3369012464999057  0.5202207116296328
  0.7440151228510764  0.6423623209733301  0.8331217696600861
  0.6448269373241631  0.5991031902008337  0.8057941875644276
  0.6339539509176071  0.6142589072599962  0.7439133140664654
  0.8995065027200134  0.3067345886341487  0.3944910088285305
  0.6055879309872527  0.5715230420031107  0.7065399394392019
  0.8203094898965025  0.0997368839360415  0.4446705623895782
  0.3589477801563658  0.0889047133504114  0.5335293352689793
  0.7058432456913101  0.3540370817689329  0.0036472922735803
  0.6003012285907586  0.3168287514120937  0.9132248891609627
  0.6305927435062552  0.3488291878520965  0.7504169852190171
  0.8554797381305895  0.9456995292076033  0.5224008446273276
  0.6593626799395823  0.4864398703430748  0.3553079429908563
  0.6468587373830931  0.3803899633105112  0.3288780943413739
  0.4457062155421298  0.1228973414652702  0.8939242241479674
  0.4560733080921766  0.0771425899180513  0.8504144715079005
  0.6927059718139430  0.3182413807868417  0.2531668832426505
  0.3963504451091870  0.0826230199330704  0.8278055377869623
  0.3853473020106727  0.1259038165729428  0.8697127181104938
  0.7881624140583817  0.2118146596707561  0.2677578143519110
  0.8825894574115667  0.3053035351462829  0.9020212830596052
  0.8945857739943739  0.2893349786526664  0.4653964152552104
  0.7718375168672479  0.6855749372369653  0.8717675440262843
  0.4124305770726338  0.1279525612895253  0.6012674707684971
  0.5191113144412414  0.6697542407774875  0.3642470917679743
  0.4305448635379021  0.9143991510938592  0.4946125087691973
  0.9830615122976558  0.0922792284041246  0.3871905375701711
  0.9872129448205818  0.1403791330333753  0.4256766191204340
  0.5750276209255337  0.6119186086085430  0.5194868998983382
  0.5965064344372195  0.0691116500183288  0.5581288234609697
  0.6598321807500543  0.7638220246738155  0.5479641837158096
  0.4720869557332352  0.7359135896002320  0.5021003264771423
  0.8929684078298606  0.9651867016794425  0.7549567530871487
  0.9642402718851331  0.9429556509092976  0.8412616803793868
  0.9323177484567811  0.9824890379198710  0.6507279014777548
  0.9510429482408442  0.9251917149229856  0.6665109434377388
  0.6644909888208480  0.4473931921940275  0.4771967170287141
  0.6556530246217129  0.5463295307697028  0.5619017091938366
  0.8108832755004087  0.9127356373822990  0.5631987630863539
  0.8269668204814399  0.4359756962892141  0.4795848087792207
  0.5771502579927940  0.4778715031279789  0.6585462767062836
  0.9145771934036925  0.9167162103697311  0.5425584799025466
  0.7990042007704914  0.3535004093565629  0.3946882249921535
  0.3888038889278828  0.2996504264370362  0.5076584858346228
  0.5258391000896319  0.1865697580743578  0.7998092912305783
  0.5141605546644702  0.6389003510977296  0.2588892239798224
  0.4622003739358094  0.1638802370236148  0.6670530785470816
  0.7765718484013191  0.5329570956317514  0.6060358133544980
  0.9630606211469709  0.0175324800400391  0.4761509656550658
  0.6162521367309330  0.4986489487757182  0.5585258829192561
  0.5801771504388448  0.2835276962375867  0.5745391603200795
  0.3835951755194655  0.0633311108424520  0.6581764128492088
  0.4426049821868843  0.0569870421151788  0.6795276896916845
  0.4839875711670111  0.2837024803906359  0.0800638432598287
  0.4590280779601166  0.2249646379779540  0.9750519411288779
  0.5556288991161772  0.0860589998920417  0.7662715490335416
  0.4409354176429875  0.3605628871811874  0.0988217611202857
  0.4994315287822895  0.1294862037910209  0.8513363618893774
  0.4953913251974204  0.3444259588788720  0.0572241591445102
  0.4055952641554032  0.3751950680228102  0.0516537769193737
  0.3444210532679131  0.5025493963003779  0.1861845506733498
  0.5938887547896804  0.1664279805541549  0.8745709273969250
  0.6872612574732719  0.0930872456805831  0.9813175585506119
  0.3998900123387280  0.5019030038422055  0.0911853534886932
  0.5256737055991078  0.0249481231568356  0.8271944193756533
  0.5710409590644657  0.9608139946029091  0.8717535590533806
  0.5477665883491951  0.9972408241101870  0.9535600670075288
  0.5270936069757545  0.0586855532916076  0.9374632180505131
  0.5555178209921419  0.1197859594759120  0.8738259136060031
  0.3523643543492971  0.5818715492562802  0.1045684597831245
  0.5508428234034172  0.7687433963117751  0.5630602473821142
  0.5037318973416831  0.5016798593368799  0.1267414988130098
  0.3592106223707280  0.2868628895887003  0.6139829500631012
  0.1706921422573268  0.9491282026126402  0.1698643628390025
  0.0131870388958607  0.8836639433036395  0.4775635926294582
  0.1306188637568547  0.4564946784019545  0.2998510079902947
  0.4688779686120080  0.1788710525875942  0.2810569343332937
  0.3718639694925683  0.2591295217528235  0.3997496513894261
  0.3727917356211491  0.2729840045600145  0.3352720907383392
  0.3267005689269528  0.3404937279981907  0.4159490813053648
  0.4254446982821488  0.2887365289236097  0.4044331852845013
  0.9935914640040187  0.6864575279822058  0.3505933349116292
  0.2361392030825748  0.4413671110914243  0.3954862278524269
  0.1895406658648331  0.5171720190393091  0.4158345033998825
  0.2933663444132966  0.4742271034388461  0.4062829186770536
  0.1337524852325517  0.5026733961367557  0.3447185858588790
  0.3616376460540017  0.1640581034459666  0.3056250361575678
  0.1893145058399847  0.5327614035051489  0.3535491392130031
  0.2982037239955752  0.5799455573538773  0.4322390379933371
  0.2446077153274979  0.5636968756464641  0.3629147160798843
  0.1359169967463363  0.5312442900908411  0.4527759817877420
  0.1025548643719690  0.7311453832207723  0.4333560379058189
  0.0275386440907891  0.7467479164355735  0.4959224908212296
  0.0449508088466553  0.8192341561347833  0.4721908466927884
  0.3138628969880350  0.1972841722776377  0.2851102313733772
  0.0362846840405679  0.8277970475547249  0.5819993877204154
  0.0247715048700922  0.0538404532675750  0.4893161514158197
  0.6868152716190431  0.4756787225640135  0.6398938420517516
  0.9639843373260222  0.0020502486981335  0.5466253708326256
  0.6446968919792955  0.7053568535138394  0.5643492695191520
  0.7382777538927555  0.3105855609704297  0.4525698546987220
  0.0701833270667291  0.8858951687985851  0.5462206041575072
  0.9204103556236021  0.9699779292745470  0.5881234352101448
  0.9817807395887731  0.9905003573296947  0.6108687334248235
  0.8073746058765897  0.7591896119735155  0.4851744014157960
  0.4718727721784260  0.1173041391530338  0.6208952639368701
  0.4831989728708502  0.1072361441117163  0.6826678055656885
  0.5336382116357619  0.1109771678171766  0.6420378478108929
  0.5953035308404035  0.1359500896319066  0.7701788759280324
  0.5747834757194209  0.1878066249071263  0.0328527019425108
  0.7505778259055229  0.0291953041134268  0.9534529131556121
  0.5867408646214853  0.1790578965509607  0.8132371264164379
  0.5753637987526745  0.1759491830388481  0.0919623730585984
  0.7099729402012961  0.3128933148576852  0.8974263453204129
  0.6266176090151310  0.2498186344456205  0.9910739814728339
  0.4820342757660447  0.2405461864823981  0.5502444276947627
  0.2581809731959284  0.7339221830241851  0.1430456011361907
  0.2664941500548038  0.8417373362252411  0.1730227546476955
  0.4139193822159047  0.1176156798173727  0.1654822619675750
  0.1166533168154064  0.3697451910086739  0.4456705571087126
  0.4952259535515881  0.1273945653990965  0.4555404345334614
  0.5152333436521098  0.1319644704923426  0.3656014078886630
  0.1125787363710889  0.8543117272896584  0.4059028838004963
  0.8789606848720466  0.0912798799960991  0.3458794315719302
  0.8362944260777305  0.1695491487511063  0.3577255086239821
  0.8322126268781850  0.1455513184130660  0.4816318911464628
  0.5925460524057717  0.6993797900740414  0.6069349104649203
  0.7722927884208527  0.6749627875561162  0.6708670391852797
  0.7290105734983878  0.7690825094575089  0.7318536526332728
  0.7713550762003616  0.8196419652058772  0.7389016142068474
  0.4183568553907761  0.2472391750682976  0.5272843205300524
  0.7788222283741743  0.7758904306733790  0.6942528353097599
  0.7809726649260840  0.6840614545887790  0.0491358852444787
  0.4937658024637701  0.4092886796268561  0.2674023975352821
  0.5302622695222349  0.5648292223288123  0.5164033468728474
  0.8219647618467401  0.7927326422475960  0.5922962542924211
  0.4803497756356163  0.8325388361866075  0.4749669566719006
  0.7467260946338561  0.8465990609612902  0.6141366818244441
  0.3700131980940858  0.7759565072908711  0.4514256443432301
  0.7984745975440007  0.8815045471365939  0.6820162278245090
  0.2328633137003206  0.0183181749360509  0.5147740089482880
  0.8631842867459485  0.9021767922302252  0.8116748169891618
  0.3834175326480637  0.9615160289985151  0.4096192105470425
  0.9638021379471478  0.9722332408789833  0.9467336801996943
  0.9182458798745763  0.0166209201592583  0.3366744610266742
  0.0511935944960861  0.8349527146642850  0.8369625884261102
  0.9406828899405089  0.1697068835854476  0.3950742548447502
  0.5335169389020131  0.1658086629869832  0.9521795132884667
  0.4087788186764078  0.7476999840623656  0.0215765444468161
  0.5244668737705177  0.1770697418410355  0.8883762333026644
  0.7128504942443783  0.9586354758172719  0.0244629430215048
  0.5339395717880744  0.9183612375949446  0.5307955502138938
  0.5895362910365914  0.8581757247601394  0.4399481783413791
  0.0347122612966128  0.0780933016957857  0.3535459837122152
  0.3815294658890506  0.3225767071186179  0.9494004460211188
  0.1646407216137731  0.9275387569961395  0.6348830607462936
  0.1649472711507416  0.0683091831870406  0.6964320279493188
  0.5696619424616536  0.7351575241730138  0.6874828217747301
  0.2651407397479921  0.1099271263085954  0.7225403609280007
  0.1947921658927353  0.1616071495496108  0.7456559275066661
  0.8458774048789028  0.2783405137746851  0.3827165053766524
  0.2165789222593967  0.1330354046905952  0.8702365251486588
  0.3321979619667478  0.1608463311320064  0.9567184022388350
  0.2685281044799292  0.1703474258468760  0.9384090585735105
  0.4607844938238040  0.2666170540283559  0.9296433524281448
  0.2259580425252053  0.0904899556666300  0.8269760292451701
  0.4391023342424399  0.4167248574593690  0.7320290727706223
  0.6403117649621612  0.7144344953207473  0.7687654705808352
  0.7195923859211188  0.7228828674288613  0.9587738332788510
  0.4649588594477850  0.6558690948736204  0.2919839183633581
  0.6625003129942451  0.6895068652737180  0.8911814480564459
  0.3035343603708478  0.1909794164426602  0.8316468774367911
  0.2166849061104895  0.8499731263864089  0.0422153308241646
  0.5302974809114243  0.8233629258611108  0.4395748894827417
  0.6184959083202657  0.4230242066807101  0.9002228951417166
  0.5841937514520409  0.7899476510087394  0.4666386800014247
  0.5701148381302440  0.3876900480974301  0.8354152675847792
  0.1796466396485297  0.9914763962193812  0.2101631210860818
  0.2271210049929612  0.9397599934641180  0.1380414568107884
  0.2913437484208600  0.1431292276603417  0.5579876200407046
  0.7700968158843343  0.0393832116824226  1.0215966911421452
  0.3415194417632558  0.1794588963515685  0.6261910916051495
  0.3320077779572272  0.2227568569803692  0.6695846709512820
  0.4034209138848539  0.2025533290676970  0.7511622330233821
  0.3330903610805484  0.2543684483883548  0.7750175040038109
  0.7202630106470622  0.3018862061068459  0.0311481259721663
  0.4814246252145497  0.3333783239326035  0.8693126250710380
  0.5541011037444952  0.4354381313276338  0.0480328506639123
  0.5314059503670399  0.3709311571002344  0.9360616184491928
  0.5016594966647309  0.4545993629658026  0.0819288485079965
  0.1777326649767278 -0.0077970359034298  0.4478036131947500
  0.3196652181948413  0.9300022911302526  0.5687633169277110
  0.4319672120492306  0.2961572019920484  0.8013685579494786
  0.3716030254922238  0.2733218470665874  0.6744919144371050
  0.2607578143548742  0.7783987576361634  0.0233785544443550
  0.0485379606371251  0.1841102346133191  0.3685917668933492
  0.2535106738394019  0.1242463502336072  0.6605119925300899
  0.2442121958318802  0.1985824484853647  0.8116950265070387
  0.5372816866935545  0.4268477689961969  0.6524135094507474
  0.6733257221738201  0.0828724540090689  0.0360387963654430
  0.5510173239889673  0.4538994992150577  0.2137879149012284
  0.6588147526850626  0.4132652630799565  0.6958350103106559
  0.6976286120742528  0.4613852788397833  0.7005151596567617
  0.4553768115268205  0.5633775862787327  0.2037475472191047
  0.6481735399008567  0.4552377181030536  0.7393949074554991
  0.4069781335661579  0.6097107195719201  0.3440726205690092
  0.7477029138786077  0.4971378893168492  0.7666413375279922
  0.7535602285825900  0.5986065180585303  0.7874969616134412
  0.4084608163688770  0.6250365268653599  0.2816548773825983
  0.7740369076302724  0.5705798355183029  0.9098928187289862
  0.0790630256109568  0.9344517146144660  0.1101339033781701
  0.8343319557801273  0.5560953175685759  0.9944631553449088
  0.8732227944048555  0.6116639594479334  0.9393871682305528
  0.8709200031343112  0.7256243685872216  0.8998400387279818
  0.1557790985079597  0.7811990984819788  0.1532788414355424
  0.2116989317546554  0.7942193971744907  0.2238033734296958
  0.8535100280510213  0.6395979072571379  0.8153860537188365
  0.1100139221261266  0.8583228464646953  0.1747466773098248
  0.8249831792110283  0.7494271515773905  0.5489884974758327
  0.7641554031619922  0.7620516292236460  0.5247188556277543
  0.1649323402914112  0.8878845434460324  0.1849812585130844
  0.4496341660788204  0.3435147556311349  0.5770306712701884
  0.4643847584844823  0.6702752415452421  0.2319326680764879
  0.4141552250163377  0.6869258851060354  0.2650033868674195
  0.7444457186028063  0.6070114058882554  0.5223154981829691
  1.0309704153812471 -0.0045786799067373  0.1919235380990695
  0.7076692323221855  0.6583163801915102  0.5374896963430336
  0.5984504224496177  0.2890101146482120  0.0370960690586922
  0.4922205237321025  0.3778408673522983  0.1619553589584964
 -0.0582213184635206  0.8376626747828746  0.8506529582536867
  0.9393586242209025  0.8090231599922476  0.7433918136148231
  0.4965039910497876  0.3924278177050297  0.0992160460668029
  0.9609969344960138  0.7815404986545585  0.8650192810625489
  0.9307804050328754  0.7559939817444038  0.9643893697205517
  0.9374837215940514  0.8724648726286771  0.9056941730354566
  0.6096446682876411  0.5148365871049650  0.4955423430687498
  0.4520740078658161  0.5173780807111011  0.1607932791844137
  0.7056695449905946  0.5843785128487625  0.6264640351074031
  0.3507867912783097  0.5655302595771399  0.1670826854075718
  0.3534805491796384  0.6112851109241844  0.2097783084219931
  0.8431418329146527  0.6538132043107554  0.7535455308189332
  0.3632949110288914  0.7177344909312737  0.2375618386188579
  0.2574624619262307  0.7172151255982316  0.2031181888120772
  0.7925810863906377  0.7923782351690103  0.8627151090390870
  0.8656013251886543  0.4084563865645496  0.9914481082709263
  0.7898188184971161  0.7628623447425832  0.7557058148945758
  0.9097955645294028  0.8792612765281149  0.6631639153541167
  0.8697856539076992 -0.0549346191924323  0.9783534764798404
  0.5098483246103489  0.3963170866308064  0.8134126471630332
  0.4792458478410845  0.8283238001205542  0.5351002251512524
  0.5632545218314280  0.6361248862649881  0.6628721199421215
  0.2191250653328336  0.8845375758807961  0.3166267366636851
  0.5095089612769281  0.3658154673719404  0.7051938111207914
  0.6689556152672667  0.3976130284725893  0.7557720156717378
  0.2688972993175421  0.8527711947400223  0.3413970593686118
  0.5087371640024873  0.3346402033214925  0.5957127818815156
  0.6302852312294022  0.3184762741612743  0.6433964216021424
  0.3174823450847788  0.7935801198398256  0.2588937125218490
  0.3164523770707189  0.7778723853533860  0.3196200891394977
  0.5125252464359659  0.2012267098555671  0.7338549932640860
  0.4173213897074886  0.7148092837860553  0.3717425995599303
  0.0507125888119776  0.7546493714753750  0.0125115586726130
  0.6453902550655468  0.3478823308179319  0.2253168717174865
  0.6086711802243036  0.5007549445719803  0.1620716192491227
  0.9433964527281763  0.3850313853991568  0.5158876079087108
  0.9926693984251089  0.4280649454049669  0.4805847777177312
  0.7716775611489901  0.5050537217173241  0.5011655429368845
  0.6792584542984088  0.9276512281434532  0.7460573291065771
  0.6696344595680387  0.9703377264572538  0.7896277089424947
  0.7505798947433939  0.8759251674340026  0.7220526014180270
  0.5574900908979213  0.5002364725262763  0.0327364743703049
  0.5586825176640041  0.5329166697432032  0.3637838022439420
  0.2700717998662691  0.8605316616247444  0.1143406924021143
  0.7083523420032590  0.4778759926131895  0.8676171249155734
  0.4131911238745018  0.1686778746530102  0.9730142808176749
  0.7199337728491163  0.0417413678427322  0.1260394664248162
  0.5130732739782780  0.2323468089590734  0.8388061574712494
  0.5702749230825439  0.2203878349779342  0.8577352585666366
  0.5468593875148486  0.1281580415032753  0.8093899698069842
  0.4454118961402711  0.0879711653879822  0.7870332738323432
  0.3945255981426703  0.0511639253128598  0.7214021494326532
  0.8788810541753035  0.0593581001619225  0.2390799891912138
  0.2326767221726566  0.9695072935018618  0.4731925474096328
  0.2191008493112011  0.8558449538508475  0.4389797670556733
  0.5513406240852887  0.3224313728050250  1.0156637207358679
  0.8614616185317248  0.9979215445595524  0.5613573000463902
  0.7977262079464744  0.9728301006167085  0.5483983603630657
  0.3711814594455456  0.7915071388147074  0.3915723361341113
  0.7402064421548362  0.3766104502266589  0.8384747237602201
  0.6023099394529502  0.2870776266791272  0.8063096362525889
  0.7385395346866320  0.2410026736185212  0.2401986448276142
  0.4804708245431798  0.2713561997047191  0.6554446122789385
  0.3905668742454019  0.1853039029418804  0.5827855971569154
  0.7274001374850522  0.1206566315508281  0.0457915009150883
  0.4514015813929767  0.1767314594519835  0.6066414202506568
  0.3843790616911894  0.1946859618121291  0.5169685136061035
  0.7177374676218095  0.4624935088769659  0.9284367277158662
  0.3293736739717353  0.9421104614249086  0.3391515249816768
  0.4349844687505557  0.7855252739438673  0.5191554417154968
  0.6799857432612413  0.7637989644105494  0.7737435809241887
  0.4598699480336052  0.3607557323449240  0.7458069765579357
  0.8422904101359974  0.2419771771631749  0.2773058864351091
  0.7915062429943267  0.2586103930178922  0.3108068546315328
  0.2016000611580017  0.0838511350418821 -0.0062155107057588
  0.2460321070736007  0.0645328820487589  0.9541336639013767
  0.7651459687535362  0.5632439194591148  0.4825109696391641
  0.7666082482268342  0.6586419051672835  0.4966697497580631
  0.5917749015252801  0.9481596248591282  0.5422394831688320
  0.6190737094897877  0.9351975769717291  0.7244798083671363
  0.6419111213598077  0.9825630800521771  0.5491700663545703
  0.6338258386282364  0.7130716686034672  0.5083509190411509
  0.6912292386511607  0.7408758965033767  0.4583899399565436
  0.5343560024611999  0.8087309582572929  0.5100588768494390
  0.5583797857181444  0.9106575348163849  0.5921001284911109
  0.4879216530629911  0.9626107642371124  0.4429465237684701
  0.4503256997247370  0.4287603913458258  0.9559283143554022
  0.1288825102967935  0.0410556947640954  0.5927618737651305
  0.0744410838488739  0.0233119278303314  0.5161866940321985
  0.1244849760606967  0.1817152194754841  0.6603262269733569
  0.3142726147827868  0.1928743959123008  0.0555211845673480
  0.3225488296443945  0.8276198145567957  0.0446493235729338
  0.5396067998510484  0.8074678626871559  0.6096266428261506
  0.4900075972283131  0.5273443245474838  0.9498687051210840
  0.0637625151432085  0.9328778004762814  0.1944966548907169
  0.4564101276074416  0.5252252376316773  0.7215954863961949
  0.0389044960805254  0.6096581275858753  0.3323632818470253
  0.3948780307370701  0.8078055375035016 -0.0001488752475559
  0.5279050840760154  0.8501511572360327  0.6523158830815232
  0.8209950893644736  0.5326241694980174  0.3387996707976410
  0.2230838758415045  0.2254737243706047  0.6882549371523879
  0.2360650316721949  0.0772815922837698  0.8899566703924342
  0.9716296057973198  0.4386791899015667  0.4214611638019465