C  Cr Ni
 1.0000000000000000
    38.7782925608872873    0.0000000000000000    0.0000000000000000
     0.0000000000000000   38.7782925608872873    0.0000000000000000
     0.0000000000000000    0.0000000000000000   38.7782925608872873
 C   Cr  Ni 
 106 1596 3725
Direct
  0.1149390747952443  0.4115503376815716  0.4729096743957030
  0.3272496333620078  0.0318489286206186  0.0731876856624267
  0.9896671080934830  0.3417897790058824  0.2047602485944187
  0.6790626620990045  0.9837519645287383  0.3585297641541359
  0.9033407640284169  0.3164873565268599  0.9369381834733030
  0.0518938074070409  0.0090106316599146  0.4872071796475600
  0.2175819902605816 -0.0271936617745034  0.1773279490635430
  0.3551666228375472  0.9395764390237070  0.4368961385474285
  0.9996467716001636  0.0960501574905683  0.4932875211194666
  0.1604317959448703  0.5080898709241879  0.3804756553395758
  0.3949238368542639  0.7084174964645321  0.6508645381710105
  0.0713248194831177  0.9374162687557306  0.5180406271741328
  0.4722947811581716  0.1670518160616984  0.8814675491654723
  0.1525409099136243  0.9620451399441901  0.5576520002936741
  0.8854396947087182  0.1780633915415066  0.4781257418066857
  0.5513211567874796  0.7831065077069983  0.4320838118731751
  0.9591021112175561  0.2945791493174204  0.5064148685190011
  0.6220512601062600  0.3544643280135094  0.1225996430856543
  0.3619061638384348  0.6329898120931468  0.0268743407814272
  0.0835580161169213  0.4627358047036402  0.0400079800098713
  0.8842324741890956  0.9377227469768575  0.6237060415858610
  0.5098792417977949  0.2767502313387470  0.1743099520246326
  0.5750016482026931  0.8954874101121657  0.5452156165326593
  0.2635500966998388  0.6005547816370289  0.0250566067272241
  0.9125056969908776  1.0121022678334550  0.5680558568003996
  0.4193884544300631  0.1517474671483939  0.9238107227333955
  0.7402895709360265  0.9643941869972967  0.1363769497162491
  0.8814628669447629  0.3289897660528733  0.5279265145023938
  0.1214412323753716  0.1169508340879127  0.4325673341207790
  0.0846062138344329  0.8326472659630645  0.4343399512740507
  0.5290830826460983  0.0863579671999114  0.1092056948268978
  0.4207521455926638  0.0982210558619485  0.8635488875151037
  1.0097557745527177  0.8272902407524670  0.4807218565784215
  0.5409765908065244  0.2009349911949004  0.9486840556606020
  0.7777575889981534  0.0748428834607621  0.9369668388318395
  0.7928108793807690  0.0067412679167903  0.8930890599741977
  0.7883023987221526  0.9520764971060933  0.3322596892025412
  0.8492875123233369  0.9027982718793051  0.9538587853594973
  0.8674531735584710  0.2100371299230123  0.7133360642718628
  0.7822879880505582  1.0020583476450000  0.9933958319240445
  0.1328299926661311  0.9648848162107838  0.4808780765840315
  0.6113563868829432  0.1806547560938077  0.9195964175711999
 -0.0276575253086034  0.8305828791730195  0.9255685726001497
  0.0223930268695740  0.2803824767047481  0.0527125418733096
  0.1492315374294406  0.2859890852418514  0.4988962988935238
  0.3302867290198317  0.6660108944268053  0.1577230241533132
  0.1056394619104061  0.4771003829767316  0.1323190018812086
  0.3888860712223203  0.7137207942260603  0.5716270412232706
  1.0138835746615711  0.4161392133431744  0.4335815337606336
  0.3440915798345036  0.5529844419561685  0.5142250747161196
  0.4676565688797429  0.7737733110340936  0.4745108092450873
  0.8161101471628863  0.0021622537929061  0.1436167559711862
  1.0152742231175431  0.0789792780125834  0.2484403171830888
  0.5555629806046887  0.3384729558799843  0.0477629602485605
  0.3279291109705774 -0.0083115870313698  0.3379031251686464
  0.1698741353441509  0.6151537718290094  0.4084558911621208
  0.8851054188551791  0.9390456283513998  0.1416676303616887
  0.0181704434745989  0.3419224064097121  0.4601655473121952
  0.1922677477773759  0.8777858813892558  0.5229283736745172
  0.4409857190643233  0.5704996063200282  0.5495258679470604
  0.7387629776785910  0.0169470992976159  0.0495558451010142
  0.2408252763451626  0.7010621400623637  0.4739256568913186
  0.1966180818196340  0.2030297375274816  0.6503377431613078
  0.8828171577262662  0.2389616456180552  0.8927281087516998
  0.6878974979326323  0.5291272385402286  0.0245188792953496
  0.6061246789590884  0.2871392712854860  0.4413481217680341
  0.3890059733084212 -0.0022527091614644  0.2618772067600460
  0.5126423121591102  0.6455380042236345  0.9814421049369590
  0.2168358400642039  0.9577844953658403  0.5228346162488102
  0.2740779838922520  1.0427891313674065  0.1221336351845640
  0.0907556316989430  0.5217146523952731  0.6877306276359075
  0.6502223905899533  0.1955913097467333  0.5225906237006627
  0.3690310630820430  0.7167035424389855  0.9894527995960688
  0.2742490874754795  0.9232945812864957  0.4811017752102316
  0.5786555969944479  0.2490496871206282  0.0198691930329873
  0.6966780239991138  0.1853031313527296  0.5983295237733954
  0.8279204285516052  0.1385716227039865  0.5333889633712902
  0.5198499348429586  0.0800808021912231  0.6722562877642670
  0.8302907907147651  1.0227615417106330  0.7069801673251627
  0.7239265437789961  0.6416139307793544  0.4901250019545280
  0.9767314284023948  0.8329802745732091  0.3945289430780589
  0.1798879420032987  0.3247317222345150  0.0351982394731857
  0.8068740659309672  0.0883001669003953  0.1099726840091488
  0.6680768636471346  0.8630398510372014  0.5519411243552420
  0.5343260868034365  0.1705350935353516  0.8421962202816979
  0.4884220646933972  0.7930333265833324  0.5001801144351874
  0.3417758125619464  0.0855238096318547  0.4307579214843847
  0.7121568832453801  0.7017549772334851  0.4480682702709057
  0.6965911716022531  0.5774861585823853  0.0825980399315239
  0.1474958212351618  0.2961996560026918  0.4156781420731873
  0.1356112486168988  0.2369024972185670  0.3542660564395439
  0.8504634063585044  0.0595218632152351  0.9574754930510410
  0.8334205009757648  0.9864516389916469  0.5250198404177226
  1.0152188371352924  0.8956681408333853  0.4545656916680885
  0.3320848372407416  0.9646317707638723  0.2421450601130057
  0.3467062984666038  0.2312180568768604  0.1967526780353767
  0.9340795542566478  0.3211779602260960  0.1246605169404914
  0.9280418359100312  0.0511767307294968  0.6370588357950882
  0.5227437539535092  0.8123088543494320  0.5646882351930690
  0.6263737422284081  0.9341751936570766  0.5784943618768812
  0.3129383477829555  0.7163792214787296  0.0383556257387468
  0.7076622421639618  0.7557098470429767  0.2617715585663453
  0.2497505094391445  0.6769095514314307  0.0179814943848406
  0.9531577319644104  0.3660143121074188  0.4891640366196461
 -0.0130489852118899  0.7695183595618532  0.7941056854056274
  0.3219647803328893  0.2609742836204052  0.9919912617662173
  0.5404616798285335  0.8655670074966755  0.8239854367582312
  0.3497370921372375  0.9637729035318939  0.9102581965415457
  0.2527994580349227  0.7564474347762598  0.9178110373935616
  0.2917837889258263  0.8083650104080479  0.9220454842968986
  0.3802488827514147  1.0098662380609256  0.9485398579709520
  0.4426872319314827  0.8802988743932135  0.0700745546455534
  0.4310079677879982  0.8364863603191639  0.7375147829211076
  0.7858379958862670  0.7150787296130665  0.3832189349030440
  0.3016441592097234  0.6989907733391643  0.6693318086720736
  0.4904727147149585  0.8303137458781576  0.7577730068925275
  0.9161787176223168  0.4276613117596613  0.3482511367078913
  0.7909365986374355  0.8101170686750768  0.2443038951520536
  0.3310606363820791  0.7618009719437531  0.6111568282140035
  0.3304291846879554  0.7432164259144852  1.0010545205865449
  0.4921534693541056  0.8595739384971829  0.8642195677118605
  0.2706195378318094  0.8638473609057745  0.9057627165995495
  0.3996594815058081  0.8439525875833357  0.0108774861906757
  0.8568663743964692  0.7187957475041549  0.4654429053401989
  0.5022391535314252  0.8162804907970576  0.8201706112559752
  0.7993291720879616  0.8152495194763842  0.4703832123149828
  0.3390870345571491  0.9755969595250286  0.8486466284702061
  0.3360136717469823  0.8858969147157227  0.0322102613502312
  0.2151891806356550  0.6626936228850386  0.6099662454613536
  0.1517789191996173  0.5281263529293250  0.5102996988296944
  0.2563309257132871  0.8222615965365024  1.0159846387155258
  0.0952772687198396  0.6833735698527396  0.5632279294437659
  0.0907207915934052  0.7107352849236870  0.4969600160231146
  0.5140831449144495  0.8100391945723829  0.0428377206292696
  0.4453401140808485  0.9313697434845996  0.1160517767832573
  0.2660158455710922  0.5668845617605704  0.8043976945326869
  0.3173748190782512  0.5720854202301233  0.7648482510392511
  0.2899738307069884  0.9390697441700598  0.7833709693298392
  0.3004473233432104  0.9264728236589446  0.8463132271731654
  0.0741765305022431  0.6062927723220348  0.6758337877449804
  0.8440960196846884  0.8235029967739517  0.3173581107393816
  0.1175315842489875  0.0915414529927485  0.8455378119081491
  0.2971538313106757  0.5182817147255536  0.7834990605817550
  0.4699192596026532  0.8243608082830475  0.0800685853865222
  0.5723249481282581  0.7820995277034108  0.0652024375005373
  0.5152987961644842  0.6876377287087376  0.0745979667098761
  0.6202194928791732  0.6609665711259067 -0.0004438247898283
  0.1366848222855566  0.4521862031251997  0.6263526259591999
  0.9775096745463969  0.4684922447988231  0.0713984000673663
  0.0457272687288412  0.5625002468559074  0.6361322954424846
  0.9221395764598769  0.4889251665536166  0.3297756111643154
  0.8008724239276446  0.9320122420440339  0.4433762006368048
  0.7473227725552581  0.7783917864157366  0.4640319342894945
  0.4177418244464813  0.1769306457610814  0.3789461727149994
  0.9771977213389388  0.4887434760297247  0.4654861703913926
  0.5907622853732658  0.8710795445333345  0.7820708608002500
  0.6849139180059373  0.0258843249366798  0.7681299448765967
  0.9425525270627515  0.2096919446169687  0.9825050341628656
  0.9385922272552057  0.1761633438853158  0.9336346233656673
  0.6135507117433405  0.0397406206215116  0.0872541777969005
  0.8446071104150518  0.0956056603499617  0.9195795066217033
  0.0125273385141864  0.9315333940959929  0.2899222808151295
  0.7858385026842613  0.0678791449678419  0.7929043350151036
  0.1068252269817698  0.8429036119910971  0.2352601664358243
  0.6480117135594342  0.9981224068582913  0.6637043607578026
  0.7848507302744622  0.0367568448416580  0.6852726652827497
  0.7088242202769408  0.9587553116313988  0.5781785397028010
  0.0996549668126493  0.7359780992802676  0.2052614840881379
  0.2012852258704103  0.6881805683202462  0.1942216535631336
  0.9956861563568031  0.1865948674040540  0.9486751140932482
  0.6957869784160661  0.9130956116544509  0.4706022449704946
  0.5825751130618657  0.9430960265627664  0.9356272174423073
  0.2245872888888230  0.6301242268680410  0.5064045830654693
  0.8698070726668150  0.5031884565890802  0.3637356857985017
  0.8728595696138010  0.5497977537199548  0.4076819384993284
  0.8570196230497414  0.9592517127101269  0.4538048537651608
  0.1190706920237798  0.5420813600758482  0.7218210887794866
  0.1053750892807027  0.5560901462307819  0.6563516001565921
  0.5480971858331707  0.9852264011322601  0.7471083879380633
  0.2062466125292034  0.5635759591723979  0.5799933784646030
  0.0767546775133487  0.5220833981046062  0.8197929693482898
  0.1308087555539019  0.7413750613440279  0.7664342698889147
  0.4893627214779998  0.9920333974463966  0.7267750507420055
  0.5161016271382685  0.4856696118934186  0.6354733855759690
  0.2418180650971757  0.7699474314713101  0.8559847853522815
  0.8340637503396079  0.6856680834541956  0.4093377362218951
  0.6034239089294692  0.8850229199960193  0.9502383590263218
  0.3645042170069119  0.9558933066804294  0.9656569601011871
  0.4628857926322155  0.7670402105130932  0.8162625863625522
  0.3905773434068299  0.7554633761114580  0.6301236302796096
  0.4231720924647658  0.7129724047367149  0.8143674324683924
  0.3531825293060503  0.7337594414672498  0.7327524024562859
  0.6528272369171200  0.9907454978523340  0.2602404822842034
  0.7919194095260006  0.7041829578548817  0.4459716759696349
  0.7383499219255595  0.6612600446515391  0.4428170400144948
  0.3680927194134675  0.6891969839115598  0.6923553273872823
  0.0653293772309494  0.6176924768858070  0.6171129895008355
  0.8237969516197272  0.5791185080259738  0.3802135756097482
  0.9300880149977929  0.5809456582863820  0.1891009963250669
  0.9894202002795432  0.6757478375673037  0.1836631456071479
  0.4111478353588922  0.7278024190979460  0.7523930084858238
  0.8319831350811371  0.7321959678160991 -0.0023767237850597
  0.7199825594920948  0.5942406796539821  0.2859263554459096
  0.9364982657523037  0.5744088705750527  0.0260236720508707
  0.0784942887203508  0.0423365100792577  0.8427710826344634
  0.0240876143589002  0.0531262848312501  0.4865752757565175
  0.0465050572994044  0.8217072663439328  0.5759888824111314
  0.0355456881019438  0.8671353560483062  0.6199748526333687
 -0.0059169886489516  0.8164037667771714  0.6131575730581572
  0.3338873799939022  0.3093423329581892  1.0015640245447928
  0.2693936698432115  0.3231848403901326  0.9704517322355095
  0.0883221697753891  0.8264013952806103  0.6268325767218610
  0.3322112132957772  0.2842021107877412  0.8839669413700403
  0.2338195936699762  0.2423659994366845  0.8514653059647126
  0.9149716227742388  0.2024985510600188  0.8741306741553582
  0.3795763632509746  0.9499185784353242  0.2422144280801070
  0.1621303292456338  0.2611703286399525  0.7710140064082009
  0.2231015135543992  0.2536824231678307  0.7924100204310687
  0.9480689033329033  0.8243118636044722  0.3545245188344516
  0.4798858696276864  0.9017433600179681  0.2291380640862325
  0.0078410712275158  0.2874419426135288  0.2607597465414310
  0.9061033986576638  0.3345803285033905  0.2640057535644636
  0.9026375316337327  0.8807770335182228  0.4397651922571585
  0.9504119352187942  0.8736638575250415  0.4050661602488850
  0.0664328661623861  0.0840728187197957  0.8857849717393497
  0.0413927245713254  1.0100800099851552  0.7407823909241097
  0.4900194809880575  0.9791902680849217  0.3810932961788032
  0.0940222265980176  0.5775360873145502  0.7988496861509754
  0.5411726611017386  0.9637509890007357  0.3462829152446875
  0.7250481126469001  0.6390599183999587  0.3306261032237696
  0.8259296633708031  0.5943726477688871  0.3197584631701513
  0.7753683252958239  0.6078621894734861  0.3575917879245184
  0.5096690376964235  0.9373279354870275  0.7448192891609462
  0.9835724570990633  0.5964708313023733  0.2604927575454777
  0.8711477451347014  0.5176362448555846  0.3024149040952778
  0.1603575391819507  0.7021208696219956  0.9501392960554373
  0.2243773340773526  0.6991604701289874  0.9765923077434956
  0.4669698554960605  0.8579715871867086  0.6348125652614768
  0.8635451582709196  0.4086404058639215  0.2751881813998178
  0.9145996379531302  0.3948661655177141  0.2442873094181151
  0.8908203145473136  0.7486730729920610  0.2977843812484802
  0.9576874186605137  0.3168139130461563  0.2325549151220607
  0.1243565152752407  0.2121361308640882  0.7671134572134424
  0.5319834345369181  0.8704019871283714  0.2538066317832952
  0.1735157712760505  0.2172663048036293  0.7269846012948226
  0.9541385039030019  0.2700138692878402  0.1917239491656524
  0.6559050950930242  0.0344257001951092  0.9865370474765384
  0.5710210791867567  0.9600055828509895  0.8742208172968715
  0.7302313835884059  0.6993217459596057  0.3141273488999555
  0.4227888086094911  0.9481725907768478 -0.0038148815822524
  0.3894928822118144  0.6636713666724713  0.8132562620565948
  0.0583560380302874  0.7336375772557597  0.5739951831281773
  0.0711647234449072  0.7199517723118617  0.6369486934096471
  0.9329846806896285  0.5975558021628719  0.1303965123180310
  0.1214701206580814  0.9398191603142613  0.5218210966667858
  0.8832488772768633  0.6282777374608267  0.1040267108471539
  0.1808881245598445  0.7465965563320476  0.7284523198877439
  0.8278401867418278  0.6208075266100306  0.4237776743607323
  0.3236770526731661  0.7047971941870855  0.8940736773802943
  0.2934380182061694  0.6296608897864505  0.7535905953268441
  0.9236999220329605  0.5658122701852093  0.4811119816380593
  0.1241706638457997  0.6417321502099549  0.7441312617557636
  0.7827345345777041  0.7183095440930136  0.1540104180573544
  0.2463455735289433  0.5933766309485022  0.6826980758978606
  0.1735795580958980  0.9809654765614967  0.5116235197053092
  0.7239524831216085  0.7825318370167492  0.0004917336567126
  0.1067990936034361  0.1044865424968557  0.7831075256619917
  0.8541255569044248  0.3179273896163752  0.1933810107984282
  0.8363477203988555  0.7198969967154142  0.0586655161372706
  0.0740210770631841  0.1742539582892760  0.7012525279502071
  0.1393562247328690  0.8605723851874506  0.6934268226932240
  0.9457795243008272  0.1615821337437725  0.1671255193328540
  0.9483245930988885  0.2097327569327267  0.2111619639397973
  0.8496277570654960  0.8996397834635791  0.2387831166153621
  0.0840288305398193  0.1296538886375961  0.6571647842298934
  0.4043209334180795  0.8030166564356107  0.9062650156456697
  0.3821039663788037  0.8603865506659206  0.8838474741687060
 -0.0170436252131312  0.0151922541396743  0.7214267197911975
  0.8648333529998143  0.4246484454171698  0.2141568060145731
  0.9090088878435265  0.3494838768226752  0.2009864896503599
  0.0962975285387532  0.1481531987241020  0.8256614051632681
  0.1301984071545437  0.9234990155806109  0.5860286544802801
  0.8570264760368230  0.3624898864178268  0.2344429503286221
  0.9586932518321611  0.8386930236695411  0.4789719942211648
  0.8424489219593717  0.2228627107080917  0.7879342775600545
  0.8696625846325652 -0.0494914104816707  0.9720403310258657
  0.2964228134846968  0.5616749114769594  0.0357914221377841
  0.6865079872077494  0.4458036776126165  0.5315145495704560
  0.7863841091660089  0.4902227677881316  0.5614936724569484
  0.6156199208753189  0.3405051710386821  0.5198070221626508
  0.9808397683438412  0.7231979257035503  0.8835339559599507
  0.9405452023117136  0.6722197641525536  0.8778483748448251
  0.4611071316217570  0.6257962459855475  0.4163304097940467
  0.5124060195998428  0.5942272559183798  0.4472620680923193
  0.5078095680134890  0.5488042961776205  0.3986040612907173
  0.5092590270945948  0.5366329756904663  0.4586744948860004
  0.8544262589005471  0.6100853218219758  0.7084221440722092
  0.9091574105043835  0.9411907515730850  0.4212095466980220
  0.3735540616149504  0.7079845308327115  0.8553296214954862
  0.2016647205333431  0.9805233408266272  0.5690899695542807
  0.1859979880313541  0.2370923014406777  0.8914668115404917
  0.8152464588493619  0.4549295241976368  0.1897006870027596
  0.8267070400723096  0.5680042915698535  0.6712695846109301
  0.6034671454415854  0.4392653128609662  0.4046228854392044
  0.8629180163416902  0.9833325738243454  0.1445487927960531
  0.6329736502020759  0.2606783142831005  0.3678776047322904
  0.9205452374196714  0.7013288569563212  0.7534820467744169
  0.6801001750335517  0.1846512520238391  0.3546340736561547
  0.8852744917405280  0.6748969068085903  0.6524433564987596
  0.9446210261347681  0.6662823483889565  0.6757129862581710
  0.8214043810975535  0.0614956564217038  0.3385217694853604
  0.6964847714902620  0.4313566774061649  0.5944003320673489
  0.7599770630852208  0.0570538479895382  0.5014077824988215
  0.7565464033817294  0.4229836871030805  0.6161558600231153
  0.4821858855985243  0.3692440747820305  0.4620731757728939
  0.9485467349323706  0.3855982722214583  0.7398701870793665
  0.0202547842095299  0.3340880767986095  0.7136252896575874
  0.9094549108301312  0.3352103313330908  0.7351037362161337
  0.5585941148437623  0.0093577103290227  0.0728140624664883
  0.9211502033216684  0.2914984855832338  0.6902369562202459
  0.8597254018314314  0.3004624010491335  0.6701947077737043
  0.8715981366983423  0.2548887290245114  0.6227446852811026
 -0.0008301445493903  0.7964012541771538  0.1533650098323459
  0.8213034125686555  0.2219190178921924  0.5573320362968862
  0.7547039410493631  0.2392024179260588  0.5332308184204706
  0.9765890251128297  0.4786183171500910  0.7920440181322530
  0.0453421134100759  0.7233427735068523  0.1352276267058843
  0.9492464384579016  0.3547602733209501  0.6342508008214504
  0.1472696980527926  0.6758241081588049  0.1243529649180629
  0.2694003949340471  0.8149605226032504  0.4696642927206506
  0.8805317734934006  0.3749929765302554  0.5525760162528552
  0.8531435338542599  0.1873692766220864  0.5184916711272847
  0.5804732150811738  0.2080106755967369  0.1963162030170708
  0.9377971700794095  0.4295727582422391  0.7858963113793945
  0.8171265941343190  0.4457490865678551  0.7425453343687084
  0.7638287302715719  0.0329166499874059  0.3320489794959836
  0.9031354948148655  0.7319069139837068  0.6279414533470754
  0.2700239408368975  0.8795993448311866  0.4537348735244948
  0.7380782643554661  0.2658505556536773  0.4077182341809171
  0.7885031767887609  0.2332832622313135  0.4356287719439481
  0.7871392660280043  0.3821942612686305  0.7998264949210004
  0.7345417166873065  0.2161288749960585  0.3625187968249117
  0.7291584569312923  0.3604541192340833  0.6703160608121403
  0.6693200639439881  0.3685235770980627  0.6476886722033025
  0.7198202202904970  0.3752324629005933  0.6070703307978373
  0.6796108833040228  0.3254507350274202  0.6036009752142584
  0.0461343130129169  0.5909357861093660  0.0033623930627225
  0.9162263311870035  0.0036483568483233  0.4022314790057265
  0.9428315032665981  0.5593080637356185  0.9162370145673731
  0.3244581805166772  0.8488540298991896  0.4765775797953020
  0.9060224882978486  0.5314206354172573  0.8145577015214880
  0.8392138171164903  0.3287930910048668  0.5519849762749078
  0.3606756942793914  0.6871771932343295  0.3626268713460193
  0.8867385385966653  0.4232599496754271  0.8256171956925510
  0.5334675548559191  0.2345734174893654  0.1675474554463779
  0.5394073297091461  0.2319258371604958  0.5738582492947392
  0.6339638496448268  0.1533408240000713  0.6700725803611919
  0.6882781898118598  0.2819633842783147  0.4398736796281256
  0.6918728136640244  0.3416803490278330  0.4238864934222813
  0.8662128966596475  0.5113437743112007  0.9140888527201513
  0.9257946498642612  0.5032359768759883  0.9372930887924518
  0.9351388355520445  0.6818914265538802  0.6139136412156122
  0.2234804138125836  0.9077810394765529  0.4934679431664814
  0.2155460911638615  0.8560870929797236  0.4445762836868185
  0.8288320945508867  0.6520931988459302  0.5278349125852334
  0.8465155579071113  0.5111988686998002  0.6878553708171788
  0.8961785431293964  0.5458372764208672  0.7540619990125356
  0.9240215662110879  0.8095616949124268  0.5203226182109526
  0.8363338577217289  0.5536028152168618  0.7315748339664567
  0.8416042086288518  0.2024448846743300  0.4604845693901400
  0.9979399588935366  0.4211544365138762  0.8054631313446041
  0.7383677908195132  0.3447826870838807  0.7324092561671545
  0.6391071702485530  0.3047234171296253  0.7050948685618024
  0.7936247587639970  0.1704360713642655  0.5484549246868976
  0.5891010297657514  0.2683066304185426  0.6384069695427109
  0.8661368036360568  0.0699445684089153  0.4755631403016449
  0.2632924999372124  0.7933742417557909  0.3596164982260790
  0.6734092692345384  0.2035880896835926  0.6762644434004488
  0.5515922917809198  0.5010255609238400  0.4801481416218813
  0.9385247217719755  0.6510571822810166  0.5116192601735668
  0.9295257235715778  0.6011840612928031  0.9580438740549860
  0.7007445508260550  0.2967178292151909  0.7282989314342513
  1.0085414609991228  0.4096465341852727  0.8660209821908252
  0.7095536073539682  0.1325392445165984  0.5089064289782347
  0.5101388591274846  0.0365888432794552  0.1043973964660479
  0.9268254562928943  0.4433055341949113  0.7250817139603281
  0.1121221644770130  0.8708475258867751  0.3431552895729851
  0.8768409442537632  0.4083628905843913  0.6599042748735777
  0.8171782929294455  0.4168735684085457  0.6379791768954197
  0.9255802910596491  0.4157919807910737  0.6193109844815751
  0.7691782084683954  0.3811095583235583  0.5598327628425817
  0.2093264515536681  0.7790297378287874  0.2866942313477652
  0.2010590259212343  0.6721768125667337  0.2553914393512182
  0.9957357372844589  0.5575058416459802  0.6756723778309276
  0.2963973914872376  0.5803382057962704  0.2026086763495528
  0.8521506608498345  0.4429147979304680  0.5397953492309153
  0.9635435675828218  0.6076874191339954  0.6927386470175340
  0.9863411665302089  0.5711145041525967  0.6150168416923153
  0.3900345566636990  0.4095771345787187  0.2335530601352104
  0.9774879323263418  0.5848407376619316  0.5542321353150028
  0.4379040798934256  0.3450811571933838  0.1556905807082352
  0.6646782644816684  0.4498919464530984  0.4746317883947786
  0.5912124086663488  0.3816999646248032  0.4259673806228953
  0.8130925438262190  0.0415281198070646  0.9250980772325297
  0.9661236723593482  0.4924746746962081  0.7312843088891102
  0.0670236558437016  0.9476389329729853  0.3624243174995209
  1.0031515412919376  0.5519403917394090  0.9390641114314053
  0.7221013380906632  0.0300673223952017  0.1938834747492795
  0.8526046975993051  0.1752700123178819  0.7440318986390014
  0.2436431594338732  0.5497664957329433  0.1920399270853265
  0.8059714951828350  0.1417686315242781  0.6769126930411459
  0.3434236618309408  0.4526166743265611  0.1430110775045585
  0.7573946986478856  0.1057209827313060  0.6069056986223443
  0.2899341475934126  0.4223294881374481  0.1328087625842807
  0.6596960064151465  0.1025087886418710  0.5128832317312121
  0.3898928260386967  0.3755718308350226  0.1295742455650123
  0.6019721567166784  0.0228082051336104  0.4618300602819367
  0.7511456734491889  0.0422130155381429  0.9011474203539147
  0.9445030847065329  0.2943225041013754  0.9170471810827654
  0.9930258372598326  0.3010322592844722  0.8775103355976815
  0.7472811775253270  0.0190090516664959  0.7884311863212692
  0.7597657780264065  0.0017705224599681  0.8526096464256248
  0.3860065271950610  0.3309399551922961  0.0874238267541794
  0.8301111515558515 -0.0003169468359090  0.8553623012481317
  0.8282913632357383  0.4016882138572663  0.6982014619445945
  0.6296152382901747  0.1774829843141799  0.2238189966212634
  0.6241747265091586  0.1175048057125063  0.2417358087305105
  0.7518124833264984  0.2734787065200235  0.5792537768947231
  0.3339801043322496  0.3449766439605164  0.1199831248796682
  0.7666965492086788  0.0584894015699377  0.5600744195064034
  0.8038723370955771  0.1743326021486646  0.7817175195272090
  0.3774816142809453  0.2679743187621509  0.1063889369356513
  0.1877524834357948  0.4253583402696078  0.0382071549545290
  0.2462739106445978  0.3600452434789561  0.0213297739968198
  0.9434356952773949  0.2336397781683239  0.7046251743023477
  0.6704135938470271  0.1667908346366377  0.4874658795277225
  0.7215721310656961  0.1426496871342753  0.4456359234803707
  0.8583555095943283  0.1449491561071246  0.6349659242495492
  0.8125164110047963  0.0884226682012424  0.5135753803406048
  0.1885081653263768  0.4833633166386165  0.0816683637897672
  0.1401809060529020  0.5646597231502460  0.0996129833604637
  0.4767289483399612  0.2209391872661273  0.0974868075360113
  0.9515125963061474  0.4799886162261837  0.5647804666826181
  0.9055323500829471  0.1815114576281878  0.6998031190527054
  0.4701560969873128  0.1768147131580682  0.0537446828716930
  0.8415715076828325  0.1896689517207485  0.6764645388657592
  0.5201708090460867  0.1356867488542696  0.0860975397621123
  0.7736816057552613  0.2136347524194340  0.5947685943117359
  0.5223294878586959  0.1297790352917485  0.1440145239786506
  0.7386103586758636  0.1598279473361529  0.5931515120544210
  0.5583977217624685  0.0687061532070570  0.0662687017299956
  0.7982935188129808  0.0503919340904871  0.8574166675207766
  0.1839830305693521  0.5335373855850696  0.0021341501267454
  0.8285932845778513  0.0777714257404710  0.6938489136171410
  0.8657226545529754  0.1310469977953066  0.6961886738994609
  0.8895989991213165  0.3940388819369189  0.7200307738294872
  0.9383529481590707  0.4530589194027210  0.5083422585446754
  0.2832317692371208  0.4643883974329394  0.0059169726137031
  0.8491035387470631  0.7855487363704878  0.4444795914937431
  0.8947327979244898  0.0774901764419584  0.9401614736422043
  0.9968359782469042  0.1319950066186425  0.9641623501756179
  0.9368241177128198  0.1432904538148803  0.8852234701664750
  0.9935820429999027  0.1362892502511783  0.9068036399548250
  0.3703958945093730  0.2438116387067904  0.0033016156900088
  0.9306017144069588  0.3085287818206514  0.8580770926498641
  0.9471002936635236  0.0990497365967628  0.8403291318486866
  0.4155712076051904  0.1486199415834947  0.0385436199167741
  0.4013644161367796  0.1066908550045375 -0.0043499616246314
  0.4219821957842762  0.0475214000922507  0.0143231418602416
 -0.0007610945630080  0.8165763378732466  0.0926699902016545
  0.8199726924305960 -0.0125357167988129  0.6706957093721777
  0.0490091022749129  0.7399890311738091  0.0728292477823842
  0.9649174731009724  0.2072760756349012  0.8267846039190306
  0.9749475836748738  0.1623712937192554  0.7830459323844950
  0.9350139435083519  0.1140258848554382  0.7796827400919216
  0.9084200288387915  0.0497620193481302  0.8407569986577322
  0.1057867744789357  0.1360358735426995  0.8878557214916981
  0.8683714466564572  0.4398576410512551  0.1530950864126037
  1.0010252741477377  0.7920231114599929  0.3814670182203028
  0.8383628208051088  0.7661628967826334  0.1035400340967062
  0.2632262669094589  0.9087283557341461  0.9488752663612882
  0.9920773517883786  0.1034670267165276  0.0873544222062301
  0.4143047011213196  0.6094826261947105  0.5770229901767052
  0.8899661768230260  0.7514636301413257  0.0669747272419614
  0.8903482025046447  0.1443227949971248  0.0945483033222898
  0.1904154238110145  0.9273596841737828  0.8656925833232949
  0.3101029744388611  0.5113651868641771  0.5119781315631977