C  Cr Ni
 1.0000000000000000
    38.7782925608872873    0.0000000000000000    0.0000000000000000
     0.0000000000000000   38.7782925608872873    0.0000000000000000
     0.0000000000000000    0.0000000000000000   38.7782925608872873
 C   Cr  Ni 
 106 1596 3725
Direct
  0.3502579127395427  0.9408982420071603  0.6020850868636727
  0.9517403407195064  0.3601641700977828  0.4900435360927660
  0.5269276345673346  0.8128608237979784  0.5631292690810273
  0.2772157099799382  0.8503260309188018  0.4938107171821658
  0.5715714340747263  0.2451357207149163  0.0204934871456857
  0.2756095978777307  0.9243529609720220  0.4812854861914739
  0.4346174464967225  0.7600122112018646  0.0494115431079181
  0.6529396402805057  0.1962498236749402  0.5235259899729702
  0.0910492168081832  0.5229150594568116  0.6872116911483868
  0.2767168970824495  1.0440111612176768  0.1194823692386299
  0.6820953801355236  0.9369729822412549  0.3593750477942767
  0.5893674555100499  0.7196624355030660  0.9631273745100429
  0.3830106488159467  0.0011366310351731  0.2616238951027438
  0.5239581569771774  0.3756383420922745  0.5007687156372914
  0.6181438087793211  0.9683277168808494  0.2851581161187334
  0.8823759964139934  0.2408154098158943  0.8891604352019621
  0.1960224648306325  0.2042745084860661  0.6509260583034375
  0.3871352099671687  0.7167658769627949  0.5086763695136676
  0.7443820155970061  0.0149352131363567  0.0494835094639569
  0.4549515926619699  0.5081031873435372  0.4966853478154449
  0.1921691980863424  0.8795273220224045  0.5224747136359827
  0.0214958356361809  0.3400774954783756  0.4641581969060964
  0.8793109596244088  0.9504954930757747  0.1552715305514375
  0.1714398634271221  0.6163146507320422  0.4097887126244182
  0.1889533198177316  0.2347495599447031  0.0257190535761246
  0.8067931819809632  0.6808727380578512  0.1465242788208823
  0.9618708215289689  0.0946172781342206  0.0451664817432857
  0.1824124972562414  0.3322353855536877  0.0334261164346731
  0.5268401345265887  0.2304290655213176  0.8870574724289584
  1.0528057220520133  0.2017655031843909  0.5298142005488966
  0.4206782206137322  0.1540368934515253  0.9243071359064092
  0.4642266573137598  0.7739250969427001  0.4741117201541024
  0.9890710909913033  0.3419657860335520  0.2043255478509597
  1.0080066095584113  0.8312330379969463  0.4846944970539210
  0.4653778650987544  0.7823265851299676 -0.0277303382955741
  0.8891985925444106  0.0438955355212486  0.1169158503089285
  0.3251814285300835  0.9650374116442414  0.2374439212711834
  0.2608606020546551  0.3000442175925648  0.0162878102211043
  0.7095763492758629  0.9527138391622432  0.3397731019494025
  0.8011032190245395  0.9836474671427977  0.3275247849309974
  0.4923106237081271  0.7255421493714070  0.0799693794349867
  0.3269006391899687  0.0873992000092678  0.4275248210061900
  0.4025537814611649  0.6983050603331840  0.7165822047794480
  0.5486834641431837  0.1630103118335423  0.8469616481692466
  1.0150236316570858  0.8973673718229646  0.4545391299819083
  0.8330078119548177  0.9859363129426724  0.5276095167122018
  0.8496696349213847  0.0615854559152324  0.9591284781573015
  0.1879699369323997  0.8630817360745177  0.3458951223237617
  0.1443540140534856  0.2346071868252369  0.4367449202041327
  0.6672422393700996  0.8592252006246941  0.5402457414515442
  0.1202500720613626  0.2924224776362828  0.0237640296755805
  0.4966065740285369  0.1895950407880870  0.9692055880366643
  0.6269069398120678  0.8998067213540009  0.4579785093500959
  0.0823248997666560  0.8321561500063969  0.4340826936976856
  0.3825403432560112  0.4923784547575800  0.5448977622635098
  0.2622062782052930  0.6011419556913150  0.0249854304020181
  0.5781649720783492  0.9003109741930038  0.5464692311213061
  0.3942163693681139  0.1153329566259856  0.4486026255660244
  0.8840332595097435  0.9377946875477766  0.6262993235341127
  0.9311190197275818  0.9940950761917620  0.6363204500643412
  0.3609782932739383  0.6329094135091858  0.0253886633948697
  0.6185765787650179  0.3057281448329862  0.0777493714476259
  1.0331399390766010  0.2818475268272088  0.5164808579041745
  0.5514379718579708  0.7794481062719840  0.4328702741033401
  0.8856214252308338  0.1783726203356771  0.4785935594986600
  0.1508753812906296  0.9643478883005091  0.5586973238656082
  0.4737831823983947  0.1651041271662355  0.8797571073067519
  0.0724857129484136  0.9393952491652843  0.5174616795058192
  0.3932206627793907  0.6947406952453712  0.6379222244839154
  0.1213800610140759  0.3611394351506193  1.0028417461115997
  0.1163918043243428 -0.0165438913343495  0.0086705846051156
  0.7543547733794944  0.1243894293848030  0.0814353398062145
  0.2118964347711078  0.9588901020395141  0.5186014220559355
  1.0503574150715382  1.0128747712606474  0.4877943176578678
  0.9037505173728206  0.3100785479483565  0.9384898410621120
  0.7767715434491512  0.0707544397792848  0.9372657858819448
  0.4851133163665731  0.0618767524665357  0.1150572021463083
  0.7955439398586156  0.0053482545672148  0.8931563410193347
  0.9120815596110396  1.0121081559979730  0.5668489837114620
  0.5508537052619482  0.3310260797478711  0.0421517195115274
  0.9899114437050786  0.8967090631679820  0.5465058407935736
  0.2049175613293212  1.0164465085694903  0.0124186903455622
  0.5210548575921367  0.0809586967719572  0.6722218333596807
  0.9213706621924018  0.2531808016981106  0.4459753885138483
 -0.0264557539347139  0.8306467743356447  0.9243372661403928
  0.6152403480890219  0.1854767478406146  0.9118685084493688
  0.1336980730179103  0.9691384856697290  0.4791031133201644
  0.5029215018918238  0.8589111395131722  0.4533090798672122
  1.0138520719122082  0.4131307470975866  0.4345300934888441
  0.2683726887843789  0.9157374053278436  0.5693706978884593
  0.2028494948543476  0.4897942229675726  0.0314487301262634
  0.9393504754677667  0.9491624165739104  0.4609361713735199
  0.1475794349660118  0.2873925089523668  0.4958930746331303
  0.0196179461098362  0.2808673016412108  0.0510322452284566
  0.5687611821989313  0.8535483125753591  0.4004364625892642
  0.8047849164064147  0.9477429042253867  0.3165442158802951
  0.8316542924978331 -0.0147188052865708  0.9606828489428690
  0.9758479712626220  0.8336200697948590  0.3944927278166445
  0.7223704056699294  0.6436972481074955  0.4882563876822473
  0.8807751177977068  0.9261365129406693  0.0841659972410781
  0.6863149560235760  0.0496000640028505  0.0035912488378528
  0.5841526725763082  0.8870284752680221  0.4002150075241962
  0.8089930562629407  0.0899495018846971  0.1111729886082448
  0.3250637893870528 -0.0069532022333030  0.3372679936253486
  0.7501193341898215 -0.0316960872077210  0.5642135555075959
  0.8682694775485271  0.2116972991647008  0.7139930579779411
  0.2167872386989846  0.5776845696924514  0.0132509066661731
  0.4721695092873875  0.7301895866747274  0.5026881911354621
  0.8975559802458420  0.4399188229010435  0.9932196083482131
  0.5716131313949625  0.2099050599457612  0.9160269442833614
  0.7097903357874580  0.2831443528283590  0.7897883685720090
  0.3219197232703568  0.8690156753211856  0.4170581783522728
  0.6766997288280463  0.4151716876237820  0.9226901793978878
  0.1562607954488313  0.7599856135863567  0.0500491659365754
  0.8247213972613965  0.7928631550541869  0.9796706283001033
  0.8043111635150926  0.7784086334055703  0.9219998267978339
  0.5188923001160025  0.7661448739284767  0.4690245187495596
  0.5735923680011832  0.6829437576820160  0.4372460018176234
  0.7431280217221490  0.7560747976458905  0.7942569125927796
  0.7628250354249532  0.6988681703986275  0.8106516928078855
  0.5694441949802137  0.6245383445954954  0.4548774085520345
  0.6937350930112973  0.7207210004973164  0.7275637409120915
  0.6834703170707799  0.6508194916614084  0.8093434287734317
  0.7146448657160519  0.6849456944670645  0.6475000887922228
  0.6792714495378903  0.6150149053916342  0.4943323995217345
  0.6742400201590482  0.6349133634040675  0.6427354828718952
  0.3178104592772790  0.8226943542748978  0.3686220966794228
  0.6025736187229170  0.2559526074344997  0.6985820081136458
  0.6825228333483385  0.1761332952421076  0.1282026955411193
  0.2423640130842708  0.5251008075403871  0.0271558984356813
  0.7545039868747111  0.5990389305056604  0.7862731664432604
  0.8224396520704214  0.5772342580864930  0.8692434105826740
  0.6940152456678668  0.2853111204392430  0.1489770665516044
  0.9790449383784889  0.9796686653569792  0.1176371765789626
  0.0765084037129566  0.8903725386693626  0.0614263320491480
  0.4925927298232337  0.0615566084266219  0.6368393407442160
  0.2937630456235724  0.4378332437486904  0.0729513659145447
  0.9313425673296855  0.8419426977111613  0.6222732722206817
  0.8668419196557677  0.8550818809179905  0.5992860790997200
  0.4783465000340437  0.0066432845963505  0.6628001569372340
  0.9169390670219504  0.9027062003213586  0.6079157690314679
  0.7692273812394332  0.2895114848597014  0.9805288014016762
  0.5238575093444910  0.2207668522912311 -0.0018053112287725
  0.4974899478889779  0.2732448572782697 -0.0246599004449418
  0.5327667523902012  0.0808324546247005  0.5321877132861375
  0.5107066169037863  0.1323850452992841  0.5187864498178939
  0.5249706831710721  0.1244596169859188  0.5795919311567664
  0.5752024552145854  0.1604120825496750  0.6491331021192630
  0.1571025879849628  0.8033385045720376  0.0968435605398299
  0.5517175557419342  0.2187274127662807  0.6338403255394162
  0.5629491896239233  0.2070410862912178  0.6927640880156999
  0.6127606111864033  0.6425050337449024  0.6209616770597234
  0.6735027511425328  0.2353722132774875  0.7828084106490308
  0.8623935458433659  0.8925377672262984  0.6416011056761202
  0.8601382431616963  0.9311561792863572  0.5809906194420340
  0.8432151335334779  0.3089507176566330  0.4892909273340722
  0.7440563559531727  0.6427107100727090  0.8318945518685009
  0.6451661156135960  0.5998890768948895  0.8050892381904143
  0.6348512622450305  0.6146947122354491  0.7448284542758189
  0.8918813088420474  0.2424102631852235  0.4076755938576100
  0.6059199319004377  0.5714182332260104  0.7051233560578892
  0.8687934541144763  0.1332126859406690  0.4675655559331293
  0.3612897014798561  0.0876122610431108  0.5342923989587832
  0.6963019622088420  0.3582772416251897  0.9412368232974916
  0.5972053095217296  0.3158848294877262  0.9140369462368754
  0.5799607412269734  0.3434447992929649  0.7900046399024218
  0.8540255650412534  0.9420690619081283  0.5206427924913977
  0.7105189015119732  0.4695621640657676  0.3194223935120388
  0.6464839845849026  0.3783094358010591  0.3282144220925582
  0.4458203764613485  0.1208936420627896  0.8920862943461954
  0.4771223625614456  0.0184931399720104  0.8677608393800209
  0.6938451083122890  0.3167305988497944  0.2536537994178761
  0.3955610401495728  0.0820556211982260  0.8279318387930271
  0.4064291505854146  0.0699831249467131  0.8909679724849514
  0.8392670948457133  0.1801390151312675  0.2950691470210096
  0.7872286299758094  0.1965411315696479  0.3289620143302888
  0.8942541850435088  0.2945979382822237  0.4541234890703836
  0.7212560394859142  0.6782228170147739  0.9126318671705187
  0.7941403823791086  0.3382007249522787  0.4588229964642542
  0.8274056044202285  0.4338776549639909  0.4788912170236275
  0.3918809133315959  0.3033945893693575  0.5063443002270066
  0.5256221017258907  0.1854111160185557  0.8038966063858763
  0.5132876963953380  0.6391271640916257  0.2591713906518070
  0.5146191127273703  0.6253944898012500  0.3196338705986032
  0.4630846592107375  0.1645052091956664  0.6660024450580422
  0.4233980045080268  0.1138436822234332  0.6613455992619895
  0.4130490897302751  0.1265947010423920  0.6010850139451895
  0.4306308722424229  0.9166359290582000  0.4947223304275888
  0.9762395521267027  0.1003993410740304  0.3937108826906484
  0.9842409943570678  0.1427915679585437  0.4317296422423036
  0.5739162955426124  0.6138113792686695  0.5194576138221386
  0.6386189354571218  0.1204713350041540  0.5552416310335536
  0.6583330199675167  0.7625547802687860  0.5479728885815366
  0.4713449777784044  0.7310644237282043  0.4427389340745302
  0.8931598470441586  0.9656700287871495  0.7569881841502148
  0.9643066471519941  0.9425888222558858  0.8413246498118999
  0.8693304573961422  0.9861097175049874  0.6310262561362282
  0.9233333470572836  0.9500337118572406  0.6578642656894729
  0.7101841234613002  0.4367357010564579  0.4417518169465064
  0.5936085594897006  0.5581837758851060  0.5352344526784379
  0.8063139270121653  0.9083649355021464  0.5654737406315500
  0.6165655606367300  0.5286110687482469  0.6614194668288661
  0.1688620424177129  0.9341447867072007  0.2305198928492964
  0.9646693063756467  0.9369470447793484  0.5677979314225408
  0.6171401977031906  0.4999059742488221  0.5571825977720932
  0.5204716011105276  0.2920700278626283  0.5505370819595503
  0.4177800228619833  0.0131685457289115  0.6404757687431920
  0.4435770441556883  0.0565153275054098  0.6797713573072383
  0.4865592512495314  0.2855956737744200  0.0776741284391389
  0.4360894025529796  0.3169387676036458  0.0571342664823104
  0.5562426602514149  0.0847449672696282  0.7676520333435927
  0.4461297762083403  0.3602188683189516  0.0952324029217469
  0.4986282909686537  0.1295070417563982  0.8500613092541406
  0.5004845207138264  0.3451524574328628  0.0598576782428973
  0.3970381552327724  0.3835442246645947  0.0626923186154272
  0.3976352848882804  0.4847619563270125  0.1525901612854897
  0.6316020752344440  0.2173905710077063  0.8802264196369135
  0.6759075173662207  0.0958514230511152  0.9792371325597475
  0.4004681269848296  0.4986850102795785  0.0933620688037349
  0.5255949005036319  0.0235708018900132  0.8287553713775943
  0.5593981009193398  0.9731065873008896  0.8119162404440043
  0.5371073291394072  0.0105116744992391  0.8899786159632652
  0.5260930621364787  0.0564698576812145  0.9377338339118158
  0.5550279423444702  0.1164602713427952  0.8740174952593212
  0.3511072091605401  0.5798041801621583  0.1056051586951872
  0.5035366398492348 -0.0075916281583902  0.9944472971633095
  0.4536278858167878  0.5306143909856926  0.1004854256479149
  0.3599692245031087  0.2870776421707163  0.6109325840138821
  0.4947892623094653  0.5741644019886427  0.7238006985971873
  0.0062850882608903  0.8786511659302173  0.4988088848431215
  0.1310685376423390  0.4572400309587305  0.3001106839632182
  0.3681761711366017  0.2111011991484804  0.3518583627289412
  0.3723366819374626  0.2578366948199659  0.4014923092309041
  0.3730548596281954  0.2708873016313139  0.3377364127982098
  0.3252333165917035  0.3404322370244224  0.4159725368095917
  0.4243654648327783  0.2870295845547300  0.4043575650080601
  0.0449097071361231  0.7182470084611420  0.3626408903869459
  0.2346224760851396  0.4419643166491914  0.3944664695316608
  0.1895786674802924  0.5144598423860572  0.4142231789217530
  0.2931204477639125  0.4758354860929797  0.4046728668309012
  0.1335948531381813  0.5018763183089691  0.3429988056462479
  0.3630659205556493  0.1629046463723188  0.3050243998394604
  0.2408942402402858  0.5202515547916693  0.3170829588323413
  0.3001816357846233  0.5796761208209709  0.4315758292183045
  0.2456561339884768  0.5646323643594473  0.3609324249382422
  0.1383272813365102  0.5893752575600397  0.4355061804209918
  0.1434652979999358  0.6567440155816240  0.4160860329085577
  0.0479444589056713  0.7492710401063368  0.4706582622055136
  0.0486761903653970  0.8077646000185265  0.4613626372728195
  0.3152295719059098  0.1966250958209601  0.2847175589615521
  0.0496254764904123  0.8363222821331470  0.5149184420060737
  0.0209060017002228  0.0100069597382680  0.4447015379729739
  0.1945790050806734  0.5742252004254321  0.3978053601042288
  0.9615059632869700  0.0002000519011794  0.5513137072667544
  0.4177098036006621  0.2480597792724688  0.5253543084540653
  0.7424852700181653  0.3221920543470088  0.3919268895582517
  1.0200575806706571  0.9848182955612566  0.5759494826683829
  0.9162580401117389  0.9672968378477121  0.5931503231288352
  0.9774952457013639  0.9743715445248745  0.6169496263950894
  0.8141796265954788  0.7609505373981695  0.4852998654895190
  0.4733291352297615  0.1194653406751069  0.6183971452604587
  0.4813275477840658  0.1080870197928885  0.6842895554668865
  0.5487931602710603  0.1010121589294553  0.7073237203440327
  0.5862068094982218  0.1492202767159428  0.7087819493153338
  0.6200225608466339  0.0984093631914884  0.0733835425347457
  0.6951249098573820  0.0429235401948682  0.9471994858781710
  0.5873955144760223  0.1774084466478218  0.8140890706122605
  0.5773690474431400  0.1786845448856128  0.0912036868121794
  0.7071392848041307  0.3145062061969131  0.8970164507659940
  0.6768912624396674  0.2509211479264438  0.9517769313817508
  0.4819310068949859  0.2400474980777363  0.5508392906742814
  0.2566163867013906  0.7356987219174034  0.1445642092646486
  0.2083373129008100  0.8137943479412021  0.1675885171283024
  0.4022536713690281  0.0195386402065876  0.3039852185923411
  0.2625755719685064  0.8259868876445634  0.2373748214295000
  0.1177826287903185  0.9495138956072849  0.2659159731333980
  0.8290770953711436 -0.0226978961986846  0.1773470575218750
  0.8327290847239878  0.8399472867645197  0.8654425781005289
  0.7719539353784091  0.8180423587253842  0.7374881460290065
  0.7829454530415156  0.7765604308465076  0.6919755406496457
  0.7838900977436600  0.6878841450297295  0.0479990872624617
  0.4943696596775257  0.4088940731979909  0.2668195951321962
  0.5245517962216615  0.5706717782737034  0.5151369246744217
  0.7615145535386859  0.8049940713606341  0.5708044437949502
  0.4851015630314335  0.8210473808220596  0.4811345655961379
  0.7492991896589414  0.8457732872959254  0.6131398377224384
  0.3786652291415748  0.8221574326019493  0.4993235866655661
  0.8026499878675345  0.8817072342595741  0.6816842810052217
  0.3274968258565729  0.9100906406645656  0.4633946167866391
  0.8638043512085066  0.9034758319183157  0.8102386840794410
  0.3825635682001439  0.9631691129873128  0.4099592001635340
  0.9559491437658173  0.9841052474779303  0.8868192262674068
  0.9155914816265425  0.0253515024560001  0.3453176135518775
 -0.0009856778873999  0.8292280824509971  0.8793275136102957
  0.9368024374231584  0.1167596246051855  0.3487905297087845
  0.8811988505514323  0.0864153322295533  0.3405309375911381
  0.6432927623841560  0.7061847994292137  0.5661596355243302
  0.8888275539501911  0.1479761757847072  0.3223655778609212
  0.8383942652017379  0.2116337956793456  0.4006510119697754
  0.6832468901957468  0.7344516468702817  0.6673048903592337
  0.7427815052652582  0.7265445350346931  0.6859085226138733
  0.7326416938494870  0.7698867197237040  0.7315726664916299
  0.5324605848128980  0.1641658631920463  0.9457917174572640
  0.6869338271753302  0.4769144975494257  0.6391897111099477
  0.3690988390153642  0.1936277116313068  0.1845778643116243
  0.3036379941802335  0.1901443438148162  0.8305752727102954
  0.5339686573063760  0.9193237991710138  0.5312476745692687
  0.5939723647932149  0.8593222433076538  0.4466122161626983
  0.9942416287168877  0.1478765972099148  0.3604449092139708
  0.3808945042799574  0.3197440936846691  0.9505204806053883
  0.1386625770726764  0.0223289784393254  0.6564284488861797
  0.1655486564054441  0.0668123221962064  0.6979206311799040
  0.5716765996814366  0.7351943669939696  0.6886299242242947
  0.2161937624110926  0.1028765159025628  0.7620321639377298
  0.1560717776037521  0.1103816253613139  0.7410661971807790
  0.8441802229108292  0.2755108605011969  0.3833313491200953
  0.2160773624415378  0.1341860086672864  0.8686114405377587
  0.2851704240734683  0.1135236122255561  0.9544787905759240
  0.2654694105733817  0.1719253270792696  0.9304897061742341
  0.4033412888298278  0.2627194299221800  0.9620292531938845
  0.1867750673182154  0.0403995798625350  0.8248279134161551
  0.4781550846814187  0.4354913095375349  0.6318945664838201
  0.6428985027771311  0.7137451788548659  0.7686603885184564
  0.7189074476003189  0.7194149992296479  0.9594002681555137
  0.5184573356156598  0.6849163411670225  0.3036202374342757
  0.6621839469655050  0.6884519158172354  0.8934802454107177
  0.2444135179768479  0.1975347839310899  0.8093709403781127
  0.5388508049515001  0.4271533215550067  0.6518970528861959
  0.5839638461839276  0.8065339764002554  0.4022477296731958
  0.6164934746794206  0.4224901926311418  0.9012342961101087
  0.5867861967129691  0.7911680076470776  0.4655144033043003
  0.5682795449205620  0.3872795240357164  0.8351338269437862
  0.1787186828575502  0.9937675175984122  0.2133893845597176
  0.2251725079318330  0.9407633749946394  0.1382893101331418
  0.2926944662623361  0.1426159098158580  0.5578213526790972
  0.7192688260632615  0.0554604493679910  0.0629497313564616
  0.3422016161617454  0.1793498833280812  0.6250378781368968
  0.3320639509533072  0.2224578378145162  0.6679182330069552
  0.4027866923623136  0.2032829680920769  0.7504951283627699
  0.3329160742589115  0.2541153096497195  0.7741898473569473
  0.6620370581212411  0.2828224512751769 -0.0027986088613056
  0.4796663568226980  0.3317006639204286  0.8687449059372283
  0.5554436399187683  0.4421270579290563  0.0454045960835578
  0.5281191663915512  0.3682196718918913  0.9380715019332440
  0.5039602763034834  0.4542382617439162  0.0824683867333797
  0.1754947367974271 -0.0024327552018084  0.4463205137958973
  0.2496649823771868  0.0225211162032394  0.6390555029592437
  0.4311818231007619  0.2961425682902399  0.8020859628033153
  0.4096085743412237  0.3239987840941950  0.6786926665827460
  0.2554686572118019  0.7546513363659878  0.0894068702719994
  0.9968413541127239  0.1965653658384237  0.4020495271731905
  0.2058291578548456  0.1159590778599679  0.7000047627055402
  0.2200487662973826  0.8960790660065575  0.0930294900869194
  0.7121080652031687 -0.0074279273851935  0.0791605857886886
  0.8366011078416257  0.1334548687653854  0.2523267713883528
  0.9753747547297148  0.9255802412156714  0.9053351512505997
  0.6580948506107432  0.4125803756269959  0.6944479097428324
  0.6967294853460594  0.4628578049666633  0.6998442510586156
  0.4545535352939716  0.5636136065629306  0.2053081024503704
  0.6478362458732322  0.4558995352235760  0.7386968030684365
  0.4077845231503229  0.6104923339815687  0.3443100024486356
  0.6976481755393946  0.4917637200178448  0.8058395076080953
  0.7361463940394706  0.5411571349060483  0.8099037702075850
  0.4073865366938832  0.6243562000461418  0.2835488092476874
  0.7710924281363349  0.5705829874080038  0.9100444358266908
  0.0804783875007686  0.9355507904622358  0.1076493977190375
  0.8366185390418833  0.5550599286434655  0.9926287647500596
  0.8212769498947542  0.6072429747891903  0.9757229630932565
  0.8708566930030813  0.7246162952147482  0.8993341128572325
  0.1544119765539283  0.7842405327033219  0.1554221712431362
  0.2086368557881249  0.7961623654402706  0.2260390257148773
  0.8708323347940682  0.6963479465510722  0.7922583233027249
  0.1597580541577186  0.8469101164717373  0.1416605201001218
  0.8348003722490153  0.7537356579804437  0.5475267185684679
  0.7652274026595408  0.7614054929959276  0.5216679511823404
  0.1634067552104182  0.8908175053822406  0.1855824653336047
  0.6702928393973375  0.0856206975158889  0.0378908989734905
  0.5218975661289229  0.1800031688123408  0.8860560874319297
  0.4119664754278462  0.6886507323893765  0.2650045984124685
  0.7446898492319383  0.6074769585606270  0.5225661468603154
  0.0691182097337427  0.9814535308838701  0.2391004792493484
  0.7114475940687204  0.6578281486271822  0.5364313542078493
  0.5813323910003202  0.2396122064341138  0.0716636808992296
  0.4933355558369726  0.3770964820346487  0.1624940491006084
  0.9028160510091453  0.7879872229365144  0.8421270223548196
  0.9333152532680378  0.8514897751756246  0.7878720503175775
  0.4455938573993525  0.4064830147547988  0.1362661591635101
  1.0205261160005006  0.8147946148064772  0.9417752777639520
  0.9299124516981835  0.7548614214710977  0.9673573376545783
  0.9424496970581513  0.8691357389141534  0.9064514010461008
  0.6097101580282897  0.5219870598334809  0.4956653059696741
  0.4514144639045069  0.5152100971886804  0.1603064220841255
  0.6966495984150856  0.6003299323427634  0.5615357334264668
  0.3497528899924193  0.5645496965573874  0.1681784329307745
  0.3529052233291305  0.6121818759309696  0.2104028534479658
  0.8445782804298572  0.6535826040180149  0.7524427643494633
  0.3581920992316089  0.6726077386943036  0.1946680115395943
  0.2561867635799585  0.7184805291455109  0.2051250493419922
  0.8022205691226570  0.7475814720766127  0.8156176222007460
  0.8653117385153852  0.3477544759997922  0.9452281451513130
  0.8831091586281761  0.8175715827069439  0.7194490508859738
  0.8767016283630429  0.8331268648650021  0.6578830423369001
  0.5440193350973420  0.0109397738281213  0.3900287606243483
  0.5089273710380455  0.3957436103576946  0.8132126758310306
  0.4588929798730140  0.3590382720034038  0.7459479016824309
  0.5614111647378248  0.5775639030415857  0.4105875824699523
  0.2198417226229193  0.8879674557124199  0.3182607384380182
  0.5597560494873072  0.3714292992749982  0.6663810206812827
  0.6680341641096281  0.3988328916635601  0.7547710955596038
  0.2684983574939638  0.8541524215280114  0.3448459109092642
  0.5114109365119713  0.3341968837601212  0.5971112336596348
  0.5699078076852918  0.3264793094097982  0.6198881889256561
  0.3150703434787996  0.7937603426261528  0.2618173722577130
  0.3659416121953531  0.7632698669795709  0.2859045303755313
  0.5128073203500988  0.2010304666437735  0.7347006730771709
  0.3655899943669872  0.7488771892000833  0.3459880393241975
  0.0521059404644689  0.7030382244812307  0.9688913117465747
  0.6461534535689792  0.3467878373746862  0.2247552002388324
  0.5573229966728130  0.4856579120872087  0.0905016512743561
  0.9511754519918050  0.3940398239351741  0.5260277756057830
  0.9971860967794132  0.4276227149625735  0.4820333165444744
  0.8089914591589248  0.5978114340299812  0.5456920739535539
  0.6793876109243759  0.9273722754608243  0.7465589709984118
  0.6694012575303467  0.9698579914021153  0.7905466742726721
  0.7416426346270466  0.9193860320173159  0.7672406864786230
  0.5560688379974781  0.5010477044423398  0.0319756957157632
  0.3285137121526095  0.9435556852576766  0.3392516208102392
  0.4375586810082121  0.7863718612962932  0.5214271804224172
  0.7068816348659833  0.4781483571995606  0.8667331648318374
  0.4511404891495168  0.1150382585798848  0.9536491398915770
  0.7691436736208715  1.0057451959520198  0.1544586217971059
  0.4714416712986824  0.1836559745349496  0.8324081770456817
  0.5682227310237336  0.2197072771458942  0.8553345297662699
  0.4850160688830368  0.1386248053749866  0.7899971728943594
  0.4455043342327645  0.0881529727570641  0.7876729157943786
  0.3948492596189087  0.0505591920225423  0.7203023643305452
  0.8771238788415066 -0.0048624444208496  0.2540340982142196
  0.2770722014864947  0.9484098302180962  0.4387458916427193
  0.2190443647448383  0.8708555981644509  0.3844656243979779
  0.5873655409972824  0.3586136759426531  0.9601719823970501
  0.8613574105209248  0.9964102195218577  0.5669019835536302
  0.8002316034111510  0.9649944054325853  0.5567558399462866
  0.3691494055947946  0.7941750099172727  0.3919698272074333
  0.6783133330272925  0.3845985688662109  0.8169187674143379
  0.5617387033109016  0.2375449087037450  0.7983359447230800
  0.7393542387727837  0.2407917876267704  0.2390385663894126
  0.4799524336873574  0.2711696028240445  0.6555310732997753
  0.4299930356564263  0.2347038146782416  0.5868928557456777
  0.7358005184674349  0.1938142798590700  0.1976699367279877
  0.4512995549781663  0.1759543648847522  0.6062175072786387
  0.3835134022045436  0.1932661751729718  0.5193508724749237
  0.7158765271687543  0.4632609967456431  0.9289303302599407
  0.2685615518083563  0.8649201924291897  0.1161621679953260
  0.5640920180045202  0.6361695341642057  0.6622532452131865
  0.5409312551785348  0.8065790853108394  0.6118303112875857
  0.6821686111500007  0.7636659291265213  0.7732142249285731
  0.8998217955629302  0.2729076748089488  0.2851793514759091
  0.8466582041334260  0.2878760075162980  0.3207353378940540
  0.2424418040197203  0.1085865415775126 -0.0030589230309747
  0.2448586631497371  0.0634980674975612  0.9532367944355549
  0.8204788652883804  0.5596217753199860  0.4438836332803004
  0.7238149112343227  0.6036566490892732  0.4569597298043867
  0.5881648315574989  0.9027397029794968  0.4970134100094674
  0.6190936101087529  0.9345353271323447  0.7261359147055247
  0.6427120048178419  0.9830021905908010  0.5510253489925778
  0.6309152957315881  0.7133255322865479  0.5083460299741869
  0.6881321815657393  0.7402188853439203  0.4577219556658210
  0.5404931436316809  0.8022646956639898  0.5130934313391600
  0.5612529414710280  0.9111457456465075  0.5920891404862283
  0.4862188520309642  0.9642218921035017  0.4418947967957378
  0.4557090986126644  0.4203693693735760  0.9581326738343803
  0.1276481612590749  0.0386885137645077  0.5970510443132842
  0.0733293964360949  0.0429223453668634  0.5205245981153226
  0.1819160712370835  0.1713652372491458  0.6845853436145165
  0.3146953263557235  0.1477669910156811  0.0149725261057671
  0.3206374286684531  0.8265545548298040  0.0464783873614513
  0.5422273181943635  0.5897587885469810  0.8855305049321293
  0.4784390330847577  0.8129524448935114  0.5928103904252386
  1.0355474886283651 -0.0052221289643375  0.1880598440828813
  0.7181766879444714  0.5409413032717103  0.5830749544784198
  0.4552061106065622  0.5250854321192778  0.7186409895895011
  0.3659688992511174  0.7944634463154588  0.0093427363365384
  0.5296693065253998  0.8500529963981219  0.6551714771600271
  0.8190249587690268  0.5147987817432524  0.4010794788922331
  0.2237142612810649  0.2251542398916792  0.6880945869832533
  0.2371159511985232  0.0765574169875974  0.8890433036492610
  0.9708027812946241  0.4382483040129370  0.4230363565199026