C  Cr Ni
 1.0000000000000000
    38.7782925608872873    0.0000000000000000    0.0000000000000000
     0.0000000000000000   38.7782925608872873    0.0000000000000000
     0.0000000000000000    0.0000000000000000   38.7782925608872873
 C   Cr  Ni 
 106 1596 3725
Direct
  0.3170295381083320  1.0062292991836936  0.5170873336599574
  0.4194070305948063  0.1533349655642038  0.9245146041088523
  0.3492010028857644  0.8130433259508351  0.4671808865954857
  0.4673070615694283  0.7737172758765175  0.4751767687232368
  0.9043587525652192  0.3078748877630147  0.9396098657900017
  1.0511470107715868  1.0126639621005324  0.4876271900804506
  0.2176572048080728  0.9756138903448016  0.1795294328011980
  0.3546063570040398  0.9407828624564838  0.4365763759278771
  0.8511332018646970  0.0358096923582157  0.0284721808540930
  0.1603157284589422  0.5083620749763932  0.3806824741088292
  0.3945104214460750  0.7066988298293374  0.6500142611597808
  0.0718329607253368  0.9388090911251210  0.5173978440639679
  0.4731953761386186  0.1645979968484590  0.8797698139269035
  0.1521207240396411  0.9629409344423310  0.5583621498961971
  0.8860940358582331  0.1805449304549676  0.4794072454329569
  0.5516908761476821  0.7798827778561150  0.4319570504794487
  1.0334458283754095  0.2824840294775627  0.5178611503495079
  0.6717893164169597  0.2880377382297354  0.0467656484109527
  0.3599387486909138  0.6301228029875655  0.0269446287892614
  0.9326766664599635  0.9936733920342422  0.6342255035833679
  0.8840320685193185  0.9374943465111671  0.6253865802343891
  0.7702225112945336  0.9289271002125464  0.4067677803289955
  0.5773698398407690  0.8988504765304884  0.5465828856999790
  0.2625259474175613  0.6015780216981821  0.0244862637025413
  0.9128730084147644  1.0117778915371731  0.5655647367547175
  0.0799954023927437  0.8313554684864681  0.4344956665733447
  0.7955741188880403  0.0042822434917555  0.8939761783851635
  0.8795851416300972  0.3268788807101700  0.5263828352584634
  0.8676108305625684  0.2117647105034433  0.7137194972736737
  0.9886414988161504  0.8957965359728961  0.5453908978991779
  0.5559812240718017  0.3295248713057043  0.0426196167351705
  0.1423833629025934  0.8375987148280081  0.5186571764001386
  0.7776845797887926  0.0709803561217694  0.9365705627153724
  0.7453287412748408 -0.0307793709891606  0.5605845059992666
  0.5205159320894515  0.0805115347138720  0.6724461274954823
  0.6117927963488486  0.0870693429463349  0.9394385925230682
  0.8337646691371084 -0.0143148507960729  0.9604493628316029
  0.7999446128536605  0.9481735041964927  0.3196335958951493
  0.5603333006408366  0.8504213729767985  0.4095903313764835
  0.6083724912347651  0.1756340023112098  0.9178050822615474
 -0.0268868806970762  0.8295010305695103  0.9242633514513273
  0.0197896443082682  0.2805952859803919  0.0510208749886290
  0.1485069739697855  0.2877834487953124  0.4981776606500520
  0.2968175271963847  0.6520773651892328  0.0726991689153361
  0.1069815867636228  0.4771091379505156  0.1320589622208605
  0.3151371532498143  0.6209170179626456  0.5521689350546639
  1.0108792735450125  0.4096612913914472  0.4322120180583037
  0.7559284151575137  0.9878143237895129  0.9868321824316045
  0.1335738669414177  0.9673342711847572  0.4795476525411398
  0.3438304789528312  0.5517741688519974  0.5110122547611284
  0.4932879084929013  0.1271305464009040  0.1053477243917335
  1.0063047093656428  0.8296878644538928  0.4814658293009377
  0.8909384473175992  0.0447929393702444  0.1195043759381602
  0.9760879923521252  0.8341475347704047  0.3941743016440356
  0.1360973710996083  0.8660469929026713  0.4491757664290774
  0.1691374292640611  0.6159165963494402  0.4059302337029911
  0.8789670767081443  0.9516827985837234  0.1541133725019107
  0.0202392958678588  0.3390029608071626  0.4613890788631165
  0.2026433928528356  0.8801853472320454  0.5215616570986719
  0.4417009305090052  0.5696993366052946  0.5493599179313150
  0.7413577712507200  0.0182912528971018  0.0522845567971034
  0.2406506309846807  0.7018601882212120  0.4711464609838041
  0.1963046187833300  0.2028765443765668  0.6506702954080436
  0.8829791194199111  0.2429245009578709  0.8911990677967236
  0.6887709066087921  0.5295962020177669  0.0284183161357798
  0.6811187956368867  0.3262184823949689  0.3995900687159767
  0.3871911453293609 -0.0011800805358076  0.2619420375410181
  0.5141962635200217  0.6453163623278408  0.9819549875391007
  0.2155681825106295  0.9578098079292540  0.5208054797360275
  0.2760719958605070  1.0438709378410711  0.1200796613940184
  0.0902570687290561  0.5213828271949054  0.6883163028168965
  0.6523023955201620  0.1952821725252464  0.5232725541737396
  0.3664096783555720  0.7161964494286300  0.9896423772006526
  0.2783857986646514  0.9240426126300676  0.4812105619384059
  0.5689684229748951  0.2476697630966778  0.0230009725093630
  0.8050559211157829  0.0901532657507885  0.1076092633074175
  0.7228492804317798  0.6437589936689987  0.4884517021212271
  0.3253880483772781 -0.0067167006643075  0.3373461274980395
  0.8654825067381136  0.0119443603913022  0.6678910838280627
  0.6279524145977303  0.8993705680979669  0.4600381049814076
  0.8802316875456601  0.9277495961698400  0.0832225780923577
  0.1824442278952357  0.3291846507381491  0.0315818451916407
  0.9524131367290734  0.3620312006111235  0.4889330859659063
  0.6646620112028826  0.8604109247051560  0.5464883636720070
  0.8320989285909426  0.9864230425499254  0.5269240810530795
  1.0138262491835763  0.8975604307311436  0.4540830660502946
  0.5495509391071721  0.1648478683082359  0.8457520480620515
  0.4879523731347278  0.7928405763115742  0.5009828978627371
  0.3305049208712441  0.0881251712947210  0.4281031057692503
  0.4897304412013310  0.7257179528668736  0.0823494184553182
  0.7881724161711222  0.9802691046304922  0.3360675783645700
  0.1454910248276870  0.2347724294422838  0.4362033103947859
  0.5592962343750693  0.8317123370830157  0.4809924204263876
  0.8500491011549952  0.0621218671541843  0.9574186105599636
  0.2679464850049286  0.3052851561969471  0.0135785013160577
  0.5271277499833456  0.2302412464234140  0.8871006321859667
  0.0542517936602534  0.2012459410809479  0.5285490328436977
  1.0166408935509070  0.4971252589629208  0.4292811612289617
  0.0503279199000333  0.3814591966740060  0.5114938850275258
  0.9899142395142086  0.3421537656959663  0.2040004532849693
  0.5241301177474385  0.8138465383566147  0.5647298720095114
  0.7157867542957564  0.9233817053308645  0.2757626348394563
  0.1953716537435762  0.9120594112760556  0.3917461337551272
  0.7081080418679346  0.7561144831656575  0.2619200037012010
  0.7643269217672505  0.9851537072720752  0.1131238004447091
  0.3306640296842511  0.9658564751940555  0.2417520997176533
  0.3727804033123969  0.5154327474311341  0.5313938755165920
  0.7850574626901098  0.7152781792608062  0.3840444188478257
  0.5965114475494164  0.6230655015127414  0.9522896569090979
  0.6600970345235645  0.4699152763720784  0.1869373293342539
  0.3397779858817835  0.9754416534658924  0.8488799284198001
  0.9510052292750946  0.2419222439614366  0.3143382825654080
  0.4878498481270843  0.5550794185898386  0.5594440635675418
  0.3500260353036023  0.9635129164097459  0.9102099860230883
  0.9402076361609035  0.1028652121675921  0.1811448608688305
  0.3983288069434527  0.5684846360832269  0.5266927227242850
  0.5933106410782141  0.5946884897439774  0.8449598675798996
  0.7097610600809622  0.4404922146329551  0.2134542934748243
  0.7904199113265863  0.1940616512034224  0.1013489425454014
  0.6072508903135776  0.4862364394516677  0.2225687409750710
  0.5552601082331104  0.4860304934504323  0.3197868733383339
  0.6632944133128353  0.5162467133841181  0.2304655567900442
  0.5829661696412960  0.6079810240787968  0.7852678771100159
  0.6221394850268503  0.6572356997343782  0.7883011057803454
  0.7698661503212572  0.8633863012994446  1.0048001690140667
  0.6319980601802604  0.6462626141978651  0.8515149427010124
  0.3794918871370529  1.0094262582466593  0.9507086229328348
  0.6725330575977081  0.8067072317789995  0.8197510138084979
  0.2033962112687667  0.6065126030283295  0.8895900128237870
  0.1521583266604647  0.5292902159654972  0.5108142692365683
  0.2557757528704898  0.8221638710137885  1.0159079899614869
  0.1709641325026617  0.1856233639160305  0.6116983772798553
  0.5932861718361782  0.7052563494026022  0.8114230113417898
  0.1385532240510635  0.2596840163407507  0.5447147969734552
  0.3810299103058616  0.9807957775231833  0.3450530784883621
  0.9451922973952148  0.1791111057986266  0.3321977555322393
  0.3901759960494816  0.9929432173553295  0.0162764103167970
  0.4371527385062025  0.4463454223182183  0.8382145932791725
  0.7640575922993188  0.4943931886635148 -0.0089805538244998
  0.7758124019563779  0.5199610678406535  0.0418721029692534
  0.1663883615357077  0.5455567628367436  0.6820141628845193
  0.1288212006774689  0.4941879926700841  0.6740883920963403
  0.2972247600017899  0.5177290942733159  0.7841718699215756
  0.4698904311628853  0.8273464562548063  0.0804174440634975
  0.5734625613523880  0.7814422330780778  0.0655191769598421
  0.5170891104820933  0.6849943282222216  0.0738727816275952
  0.6204846823328622  0.6598917737319466 -0.0000612579152501
  0.1362476034048048  0.4522929307414358  0.6268124145445596
  0.9790124491771856  0.4680161181399541  0.0714579583244548
  0.0452057848848570  0.5622649209885942  0.6365918958632434
  0.9230359796550551  0.4884396258564373  0.3299465092490901
  0.7992643774623286  0.2864382762805373  0.1866255580782868
  0.7072594329574218  0.3933814288676947  0.1712145357931083
  0.4176019497370292  0.1767095236297169  0.3795022870956477
  0.3673375700999761  0.6884020486410753  0.6919101559492794
  0.5913646226446186  0.8707368329387212  0.7828894389000942
  0.6851551246896039  0.0258874789739850  0.7693511273662512
  0.9350135732272796  0.2109433638874184  0.9827997766069531
  0.9275719012266194  0.1848115816193514  0.9288979068788247
  0.6147718322664819  0.0392552077479593  0.0841771379763886
  0.8087301183412583  0.0867805266912385 -0.0282889951643729
  0.0109352725334787  0.9356037625056935  0.2898850984779666
  0.7858719439801328  0.0682460337934577  0.7935798200835339
  0.1061206423172542  0.8440739846130099  0.2350267383175033
  0.6487591512374961  0.9973565980451639  0.6666039481738583
  0.7857729061894283  0.0375994255897955  0.6867188162922858
  0.7031452522626320  0.9555175010430000  0.5822439643332727
  0.0996748196201173  0.7365395099013270  0.2049027647524656
  0.2019233501635925  0.6888490439907132  0.1937631505987644
  0.9861500963844767  0.1833164086769812  0.9496111185071052
  0.6898030878889770  0.9106891595104935  0.4723603277839530
  0.5823741658190124  0.9441882803142566  0.9351963525997276
  0.2147969506300012  0.6307944269573040  0.5022839060687153
  0.8703590561491696  0.5023609723104218  0.3640324809710859
  0.8728448485771553  0.5489306328989240  0.4077626572920414
  0.0639727463461927  0.5018777477928393  0.6517066136753713
  0.1186654837983152  0.5417519294909249  0.7224282027706815
  0.1048816806494276  0.5557630356377375  0.6569924940615859
  0.0643382990485221  0.6177480679348757  0.6171109675996121
  0.7886701846589398  0.7045670640066238  0.4470281519251264
  0.8239481715970308  0.5786874839551347  0.3801340299754912
  0.9307817648461225  0.5811719910248908  0.1893746698134716
  0.9899297553924336  0.6761141643294960  0.1836027851798448
  0.4108376784194770  0.7268931807327451  0.7527794674290358
  0.2062867488416204  0.5637563007906196  0.5815824984754764
  0.8326953339005936  0.7325891261751442 -0.0018568162901608
  0.9813922447170501  0.4870315203467650  0.4650793562168109
  0.5484270897761165  0.9848810686780340  0.7480954078686389
  0.0766718475359270  0.5215928264071283  0.8206027589321285
  0.1303472685066723  0.7411154677803637  0.7662846084828489
  0.4895653371865357  0.9917671126495544  0.7269714170995495
  0.5162497143298392  0.4849165340566117  0.6356640665626264
  0.2416662655687322  0.7692598769571131  0.8556452347933931
  0.8328821871624452  0.6867276080635216  0.4090363233485999
  0.6035734068334605  0.8846960544724930  0.9522074869577067
  0.3638741868656610  0.9552955469544606  0.9661912451829752
  0.4620614740052589  0.7654048654070065  0.8170226200024194
  0.3902859734692125  0.7545026584168321  0.6299146091218512
  0.4227209160949155  0.7120226408331890  0.8151852661292934
  0.3529722253277400  0.7328877507405123  0.7328130096293594
  0.6393536461888318  0.9907993980497947  0.2565374473252108
  0.7335060709828433  0.6661036288586436  0.4407784007494031
  0.8381233772779493  0.7662308022627902  0.1039532589975900
  0.1156504190920077  0.5095198929160745  0.6132487831756861
  0.0780667857631367  0.0419608795360409  0.8432000299912670
  0.0232055073977702  0.0574316922324763  0.4882672133888135
  0.0453241747415166  0.8222728669000213  0.5779026845397236
  0.0347198668188859  0.8673052015513401  0.6220554468523746
 -0.0069999360938854  0.8164143407621135  0.6136262485227195
  0.3223033760588939  0.3124963795336531  1.0026581427319750
  0.2148878366665681  0.3104601027658614 -0.0042496466711888
  0.0883043661438900  0.8261965907876117  0.6268800212339515
  0.3333447270642537  0.2825353198781204  0.8843202358212843
  0.2336156660144859  0.2413695112399619  0.8515769218406160
  0.9136437054832290  0.2048594512646848  0.8723821709455937
  0.3783628030506079  0.9513261717320789  0.2415887029248045
  0.1625300448888913  0.2610819106849325  0.7719406765373334
  0.2230964754383843  0.2535244892633060  0.7925603108305683
  0.9469942865882686  0.8264231547076953  0.3540491438929670
  0.4783116531503576  0.9030635108563932  0.2293098306943862
  0.0084551917484444  0.2869401013655605  0.2590069060174287
  0.9062745930202342  0.3339644966304953  0.2646905572160640
  0.9016904786063794  0.8817786053529281  0.4399676836090096
  0.9494502243707206  0.8748204380334430  0.4046387913767532
  0.0662809154703275  0.0828400929722628  0.8856291102366545
  0.7912226568420299  0.8238128486734790  0.4111942271385237
  0.4881533660749076  0.9800992474851755  0.3809806368818217
  0.0938152720684723  0.5772830158618109  0.7992979881137707
  0.7207671299048054  0.5945670792622927  0.2862631797799649
  0.7252436346359685  0.6389177276401706  0.3310029986731713
  0.8264028768756188  0.5944682344811085  0.3201193208810579
  0.7754488127541007  0.6079638278715938  0.3581312548065582
  0.5101648669344749  0.9370947982097863  0.7454056979682223
  0.9840619342400782  0.5967854202122909  0.2604702785799692
  0.8720610796790038  0.5172494481637584  0.3026827629199068
  0.1598278692449860  0.7016221202787823  0.9502742690327598
  0.2229930100168672  0.6983158844227543  0.9755067750664123
  0.4678185163146066  0.8570003253735529  0.6354142974190677
  0.8639652547089552  0.4080013861202876  0.2759069595309837
  0.9154552310246841  0.3942829848250033  0.2441509082194964
  0.8907214186842313  0.7504375505565989  0.2974245118209682
  0.9581220532316728  0.3173720865503754  0.2327363614367119
  0.1441889515255037  0.1537497011983885  0.7857752191652755
  0.5300507125777032  0.8695165855812528  0.2533222321882355
  0.1730096291805387  0.2168297456085138  0.7273222858338255
  0.9551217220351880  0.2719560133903034  0.1911301423850157
  0.6603730849345780  0.0332332267305244  0.9851040333493863
  0.5709443498607560  0.9590629812228373  0.8745887267116790
  0.7305090326957957  0.6996581408554471  0.3142957845839016
  0.4225130163458715  0.9475759547459077 -0.0043760525586648
  0.3889806405103544  0.6630454597020330  0.8135657152659739
  0.0573549616077779  0.7342345620471201  0.5729386295145069
  0.6039173978812673  0.4381686703346142  0.4056192562260281
  0.9334054562262696  0.5975848555938665  0.1307981913448261
  0.2939709127905026  0.5620589636661191  0.0357380940286011
  0.8833832971606087  0.6284259878911254  0.1045846516669677
  0.1806476277027758  0.7458918406538788  0.7275928309152583
  0.8275701133042311  0.6203459559032387  0.4235658572860206
  0.3231585724757421  0.7041983762669557  0.8945843606420826
  0.2932906286463201  0.6288926847043776  0.7529453933495261
  0.9230924717900387  0.5647567189980132  0.4811131940638370
  0.1238565173657279  0.6413852987756388  0.7443273307199034
  0.7833956429893981  0.7182667606836063  0.1547066386410534
  0.2453716682535441  0.5933456304037742  0.6819698521981206
  0.1725901858670528  0.9836737801597871  0.5125465522673740
  0.7247764756075783  0.7810844188271521  0.0015120500734655
  0.1061608895991793  0.1046375285997502  0.7832929938048743
  0.8554065395050212  0.3184141846683963  0.1952436524462508
  0.8366404619908713  0.7199971846240828  0.0591111301103831
  0.0735105795925294  0.1741012539235123  0.7016533664609053
  0.1392004786980478  0.8603570047246922  0.6928450441772694
  0.9463141922277321  0.1627837048275136  0.1649410646928830
  0.9496070115731173  0.2095427169089558  0.2093263609626365
  0.2202923943300198  0.7646545467230828  0.6273460650667486
  0.8025452927174719  0.9797714400138758  0.4877738835711786
  0.8822967692373611  0.6420066418918858  0.2691786448506808
  0.0156780334335339  0.4671497552223932  0.5868377467724188
  0.0767700205707257  0.4590294194354196  0.6076142254156905
  0.8459751653477058  0.9842130331303113  0.9108196533077942
  0.6860616003750337  0.4454938215224024  0.5310297620085710
  0.7866746427241820  0.4901362542513880  0.5611836104104716
  0.6161776152667284  0.3390486853340592  0.5190295123226502
  0.9807637537610848  0.7225584481375219  0.8829254632144546
  0.9404691277474904  0.6720820860443605  0.8779594115981799
  0.4615532173206762  0.6257047748181084  0.4160292374398353
  0.5130863440992333  0.5935235003854800  0.4468702085588708
  0.5081955988276787  0.5484920459815079  0.3987786918141056
  0.5092239577568765  0.5357018892522325  0.4589868860905584
  0.8541598536147674  0.6098959939550727  0.7083424535853390
  0.9085011424124984  0.9432790750810863  0.4225331177470750
  0.3729568861172256  0.7074067615811491  0.8560130192842753
  0.2004941641570805  0.9806510711367329  0.5700026873332331
  0.1841263899905843  0.2356194395902254  0.8929708531872549
  0.8166364482405942  0.4543120151566030  0.1900857033830220
  0.8662828385574282  0.4239346567939400  0.2148464613136302
  0.1228116676434748  0.9411643406864355  0.5206207119948927
  0.9108780343340701  0.3496318723487595  0.2013669910826550
  0.0954397746431395  0.1484222873649724  0.8253111210621595
  0.1825235602957784  0.9235361858520660  0.5412894526582308
  0.8571435077150635  0.3618917545615091  0.2364383347967211
  0.9556286365836295  0.8405899043085173  0.4769052088105317
  0.8420633248171994  0.2239322703668835  0.7875627726371230
  0.8265231067259150  0.5678230146430077  0.6710802001634719
  0.8456474708433602  0.9369141159717580  0.1183039501951351
  0.2631549649078328  0.7943589217007433  0.3588215889663616
  0.8865967410620508  0.4234584212431958  0.8260993748957736
  0.9205614242999723  0.7014710853385012  0.7531395880692218
  0.6816598557364916  0.1821551913910596  0.3544936881342230
  0.8850273441638011  0.6745473529563231  0.6522426377929760
  0.9444459958551310  0.6660612271731878  0.6756684122040474
  0.8287944385560236  0.0569873966251936  0.3285741393499334
  0.6965443889352453  0.4319638593162854  0.5940744432965677
  0.7574091894868412  0.0604216195079734  0.5062582977912932
  0.7561532731085019  0.4233660047608920  0.6159321234844992
  0.4825888108525475  0.3679330031422703  0.4627874926101531
  0.9487252389427426  0.3856419730149709  0.7404708336120787
  0.0208401387782876  0.3338686298617433  0.7147121863540676
  0.9089829424160468  0.3362272351252114  0.7345294846517313
  0.5587774817760111  0.0098444283454998  0.0712943186065278
  0.9209540259387066  0.2934067231195218  0.6893104239936435
  0.8596064067551369  0.3013676735841327  0.6696067994865373
  0.8714674536781409  0.2561973588534968  0.6227178408553400
 -0.0021614706687278  0.7977518752944863  0.1531059901423015
  0.8195691016413459  0.2213856874520116  0.5577601339816787
  0.7547548185234357  0.2400343570267709  0.5339084235663275
  0.9763390210841660  0.4786020355279624  0.7927372903559802
  0.6320601644821788  0.2581410652217415  0.3691771765786598
  0.3606789377391872  0.6873852187107827  0.3619675416549470
  0.1483124253947382  0.6758877495424984  0.1237921404293876
  0.8383121712411441  0.3291532538891065  0.5511825338276487
  0.2692029087857146  0.8135995517992272  0.4690219394121821
  0.8545597866364453  0.1900109523118282  0.5203073677534912
  0.5799422840059707  0.2078155550413583  0.1960911787335531
  0.9370996938771430  0.4297464432462831  0.7855793570117833
  0.8165725007671800  0.4461954438298627  0.7426053110011908
  0.7695110945526040  0.0265936846399660  0.3225210002312994
  0.9027826956607740  0.7319865171651850  0.6275375254429169
  0.2714743077221273  0.8811094351725306  0.4541080676192766
  0.7387332295488427  0.2625984130567440  0.4083196286655354
  0.7891755116351403  0.2290661791758304  0.4354942027986731
  0.7864165856410025  0.3829540606084460  0.7998205404052685
  0.7355154828130622  0.2127370541347262  0.3622885494492207
  0.7284682030332784  0.3609590480170432  0.6701792462201991
  0.6687150040152549  0.3688207453579798  0.6481338013217383
  0.7192776262332274  0.3753416563766852  0.6071767216373797
  0.6795213995910256  0.3251984576858523  0.6039166155712158
  0.0459434801045274  0.5907989433722441  0.0033747584898624
  0.9141697268117815  0.0090611043580434  0.4050432832916395
  0.9424142984505360  0.5593201836309503  0.9160586556479976
  0.3220169079490756  0.8518594881011617  0.4785115107379126
  0.9058047109056996  0.5314432521143745  0.8149179427968918
  0.8804443595273246  0.3736723554735281  0.5518340061383259
  0.0459612168135398  0.7233701043892714  0.1350454218832122
  0.8991317534807567  0.3497166719789948  0.6745976310184767
  0.1773145863487486  0.6490720907128175  0.9766326786088142
  0.8732081723055020  1.0012707929816376  0.1315610222527519
  0.6352385499517565  0.1537611324463612  0.6684754988100978
  0.6883690804635710  0.2837477979355519  0.4376831084737111
  0.6936533207018152  0.3518151604884815  0.4378076848332010
  0.8660944397053594  0.5114486047847108  0.9144555103715314
  0.9252681186748437  0.5032414836063108  0.9366702297274989
  0.9345756551493321  0.6815593149686119  0.6139412867482934
  0.2272814434151171  0.9123118668494210  0.4935013496182458
  0.2172735313681973  0.8570252265228332  0.4459931991215006
  0.8285065862787447  0.6517259362687919  0.5270116279877313
  0.8462597771395195  0.5111963314758765  0.6877618877475241
  0.8959396752866449  0.5458521263856194  0.7541679904392488
  0.9242002524891962  0.8102563823418693  0.5198038110581534
  0.8361311832568273  0.5536906093321646  0.7316092095712619
  0.8399749962577756  0.1976659990813199  0.4598494075381818
  0.9973640265778649  0.4215979263461502  0.8056351321017061
  0.7376181795990635  0.3454071387861353  0.7324001260450211
  0.6389331959334412  0.3042239946176204  0.7052008596221229
  0.7960066706584240  0.1676084306206645  0.5502220764807783
  0.5891230570154612  0.2683053755054171  0.6375936300675229
  0.8634702339246770  0.0729252234768805  0.4816125033253997
  0.5909289218041964  0.3801178407635040  0.4272200711797025
  0.5626011724106584  0.6773074861120446  0.9769488307755068
  0.5520061219152905  0.5001210135022567  0.4807730798240408
  0.6633919331875163  0.4516509555396054  0.4747341501819778
  0.9377506076240603  0.6509339016478206  0.5113059333063422
  0.7001153470211863  0.2969822832910133  0.7284651555278273
  1.0089473528998456  0.4094665262586997  0.8680682031047240
  0.7035949450218375  0.1324685082984283  0.5174722335608675
  0.5088056699894730  0.0245061705574036  0.1055429432382438
  0.9264721258599333  0.4431786317631156  0.7254176591538800
  0.1110605982929741  0.8720842918512857  0.3420537208086842
  0.8770099165960560  0.4079723322128745  0.6602289262844190
  0.8168053481360370  0.4171115771105737  0.6378712062103448
  0.9253967664440070  0.4135349973111627  0.6201413122178266
  0.7689997544683559  0.3813168768935297  0.5594675750187229
  0.1520138266410852  0.7493488052318595  0.2751621816028110
  0.2013843980133962  0.6727669695116363  0.2549708375405484
  0.9955103884311994  0.5571568270072051  0.6759962211100489
  0.2974122033805111  0.5811949169535607  0.2032740718017574
  0.8533060208425061  0.4420694991960189  0.5395593526008782
  0.9631092354256283  0.6075664923056930  0.6927636876653034
  0.9862029420818190  0.5704918914188056  0.6152075705564884
  0.3910385538275629  0.4093604895946859  0.2345633504784421
  0.9772575370060588  0.5840257706270726  0.5542610843296806
  0.4401673153453351  0.3446923997193769  0.1579666572486703
  0.9292739287859531  0.6015468474502703  0.9581535823351667
  0.6509795856046890  0.2613781813761457  0.6601203685006084
  0.8153003810657057  0.0389444646357160  0.9266369112902647
  0.8699870243013503  0.4395720800746814  0.1536253279249766
  0.8252209145634856  0.0880557377797545  0.6926950274444784
  1.0029932312292165  0.5522338763390962  0.9381217410002819
  0.7222430182147132  0.0275065472726999  0.1956708384968242
  0.8527124934381756  0.1770968991366869  0.7446954298170113
  0.2447488769706870  0.5501039459719569  0.1922569699468510
  0.8042250762082183  0.1442780366986222  0.6776212669775815
  0.3451476700987053  0.4524176031771116  0.1438070772375358
  0.7575820421920585  0.1075821399096211  0.6090932511777302
  0.2917397488995274  0.4227557188497309  0.1346147813578789
  0.6576294795085891  0.1007193119794734  0.5018630623883038
  0.3927031024536914  0.3754365326930251  0.1315788685400965
  0.6002236529163152  0.0253582194123631  0.4593495532402798
  0.7534821827619012  0.0408595667318638  0.9015905607059733
  0.9023779644608356  0.2453058066036866  0.9358995431877835
  0.9930445904933282  0.3014727286076696  0.8774862128201000
  0.7466425853814750  0.0190527504312905  0.7894418100116514
  0.7617674194098043  0.0007440362829836  0.8535776768037117
  0.3866793124521780  0.3309217121021229  0.0915732877343488
  0.8322428325154969 -0.0005105963923420  0.8545078544720572
  0.8277246539570848  0.4020634320538564  0.6979143799528537
  0.6293539719994253  0.1757322208966343  0.2235304104580550
  0.0653338461289599  0.9495158833082336  0.3619533953770068
  0.1824640117827991  0.5286340602302481  0.0050489262663245
  0.3350300258092497  0.3447583651239831  0.1224996946723480
  0.7993174973097846  0.0503183849650842  0.8587860825822108
  0.7661923740848438  0.0610807206090148  0.5633777850825836
  0.3790377343995591  0.2693603417782511  0.1063934199750230
  0.1926876536463385  0.4310363767234125  0.0384938698705963
  0.2533879492908548  0.3588232107117433  0.0151161085565752
  0.9436800198123905  0.2339841424612182  0.7043034193929530
  0.6691886046013331  0.1648471794647381  0.4885814051063777
  0.7251696965111164  0.1360782338464781  0.4419595991197938
  0.8571339519031785  0.1470560369208213  0.6383715629271327
  0.8088747382855904  0.0297862194294025  0.5346094077923670
  0.1908680213779824  0.4836283232517482  0.0752879412773455
  0.1405729272151937  0.5641574345900476  0.1007454158562331
  0.4773250175186399  0.2272836070465455  0.0978490094375031
  0.9527573958830075  0.4780771153278598  0.5651562522914951
  0.9056222459634983  0.1828146733434461  0.7004339917497303
  0.4716120241657431  0.1874860095728772  0.0494155582507066
  0.8411415758017705  0.1915491122852365  0.6776865525231981
  0.5142040215166956  0.0838721491988635  0.0928980395814028
  0.7726463081418913  0.2138371651253411  0.5952609672036927
  0.5219892101517558  0.1332247197940394  0.1445305200145029
  0.7361214304671295  0.1633386663475384  0.5941974437514276
  0.5643831295302486  0.0695778934637671  0.0586344827832713
  0.8036299620910636  0.1754329767019636  0.7827192908306574
  0.6238188850396084  0.1151155915175142  0.2409423880835084
  0.7510624394975774  0.2734523880888303  0.5798081482602520
  0.8885299899152433  0.3945029635793972  0.7203569320427533
  0.9658813485742256  0.4924940816992529  0.7318991944851546
  0.9397983268367506  0.4493732739096858  0.5076987419286989
  0.2841462229458842  0.4639184860859386  0.0042517441380686
  0.8478646822419122  0.7857311045765053  0.4436074656990349
  0.8760791563444350  0.0194989195138043  0.9515131530942426
  0.9982361569738993  0.1302499561710454  0.9637522647059749
  0.9359944555339861  0.1444739375490119  0.8852594377090800
  0.9949447335986441  0.1360022428165789  0.9066610247572585
  0.3683323421454086  0.2503163939397812  0.0037363037771942
  0.9299868746458243  0.3099474636536054  0.8566210287976367
  0.9467587981133267  0.1008021243850756  0.8430814323717052
  0.4158356838097277  0.1523267156913412  0.0384492629745754
  0.4049319150741597  0.1071043860830028 -0.0040704946026835
  0.4209000067352998  0.0472064129242559  0.0133094350716512
  0.0003786426159314  0.8163828601405735  0.0925061110941259
  0.8194971570289994 -0.0137037213319956  0.6697258705907240
  0.0495846309277101  0.7398196096341578  0.0732729750917265
  0.9646969895461155  0.2080389623055567  0.8270996691454854
  0.9746431843919552  0.1621688371120359  0.7831331089053195
  0.9348941938752532  0.1139944678672345  0.7808820782017225
  0.9096154191943173  0.0511644335938954  0.8418554705482033
  0.8662764181844782  0.1334806124519849  0.6982890075943067
  0.1058092771887505  0.1341092995200531  0.8862259782280932
  0.9998006109561156  0.7930046205913048  0.3810736173254824
  0.2631687381630088  0.9083922818357545  0.9489111276246145
  0.0704036729603194  0.7199098310452692  0.6368955385425871
  0.9936285268341535  0.1042359535249757  0.0856912596677749
  0.4180612366411263  0.6085721813654880  0.5780037182140766
  0.8900799025117373  0.7520988833551545  0.0672761054713829
  0.8914631597175028  0.1499878508888009  0.0913585369254638
  0.1906618607621581  0.9268718856083732  0.8648722066620455
  0.3196947711489720  0.5690722983181684  0.5527517200263310