C  Cr Ni
 1.0000000000000000
    38.7782925608872873    0.0000000000000000    0.0000000000000000
     0.0000000000000000   38.7782925608872873    0.0000000000000000
     0.0000000000000000    0.0000000000000000   38.7782925608872873
 C   Cr  Ni 
 106 1596 3725
Direct
  0.5234603551459815  0.6514695961554079  0.9848959449284275
  0.8489346803178266  0.9014756032321951  0.9573449400154597
  0.4928568379970025  0.5974789716381752  0.5100102716457880
  0.3255878320827948 -0.0079234881637295  0.3360669465829327
  0.5798781833358082  0.2400263882673944  0.0205032019870994
  0.2672918716679458  0.9320371531747667  0.4846545443919608
  0.1932392406529867  0.6257808236784860  1.0032807208594843
  0.2869615133516400  0.3361409089286986  0.0695584154707628
  0.9448376439376183  0.9557406901774916  0.5423832081104092
  0.2740958905990616  1.0434590214813755  0.1203415910254710
  0.7454851478155813  0.9210660384851331  0.2931306644191133
  0.1935596334928444  0.8254887348910074  0.4716040524347480
  0.1050197940039092 -0.0154662008965439  0.5063462225963116
  0.3961388136858073  0.5778050549686611  0.6787894769283940
  0.1718298904281958  0.9442738633395568  0.5869099233534695
  0.0058125568196215  0.8007973363500309  0.4999200384077078
  0.6902631664607641  0.1670453214618387  0.4689221471946527
  0.4416229556120369  0.1837824008786353  0.4153510367166959
  0.4317598120209944  0.2480797720114125  0.8929533430423237
  0.3947024017213701  0.0231570957782398  0.3481524974748698
  0.1901906858401733  0.8830247402133975  0.5203512736272489
  0.4165775150421701  0.5522766436387548  0.8031202570326752
  0.8018789638455378  0.0217356806660372  0.9524916151100504
  0.3716957550069540  0.1399927856642055  0.9845790862534686
  0.4074899406224013  0.2206481178408155  0.9774066460428184
  0.6792613686771699  0.0339455109460817  0.3950549412558826
  0.2203919612450844  0.9727328707495106  0.1792793712413602
  0.1840603342710507  0.3278263442050465  0.0304174825604251
  0.5292140779746786  0.2291455032144775  0.8885913880694023
  0.8724145678194124  0.2994883727646258  0.5197666881832954
  0.2788472366219448  0.8541771822627336  0.4909972393557514
  0.9475255916579860  0.0859924884449186  0.0385766372466819
  0.2769124603081468  0.8472480977143182  0.9495902565671368
  0.8554751462407524  0.0817933504135284  0.0687465255311351
  0.4970717299225155  0.1914243656167435  0.9739475127136854
  0.5217033091329859  0.8140491209984630  0.5618110113920398
  1.0575562564949346  0.7347776179164353  0.4579495540266757
  0.1902981617824837  0.4149596963046264  0.0297126569653325
  0.5729712535195414  1.0305938413204658  0.3566478163911340
  0.5637542889366736  0.1549740657299760  0.9129301310308043
  0.4208163464719014  0.6756707081210974  0.8330321192545631
  0.5474649026870857  0.1661855975774920  0.8443029977797232
  0.2681559307398320  0.9197257919940265  0.5666963940059487
  1.0535203045126673  0.0675633524160559  0.5324596138441289
  0.8748815360672740  0.0004824779754083  0.9743318192516722
  0.1949971835413744  0.9270139864376660  0.9944312366761763
  0.1444956762845002  0.2364234951763581  0.4367207682367931
  0.7679495021231816 -0.0064079618957578  0.2684250641945418
 -0.0419950830154763  0.8717451714764781  0.6385451854568237
  0.6699656492374370  0.8587419500182160  0.5403327739468166
  0.5746803770130176  0.7810931650966246  0.9494455667098199
  0.7198820623816683  0.6434698339688074  0.4889482442530052
  0.4886047286182026  0.1366271773845724  0.0377718904811580
  0.0688415095658504  0.3812361854619768  0.0890937190706508
  0.3459399938973316  0.7988226159789511  1.0088590391210002
  0.2644900375175533  0.6022955773006226  0.0221711376907469
  0.5783640205056165  0.8997498090210454  0.5457750676355030
  0.3921905290599264  0.1149417029952901  0.4467133876176207
  0.1019154938690164 -0.0738556587977520  0.6247204207868506
  0.9790852233759784  0.4175582645810764  0.5282857012661215
  0.3628883448095688  0.6368851350761837  1.0247377925086019
  0.7430929569271162  0.2789963599335337  0.0713033495558455
  1.0336782263394526  0.2836814477429725  0.5151651370235166
  0.5519543622612397  0.7793861980001550  0.4309517961930765
  0.8799248825901941  0.1740687255571182  0.4770517860544296
  0.0846967409944783  0.8447979186827517  0.5786461160695521
  0.4754398525933502  0.1650444708835761  0.8799777334494381
 -0.0445894753714535  0.9466278230598408  0.6190558953804481
  0.3995531705378552  0.7634610215710761  0.9713139451486892
  0.3609778174566003  0.3742275205076669  0.0787398949095903
  0.3835947033227002 -0.0015887479549813  0.2568429564120029
  0.5181213632012522  0.0294219953209051  0.9813671337026851
  0.3753841459056958  0.6693341722108492  0.9559806028954514
  0.1038659944979192  0.9175923564838103  0.5284569233722682
  0.1360391285563839  0.8369831675804159  0.5153982831061493
  0.4606511874244725  0.3812808676878144  0.0576302622969466
  0.3577040661509838  0.3995534341625399  0.4997099293619331
  0.2578085600299057  1.0003820230354283  0.5531985620743211
  0.9147604493422076  1.0152909649575488  0.5612465781581781
  0.9993786050334145  0.0966938533363651  0.4917173159710605
  0.4195764546935592  0.1591994576216637  0.9232910459846910
  0.3240368131371000  0.9606934032159282  0.2410177496047175
  0.9925624712587332  0.0270790053099163  0.5155367750854833
  1.0531919565175256  0.2113859172799569  0.5297199131546378
  0.0224089085178799  0.3447349547062293  0.4696189596141118
  0.1878725497608537  0.9504949209840317  0.4896077119548953
 -0.0569401432084225  0.8202513703331672  0.8981285855284582
  0.6655980888816264  0.9065399973811197  0.4340184846124844
  0.8375562248676295  0.9552451858052254  0.5729027417983906
  0.5797195798971856  0.8894637403305197  0.3994065870263951
  1.0161656536211352  0.4132598722418361  0.4358561081698828
  0.5548469394336880  0.7633699254853535  0.5072462554607444
  0.0245359979246139  0.7745699369964628  0.5796034219119822
  0.2146952210939366  0.4033713395171662  0.9666672981228746
  0.3697007931914551  0.2470607934541370  0.5137175958623270
  0.8184249683371551  0.9445299675113134  0.3188726528023181
  0.7278730104025456  0.0787071686875883  0.0173512659266570
  0.7443442203724283  0.0690294362967274 -0.0164125358061893
  0.3868066495206752  0.9461589304806561  0.1945177323506530
  0.7399797546571004 -0.0005472454284461  0.0024727444593112
  0.0607535061532851  0.8629218027680594  0.4958951952265603
  0.5617933643784055  0.8342017187816926  0.4754108879321747
  0.8491202375308253  0.9857137050170510  0.9000016405209483
  0.4476183061148366  0.0275018929711261  0.2689040417588613
  0.8472947371378746  0.0770915854670510 -0.0276233339048737
  0.4855606068596499  0.7876072053523402  0.5008974208212803
  0.7226729237363066  0.0743287100301334  0.2364697370578844
  0.4915514561173058  0.7706767816168478  0.5497511842788353
  0.3067675388016846  0.6879227313927615  0.4580135513549939
  0.9278332779503152  0.3396580347136049  0.9653300750880448
  0.7718610426585466  0.2763100849791867  0.8111079582767077
  0.6547356072302042  0.5885288979533959  0.8667500963296324
  0.8209648854696364  0.3129220485516447  0.8782337211755359
  0.1541669604424464  0.7564689425503455  0.0500764221144902
  0.7799666729232108  0.9688479164568333  0.7694197877032027
  0.0285975378342510  0.3886203922025089  0.0524527369511461
  0.6118107984524996  0.5475867049350071  0.2054613409795709
  0.2470847125669563  0.0398551229714360  0.0792867415910334
  0.5493844680022255  0.0726681180195513  0.3696676020701010
  0.0800045871430900  0.4728942445192121  0.1055218874374710
  0.1961647899948551  0.0265733862156071  0.0024922608862344
  0.9772945547852205  0.5030534460378124  0.1745850878048620
  0.3030006570250871  0.0709138667505056  0.0890428329929786
  0.3073116062871664  0.1170332964052263  0.1355713819686775
  0.4150166615910516  0.9801863215791051  0.5326401611345891
  0.0844233828305036  0.5476019563592474  0.0250680480494854
  0.3799724934630920  0.9147489468466230  0.3634510217803322
  1.0008701558731623  0.4532903802736072  0.9121885080364218
  0.0278845189356160  0.4863728020356935  0.3710935419657642
  0.1943078635694795  0.5955957743402220  0.1078755608242085
  0.7040396913637187  0.5939066044371915  0.8269901359496670
  0.0754764282617139  0.4121396457225440  0.1259455781241593
  0.1611791624881774  0.2751291115840631  0.0329387362399394
  0.1650364383028893  0.3993972610644212  0.4684028315932884
  0.2702449237035006  0.3565093158726951  0.4494051069506003
  0.1619947821701513  0.2396345708960017  0.1602921640488970
  0.4922629979111742  0.3937633701273960  0.3299092021102771
  0.5891861952404817  0.3169224946043729  0.2176105575407268
  0.6323897959139401  0.1542295884535751  0.6697140015044181
  0.6603911990305243  0.2177010834706162  0.6146849828468731
  0.0292482199119679  0.5028161885205439  0.3078057032635673
  0.5534344976473868  0.0544282512718533  0.6603476553596249
  0.5291324816405110  0.2225459956250097  0.0005829627583223
  0.5126003052302310  0.2260807752676700  0.9362839292181594
  0.5296884747007365  0.0807404432162764  0.5315233734180728
  0.5090297696304822  0.1343252030421793  0.5203381115981167
  0.5221872008787289  0.1243575401354287  0.5808690057106251
  0.5725497554780851  0.1614869380609883  0.6483567397155948
  0.1568954994425253  0.8002160546832954  0.0938548378380313
  0.5121488286939287  0.1686294374078398  0.6283064588936293
  0.5618695803168378  0.2055831325877646  0.6927183937068621
  0.9611871259615914  0.4033409036490067  0.9080957741897160
  0.9894011127490137  0.4652824571232537  0.8520059279335077
  0.8467359351868075  0.8874353217847554  0.6380736202607381
  0.8110592112391413  0.9123420909231847  0.5633274561212379
  0.7871694788290919  0.3368877652822257  0.5202533639873104
  0.7440084930060319  0.6424503672084643  0.8331178941076519
  0.6448726085051047  0.5991819618635835  0.8058397104942699
  0.6339256914647009  0.6142905634826317  0.7439490142769749
  0.8996462804146965  0.3067622879835167  0.3945845862086666
  0.6056686060730943  0.5715519902597854  0.7065519544796380
  0.8207115117284970  0.0999336916938957  0.4448867633868906
  0.3588253332420401  0.0889766659223155  0.5335678300971117
  0.7058588769437983  0.3541134554341773  0.0037568849126133
  0.6004194273838186  0.3168456082461580  0.9132748590234678
  0.6305989597675004  0.3489135881790720  0.7504280149136265
  0.8555183317391555  0.9456864217275535  0.5224401325330214
  0.6592866862990864  0.4863914135942509  0.3553879251284142
  0.6467865663876723  0.3802780311768906  0.3289907835461812
  0.4457297634425713  0.1229540245771950  0.8938019289137100
  0.4561453625123894  0.0771702873294070  0.8504434047955360
  0.6926477008586627  0.3182325996549455  0.2532377482963216
  0.3964490205699417  0.0826826927389529  0.8278006086166644
  0.3854293455973296  0.1260001133678924  0.8697115530463218
  0.7881715857438684  0.2118387805496110  0.2677782153385405
  0.1369536407932004  0.5841378746641304  0.4962336676467816
  0.8946673639231766  0.2893805118353968  0.4654444423840830
  0.7717941878739715  0.6857549407370808  0.8718065936492606
  0.8269253916441781  0.4359417363923118  0.4796078213250117
  0.6643803899040617  0.4473449262488659  0.4772268242351934
  0.5771183774717933  0.4778878703247604  0.6585256510913507
  0.9146944288596838  0.9167038533943184  0.5425609473235116
  0.7989993721616708  0.3534783335465941  0.3947608563095277
  0.3896182777168261  0.3005185580956956  0.5081912497908067
  0.5258416734347211  0.1866361828890870  0.7997066980152854
  0.5142328679007873  0.6388717387122350  0.2589325144968922
  0.5191419774326813  0.6697709545607978  0.3642581980951547
  0.4621029200511884  0.1638872996179019  0.6669398955611503
  0.3744018888479886  0.1065833964264931  0.7032973722921968
  0.4123563615913557  0.1280223340079758  0.6013933533237442
  0.4304653406070128  0.9143965548103214  0.4945840616921742
  0.9832282399385136  0.0923616002285215  0.3872183979259909
  0.9874219148073141  0.1404683711824664  0.4257056841884454
  0.5749470483971155  0.6118615894461875  0.5194437683153822
  0.5964787581356424  0.0692340837348947  0.5588529341846415
  0.6595110504835610  0.7633140157608570  0.5479052328144601
  0.4719856459313750  0.7359556729327691  0.5020355233927438
  0.8921962671482910  0.9657614568047802  0.7544594006462851
  0.9635980188258249  0.9432576413541834  0.8410304206136554
  0.9319844207576768  0.9823884917457806  0.6510584762110713
  0.9508917222272687  0.9251146468575188  0.6666026865155404
  0.6555286097139836  0.5462303451738831  0.5618994349552209
  0.4450573866069931  0.5401266152195648  0.6607648158481961
  0.2780012210200994  0.3485525087623388  0.2166086961497420
  0.6160217057520365  0.4984873660474361  0.5585102917595161
  0.5795104442679927  0.2836356149329072  0.5742198804409102
  0.3835000745088478  0.0633725331464971  0.6581648959894655
  0.4425287816613533  0.0570114824790354  0.6795523793644218
  0.4838574980630923  0.2834770307352699  0.0800856124076193
  0.4590325156360038  0.2251677733533253  0.9748514356210172
  0.5556321502414167  0.0860498388761533  0.7662682463465336
  0.4409119342492874  0.3603398706400211  0.0987986864231186
  0.4993713198777124  0.1294870367676377  0.8511687758066860
  0.4953580575659545  0.3441067855771651  0.0571231025902044
  0.4055918181951737  0.3750206335317494  0.0516473373249780
  0.3444808024803849  0.5023955685095067  0.1861295209131606
  0.5940535199786301  0.1665237726705697  0.8741470283833764
  0.6873478522374622  0.0931311624632024  0.9809406416036813
  0.3999224792540749  0.5018390845966840  0.0913218961761554
  0.5257761946797236  0.0249397690313087  0.8272683662907151
  0.5711161789560335  0.9608415571626167  0.8717504787975354
  0.5478183782580234  0.9971483051012461  0.9538665515393981
  0.5271207732840956  0.0585007148411746  0.9375566188447692
  0.5555568274665830  0.1198810755162393  0.8734919449662287
  0.3524099433872664  0.5818858460090409  0.1047067031325905
  0.3483175873540717  0.0355973161943647  0.3350998858086944
  0.5037622391586618  0.5015806537573282  0.1269300015637026
  0.3596926172823680  0.2869519231836955  0.6135823497517017
  0.4091331327782408  0.7475694694672655  0.0217076272900683
  0.0132285284050496  0.8837640767677233  0.4776054280703750
  0.1306034609047075  0.4564809088201768  0.2998741872640324
  0.4689392002092109  0.1787862105257662  0.2809747002128792
  0.3719309952779999  0.2587604677355216  0.3992520378426611
  0.3728841509062720  0.2728735873842578  0.3349207069376726
  0.3271564014626581  0.3398109099010325  0.4150252780698609
  0.4258268444977639  0.2885509320122955  0.4044423972163081
  0.9936787610050910  0.6863305620694431  0.3506903445360559
  0.2354919385595279  0.4416379447042302  0.3939670348418283
  0.1896745478321753  0.5170417214682500  0.4158705068582707
  0.2931413568523079  0.4750229026790898  0.4053000536554834
  0.1337215165933909  0.5027319630938335  0.3444458173476566
  0.3622921000731079  0.1648500372375754  0.3060114405897806
  0.1892542177531457  0.5329692384175873  0.3533435203565846
  0.2982127015486203  0.5801234597462592  0.4319505558966825
  0.2445508618044073  0.5640025132825185  0.3625868789020588
  0.1360757864790284  0.5312323147838781  0.4528759549067803
  0.1025532815371646  0.7310032675079120  0.4333844276167421
  0.0276028009450882  0.7466453676908916  0.4959901494349959
  0.0449422198087381  0.8193184247693834  0.4722589115552930
  0.3139170021681553  0.1972265809217969  0.2849577299027716
  0.0361766796765521  0.8277955869921578  0.5820393026764538
  0.0248493213021656  0.0538921229206732  0.4894848667351945
  0.4566277571944101  0.5250602998288453  0.7208643888255213
  0.9639286287266250  0.0021902824005308  0.5468120235704275
  0.4937983082735129  0.4091594026653324  0.2675652126369172
  0.7382721655963314  0.3105112035082175  0.4526554592313762
  0.0701172379773885  0.8859584675304100  0.5462632873544507
  0.9203812648355263  0.9699825457662452  0.5882659183747664
  0.9815528646018279  0.9906178796971516  0.6112705685948313
  0.8074053353742472  0.7592518098485549  0.4853588108947476
  0.4717028904515219  0.1174131570352244  0.6210450894980787
  0.4830994796884772  0.1072209160118593  0.6827891882236051
  0.5334793928966348  0.1110711123044016  0.6422464542774962
  0.5953044525177842  0.1359944333992895  0.7701127624400107
  0.5764019638407332  0.1887081385838211  0.0330262451088400
  0.7505630149007253  0.0291609137101954  0.9530998151640959
  0.5867975421818534  0.1791243934440764  0.8130046475296072
  0.5752086114680229  0.1756990652046380  0.0915582352980891
  0.7100299797519130  0.3130278577768635  0.8974916852900945
  0.6261696582133938  0.2492696605608696  0.9908295330880958
  0.4813699421997608  0.2413730486839350  0.5498970490008006
  0.2583176179497290  0.7338759543499050  0.1432045839739798
  0.2666062565311335  0.8418661531608586  0.1728442590424564
  0.0093012014954441  0.3036682979544810  0.1988022911329293
  0.0258298876149034  0.3856581083085709 -0.0064061246108754
  0.1547658352560124  0.1914738296778204  0.4086114734957139
  0.2551119717244821  0.1906309286349855  0.4491897424254465
  0.3542717793996019  0.0495546322754988  0.2760077482399294
  0.7809808966225219  0.6840288482508723  0.0492299828596369
  0.5301314435211862  0.5647196902641343  0.5164246315219263
  0.8217530822780151  0.7917741871958084  0.5925787782784656
  0.4803019719924350  0.8325653783025940  0.4748980517124128
  0.7466028959605279  0.8463659509274486  0.6140834242655668
  0.3699513445793443  0.7760335352386957  0.4513123789300845
  0.7984236683258086  0.8808759351589682  0.6815047729294532
  0.2327867433474062  0.0183904062910119  0.5147541626788904
  0.8624138578198490  0.9028918830633947  0.8106269903824018
  0.3833879644218475  0.9614683303502755  0.4096532321816923
  0.9636763571185479  0.9722765047790335  0.9467742970287404
  0.9183415283622658  0.0167006702846596  0.3367650274038342
  0.0511773615369319  0.8351439538064412  0.8369488646781736
  0.9408968385838783  0.1697714857261595  0.3950979705845816
  0.8792325452660884  0.0912422632904492  0.3457952402289486
  0.6444806646903598  0.7052026405645112  0.5644995006229770
  0.8365299123958964  0.1695754456514357  0.3577348157406808
  0.8323330166368605  0.1457317914757797  0.4817599908418295
  0.5924307761734067  0.6993113120833430  0.6069495399005566
  0.7723219138738914  0.6748283819774772  0.6708553429404105
  0.7288173552073690  0.7689581261429032  0.7318605619597451
  0.7711489067192524  0.8193807992928459  0.7391376187696973
  0.4186151577976533  0.2482423151692158  0.5273885323276547
  0.7786606876673096  0.7757279403717912  0.6944112190067203
  0.5333382192628453  0.1654685001929976  0.9513398636190327
  0.0389862136012326  0.6094168616016742  0.3325405981599084
  0.8345014866420811  0.1352501558190078  0.2529386111362935
  0.7127591114282298  0.9588840870306332  0.0244250268349699
  0.5339004564734299  0.9183118849841959  0.5308316299993070
  0.5892563947684603  0.8581750414244217  0.4397511936678924
  0.0347928458991246  0.0782041972388733  0.3535374334136076
  0.3814783753436575  0.3226833692274034  0.9493228060114344
  0.1645554596602555  0.9275178600283884  0.6348187330622578
  0.2146567669577052  0.0745196058233113  0.6562920139549799
  0.5695129248927484  0.7351290855129009  0.6874936087815721
  0.2650694108769644  0.1099271549990276  0.7225074824185969
  0.1946842813583369  0.1614725025068972  0.7455965609792286
  0.8459746624871266  0.2783938991302866  0.3827717957171798
  0.2166084228163241  0.1330851695927889  0.8701988750672403
  0.3322638069420151  0.1607631206152013  0.9567742117936620
  0.2686426545356101  0.1703814242697438  0.9384112782467695
  0.4607327757220158  0.2667580509996954  0.9294605286454913
  0.2259349860796098  0.0905229771550224  0.8268498055276599
  0.4391217010276595  0.4166618243947465  0.7322246551594250
  0.6401668776863100  0.7144308033931437  0.7688061063451587
  0.7194835156547300  0.7228433614376503  0.9588206754732846
  0.4650335894185758  0.6558282848708252  0.2920218345939805
  0.6624446632914529  0.6896261180319025  0.8911760086593127
  0.3034949046113007  0.1910104602005562  0.8315887314371240
  0.2167167461603623  0.8481829617571499  0.0430726976653371
  0.5302637259444614  0.8233599237135768  0.4394961892799355
  0.2534386240083707  0.1242526926183507  0.6604748780395975
  0.6187366644662727  0.4229968397146467  0.9004419612021313
  0.5701989609955788  0.3876569543577374  0.8355665249047859
  0.1796965496519979  0.9916092524940999  0.2100024476166956
  0.2273162078568721  0.9398489428196911  0.1379319050573536
  0.2913858198079533  0.1432368281115529  0.5579737550415579
  0.7701150302865045  0.0394898434693733  1.0214368858625760
  0.3414917109187607  0.1795542267799172  0.6260971131051790
  0.3319556100179057  0.2228414805401356  0.6694056739726684
  0.4033348254533421  0.2025902960581224  0.7510656347167554
  0.3330044556067732  0.2544221325385576  0.7748383370753563
  0.7203706742686992  0.3021428151471692  0.0312251637099052
  0.4814880070697058  0.3333778250182437  0.8693815258166907
  0.5541060936892940  0.4353628983090419  0.0481392554418442
  0.5315301641461888  0.3710002209116954  0.9363209915247395
  0.5016460274979460  0.4544530227018111  0.0821434149543354
  0.1777222209589739 -0.0077426303749706  0.4477271507361639
  0.3195862586122380  0.9300884612051217  0.5686989104196848
  0.4319377724334537  0.2961340232097593  0.8013237170099210
  0.3716813918725764  0.2733959776977938  0.6742680632802710
  0.2603621271881632  0.7784847014218101  0.0233684958048990
  0.0487138241758829  0.1842779165414583  0.3685994407028575
  0.5841289501390807  0.7899367975949118  0.4666596094651788
  0.2441992095249310  0.1985240678054793  0.8117348685887908
  0.5373461546925639  0.4268347900424250  0.6525241128457445
  0.8700650542031176 -0.0554569518094897  0.9785365741026704
  0.4644887074506915  0.6702433497706669  0.2320112765589617
  0.6587943432841636  0.4133732033615731  0.6958374228463919
  0.6976104535283257  0.4614608786865702  0.7005185026629024
  0.4554783490918876  0.5632925254869809  0.2038602555687014
  0.6481740090093763  0.4553118652146310  0.7394412455844646
  0.4070189573254959  0.6097578109619689  0.3439706057943140
  0.7477550333103320  0.4972100111806223  0.7666596420954607
  0.7536055292343469  0.5986255580998550  0.7874773526010760
  0.4085278083654721  0.6250234188588364  0.2816518014805064
  0.7741201108519591  0.5707182377739404  0.9099302933921188
  0.0790726873684865  0.9344188511503755  0.1101990957307194
  0.8344627275184641  0.5561694950042269  0.9945036909893321
  0.8732819882738758  0.6117150698375833  0.9394101514483260
  0.8709108233821335  0.7256432911699047  0.8999109929456948
  0.1558561194205948  0.7810818367989230  0.1534728314324514
  0.2117558056575927  0.7942457741666874  0.2239345733376909
  0.8535352427236278  0.6396443113610405  0.8154112968688226
  0.1100537738626040  0.8582777574814039  0.1749013545238719
  0.8370240133106034  0.7375470606924730  0.6104706353440743
  0.7639810410614547  0.7616968836205007  0.5248757854428910
  0.1649750489649368  0.8878680216734599  0.1849900979909410
  0.5510386005806057  0.4537989397049574  0.2139247384705930
  0.6740221502756985  0.0831591080798096  0.0360682510377726
  0.4142332095501278  0.6869951125074824  0.2649648281406690
  0.9097370075945389  0.8791792779146076  0.6630515821362165
  0.7443281696505432  0.6067371537907703  0.5222757146653653
  0.7076531006488705  0.6579645101429499  0.5375006266286956
  0.5984833640017251  0.2891868150264764  0.0371330980013703
  0.4922579300873273  0.3776839113975863  0.1620383049433823
 -0.0584479382542252  0.8378768679939597  0.8505088556044966
  0.9396093195870934  0.8090505852075993  0.7430835384054488
  0.4965167980316950  0.3922289480477030  0.0992563493639123
  0.9613348707635143  0.7816309699591770  0.8651088292648210
  0.9308266933396887  0.7560168539608073  0.9643619960862206
  0.9374692411787675  0.8724170835687276  0.9057118495909237
  0.6092664429877475  0.5147685745182731  0.4954077773001065
  0.4521598453672259  0.5172736136156908  0.1608886324283746
  0.7056108495230782  0.5842732804450697  0.6264878947313320
  0.3511408625617830  0.5657904665939777  0.1673840831227127
  0.3536086696186221  0.6113764180093675  0.2097587179550151
  0.8431744717564048  0.6539380380309031  0.7534220498842368
  0.3633726230031696  0.7178437195948177  0.2375331540734098
  0.2575599723653787  0.7172637898150309  0.2031645987231437
  0.8412670402406932  0.7968710732205263  0.8218412061618426
  0.8656991861601055  0.4086838284488519  0.9915813623936666
  0.7897815809521854  0.7626978075337530  0.7556362649745841
  1.0309098889880588 -0.0045432854143170  0.1919768435996733
  0.5244516661583977  0.1771795331140002  0.8879788265376374
  0.5099296018483378  0.3961767132384454  0.8136022552726836
  0.4791689335913311  0.8283580135574865  0.5350364565341648
  0.5632109864521625  0.6360880640471486  0.6628414586660806
  0.2191887424491507  0.8846777794548277  0.3165033221967391
  0.5096441954705385  0.3657270555262910  0.7053951177696220
  0.6689617116896280  0.3977426293201141  0.7557932225782538
  0.2688325257116956  0.8529195803039513  0.3412035163253368
  0.5083631174683262  0.3347298497678402  0.5957594013514005
  0.6301233309438451  0.3185796434044513  0.6433151675913888
  0.3174933767313793  0.7937442233564824  0.2587632709182341
  0.3164401758798638  0.7779986928528083  0.3194951902999854
  0.5124609272804674  0.2012662861449128  0.7337440074460760
  0.4173250629440673  0.7149378925393511  0.3716114751251395
  0.0506607834060567  0.7544830185735995  0.0126077695028246
  0.6453417330771153  0.3478047965597305  0.2254380472417755
  0.6086830118244720  0.5007096287425865  0.1621609338165478
  0.9432805023286368  0.3848607887423771  0.5158443015111767
  0.9930839116912191  0.4280658931227099  0.4807975287804546
  0.7715796592657276  0.5048796513292566  0.5012135333568685
  0.6788803001923118  0.9274474924337410  0.7459597428635906
  0.6698902006814209  0.9703717081979603  0.7897396144569528
  0.7500776043856738  0.8751523132487323  0.7219542476386673
  0.5575113294554748  0.5002223171631591  0.0328375181674932
  0.5586220412092721  0.5328448430668690  0.3638175271131545
  0.2703076547303010  0.8607180834232443  0.1141047162390952
  0.7084694211474341  0.4779850609140363  0.8676662618792340
  0.7178925309667160  0.4626006228969445  0.9285211690870027
  0.4122208682191720  0.1688956720126270  0.9725521561256589
  0.5130780345684222  0.2324727189834919  0.8386484943974115
  0.5703227210314570  0.2204812725121043  0.8574975035094738
  0.5468751708339323  0.1281554902018437  0.8092070850837388
  0.4454149545723030  0.0880026767633979  0.7870552975169954
  0.3944892196087768  0.0512148819353130  0.7213748202932119
  0.8787674357005780  0.0593241576149930  0.2389341001698625
  0.2325877967037459  0.9695207534366685  0.4730985998321723
  0.2190636283820858  0.8558597517271800  0.4389110303251104
  0.5514046018356291  0.3225023490262589  1.0158115567262320
  0.8614140383611854  0.9979009472248445  0.5615324033712230
  0.7977201282248810  0.9727299532560404  0.5487855473803859
  0.3711356144239389  0.7916318165953604  0.3914294619846219
  0.7402365473342088  0.3767857035504951  0.8385113871532569
  0.6023755678699517  0.2871310572034130  0.8063026513362254
  0.7384797645771141  0.2410093254255751  0.2402232070633796
  0.4803961042245055  0.2713880426965100  0.6553480612089506
  0.3907092896308286  0.1853238410408018  0.5827849762453599
  0.7276613995100235  0.1207482037415644  0.0456271894296078
  0.4512959455714488  0.1770713576521886  0.6064802857746233
  0.3846927338458081  0.1946140824703061  0.5163695512776478
  0.7202215779603003  0.0418856629001975  0.1259563677899819
  0.3294011605385690  0.9419374398702227  0.3389378376941455
  0.4348759540265245  0.7855860436177049  0.5190785634365206
  0.6797181498295030  0.7637688587753179  0.7737563996306830
  0.4599506652847821  0.3606540533284618  0.7459834560461539
  0.8422929207946329  0.2419965574454477  0.2773655287232509
  0.7915391475724697  0.2586524012755091  0.3108851043783437
  0.2013702087985093  0.0830436268281059 -0.0069717775757125
  0.2469483433183255  0.0647187910621871  0.9538083356226664
  0.7650749706844838  0.5630998722886431  0.4824585405240249
  0.7666230309067218  0.6584662609644720  0.4965661969201221
  0.5918168237479249  0.9480060320024875  0.5423817192244115
  0.6189735543261966  0.9351681676360604  0.7244369579019688
  0.6420186544158880  0.9819905223143238  0.5498883503509746
  0.6336351996066903  0.7131340066619882  0.5082901213226867
  0.6907241636724377  0.7396194607594914  0.4589784778652177
  0.5343154126728562  0.8087489926578310  0.5100309697804302
  0.5581752049207930  0.9107208977818917  0.5921465861704365
  0.4878083911245770  0.9625729819400737  0.4429274021470282
  0.4502743454143274  0.4292514573474994  0.9560500744365509
  0.1286913452972264  0.0411316965373600  0.5927559195232182
  0.0745581866328026  0.0234398427269325  0.5163732156030758
  0.1244741717384373  0.1818733283384507  0.6604977849564184
  0.3140416931782327  0.1926073560833779  0.0555691845274456
  0.3227691042318616  0.8271270953258645  0.0446809749387254
  0.5394588946821559  0.8074807119500270  0.6096151762312898
  0.4901744692212545  0.5276869090297973  0.9502326980577395
  0.0638342433456850  0.9328662507333859  0.1945461229463162
  0.1708018964238731  0.9492180072736549  0.1697041879321602
  0.7765171621213695  0.5328527340742543  0.6060570120489985
  0.3950587854468394  0.8077148746994072  0.0000270877775113
  0.5277472640907098  0.8501897923407388  0.6522811351023424
  0.8210432333626068  0.5326059997575687  0.3388545446606966
  0.2231465756680285  0.2254661333445570  0.6880363783211559
  0.2361621828449812  0.0773435562484945  0.8899100802155496
  0.9716986740521056  0.4385539563552597  0.4216196370389974