C  Cr Ni
 1.0000000000000000
    38.7782925608872873    0.0000000000000000    0.0000000000000000
     0.0000000000000000   38.7782925608872873    0.0000000000000000
     0.0000000000000000    0.0000000000000000   38.7782925608872873
 C   Cr  Ni 
 106 1596 3725
Direct
  0.5220570162653252  0.6473822056433485  0.9834627715578912
  0.4481213499644777  0.0276847956086915  0.2688321002894790
 -0.0452714241662261  0.8877044326110960  0.5622169421967920
  0.8438170408822867  0.9878988184019347  0.9001961374452060
  0.5803804701739529  0.2394281308304298  0.0203513861945024
  0.2678128260428256  0.9321466903958088  0.4843192219727389
  0.1940573991589824  0.6256900776912326  0.0033411703063860
  0.2784688928486527  0.3347457447406213  0.0662902139325080
  0.9460603916941971  0.9580606381647035  0.5413128177127944
  0.2739853581269456  1.0437630149923887  0.1186295744145808
  0.7458844187337924  0.9213254595129019  0.2926991568247893
  0.0698829969919956  0.7693636173941325  0.5168603490414329
  1.0350560997648832  0.1576074070461421  0.4827637713970399
  0.3944434631672581  0.5779072245627802  0.6802171219187152
  0.1697356225552439  0.9398852210338413  0.5853100856979515
  0.0032621888020553  0.8397808138244223  0.4949470779095826
  0.6895695323614440  0.1667677621788866  0.4683082052103744
  0.9864778622864299  0.0296676301038570  0.5803834939003755
  0.4329010635673369  0.2484370137411891  0.8947613086776410
  0.3953301161194288  0.0236418683547280  0.3477593143604527
  0.1907161119666533  0.8812498113701708  0.5198528510871746
  0.1188123164983477  0.4145743929302814  0.4719973655270174
  0.8008317662809805  0.0200969177842238  0.9546829026598175
  0.3726350493484538  0.1397294239824157  0.9844112964326741
  0.4075880784048787  0.2191217277133985  0.9776678756728819
  0.5620429155107787  0.8341773531519913  0.4765995907375123
  0.7456112775496542  0.0645793762346625  0.9830330789865698
  0.1835730520387289  0.3297055720440456  0.0299279305423735
  1.0482986434131005  0.7387481381435359  0.4535692568198298
  0.3261716181379927 -0.0073078845977571  0.3352556938541700
  0.5175334129498271  0.2784255023401028  0.9351482671456838
  0.5742182260839093  0.7803925480487272  0.9498578198736621
  0.4927726970478911  0.5970630997504098  0.5109487482722056
  0.2759187660308448  0.8470876823191774  0.9503344380525306
  0.2216975007171194  0.9724050464248029  0.1793571184919629
  0.7195611255117117  0.6439972966796345  0.4889286029419046
  0.5740631883343756  1.0305006607007954  0.3567311892213155
  0.5291462596813149  0.2272520747939609  0.8876482671929024
  0.1903844303145119  0.4147842084490796  0.0244171404917232
  0.1549832208269680  0.2384426323001220  0.4355493425681184
  0.7674477995021081 -0.0068915343853281  0.2681531072850080
 -0.0453596604395174  0.8734606064662862  0.6401791284906710
  0.5641189264074220  0.1540637169672974  0.9135177867187844
  0.4021209949483019  0.6929398158735488  0.7080838460117799
  0.5487168103622339  0.1625855625288037  0.8448079752715948
  0.2679919500584996  0.9242551122927284  0.5681335695932925
  1.0576893331428943  0.0642903743003113  0.5279109054449490
  0.8716561264790901 -0.0019463555278011  0.9745623692779936
  0.1675507433719596  0.0096743567954685  0.9692087091289854
  0.6695150472913669  0.8594195675996827  0.5415445717411769
  0.0909033277162858  0.2442343290697144  0.4708991090241052
  1.0113131752795292  0.3499356007081930  0.0239135692971745
  0.7590057671112731 -0.0069267883471238  0.9001030311150104
  0.8748771844517276  0.2980277397451215  0.5195331562671736
  0.8566311885589594  0.0818912855258752  0.0686212668646801
  0.2651195516677703  0.6028659039437506  0.0215916191662702
  0.5797156437945747  0.8978253730522728  0.5451389358299089
  0.3920166647771425  0.1163457004805997  0.4475590711473232
  0.0892855596914288 -0.0630239596129345  0.6146819136672766
  0.9793807524213572  0.4180136967960030  0.5278340560723508
  0.3628268137213784  0.6371876491865694  1.0256090123775163
  0.7444989086678687  0.2798499681012210  0.0721002513326494
  1.0352025453744740  0.2843403188432472  0.5141655354375383
  0.5521702914929453  0.7803220735819026  0.4309921444098794
  0.8802825192611423  0.1743157471356660  0.4752341650271492
  0.0826515551373759  0.8391429041147187  0.5782325341678410
  0.4757718079069137  0.1631555777030608  0.8804760642172469
  0.9542751777447100  0.9448805007929509  0.6182582295468894
  0.3987599637507436  0.7640658991014135  0.9722449649324693
  0.3604914772010909  0.3733947968046958  0.0793824967576432
  0.3839023457472401 -0.0010437167325663  0.2571750769682334
  0.5190726150469481  0.0293892749078737  0.9814475450155935
  0.3750313530624204  0.6693288187497431  0.9575061353266877
  0.1026548827057963  0.9150651030383984  0.5272232400741996
  0.9054625209460527  0.3188958548755479  0.9399160231624265
  0.4974103831173997  0.1898407016196695  0.9739883504730852
  0.2791191481452248  0.8550667403994076  0.4915124221956726
  0.5212896399633102  0.8130538847115780  0.5621307511743422
  0.9128241376156637  1.0161702087462934  0.5614947202441734
  0.9372989238018349  0.3345983925469190  0.0677729183792189
  0.9485742865170818  0.0854184150833198  0.0388699320971233
  0.3250158842930608  0.9607822997980967  0.2405763523463235
  0.2549009325335259  0.9984307365964394  0.5515177323689225
  1.0520613010907423  0.2163484775900686  0.5330113952632562
  0.6002874480639208  0.8533434040594058  0.3860164385404172
  0.8352436529580599  0.9578072629756808  0.5742710361024254
  0.5816184645384818  0.8850965885349371  0.3942837705745816
  1.0132650224496957  0.4149484478048032  0.4351189026512297
  0.5551633225422952  0.7630679348807398  0.5075056773720147
  0.0216450534352417  0.7789269375105791  0.5762389461171105
  0.2293727445087126  0.1092414158228616  0.1993969561681763
  0.0196118248566295  0.3458765415829588  0.4681057155865194
  0.0141085755185069  0.2770543519694784  0.0520267930249907
 -0.0564597027570363  0.8206562709220170  0.8968182033285387
  0.8190968649658905  0.9448285722361736  0.3185545447865706
  0.4857008879865061  0.7864105547833888  0.5022804102573964
  0.3704075584590743  0.2464964214173736  0.5132737063890087
  0.4208404235744763  0.1572661399901262  0.9237644316250346
 -0.0195280993802521  0.1178313349170374  0.5399271852259223
  0.0739541256966771  0.8298142726615982  0.4420250877465524
  0.4641538683931531  0.7759719213287107  0.4714854963566002
  0.8487761369758072  0.0754025101550501 -0.0289679006362218
  0.9764835454593984  0.8156489230070861  0.5061781963372867
  0.3450953941827981  0.7994106861000327  1.0096278640334140
  0.4570834234328971  0.3798390293525102  0.0559597563982014
  0.7280858922088572  0.0755370598248190  0.0159464186919999
  0.8181788989937990 -0.0156808964221344  0.1848874216613014
  0.3809952788287084  0.9151038911255549  0.3626110012974252
  0.8703967998978083  0.8584771862711988  0.6012000959009841
  0.1197576726294289  0.9473858178484196  0.2662184224530478
  0.4912493508084907  0.7694526415567268  0.5502552419995537
  0.4867211856489810  0.9625674439314087  0.6175784012624385
  0.3178887729892383  0.8095699524429819  0.1976744905386846
  0.7713427775470475  0.2759346828520704  0.8110002325742427
  0.9285538824531214  0.9024524399288990  0.6064645996853421
  0.4082447384499547  0.0394593603969572  0.2383813785759949
  0.7709801372368082  0.2883407030361719  0.9758938018788711
  0.5223732075429163  0.6071299396605115  0.5594667063899771
  0.6314914905769872  0.2052873246563387  0.1002580433631362
  0.5049589254046302  0.5337351084893626  0.2314776429678437
  0.5407821489052412  0.6639171849759834  0.5429501341378267
  0.6083867015824499  0.4365055357982000  0.8401460589964491
  0.5982358686505924  0.4495803354891456  0.7794731457424771
  0.2274738182054395  0.1997188499046872  0.4962733070657431
  0.8313918155185009  0.8415363255493575  0.8669181416922916
  0.5049150347092275  0.4710325434124098  0.0235001448486367
  0.1547395962222467  0.7567119050401314  0.0504510498091887
  0.7868152182908563  0.1997857781406328  0.3291564524808304
  0.6864522858301703  0.5365358778576674  0.8492495424690569
  0.1932520173814696  0.5958758968600760  0.1084118649846551
  0.7033447491332609  0.5937226007281794  0.8268868869165125
  0.4583578660175288  0.5938193985848238  0.0811474317997100
  0.3611890364736101  0.7739083151756302  0.0508257980847680
  0.6662051278996349  0.4615263380398338  0.9663811002989782
  0.1643181226599046  0.7446694607686737  0.5031884023499454
  0.5977050266691148  0.4193519734622048  0.6743816421096105
  0.4615649159437168  0.0979416344529857  0.3582031938861569
  0.6651704531775310  0.5640169717192266  0.7274371617618011
  0.5672389809542714  0.5216646296640608  0.7016354347857792
  0.6369937382001759  0.4977143843976753  0.7840085312375006
  0.3092197928251174  0.6283402827899934  0.0180237611805325
  0.2511781606491697  0.6430728126324041  0.0516385417060444
  0.5302106811173086  0.2191405735217400  0.0012695750638251
  0.5131769349197700  0.2261352452805951  0.9365190964560459
  0.5277878760499972  0.0815339835601591  0.5311840849713713
  0.5090030945562499  0.1348615428788408  0.5194031993139189
  0.5214786635075817  0.1230554248855698  0.5810286747865722
  0.5722215048562601  0.1608289143516103  0.6478447956942458
  0.1573173641295888  0.8002424053475009  0.0946499571064657
  0.5117713698338010  0.1675115922511434  0.6281259600950382
  0.5615870438554281  0.2049095792794655  0.6929217564402055
  0.4909157840484755  1.0075164693963321  0.9333932819899948
  0.9763920804480851  0.9333462200918504  0.5707888293715878
  0.7716965265683585  0.6862496425033652  0.8718852183786180
  0.4313566341165851  0.9153341569924250  0.4946500806726429
  0.8378698466607837  0.3134391199714455  0.4876921701570560
  0.7436237493095470  0.6428940371611466  0.8324722971090075
  0.6443776118613261  0.5987679474735464  0.8059139135964715
  0.6343222844304975  0.6141194588499586  0.7442762272246823
  0.8991100551746091  0.3074991627235043  0.3945527253723862
  0.6056050708678470  0.5709558404510716  0.7062522318357013
  0.8218687669316225  0.0994194259295641  0.4443560014156455
  0.3588093220792680  0.0879052343544431  0.5332237358367991
  0.6981715152024816  0.3581152570714752  0.9408217778082046
  0.6000828865662189  0.3165794654901576  0.9135657668643342
  0.6297733820526144  0.3481795215567789  0.7510847770885417
  0.8544320482062777  0.9469708930524253  0.5230353502727394
  0.6590689432356321  0.4868438105221272  0.3549698320045516
  0.6462681841940178  0.3803877692220100  0.3290233776298416
  0.4467886530902574  0.1214668977904061  0.8941289689591879
  0.4564520966963165  0.0764548561407037  0.8508991661686096
  0.6925818056434438  0.3185794721744842  0.2533758850102067
  0.3964366787617425  0.0820424814397055  0.8278240912130743
  0.3856864083962914  0.1250677182098759  0.8696343570208372
  0.7884922183495285  0.2122674963846777  0.2679292242372586
  0.7045473075178065  0.6237992505717429  0.9347175737345687
  0.8934774757786128  0.2896374406734921  0.4678672680346747
  0.8465366709234481  0.8872647737217000  0.6382164240224689
  0.9831566223095221  0.0930393364992424  0.3863264371833409
  0.3743259805206359  0.1057188968092483  0.7029526964670678
  0.9877934573709117  0.1411059093866087  0.4246297849022756
  0.5749662020609145  0.6116609672652041  0.5192400042166665
  0.5960091633270301  0.0688819408049637  0.5568695647494253
  0.6598475027846173  0.7636529476920575  0.5482458972623074
  0.4725327164794109  0.7326937695396936  0.5036996468968801
  0.8920606197207344  0.9656594979140969  0.7540445332949258
  0.9632915167621396  0.9428449322757536  0.8413589001835318
  0.9311783552310892  0.9817314783976414  0.6503987679846397
  0.9497401534795142  0.9251259838578219  0.6669907222879373
  0.6646772817876732  0.4480967779730569  0.4770221232134182
  0.6549972557301031  0.5463071461861722  0.5615461745842564
  0.8101257896680846  0.9134912029929442  0.5654977595005420
  0.8262262719219983  0.4360314653430862  0.4798309473323504
  0.6150508898508518  0.5282709036076939  0.6619709191914935
  0.9125499112146795  0.9190098795293609  0.5441305374626603
  0.7986199444729419  0.3537257872213525  0.3951443226369413
  0.3902560463999313  0.3016376573817759  0.5076505646820507
  0.5269231676989270  0.1873287111701781  0.8031175000546985
  0.5138137209175373  0.6400920024779434  0.2586348069272765
  0.5190082572238532  0.6703185247632021  0.3642358867065420
  0.4617769568464968  0.1632699726264823  0.6669136093326216
  0.4110902499870227  0.1273200198596470  0.6006281407660392
  0.7760479567574782  0.5332087070584030  0.6056245614924644
  0.1661114373882375  0.8152155887363269  0.4882434815620552
  0.6159402980840244  0.4981676371976531  0.5584881510929222
  0.5796639759783468  0.2832090136558825  0.5747868443320772
  0.3830469269457687  0.0627519766880362  0.6577406332738321
  0.4421159501128639  0.0566636983069962  0.6792183820409753
  0.4842499152005247  0.2837605251331348  0.0809275924127182
  0.4592380179414424  0.2228908196245213  0.9758762654458303
  0.5551451139050907  0.0852673300941901  0.7659355115653418
  0.4425302275801326  0.3618681750794852  0.1005947083801835
  0.5001059674566604  0.1284949238820914  0.8512363458642743
  0.4962201172082931  0.3475746899926715  0.0596615771476817
  0.4043420983077494  0.3750418530270218  0.0517019067706324
  0.3445475387015274  0.5033058651503440  0.1868878749007574
  0.5944989961197011  0.1656300026931011  0.8746777352594373
  0.6903325364669183  0.0905877006949107  0.9807848817536586
  0.3997740658148413  0.5023804656645244  0.0918553499266052
  0.5256029653078169  0.0249271995836960  0.8272137539097096
  0.5709927854562779  0.9605243142539142  0.8717272699897198
  0.5486950966898438  0.9964824476934280  0.9540316105805150
  0.5285591394649014  0.0573744250819640  0.9378771493270651
  0.5562570192930869  0.1184747932311948  0.8743633844248339
  0.3522055199866134  0.5825051310596968  0.1053520956059853
  0.6277582885526096  0.8917598627929788  0.6797014541760122
  0.5037650961511818  0.5025909185784545  0.1271971050106129
  0.0247906340781770  0.0545714018866809  0.4831163195354752
  0.1720562208210669  0.9481301919205017  0.1702713079347793
  0.0096823828919616  0.8879378854648672  0.4758020007590052
  0.1300073883631176  0.4570052803917977  0.2995116683089926
  0.4697795024589471  0.1784239198613169  0.2812277008746270
  0.3716482256098453  0.2582614926673853  0.4000032870097012
  0.3728127148566430  0.2727243170012565  0.3356713762756567
  0.3254102278024360  0.3402029309425914  0.4156966447224932
  0.4242772228794500  0.2869054084637211  0.4052253182838086
  0.9934502674609376  0.6867086075135511  0.3505056017996618
  0.2353683691931604  0.4420501394863156  0.3949310724613213
  0.1898121578822836  0.5176503951983124  0.4160784015070019
  0.2931286656434627  0.4748100999552491  0.4064002729895602
  0.1333746897877256  0.5037849885505952  0.3440329261451385
  0.3618022975461389  0.1643168690242777  0.3056029001111477
  0.2402544597206640  0.5190596748395928  0.3184376244795396
  0.2978530578667678  0.5799304458120524  0.4329313359383327
  0.2450801436682093  0.5649654292143340  0.3636114997256680
  0.1357313326085981  0.5318341978998183  0.4526918523158611
  0.0996725650446921  0.7354745466143170  0.4367118457444977
  0.0274272023185627  0.7425437497155887  0.5006060502107954
  0.0610844860573337  0.7877674573191183  0.4675194780170607
  0.3143987265139986  0.1976904667308374  0.2843133848976107
  0.0337274795462849  0.8299089697885319  0.5827645852676780
  0.3595068540796943  0.2859966277127343  0.6135773983039519
  0.6862139198343176  0.4756572085922717  0.6396733117545794
  0.9628392794765255  0.0062107045070891  0.5427518969519374
  0.9414841144471543  0.1701781644596180  0.3951205861592560
  0.7378309075690496  0.3108976140167163  0.4526961892694230
  0.0738761378611737  0.8802260894179487  0.5474874553718129
  0.9213927758579811  0.9703261779504637  0.5868917459411316
  0.9811449186980993  0.9874387975177694  0.6125487394224148
  0.8067566462863908  0.7598087269978402  0.4855106911502927
  0.4706815580120509  0.1171579394931993  0.6194396561443565
  0.4826878091199102  0.1066719150965520  0.6829703289198071
  0.5339134101531868  0.1104702654284813  0.6424032455542943
  0.5952302206512623  0.1355207118116108  0.7691214268324407
  0.5758203645501586  0.1874740157450839  0.0327673505110937
  0.7508080365645321  0.0245516923579902  0.9451500988899268
  0.5877021612409199  0.1779636810113533  0.8133685845571935
  0.5764483948410632  0.1751773097322601  0.0918910601989852
  0.7093030644356576  0.3130843037052611  0.8980445489953290
  0.6268024971274526  0.2502768468577730  0.9910954116558588
  0.4814961686608412  0.2403574768901411  0.5499845453159556
  0.2581622397181607  0.7342522928291797  0.1439085071069666
  0.2673605961547907  0.8419489238428887  0.1738225173397461
  0.1708658150055179  0.2061053898984453  0.4717744856259371
  0.4709895719909881  0.7346854945338358  0.2153695490245527
  0.0530006035019516  0.8472529603894015  0.4916387390669016
  0.9417650463048978  0.0329152760088145  0.6009620295633068
  0.2305423339760013  0.8476252742546800  0.5033329221526998
  0.0510986153103529  0.8350442098008919  0.8369646223115307
  0.8788809488852626  0.0920257255268523  0.3457101621546101
  0.6447593421040451  0.7052147792206670  0.5639671220453241
  0.8364268807637995  0.1699137332782949  0.3582990824760218
  0.8402699272124337  0.2059305121198787  0.4616242242094279
  0.5926219059602960  0.6990655112743340  0.6069438283632188
  0.7395476856732531  0.7265091525981439  0.6874591762412060
  0.7287541311243615  0.7684835267414667  0.7314302309439954
  0.7709313813337945  0.8189317183395273  0.7384099839038498
  0.4187282380119542  0.2477579740006720  0.5272411818604891
  0.7789860287323355  0.7757081143722883  0.6934327369227183
  0.7805529910558925  0.6843735076665588  0.0491235744268070
  0.4941421474750449  0.4094527359609944  0.2674072902621315
  0.5300360589295439  0.5642274522288985  0.5161526667729469
  0.8223526463751663  0.7928010283954509  0.5919730371953134
  0.4805443134743458  0.8323706481593364  0.4753916065852106
  0.7463348486196085  0.8462724328143598  0.6140787087859974
  0.3696109228877904  0.7764766333206453  0.4516939589504532
  0.7979744060776779  0.8806448210311313  0.6814309628084134
  0.2294584588354398  0.0161444773329574  0.5137957295634087
  0.8618151863905908  0.9028587797200972  0.8098709200756057
  0.3843347965676408  0.9620916055459047  0.4094771794189395
  0.9645373576304568  0.9718953278973745  0.9485045710861726
  0.9189553390548013  0.0170305876923545  0.3355948589314408
  0.5342483012549170  0.1646347387000470  0.9520744668275630
  0.4085502371268604  0.7482525285965053  0.0226794900931637
  0.4310747677995029  0.3977834579857998  0.5610837449909414
  0.5369445449531538  0.4267270296195452  0.6529796855565586
  0.5358719481542231  0.9179993307432233  0.5299532976652020
  0.5884542040640909  0.8582847714967041  0.4413738544564881
  0.0356691613466411  0.0784587839126927  0.3525012363397712
  0.3815225035472421  0.3219032400697052  0.9503462582495503
  0.1687925166867408  0.9251085658589900  0.6358880853260283
  0.1649102199488504  0.0669725029510701  0.6961762776256799
  0.5695946297345912  0.7347432092695935  0.6879087738512525
  0.2652226864064499  0.1086369543536354  0.7221897603932231
  0.1945524537246773  0.1604960439130341  0.7457992744310006
  0.8456521782979752  0.2790953210855079  0.3825508861565378
  0.2168243472716615  0.1327039606456807  0.8702955618904245
  0.3338057893478296  0.1606380235141621  0.9562409306293576
  0.2693127667177783  0.1701840010769960  0.9386057065762676
  0.4612917413747168  0.2661666582792149  0.9313505006977996
  0.2260891217475803  0.0899349717041492  0.8266001729856312
  0.4385014746976770  0.4153640588575144  0.7319436590724638
  0.6404120770891524  0.7141169011901761  0.7689490279942210
  0.7193466672964920  0.7230447241015990  0.9587483698942185
  0.4642595214435051  0.6557457492557839  0.2923139098136490
  0.6622178586043388  0.6896253075260670  0.8915859685957078
  0.7134187738035663  0.9550800804771644  0.0261554622262380
  0.2440868064045676  0.1978619656875962  0.8118043089102426
  0.5306066347117270  0.8242723244512550  0.4397416556838728
  0.2530830826947856  0.1226464222243439  0.6602198606854435
  0.6179468500323352  0.4230945926228478  0.8998650056299619
  0.5695627248232584  0.3873330577424502  0.8360812132880276
  0.1809590109595331  0.9902150730062835  0.2106123574860443
  0.2283698310224451  0.9394976981391404  0.1385494905213861
  0.2914504645722393  0.1422095028282002  0.5582540688503311
  0.7743333608062876  0.0443097033844652  1.0250185314439089
  0.3412678043198473  0.1785131098877041  0.6258062122950917
  0.3319536371470096  0.2218862479377543  0.6693760208204113
  0.4031589125765655  0.2021342872611411  0.7512968604019509
  0.3326891995804466  0.2534878036858349  0.7747819017451477
  0.7212271881653763  0.3007951865387725  0.0317354681624138
  0.4806990886972218  0.3343105127721842  0.8692904260963347
  0.5535177225468273  0.4373645116281443  0.0471163068314149
  0.5306826060026153  0.3723395488269017  0.9367805082065624
  0.5019708825898485  0.4552349897077740  0.0832136868627487
  0.1788998885154847 -0.0032079023357675  0.4452714503839181
  0.2603329065445529  0.9752025486067999  0.5951078972373948
  0.4315474149558909  0.2958872287390144  0.8013584205128017
  0.3711506691033723  0.2723202935949561  0.6739564028929738
  0.2604010365289314  0.7784397321991209  0.0240762724651571
  0.9964432650527674  0.2005167408590111  0.4032200296261063
  0.5842899638767096  0.7901946110781238  0.4670821823300251
  0.3040162492650548  0.1902237289880800  0.8317725101684000
  0.2170101094440302  0.8502493911911675  0.0419846238194761
  0.6041516611495441  0.0409304618274675  0.3963206304165741
  0.5248969667226144  0.1760117515983124  0.8877102823390531
  0.6579514628032700  0.4124472903417356  0.6956587838493696
  0.6965367551480411  0.4615012878983083  0.7002915984935079
  0.4554080514073212  0.5648058865742888  0.2046029640493544
  0.6471764987022299  0.4548344309224188  0.7391110108398360
  0.4067592320311617  0.6097188206451456  0.3452109217612803
  0.7468911463755151  0.4976815076632681  0.7666829077415669
  0.7368091712986435  0.5418068154451682  0.8104586337874572
  0.4076442020509755  0.6253062052854763  0.2828942909796417
  0.7732684353575864  0.5713995026545561  0.9092724319617486
  0.0796112068668487  0.9344623478177223  0.1108732596575953
  0.8333958609727444  0.5563169128886725  0.9943369566665128
  0.8721929469957940  0.6124533673617752  0.9390722902622854
  0.8708097331473180  0.7256887830668477  0.8997299006648268
  0.1560049388390353  0.7810019958568107  0.1541183382401713
  0.2119230099051954  0.7943274385671298  0.2249293248700459
  0.8531833171156351  0.6398421787718106  0.8151519029188292
  0.1103843532246927  0.8576590402447709  0.1751414323280393
  0.8248813714497684  0.7494159371609734  0.5484340702314160
  0.7633666826293354  0.7625013703366833  0.5245746209415199
  0.1657296601390083  0.8873799797250995  0.1858353828909143
  0.8711505030722148 -0.0535900995600316  0.9774213497912952
  0.8346188208240899  0.1359371711670994  0.2534062582989527
  0.4137257321299619  0.6872567829186522  0.2654501093417080
  0.9085047562636162  0.8779567009656242  0.6634988541547909
  0.7439304161596623  0.6072286647371726  0.5224860089624216
  0.7073082061518953  0.6587378932608964  0.5375371099333666
  0.5979418330174171  0.2896167349233917  0.0378212044931629
  0.4915641751173754  0.3782676476985996  0.1624534525469728
  0.9013635112740710  0.7878697229261418  0.8416039720136960
  0.9396579392906923  0.8089876759904775  0.7432455217268942
  0.4440878000620997  0.4106217675469088  0.1384425267833294
 -0.0016567085200089  0.8293317652714044  0.8801651331441720
  0.9301488812262466  0.7563274970367564  0.9643770955673715
  0.9354488840963635  0.8731599478100578  0.9073682165294477
  0.6091574066230119  0.5141607930595744  0.4952040540937795
  0.4521186208511075  0.5183382170468307  0.1615449545195982
  0.7053976186433349  0.5844708891930375  0.6265997169162837
  0.3507325860994370  0.5664190836298906  0.1681563030876894
  0.3538952231276810  0.6124408873378245  0.2107515858053917
  0.8430486708895302  0.6538805875573576  0.7534502263128332
  0.3634893006937195  0.7188797780347034  0.2387588142977829
  0.2575564478221838  0.7176947545968368  0.2041982588684773
  0.7924604749759593  0.7930247522114132  0.8624433590111482
  0.8626139504848754  0.4060090030916345  0.9905214548453465
  0.7898467668322806  0.7623080374086322  0.7552996700628929
  1.0312276818159289 -0.0041643378189268  0.1932429600137995
  0.3596965641315887  0.1156942582229007  0.2605444763198398
  0.5091834971663818  0.3958040141642774  0.8142027728787794
  0.4881399573254695  0.5304617496452124  0.9496579402234461
  0.4341590500749505  0.7861834345547855  0.5209036312352292
  0.2194368525145925  0.8843364154436633  0.3191814717533953
  0.5087270744657029  0.3649669223345074  0.7058547537807943
  0.6680743342049708  0.3973784162733083  0.7558364836306938
  0.2693401094389749  0.8530591784148803  0.3424190670475756
  0.5092355900095457  0.3342382289152023  0.5967305377588273
  0.6299214265458118  0.3183703241497859  0.6437691809978152
  0.3176984135603888  0.7942972107705769  0.2592202225440506
  0.3677011064280145  0.7631401290393116  0.2851543902973430
  0.5121816645026378  0.2006481784085746  0.7340189959201301
  0.4169129740331814  0.7154134793470565  0.3716825391586685
  0.0499689520997360  0.7549618644957249  0.0130294490724306
  0.6451121410247842  0.3477449440323594  0.2254694876300589
  0.5554171538493532  0.4848183080760451  0.0914193683026774
  0.9431852011785069  0.3857764972569711  0.5158120466644008
  0.9916915725312250  0.4291111901209380  0.4805631358543264
  0.8184877790699853  0.5498011262141868  0.5046078600020361
  0.6782580526870762  0.9274047000751587  0.7455117680031645
  0.6692340742885718  0.9704365022657609  0.7890391252232342
  0.7495406431211830  0.8749387471813218  0.7217010527750873
  0.5559186050671625  0.5001841770827732  0.0323498416147215
  0.5633482192960307  0.6360950958935692  0.6630778995989696
  0.3305053154655406  0.9421629490078927  0.3385227857356508
  0.7075444283272544  0.4782729700786539  0.8677580130377074
  0.7172732547256103  0.4628457319609229  0.9287828255996856
  0.4135178389136170  0.1678679687543863  0.9731049132154850
  0.5114871358411764  0.2335594159617221  0.8391012223926834
  0.5697880984477081  0.2199240473000540  0.8564190229890689
  0.5473029854147290  0.1265125613356078  0.8085138025773325
  0.4448049983092935  0.0879904563130508  0.7871483117253500
  0.3942546406041281  0.0504489755459129  0.7212769760956288
  0.8791482218766022  0.0599692682374509  0.2390916471355541
  0.2807161410063932  0.9472818355820338  0.4372102386467164
  0.2191400430304294  0.8716479747019319  0.3790610535578330
  0.5501702807759715  0.3223660263525412  1.0157640410848521
  0.8605315355967913  0.9988658833663205  0.5608583385227023
  0.7966908627632181  0.9728073652579072  0.5466467809142889
  0.3708992443858343  0.7920052702566301  0.3920956679525741
  0.7395107999466352  0.3768088646555541  0.8384903121394099
  0.5628384897070071  0.2381150336967426  0.7979395136289129
  0.7388057577674683  0.2410153056019810  0.2401892208413172
  0.4800519670319727  0.2706387179523208  0.6553146819088428
  0.3901424399232915  0.1846235119364956  0.5824567229249056
  0.7278573860926512  0.1020911387291885  0.1081300972380608
  0.4508703544388086  0.1760560408674751  0.6061818464523154
  0.3840315807863041  0.1938810426329708  0.5167724353600121
  0.7204503278564083  0.0425273539581913  0.1259822517414046
  0.5582278418319160  0.5332465242049439  0.3636727258348115
  0.2704917076646036  0.8607403228233144  0.1148813881353859
  0.4590399808839019  0.3596009512949068  0.7457878007607425
  0.4792633104059859  0.8286881602385666  0.5357208267612891
  0.8428911968496855  0.2424516633967206  0.2774621397534426
  0.7914297443438556  0.2588149460751523  0.3108861855733949
  0.2025055371304243  0.0830003751975652 -0.0071482390546390
  0.2476894654044259  0.0648575236986729  0.9537906206070674
  0.7647947327179124  0.5642136520527854  0.4835696595920729
  0.7661792578914977  0.6590916757536758  0.4966880875717771
  0.5925645278892229  0.9464501939416720  0.5412519491159755
  0.6186080459280314  0.9350121230048796  0.7240784362734780
  0.6424328500850313  0.9808117358494501  0.5488425647141320
  0.6341839646019822  0.7133494603493458  0.5081406005711451
  0.6909259097228843  0.7416661134894319  0.4585164159352619
  0.5342778447224630  0.8082419905493322  0.5102302715079848
  0.5582752041614681  0.9102805627805175  0.5914589070647143
  0.4889410255578439  0.9629794808468104  0.4430433804674874
  0.4498651536545075  0.4303323453064504  0.9570790055094879
  0.1297979770299247  0.0367027525150206  0.5937606714542577
  0.0757009068574670  0.0191807656640002  0.5139858317490249
  0.1237493603388646  0.1798636498293318  0.6609244125638480
  0.3142668993157229  0.1934305365142021  0.0553171910903335
  0.3225173529516603  0.8279214526012891  0.0456508884168521
  0.6797139248677675  0.7636309523046798  0.7737589543396567
  0.5393232069422854  0.8069574621889598  0.6099818065488867
  0.0646469109194043  0.9325023224048795  0.1948769414668907
  0.4562612185777568  0.5237821580652908  0.7212548254458347
  0.0390515436993328  0.6098145184289229  0.3321705699062305
  0.3943075189727148  0.8083319819059620  0.0009436645930735
  0.5274743021185218  0.8497223877949110  0.6528830104466133
  0.8209662438848223  0.5329001897823313  0.3388075172588148
  0.2226891731116810  0.2241988706742700  0.6886421972994631
  0.2365128716988605  0.0771670053121052  0.8894894286441458
  0.9703087376999032  0.4400024620231086  0.4207953664794805