C  Cr Ni
 1.0000000000000000
    38.7782925608872873    0.0000000000000000    0.0000000000000000
     0.0000000000000000   38.7782925608872873    0.0000000000000000
     0.0000000000000000    0.0000000000000000   38.7782925608872873
 C   Cr  Ni 
 106 1596 3725
Direct
  0.5224111961190087  0.6484092105589608  0.9838331365365163
  0.2759423719839329  0.8474035767604483  0.9500670606557816
  0.8724634705541828  0.2996086905958578  0.5196011561779391
  0.5214717025656133  0.8137469003114826  0.5621297946733302
  0.9054927463035002  0.3185530415532863  0.9406123589706539
  0.1029592813769758  0.9118341605638847  0.5273757641503553
  0.3750738626688271  0.6695843613491721  0.9572231321060083
  0.5184382622730730  0.0297999834110627  0.9813619879198333
  0.3834290413557460 -0.0011221696394738  0.2569167910639787
  0.3611223226485047  0.3739853995437322  0.0796134702768902
  0.3986650270222042  0.7642525950074891  0.9721661791989779
  0.9552539824626715  0.9448036794038236  0.6170457538938193
  0.4754648493342484  0.1634932393114650  0.8802488275760350
  0.0844032397322864  0.8411068710078121  0.5769132124818035
  0.8827063418951973  0.1741366808953760  0.4765303851017302
  0.5521258122758508  0.7801798155001215  0.4310849591234163
  1.0336308110623056  0.2829976796754556  0.5150500323492571
  0.7433377313231336  0.2790214842627257  0.0713086949635153
  0.3629223129166919  0.6372865067115578  1.0255114238216960
  0.9796913510893321  0.4177566571602394  0.5282866147805337
  0.0869350678034241 -0.0617174972299401  0.6143051850875110
  0.3914922313637250  0.1153342103259737  0.4467751262389811
  0.5799228228950070  0.8979961986221909  0.5442679476153532
  0.2654397287974158  0.6029268745538889  0.0218168054726815
  0.9155440478263716  1.0148713211109552  0.5590690903671887
  0.4971299359748690  0.1903508566891093  0.9736612574969488
  0.9481197084641169  0.0855670544632327  0.0388597837934960
  0.3246883702946682  0.9606228361424064  0.2404712429278790
  0.3675090866852525  0.2495785980955389  0.5156518840702701
  0.2587415924264483  1.0000252556780105  0.5503166764225144
  0.4574101613565087  0.3800320022690846  0.0560155165279342
  0.3449581050707522  0.7994803984895466  1.0096183642585883
  0.0676064877341536  0.3816729288213238  0.0891281164776958
 -0.0074587129163616  0.0648400582797124  0.5906794801533052
  0.4206830848616038  0.1572973629421651  0.9237338576023948
  0.9161552401897547 -0.0461377228122027  0.6804183619778621
  0.8186574798291288  0.9446470143045976  0.3190394866818059
  0.7287755556704929  0.0776357939168224  0.0159442497024742
  0.4857542441018372  0.7876801491348572  0.5008719285497570
  0.5809718926063253  0.8851132193516147  0.3943675684733219
  0.8357326272580065  0.9569669963014198  0.5734744311936441
  0.6001863854978128  0.8535727400152009  0.3864435582085347
 -0.0553749942976716  0.8199324215839275  0.8974021978671558
  0.0122540313459521  0.2803526736134174  0.0504667987362125
  0.0225664542884032  0.3443922412509786  0.4699150795160159
  0.2526199836726549  0.2744969519637853  1.0068034363299241
  0.0226246623279575  0.7774122979441046  0.5779829523864299
  0.5550154010295059  0.7634426715935101  0.5074821660467626
  1.0163792018404059  0.4132567531672691  0.4360218171330705
  1.0528548804176823  0.2099746862824269  0.5294528328147916
  0.8563454035678714  0.0821828566372725  0.0686235395029527
  0.2781335794458130  0.8546842388104130  0.4903820302631203
  0.5745162684175722  0.7811405815935583  0.9498740510004006
  0.4030234233994494  0.6929533021423180  0.7101273285154905
 -0.0445072856479686  0.8890688078021055  0.5614786103805540
  0.3724047498222511  0.1401457304994234  0.9849262206186757
  0.8045199269967608  0.0218189141739053  0.9530722853887280
  0.1189279920280887  0.4139324603657091  0.4724657337600363
  0.1902643303608921  0.8804592779372516  0.5196597439679762
  0.3949000936414510  0.0233508976031145  0.3476071112598662
  0.4329042127899782  0.2488727082651933  0.8945559790089631
  0.3891283207019960  0.1975014769844053  0.4584508629634936
  0.6897244491626768  0.1665954450658697  0.4684789343859811
  0.0104670987875940  0.8084714728661534  0.4791655414121191
  0.1696848908778191  0.9398837796996171  0.5864119099540225
  0.3961523018182318  0.5770234879477791  0.6793068260937615
  0.1031594903559584 -0.0169772588951634  0.5070356717683259
  0.0713368622919512  0.7677052228840139  0.5173156312889410
  0.7454354375752094  0.9213768675459527  0.2928906897518245
  0.2733778705873905  1.0441481339601455  0.1195289581960342
  0.9461214845165185  0.9553824841749747  0.5389470837111874
  0.2843380375498941  0.3361043191053944  0.0682782751927073
  0.1943057462538813  0.6257163746803164  0.0037483455951512
  0.2678939934135844  0.9326240003956301  0.4840898221537169
  0.5801157113077355  0.2395827329523856  0.0200348642867144
  0.7587512257066856 -0.0060022584817364  0.9013046130857790
  0.8482196850726479  0.0776340749590518 -0.0273239389068013
  0.0746054295492492  0.8292313277333312  0.4415924298619141
  0.4073210416280833  0.2193952987040945  0.9775467337754778
  0.8445724087235513  0.9824343671663761  0.8957398267700920
  0.4476501929425916  0.0275988198357926  0.2683048370986884
  0.1856503301120629  0.3291640692862298  0.0297506857902155
  0.7405287119244982 -0.0024286981517851  0.0038597484859339
  0.6702003292951252  0.8588460649583284  0.5416306107369960
  0.5486505252053483  0.1639864139821824  0.8442661109358739
  0.3904487792759003  0.7072175985540818  0.6443013540481398
  0.5633036639574880  0.1541092976419842  0.9128932812869089
 -0.0450308631077545  0.8727192361980016  0.6403171545277904
  0.7669793581452550 -0.0069519342340622  0.2680764355971244
  0.1437883908760957  0.2357836823571349  0.4367529502949382
  0.1673294873589583  0.0093744837613841  0.9689550408120022
  0.8761050127336119  0.0006775566938527  0.9748749492312480
  1.0529662952732535  0.0667887515958664  0.5306230819731534
  0.2683710484860462  0.9209039687685583  0.5661733274343403
  1.0487240403779112  0.7367821455754134  0.4539392129901463
  0.5737576677493406  1.0301997793174478  0.3564534161962145
  0.5289816464470198  0.2276897743113100  0.8873457962115069
  0.8497577420876694  0.9024517600479133  0.9573609007962415
  0.3256541588328863 -0.0073511817802634  0.3350916100287033
  0.5176238022848895  0.2787932350102993  0.9349782149936201
  0.5619773334657054  0.8341261877766684  0.4765418735727810
  0.2214257532148411  0.9723838412733634  0.1796759962884632
  0.7199545176874691  0.6438249582120329  0.4888133136104231
  0.4931879992127706  0.5975282433288553  0.5098673076309613
  0.7455349134848802  0.0672549358720817  0.9820113953801065
  0.1908692366784346  0.4148793950486031  0.0262988558822415
  0.8429626663765585  0.7927935812840918  0.2114623117181844
  0.3528232617158734  0.9633072042086666  0.9141078301145954
  0.1076789216462425  0.7949976835295600  0.4220818300372921
  0.1927429010188774  0.7644498461843855  0.8944405873777175
  0.3794249969126025  1.0042195614331779  0.9513658600769364
  0.7577423858833071  0.3996227057738938  0.0098808597993950
  0.4448075574675167  0.8835717019904046  0.0716949627866027
  0.8425530674710594  0.7445750805730738  0.3975874271633444
  0.1804117833213337  0.3696266753074465  0.7637244746616275
  0.2973705625517230  0.7017481415230190  0.6647521696301240
  0.1870937787546942  0.8380663304011686  0.5481131832853641
  0.9168293946822362  0.4267601907195847  0.3479881406156472
  0.3187370004897647  0.4604710472786593  0.7968226893120096
  0.3807429365437546  0.7655663360376697  0.5714861608968904
  0.3353041512226416  0.8851648294078927  0.0329401926386728
  0.8006257761701524  0.9211979164780777  0.5044778577327668
  0.6908374097306965  0.8034699422131977  0.4435603182573207
  0.4806093938457804  0.8736011798658450  0.8016147810509153
  0.7811052911883613  0.6856336107240033  0.2795510628590154
  0.5407091033264952  0.8671921971059300  0.8225337486019821
  0.3555098125167532  0.0311938408256525  0.8241222142806723
  0.5823658185944913  0.7530426994770291  0.8578220100190113
  0.0868909011809161  0.7213945108587522  0.4922518574905059
  0.1528556970522004  0.5307561588877439  0.5093373573272346
  0.2091049112797790  0.8066939479901148  1.0013155428900546
  0.2721887276576203  0.8479622796136864 -0.0000787790999142
  0.4294546623654535  0.8363348385960464  0.7368373126839142
  0.4894404793934325  0.8304752926362152  0.7574836303638226
  0.7912498248723953  0.8084090181892851  0.2451255920062017
  0.2656996480526908  0.7413196163178285  0.9801118515565942
  0.5518052239068940  0.8527479904847107  0.8853133528504205
  0.2721503267644558  0.8632264834967047  0.9027228017919533
  0.4618273994496894  0.7746025299284165  1.0383677501701791
  0.8522707941805364  0.7225895274995261  0.4669530010738488
  0.8573543793040734  0.8338943118602916  0.4936203187719019
  0.0897094849474813  0.6878990419420015  0.5601501064066086
  0.2865182622917217  0.5316216648452309  0.7212030301116896
  0.4149185978350310  0.7994055137472974  0.0661177607682478
  0.5597967941206666  0.7956515006328517  0.0001261853035817
  0.5199819964791800  0.7324698694660365  0.1189469328237053
  0.6707790478834994  0.6778501985618030  0.9546416041837166
  0.1372669563966073  0.4527273793108527  0.6273555442291351
  0.9759949893280472  0.4689979903205896  0.0700485228377923
  0.0455136633921891  0.5631420076443598  0.6368417332590500
  0.9229231322441719  0.4879815029730297  0.3315600984321288
  0.6555421141607887  0.0219265528372467  0.3585828405673084
  0.7869903181103162  0.7769477095629136  0.1395072156210330
  0.4154966738324097  0.1769583222725108  0.3792458065777515
  0.5157102024682289  0.4853116879038237  0.6381997499006289
  0.6000117335198162  0.8602269024971549  0.8429464984560802
  0.6759293238806574  0.0713505364053833  0.8105123974244122
  0.9648647955723326  0.2374039041118914  0.9331955384645700
  0.9219364722869842  0.1900084039901297  0.9267806082350911
  0.6158591425486334  0.0370622581028918  0.0859536000069956
  0.7977313115538153  0.0718396727822744 -0.0388709123432430
  0.0130745556719043  0.9307523396250407  0.2902380101758922
  0.7857248471988425  0.0691566821163308  0.7886783833312419
  0.1094172595910350  0.8409590962558812  0.2349839076255052
  0.6480868931681577  0.9982622582200888  0.6640180622118351
  0.7747357939754398  0.0823615684055002  0.7290716800136513
  0.7065698422506338  0.9600780341586724  0.5780301344020197
  0.1006143037050618  0.7330917225374561  0.2057983684355968
  0.2029584919953875  0.6880888613053560  0.1956551959411619
  0.9828784758714759  0.1831128118226384  0.9515042964059263
  0.6968686668608212  0.8995217951597696  0.5352902130995145
  0.5361813670455053  0.9356883056119790  0.9743146741242537
  0.2136129591749234  0.6353955940808990  0.5007995273488868
  0.8656587649530630  0.4421889748031264  0.3823358616395554
  0.8743458843043127  0.5483261044054609  0.4104416633056666
  0.5196076631660801  0.8093025176603491  0.0428591910802150
  0.1164743629049259  0.5405859225572444  0.7188339631092715
  0.1047541692450232  0.5561796602738934  0.6555833310359629
  0.3021810621369246  0.7623688667418271  0.8759174818282749
  0.1291368230039767  0.7421162082412125  0.7662205978881199
  0.8367758287537939  0.6877396971718589  0.4107308617787271
  0.5984801274744042  0.8892005629061029  0.9482052058194567
  0.3760898083722090  0.9457053445641806  0.9758066161448504
  0.4607681876481072  0.7659047323152848  0.8160403159505714
  0.3892657783320843  0.7560841021301237  0.6290626039765084
  0.4215653981874766  0.7131954503385708  0.8160660357289692
  0.3729991210561439  0.6756679240463539  0.7456369018404339
  0.5687055597396744  0.0859566912918640  0.2290643864917525
  0.7903156401376813  0.7067013639305011  0.4458942284323023
  0.6837137289199595  0.6807677681939068  0.4768434863538387
  0.4000470821592410  0.7405384821771646  0.6892857903372489
  0.0621060560901875  0.6205499951199404  0.6144358988052310
  0.8251638237175599  0.5772261221176704  0.3835541436031416
  0.9305541458981277  0.5788475316993644  0.1901534466310030
  0.9897957331363045  0.6729430553423522  0.1836772396933470
  0.4105147934067192  0.7256207715634229  0.7515817888458577
  0.2046816095671441  0.5665580150850921  0.5790786459916296
  0.7312245620012493  0.7651661859799608  0.0630448548010281
  0.9807036994372360  0.5364225116556423  0.5095053695625031
  0.5476489011687358  0.9867498884361561  0.7458013520038793
  0.0780900127427444  0.5215562481442347  0.8200267057670203
  0.4900876495404490  0.9935694450371502  0.7259885089118487
  0.0059839479414635  0.7326113730848796  0.6110099304041202
  0.2646607309431418  0.5679422227435695  0.8008679116431301
  0.1357431565308479  0.0357982891650747  0.8636414540914200
  0.0274420676160739  0.0703232534883160  0.4220357916040891
  0.0282824880691602  0.7962747330521007  0.5281037446481062
  1.0441719717405122  0.9259757185466125  0.5843498159286182
 -0.0015695387039923  0.7712717504143696  0.6599778833171248
  0.3414675780116506  0.3082761572275512  0.9953730207924527
  0.2269465749885464  0.3205175395280573 -0.0018576534006980
  0.0795861256187878  0.8845097977610423  0.6060983391006372
  0.3334258437748820  0.2842460693447145  0.8821280370453031
  0.2342924902837265  0.2403665141428930  0.8535212365962680
  0.8539623724477136  0.2113231903252258  0.8461097433353698
  0.3768822941189143  0.9491231531865288  0.2393419700518868
  0.1021497402927127  0.2371045732392724  0.6464875299960611
  0.2237658418190207  0.2543737381130675  0.7949642935580372
  0.9534814552000402  0.8058081049878228  0.4209499829188704
  0.4879382999599282  0.9645573234092483  0.2136603831214373
  0.0001601251251808  0.2276921672025206  0.2813408678540659
  0.9562095957641222  0.3029965348139556  0.2968420289207421
  0.9040434052313210  0.8843340957751815  0.4373686876411709
  0.9557074736856122  0.8656516352766369  0.4078193270561532
  0.0679354277216359  0.0863448124972630  0.8849629530957767
  0.3912246620994542  0.9018744777172428  0.1033609987309680
  0.5442798693677646  0.0087235962640924  0.3903568198265465
  0.0935671275430897  0.5773769105039768  0.7980001497868455
  0.2687624725076023  0.9006229733007022  0.9503431103148029
  0.7261866902400992  0.6247564693958325  0.3933362599095596
  0.8312183592571020  0.6401514475838166  0.3664151672032501
  0.7763003570107656  0.6087769843819958  0.3587776066951577
  0.5087032479299131  0.9383575722848366  0.7430212620531164
  0.9858119515029747  0.5940051094554805  0.2612977025139617
  0.8712690959583186  0.5176300947746505  0.3042293269572668
  0.1570845994246470  0.7019634662468844  0.9494712449472894
  0.2235826328007140  0.6974656472278096  0.9746804014260911
  0.5075187741448669  0.9060867326334678  0.6354165395904728
  0.8628130107856080  0.4094632228324366  0.2783981257663766
  0.9152261528301372  0.3940267016205616  0.2457773247714052
  0.8917847330855950  0.7465688757453619  0.2999335232346944
  0.9671782482891951  0.3789916325622150  0.2132072034732282
  0.1448082132401084  0.1544695442878075  0.7862417000551968
  0.5327941086122867  0.8697180928930363  0.2543771078099282
  0.1438565592373458  0.1242824212241936  0.6782608400160378
  0.9528810423489399  0.2727977035476019  0.1921998829435174
  0.7057808290093360  0.0332149901283806  0.0009539835806463
  0.6313100685409860  0.9544668977402583  0.8922429327232519
  0.7307643671529754  0.6850711840235285  0.3772248237927472
  0.4314541292757490  0.9497111047602960 -0.0028265849161773
  0.3872232571868711  0.6634678922978575  0.8049300202979691
  0.0555256204882908  0.7433882434163539  0.5634515897107424
  0.5912589657893014  0.9308338474963405  0.3710842522808326
  0.9313220837858897  0.5948271936727126  0.1299903416431205
  0.3721766213280156  0.7095203493767509  0.8529778219293054
  0.8830481865942622  0.6259793560456661  0.1042287239023452
  0.1789527857216129  0.7474284081220511  0.7270163713866559
  0.8293930432761486  0.6209748476982135  0.4235386634533072
  0.3224975587527582  0.7051421332372507  0.8927954779264615
  0.2914206754933680  0.6314380612023374  0.7479452086436501
  0.9242349321385360  0.5638828424166453  0.4826774164508966
  0.1233773995674902  0.6417175920378867  0.7427376981038056
  0.7801523844166250  0.6703701286706817  0.1118325306036703
  0.2417903125416035  0.5956115154979221  0.6789098684120191
  0.1847227775396481  0.9794070889915797  0.5058562374784332
  0.7251824274603174  0.7812627145997116  0.0012744820967522
  0.1061199461254560  0.1060840064626071  0.7814677546346964
  0.9091139806045325  0.3482808264073563  0.2040500419031389
  0.8390470612244515  0.7619602065777904  0.1033747912853970
  0.0753934306054356  0.1757250478604436  0.7010442473168635
  0.1478375545032701  0.8185336452485886  0.6485368796273445
  0.9437235286308442  0.1639805570707296  0.1669149645229012
  0.0030127715187526  0.2418916713336283  0.2199037559093916
  0.8453399456836027  0.8228359804619885  0.3189588051640039
  0.0231236137614848  0.5996265751056609  0.7147052912977537
  0.3004235070993545  0.9262131251565596  0.8456197826782618
  0.2901131149716469  0.9392531400827901  0.7831840364381705
  0.3136456369469881  0.5741715139269613  0.7611508537579427
  0.9126609247593559  0.9935605409092453  0.4623636250016107
  0.1987773634284328  0.9840015246883668  0.5673541930871686
  0.1345748754489720  0.2301778373752203  0.9345981756663302
  0.7686814995892149  0.5316561438385493  0.2070942351473783
  0.8647917050090184  0.4237494669967797  0.2165890294618697
  0.1306111550756427  0.9422362476625950  0.5002554437979810
  0.9011390177945181  0.2875689805570508  0.2244186248585196
  0.0351035398910636  0.1567901352313445  0.8040339893987831
  0.1787286246080009  0.9277797239027880  0.5386872091421009
  0.8577632558457434  0.3635452312557518  0.2363081976772718
  0.9694120328294156  0.8423849945337075  0.4829378585296209
  0.8823941661603721  0.2742052600893127  0.7910557388752609
  0.8359699926006907  0.9817595779217010  0.9461821501562543
  0.2970705244782373  0.5644669278760832  0.0351133404360940
  0.6855219458670173  0.4447180796133016  0.5338668462575051
  0.7671736058569377  0.5467209561418271  0.5442427808362698
  0.6159050519469523  0.3382993143582917  0.5163276117527511
  0.9793368551424506  0.7235508082586074  0.8827509502250990
 -0.0103798703267949  0.6796918184990429  0.8374639367028551
  0.4686699178829814  0.6724910989071157  0.4565593452086755
  0.5101747074081844  0.5929194464438564  0.4519808816556937
  0.5059084760701165  0.5481767886027016  0.3990122243693628
  0.5083014364185960  0.5358077471114724  0.4573387867122556
  0.8531037594812636  0.6100554269631341  0.7096271112350150
  0.7759841833802837  0.5613874830242552  0.7101380280256522
  0.7213518184457224  0.5936605928275128  0.2859820680347385
  0.8260310130986790  0.0579300849362245  0.1015561741587415
  0.6328548423966330  0.2604849389249024  0.3704852105367913
  0.9200373300329563  0.7021997813434077  0.7529686636150806
  0.6808524731268047  0.1854296042084944  0.3537649000465206
  0.8818175787853574  0.6741353520204469  0.6542128311808689
  0.9694254910983322  0.7080659600420621  0.7145497504516354
  0.8216274110015633  0.0631141820762476  0.3367985921368816
  0.6962698389796834  0.4312113588256007  0.5953334298340299
  0.7590715851515513  0.0589786444840054  0.5005557491501030
  0.7579569984500518  0.4246502576446065  0.6169388250374117
  0.4819167764880197  0.3689135725295679  0.4622258717691110
  0.9486904472162823  0.3866251739253260  0.7414603430069827
  0.0203673431333350  0.3343725512586374  0.7147793524619989
  0.9094427806044172  0.3369030752134177  0.7354941547693078
  0.5607491033171307  0.0239930497141335  0.0096371767491903
  0.9312994609264873  0.2476264307031667  0.6450251707683209
  0.8608262560435641  0.3008473997361233  0.6684601507661209
  0.8921045848726364  0.1984912012937715  0.6391033517900097
 -0.0006407502602457  0.7949637841119875  0.1536341459216872
  0.8584496733485774  0.2689058606623957  0.5616297503648398
  0.7476864501289118  0.2427172922596842  0.5324964434505652
  0.9777733465337153  0.4804701322716468  0.7911124491276087
  0.0448737772055379  0.7204979095436946  0.1350739961631679
  0.8997255363947524  0.3180196297317995  0.5648603112837378
  0.1471423127972783  0.6723545074686044  0.1252342764433145
  0.2990628536724102  0.8325092528792150  0.5302508266203779
  0.8805120068414356  0.3753787798986172  0.5540062342974322
  0.8810219634350743  0.1290029953289398  0.4518394893181719
  0.5783391212074555  0.2093600818356056  0.1940331411233623
  0.9379468185526847  0.4300181668799012  0.7858900655803883
  0.7686673717291931  0.4390402025041981  0.7833240726623133
  0.7235281601960768  0.1082900859046221  0.3413003680790223
  0.8492222703911114  0.7238076921933628  0.6713327677542529
  0.2715062332410325  0.8866117722160274  0.4526869181923934
  0.7376374583851125  0.2648166856340745  0.4079758727363973
  0.7885205557088565  0.2323464294810553  0.4358231178305884
  0.7886106429940778  0.3832643483156815  0.7993495397527036
  0.7343299307865093  0.2156725142723902  0.3636221864484888
  0.7294448133104751  0.3604054320680071  0.6705347992136254
  0.6693405155714426  0.3676533487941830  0.6482752658346819
  0.7043778163210754  0.3902586672395347  0.5450269951524028
  0.6797647801821911  0.3247125979651291  0.6046366695176305
  0.9922154880006827  0.6168592743305895  0.9780242660405574
  0.9190378680303037  0.0515281775659538  0.4446916548435352
  0.9437088928570850  0.5578503093533641  0.9159851276617466
  0.3253696967749750  0.8518228755771501  0.4744223437193105
  0.9840717528381444  0.5814157431105467  0.8141415184717131
  0.8402620861734279  0.3298529498303327  0.5465888774859261
  0.3627020241904333  0.6848262119722605  0.3623947213420690
  0.8887477956898762  0.4556133021910862  0.9325377567667694
  0.5292284713486545  0.2398707526055657  0.1688455760918460
  0.5394108620044865  0.2334323341384558  0.5706868041524282
  0.5817809567737646  0.1482112744339789  0.7083460051444784
  0.6867513654585647  0.2797097969876130  0.4422031580873236
  0.6902276822850095  0.3410386419694261  0.4251331995271646
  0.8668166689980336  0.5111938062858141  0.9154636392626042
  0.9268200509535769  0.5030039255448915  0.9348137972938648
  0.9808974583725864  0.6886441395237727  0.5749626698877931
  0.2202443075751453  0.9096485381839898  0.4888718221958273
  0.2685032355261885  0.8138891760716800  0.4653512672400487
  0.7720634368113518  0.6462366718449193  0.5613276315539262
  0.8461720380846124  0.5096688279271570  0.6876911433253270
  0.8966318363957059  0.5453287400807253  0.7543767890797379
  0.9282028050777925  0.7522201055498215  0.5285930547253822
  0.8475662015775574  0.5390259055071567  0.7932981197085409
  0.8479714123777392  0.2527381802101636  0.5064960413673633
  0.0489412286116382  0.4280288902805227  0.7667453559526183
  0.7393675344395776  0.3459180569091753  0.7318577880560124
  0.5797856050847834  0.3126909420243209  0.6812468900942781
  0.8029291670300875  0.1574636423414124  0.5269070637809499
  0.5899698964528102  0.2696161710891745  0.6361109262216579
  0.9152731367258989  0.0408185606538141  0.5137057423197625
  0.2642038983156395  0.7937060814591664  0.3565856662300689
  0.6221177392885950  0.1967823176199649  0.7149116848321813
  0.5573353950652928  0.5023926516384564  0.5389932541017134
  0.9384839514413666  0.6542937964737371  0.5117381814337045
  0.9428975479331091  0.6547627507972248  0.9433972719518333
  0.7018266237422999  0.2973008099657854  0.7283379699199675
  1.0106156738778793  0.4101466295216709  0.8675887797074711
  0.7049351704347222  0.1405112659858979  0.5145179213069789
  0.5048696298515685 -0.0383794991423710  0.1230725776658699
  0.8784519030226181  0.4376427046535477  0.7652897060730388
  0.1118910931609225  0.8704120942200787  0.3433739550039971
  0.9167214315409256  0.4569740880372155  0.6638020703197762
  0.8174236150934718  0.4164239991535739  0.6382140105466207
  0.9268181673668059  0.4133438954592408  0.6194653152630238
  0.7702821671741892  0.3807510281678659  0.5599662690492527
  0.1607229749474952  0.8095459178540688  0.2608959791036339
  0.3067063542459298  0.6711002861892491  0.2911961020976020
  0.0565426721355389  0.5477232997040202  0.6970246939685054
  0.2985195749042255  0.5800420632983180  0.2030212505634449
  0.8544262434618576  0.4415666317861068  0.5409076841799784
  0.9623321899062401  0.6078981885410509  0.6922700123014238
  0.9858537267440487  0.5710447811637577  0.6143058743340978
  0.3896291795438326  0.4105035710575007  0.2343872663570919
  0.9181399054781515  0.5968102397633748  0.5283223998843888
  0.4357482816559756  0.3467868361442618  0.1582391827529274
  0.6058518552812884  0.4820738773926537  0.4520782262331258
  0.5893704456007195  0.3792499235616706  0.4277329923929121
  0.8032719674392191  0.0211655827820552  0.9028169728964395
  0.9670981425230264  0.4932309530332472  0.7315343009432499
  0.1167949564890949  0.9169641406899184  0.3891192859243212
  1.0074426811016315  0.5544943149897292  0.9346053013141762
  0.7767707582092157  0.0742779563287147  0.1349217129358681
  0.8934560224014323  0.2296283006410234  0.7457264789424730
  0.2413190332454303  0.5337868929752730  0.2566703114798420
  0.8034008349188587  0.1451075053333389  0.6740270208433188
  0.3413954953420633  0.4567137919583314  0.1454188884958761
  0.7538107867550053  0.1082065502689318  0.6049916431554160
  0.2865862854252182  0.4261393007890919  0.1357002974552955
  0.6546006158803750  0.0674119066775052  0.5772890027037083
  0.3881857140814023  0.3792484480611728  0.1269839070449290
  0.6096102519546684  0.0510021886475264  0.3285142763317607
  0.7457751663208652  0.0478724334183432  0.8917687956397232
  0.8646773051415132  0.1956259164013638  0.9065650756051925
  0.9930341531946978  0.3023264816056902  0.8793816440538070
  0.7477844005351730  0.0202752341476016  0.7853720322897121
  0.7620862198073878  0.0052142361893168  0.8494972461844947
  0.3834301297506129  0.3296376340963931  0.0862070490060835
  0.8316223648086956  0.0001918974664399  0.8494623762618866
  0.8493734267208177  0.3453589490495350  0.7140755471681868
  0.6277113635417095  0.1784268547505450  0.2216571807879714
  0.6231828534331927  0.1183002445407609  0.2397418921975811
  0.7502739233243880  0.2729534116714689  0.5806181480396537
  0.3302554962156919  0.3484851463497121  0.1143598663112585
  0.7504974389197461  0.0065660368211634  0.5816305704064735
  0.8045141875279180  0.1745071499108361  0.7808342945755919
  0.4219180440983677  0.2118018172764007  0.0255482602597229
  0.2373557130771290  0.4219558016768760  1.0034322491207934
  0.2592879352381530  0.3638227294142128  0.0275984258132670
  0.8214387133063955  0.2514788239470016  0.6639474921050365
  0.6542147656612795  0.1658344955929109  0.5051280027983628
  0.7259701561083844  0.1412659346031279  0.4445564221836107
  0.8414464341192730  0.1626287903259458  0.5749925783166513
  0.8082259923464105  0.0277795475831309  0.5300724137854638
  0.1872685312777445  0.4881242714875695  0.0816887438182704
  0.1409129817317108  0.5648281486398495  0.0979051763204222
  0.4762018376050218  0.2256257757617481  0.0990278739978080
  0.8859972623453894  0.5307997958810550  0.5893832698613981
  0.9529869533491632  0.1916204243320802  0.6600441807617932
  0.5218803858351581  0.1618554215960567  0.0179357868004461
  0.8431331179127505  0.1930287058542602  0.6798006751662371
  0.5083791495032070  0.0393378494600245  0.0369360180345750
  0.7694412408329607  0.2150929400406294  0.5974113713842341
  0.4674190658743597  0.1463086279534944  0.1758848776726693
  0.7310821218738902  0.1627954432773225  0.5913264164931824
  0.5221681812914347  0.1469677486156723  0.0807776241260963
  0.7983389414037577  0.0544612270359369  0.8491567491879720
  0.1616395184610515  0.5910735504029700 -0.0155431602114486
  0.8742570618464647  0.0907561840565533  0.6519487716499185
  0.8761977711108643  0.1225482988746336  0.7573681687696302
  0.8890572246269315  0.3928189987677151  0.7200689381318266
  0.9526799949752192  0.4790238582553012  0.5658208749883473
  0.3460931318876673  0.4220047658012201  0.9803668099813427
  0.8484070325064434  0.8505742350819755  0.4297676745413559
  0.8590818589614511  0.0355569537767121  0.9386847223212305
  0.9955538967288341  0.1274208362582421  0.9652625811503291
  0.9338047729606868  0.1464548527906294  0.8841373038860161
  0.9933575536812885  0.1372597510499540  0.9059307760765793
  0.3222633699930594  0.2542313047171809  0.0389243745014770
  0.9314881028688494  0.3108629697551765  0.8585103357924069
  0.9573515830206454  0.0870344854359176  0.9079583737592438
  0.3596117189328680  0.1210842815272289  0.0355086476899153
  0.4044473291647559  0.1027600127466725 -0.0027746132393421
  0.4100168918710028  0.0898392716400801  0.0588953919656395
  0.0007244632724025  0.8145088653649853  0.0928578001734067
  0.8497608485493459  0.0326678028621344  0.6955880105504929
  0.0480932817799680  0.7383215695480810  0.0735398312593159
  0.9648656146329257  0.2088095999222242  0.8267727852057491
  0.9750529543793177  0.1644285079896926  0.7829847422537901
  0.9269661215585259  0.1289940624379527  0.7174641700226072
  0.9091465262576410  0.0526593332063924  0.8378406997816024
  0.1050894309785502  0.1371048375547724  0.8867498731205429
  0.8675658667497632  0.4384344681997942  0.1562069120246666
  1.0004167651931435  0.7932966214913074  0.3825407457155864
  0.6025798828038278  0.4397775096608706  0.4055443694115118
  0.8680711021669761  0.9682252577635257  0.1501434564302568
  0.0469345170218467  0.1328342680813329  0.0978264420719385
  0.3991909795260152  0.6266916998776544  0.5215940865546786
  0.8906429501691847  0.7491964508108860  0.0675785074368163
  0.9422826118465203  0.1333176531990156  0.0615934080656926
  0.1914974467754512  0.9276557383065388  0.8665494171466398
  0.3142136575184786  0.5668931497408476  0.5586791437705040