C  Cr Ni
 1.0000000000000000
    38.7782925608872873    0.0000000000000000    0.0000000000000000
     0.0000000000000000   38.7782925608872873    0.0000000000000000
     0.0000000000000000    0.0000000000000000   38.7782925608872873
 C   Cr  Ni 
 106 1596 3725
Direct
  0.5221987732645523  0.6473252624099739  0.9837611356784113
  0.9765823659284577  0.8155298858360430  0.5064051364705403
  0.0745284776822448  0.8301774735656927  0.4418741404208928
  0.8500090578774760  0.0775901501093038 -0.0286010684956937
  0.5814349324999247  0.2390498558361503  0.0197793858112653
  0.2680337666540600  0.9325845530601156  0.4844450345117111
  0.1938448368377884  0.6247921933056236  1.0031749159987344
  0.2771087941783487  0.3344272903845456  0.0661060744323589
  0.9461411186995625  0.9563508895166097  0.5406330491065969
  0.2748392569646324  1.0439464346253529  0.1180369909289099
  0.7453980288855802  0.9211294691589473  0.2924307112823220
  0.0699255932483449  0.7696007419187414  0.5165174491554881
  1.0361608145348529  0.1569540318624075  0.4835107568617777
  0.3945892655221482  0.5783719145818865  0.6805021086049439
  0.1694530284240037  0.9416612122374196  0.5847920862069711
  0.0032962956329438  0.8397172862569786  0.4950664976654661
  0.6897864827139095  0.1669269037026515  0.4683368010053713
  0.3191565652872654  1.0323452256820043  0.2591965934037189
  0.4325256808687329  0.2486881245783831  0.8946618606573713
  0.4507428419911536  0.0524709659478906  0.3570436852535716
  0.1911811624320602  0.8814406636733394  0.5193374359131772
  0.1192115829839778  0.4143132725706568  0.4720032581681965
  0.8043732610646082  0.0229566417506538  0.9532736661695297
  0.3721112631081159  0.1396522755733070  0.9846652494695438
  0.4076919731851448  0.2200146901726442  0.9771805346563532
  0.4503801209137604  0.0267023752756532  0.2640700000082561
 -0.0454112862947295  0.8871830402722780  0.5625160351073949
  0.1834169746999252  0.3300662363151240  0.0301365682191195
  0.5744269754468710  1.0305262958876553  0.3566333269777767
  0.5620214962844401  0.8340894780356971  0.4763553957292608
  0.2213518139417336  0.2170052952829575  0.5417898267866537
  0.3251173224297758 -0.0063162927553836  0.3341699938308135
  1.0110975048610003  0.3498408170715389  0.0241292173447782
  0.7193361478756014  0.6438507302132960  0.4891707849763223
  0.4933513860344880  0.5966400252465455  0.5108888532120011
  0.7457007629365624  0.0695997499230586  0.9845653276581990
  0.1902389629549728  0.4148259006872947  0.0244685175520787
  1.0468373791610066  0.7391532205337421  0.4530565664706910
  0.5285552122388159  0.2291225010919135  0.8894331970054324
  1.0545407452951931  0.0645457259484017  0.5305111833175373
  0.8742142941106749 -0.0001170280013286  0.9742600688299381
  1.0473535826708380 -0.0039231786431884  0.9802153596108850
  0.1434027002520245  0.2361792546513047  0.4367801614190756
  0.7673344655934727 -0.0074001584011090  0.2675149412629799
 -0.0456005449323733  0.8738866296070982  0.6403341069668154
  0.5638034090426189  0.1541399546333123  0.9134275411448002
  0.4123405682452266  0.6804420251749567  0.7697570497400650
  0.5486570493339388  0.1639274495362334  0.8449577915837934
  0.2680425876435404  0.9246698399797759  0.5680530425522652
  0.6692940133912346  0.8595907216195652  0.5415646242568600
  0.8452277966462494  0.9887600631659964  0.8983854434245657
  0.7569339803446010 -0.0054991078524809  0.9043566846513724
  0.9608357086971029  0.1690712451420630  0.5070130795296077
  0.1889849900598910  0.8329613486902981  0.2355804823673706
  0.5221464288943776  0.8124390500850959  0.5615026280338281
  0.2650602321350749  0.6027386439442943  0.0216148453887617
  0.5793352447439186  0.8979305579405910  0.5449607966468488
  0.3923824337016124  0.1164089889525164  0.4474244883793798
  0.0918383281220450 -0.0621584385940497  0.6145339696536376
  0.0103163794061305  0.3887843328985240  0.5580519919628573
  0.3627702419611779  0.6367633161273724  1.0254854513039406
  0.7441028191391380  0.2795696546660641  0.0720548760566674
  1.0354040893711471  0.2855546091558214  0.5124308055909323
  0.5520819153567483  0.7800619659435947  0.4309622420155228
  0.8818378755148568  0.1744390798307809  0.4757452283733660
  0.0827821557362614  0.8393706552623053  0.5781745137516392
  0.4757470977975348  0.1636867282737937  0.8809296350147188
  0.9544470159785249  0.9458668461158992  0.6182355473096611
  0.3985826664733230  0.7635943188512098  0.9717956855314661
  0.3596555345680501  0.3725756899207064  0.0796244702028295
  0.3868463348094716 -0.0035456471216070  0.2540705861555225
  0.5193438784608547  0.0291222082825206  0.9811424211785925
  0.3750576394348571  0.6689797476720046  0.9566906042706955
  0.1023767616331387  0.9146878810787800  0.5262520540005348
  0.9048357764433261  0.3198566505204088  0.9398785108140641
  0.2757995419361947  0.8471371442887609  0.9497246518132456
  0.5734832215154397  0.7794645339236913  0.9496213212880128
  0.2220763255865515 -0.0269540568570198  0.1775472675004733
  0.9161184389177265  1.0160365751436740  0.5591406775664558
  0.2793248018219310  0.8553574118431284  0.4914129560120179
  0.8757301051641787  0.2980018185149215  0.5199227347886397
  0.3229628624662064  0.9623231332702481  0.2372604902997359
  0.4972756723002640  0.1893832035082559  0.9749743262709319
  1.0516413615561677  0.2147151772911345  0.5333755905662778
  1.0139466912482811  0.4155109101824833  0.4367799293350704
  0.5551621436753008  0.7628458471555402  0.5074697160400140
  0.0218019031541403  0.7791876351113518  0.5762105778940657
  0.3351267593191714  0.1211221817585175  0.1696952375201797
  0.0209163536763811  0.3462930587627370  0.4652772281546660
  0.0139301664681676  0.2771711823491222  0.0524750469596324
 -0.0563214335511513  0.8209033200522144  0.8971206449598036
  0.6002736094862908  0.8529909600287592  0.3858350102184651
  0.8354067084158696  0.9578212290002834  0.5743587053716717
  0.5815964797320244  0.8847801722662840  0.3940448313377509
  0.4857545102671489  0.7862819471546583  0.5022713666760346
  0.7251592814334767  0.0752881392743198  0.0163950576076310
  0.8186340178361928  0.9447816164607302  0.3190335671218660
  0.9371836464644551  0.3345033290795413  0.0681203295665919
  0.4640735404363991  0.7758980270493988  0.4714986009419216
  0.4206648071839590  0.1576192056548001  0.9238652640993658
  0.9483415831844827  0.0851217384783292  0.0388386867224185
  0.3451116868610997  0.7990896402644899  1.0093214430456627
  0.7299202378261556 -0.0282203738355682  0.9994001454835566
  0.2554807640303774  0.9989951075939608  0.5514895195196684
  0.8568726371832325  0.0808585401040336  0.0696818700104404
  0.3703956665624114  0.2466624932196650  0.5132949258035759
  0.9522463744725458  0.0387706062125540  0.5910437585104215
  0.1547134093709378  0.7562977297090412  0.0502523731039743
  0.5672976394380339  0.5218724288937581  0.7017099781941490
  0.0529806029268119  0.8473773580888341  0.4915866968349380
  0.3808203482974695  0.9166743277056096  0.3617457072639204
  0.6371263632847317  0.4978396420285065  0.7840284826026968
  0.4710568197702568  0.7342406553145914  0.2152141059772825
  0.4914878135213856  0.7694630383260939  0.5502332808933523
  0.3094098376028385  0.6281603201307058  0.0181387558185320
  0.1725594972229205  0.2116793528196862  0.4696169696241577
  0.2512517983624506  0.6435057747690870  0.0511656402527576
  0.5375724306759023  0.4585648334834457  0.7587046169383974
  0.6866712279371985  0.5365733539424095  0.8492735213429142
  0.4004574562997533  0.5131589136315959  0.0334243844530852
  0.6965043343332707  0.5231354625097941  0.9099881171958827
  0.6379595899250313  0.5309413820245430  0.8878838414395283
  0.3525495084977469  0.5903762222099443  0.0451064926192327
  0.8038574204063759  0.3949358401599344  0.9719142113599492
  0.2307839395402490  0.8477421378477993  0.5031598522892724
  0.3552165807381404  0.6456519132370175  0.0787946813846232
  0.7712141788331117  0.2762348761918633  0.8107050920847528
  0.7048234597651217  0.6237302366515534  0.9348323060148904
  0.6111405738285229  0.5480844109470545  0.2059663906735219
  0.1934108111926311  0.5955485955620935  0.1085789769471629
  0.7034029577324207  0.5938374500928519  0.8269752137939258
  0.3688468226896336  0.2404230830302520  0.5648663949438828
  0.5534102272624731  0.6803033196481815  0.7081286866921618
  0.4048339952242182  0.6413624411083442 -0.0087434601355030
  0.3749338931751036  0.1383698124445549  0.8100002957003228
  0.6475919271054852  0.8174039789315113  0.5278302217685161
  0.7435859961823120  0.2690934215415401  0.1200966728139873
  0.7055310225713979  0.8246957301751910  0.5534502406305125
  1.0152874076808551  0.2409975156918692  0.5067125887460239
  0.3071818399617819  0.6881522721041585  0.4591239978446907
  0.6537985036572369  0.5888392421517328  0.8667761862098393
  0.7788391923773211  0.9693990974913165  0.7683569487582185
  0.5299739858912617  0.2201603458672979  0.0010452534450860
  0.5133189018031340  0.2243119424984246  0.9376992314002740
  0.5271505401515902  0.0816126047689361  0.5314258028481842
  0.5087401209023803  0.1353042926020306  0.5195965520075434
  0.5207723535540062  0.1233675627996994  0.5816330334318746
  0.5720149205275277  0.1612726600952188  0.6479339614376977
  0.1572914741361017  0.8002071786551561  0.0944127652634979
  0.5114022422268599  0.1679703918901391  0.6283020795163151
  0.5612444634372503  0.2054341590249759  0.6930564328838645
  0.6276781994717464  0.8920198886850180  0.6798700419817836
  0.1656672156974383  0.8145570513466277  0.4882480317810901
  0.8464016171546704  0.8876004559627407  0.6385077499721260
  0.9873511497765098  0.1395681050082240  0.4256232304417030
  0.8379025743136461  0.3130183670732564  0.4884734457940830
  0.7437079078058245  0.6430000406375226  0.8325371547701144
  0.6445282759194165  0.5988789330499366  0.8060804845707230
  0.6343708584305863  0.6143512701397078  0.7443608455946268
  0.8990072081092868  0.3080218776798979  0.3947317977017955
  0.6056609288459867  0.5712106521726097  0.7063985744585379
  0.8218199669347998  0.0992714258003252  0.4443747818016727
  0.3584844948068734  0.0881369077053377  0.5332303762208691
  0.6983439314038362  0.3582901223237296  0.9408057788472528
  0.5995513603833617  0.3163885259919724  0.9142280444463421
  0.6295983922918338  0.3484346434964387  0.7511289714610899
  0.8549258024026969  0.9473914859964815  0.5231989060567963
  0.6592060433523321  0.4865016706952942  0.3552620864817401
  0.6463168148962352  0.3800218633928314  0.3291814512107822
  0.4468235330910387  0.1217845113945196  0.8941918887370300
  0.4571092924066434  0.0767743452557616  0.8508351220474134
  0.6926515491929276  0.3183030291076421  0.2535059218761261
  0.3966952653941080  0.0823609932157684  0.8278503130137499
  0.3857227110486378  0.1253413517307685  0.8698211041059104
  0.7884786377527613  0.2117238902676828  0.2678152217596079
  0.5520086468289770  0.0730598143363502  0.3712083089703898
  0.8926765610881786  0.2922998014576754  0.4676297411769611
  0.7716190190192692  0.6862565644403505  0.8718553325185593
  0.5750975551410411  0.6116168720777850  0.5195972374411995
  0.4310334433783593  0.9153785969118188  0.4940601854874037
  0.5956861305275268  0.0694089946402337  0.5561052397576031
  0.6598552806372532  0.7638795542055808  0.5482821383654369
  0.4723104624992903  0.7326375707134849  0.5038190264121837
  0.8917699203152760  0.9657281872043911  0.7542941905408522
  0.9629210635824712  0.9432581328459934  0.8409957067023393
  0.9310727809705157  0.9818050078102875  0.6510685181047389
  0.9497714445679458  0.9256073167727702  0.6668741258512524
  0.6649038901743571  0.4476713327099008  0.4773277004681610
  0.6547282252593943  0.5461504407921612  0.5617806411619607
  0.8104303973847792  0.9131041497399067  0.5652438746118734
  0.8264333573050127  0.4354238666017990  0.4804262138606518
  0.6150890146667271  0.5285684446317198  0.6622193209645104
  0.9120629476873588  0.9187035905687578  0.5446496363556264
  0.7982833633873609  0.3530575886461129  0.3957123251451998
  0.3898754482175330  0.3017929812520758  0.5078587451538973
  0.5266126638409963  0.1878833875178003  0.8033427323550525
  0.5137890091720720  0.6396118950032497  0.2585671362831927
  0.5189956355396994  0.6700383760350346  0.3642367299132500
  0.4615111103495271  0.1636058865092908  0.6670126255866865
  0.3741970533902678  0.1060074483667571  0.7030561233278800
  0.4106880998134316  0.1277091074389608  0.6006459405525232
  0.9831017373548550  0.0921902592020971  0.3865146149106402
  0.4082294138827953  0.7476681970465657  0.0222951957545133
  0.9606441588336002  0.4050514930327944  0.9072510875223668
  0.6166864298577560  0.4983972713411182  0.5591545316332003
  0.5794616449363409  0.2835659895708570  0.5747503348642828
  0.3828215894876363  0.0630666800664698  0.6577113571873848
  0.4421594408652335  0.0570224309141299  0.6791388926857833
  0.4841416323126322  0.2832076825465790  0.0802996966203545
  0.4595942310684552  0.2226176714340629  0.9770441117461038
  0.5562069259503852  0.0857749974857528  0.7659938067517615
  0.4431570202849052  0.3620519856309605  0.0976940745870515
  0.5001522149764047  0.1290856363677860  0.8514261224876970
  0.4971947999862085  0.3472928848755370  0.0570483222014140
  0.4042636248465728  0.3767537240026521  0.0542260174532548
  0.3967251453418305  0.4866747214356639  0.1522361048435180
  0.5942578701844747  0.1662111729637408  0.8749205842297016
  0.6898386030369313  0.0912577208819157  0.9800444863421797
  0.3999158517958785  0.5015435413101457  0.0926658988473782
  0.5255459226820187  0.0243322036750184  0.8272832614223867
  0.5587502130964372  0.9748246228645866  0.8101831716275876
  0.5494668073844231  0.9962263446794439  0.9544455431121405
  0.5289242930937152  0.0573600238851527  0.9377648093287342
  0.5564381517574594  0.1189182706061905  0.8738121164016932
  0.3521787035454682  0.5821170272388504  0.1055179866087148
  1.0005364699135471  0.4546978376899322  0.9123290659361326
  0.5039089700073336  0.5015432551313275  0.1269039286259661
  0.3591498678547594  0.2861839339711850  0.6135951363673218
  0.6862842998743705  0.4758295059580904  0.6398486617923346
  0.0094482480737621  0.8880113777322313  0.4761787965199127
  0.1307826453468160  0.4568372131169958  0.3002626821696138
  0.4184882963890400  0.1941360738220960  0.3156993797938625
  0.3719430482718701  0.2586551522445625  0.3998684666902546
  0.3727570713931868  0.2729219137688921  0.3362489390165718
  0.3254646435187734  0.3402820534632029  0.4158583949165248
  0.4244984375811101  0.2874079907236514  0.4057915113164867
  0.9933778225359876  0.6867370243123799  0.3503412845187901
  0.2355033388228980  0.4415478566002903  0.3949798472110664
  0.1898663183752417  0.5171939515030108  0.4161862261160490
  0.2933602516506572  0.4744890384352546  0.4061807769330971
  0.1335937987938493  0.5030409318237615  0.3441684093280654
  0.3622571568519114  0.1645542394784247  0.3063140209246371
  0.2405719729892362  0.5188786586335380  0.3185067635099200
  0.2978995949531997  0.5797543108955725  0.4329813117923609
  0.2452068910833385  0.5647352790665441  0.3636753904497353
  0.1359401916416463  0.5312297745131924  0.4527761496440366
  0.1463306958082266  0.6558131996029353  0.4146540284604586
  0.0276640110950050  0.7428135334386401  0.5002524960091446
  0.0606075058378009  0.7885307544178710  0.4673489308385628
  0.3140791198327059  0.1977369996633281  0.2841258731754174
  0.0338808271684538  0.8303835940275732  0.5828239057722386
  0.0239499893356765  0.0548151523796684  0.4868233918612254
  0.7759725994218590  0.5334656134941268  0.6056691115853579
  0.9661197580768098  0.0023653290780217  0.5439947094164655
  0.9188549785571254  0.0167126689106273  0.3357406207135919
  0.7378262451087350  0.3101784320664184  0.4529930081738748
  0.0740818691870066  0.8802017638932046  0.5473181195914972
  0.9216631248282687  0.9716971970291253  0.5866908080888902
  0.9807624445709644  0.9890159313867170  0.6109315792284515
  0.8067840262312616  0.7598364994585490  0.4856916413469931
  0.4702624221469239  0.1174929239967009  0.6196773956712371
  0.4825761738305879  0.1070337981614562  0.6830771806843688
  0.5337673693033937  0.1108266783375769  0.6424491782019335
  0.5951610797029555  0.1365973288906009  0.7687768656031523
  0.5759307695723280  0.1870168928045665  0.0326991796891169
  0.7543254709825543  0.0325136088910904  0.9481485282810819
  0.5877461814469268  0.1786545843951096  0.8135317603925172
  0.5766606910361664  0.1759105103720663  0.0916013532589874
  0.7093318517032091  0.3132306537521323  0.8977819432501222
  0.6288659397188944  0.2508115597983508  0.9905974801073846
  0.4813672017900908  0.2405720765440201  0.5500507523041717
  0.2582609895473992  0.7340315375210291  0.1434813698577093
  0.2683164445850224  0.8418221479613848  0.1725018350911458
  0.8204218360147824  0.3126027516425400  0.8766381669660366
  0.9301810168038471  0.3442845664922521  0.9739049926540081
  0.7240367621669471  0.0729545584749442  0.2365410202888327
  0.4140464109681460  0.9800402868470173  0.5325164875937833
  0.9890294262680568  0.4659479237229454  0.8513977597539615
  0.9638313886313505  0.9714914040618211  0.9477259431625449
  0.0508842368004557  0.8352991693373487  0.8365980109371881
  0.9416819882941709  0.1700952822905278  0.3957387891615904
  0.8790096144754512  0.0917624802919608  0.3457196940738538
  0.6447105329274042  0.7053137388457925  0.5639488918382719
  0.8365747090241871  0.1694899522643036  0.3582982048247446
  0.8402054883205754  0.2050292905943688  0.4618064635834915
  0.5924074331000063  0.6992276628089517  0.6070556743816440
  0.7394544920404673  0.7268452478648200  0.6875303291939514
  0.7286239678527220  0.7688269685703173  0.7316060613205668
  0.7707069020635469  0.8192876560999059  0.7386469261241750
  0.4185510858655511  0.2479111398779665  0.5273547339043368
  0.7788374085503558  0.7760536945774285  0.6935499318644839
  0.7806439401594070  0.6840275031889714  0.0492939588344490
  0.4942982991039947  0.4091557203068746  0.2672065918293526
  0.5304259708839092  0.5633465769024968  0.5169947084285116
  0.8221512896492245  0.7932789621376902  0.5922253570797266
  0.4804195172950557  0.8320205176288000  0.4753329280892084
  0.7460876403821332  0.8466502832033476  0.6139878151312216
  0.3695572894674019  0.7765235695712879  0.4515040524279060
  0.7977907647260215  0.8809682504289261  0.6816973231114729
  0.2292491261577465  0.0163178865951997  0.5141554246720725
  0.8615295654784993  0.9032529851009040  0.8101975713473802
  0.3842595770725706  0.9626609693058727  0.4083259268202614
  0.5344582488102317  0.1652922130174841  0.9521387236635235
  0.4562980163779639  0.5241365582725794  0.7216497948818252
  0.4310048781723074  0.3981600162257508  0.5611786177221005
  0.2163824336229985  0.8496975973472394  0.0415583147210036
  0.5352978284702370  0.9176865844125370  0.5292716253744294
  0.5884536041520707  0.8580267839921191  0.4411587782928355
  0.0354380690837791  0.0779298076089973  0.3525969763382824
  0.3813823451972477  0.3226645904637681  0.9506826360992435
  0.1473896620314068  0.9788986122132400  0.6116133932687247
  0.1648310420620628  0.0675709711116405  0.6962776858096962
  0.5695512045385853  0.7349823215676677  0.6878838443433090
  0.2651697461971221  0.1088622581137303  0.7224255977733186
  0.1947687181367184  0.1607087127380893  0.7462843088688511
  0.8455342221544655  0.2788086575404894  0.3828666268353790
  0.2168168677114843  0.1326092494998587  0.8707134876933302
  0.3334192803294897  0.1604273649722526  0.9564534301372862
  0.2688166712525156  0.1696455399115994  0.9387566970354251
  0.4049873571766816  0.2711853665846171  0.9643730398476917
  0.2261286994981083  0.0899178373058823  0.8272222292543889
  0.4385121461850912  0.4156267882573856  0.7321783696043984
  0.6403548828027603  0.7143736639539771  0.7689182238137997
  0.7192440647927354  0.7232952666144287  0.9586703702099313
  0.4642820252096780  0.6554641024440501  0.2922666994172036
  0.6621528837491089  0.6894562873283383  0.8914544880724870
  0.5368926199693089  0.4270153926445076  0.6528817204802784
  0.3038755720768173  0.1903066291118135  0.8318942503176163
  0.5305244743020239  0.8240184675399045  0.4396045990264442
  0.2529063949815185  0.1229126349747001  0.6604894590318111
  0.6178396334688409  0.4229177650907374  0.8998416674428227
  0.5695120080292442  0.3873425312032427  0.8362202021029843
  0.1813877447222795  0.9909613811638258  0.2097222575755486
  0.2280381097912385  0.9394387249904421  0.1370968974194456
  0.2903656621535718  0.1423911042477750  0.5583043333706903
  0.7740659969298562  0.0438401103539374  1.0222801686981893
  0.3407514909636825  0.1788498959435771  0.6256568924927255
  0.3315492675968652  0.2221501455360782  0.6692663741949143
  0.4030353008476623  0.2023463904123385  0.7513607102686487
  0.3325174347371063  0.2537307104778428  0.7747415746739820
  0.7215889959823100  0.3013207472091908  0.0316523179542148
  0.4808269639725353  0.3338800494837982  0.8706536658411675
  0.5541067609243733  0.4368687750576723  0.0471985263940356
  0.5301948407031056  0.3714254835210590  0.9372226820621918
  0.5021667154672423  0.4534525262640823  0.0823105480659732
  0.1786825429543023 -0.0032302369617055  0.4455869930670139
  0.2602646006982868  0.9756917799291699  0.5950722492526235
  0.4313643319724966  0.2961015836543575  0.8016041452229693
  0.3709697432308961  0.2725547188834626  0.6739937539547236
  0.2604178555957831  0.7779413077923192  0.0236358742000118
  0.9958159801993011  0.1995699790192636  0.4041609265970469
  0.5842448800357590  0.7899974758855030  0.4670095155391982
  0.7095778591830629  0.9485134627720404  0.0380440991217986
  0.2440455371157188  0.1979813978262213  0.8120404846995134
  0.6048645292641607  0.0405707892906156  0.3960764562774987
  0.5247934905299941  0.1767387652665567  0.8878451756411050
  0.6578665130460013  0.4126791812435187  0.6956905775124953
  0.6965869538781457  0.4617180524113053  0.7003552291277856
  0.4549301798139621  0.5643130775451242  0.2044242603227710
  0.6471912578523775  0.4550309464819812  0.7391328977010286
  0.4068331460043338  0.6095203009399093  0.3451563377708454
  0.7469716679121342  0.4978587372539505  0.7667309138255208
  0.7369345433291483  0.5419334426412901  0.8105186688121755
  0.4077583820164115  0.6251852988404729  0.2828426525625073
  0.7734253333471647  0.5714282338197940  0.9093268333241856
  0.0794790810516148  0.9342500472705829  0.1103061638650539
  0.8335781829624442  0.5561181931796630  0.9944793384241687
  0.8723452035335539  0.6124477899442589  0.9391686124598940
  0.8706074459283440  0.7258223846457500  0.8998436793686886
  0.1558876987983618  0.7807709205416539  0.1535579933142572
  0.2137397210965974  0.7922637314902243  0.2238028574908302
  0.8531825247767051  0.6400367785672801  0.8151585629498006
  0.1099816753048729  0.8581780348053727  0.1746433186288861
  0.8246659789476656  0.7501366178167108  0.5483778260338255
  0.7633811533506581  0.7627441345446515  0.5245767251447740
  0.1658771599398888  0.8890600042241396  0.1843782141471670
  0.8710634145702719 -0.0534956435873339  0.9778380336513735
  0.8345964876545234  0.1353469477154368  0.2531395873611914
  0.4137816502281424  0.6869762737508387  0.2653463851583568
  0.9083243920672394  0.8783459074093065  0.6636799453598263
  0.7437371906862797  0.6072445572871047  0.5227325871172414
  0.7071075133938935  0.6589184424636156  0.5376635251840524
  0.5812457444566919  0.2382971074392156  0.0727190676205857
  0.4921730824466821  0.3775859718996751  0.1622066387867497
  0.9009223414337296  0.7881695675777268  0.8417371442948351
  0.9395437652104855  0.8092768245262038  0.7432971158152690
  0.4446119839213432  0.4093820150187621  0.1367892311564934
 -0.0021634230310854  0.8294083147705382  0.8801688175892431
  0.9300441263948052  0.7561910483137059  0.9644387968080453
  0.9354400348912990  0.8732671493315958  0.9071046723349416
  0.6080400156347290  0.5131327806566177  0.4960470114283522
  0.4514124775076153  0.5168486298432193  0.1606830793438155
  0.7053334256582113  0.5847113146978341  0.6267706626269611
  0.3504838106943510  0.5660443090101011  0.1682767652303226
  0.3538685163662473  0.6122881166889076  0.2106790379360997
  0.8430041916280454  0.6541592293684106  0.7534643705641351
  0.3635812264862855  0.7186945520300679  0.2385925445487144
  0.2575876420744271  0.7176965465756819  0.2040585989570712
  0.7919706740991075  0.7929285139019584  0.8627489254241192
  0.8626769087929214  0.4064096481989466  0.9911035304450184
  0.7896818790693654  0.7626391111762262  0.7554354364131473
  1.0314615830942875 -0.0045743387816021  0.1926184114392867
  0.3603002882897357  0.1157555423003989  0.2628356907447199
  0.5091382801702883  0.3958241707917987  0.8144458685323104
  0.5391978668848084  0.8064796482015909  0.6095704676781798
  0.2702124178256841  0.8606122482920964  0.1136913494319891
  0.2195700936372406  0.8853029387943391  0.3190992333321589
  0.5085948019744607  0.3651942450256151  0.7061071116044565
  0.6680274725296754  0.3976142381760788  0.7558413132014705
  0.2693358211260595  0.8533415048517420  0.3419409700303106
  0.5090585419339315  0.3345055880814666  0.5968042018984624
  0.6297361287639474  0.3186419546604489  0.6437561405604393
  0.3180844478257475  0.7943687306044745  0.2590268637481254
  0.3679090697660302  0.7630418350476641  0.2850144729357678
  0.5119393857355367  0.2009987037507286  0.7342704858868748
  0.4168950940379467  0.7152509332179262  0.3716421694271441
  0.0498062712668291  0.7547411849978288  0.0129099361753235
  0.6453187380865074  0.3474500958835661  0.2256282776174696
  0.5555907459898307  0.4840307486792149  0.0914651624519270
  0.9466384168546742  0.3889098461485535  0.5164702044659073
  0.9918279748892015  0.4298433909239457  0.4830532028995657
  0.8183129862456116  0.5500641593305645  0.5048763272263287
  0.6782515418082352  0.9278032200779925  0.7455685887159000
  0.6687562200598148  0.9704681273510356  0.7889099341831920
  0.7493909457140947  0.8752921105908223  0.7219010741700788
  0.5560353963363319  0.4994814672989988  0.0325190871788128
  0.4342950888679774  0.7862536404665018  0.5208640019233396
  0.5583443041035009  0.5330048881923700  0.3635384456622455
  0.7076017496856867  0.4783570184760972  0.8677969376735700
  0.7173270072393464  0.4627464948985528  0.9287224360815515
  0.4128332108634511  0.1684986182497578  0.9731625278076040
  0.5111549779877166  0.2342084688368449  0.8400629443113152
  0.5689818422859152  0.2202238308831857  0.8569288459309109
  0.5478480150309381  0.1275116152765423  0.8086776129547459
  0.4455493774958448  0.0883006983070392  0.7873971847957405
  0.3942271119676032  0.0508161534190426  0.7212236369373785
  0.8792988202016336  0.0593462458795814  0.2390289736678353
  0.2807203678922889  0.9472502699797425  0.4371920596119808
  0.2191683564869051  0.8717514916774418  0.3787087001649547
  0.5498775975231509  0.3231713610808106  1.0161330682975132
  0.8614065253980329  0.9985039020277591  0.5607579950791307
  0.7967552650761393  0.9729144728591801  0.5470936110933182
  0.3709030408898738  0.7922197290098477  0.3917606561612823
  0.7394556726423789  0.3769637695865612  0.8384931862912772
  0.5625966846230738  0.2386068732166007  0.7983420839532841
  0.7387798053028531  0.2409309428569338  0.2403995397069142
  0.4798194491117720  0.2709370058666489  0.6554306741012780
  0.3894796639553500  0.1850856566996217  0.5821262976216028
  0.7317169615618550  0.1470789244264775  0.1514527141934622
  0.4504965403953098  0.1763695876095534  0.6061643253329673
  0.3841698737520856  0.1939988061734107  0.5163635888884981
  0.7205208340866120  0.0419317657518991  0.1259693012250293
  0.5632850539589710  0.6362952765203811  0.6632382744620934
  0.3311155233913102  0.9433893967378427  0.3381218130806772
  0.4794162657691846  0.8286733332862321  0.5359899249306346
  0.4887491404704160  0.5294681259389705  0.9498459299882644
  0.8427790147323099  0.2420051056645580  0.2776684879998879
  0.7914876738863074  0.2584215305466783  0.3110559061906322
  0.2018578178160490  0.0838068123539324 -0.0054187530063289
  0.2470348545311508  0.0639601847098549  0.9539189135657913
  0.7644623196570454  0.5641281950122541  0.4837688508326697
  0.7659202712410326  0.6592086118847733  0.4970057426144311
  0.5925224043192371  0.9462194924500977  0.5412051381911001
  0.6185707801309395  0.9353983712120043  0.7242671305295393
  0.6424851025204773  0.9800981185857766  0.5493180906715085
  0.6341581089795251  0.7132481569752706  0.5081934294984873
  0.6908759726112604  0.7416445854969981  0.4585270830508971
  0.5343947428801621  0.8081072926905505  0.5100872188366435
  0.5591300026479082  0.9105818370749688  0.5915162944932989
  0.4888899133703997  0.9627717001145263  0.4427133409453061
  0.4495300703696478  0.4319268185812162  0.9571633575040844
  0.1296928830312218  0.0355215837143959  0.5933311029195180
  0.0750539785913737  0.0197634010519576  0.5159826349346562
  0.1233476916013429  0.1804647908654608  0.6621495170456557
  0.3146440348625462  0.1936148080335026  0.0547418604514969
  0.3223295803090398  0.8276111427141936  0.0451933621643524
  0.4589541917566020  0.3597692838134408  0.7461967297124987
  0.6796296077819465  0.7638965203643211  0.7738688201965944
  0.0646456402235300  0.9328016400901822  0.1946923570230955
  0.4851395226016635  0.5869375129082318  0.6651539856949291
  0.1718837540579000  0.9492398183695819  0.1692715829083806
  0.3944024817887121  0.8077746667708845  0.0006339914858629
  0.5275754024423073  0.8495984051845047  0.6542128767842095
  0.8210053112922177  0.5324499132224154  0.3393209286937292
  0.2224351503312151  0.2247240544745855  0.6888391786537019
  0.2362796856454404  0.0767713872586330  0.8901404584402139
  0.9708344469317738  0.4401218011284426  0.4222071873304892