C  Cr Ni
 1.0000000000000000
    38.7782925608872873    0.0000000000000000    0.0000000000000000
     0.0000000000000000   38.7782925608872873    0.0000000000000000
     0.0000000000000000    0.0000000000000000   38.7782925608872873
 C   Cr  Ni 
 106 1596 3725
Direct
  0.3077260293850790  0.7196981134748919  0.0322234848005134
  0.5243488704155124  0.8132341543835211  0.5630958359330677
  0.2812121103860781  0.8536768458684348  0.4923572170445135
  0.4971300829002289  0.1918813963450425  0.9680707095740282
  0.5773442888812153  0.2397093734295195  0.0193429430208665
  0.2732787131564151  0.9357236993123604  0.4864951282429545
  0.3589651220846880  0.8058088662960081  0.0571014224149801
  0.4933678439155919  0.7242439909956094  0.0804281242790461
  0.8687675437397032  0.9614060549934942  0.6038899066282034
  0.2726074644583445  1.0434195001287609  0.1181828379666219
  0.7446250790739072  0.9209607910151653  0.2933242985616685
  0.0718163579692879  0.7673816968723540  0.5141874653772555
  0.4819878059971889  0.0179007961796972  0.0673655928309050
  1.0480590854835139  0.1640860041163076  0.4815822211051428
  0.1708899311311747  0.9393740470370401  0.5856908446988759
  0.9543066488821130  0.0706221966276296  0.9486766510852261
  0.6832913949024920  0.1661015440901632  0.4662292583548988
  0.3250003801759784  1.0197334615853717  0.2569919296151662
  0.7743476134657233 -0.0478192360832829  0.0461350039045529
  0.5598439970226515  0.5811944864793911  0.5487188967494332
  0.1977910850228955  0.8843811832926690  0.5219847545233949
  0.1196313972136020  0.4141191502490894  0.4706995145594887
  0.7112408290478222  0.0027968782813730  0.0443641638636074
  0.1723759868395328  0.6147932044738905  0.4079084642520993
  0.3704175519611324  0.1429748510797126  0.9850056310169653
  0.8579285850283622  0.0820980513660204  0.0713584933710077
  0.7329581611197078  0.3797188343755831  0.0338196795507479
  0.1827873010946290  0.3295312783198637  0.0298601061781033
  0.5744767289989786  1.0291631900664591  0.3564162774360620
  0.7373625694845827 -0.0262271220962519  0.9858908019436754
  0.5269791865273761  0.6535071971404630  0.9844131189841996
  1.0041046447869706  0.8404489746472017  0.4980535715990289
  0.4667906429625316  0.7762658528031607  0.4716768644713208
  0.0740304039113401  0.8280173936876966  0.4379775148905614
  0.7125649294679294  0.0730204968275922  1.0142930307866491
  0.4215311531107540  0.1553356134828618  0.9250373497331456
  0.1912353055360765  0.4137174111493551  0.0249421558510761
  1.0461472799112281  0.7387722186771564  0.4520307193932924
  0.5274612768654523  0.2321433774686118  0.8882028382001143
 -0.0161834387587579  0.1369845077726834  0.4673281843380649
  0.3911814662988886  0.6953471446073588  0.6399155850400202
  0.5484129458558120  0.1649310805029281  0.8468465776575035
  0.2102399124702381  0.9597708652134355  0.5201045451481449
  0.8436461856638634  0.9842174730615389  0.5261595735393237
  0.8432552114311351  0.0712772224158691 -0.0246874489884467
  0.3672738218179122  0.9803660111614547  0.1711097440820449
  0.1435727713534857  0.2360529183618253  0.4370426782541159
  0.7669507655583586  0.9925166489990652  0.2677692364031947
  0.0756575505682402  0.9312485074727339  0.5828694031641446
  0.6692655297067414  0.8601717212764267  0.5380016789016194
  0.2652299519740289  1.0030774552583959  0.5524662647667191
  0.9479907788375116  0.0854659123726136  0.0404506776855357
  0.8749091001601669  0.3006833074557618  0.5200075279202347
  0.7604203519598226  0.9931215772326005  0.9046588922236590
  0.7932757032456709  0.0426378616073788  1.0454612279160800
  0.2649463593578878  0.6033749676185327  0.0225200481595069
  0.5799219467265285  0.8994022618734354  0.5469299651044408
  0.3957779880756305  0.1153518049688773  0.4447318416403054
  0.8920286461823154  0.8865278364458746  0.6228300937754384
  1.0016958854717852  0.3882385705410339  0.5571953353965251
  0.3637405964508090  0.6381679312501016  1.0253583426048676
  0.7431160401912150  0.2796157320033183  0.0718563006159808
  1.0349713509848986  0.2833306027599197  0.5138393334625876
  0.5520158483810239  0.7806645563680874  0.4311918431799405
  0.8826291823713943  0.1715137286554954  0.4768330267542785
  0.0284674027807601  0.8758010956269350  0.5860399410716053
  0.4735202332503781  0.1664541624273254  0.8798352524552930
  0.9426564314463592  0.9475736747405082  0.6274790892733213
  0.4078257854096159  0.5580292366232634  0.7371036948637277
  0.2661732852409198  0.4304765842971857  0.0365399106911523
  0.3952365425981224  0.9727763371311656  0.2862965333023291
  0.5245938334284518  0.0384408156470383  0.9847429318207758
  0.3924853900015317  0.7959186033158633  0.5372034067978068
  0.0999675909334935  0.9883441530726533  0.5107526329465647
  0.9069110680621558  0.3185227481603977  0.9404036099130675
  0.9573884371963355  0.8925311618415896  0.5595503884624188
  0.4464266074659214  0.0267305460407718  0.2691784415694861
  0.1572168469857437  0.2244199622309678  0.5136866000268261
  0.9134079225793469  1.0144743416639943  0.5602231240989124
  0.5197694646191889  0.0824176548378773  0.6716595042958984
  0.8354484807329522  0.9838686818606680  0.9664604521021291
  0.0575557351681563  0.3813857168915784  0.5125454085978017
  0.7209382513103701  0.0617307629824226  0.9782918871753806
  0.9204099258148353  0.2529036221755772  0.4516533982642203
  0.0194150743851485  0.3441063822771387  0.4629660911124787
  1.0149870781501429  0.2830264456744153  0.0492406319207777
 -0.0330176318895220  0.8370829136739165  0.9240620248625091
  0.5995688026590651  0.8539157587830736  0.3869978888471479
  0.1375476562804656  0.8389728700334115  0.5198595757142568
  0.5828474540928950  0.8860368958078333  0.3959076526162255
  1.0112335932564755  0.4144506852232291  0.4347796359076497
  0.1613194369347206  0.1677253478842060  0.4604133119234954
  0.0260406513484223  0.7863061624145814  0.5708453027287540
  0.7073067997081772  0.1554861482268769  0.0516700221419409
  0.4901938877154239  0.7864604706917706  0.5019575310676707
  0.6382265460479062  0.0781494284653222  0.9944062481480929
  0.8183509655194754  0.9451871404566345  0.3190050883952827
  0.3278217273495830 -0.0081386041979116  0.3368376759842521
  0.1170657086491371  0.6816897060823577  0.4853234131417195
  0.5738752023998034  0.7799124087139734  0.9511644483597027
  0.2259764196739832  0.2081486785612454  0.4650255997580141
  0.1553186403195771  0.8425620094529842  0.6043981527449993
  0.2199114353832251  0.9733780667584599  0.1782683774272690
  0.7208171703395742  0.6443221491254405  0.4894343442191816
  0.4949523554138182  0.5957624491024316  0.5107159922639006
  0.3698120387385900  0.2465904944141402  0.5132202099516585
  0.6197199612877893  0.6073123950837948  0.4179366257970746
  0.1567260603084844  0.7581792830026862  0.0495142252734797
  0.6455405925423364  0.5922881010514708  0.6054114244781459
  0.6911158069283615  0.7212220814897098  0.7286973394362869
  0.3249276169621400  0.8836485154922458  0.3555053797180160
  0.6607508433428670  0.2788997809588016  0.8300725524644873
  0.6832832474686359  0.6506526122243199  0.8114510031304710
  0.4933947910417580  0.7707830262758191  0.5509654980419215
  0.6812873694326343  0.6121824375606644  0.4978159771880921
  0.7616145065547337  0.6898941107817416  0.6104759819170065
  0.2220010062944852  0.5770645471537710  0.0083683656393365
  0.6722412819597783  0.6347858729225939  0.6432713883112462
  0.5713054645289870  0.2124341475415157  0.9165553121032503
  0.8241445803213224  0.5767599102007414  0.8703510699361628
  0.6444300503672141  0.3141266716865981  0.1217706139641780
  0.9293273016857637  0.0107487004986884  0.0976985545167012
  0.0247504055869457  0.9203363144671175  0.0350781796177931
  0.4915508709327888  0.0629429800002457  0.6359594543572833
  0.7625232944049429  0.6986856127507959  0.8118081522104438
  0.2949025166971294  0.4395270207972180  0.0750230888271321
  0.7712048968079173  0.2763866213834907  0.8113917282160258
  0.6789828699685763  0.4162360912232431  0.9225571485590414
  0.1187717104089339  0.9464358886229934  0.2661459010487811
  0.2477169202376289  0.5807976979903692  0.0680445794009764
  0.7040039659772108  0.5943550799790209  0.8266862533138882
  0.9209536253098194  0.8403384030374232  0.6203214350927959
  0.8646413198255160  0.8498608735909713  0.5984695984879720
  0.4887378209552895  0.9628557644194095  0.6180738201520116
  0.9349619345805886  0.9038262428325916  0.6037423730572871
  0.7700866330090792  0.2900692758866688  0.9769872529013378
  0.6792080357486201  0.1945485349572563  0.0646475206604702
  0.7858833291951651  0.1979010626476243  0.3296442223748001
  0.4782695586474285  0.0567316248165959  0.9778975532197675
  0.9707830965224055  0.9436489902103701  0.5618499403348934
  0.8306890225172546  0.8405770909503737  0.8668105765451473
  0.8177612740427399 -0.0179076853908212  0.1852907620588442
  0.5265229439761194  0.2183768956228561 -0.0011419211963309
  0.5098124960556958  0.2292760386965167  0.9350241017125245
  0.5277418701689524  0.0811188496826756  0.5305792048854310
  0.5084853694865141  0.1340751780429172  0.5189573484755825
  0.5221398628025582  0.1243016483989451  0.5793833948566613
  0.5727312612112453  0.1629450022480201  0.6501322053772350
  0.1579827960652028  0.8006271857780782  0.0940495795926484
  0.5100972124162028  0.1698473948396154  0.6301548906157848
  0.5612072035637143  0.2077335779560026  0.6947840558860739
  0.8035553875044960  0.7789209282494263  0.9219824341036518
  0.5743818327255561  0.6838640435625570  0.4362189946263075
  0.8449894834207210  0.8877912945146890  0.6431209760742037
  0.8103469837889462  0.9098188938096908  0.5647947555639599
  0.8374798980762224  0.3120828042614876  0.4887902687458228
  0.7443055234451982  0.6430044098804559  0.8328351380691478
  0.6445509416557514  0.5996633790201148  0.8052421429774241
  0.6342327148156549  0.6150017098529484  0.7439484868072959
  0.8982223504072886  0.3070702025387714  0.3930436085964002
  0.6054144445696711  0.5720551278284984  0.7060117653732404
  0.8825914159020805  0.1266349441266428  0.4510560784709506
  0.3591703721927971  0.0874240972997263  0.5331473717110711
  0.6977464647331596  0.3593158127552992  0.9410489725107386
  0.5985018875681424  0.3178062226573167  0.9143275194952925
  0.6295860097576577  0.3496004540438725  0.7513301452106425
  0.8544672144095028  0.9359684712136840  0.5236826271096501
  0.7106315844722044  0.4707027153111497  0.3195280913739043
  0.6457055475684219  0.3793019267903348  0.3295085546087789
  0.4453881865627624  0.1224498159746470  0.8927302007961625
  0.4562139177624208  0.0777338387888297  0.8499550704939269
  0.6925341729954717  0.3176338605688668  0.2547692221584550
  0.3955583415459267  0.0837408546846957  0.8272363486179596
  0.4057989883669711  0.0715341773361521  0.8910207473816709
  0.8374250005118840  0.1816010206283158  0.2954777796599104
  0.2650954260704993  0.8265801611198179  0.2370017340992610
  0.8930068528881902  0.2916074654397613  0.4661401567757887
  0.7722575591280786  0.6858541627045170  0.8723068644762377
  0.8264325682296632  0.4349960447462699  0.4801446351656146
  0.7108824957900801  0.4362916989056295  0.4421007362194497
  0.6155586006039552  0.5288670982563041  0.6624928983895831
  0.9116129434747196  0.9200445389021488  0.5448898651652625
  0.7916641456558864  0.3407292380279592  0.4589476021108633
  0.3884520913371366  0.3011837016082759  0.5077268334464428
  0.5266663074548956  0.1881573139776752  0.8037437927293088
  0.5149772881048027  0.6385219339012786  0.2589702101703052
  0.5194677080790328  0.6694929709233858  0.3642073158017143
  0.4612865781859553  0.1656547135851797  0.6675975779968191
  0.4227212539781911  0.1143502093626120  0.6611948182596594
  0.4112322800696352  0.1269407150769997  0.6010782771289923
  0.4321037545689458  0.9147450991111034  0.4939997463400699
  0.9834195061574927  0.0927844164969316  0.3838811033179940
  0.9892176937308387  0.1403454067691688  0.4190547953808011
  0.5776265610681511  0.6159976221588161  0.5184448408110315
  0.6326203839249223  0.1239030141234703  0.5579741056858900
  0.6580529408617484  0.7633938076139708  0.5475581039114892
  0.4748405885507742  0.7328112586242099  0.5035461229466650
  0.8910658538306824  0.9661207173588557  0.7572470354322167
  0.9628779896433933  0.9421676732670212  0.8413055028009739
  0.9297704457313377  0.9873186628963520  0.6571229461678124
  0.8916361730553832  0.9362497985323441  0.6440660743850916
  0.5995142163657033  0.5541253035844022  0.5361286676914715
  0.4842493585867901  0.5874065928498213  0.6634174116806659
  0.5216801906905472  0.6105142119829456  0.5579055763042368
  0.6167293415256396  0.4983911925462646  0.5591349642505362
  0.5191433796336298  0.2919109434214097  0.5494283551960312
  0.4190332619695769  0.0131463777367861  0.6405930994905532
  0.4436889756933756  0.0579009809846059  0.6789790760212939
  0.4826639906543867  0.2827742477499190  0.0794393570027840
  0.4288506268331245  0.2710497082737905  0.0126422898867446
  0.5573351663918309  0.0864772266110599  0.7673139534028922
  0.4439279850808273  0.3617935046335429  0.0960139206752207
  0.4976898513638701  0.1302394140284351  0.8510250937637028
  0.4958655207563968  0.3457223265551669  0.0576245554716956
  0.3960695287252433  0.3794088520554404  0.0585502310774536
  0.3964904605933242  0.4839049269937761  0.1519943984198822
  0.5904767620206891  0.1667510804600857  0.8788645417600731
  0.6821067859296678  0.0946175352548802  0.9775185060697125
  0.4007643511431501  0.4536616533446146  0.0475374329485215
  0.5257791536703725  0.0250295335856800  0.8276910450642986
  0.5587409884267214  0.9752261768010351  0.8109696602113803
  0.5469502286038145  1.0014724086145586  0.9529528812708163
  0.5271937555996294  0.0601470496109717  0.9373778064901293
  0.5553752960897166  0.1196449144328743  0.8746350716096531
  0.3523176649642201  0.5802520106628617  0.1041013634934433
  0.4050879333361759  0.0196452919245018  0.3008789977064930
  0.5040960299550487  0.5001935410785899  0.1268771178856025
  0.3589695679366484  0.2861958311335265  0.6127872869342254
  0.3951952504877795  0.7399045620826223  0.0221016994169358
  0.0077819959907965  0.8877583572590754  0.4739740440791813
  0.1311878848894509  0.4566597783101545  0.2995078526613474
  0.4181416416982470  0.1934667616580210  0.3170515053329439
  0.3216318787183720  0.2913743076539744  0.3704163996600700
  0.3712239047257243  0.2725380503989863  0.3369527424842974
  0.3244612636563904  0.3400719082860899  0.4166747299576544
  0.4258999159456530  0.2879421494741811  0.4070437426081498
  0.9941595097632941  0.6856368481032478  0.3495990053284415
  0.2341718512527881  0.4415165140785110  0.3941848971222003
  0.1895927354469045  0.5135092208503392  0.4139305183728755
  0.2936373095356894  0.4751409904393581  0.4049335409724887
  0.1340065309232987  0.5016068759014913  0.3425032963910611
  0.3626846461319959  0.1643682496882077  0.3075046974239076
  0.2413942161749778  0.5196325731582343  0.3171585168143253
  0.3009891438769147  0.5786139818653485  0.4312605568487201
  0.2467654104437334  0.5634300926026676  0.3604690589049295
  0.1394834848800766  0.5892998732308046  0.4344309937120743
  0.1462114331540037  0.6566341764096957  0.4128365012438974
  0.0266291806875492  0.7429390205560245  0.4988266497651260
  0.0617038173026077  0.7876373431215630  0.4654226714878333
  0.3139918398537772  0.1959522891831044  0.2832697081604011
  0.0054836595584541  0.8736630444742469  0.5388530737519253
  0.0199318229376403  0.0094825396750557  0.4424971640500763
  0.4546704456505761  0.5252970366520121  0.7192467923512115
  0.9620271656768989  0.0039364639752522  0.5458534876942565
  0.4937024570929750  0.4082730721257520  0.2670880847062001
  0.7420775868035212  0.3233568254353398  0.3917167983211167
  0.0626217586244426  0.8931888747349257  0.5472439093707532
  0.9167805895751560  0.9697220016808475  0.5882368626928879
  0.9760079195864891  0.9871171050866899  0.6119903936151548
  0.8060314398621646  0.7585485575950022  0.4852556535589653
  0.4712523825710070  0.1194215901600535  0.6182745973185773
  0.4808909725894702  0.1094380947339824  0.6842022128992248
  0.5351560370512519  0.1160140590418958  0.6387932807462129
  0.5960025222685279  0.1357344491916032  0.7693940667050133
  0.5749645229749898  0.1884674440293608  0.0324579328425443
  0.6947278306702268  0.0452361239856950  0.9358234115721242
  0.5871008320298714  0.1784403554136842  0.8150977157686750
  0.5748113033715549  0.1778512695756372  0.0912402417897122
  0.7086322676223491  0.3138036720457921  0.8977030696744556
  0.6777618492515749  0.2524615751336898  0.9544428146774722
  0.4811781827519410  0.2405759956089559  0.5510489740870554
  0.2584567142116966  0.7355351082698587  0.1442968073886024
  0.2103645249503905  0.8121962462135975  0.1665514586777096
  0.2078539189418319  0.1611157759436485  0.4418731047787560
  0.5981702797275043  0.4507589928868468  0.7792880162634787
  0.6079012912431985  0.4372957597240743  0.8397362719087130
  0.5379549946625165  0.6683380336380912  0.5411356722717537
  0.5051581434491118  0.5317713890523882  0.2312214129238020
  0.7830385953949605  0.6854100600224073  0.0495229225983227
  0.5303860820237652  0.5612290285616724  0.5136464739944365
  0.8208197799496783  0.7929363774738630  0.5925465315295728
  0.4813145359372358  0.8318854946724406  0.4752500551569711
  0.7465855431187024  0.8468114902909568  0.6140849729361653
  0.3703789361156525  0.7753417941792902  0.4512043881658006
  0.7975949215775856  0.8816067424985022  0.6828761577318905
  0.2848802981312801  0.9938355256490817  0.4868264327060814
  0.8613949884619641  0.9035326231979736  0.8114162229861783
  0.3845770211972894  0.9621021820796107  0.4092197321043795
  0.9667410378655633  0.9728271523108073  0.9476335867600875
  0.9190475441207391  0.0171685937128973  0.3365680676002167
  0.0505691244100238  0.8355877095374313  0.8365893925220772
  0.9404102560153481  0.1683291298133201  0.3954141707045212
  0.8791107310414837  0.0915738388174873  0.3444888503419706
  0.6431086897273838  0.7057637894303480  0.5653466609972764
  0.8874670786324508  0.1519499768441879  0.3247189086460526
  0.8382675726065965  0.2164136977304210  0.4004961448500954
  0.7124027709781836  0.6839556789343580  0.6491867400252449
  0.7399761854998053  0.7270640313382903  0.6877294225041763
  0.7300321326483266  0.7698144749450618  0.7339306437170134
  0.7695436516178561  0.8188472819276299  0.7389999393290971
  0.4186185074020628  0.2481677465497163  0.5274779112348306
  0.7792554202561572  0.7761625779707392  0.6940202930437173
  0.5363350977561513  0.1685408695014986  0.9442033962197786
  0.0391152716427096  0.6101578652668534  0.3324705401922647
  0.5446836178062164  0.0071467541831986  0.3904115027454412
  0.7152027504797644  0.9537180877313757  0.0331797241112526
  0.5357215593868121  0.9171826214553872  0.5290796959851531
  0.5875126447870809  0.8561760462733315  0.4428181084998651
  0.0447856760828348  0.1348823617681929  0.3264454577570921
  0.3819237063699999  0.3229848792860601  0.9515844525673939
  0.1378661735562915  0.0235219135634616  0.6557459046243592
  0.1643079333224453  0.0681773958340461  0.6970318204041432
  0.5702530646670765  0.7352544644021356  0.6889301158530672
  0.2150711292355587  0.1042234548048209  0.7617558579809514
  0.1554035920588084  0.1111544731945275  0.7409618736744921
  0.8434996278044349  0.2775158271585533  0.3834865706484816
  0.2161988264609200  0.1337456936511867  0.8696302937607635
  0.2868759964498955  0.1142547179173612  0.9508465674194987
  0.2671612123474023  0.1687687208632970  0.9378734215430686
  0.4059576154778887  0.2664088320215472  0.9629392217553796
  0.1856666990427193  0.0407292635158691  0.8232362597954306
  0.4386192666372470  0.4156822874977268  0.7316235292059616
  0.6408940234634465  0.7146365016211258  0.7688112345420066
  0.7191893606132640  0.7228345968506442  0.9600293993033835
  0.5203118981161988  0.6846598251679267  0.3026911684788659
  0.6622317733733661  0.6902439819159666  0.8913105575280333
  0.3028127833874521  0.1907924233175680  0.8319729310657216
  0.2124397230830156  0.8508552674237916  0.0480843724456867
  0.5841460483292507  0.8068961959978852  0.4013110808865256
  0.5856837230868774  0.7922928479000357  0.4648703947038583
  0.2061685299532704  0.1174102319700257  0.6997210896048950
  0.5689278668610716  0.3882734531883991  0.8359508662169848
  0.1813147168742960  0.9881980396186949  0.2106278604983680
  0.2255762738157923  0.9404468870368793  0.1386698104243632
  0.2910840635129882  0.1421579863033967  0.5582357364378224
  0.7621305238580225  0.0618230233922654  1.0130659578971455
  0.3411538041273383  0.1788979699609803  0.6254516683673514
  0.3311133258335312  0.2220211358456628  0.6692614095944905
  0.4025791473208647  0.2038352939948853  0.7517282377325198
  0.3326810108956224  0.2543652105093113  0.7752872612749349
  0.6652640836887513  0.2955937796012796 -0.0006990203017854
  0.4799636273093151  0.3346405562942774  0.8706569434733952
  0.5543108725844910  0.4359692733181256  0.0471988897811959
  0.5292422258028922  0.3724175118455899  0.9378441526308354
  0.5028512051049593  0.4522225912859413  0.0823804801912535
  0.1769635631630212 -0.0033182186476330  0.4431306661773252
  0.2484646345708127  0.0228431126475890  0.6397306775089634
  0.4314131743523372  0.2966938875976343  0.8030709645290223
  0.4088996917780174  0.3236700328003133  0.6793111054583084
  0.2584376996717452  0.7529581958317823  0.0884517243041781
  0.9969018186693702  0.1989669002878090  0.4021907466008088
  0.6172640189020310  0.4236907482797206  0.8995445148884509
  0.2443525789225558  0.1979888810807690  0.8110843515488863
  0.5377379460881309  0.4267112400059995  0.6524931519432079
  0.5212883409040813  0.1807067601231388  0.8859716120757852
  0.6683878468211030  0.0815721653080512  0.0369055354748571
  0.6583416382518620  0.4133550784419519  0.6963386325317913
  0.6967187278788058  0.4628425036919056  0.7007486846975006
  0.4556443397119981  0.5624251867494892  0.2055639195947044
  0.6476664553692409  0.4561544201798280  0.7397208306491199
  0.4079097012802311  0.6089307774005107  0.3448424602619835
  0.6978793227216065  0.4918008925947786  0.8059947061520679
  0.7373913158208030  0.5419798979943181  0.8104744320745780
  0.4084445501947060  0.6229480933550809  0.2831587676692406
  0.7737474445577925  0.5711049068132953  0.9092304526210258
  0.0790333718821746  0.9335313219888167  0.1085124569115916
  0.8342231897247014  0.5548181406797792  0.9938261859290340
  0.8726001146639657  0.6119573039628191  0.9393007497710203
  0.8709261761032450  0.7253183776612462  0.8997197281736466
  0.1560372799269626  0.7817850055709057  0.1544322439249392
  0.2109504203667584  0.7946513422342044  0.2251757565631186
  0.8540637604082517  0.6398726187565761  0.8154476225356707
  0.1086818503601447  0.8578157676422149  0.1748661384848318
  0.8253866932288522  0.7504858274304593  0.5492785522497713
  0.7626740452520999  0.7622028588359288  0.5242912743041803
  0.1633819182386230  0.8874876153422631  0.1857451832567250
  0.4541347813562344  0.5479274484688247  0.2661648909732767
  0.8722303189195587 -0.0506653271020223  0.9751547238687682
  0.4138939463895310  0.6865976900005412  0.2647408342312619
  1.0310202128177923 -0.0053987826772827  0.1908643165942037
  0.8699160112869346  0.8316538348546912  0.6596481819135908
  0.7091612017325143  0.6577956121759890  0.5377117897103008
  0.5799837269248500  0.2391388867668183  0.0724924441673677
  0.4922017312824725  0.3763833147520353  0.1620412949732861
  0.9019941525353795  0.7885182132076486  0.8422815908012916
  0.9306596603170982  0.8509761517864259  0.7891402338583744
  0.4448116551893762  0.4072926401071563  0.1357456204182936
 -0.0283054817928265  0.7866602983567486  0.9260274075864113
  0.9301648857215994  0.7572563908970934  0.9637609758360037
  0.9356803392456419  0.8742205808012515  0.9040799412895106
  0.6085723978654883  0.5167757349806706  0.4948500593935116
  0.4518538712124930  0.5147263148821951  0.1603372040302353
  0.7554321832132970  0.5913188493328846  0.5868131753420762
  0.3510268387810528  0.5637352991926138  0.1674104888132366
  0.3541563155659147  0.6107289251173660  0.2105020719106704
  0.8437690257711009  0.6537168528637202  0.7541152502311427
  0.3600342364872995  0.6721429837200149  0.1952530587184595
  0.2579748886321023  0.7182899597462722  0.2051215150689392
  0.7919821755299380  0.7922126471798837  0.8625438063887308
  0.8678314918473097  0.3519571844156700  0.9486555883616804
  0.8405948696746808  0.7677413933673790  0.7162591463298369
  0.7452367224959664  0.6070477123293596  0.5220941675883034
  0.8336617670665170  0.1350280651768100  0.2533377549659667
  0.5091264699146114  0.3966639821656843  0.8141990565924968
  0.4850768207720682  0.8298785482563771  0.5347000207132407
  0.5625323888637154  0.6369304564101768  0.6626116193712742
  0.2171312543595342  0.8836266367982774  0.3220163063853428
  0.5591753678404912  0.3716662149825262  0.6659967638702624
  0.6685057134765026  0.3980198441568185  0.7561108962096903
  0.2689053807260072  0.8530220964011197  0.3442382312340279
  0.5096235203767063  0.3348750067029190  0.5965772309315065
  0.6294831274659746  0.3184823695568282  0.6443591565335830
  0.3166107386704624  0.7947337888609377  0.2605195838587684
  0.3679289443794048  0.7635173327534335  0.2860309693100987
  0.5128644874458541  0.2022661636037615  0.7356997472113281
  0.4170767896773784  0.7143345846607998  0.3716551851708105
  0.0505464768911503  0.7536976330742541  0.0116807308514517
  0.6451248896222604  0.3469679193376069  0.2262406033768254
  0.5565815666008177  0.4831717358175602  0.0910918743454290
  0.9504873232862268  0.3904703925595046  0.5201337614752761
  0.9919064886579061  0.4290448890071317  0.4816712890771165
  0.8188747933627071  0.5510236657797365  0.5052217969740533
  0.6783888998926797  0.9281843783572198  0.7454747872953088
  0.6688028042721358  0.9712896922763472  0.7893353930720673
  0.7494739224231086  0.8761116559442412  0.7221863279957194
  0.5572643667614532  0.4988991967558397  0.0324093531940785
  0.5626900601355147  0.5771014330530649  0.4097427233581045
  0.2684444366279320  0.8628636693514082  0.1134086930081311
  0.7077914872677078  0.4784753479777732  0.8668275021033471
  0.7195512923577890  0.0422491213390294  0.1278231002472386
  0.7169819573799341  0.4639609512130286  0.9262489638460490
  0.5100257071142927  0.2353473650185953  0.8395719882634345
  0.5680659749743308  0.2207579524436671  0.8564735511418645
  0.4841961312380177  0.1390173058580274  0.7909216940698800
  0.4459122916799472  0.0893099787233615  0.7874642284178335
  0.3949494040345539  0.0519449627016712  0.7197042917907480
  0.8788806557765401  0.0581485163261778  0.2385889555899922
  0.2788534526820208  0.9473417146810714  0.4379682564134604
  0.2192191916451185  0.8702987114656554  0.3830443789107782
  0.5465389251653939  0.3232543327223319  1.0156698728199651
  0.8613329055338209  0.9985779695931650  0.5702174774439923
  0.8028430312641627  0.9672700007303194  0.5533985924261632
  0.3716155109087436  0.7916769161686243  0.3921669299374796
  0.6795460492149785  0.3849034295073358  0.8173499461753801
  0.5617312487282892  0.2392507539180757  0.7986342355178441
  0.7381949923518486  0.2415247367448264  0.2400961987601265
  0.4796372977735641  0.2717364182209672  0.6557404438227443
  0.4285898394238115  0.2347954513569075  0.5876577271264961
  0.7308191803794785  0.1467578340404266  0.1523227665617530
  0.4494738744940824  0.1765585116811731  0.6062005570948198
  0.3828072357056472  0.1943009109628751  0.5173438902484174
  0.4112073440811794  0.1710295931633436  0.9711830171872259
  0.3289833703365721  0.9421777925141868  0.3403018404867104
  0.4389289839000770  0.7863079923582985  0.5192799946654397
  0.6804307507493899  0.7642094814037811  0.7748647700735217
  0.4587918798849585  0.3605954999949693  0.7464425185004335
  0.8978430406089087  0.2737062698249993  0.2868568178879627
  0.7972334324749601  0.3194758681082874  0.2923839226424723
  0.2012870607689967  0.0851545998869786 -0.0075484766120800
  0.2464609274796275  0.0639538539690481  0.9525682067695251
  0.7643880282323779  0.5648853211539631  0.4833572832887848
  0.7254373519310118  0.6055714338203003  0.4571462904018139
  0.5896727292789663  0.8998841038995493  0.4963838394952679
  0.6191115844049192  0.9362526575629785  0.7250196723517588
  0.6445946611985264  0.9801764877352345  0.5507192680952658
  0.6324478919216802  0.7146461526736189  0.5084256539177959
  0.6891026581077433  0.7403696468252197  0.4592970921638737
  0.5395735986479008  0.8010451021699622  0.5123991945687996
  0.5603898274467126  0.9117568969350037  0.5916602631895935
  0.4889935578310339  0.9619263949386699  0.4417945625597878
  0.4504448921024166  0.4339629000029711  0.9558722219698472
  0.1270753623409979  0.0358215443350780  0.5944400148328619
  0.0691087658234305  0.0274693671073946  0.5170313350473652
  0.1825279822570264  0.1725886651124302  0.6830839814275025
  0.3073014258673974  0.1504803509800287  0.0097410153116540
  0.3169032317819248  0.8251073475076008  0.0395084793829573
  0.5401047406853791  0.8073758134693138  0.6118686234352482
  0.4895713055454308  0.5320663407988613  0.9498741983775985
  0.0627563876635104  0.9326273273604565  0.1949124380167767
  0.1680663962704905  0.9309705567873819  0.2317125706424471
  0.7761991939641770  0.5339508794469492  0.6068646465978014
  0.3743477254436864  0.7971090147878397  0.0091464938423681
  0.5290122568808239  0.8505918921526223  0.6549380880821871
  0.8196246217968951  0.5160063099868516  0.4018940320553732
  0.2224437264000812  0.2238786704542786  0.6879746934248601
  0.2350215886747283  0.0777750504483806  0.8891285184039175
  0.9696545144091109  0.4398461311055240  0.4215390822971509