C  Cr Ni
 1.0000000000000000
    38.7782925608872873    0.0000000000000000    0.0000000000000000
     0.0000000000000000   38.7782925608872873    0.0000000000000000
     0.0000000000000000    0.0000000000000000   38.7782925608872873
 C   Cr  Ni 
 106 1596 3725
Direct
  0.5123051599879057  0.6312500932386401  0.5278930332303570
  0.4826539242512553  0.7167690930461473  0.9862185669462347
  0.9908028524525668  0.3408036956832803  0.2025445522278214
  1.0510299488371155  0.2128165173330273  0.5316947704356809
  0.9058061000502586  0.3103093818637853  0.9395561965805851
  0.0984590687985655  0.9882448841950764  0.5119407205557575
  0.0629282207205822  0.3826339774045260  0.5174339159355931
  0.5266512629150654  0.0379332259645912  0.9865796744554984
  0.3948834829984224  0.9739362624509708  0.2856732761177738
  0.2656008143963909  0.4279693726107558  0.0358073278823594
  0.3914778829439685  0.6961815413376155  0.6353514933675631
  0.9437911112505550  0.9452512648899479  0.6224175939168906
  0.4745205033509108  0.1656119131171839  0.8797754070396588
  1.0287370665640239  0.8763921199043121  0.5835471376580011
  0.8833842761522258  0.1722953116175291  0.4770881379342639
  0.5546445756656709  0.7824875057524411  0.4298546129488048
  1.0354469819637762  0.2838031895958602  0.5143739189155593
  0.6186253096560718  0.3054754327741152  0.0780300676065745
  0.3630053913024727  0.6344385911300569  1.0242777473905076
  1.0009360847290190  0.3865261958565355  0.5555455683437863
  0.8675604726398567  0.8972528908026742  0.5818502710820328
  0.3944209381855244  0.1162622760471543  0.4458533690268001
  0.5792592589251296  0.9013059216491601  0.5467902545683808
  0.2647981375687344  0.6031623874941414  0.0230426920830482
  0.9155790999060270  1.0167129194725155  0.5593743726704575
  0.4221887244674427  0.1535445541141070  0.9248122964970943
  0.4385651671231349  0.5524868156040476  0.9298817816409477
  0.2336158480084575  0.4861422312955315  0.4992263208689834
  0.4892470142503359  0.7868375987326289  0.5024211420794166
  0.0722807237146632  0.8275451233149841  0.4366965879537775
  0.1950376535710753  0.6249484245879368  0.0033273147200317
 -0.0390682686074366  0.8318108294325413  0.5828436339278694
  1.0044776105860640  0.8379336472495500  0.4980083893476367
  0.8364625170468853  0.9823590436901114  0.9706311049777179
  0.4467185056961594  0.0276347262915319  0.2687272977671351
  0.7834040225352835  0.0189002748428490  0.8848940694704440
  0.7984202421845331  0.9910091703589994  0.9041939224028929
  0.8174669219454402  0.9429386907986176  0.3192680358036075
  0.3701072082683834  0.2466089272519829  0.5130355510579016
  0.5090852111019750  0.8640453219890427  0.4489873779601536
  0.1372906811609106  0.8364811213491117  0.5224048993498355
  0.2439916034724921  0.3517607043620954  0.4160914372776471
 -0.0298641532261127  0.8321631452730678  0.9241586237357364
  1.0172607387276371  0.2795932995214853  0.0520522903524360
  0.1470402916163104  0.2905565243038706  0.4880654048007809
  0.7769285462924893  0.9252301841915272  0.4067684469681523
  0.0287817104241075  0.7863293908738482  0.5703763022637175
  0.2693061071960059  0.9240463181109562  0.5673738664203414
  1.0207823141804377  0.4130328654030214  0.4356127665435066
  0.9218628629679969  0.2537499880521893  0.4515984385097241
  0.4664316111715217  0.7769804300837916  0.4716340451860956
  0.2825486805360255  0.1256199933178939  0.2708388958067666
  0.8552738946060594  0.0795326939981210  0.0757821830357279
  0.7830625806433478  0.0607110231143643  1.0029270486221626
  0.3267882736553417 -0.0075245466874465  0.3363085918541418
  0.1726320477203548  0.6160197814895728  0.4090876402070879
  0.7575833899242963  0.9630548686464198  0.0621635950688217
 -0.0440293337833717  0.3833888354041966  0.4200318488365467
  0.1942229671205655  0.8841017262456358  0.5194668551918535
  0.5471082380547745  0.5654092185401912  0.5300290233767668
  0.7575426925733130 -0.0261080378955043  0.0261492252332618
  0.3235743571010154  1.0249950334246554  0.2569086423764131
  0.4544975846469119  0.0991852136698764  0.4008659466738567
  0.8819287643161297  0.2391661876324845  0.8899017234093862
  0.1705770545028686  0.9380562161428569  0.5864031895327927
  0.3578432942387064  0.3968758197973731  0.5004642947418363
  0.7888433016474877  1.0169855121320210  0.5662868275257269
  0.0732671343112661  0.7646048820260145  0.5135745499473860
  0.7406659245077781  0.9210379272714964  0.2952467562263362
  0.2740625230165123  1.0437600026097200  0.1181211924167519
 -0.0039777401608669  0.9640425701676270  0.5614215029133049
  0.9341083748173471  0.3572137109030403  0.2395991638041347
  0.4365975000455338  0.7610238368502158  0.0483414994952705
  0.2713584409003530  0.9307533797811233  0.4841271090069441
  0.5763546401414045  0.2401816954338608  0.0190669226453164
  0.2243645814724693  0.2103904815817274  0.4642532733292585
  0.6875790449376343  0.0455082952986751  1.0003739079065557
  0.5192772735700750  0.0807178849277881  0.6724504007036480
  0.3731538799291165  0.1422086425483685  0.9879786245015002
  0.7213934772492127  0.6435373835509212  0.4892446315669259
  0.9822640948804794  0.8281801601201398  0.4004739045725903
  0.1839404066116549  0.3312797470734224  0.0319103982721587
  0.4407624894953329  0.1228554732499043  0.2017389071446114
  0.6682164332259247  0.8620694300226880  0.5391662179778756
  0.5498542442249447  0.1631863959699945  0.8473896274553226
  0.4044787293319908  0.6961089244136536  0.7116945738167716
 -0.0127845173537084  0.1405825629937212  0.4697334302929357
  1.0736377906087546  0.9356240858658003  0.5976107320646743
  0.7673161129558922  0.9926950912568110  0.2698913969380040
  0.1440921529466945  0.2338166669468457  0.4356307479188470
  0.3664387636982716  0.9808260087284463  0.1721892819034492
  0.8459647841500735  0.0605276332581358 -0.0416091694031084
  0.8448347284381398  0.9847678433190573  0.5265316183739494
  0.1118166802781097  0.9201762470210008  0.5372844441053323
  0.1194860795943623  0.3004615495844001  0.0178666835698088
  0.5289780888065221  0.2305236644216341  0.8875010152397315
  0.5662535064162338  1.0183592051471464  0.3457315708026086
  0.6289176281494949  0.8999530730721785  0.4565425895897853
  0.5251296859567250  0.8128495690824522  0.5628956691034545
  0.4974279498100879  0.1910650448204838  0.9667202948693712
  0.2184145449344631  0.9750684533926648  0.1770052777108422
  0.8094478672197196  0.6931840902943002  0.0865689815067875
  0.2799401038880716  0.8533565992423472  0.4930539177881358
  0.8758337996306708  0.3010016119593569  0.5195932166829269
  0.5739349092787800  0.7791881056599789  0.9507237866299898
  1.0468214271805907  0.7384852733113787  0.4511345761225907
  0.2817471640383742  0.6557836623371198  0.8880112110637446
  0.7864762991486972  0.7144071589738580  0.3839932518051354
  0.0661715818983172  0.5037481898817225  0.6536479987753667
  0.6404915115800678  0.8989909977749944  0.1656866429082370
  0.3401508341169487  0.9756975810862809  0.8484548962639825
  0.7939732425487120  0.8219257085146774  0.4127371642124090
  0.6338580837185156  0.8542918010014163  0.1218301360251536
  0.3498542261259119  0.9637897803115667  0.9104690086347846
  0.1174682590247814  0.5109709847485508  0.6121718866379445
  0.6837288292096757  0.8381087678119586  0.0863185687204101
  0.0782048576654594  0.4586485942068961  0.6079882384123733
  0.9987006561239842  0.3581995277429962  0.5958196988729760
  0.0310705664750326  0.4210371108867750  0.5339509836180487
  0.8761819696539448  0.2930116065494334  0.9762103734502154
  0.6845310135176247  0.8067400279847633  0.2109934264044956
  0.1085567650825088  0.7930159781803838  0.4191769075131826
  0.7581329302052013  0.3999267692430770  0.0106011661455094
  0.1601468497452073  0.4252452942654144  0.7501793367811829
  0.0929275080946784  0.2826381443105074  0.6917000344890812
  0.1827697035925903  0.8426676968740273  0.5439813898436842
  0.3794926551273930  1.0079685858542140  0.9492177618380927
  0.8833641704843886  0.6396445353840929  0.2704659890194697
  0.3336831081651676  0.8871603613819948  0.0316523821625879
  0.1529178747425151  0.5320750601959144  0.5098307354584037
  0.2542486980925100  0.8217692655133497  1.0143010229484342
  0.3179838595841702  0.4608557842586740  0.7966081376221215
  0.6013345995360186  0.6942384860620295  0.8740576807546775
  0.6526573555076398  0.0088894550203950  0.4236471682763149
  0.7881520205436028  0.7780552573817646  0.1405157849195457
  0.7820164494922186  0.6849112507426923  0.2791175892830334
  0.8422502039060232  0.7931544978159605  0.2117485478342730
  0.2513702112993308  0.7566312996070380  0.9182584480858422
  0.4411127018006917  0.8837878753571196  0.0705876321182658
  0.2982527785345107  0.7009906481762279  0.6661867879048968
  0.9149403919604789  0.4278902783121715  0.3476954771862498
  0.3307800297768642  0.7625978687841287  0.6099613748038645
  0.2979011993090516  0.5186592687104152  0.7831264643392390
  0.4099608198957173  0.8006646408315050  0.0627142498505706
  0.5591458757921616  0.7914724959489410  0.0014689129563833
  0.5173313584743024  0.6871756724933673  0.0733718454459223
  0.6220252054579259  0.6554742420006813  0.0030992647217589
  0.1376633862606522  0.4527237549755425  0.6267268097231249
  0.9768493652319628  0.4673028250448885  0.0704166924709995
  0.0462310093596614  0.5634038480077449  0.6357490890916249
  0.9223200227791121  0.4873418904788029  0.3319433678614820
  0.8059120013072314  0.9809827559973642  0.4896123410382570
  0.2190959866658911  0.7668880190214260  0.6268177175943208
  0.4161470899319905  0.1771525733730984  0.3800610780087377
  0.7885046522412985  0.7017359200625394  0.4454742604260382
  0.6013294850205607  0.8584514871155183  0.8436693029090254
  0.6839623770870218  0.0274451966075626  0.7670678463434843
  0.9379148740103002  0.2790171791892584 -0.0253862007430946
  0.9332202495290937  0.1780487129601646  0.9322089185671034
  0.6177663306983501  0.0355052773115606  0.0851061195331948
  0.8010640024463370  0.0866018587769906 -0.0367847504234400
  0.0123713761219639  0.9308753151532639  0.2917549184229404
  0.7850447424500238  0.0688052286359187  0.7928331691755672
  0.1073811447704544  0.8421635535604783  0.2355598871500363
  0.6481657789576434  0.9978734314930232  0.6648521995852213
  0.7857798773592691  0.0395185086368717  0.6848255437118440
  0.7035764960930105  0.9575341962736243  0.5781237911689409
  0.1006181767321909  0.7345848589097007  0.2042222894481598
  0.2028503514790127  0.6882743983019832  0.1941920627922777
  0.9892171029129655  0.1861403288604564  0.9518867365253120
  0.6927477248039168  0.9136193280970680  0.4719422675622424
  0.5354178546869831  0.9370181059419207  0.9739675149717510
  0.2382740556162330  0.6355812307320075  0.5081751252745119
  0.8702715792772819  0.5011251754742327  0.3660300294810427
  0.8739466865340034  0.5468399687356160  0.4097752503539607
  0.8047973708477631  0.9327121348822667  0.4467596174489368
  0.1154506916711388  0.5412744532267294  0.7186420579539027
  0.1061424052472348  0.5554233845879208  0.6548478588651624
  0.6847504562717320  0.6797866726605378  0.4762376810326442
  0.3737856901868448  0.6768879451838842  0.7478827292212059
  0.3637854024602517  0.6911962051599708  0.6831955932612551
  0.0636673910585980  0.6205719694506373  0.6137490357420998
  0.8250096658320561  0.5771791173483998  0.3818682419976691
  0.9312944208574399  0.5791803628611181  0.1906636219966276
  0.9904868577874233  0.6737785453207350  0.1835688911750871
  0.4115343053159448  0.7260033468179955  0.7546916386092619
  0.2062142534761761  0.5666301211213451  0.5783341882264391
  0.7828389806906337  0.7432501991001156  0.0326897516579243
  0.9810249292300445  0.5346042116898572  0.5092699631559434
  0.5480970428940790  0.9854241206619696  0.7468500268634815
  0.0770622478591084  0.5217551434003553  0.8199578596562266
  0.1294181359010144  0.7421231518382782  0.7652232976793120
  0.4896075033378178  0.9921656207517096  0.7266958988588909
  0.5166137966401733  0.4858816369989562  0.6360345236165559
  0.2409332239696603  0.7702453046819869  0.8559270249628242
  0.8350042344595563  0.6850137772625601  0.4104565402372767
  0.6008014038174707  0.8873017883198718  0.9476535738742290
  0.3652642758446370  0.9541828511954454  0.9667909890348217
  0.4614736297869863  0.7658804637441398  0.8170298420017044
  0.3900455483197500  0.7511338120099418  0.6318763996253260
  0.4224242103598432  0.7128209792612522  0.8162997051677245
  0.6549595444173514  0.9874228995768561  0.2537700681039297
  0.8387115730678839  0.7010852693277583  0.1245956137409354
  0.4797514849979336  0.8727531433960930  0.8027630801985592
  0.1347718649205222  0.0349974042651780  0.8662652455471365
  0.0234056370819366  0.0568463813295325  0.4879408090676805
  0.0296777508792993  0.7971933859882365  0.5202609194351813
  1.0266404716667348  0.9279618415364131  0.5865642083432918
 -0.0007242724843478  0.7724882728352096  0.6579571366977599
  0.3388684386525745  0.3099484271338638  0.9970485017640753
  0.2234845386997271  0.3153185861612712 -0.0001530839536639
  0.0911522340741613  0.8269855875028128  0.6280454492968205
  0.3340247746977548  0.2834095384584295  0.8832934039000575
  0.2352369138352987  0.2405173482428045  0.8546491533725485
  0.8545281724214482  0.2122126106726481  0.8509645112399670
  0.3812300720878496  0.9514868137997738  0.2403576190656500
  0.1242121642006180  0.2126037727172471  0.7689534223078669
  0.2237449456369797  0.2543950266144420  0.7949842121470506
  0.9523084444135891  0.8047743030414175  0.4311662085316198
  0.4816313829828969  0.9029383012292502  0.2286463487194595
  0.0070362045878516  0.2864727596089435  0.2602138390283307
  0.9023635699167465  0.3319526854562864  0.2668856381721745
  0.9054506798076590  0.8843352239395889  0.4397577342268537
  0.9587801933552110  0.8699502396873665  0.4113412664109934
  0.0681500993341764  0.0861864024780508  0.8863834273667287
  0.7462450399711827  0.7770977989986012  0.4646793536695387
  0.4889605470071460  0.9791574864481821  0.3810096645888486
  0.0940917073787634  0.5777803733616129  0.7977988773081715
  0.7213437604680162  0.5937388629330592  0.2869679990161277
  0.7258734699452087  0.6378967319271142  0.3307476798816283
  0.8269869289764890  0.5932194947138730  0.3217591736701654
  0.7763231333044961  0.6069013924653200  0.3584075537466305
  0.5092676294529946  0.9376211396204213  0.7445597903140349
  0.9852999554627029  0.5949394524953855  0.2610724710995669
  0.8727298947168189  0.5161639839014568  0.3037540794062966
  0.1568346411962392  0.7027949883224557  0.9497110607449686
  0.2234235806007548  0.6999147521450939  0.9762761698304074
  0.5069998059325993  0.9067372424174595  0.6362640986781097
  0.8617958304127821  0.4078754763434004  0.2768429459330864
  0.9111674378132451  0.3991426597537767  0.2443145294442178
  0.8927312210873706  0.7468230565018964  0.2989180654680368
  0.9588686023684305  0.3152321168676372  0.2324118269177101
  0.1454483317560522  0.1540105364289272  0.7852579317836565
  0.5333115733420117  0.8695947075383795  0.2534693828978925
  0.1458757298053160  0.1239028483354281  0.6788582006291964
  0.9532911802837203  0.2710042953197078  0.1912566488552183
  0.7183224732985989  0.0042098384215227  0.0030332235452458
  0.5696005491347339  0.9601480219036325  0.8722837973366636
  0.7305176192605235  0.6835210129161393  0.3769334160199959
  0.4226243902834694  0.9488784246891179 -0.0040749740982134
  0.3877515295048608  0.6648069535966374  0.8075799755993827
  0.0573773462280798  0.7463998697110604  0.5611574499767293
  0.6030376444069597  0.4387364938122260  0.4053368615156069
  0.9334737878513222  0.5951963237402939  0.1313164588757212
  0.7864187888952870  0.4897559525244553  0.5629725101336770
  0.8843097054251862  0.6252212532260395  0.1049072768412882
  0.1788250515042939  0.7466197289472447  0.7271661622999224
  0.8289202988294210  0.6202120632048853  0.4254439282878440
  0.3231937550143448  0.7052719898716096  0.8944136016601599
  0.2926738307782555  0.6306819725437556  0.7485920310243064
  0.9243290951937271  0.5626995440550270  0.4821609859477068
  0.1235049812582686  0.6419951827305463  0.7421115204297701
  0.7783109167918451  0.6683097825241364  0.1145259594355782
  0.2432141446020331  0.5948779607214095  0.6802487793942643
  0.1820643575168447  0.9775657745047542  0.5093418699029125
  0.7249020964854852  0.7849817192401126 -0.0000716351881812
  0.1062490175849851  0.1060331566003553  0.7829834624983615
  0.8533770388982834  0.3177091649028587  0.1955392104776902
  0.8395178904719942  0.7170739652254812  0.0558041042938503
  0.0746291842374710  0.1759208511054756  0.7026666524045115
  0.1387275664003934  0.8616586196591303  0.6924921089692855
  0.9444382945510736  0.1612919840656767  0.1665859883630466
  0.9478589594620315  0.2087773246136132  0.2101627822439712
  0.7912000973826713  0.8075991732897652  0.2458249855472443
  0.4894602203759073  0.8302220811905640  0.7584004671328938
  0.4300927068344790  0.8362012906399841  0.7380579834032546
  0.2836315178962208  0.8552513104318278 -0.0229836442293735
  0.5409997180638364  0.8661088529046425  0.8235965436580055
  0.6860811912764903  0.4457808199491582  0.5328987308857235
  0.6189485904044153  0.3394452566469443  0.5182005774354066
  0.9798344804720167  0.7241229758557534  0.8817510565243030
  0.9399867640530989  0.6727934912444473  0.8766398363653263
  0.4682890446117494  0.6718530836305833  0.4563159283103134
  0.5121921260396851  0.5946356785325739  0.4433989483584072
  0.5077258960176207  0.5473987038344867  0.3972959906392496
  0.5091175313257096  0.5336569699238062  0.4561734257625205
  0.8536116845941017  0.6104864504237131  0.7092694776846770
  0.9096920147523346  0.9459357616072458  0.4212352699414314
  0.3726016473829667  0.7095662536051439  0.8549642420127749
  0.1963563388428028  0.9808682977494951  0.5666982500430902
  0.1856432706056151  0.2351414945994002  0.8951272567622408
  0.8195112507863027  0.5004339375173351  0.2333486316219975
  0.8637708316560815  0.4246279323269690  0.2138829805491860
  0.1236889549377008  0.9474123200715585  0.4978798310065949
  0.9073083876061334  0.3486001603951873  0.1990716886402233
  0.0954148622901994  0.1491582832992601  0.8257194910764841
  0.1668196320065699  0.9244609946186512  0.5375312654187967
  0.8549950467107196  0.3625302584191454  0.2361079451234369
  0.9572271583363335  0.8443226034728878  0.4782396275302516
  0.8830670252762920  0.2741687696969557  0.7901718950210213
  0.8484882527733436  0.9843573960540382  0.9172017645769884
  0.2963260033958051  0.5648958156453183  0.0350197296264405
  0.7666019010359669  0.5757771342778333  0.6484218007683402
  0.8687346016946007  0.9676453572812213  0.1497877657501321
  0.2648786239137179  0.7935545769290420  0.3585861845064869
  0.6316937877425274  0.2602916275047836  0.3705259425318003
  0.9199554648130807  0.7025648444075263  0.7528549585808767
  0.6792410028573470  0.1847889395414809  0.3537103861566398
  0.8829177115941983  0.6741771657084562  0.6533544567931598
  0.9439875763201286  0.6661446775378498  0.6748227813995756
  0.8204280751350101  0.0627048940839917  0.3372464216591080
  0.6968869912736271  0.4308495329455287  0.5951332207788973
  0.7599829266862302  0.0604867362852980  0.5004916588585725
  0.7572158214475767  0.4234293800860884  0.6168216332130357
  0.4810207760929828  0.3703848375811801  0.4653124006470109
  0.9500751500679118  0.3868827262265199  0.7405507776959303
  0.0218921786091700  0.3348485729428416  0.7155879371000008
  0.9107419820909517  0.3366612352872035  0.7359415539539845
  0.5661045088739634  0.0205241197325515  0.0104852419269411
  0.9217173680981557  0.2943328010854109  0.6898641072223038
  0.8615152136373548  0.3026113838849522  0.6691677921413440
  0.8922018108117242  0.1992153539524788  0.6425705139044811
 -0.0011256263937655  0.7952504331652699  0.1532618328996936
  0.8613468425119396  0.2702899344743347  0.5634807076990591
  0.7530856175526724  0.2424979749714283  0.5325714352112240
  0.9774826383142450  0.4806608508203041  0.7904548283012462
  0.0466830651691687  0.7212954318770248  0.1339661869221523
  0.8997955465271031  0.3496802069141484  0.6746699556740139
  0.1484039349819357  0.6737313366433667  0.1238483192919790
  0.8436734565157785  0.3313646638501682  0.5463645105868237
  0.2689007821673414  0.8131990573918465  0.4665178002077839
  0.8603165879450070  0.1912203602713066  0.5232462081411521
  0.5784614411030098  0.2095712221935324  0.1945979708181483
  0.9385574278519587  0.4309170238398037  0.7845375451969576
  0.8173394972361608  0.4465247930615223  0.7436664905026060
  0.7746867043814009  0.0909617499538134  0.3095257131759516
  0.8992422589440743  0.7304923947877947  0.6303007606700273
  0.2703797429274412  0.8847836196665567  0.4546826692158162
  0.7367303577525364  0.2641215221031248  0.4081297875792343
  0.7879216016060376  0.2323373089746688  0.4365530512600195
  0.7888332860701245  0.3825825354855327  0.8006036416000407
  0.7334423928358214  0.2149673869710830  0.3636080001630643
  0.7297416620016021  0.3609385700372882  0.6697892247993016
  0.6702348022692165  0.3684725307008923  0.6479585502900430
  0.7203370313017008  0.3749673503043535  0.6075071768281352
  0.6811178085483155  0.3248180243027924  0.6034552993798483
  0.0462635296190124  0.5903633237971354  0.0012019529239125
  0.9171750942894673  0.0055856861631943  0.4031578320538508
  0.9429414844703519  0.5609573352630419  0.9139645166497220
  0.3266287102164151  0.8523064507875349  0.4755337085034643
  0.9064073957418288  0.5324634358499998  0.8136837917534203
  0.8804077561485762  0.3783242541449391  0.5551271261080843
  0.3622226827966310  0.6854789866533197  0.3620773775544563
  0.8768853642221947  0.4681194806173978  0.8698665411937877
  0.2429264609901922  0.6375804592411464  0.9893044445375058
  0.8766272695563521  1.0255876264516197  0.1325656241182569
  0.5848868203693623  0.1495150149866903  0.7086870040799749
  0.6851334400090904  0.2779764843508580  0.4420634144078254
  0.6898702440577676  0.3398914140586818  0.4248203740447848
  0.8661165584052937  0.5119136008419820  0.9130877606872841
  0.9253627535052096  0.5046827145669922  0.9344501999776192
  0.9815056917331317  0.6883071105118185  0.5741425790526937
  0.2219085012372842  0.9130939210065094  0.4911081690552188
  0.2160632477866003  0.8559211401868804  0.4431077035422851
  0.8267909787471263  0.6500907880716297  0.5283723701101092
  0.8466539714752552  0.5104535782335742  0.6875095226447273
  0.8965764316837764  0.5464855479629392  0.7538497878951246
  0.9308067287522477  0.7535103895085707  0.5285538374998227
  0.7479194425102693  0.4984253027223791  0.7669689432255308
  0.8513728201724753  0.2526112098466260  0.5064659415296547
  0.0497639548259676  0.4286505745122714  0.7671253650090739
  0.7394861378984093  0.3457136169346707  0.7327050778622873
  0.5794423583749438  0.3132670824197474  0.6816618063992024
  0.8025720976361526  0.1578648068698090  0.5297469451244733
  0.5891535803399308  0.2701954300128611  0.6366344505564218
  0.8661012768701680  0.0737161719123370  0.4766542376776185
  0.5892185890768223  0.3808260633416862  0.4283191524194284
  0.5652985981929498  0.6756580477607037  0.9765128047464170
  0.5127396829536613  0.5240052938693408  0.5167771449495477
  0.6643852916338274  0.4493454372172476  0.4759079283581475
  0.9390295251611626  0.6540072711848038  0.5112356476108446
  0.7021445452685325  0.2973740969143769  0.7280146178591533
  1.0097579727818504  0.4104861192894856  0.8674578972186097
  0.7074623945276285  0.1425192184582037  0.5110850291879953
  0.5042518306705809 -0.0397514617768903  0.1220275888303380
  0.9274662076955708  0.4434213779612147  0.7254735064544435
  0.1125993887748829  0.8698329060545659  0.3441634153395247
  0.9176508257586422  0.4573466378311383  0.6639925669949898
  0.8181247453055116  0.4168954857616443  0.6383261352762668
  0.9281640301855896  0.4139462925921860  0.6194183292876163
  0.7694821976235269  0.3814831894339174  0.5614250700956509
  0.1545293997714698  0.7482469389826784  0.2755904895295194
  0.3070011333361638  0.6721172516544438  0.2914987973980051
  0.0560366785406728  0.5486126402050031  0.6977262048369455
  0.2983734306256304  0.5816278622101455  0.2016205532995820
  0.8550715164490236  0.4398966290505523  0.5405793153076178
  0.9630395794094418  0.6084413291172789  0.6920196975671137
  0.9866174642552664  0.5714623635138421  0.6134466813916266
  0.3896958541539524  0.4102380627867406  0.2324689100384001
  0.9190363393410407  0.5964343845717943  0.5278979574179063
  0.4372406257517990  0.3465347216040544  0.1556707383751416
  0.9478724109882013  0.6592638599055021  0.9391773747267078
  0.6518443795372523  0.2615617097291755  0.6595391237685222
  0.8122524433170695  0.0383280542737638  0.9231934948098514
  0.9671174224230373  0.4931100303936769  0.7312303517879368
  0.0672731139359284  0.9469276801367418  0.3641450264338147
  1.0039077606525171  0.5542616663469925  0.9364002352356268
  0.7759622336784350  0.0732247612392193  0.1386803804040609
  0.8932748257944405  0.2299872522333312  0.7476717427470124
  0.2445338979000001  0.5502792638932337  0.1933992954486234
  0.8042326697996118  0.1446649164208185  0.6764622468058993
  0.3423027461840625  0.4534386717619299  0.1417933020242972
  0.7552347083870050  0.1077783315649855  0.6058070696071205
  0.2883798513099897  0.4234783609294925  0.1329182252293073
  0.6602868011546120  0.1033332103046684  0.5104090343763746
  0.3891758492043461  0.3766015494133110  0.1293878550762599
  0.6009226098140363  0.0265175570354745  0.4582643185021135
  0.7445300634703029  0.0478838413922120  0.8986674794889751
  0.8634547768111716  0.1964552945126834  0.9114918874101514
  0.9938036359401105  0.3022985568045475  0.8779482235372441
  0.7468298519080631  0.0203767442156665  0.7859527558889738
  0.7568470136129108  0.0049893417429190  0.8446009411981904
  0.3850113398259662  0.3336284967895282  0.0895886859446723
  0.8254848644381675 -0.0013921388532515  0.8595388307246657
  0.8494793463337830  0.3459598220778263  0.7149233321856229
  0.6281787054070648  0.1774594193388075  0.2230374322241844
  0.6233497385418588  0.1173411108656681  0.2403301430309344
  0.7524912072969637  0.2732703235687655  0.5799713705681699
  0.3310056764529152  0.3457250390637265  0.1193163262407724
  0.7980377892588012  0.0563398557141951  0.8536330469050298
  0.7468646555776631  0.0031063905174013  0.5881863042494863
  0.4265720576099453  0.2554637965720058  0.0703897539697828
  0.2390020195316545  0.4700274876025508  0.0491377295856240
  0.2345876827333779  0.4188267018958705  0.9988156511493459
  0.8220792478967496  0.2520683693873040  0.6655989610056323
  0.6573398056463718  0.1686576949727276  0.5028811356145451
  0.7747362469753512  0.1274666774221795  0.4138853170294799
  0.8409044297384587  0.1637580572417611  0.5766155268970655
  0.8131551895459833  0.0292218796434312  0.5260595032386035
  0.1881010062080496  0.4881117932359996  0.0789609594521710
  0.1410655315116814  0.5631463335572244  0.0986460554485025
  0.4756450874555896  0.2251992569976325  0.0960213486253668
  0.8866251754917719  0.5308162569104242  0.5888327595861932
  0.9046254547314119  0.1861286512182787  0.7020804500959104
  0.4707527931163980  0.1783277521202005  0.0505232054664270
  0.8437571810741369  0.1936318900898093  0.6818968843672508
  0.5154624911877447  0.0838299065926787  0.0952894877935917
  0.7709706931223097  0.2148280325603170  0.5980876199680767
  0.4707327344041642  0.1492258532310023  0.1738812696675674
  0.7332123882378249  0.1619407464490494  0.5937070647559333
  0.5699162115409954  0.1124325474100192  0.1073840099378324
  0.8039838334226174  0.1749022243643635  0.7830152198300303
  0.1817574677197903  0.5267902802549208  0.0049404800732483
  0.8245371348337903  0.0869581173691537  0.6929793374105239
  0.8752355667167087  0.1230915643755375  0.7601378889032294
  0.8889963969754755  0.3943415489312151  0.7202456734788663
  0.9452334390273228  0.4468237957407634  0.5092860233779721
  0.2807361058038497  0.4666481564645052  0.0048968462416091
  0.8474075635265746  0.8494761025312680  0.4285196361976669
  0.8744413854994206  0.0175747136214549  0.9567147027984193
  0.9961183675124585  0.1312319853642274  0.9654836448750815
  0.9355435902076034  0.1438335198755185  0.8856993759436819
  0.9927428445272762  0.1373158882942966  0.9078877157941584
  0.2881316326610395  0.2659182792758227  0.9879463028364242
  0.9317671818410761  0.3113234486970264  0.8568862188509287
  0.9463365260331519  0.0996677981602354  0.8418997824151200
  0.4161762929068483  0.1482043901086614  0.0382367376910053
  0.4042757348603337  0.1029100365467642 -0.0051924649033854
  0.4096700875355988  0.0898467074882667  0.0581786887888039
 -0.0001862429446824  0.8147655392388115  0.0927061154832857
  0.8514188351341158  0.0339597475487908  0.6940901254099111
  0.0497254573774682  0.7382406663849046  0.0715322385492188
  0.9649726215850887  0.2086804199485331  0.8275132965973712
  0.9744881411214722  0.1642140841323430  0.7838703102342086
  0.9258349253127772  0.1291961292605254  0.7192128955886409
  0.9079633388886308  0.0512463847001186  0.8418412197753739
  0.1056301890883177  0.1357561326344255  0.8858259591091763
  0.8678123072527353  0.4392080174491105  0.1537740317540404
  1.0024947490130098  0.7883467523585025  0.3811921123393624
  0.2639066351427413  0.9071650223574234  0.9489404834879015
  0.0684962144592099  0.7224054308155763  0.6342130832612005
  0.0464844353670232  0.1331595149812090  0.0972846766538060
  0.4123649425454853  0.6118194557285294  0.5797117635239497
  0.8919202375055756  0.7495387026416674  0.0680517567176793
  0.8894739987130856  0.1483191250543843  0.0941573344873536
  0.1903586108630825  0.9275395868023822  0.8650810742280949
  0.3163513618830195  0.5707739860863618  0.5590797703748404