C  Cr Ni
 1.0000000000000000
    38.7782925608872873    0.0000000000000000    0.0000000000000000
     0.0000000000000000   38.7782925608872873    0.0000000000000000
     0.0000000000000000    0.0000000000000000   38.7782925608872873
 C   Cr  Ni 
 106 1596 3725
Direct
  0.1471549754281970  0.2247444931206193  0.5128680113912536
  0.2557856542906845  0.9992793807893002  0.5516310407169158
  0.4641400476363535  0.7759728890109874  0.4714149508615125
  0.7300024423247853 -0.0283295810945452  0.9994807846365374
  0.9048676912228506  0.3198543184957881  0.9399131036971317
  0.1002737369039151  0.9161435403483236  0.5322753543677727
  0.3756298109278601  0.6684595153852333  0.9566775654023776
  0.5196800355273808  0.0289946122131599  0.9811882699719585
  0.3863919391057639 -0.0033475203946395  0.2538963046950082
  0.3591927092004348  0.3726974974090198  0.0796178100844466
  0.3986731268653008  0.7632438193808716  0.9716486532595489
  0.9515740922043500  0.9471298977386240  0.6198265163645045
  0.4758060491270839  0.1644709077453673  0.8805221319123954
  0.0849569448705355  0.8375777129443112  0.5793156784276522
  0.8816526142472116  0.1745179455631138  0.4758691406503680
  0.5518839513775595  0.7803272795432686  0.4307408212979001
  1.0349596159216403  0.2854811128889592  0.5118203542342408
  0.7441300591623914  0.2793281208183374  0.0722269968528361
  0.3629072907049870  0.6369234259955603  1.0255423955859031
  0.0106612973120575  0.3887309079674834  0.5581104703482868
  0.1106938655979735 -0.0663321718441554  0.6263968519388017
  0.3943701843403535  0.1163913734913133  0.4451855739332309
  0.5788345576169422  0.9002043581262358  0.5462046583001815
  0.2641753789727280  0.6019463328959355  0.0227331348820152
  0.9147814333151258  1.0170644419290964  0.5597049363215182
  0.3449509708362696  0.7990206823603113  1.0086447480138019
  0.9609748784391002  0.1689803012320752  0.5071346488994548
  0.3226494735508962  0.9622759088738468  0.2371405698085665
  0.4858531547915537  0.7865168461874752  0.5022241963947881
  0.8500173857912793  0.0775726101606852 -0.0284916274064420
  0.4496450952422639  0.0267766691400637  0.2643797376462806
  0.8451867521280205  0.9885645441972685  0.8985179931696581
  0.0762155000894381  0.8291891257678424  0.4425837087135400
  1.0107998472959381  0.3495957025954889  0.0241961385182588
 -0.0499732889000594  0.8915771074860840  0.5641781036473230
  0.7569912471277297 -0.0055023562348316  0.9045097843127573
  0.7251614862251713  0.0752268434631719  0.0165137007849628
  0.8182379475072837  0.9447351905723971  0.3192552944180364
  0.3704138225170394  0.2467490944771886  0.5134243364817263
  0.5813131189643520  0.8846472428464307  0.3942302328165279
  0.8339309500077887  0.9581809165882329  0.5746453435917429
  0.6000193690391252  0.8529734457978627  0.3855709252930439
 -0.0562891684004173  0.8206343663606687  0.8968568146742107
  0.0138731887409206  0.2770667025740330  0.0526175345204354
  0.0208018472288613  0.3462189989369193  0.4652798793026178
  0.3349214205123854  0.1208244482916766  0.1697210239762126
  0.0229720606721725  0.7801589241596175  0.5765089952326670
  0.5553088630009497  0.7632584592747513  0.5071982157571056
  1.0137419370035192  0.4153274007357135  0.4366455907157094
  1.0519383621917293  0.2141950849809199  0.5332012332426807
  1.0016283581782972  0.8358875530236745  0.4977916859706653
  0.4209727976420152  0.1583129151408921  0.9232884353441146
  0.9370318969177346  0.3343317848341945  0.0681122616090873
  0.5618249896629613  0.8353639649808133  0.4766952627158909
  0.7195032933835620  0.6439008178864527  0.4890144929189633
  0.3725464904206983  0.1400304861285262  0.9843547071826768
  0.8044432798317752  0.0229174579718574  0.9534089654846015
  0.1191663356264374  0.4142961119912282  0.4718223211472927
  0.1928467790168414  0.8820498619382040  0.5194937496650185
  0.4496558225505459  0.0529181013103290  0.3562545358732254
  0.4659707241085188  0.2240109841800219  0.9303131455285472
  0.3186584142734912  1.0322565229598750  0.2589028710204815
  0.6895118122516973  0.1670212851574073  0.4682047925568653
  1.0791752666874230  0.9197215620173177  0.5647343034316977
  0.1745787064368571  0.9460658549311028  0.5854975161376682
  0.3949631631396555  0.5782931979734397  0.6805159260134391
  1.0358493576143362  0.1567411767712996  0.4835741940745980
  0.0706315914753739  0.7670043680232529  0.5161928357904161
  0.7451244246611168  0.9210442215066020  0.2924084667475029
  0.2745896230129703  1.0437687071596302  0.1180680180160104
  0.9440372686533808  0.9581959931858495  0.5420936372743094
  0.2764871681966015  0.3349640630887517  0.0657503599831068
  0.1931926455749008  0.6257401995005262  1.0033115244090793
  0.2689390971733323  0.9327542633452797  0.4844147910452962
  0.5810516329612648  0.2392353679074220  0.0200376960699346
  0.4935701757871519  0.5968101851713171  0.5105572340446153
  0.2224211326849680  0.2160160601168510  0.5424827054639865
  0.7457051205296720  0.0694941747344229  0.9846970596074923
  0.4080792988678070  0.2209384753979798  0.9766149282368727
  0.1887248364009334  0.8331258586601094  0.2359245640426031
  0.3249628274282793 -0.0060797942897187  0.3340063021677755
  0.1833083955599351  0.3303964664468937  0.0303343675094271
  0.2210748634360888  0.9733153650981005  0.1777377484590560
  0.6695446666192968  0.8594382893262384  0.5410036229399786
  0.5488641984200696  0.1636756742759975  0.8448512534753410
  0.4124477193302656  0.6807119932594150  0.7700004799920986
  0.5640397005435461  0.1540136958959094  0.9132450237448071
 -0.0450466963902806  0.8720867377500576  0.6389951702176659
  0.7672856841378841 -0.0075450411484272  0.2675141643538980
  0.1430863024605027  0.2362652431256934  0.4364826618902302
  1.0473623345614824 -0.0039026143764695  0.9801796835660259
  0.8743296672475113 -0.0001404204187868  0.9743558300760273
  1.0541549576393392  0.0637199494330827  0.5319405457108666
  0.2696913654248527  0.9247205995265595  0.5679117561390266
  0.1928509648593327  0.4164047970941014  0.0255367872344353
  0.5292338740851331  0.2292852394912333  0.8893278525135639
  0.5740434671491438  1.0304215165915138  0.3565202131156822
  0.8756223429722313  0.2979828411206148  0.5199115004885110
  0.2798736708733707  0.8550086510965318  0.4911945530447684
  0.9482136792466695  0.0850763713833505  0.0389950464077948
  0.5736981549572472  0.7792701939854210  0.9496654821087247
  0.8568028054630296  0.0807096130442576  0.0698558352296996
  0.4981841226241575  0.1880597048959318  0.9773651516380614
  0.5227528559165802  0.8134904747746786  0.5612024601325094
  0.1208559332531341  0.8253630573616324  1.0020354406817957
  1.0461799413271076  0.7375752521104474  0.4530589812332221
  0.9647012052826648  0.2930586239821377  0.0688798607088523
  0.8420742306966305  0.7446344362594788  0.3971825527260380
  0.1964179573438705  0.3718005542540423  0.9967598454466665
  0.3664647834041736  0.9756798072813094  0.5732937488453284
  0.3561425017226116  0.0310032054428416  0.8240799951219210
  0.2617248528814400  0.3345429917025562  0.9075162284818725
  0.9746786859433195  0.1335517659027388  0.6773650359638119
  0.3531538532291870  0.9629220006617821  0.9133967640522481
  0.2116035136956708  0.3291615383946026  0.9427164556141202
  0.3864639890173144  0.6496191080452199  0.6364934137038525
  0.1411431510263531  0.3493963550254964  0.8646424034712655
  0.3981535722891633  0.6351977942415266  0.6936581582787742
  0.8180240143932864  0.4816762987235950  0.0696712892572587
  0.2892995944370483  0.3382669667807649  0.6379038407098517
  0.1214945313683496  0.3124037002738668  0.5276432736976073
  0.8931780981556080  0.7787865021284716  0.1757249227861019
  0.3814850005031235  0.5690386502153687  0.7850393842672162
  0.9841535413327755  0.1286238249959812  0.4913040162157906
  0.8344214313604696  0.6682260622671580  0.0141440226115750
  0.4627104116772101  0.5414780001244678  0.8894349038466811
  0.3800489966578142  1.0042898084225793  0.9508167779740472
  0.8222934424100161  0.4991385069295824  0.0128145374296147
  0.7045159493442203  0.3916262718139131  0.1709974190732596
  0.1533433478046250  0.5308894777629031  0.5091452254546311
  0.2092463696549141  0.8055367129899175  1.0006125729428965
  0.9328035518188373  0.0332127905492311  0.0312380705213330
  0.7544658003206667  0.9458896596201224  0.2442970272199488
  0.9591254894300992  0.9151139677926194  0.2190783483253328
  0.0395686825144779  0.8503791201522809  0.7717312841152473
  0.6001229556016783  0.6209487485493932  0.9536675961266513
  0.9483654915461256  0.2440942364601136  0.3164041826322451
  0.9379338713645665  0.1031363591690708  0.1862969429863840
  0.5448956216042931  0.5894978313371910  0.8863590569537118
  0.7823837991672551  0.1501020133879573  0.0559152144438803
  0.6420328263474460  0.7450198322595013  0.8763193908052960
  0.7968162234520108  0.2864174202045341  0.1873521955798422
  0.2864482112281757  0.5309134728853377  0.7210946076373195
  0.4144957847104492  0.7990167913549036  0.0654891174199387
  0.5592094018174837  0.7948902291908228  0.0001151032468458
  0.5200685345861277  0.7317302950044638  0.1182594843606981
  0.6709576578871204  0.6783945358372095  0.9543961025001448
  0.1371087194054040  0.4528745768434174  0.6268962558360059
  0.9759072403205924  0.4693993066864263  0.0700698169985871
  0.0455782234734518  0.5631456556937012  0.6367014028316829
  0.9229727282179541  0.4881900217936579  0.3314462331870607
  0.8140741203364930  0.4216408681930174  0.0838530781132973
  0.1628944648527376  0.2925025668770871  0.8802423446960191
  0.4159433405882314  0.1770070761256722  0.3793863055934509
  0.9799729068299518  0.5370367366186017  0.5093202042864254
  0.6002752459168351  0.8596927061062690  0.8427962387148377
  0.6748333804283680  0.0715740353282841  0.8100476504370088
  0.9651342168587740  0.2381459718824563  0.9334398939462090
  0.9225443389007173  0.1898924865240161  0.9271219536713114
  0.6164339475495767  0.0366554720376578  0.0851103849622520
  0.7998054052704480  0.0734657968831900 -0.0401837511258932
  0.0127377271612542  0.9300410462754426  0.2914998922145324
  0.7854735322326855  0.0695435634889055  0.7886063095246029
  0.1083897095646077  0.8411702437957539  0.2360963756767141
  0.6480517743312635  0.9984552877153269  0.6636744590377109
  0.7745329651111956  0.0827936516699188  0.7290490855900998
  0.7066561341257147  0.9599525654246605  0.5777969148202040
  0.1004974378491140  0.7330265898169858  0.2060706860919967
  0.2029383751099182  0.6879407662333685  0.1956567628650268
  0.9832201865597674  0.1833069306502358  0.9518902126104491
  0.6965818828478777  0.8998595452897508  0.5354146137727158
  0.5364127246675428  0.9348639467098941  0.9742951304320133
  0.2152403557117827  0.6357929925680844  0.5013213558414523
  0.8652092193141554  0.4422946529991647  0.3822026253370650
  0.8737760353232210  0.5486589777196699  0.4099358763029379
  0.7707583463271632  0.8633877891534124  1.0078514670716259
  0.1160867395395379  0.5410426218223623  0.7190342694409243
  0.1045312364057487  0.5563150350710642  0.6552815310372370
  0.5479307110675298  0.9867592167095708  0.7460498402313890
  0.2048087631160285  0.5663398579325489  0.5788905590116171
  0.0775066488396044  0.5221082435538673  0.8189840119352472
  0.1290895169296357  0.7424240010746587  0.7658625510380433
  0.4901093950615846  0.9937076017475972  0.7262930579236138
  0.5151771604943275  0.4858733426074256  0.6370391826242048
  0.3021907058506397  0.7620236418505342  0.8763989503106653
  0.8364762572234938  0.6876550111405988  0.4105351045797004
  0.6006367618214292  0.8888428231948630  0.9480068131705981
  0.3733877544227063  0.9470613707261277  0.9741471119440626
  0.4608452683884253  0.7654142380708827  0.8160194805626140
  0.3902945101412441  0.7532934958987390  0.6297208556337675
  0.4216522764945277  0.7122450912111475  0.8135982064913778
  0.3705765159494516  0.6765030347150675  0.7430575201264500
  0.5689764150992592  0.0850614332624390  0.2287441632838519
  0.7898750839356969  0.7058901467526403  0.4457019182572900
  0.6835857031270889  0.6807892299702646  0.4768603676398967
  0.3647108162535445  0.6898216551705503  0.6846276518914456
  0.0621112430346662  0.6209539892015904  0.6138174026120378
  0.8252313794942049  0.5773519187092568  0.3827552228242674
  0.9307974543011324  0.5791362878419719  0.1900454539706963
  0.9899131978031853  0.6732035882917424  0.1833817092574321
  0.4102121195742691  0.7287863419195418  0.7515864198776856
  0.7312543025713677  0.7644201919821205  0.0630379475604891
  0.0058541584411367  0.7342993360085190  0.6099232880237787
  0.7108799629297768  0.4543364474389505  0.1531745862687602
  0.1364822223622841  0.0350537397984154  0.8660625328817987
  0.0280695969156721  0.0645233065182583  0.4199286770443487
  0.0271386751070409  0.7983547082018427  0.5260502928315548
  1.0328257831517476  0.9121240693085571  0.5825948013509485
 -0.0013519799899451  0.7722943530637651  0.6583325794718239
  0.3402273268857121  0.3072614324468292  0.9960858981815465
  0.2235392772997860  0.3168824910811152 -0.0015428077177915
  0.0822143420315763  0.8866627363768315  0.6049540850730285
  0.3331194426632738  0.2842381873749013  0.8824747171976044
  0.2341631250233491  0.2403671931958633  0.8538970896936315
  0.8540589646037016  0.2115426274992239  0.8462979634092059
  0.3764653833037555  0.9488657509012769  0.2385536946763641
  0.1134153691849712  0.2247093733865494  0.7080242070491988
  0.2234618317760710  0.2541226053915018  0.7953065888436948
  0.9525750711072354  0.8058968517249773  0.4239448879495896
  0.4874851897137601  0.9639480983790314  0.2134267575446046
  0.0003578145892668  0.2265151347810000  0.2818137300256695
  0.9045890505562179  0.3339631533678646  0.2654815289259312
  0.9032087684258473  0.8842274396318064  0.4380623998397443
  0.9557560926030181  0.8647162178389879  0.4076236131933812
  0.0679898527222543  0.0864123202468580  0.8857436505178590
  0.3797939610395555  0.5135255517132263  0.5354363892267308
  0.5450288750583904  0.0087399018824779  0.3907413305840622
  0.0928590189458917  0.5776897389602167  0.7966062366792673
  0.2666404447998529  0.9050449545029062  0.9489716581949273
  0.7259558219961096  0.6245205794498744  0.3933783848850151
  0.8308593242702107  0.6400535982074325  0.3664344481491492
  0.7758852251318888  0.6085709872035981  0.3587544926136807
  0.5088958627344968  0.9385475463444874  0.7431862764409326
  0.9859231984101957  0.5941099304210619  0.2609773030955514
  0.8721526564575304  0.5177870627178111  0.3041250137482669
  0.1559307267358655  0.7011375041661738  0.9487962668042529
  0.2235322882218490  0.6972636968543693  0.9750747002992076
  0.5071417546172701  0.9070748015446987  0.6351496334034508
  0.8627372436128318  0.4094583977714262  0.2780167729951942
  0.9140977350137465  0.3945050265208724  0.2458241668220586
  0.8919090990119031  0.7471592314075919  0.2995929862308339
  0.9658681202060808  0.3790499120371834  0.2124519997052655
  0.1451094112151228  0.1532533692752439  0.7868367913819592
  0.5330867986127232  0.8693432852668374  0.2539425853580846
  0.1440546804276943  0.1237200445788665  0.6791888685137579
  0.9538200436077930  0.2716748311615609  0.1929682535967585
  0.7160338197168343  0.0228757287373627  0.0021568348073704
  0.6316130199919522  0.9543845533033973  0.8924602007952332
  0.7304798585218030  0.6848006986023749  0.3770912867080821
  0.4299031783749562  0.9486253559898449 -0.0037540475425774
  0.3835452397717393  0.6626531236920007  0.8074472715611610
  0.0558640383404863  0.7458480074103986  0.5622961242886164
  0.5914409575614655  0.9307099875088033  0.3707910080195259
  0.9314818785879386  0.5951714715128618  0.1298860232940506
  0.1258754472589520  0.9476103072512129  0.5016087347791796
  0.8832238531222091  0.6261676170199451  0.1041455722642947
  0.1788376091407219  0.7474966604317242  0.7267881169442382
  0.8291711251782549  0.6213785823827438  0.4236599182530668
  0.3228178180616404  0.7044735365398601  0.8935001728121674
  0.2914169773859703  0.6303704809112572  0.7477720538097000
  0.9238827045567929  0.5646107746734796  0.4821217455599409
  0.1234704444817860  0.6421394514461410  0.7424163640334140
  0.7803203891780277  0.6701484349860815  0.1117270167982423
  0.2415888674855122  0.5953867106582476  0.6789194952961148
  0.1801463242968502  0.9829621360972435  0.5091370779353340
  0.7253969570752816  0.7804122091864359  0.0011005265649364
  0.1067320763996403  0.1056908922886453  0.7823444287904506
  0.8534278897499304  0.3169740745194503  0.1965993792249689
  0.8390192484175050  0.7619658420385923  0.1031199317006342
  0.0762519319978813  0.1754991968271983  0.7024448992309996
  0.1488169707232845  0.8186522874016267  0.6479979176395327
  0.9440701135943836  0.1630330126439782  0.1681825011519142
  0.0031521714567685  0.2408464279676057  0.2208516113502803
  0.5533908241582801  0.4873320122784533  0.3187892888307210
  0.6060671566256287  0.4855595473819112  0.2224442121624392
  0.7109456499673432  0.4860737812884540  0.2595020865596878
  0.4654527827684233  0.5571490990960477  0.4970005038430739
  0.4412520093203983  0.5094902265068402  0.5508317171443378
  0.8643954379076300  0.4248704718959275  0.2165203080755734
  0.9009647809841744  0.2870611670081769  0.2252129808291800
  0.0353200125525830  0.1567361612426755  0.8047947617809559
  0.1825429551485160  0.9296409323107965  0.5379677553904635
  0.8571427127584744  0.3632806159964992  0.2368854041750303
  0.9575915158196064  0.8452057552180453  0.4736135565327808
  0.8823570324536157  0.2744814624596635  0.7911975514453445
  0.8315231855871584  0.9791876040193638  0.9475931581808397
  0.2969050534061242  0.5644973737626039  0.0352721749944734
  0.6851326382956471  0.4442523207730491  0.5333776391459908
  0.7657315015942564  0.5467946880910389  0.5445760942791701
  0.6155787043391403  0.3390028019131441  0.5171680702276432
  0.9793226322136021  0.7240734511269449  0.8821125566072816
 -0.0103641073276270  0.6807048491731846  0.8368474847302819
  0.4690699807606765  0.6721176534143619  0.4566323850423584
  0.5103060426693341  0.5929214115951018  0.4519228320341249
  0.5058839180693713  0.5482293530817063  0.3986829593003460
  0.5085537010722582  0.5351829443180781  0.4562409356676853
  0.8530950127894582  0.6106275959833340  0.7093133578717730
  0.9133605288186148  0.9938039952710364  0.4631377525956423
  0.3730344472213018  0.7083083832276198  0.8521703573221179
  0.2019597441024107  0.9854003424102532  0.5686384022387624
  0.1344992395735386  0.2305905944482669  0.9346650482206584
  0.8190718207960902  0.5013841254848380  0.2332576420873360
  0.7758983776411311  0.5618674364654580  0.7099455834580066
  0.7216515737477415  0.5932497420753782  0.2863013704197415
  0.2420087377927189  0.6369517303681075  0.9898487650307145
  0.6326780717404049  0.2605345538776533  0.3706640093632184
  0.9200469506242462  0.7028389403545027  0.7523661256692388
  0.6808831277994679  0.1855193371116989  0.3537228913672924
  0.8822026124122468  0.6748693254944017  0.6537429110566365
  0.9694894645922283  0.7088455813666081  0.7136534364550501
  0.8220003057933147  0.0625831652841167  0.3367791281779893
  0.6964062126514425  0.4314572531366639  0.5951972673190554
  0.7593238040291427  0.0588706182643204  0.5006370832892305
  0.7573048447638977  0.4249905575151141  0.6170519876764108
  0.4817954622174290  0.3686800934633901  0.4623372769457277
  0.9483712994835014  0.3868391470892590  0.7407556744401828
  0.0202728484283902  0.3343704441258026  0.7145687749931324
  0.9092553908170095  0.3370406501523620  0.7356442321879935
  0.5621505892579298  0.0233195455133286  0.0092013291729743
  0.9312633695968611  0.2466801065673787  0.6462107485766486
  0.8605882824088839  0.3009344127714853  0.6687186566203397
  0.8908237201019145  0.1987621544856999  0.6393577587030206
 -0.0006742857425013  0.7955893283395269  0.1535638749272733
  0.8584412545993925  0.2696443165430317  0.5625569283812198
  0.7491076415241531  0.2439577206668317  0.5334878913986834
  0.9773379146230950  0.4806702589445634  0.7903562766037051
  0.0450000887474434  0.7207064107585043  0.1348860942757941
  0.8882787557551478  0.3635156630416060  0.6126714134072910
  0.1472263124687797  0.6721531979435441  0.1249684017468430
  0.8800635136807706  0.3763757643496951  0.5553549509645864
  0.8426337762509416  0.3289018019687332  0.5466213283417701
  0.9103761352464445  0.1526930248982535  0.5124174014565727
  0.5786223004800413  0.2085568624848499  0.1945252548975762
  0.9376275632861959  0.4303937582318748  0.7852005041720870
  0.7683121811293491  0.4393731540022611  0.7831805031452354
  0.7237789248538536  0.1077721009678358  0.3409720518958303
  0.8492753296102005  0.7245298311586228  0.6706593302931848
  0.2726032101362822  0.8866139598488429  0.4530068299515048
  0.7373592212155898  0.2645543281378668  0.4085772005682825
  0.7878714170516932  0.2324910650631921  0.4355218456717752
  0.7884283380248516  0.3833911620394700  0.7998270311996633
  0.7343150360134171  0.2153138568276333  0.3639698857878959
  0.7289837528094963  0.3607092221663361  0.6708402994990573
  0.6686813872529418  0.3680050720556786  0.6487864276567341
  0.7037884348997784  0.3909982515379439  0.5451872162252138
  0.6795854662170009  0.3248952900343621  0.6048841684813426
  0.9924032418412755  0.6169489151880344  0.9775150481296734
  0.9191077331370546  0.0512318379610650  0.4448286954006956
  0.9435579428307683  0.5585962963334535  0.9160627597619422
  0.3262422244300262  0.8516972832592618  0.4739848040891829
  0.9336696239792446  0.5740048322174093  0.8536022721837582
  0.3006972358071275  0.8322263120190507  0.5307944861791697
  0.3628603493603190  0.6846551103969740  0.3624031166933514
  0.8878270281580034  0.4566930160191230  0.9316176306255111
  0.8194601093212847  0.9962196958224179  0.1200966511092279
  0.5291270267772011  0.2396335722920633  0.1690476013704589
  0.5817002488316694  0.1485476613930479  0.7082372066779926
  0.6859480927887611  0.2803326827907601  0.4422474034278338
  0.6894895463928766  0.3414370365247295  0.4256547702943766
  0.8662107855986784  0.5119138290987421  0.9148214691129443
  0.9259591333541701  0.5036095320126532  0.9344258324059601
  0.9806532184280143  0.6894896289407221  0.5745258628033950
  0.2227690704467321  0.9084449504922298  0.4880846970964119
  0.2692677045989806  0.8142618811173653  0.4654785358048776
  0.7718655163603304  0.6466255937283518  0.5611502960997414
  0.8459280604560931  0.5101514438112736  0.6874175229747583
  0.8965315651133313  0.5457885167375706  0.7539105590727218
  0.9291503759714430  0.7530624350270673  0.5267440320042480
  0.8473303893373098  0.5394917935616159  0.7928029307052187
  0.8463656451595620  0.2532662113743968  0.5061707546305909
  0.0487290941359195  0.4282160819157211  0.7662364590330791
  0.7389711718427399  0.3461915022883469  0.7321104092481143
  0.5793932358794895  0.3125146350077567  0.6819930413688431
  0.8024207836241908  0.1576221400303117  0.5296547488284477
  0.5897554838833572  0.2698009642384893  0.6366734996455796
  0.9155303373912482  0.0417556543790050  0.5137027354081733
  0.6219938936662492  0.1968544048393258  0.7152255877364321
  0.5885507063497036  0.3808587922684849  0.4284487043466964
  0.4955875531354067  0.5115923069361895  0.5140581481325583
  0.9427428874195956  0.6555450917378839  0.9432323098274862
  0.6064668955831635  0.4817848078458695  0.4523469598990530
  0.7015295792179892  0.2975480983354377  0.7286523785158029
  1.0101405612375585  0.4106067101191170  0.8669926773946289
  0.7032292616219638  0.1393128986365594  0.5135002270812897
  0.5049647749657125 -0.0390433852715035  0.1229973501684818
  0.8781149038085049  0.4379976899548016  0.7647890806735775
  0.1120349071873884  0.8707515037256812  0.3452262925222562
  0.9165205098693212  0.4573998927033335  0.6632326997154556
  0.8169762315074091  0.4167868483778239  0.6383334541765904
  0.9270618797419093  0.4128057510250020  0.6176750275012911
  0.7684505111520991  0.3818899443829497  0.5606862148802061
  0.1577456353359306  0.8084337812782282  0.2634196899020662
  0.3067297749346307  0.6712061715229219  0.2913127494644246
  0.0562000411856981  0.5480678914255450  0.6972720627812509
  0.2982986909482969  0.5804568945157027  0.2030554476294358
  0.8528272013557391  0.4414990937005862  0.5410351220515580
  0.9624194453904973  0.6082705695385277  0.6921405270518800
  0.9856316957339223  0.5713009725123105  0.6138420519583050
  0.3893903602694792  0.4100241250814533  0.2335984497826944
  0.9177569425873734  0.5967044065352064  0.5282775135846075
  0.4363204385051586  0.3466181597856576  0.1562770293602959
  0.9382735207155968  0.6546557205318032  0.5113411276698051
  0.5655388296789535  0.6776079214165784  0.9771721377043561
  0.8024525552737092  0.0223747651107731  0.9029745869171611
  0.9667055953461526  0.4935138201533581  0.7309669073106531
  0.1172012392955501  0.9163243686902683  0.3917807909390209
  1.0057299778043594  0.5551037625269241  0.9342158393811059
  0.7764769655860027  0.0732606674684259  0.1353679323679017
  0.8932651749314152  0.2299135993329044  0.7461088110920427
  0.2417908912011650  0.5337877827469005  0.2562388255099868
  0.8029755224617103  0.1452246570880956  0.6742457245634863
  0.3420417887156690  0.4559761334265294  0.1443714545358846
  0.7533725420876864  0.1084418174630875  0.6048874402691241
  0.2869371218560459  0.4259834179525774  0.1353880017548771
  0.6582898238722898  0.1004456086694621  0.5118596580294090
  0.3880854915721324  0.3781479023953335  0.1267716254073192
  0.6093087671743636  0.0514019936051234  0.3280256845893283
  0.7447926242576551  0.0486731743618403  0.8911291808760721
  0.8652536293991485  0.1958633421757088  0.9069064292206552
  0.9928218150858278  0.3028014002814851  0.8789910227399980
  0.7476758215184829  0.0206043252045241  0.7855043764251405
  0.7614009226058671  0.0055602734367194  0.8504639912478794
  0.3832896035498862  0.3289250385324327  0.0842373821634474
  0.8316243819301550  0.0000995035407298  0.8495588111951022
  0.8491869181176740  0.3456430014996498  0.7141927631527203
  0.6277300955298352  0.1783414740991937  0.2218737466380223
  0.6239543182339450  0.1181944400129309  0.2398256819410247
  0.7503243704344286  0.2737250897552223  0.5807725381037302
  0.3316159118310875  0.3479253226302378  0.1170761633569381
  0.8044398121876328  0.1748691088246179  0.7808669094820060
  0.7978393752348387  0.0545468937866751  0.8488761494097410
  0.4215236434437470  0.2104577249281818  0.0258983655063319
  0.2348161663472008  0.4695798557826303  0.0483641598397526
  0.2577912644200456  0.3619654464864664  0.0247064317850027
  0.8211881266620797  0.2517452447760405  0.6641442415617512
  0.6540075140145949  0.1682659395295265  0.5052018990333363
  0.7254682110196486  0.1404630838693775  0.4443964464976092
  0.8408166643087986  0.1630611033633280  0.5749392555683868
  0.8081785143253438  0.0286182964092422  0.5309690767151525
  0.1872192946714296  0.4888716355609858  0.0818437773947591
  0.1407201118406035  0.5642855914023597  0.0978702657584466
  0.4755111250672995  0.2248428101979404  0.0992833072704962
  0.8859936052926612  0.5310786856707093  0.5891277805887368
  0.9534883294760124  0.1905766092678804  0.6616419622108843
  0.5219976777062573  0.1612082681667749  0.0183852797863522
  0.8428346346786311  0.1933110557015803  0.6799801302579465
  0.5094263686397705  0.0386644490138932  0.0364899838522108
  0.7691631329129610  0.2152310460747610  0.5975975030790619
  0.4683165965281809  0.1463544210743609  0.1758364805051166
  0.7307402470374995  0.1626929760121147  0.5909607262595692
  0.5223384794106528  0.1464468975911763  0.0807697426099620
  0.7501455547266203  0.0069316715396515  0.5817942871096350
  0.1601142530997306  0.5916970910578584 -0.0159187012408774
  0.8740923585416012  0.0908766162370713  0.6521362360462062
  0.8760576648488928  0.1229073771800368  0.7573531135182084
  0.8888536162152554  0.3930679432371022  0.7196829465933918
  0.9413993688766125  0.4495638012527139  0.5101205294072185
  0.3450044499359872  0.4217358202985628  0.9808712827284823
  0.8468062434425696  0.8511633564866813  0.4293108511797231
  0.8570437751177952  0.0335104444757203  0.9376137195107992
  0.9950662809001680  0.1282077223505545  0.9650863357538475
  0.9337343495796374  0.1468395845942930  0.8841784470604976
  0.9930709363276188  0.1380480370071673  0.9063851599542876
  0.3218633183649436  0.2551209060631782  0.0384338608434626
  0.9312871167669863  0.3113998627641489  0.8582661412577254
  0.9564366039451299  0.0871620377562516  0.9073363004905631
  0.3605307349102754  0.1190692021414425  0.0340801544180811
  0.4057340833288370  0.1033223788694527 -0.0036313227458167
  0.4099016348262591  0.0880591844300187  0.0575258763032114
  0.0000451703364156  0.8147285708821532  0.0928629897662644
  0.8499876772794449  0.0319368715515891  0.6958245262827415
  0.0482513752637400  0.7386397155827381  0.0733268420759021
  0.9646884644354246  0.2091311901100537  0.8272373009256286
  0.9749515197666014  0.1645509034032316  0.7835542458327001
  0.9266772666237618  0.1292739910532400  0.7176742397309535
  0.9089266845158425  0.0530206027676072  0.8376129975258374
  0.1053927138981254  0.1367121355629924  0.8874184651314648
  0.8673817618673355  0.4392470807196379  0.1567062326874637
  1.0004057142992284  0.7931000734688655  0.3841086687279784
  0.6023158313476465  0.4394665574517463  0.4056237759060559
  0.8699297180623188  0.9678452328962831  0.1495657111760750
  0.0468329362763272  0.1329279592095027  0.0986565163274678
  0.3995653195643174  0.6272643392122889  0.5216202096521345
  0.8905754673547530  0.7492829911414963  0.0671923911301263
  0.9424689489180235  0.1331583926326108  0.0611019702894839
  0.1917042814910416  0.9272131521498831  0.8663583448026155
  0.3144312054726866  0.5660497909922911  0.5583203759401001