C  Cr Ni
 1.0000000000000000
    38.7782925608872873    0.0000000000000000    0.0000000000000000
     0.0000000000000000   38.7782925608872873    0.0000000000000000
     0.0000000000000000    0.0000000000000000   38.7782925608872873
 C   Cr  Ni 
 106 1596 3725
Direct
  0.3080432636923324  0.7197981663129841  0.0325050509629637
  0.0730794888208310  0.8283318383915659  0.4381792856846956
  0.7620311659144958  0.9925671308791824  0.9030810234734067
  0.1587239727287357  0.2231547322774198  0.5130398016054863
  0.5771743208757457  0.2394695100054035  0.0208537062544674
  0.2698233242586023  0.9335058247424353  0.4857703241583105
  0.3599072089617382  0.8065419132527003  0.0563452418243782
  0.4933122196835998  0.7246106625651707  0.0800692414876995
  0.9971463890957543 -0.0332793828594665  0.5586938251508332
  0.2728319973442220  1.0435717657994563  0.1180468589634205
  0.7453745637106528  0.9210184018202722  0.2925984745758533
  0.0720787767044647  0.7661234312882845  0.5142903386088592
  0.4824775118329234  0.0182187630628568  0.0671529956399345
  1.0482621016421916  0.1640139789388797  0.4818764575793341
  0.1703813423485216  0.9397247030205430  0.5855896647168866
  0.9532219257508457  0.0690388495604786  0.9479606297168945
  0.6837165991565874  0.1658625751870652  0.4662558656638916
  0.3248725122153403  1.0204674273081995  0.2570510031624272
  0.7729198080378665 -0.0457320796754005  0.0463527969225151
  0.5600112756221635  0.5790805479149136  0.5501502647431702
  0.1968268935807422  0.8844553939549202  0.5223655561632987
  0.1194817787092375  0.4139851745593400  0.4706946986518493
  0.7186637717667622  0.0150833359914552  0.0398018457304600
  0.1721609020442642  0.6153938375812759  0.4089062227507875
  0.3706037844871243  0.1431226976852917  0.9850611797041934
  0.9488133263440440  0.8896517287584774  0.5611983337064174
  0.8361897045890275  0.9843284649528227  0.9659429133345975
  0.1829002331927648  0.3295829758904001  0.0299541875007635
  1.0449537051787023  0.7399074265079751  0.4517377892818696
  0.7206101377659556  0.0579882803968066  0.9743607702277173
  0.4919127826495082  0.5925408093740689  0.5195387665393680
  0.7197644399211429  0.6429034026996641  0.4899058913814918
  0.5194448802078521  0.0804442424345816  0.6716222716122544
  0.6161032218448622  0.9068307839683812  0.2994628340595806
  0.3275673601936149 -0.0078674009654780  0.3367244962211128
  0.2256393118560702  0.2080743843533399  0.4644225533813702
  0.5746859522443548  1.0298980747035824  0.3567405765902564
  0.5277665294963797  0.2332361564603893  0.8912563838226589
  0.1913265944572547  0.4137408476841985  0.0250558665451385
  0.2089918020084202  0.9601864841593712  0.5189851485231441
  0.8446006586059090  0.9832694074476854  0.5269184088010670
  0.8421659918397015  0.0716709090115537 -0.0247956435938974
  0.3674271194543767  0.9806846093519230  0.1711399935622294
  0.1436741313877360  0.2343699014709326  0.4363012220473105
  0.7673218304265635  0.9924721662541477  0.2671750385296032
  0.0757448113222501  0.9315337377176275  0.5828160367328559
 -0.0159882026287620  0.1363977872139572  0.4675516381268195
  0.3910249954794460  0.6957613752401680  0.6381823862439659
  0.5419227207816565  0.1591884385934673  0.8419034618161138
  0.6687863625823794  0.8596367005809136  0.5379514200168298
  0.7911004972151150  0.0425638523430270  1.0386592831281722
  0.4463951771203433  0.0271093121934910  0.2694400438312776
  1.0031938178892124  0.8389305229630962  0.4980825006326686
  0.2200922417923700  0.9737445760041964  0.1784423458577892
  0.2806046880168596  0.8535386907368359  0.4926197411726619
  0.2649233052443868  0.6033340543475301  0.0230882994966966
  0.5797240662464593  0.8985817529706389  0.5468264506040982
  0.3955502483512889  0.1154608459404181  0.4452341519139933
  0.8664864883749841  0.8961536838457821  0.5811581908733696
  1.0017262251347754  0.3882335426617791  0.5571065292732749
  0.3635857220209368  0.6381668454660856  1.0254791436487938
  0.7463729929966577  0.2819440590211770  0.0725104584487397
  1.0351509410732511  0.2833300233231250  0.5142924358150291
  0.5512502594238978  0.7809018072861607  0.4307485132163796
  0.8827622017157143  0.1711062725776245  0.4769187358351161
  0.0268925083759453  0.8770029248182513  0.5873644376216397
  0.4752313904109836  0.1667367253596083  0.8800095121729418
  0.9429063384139049  0.9436676906284498  0.6214970072929801
  0.3945599874216715  0.6002276880268406  0.6841888078575460
  0.2663313990460099  0.4303765500579460  0.0367368763844221
  0.3950790262276407  0.9731493059654643  0.2859423505196024
  0.5250740410154461  0.0384673246897635  0.9845067146453450
  0.3921877861891158  0.7957535801518073  0.5371307141114704
  0.1030725509709614  0.9885261800246534  0.5106049359300840
  0.9071917298364220  0.3182235385095492  0.9406905959008486
  0.8749744853405791  0.3007087590144399  0.5202226440542966
  0.5439860516941774  0.1970189554335655  0.8372599526431368
  0.5739510037935107  0.7798513207004463  0.9506442956793123
  0.9147793929698885  1.0168541591337996  0.5591440954379637
  0.4938135003041177  0.1948166433784072  0.9699324713544252
  0.5239915575452159  0.8121240685298967  0.5626594808979691
  0.0574235185695746  0.3815007739338022  0.5124579575120856
  0.9486770854038953  0.0865229083312657  0.0396668551944805
  0.9206553858174872  0.2525287429143820  0.4518559297214388
  0.5605748916621267  0.1546747746743819  0.9129165340399032
  0.0266070637785894  0.7857153571859633  0.5717235382824284
  0.7067001691582674  0.1566874784876898  0.0534366271610391
  0.0190718975772232  0.3441898068849233  0.4628312479165066
  1.0149125878705674  0.2828902169920711  0.0494571900711413
 -0.0325994362167091  0.8371646589625588  0.9235488690639546
  0.5994594051231722  0.8544104674071540  0.3864656440898018
  0.1367019424669698  0.8391670761726308  0.5210930634413431
  0.5827449077556839  0.8863943302065469  0.3959403693181726
  1.0108004675442563  0.4145606187778828  0.4348192063948561
  0.8185570825395135  0.9453007651568913  0.3186378649538950
  0.4898602053723846  0.7856163509009144  0.5015869313082125
  0.3698112726947109  0.2466776069094737  0.5133225585343122
  0.2627536581882777  1.0023603732362101  0.5520130364887712
  0.7377643576820436 -0.0266474463388122  0.9836467224799990
  0.5270413945582755  0.6537592812328292  0.9843188816703108
  0.8582446185660079  0.0823330503991001  0.0705051236949197
  0.5469054563577168  0.5856446229796559  0.4723844019431556
  0.4220685396531944  0.1555389955449228  0.9252040892882830
  0.4663549385784777  0.7757365652752319  0.4713914184629883
  0.7335115661570426  0.3793897539107608  0.0349533438722160
  0.6418894122263896  0.0783282645448274  0.9970978993588356
  0.4881688887036547  0.9623467584847134  0.6178146446562226
  0.3189111056168256  0.8215995829557966  0.3680868660628732
  0.6722538931894655  0.6341319176559931  0.6426728977938782
  0.9145321647007760  0.9002425702939074  0.6036084940017226
  0.4926261995150853  0.7697723613868973  0.5506788285222627
  0.8243393304025595  0.5767801056555552  0.8704074009447473
  0.7706230144317980  0.2887994037512802  0.9765715475209260
  0.7718506105878148  0.2761337920643800  0.8117174808913747
  0.6445893884319818  0.3140611270813984  0.1220688942367664
  0.6789215578316874  0.1959275397110203  0.0650370934501416
  0.9292825763774630  0.0109719768791675  0.0971252841849600
  0.7862037942799250  0.1977663653155694  0.3298809793879681
  0.0249955275047914  0.9203939698615808  0.0347731432051336
  0.4782311852122170  0.0558583176164335  0.9779781448162701
  0.9599920709271342  0.9368713980780897  0.5703719431855653
  0.8306476409284532  0.8404730865862178  0.8659275427329285
  0.8183587833108893 -0.0179025165990430  0.1845318401410157
  0.1187327726158723  0.9469893701411700  0.2667074469497108
  0.8674961054054298  0.8475587208414948  0.5968449929821614
  0.2649402473416459  0.8269678021477735  0.2370898788311915
  0.1568007690323794  0.7582298098742605  0.0498125097513410
  0.4914596961871388  0.0622550377410486  0.6359444421205822
  0.1677438580753298  0.7472654424109981  0.5034430765434749
  0.2474124393386562  0.5809172099981309  0.0687008373701818
  0.7041954334109608  0.5942642346498165  0.8267236454425582
  0.4050270214097629  0.0199220680530872  0.3009366476976463
  0.5220534463890639  0.6092313886549569  0.5597980729877736
  0.5049465681648271  0.5321356938365294  0.2310198969179771
  0.5379197651295101  0.6662818728932282  0.5402901171979041
  0.6081628512021786  0.4371320977592634  0.8404475627804773
  0.5983721297706858  0.4503295002717123  0.7802630107188947
  0.2070684722832287  0.1615577406660723  0.4427290332211604
  0.5056575329521300  0.4689755223987932  0.0242436157484662
  0.4592088899505329  0.5921205676290152  0.0817940707109482
  0.3453570267056899  0.7573573737622099  0.0535594642250115
  0.6623857929244963  0.5115252251549764  0.0101057005487174
  0.5271329945577680  0.2189991726262249 -0.0000671988787948
  0.5093056755092693  0.2294840288594368  0.9366573267714300
  0.5271924570827854  0.0812580065102972  0.5308077930668001
  0.5083788685280975  0.1345510480608915  0.5186964988329581
  0.5220829142893231  0.1245542650227599  0.5791162098438852
  0.5724118774235925  0.1622030964888129  0.6491262694996178
  0.1580079201689070  0.8008569715004009  0.0943285669778453
  0.5095795049659531  0.1698414814681291  0.6289503463743336
  0.5611697260450560  0.2075523150377569  0.6945485862559444
  0.2949732854842618  0.4395670555314877  0.0752527694995737
  0.9228790063969866  0.8380901579446473  0.6197505740534017
  0.7723099162826870  0.6858862511519276  0.8720454173501484
  0.9838733776801455  0.0920228090971734  0.3837976840441897
  0.8376138983360769  0.3123340881835606  0.4890095031185716
  0.7444212452561494  0.6429178580467363  0.8327066801344376
  0.6447680605806790  0.5995024905463814  0.8054339532060621
  0.6344313690348282  0.6147868019471784  0.7440515269893232
  0.8984877139858319  0.3067871194073932  0.3931945854456249
  0.6057431818086974  0.5717924091153580  0.7066044746807356
  0.8833598000142358  0.1259765311451499  0.4509928646924989
  0.3591227686179606  0.0875006025742880  0.5334618476783650
  0.6984481761832305  0.3591989254331406  0.9415775203007091
  0.5992363607166511  0.3181089654061879  0.9152810181939979
  0.6297890985091653  0.3491758230058858  0.7518851410171464
  0.8524284198872103  0.9357355209871484  0.5176545987952403
  0.7105439030031087  0.4708542093883883  0.3194246356505561
  0.6457524577580511  0.3795686281667275  0.3299462295366062
  0.4458687024235237  0.1227471003308589  0.8928413396542938
  0.4558872942560082  0.0773641236332816  0.8499607191634908
  0.6926634859030739  0.3178084611658909  0.2552519389925983
  0.3951658083844993  0.0835156152209692  0.8271276248669927
  0.4059966520770562  0.0716154584714830  0.8908520674089979
  0.8376612788644933  0.1814457624404532  0.2956798321855112
  0.5974133866306011  0.4195035380556265  0.6757708499329088
  0.8933056968120267  0.2913888193854018  0.4663026062595118
  0.8526289150315369  0.8904765248495877  0.6333019586683385
  0.9899289678049017  0.1392157360356917  0.4193033834214061
  0.4114726466192722  0.1268962293613082  0.6010722164201566
  0.5761146248279203  0.6110747613341808  0.5161929422692532
  0.6316339295919118  0.1234767217432537  0.5585289405554495
  0.6573254679659251  0.7621546504738551  0.5467914509418235
  0.4744212998088074  0.7317596319925114  0.5031829784406626
  0.8913674257020434  0.9660095195527756  0.7555666278260771
  0.9628850051035343  0.9420727936661265  0.8404543893610557
  0.9304666005692639  0.9852175182628067  0.6534153832347637
  0.8916483510169383  0.9374966498131662  0.6460067663295010
  0.7097787529967803  0.4385453946791854  0.4419939301778205
  0.5976730897806540  0.5483489746835846  0.5393441974561014
  0.8154170965575503  0.9090724994571067  0.5671317830790971
  0.8258636221822520  0.4348845648653052  0.4808130801258593
  0.6157706690118770  0.5284854768190349  0.6637536705219415
  0.9025537710404746  0.9146005196891035  0.5451077947490516
  0.7924546745781396  0.3409869342598859  0.4596724163614456
  0.3885760383333600  0.3014763029447097  0.5078418277483665
  0.5212885240654545  0.1858032666592148  0.7938145140212307
  0.5144595976068316  0.6391504334773714  0.2580800976200532
  0.5186634499306355  0.6708839335573266  0.3628334095873469
  0.4613402642829224  0.1656522472221171  0.6670620468802593
  0.4228547200141301  0.1144182335853787  0.6610974415987143
  0.4318678768414034  0.9147932614526227  0.4940181754071133
  0.0387253220918794  0.6102732093220471  0.3324554096018206
  0.6654430964667583  0.5645832395151716  0.7285649857287956
  0.6170738595557163  0.4931603337165054  0.5597686264159731
  0.5193782272910962  0.2913876167767318  0.5499380895218507
  0.4185297036454975  0.0130089603846355  0.6405417656879101
  0.4436985757869257  0.0575698430888167  0.6789647918349521
  0.4824783155118705  0.2830557357256785  0.0798963729307280
  0.4283063126605601  0.2714287111335955  0.0132737862922537
  0.5565277767518066  0.0848663158290337  0.7653357300933495
  0.4439283983664937  0.3620155796841462  0.0964421682731030
  0.4968983906524634  0.1295056821940903  0.8506257244514071
  0.4957874016430352  0.3457030724925030  0.0579764176606148
  0.3961462624787513  0.3795373304636488  0.0587685824113969
  0.3964995804343416  0.4840888477535668  0.1522725078713115
  0.6328763834336804  0.2170293892144289  0.8860503925114142
  0.6871488142853551  0.0928285768902058  0.9822926623996999
  0.4008148412913720  0.4536977421364443  0.0477879448027147
  0.5257869664915112  0.0247798360059276  0.8274321669340491
  0.5587207912436467  0.9749078589536185  0.8103987258321671
  0.5468600666055649  1.0011275671328723  0.9525655478293842
  0.5272744777902590  0.0600523936984318  0.9371383454099365
  0.5554528725929182  0.1204039299606011  0.8733575772099947
  0.3522672609452368  0.5803568549444469  0.1043436621969020
  0.4610665921118017  0.0979553525882677  0.3594899021628992
  0.5041152135476706  0.5003223293135419  0.1270166953539107
  0.0205084090390176  0.0091952493378101  0.4440412150365826
  0.4559685175750536  0.5239841068046338  0.7199798033696276
  0.0063208932245584  0.8873712881205730  0.4766853327967626
  0.1310857121469805  0.4567307716073118  0.2997732995856778
  0.4184325077584049  0.1938159087103518  0.3174159754152529
  0.3216272680794789  0.2916492724471580  0.3706106257407586
  0.3715287848403033  0.2729948235896352  0.3372636205872627
  0.3248306211424806  0.3403763371086957  0.4168908514765999
  0.4263602522618026  0.2885076755762503  0.4074543046665833
  0.0480134919371344  0.7158280589709526  0.3601266374103926
  0.2341051955171816  0.4416050894452422  0.3945421090016449
  0.1891453130902262  0.5136726523769319  0.4140839784295964
  0.2933082540156964  0.4752693162786366  0.4051711463681331
  0.1337883410235993  0.5017369785676884  0.3428924120968970
  0.3630534130652967  0.1646729235758418  0.3076636554706977
  0.2411250625635483  0.5197712161564296  0.3174949343785384
  0.3001970751501247  0.5789794892924773  0.4313374998813157
  0.2462157846041191  0.5636920919888792  0.3608197233766729
  0.1390060746000858  0.5895908927006540  0.4348862631204650
  0.1455790123002809  0.6568288734148826  0.4150513872062971
  0.0274683908250677  0.7422293006421441  0.4990928048196555
  0.0608420562340995  0.7881690533973355  0.4660831093630789
  0.3140676998455883  0.1962547604867030  0.2835288658244416
  0.0025916197883917  0.8699367418932514  0.5406937059011725
  0.3591606854683463  0.2863903727811318  0.6127735036936927
  0.4853158196189480  0.5868875333540037  0.6639636073410210
  0.9628536986754641  0.0027781936454396  0.5455519259727785
  0.0505062790682287  0.8356427564418883  0.8362875200862452
  0.7427575759375478  0.3222252783264389  0.3909484464952900
  0.0594841298979216  0.8931256529541423  0.5480271078851182
  0.9167795620897090  0.9764301150730186  0.5904512145029485
  0.9791903786683263  0.9857188220556000  0.6095271898259342
  0.8054515826398013  0.7574674878736246  0.4846493774324859
  0.4721232005063943  0.1195144565462807  0.6184668302965649
  0.4810323704345326  0.1086205927913301  0.6838230676753382
  0.5478306120346644  0.1009527377297582  0.7061099242287963
  0.5959358904042894  0.1354782923530041  0.7683894299659959
  0.5746670359823095  0.1879013333349081  0.0333667111566268
  0.6944312837518252  0.0439528655373503  0.9333226798724253
  0.5863367533842248  0.1781143427697953  0.8164898097159666
  0.5747965057003075  0.1780174219103626  0.0919848565531295
  0.7100429334705001  0.3146666230424837  0.8983848388380898
  0.6791160662043457  0.2519706937572996  0.9548462832686800
  0.4809964983716692  0.2406363496119046  0.5507522769215182
  0.2582479857411742  0.7357161544183028  0.1444853817953570
  0.2102216570714321  0.8124813010510977  0.1667670984069779
  0.6869696492042744  0.5372390977985592  0.8489924831341802
  0.2897847175692210  0.6870516359356774  0.9942524653739405
  0.3083247946185926  0.6320115780510335  0.0196707393542862
  0.6368936445537295  0.4991054771147763  0.7843423730133536
  0.5674072970760016  0.5224585643861391  0.7022773010042422
  0.9193294408424895  0.0168126776898819  0.3369349175134083
  0.9408333392142724  0.1677464744005034  0.3958518208163453
  0.8795378303918008  0.0910670555543792  0.3445239579044612
  0.6428186696536963  0.7038422403399597  0.5637671198129957
  0.8877528381557516  0.1516197033137791  0.3248979292528083
  0.8385142579157406  0.2161876523497078  0.4007731314045687
  0.7123047627821969  0.6835509745111388  0.6488494358528892
  0.7399007775504914  0.7267925629859401  0.6873000093756421
  0.7302432940772340  0.7695322093399733  0.7332857386222362
  0.7699991899592847  0.8186250322678488  0.7380877363768162
  0.4186292551543704  0.2483029549767407  0.5273533495776273
  0.7795480621498049  0.7759960324821501  0.6934569719710746
  0.7831546972366070  0.6853584316803389  0.0493132654709944
  0.4936949284011500  0.4086461947402141  0.2675930344418314
  0.5307636404706199  0.5608199731744731  0.5138534385380809
  0.8206354297381859  0.7920191157197447  0.5920835470750676
  0.4810079837864638  0.8315100067865768  0.4751434617585195
  0.7472626058957080  0.8463405680205057  0.6136207898446453
  0.3697527954950517  0.7754511450542160  0.4513666842249427
  0.7999979139659157  0.8819969642052585  0.6801807973223737
  0.3174624624461127  0.9431805421123934  0.5064898710976157
  0.8616612984668129  0.9033228184614061  0.8102574323648571
  0.3841845931623523  0.9622264933040043  0.4095232403383027
  0.9671061124085860  0.9723576120596382  0.9473517095325544
  0.5327570192601995  0.1682881310565796  0.9528449820838606
  0.1679437215091747  0.9314941048789201  0.2320824675141938
  0.6700504429912418  0.0827127916749368  0.0397658756411482
  0.3029705559362956  0.1908158500166953  0.8320584422324884
  0.5356633560670755  0.9166604864942657  0.5289282619118237
  0.5871416909450897  0.8560889884350039  0.4426841554178534
  0.0443790953187559  0.1353420010877726  0.3254986406922592
  0.3820281475405471  0.3232688828116520  0.9515589219287403
  0.1385284645229225  0.0237775218795353  0.6562000985086736
  0.1647874160854670  0.0682800749020943  0.6975289431721670
  0.5701741197418596  0.7348034600721602  0.6884580804534526
  0.2150849196730701  0.1042948763143314  0.7618953747245333
  0.1554355669628415  0.1112877171819656  0.7413226834042907
  0.8438504525962135  0.2773570081971385  0.3837176632580566
  0.2163359439153306  0.1337719382330299  0.8697885096434438
  0.2871530330413374  0.1143827248087091  0.9509143177968817
  0.2674029853294296  0.1688218019672184  0.9379980435962770
  0.4056000898098233  0.2672455369021419  0.9628538595263011
  0.1857135373602075  0.0407195682783802  0.8234473069241968
  0.4387713187000782  0.4157182214772863  0.7320201281674051
  0.6410184816387825  0.7144573206383754  0.7683647382127732
  0.7188574403224657  0.7227839814509259  0.9595133064036312
  0.5196688495855974  0.6854635993879518  0.3018739154328361
  0.6622423533317485  0.6901405129297240  0.8909712866033804
  0.2444682131754990  0.1980494723286769  0.8111949997847897
  0.5375300622114980  0.4263949928188673  0.6536186626769875
  0.5837336721853346  0.8074914622388634  0.4010191714080960
  0.2063156173193963  0.1175906590161691  0.7000015714543842
  0.6176107461854838  0.4238006730527332  0.9001045600414431
  0.5692580150233590  0.3881625819965953  0.8365880000303854
  0.1813132826205215  0.9884733193760828  0.2107544912249562
  0.2255708279774954  0.9407828927175088  0.1388389798738933
  0.2911100738000258  0.1421895420634194  0.5582280127785887
  0.7481961637152901  0.0592441009752690  1.0161971094451745
  0.3412350944958797  0.1790320730773682  0.6254052510785896
  0.3311513071872250  0.2222141248253004  0.6692097971971848
  0.4020334676868713  0.2038489142298021  0.7513681384537235
  0.3328691650904291  0.2544466174361173  0.7753070974247791
  0.6663026936957216  0.2978059617530147 -0.0000911982910723
  0.4803348763565091  0.3345839304764743  0.8709068106913398
  0.5543701289837366  0.4360248723886780  0.0475622629630287
  0.5294607166309174  0.3727460800908631  0.9383098218810795
  0.5028903441648298  0.4523259609501171  0.0827270347239336
  0.1774468977322941 -0.0023261659455998  0.4430024980547784
  0.2487230313298613  0.0231597857951460  0.6397815628339752
  0.4318113731754386  0.2964625336506628  0.8032326578290129
  0.4091324883594160  0.3238202735183971  0.6793366132624425
  0.2582159426572370  0.7531157105253746  0.0885995076939202
  0.9972458141311974  0.1980669588320362  0.4024489956372455
  0.5849959087157039  0.7915155097247886  0.4647340465548950
  0.2198044708797798  0.8940283668613251  0.0911331920605332
  0.7157237043512839  0.9568949517025781  0.0329264482430712
  0.5520213987584446  0.4536209604126725  0.2137225653548175
  0.3617080317610188  0.1329838871398570  0.2035481852139690
  0.6589018468545496  0.4128037719222943  0.6983417430685473
  0.6970858054256177  0.4623870618753835  0.7016893440367699
  0.4554176050739027  0.5627319385926119  0.2055315773828850
  0.6478815564247170  0.4558520838464734  0.7409229650377064
  0.4072108587519237  0.6095052971387033  0.3447502547591186
  0.6981310556891065  0.4915945911418244  0.8066118110013824
  0.7375934300414997  0.5418056733703487  0.8106808289974442
  0.4078899872846702  0.6233870969215222  0.2830558574499306
  0.7740326337039954  0.5712193373026916  0.9091768140358155
  0.0790849675985704  0.9337180507354084  0.1084409970715727
  0.8344576906276974  0.5548236237533409  0.9938730327401605
  0.8727775012977829  0.6121240614824820  0.9392851697552937
  0.8709396507794626  0.7253542050635999  0.8992909720379918
  0.1559289473033119  0.7820669865221973  0.1546838919795350
  0.2106531976178305  0.7949496707547162  0.2253688389183002
  0.8541631037925153  0.6397916740967328  0.8153968347973952
  0.1086201935526482  0.8581667555517648  0.1750688542895877
  0.8249294130305991  0.7492293180069738  0.5490030505438088
  0.7619502521374627  0.7608528218763202  0.5240225940072821
  0.1632982298851335  0.8878394047907043  0.1860342681104106
  0.5447953204788650  0.0074428145842283  0.3905517096196854
  0.4315075201361910  0.3982762461467990  0.5596913144496917
  0.4132884639176133  0.6870923636489262  0.2643811379129682
  0.8707115118414681  0.8317113137991113  0.6576867496233874
  0.7440490861390123  0.6052779187880418  0.5218949008026567
  0.7081276075939719  0.6568500979926079  0.5375473110221481
  0.5797573204159924  0.2391101739940588  0.0735197926060712
  0.4922197901308122  0.3765923122258662  0.1625198277422460
  0.9019894371090116  0.7885092138392805  0.8417744065771842
  0.9306292397137800  0.8509920264333815  0.7880438873962319
  0.4448510190855919  0.4074794518079523  0.1361320469797405
 -0.0281016519762677  0.7866628616520247  0.9258596234824746
  0.9304385983776587  0.7573404821298109  0.9635952065832558
  0.9357109000350248  0.8740363575722707  0.9036641374922060
  0.6094909081275867  0.4972736443779969  0.5010606939924949
  0.4517589473990574  0.5149550593667531  0.1605228661562989
  0.7550361553207403  0.5899389294224477  0.5879212941990928
  0.3509238742953567  0.5638908503467945  0.1676499218521539
  0.3537706924880561  0.6109350117445398  0.2105836928424560
  0.8438451043494100  0.6535221626281394  0.7540147500981714
  0.3596627857925400  0.6723707494456347  0.1952151002549140
  0.2576077453460042  0.7185365859165747  0.2053363803799679
  0.7919162460371139  0.7921572802858021  0.8617792276510756
  0.8682668168970997  0.3516772101584363  0.9489775811575653
  0.8408737327559276  0.7675447496053739  0.7155061112569431
  1.0313106933715070 -0.0053963083313365  0.1906391048863112
  0.4537373728593204  0.5483590292324280  0.2661602587333528
  0.5092201255198329  0.3964630689741526  0.8146303860166066
  0.4591124973522270  0.3604586930248103  0.7465826851764761
  0.5626265084598312  0.5784001948256340  0.4113574488251158
  0.2174523284655965  0.8835227978458519  0.3223123116898402
  0.5596400930526055  0.3716590082979204  0.6657744257839785
  0.6689034336677031  0.3974925541712100  0.7572231800384672
  0.2694845564142888  0.8534321723477681  0.3446221011727650
  0.5101432398696922  0.3350827822285039  0.5968634768054840
  0.6298373116241750  0.3183507793069378  0.6444688093141214
  0.3160438834932641  0.7954301147739097  0.2604368650949120
  0.3671596558556549  0.7638401551794566  0.2855545185468276
  0.5123169946483778  0.2019595276757465  0.7338607164935965
  0.4164005458408975  0.7150360814098738  0.3713945996723210
  0.0508308827180194  0.7536400501466083  0.0117499788784714
  0.6450624543287253  0.3470538865726177  0.2266671599393244
  0.5567145064122152  0.4832276376685493  0.0912616669823370
  0.9503812787609759  0.3905354045019342  0.5201061978908654
  0.9916591563207986  0.4292071256325672  0.4817063703865700
  0.8178464279281007  0.5500713871215069  0.5054213619167435
  0.6783517224244709  0.9278843087464529  0.7447966433087110
  0.6688176804777711  0.9710920729703134  0.7885703679627760
  0.7500723115313251  0.8759674601910806  0.7209981019289915
  0.5573949096611822  0.4989303260996305  0.0326782465129566
  0.3292556910727622  0.9427701532912471  0.3401772513731187
  0.4386820214146595  0.7862144777561131  0.5190743821634848
  0.7081712305142479  0.4784192489705130  0.8673829181878607
  0.7175343874434538  0.4638741203062559  0.9268038775894485
  0.4112034804710209  0.1712019579301774  0.9712805788317649
  0.5111258518348090  0.2344301742434958  0.8414308781123788
  0.5732111057521878  0.2274689975952073  0.8644784779013399
  0.4827643028095850  0.1377314515541702  0.7898863338432267
  0.4449471690110551  0.0885903048050649  0.7875779432924580
  0.3948845547048717  0.0517411560406797  0.7196523357611594
  0.8793075210487838  0.0579415976866655  0.2384446410587746
  0.2795195551696471  0.9476915853332673  0.4385066527589388
  0.2188482239183585  0.8704966343790489  0.3832328691274198
  0.5465892364101550  0.3233521919823396  1.0166814471909560
  0.8611813234545189  1.0064560898775008  0.5673580560029139
  0.8048783463290686  0.9657333133348550  0.5538891153572055
  0.3709319052569761  0.7924338044189588  0.3915997527487101
  0.6799466186001155  0.3846568377203143  0.8180563216475942
  0.5616419493129142  0.2361868563990525  0.8020045093756701
  0.7384519380356526  0.2417725685489650  0.2404224074317628
  0.4797556890977449  0.2718106551825498  0.6556518887563316
  0.4285489733827926  0.2349813363889236  0.5874139351976086
  0.7310272304445432  0.1478260183742937  0.1531238587789345
  0.4493353401788823  0.1767694369478099  0.6057950058712975
  0.3828303380164474  0.1943845082978443  0.5172060977568045
  0.7197523002478791  0.0422911438667326  0.1293075645961324
  0.2685436425813197  0.8631102970188487  0.1135285061480810
  0.5626148462373645  0.6364497934488190  0.6627971373373586
  0.5398259600346992  0.8066348165164233  0.6112715750260405
  0.6806278805576345  0.7639967396790091  0.7742140423632230
  0.8981312032931152  0.2735441772922576  0.2870830698503456
  0.7974693189628450  0.3195046884370596  0.2926545121323935
  0.2014278368375199  0.0852154374312625 -0.0074906178806516
  0.2465894334148373  0.0639958227342195  0.9525940158129130
  0.7634923421734638  0.5646121444124473  0.4837753832347420
  0.7246639413113235  0.6057057649671090  0.4566564209321262
  0.5896696102303816  0.8991425547948386  0.4963320442016026
  0.6191904102252807  0.9357552720672575  0.7244276918822700
  0.6448542474213318  0.9792904370332098  0.5506064520872002
  0.6324493960736681  0.7123844765553474  0.5070370477349317
  0.6889156834814630  0.7394033780072135  0.4593609551466454
  0.5391304229515006  0.8000942901918193  0.5121637056899913
  0.5599947566219265  0.9112319037919899  0.5914111009986480
  0.4888659739449793  0.9621266258608160  0.4422525794790662
  0.4505665425304411  0.4341025755169023  0.9560441129843776
  0.1288676817099969  0.0358314533482250  0.5952073138556350
  0.0697741752723466  0.0260714140590766  0.5173396144161150
  0.1826403371907128  0.1729032824542727  0.6832949846316990
  0.3074003865015221  0.1506361394697952  0.0096224918278657
  0.3172225911486236  0.8252793672878483  0.0397741444720501
  0.4894929595224664  0.5321101376428281  0.9500969431544607
  0.4848598575018058  0.8293342765006139  0.5344306168016695
  0.0626350139039233  0.9328941715941172  0.1949561454145454
  0.6864115864406443  0.4749131061083111  0.6418870073642703
  0.3954529645324495  0.7402144090214400  0.0218893040774657
  0.3747547630914163  0.7974701487849917  0.0085578140636868
  0.5288776318943239  0.8501711020781456  0.6543621163346849
  0.8192720203548830  0.5162548652125908  0.4018242640219639
  0.2225385493990680  0.2241095217663696  0.6880495237061386
  0.2351286693355484  0.0777868088155068  0.8892737683772539
  0.9692282214315677  0.4401140091110510  0.4217184024751909