C  Cr Ni
 1.0000000000000000
    38.7782925608872873    0.0000000000000000    0.0000000000000000
     0.0000000000000000   38.7782925608872873    0.0000000000000000
     0.0000000000000000    0.0000000000000000   38.7782925608872873
 C   Cr  Ni 
 106 1596 3725
Direct
  0.5236200311834437  0.6514755091322882  0.9848263077992218
  0.7891533272916987  1.0104416709479229  0.8150016112412550
  0.8488867946820831  0.9018092798201787  0.9572372239539318
  0.4929272071240816  0.5973552631150680  0.5102976865840905
  0.1348242259118457  0.8373278465671814  0.5184357115239981
  0.1025377682977697  0.9158984832925237  0.5261122338852272
  0.3753223820826962  0.6695011255157993  0.9559003275357031
  0.5180570972065162  0.0295506765531721  0.9810165088889232
  0.3834287113575606 -0.0013026223670647  0.2568879501711848
  0.3612095506176036  0.3745700629271740  0.0785689279407390
  0.3991669150403866  0.7636619256188638  0.9709755019559102
 -0.0446917633326659  0.9466813987463026  0.6191142877020460
  0.4756137711072252  0.1648160498792410  0.8803504917417605
  0.0834250015748478  0.8436025609520965  0.5811799218424519
  0.8796885467733103  0.1739676974401122  0.4770496943993620
  0.5521070835572093  0.7793720300112332  0.4309807358169664
  1.0335968149985584  0.2836157856369951  0.5151137461729679
  0.7432727469869322  0.2791843089065653  0.0713365714470556
  0.3629308831852923  0.6369977285936793  1.0245239748036226
  0.9793489219135727  0.4177808461184799  0.5281841367644310
  0.1031136271765592 -0.0737817446497104  0.6253288329595781
  0.3921226224907819  0.1151550944742716  0.4465876935060504
  0.5783518878496877  0.8998709052814019  0.5456833122816132
  0.2646864531501255  0.6022349117727031  0.0219146931419936
  0.9147903646072308  1.0153249662798911  0.5609583598057281
  0.7199339863722740  0.6436674634913444  0.4889600738097084
  0.4829681026608693  0.0005547241309340  0.1339846552933414
  0.3238381086511497  0.9605517194443806  0.2408912560166745
  0.7276896156229574  0.0785128301168680  0.0178411784991752
  0.2764076603688054  0.8469174341569897  0.9492342595542131
  0.5217039782333406  0.8140552029088415  0.5617422303139870
  0.4967861124009193  0.1911848461041780  0.9742363799341960
  0.5746117221309740  0.7808631468600349  0.9493539977551676
  0.9476144379769216  0.0858918584440877  0.0387858505254259
  0.2771974927799330  0.8539703941085902  0.4909389111582004
  0.8723594545686327  0.2994839749017620  0.5197952203543691
  0.3671705195560818  0.2481770747559934  0.5144151277059691
  0.4857223444370484  0.7876036152968208  0.5008199377434157
  0.8185537100133603  0.9442474056580449  0.3188933825472663
  0.8371191577913302  0.9557283135962694  0.5731704314998228
  0.6659182397885368  0.9063009691621232  0.4343328732209418
 -0.0557200998932997  0.8200791075872113  0.8975975465846301
  0.1880795369051398  0.9497358741451806  0.4902995281274608
  0.0221542796507623  0.3444975861395977  0.4694637155431446
  0.2525644999782729  0.2746073276545181  1.0074276916629206
  0.0228028369229419  0.7753590177325256  0.5803024905325811
  0.5550339024294568  0.7633617132589603  0.5072927029548168
  1.0160298355071156  0.4131523875635566  0.4355837784573766
  0.5800996905543472  0.8893860185928650  0.3994777509811414
  1.0530088471289205  0.2112718142095743  0.5296253269509034
  0.2205644967523552  0.9726436404583789  0.1792352438405577
  0.3253703468360809 -0.0074060255739189  0.3356795592425952
  0.5619355383777737  0.8342308778062887  0.4754068159356690
  0.8554277989916623  0.0816241014390505  0.0690082233918641
  0.4196934763411052  0.1590537238672334  0.9235777066052854
  0.3719530352158902  0.1402258215784999  0.9844420626907529
  0.8021026403739409  0.0220199965607884  0.9519665779121591
  0.1201201418638754  0.4151745456103240  0.4736414688443453
  0.1900014616800703  0.8820854613735163  0.5199218390283830
  0.3945197470431364  0.0234216957804640  0.3479915228063560
  0.4319241131315152  0.2478901378041835  0.8931717675270165
  0.4410131988407892  0.1840126934962331  0.4149690239557189
  0.6893173296709597  0.1667872642956086  0.4686229120824104
  0.0026726368243880  0.8053196046822440  0.5009239177497692
  0.1720933423812909  0.9446470051999478  0.5871106103717860
  0.3960475310671021  0.5778050047015405  0.6790443552174066
  0.1051105062165203 -0.0159525468276125  0.5063868920987338
  0.1878019154690795  0.8235834050857513  0.4714092327313096
  0.7455602726212431  0.9210798655574781  0.2927713246375420
  0.2724449921755479  1.0445314295733288  0.1193071331469562
  0.9446344348539357  0.9556741157975647  0.5423489152168823
  0.2879177583130704  0.3369204379927759  0.0697109634496897
  0.1934567246414839  0.6257216524164964  1.0030569438765318
  0.2667878740379547  0.9315131764979807  0.4846090297467621
  0.5800981931170194  0.2392250194929520  0.0203119668171398
  0.4169928253324915  0.3089386515207629  0.5307220236931693
  0.2574432095653604  1.0000005203790563  0.5531169227485148
  0.0687049812137494  0.3816180695233191  0.0888881325193223
  0.4073574613760982  0.2202588823781350  0.9776182846807456
  0.3456888430674590  0.7992295054902595  1.0086362817196157
  0.4607059084309101  0.3817314470140969  0.0572471880743856
  0.1855914144224391  0.3295417322524654  0.0298045636521139
  0.9992811177955906  0.0964072988713677  0.4916348823753661
  0.6701318286965775  0.8585488455617598  0.5403814804072794
  0.2675074152107260  0.9191457036587324  0.5668018416952666
  0.5474831091466527  0.1660293153863788  0.8447542576513123
  0.4212231980225731  0.6703513128211148  0.8312495841623124
  0.5635492290747508  0.1547479705959887  0.9136167741396894
 -0.0431404720537086  0.8720985648302633  0.6395398615061924
  0.7681155320742031 -0.0064188286410810  0.2686638501560745
  0.1442800088311740  0.2362131659089363  0.4365764110468995
  0.2894177460120146  0.9722307936809981  1.0052883328213047
  0.8747534017019292  0.0003444592963392  0.9742190967409750
  1.0536072552167484  0.0674137748098541  0.5322423190615893
  0.5292625570952457  0.2289259995603616  0.8889697861839464
  1.0552523504756302  0.7325468979671903  0.4572360583368581
  0.1906983288572418  0.4152737815457542  0.0259268416562831
  0.8470410400638113  0.0771005596218732 -0.0269356694417698
  0.4479003328278429  0.0276945783140716  0.2685883863706140
  0.8488387674458640  0.9874853346640955  0.8969204142512238
  0.9927687659572251  0.0266598506623816  0.5154003571358379
  0.7402294068109697 -0.0009241989875339  0.0026982895682271
  0.3867273728896151  0.9461266051213733  0.1947098860873633
  0.7442434895365688  0.0688727853305062 -0.0158497054178567
  0.0877620783049574  0.8258414201961344  0.4504920536092291
  0.5732853906049735  1.0303176208182656  0.3564396460458182
  0.6226041941950805  0.6582404792082952  0.7891857256596614
  0.3802498885110638  1.0047874747841852  0.9505204632720364
  0.3788156279431767  0.5128431512642611  0.5345475381738333
  0.6335494064661576  0.6450654473906039  0.8515049788636382
  0.8430548869879531  0.7441460072622365  0.3976236808617146
  0.7104589753780657  0.4533665197193080  0.1534953093611363
  0.2043242017199155  0.0881346148016008  0.5935280995496166
  0.3553819500131253  0.0314462084337849  0.8240910751583117
  0.4419590616291880  0.5087519860356929  0.5514432298753063
  0.5916103194762495  0.7083237343110157  0.8114105317955295
  0.4651562430558121  0.5580580788286200  0.4958415893360243
  0.0774853273331113  0.2621231839153224  0.5223725740132007
  0.7109006810187720  0.4864673992310453  0.2588867403637689
  0.3801716450619405  0.9762754668304638  0.3465981238304504
  0.9355922790624775  0.1202666547152132  0.3543517866715883
  0.3904012300602344  0.9909947096643964  0.0166507118211461
  0.3885353294821640  0.4399289112224030  0.8781349725231323
  0.7673852294519994  0.4965399174340150 -0.0076902562871284
  0.5851928146567649  0.6086233132619847  0.7862544812982742
  0.7241456469258575  0.5469410734646365  0.0150462084461397
  0.3527640986378642  0.9634414308695235  0.9142646224947923
  0.6103056781898512  0.5317929987385759  0.2665832910887439
  0.1022599413490581  0.2701309485431215  0.7524200116396773
  0.1524072546299621  0.5294878396891061  0.5089880204769224
  0.2092795812286706  0.8066016152737183  1.0006930368041203
  0.1647653794299877  0.5470663601628224  0.6803747375049297
  0.1258395848568996  0.4972172366603824  0.6725294911222942
  0.2039472396824390  0.6075645220515796  0.8861399639059422
  0.0662403629502751  0.5052066413330810  0.6521408312487312
  0.7948636000990372  0.8276780969168749  0.4108378710427993
  0.1160056903584667  0.5120087675220117  0.6112431704748768
  0.0775608287245707  0.4603885226561455  0.6084832078896684
  0.0280758560458301  0.4221714346430746  0.5384322045749733
  0.8841413179476491  0.6406569136257942  0.2695453516131374
  0.8065564189610472  0.9928304757078611  0.4240991685973676
  0.2161258676181624  0.7683670079862500  0.6238263942450236
  0.2867034035676510  0.5323087053059217  0.7208289531804276
  0.4152382524845654  0.7986983150120938  0.0654184944154911
  0.5597697530487112  0.7949657148197100 -0.0002354804252346
  0.5204990561534002  0.7319223697362726  0.1186249502829209
  0.6711016465639622  0.6774828163976647  0.9543827322450195
  0.1371650189145067  0.4535272476754641  0.6273783718795807
  0.9755043044332539  0.4691584671267581  0.0699921601166844
  0.9959377699048912  0.5577518125686954  0.6764005030631909
  0.9229610568735936  0.4882257689152093  0.3316826854502838
  0.5536715077365779  0.4871197237043892  0.3191461733995911
  0.6607255974681695  0.5165767210005345  0.2318305617487457
  0.0949467283392723  0.5701797718294668  0.5959244787574965
  0.6837260025789542  0.6804548971390501  0.4768094345520825
  0.6013397830937038  0.8601787989854633  0.8424548857168683
  0.6757517316820092  0.0707827576337025  0.8111544282937160
  0.9666541124430371  0.2391672103041490  0.9335623697618984
  0.9227028975548238  0.1889421472685308  0.9272103024208587
  0.6154456271558365  0.0370482167493060  0.0868091858714415
  0.7968031459942863  0.0723038302385202 -0.0384993608950788
  0.0132259470827637  0.9304090330702284  0.2908418885396431
  0.7874023431280093  0.0647856090396025  0.7920055833257256
  0.1095608257875512  0.8410157863315054  0.2348360181863235
  0.6481740425737925  0.9981454412065947  0.6646181259407035
  0.7744324030956073  0.0829870166633765  0.7293654493615122
  0.7067228422102728  0.9600742288550693  0.5782524297790437
  0.1009647072725002  0.7331287725431341  0.2051965392735221
  0.2032698629765758  0.6878566311121221  0.1945529435361966
  0.9821824276958485  0.1840192049922885  0.9517445357991304
  0.6964649664405184  0.8995082995571627  0.5354113930626521
  0.5363916346587385  0.9356915227840692  0.9739704005082831
  0.2130620770375546  0.6322315300640953  0.4996408445928952
  0.8656656612842736  0.4422472708223722  0.3825011190432120
  0.8742935869590509  0.5484010848864044  0.4105704074572122
  0.2204161670550613  0.6633629713873174  0.8640603209924795
  0.1172270249620057  0.5409425534380525  0.7185360877683707
  0.4120482655165791  0.1769260425977025  0.3763638168320252
  0.3999568871109079  0.7404228496981138  0.6913233934086283
  0.5684077880350684  0.0870482129984554  0.2297435403471665
  0.0625180585691426  0.6206454541152768  0.6135156298063734
  0.8253450863813240  0.5774349432384966  0.3837684001689755
  0.9808138710781625  0.5491140310211734  0.2185888974522459
  0.9900676062422227  0.6736771317911333  0.1833299720436092
  0.4099685450403891  0.7274944604951031  0.7509607307270688
  0.2044072899742662  0.5666796263317135  0.5794090892894485
  0.7317145332402347  0.7649196856986206  0.0628985656691653
  0.9804003621442849  0.5365336854176350  0.5087579781347399
  0.5478918915214054  0.9866553072635711  0.7462581952193714
  0.0781658097138098  0.5216289998317045  0.8196559094347863
  0.1290979134073258  0.7422792882360256  0.7652125162154004
  0.4900215685509239  0.9934906686212476  0.7262991945290285
  0.5155012686126857  0.4860873866256244  0.6382106737752195
  0.3020161113845177  0.7624638155776855  0.8747954481937702
  0.8373208162245633  0.6877251185382743  0.4108999460862764
  0.5992896502535975  0.8887499582236786  0.9481078223478741
  0.3768229982260131  0.9453976521038047  0.9760763386505306
  0.4612029373525815  0.7671707490686338  0.8149913670127220
  0.3893124374066300  0.7535047624810735  0.6295257796832580
  0.4209653822656730  0.7182321832389414  0.8115602487701719
  0.3747056585970324  0.6786051198660029  0.7420799146117698
  0.7903572432256692  0.7064809464774104  0.4459232057675575
  0.8679777124119428  0.9678853657987537  0.1506450593545837
  0.6340698919232898  0.8542068584271629  0.1222703619234129
  0.1361684851196002  0.0349338265129309  0.8663325327358179
  0.0278704101817356  0.0677772041222459  0.4211400966011785
  0.0383372802706086  0.7901775952790956  0.5344041444304154
  1.0562786331223268  0.9374599173352655  0.5919034002126567
  0.0578752226804802  0.7633570999805673  0.6829621306658267
  0.3404998107106947  0.3090979639728016  0.9947371079630180
  0.2272403022394503  0.3209125950154388 -0.0014695436499713
  0.0719655245605927  0.8843485368619814  0.6095364437126225
  0.3332419176644722  0.2844486901092554  0.8815796048904271
  0.2342634946298779  0.2406699735906770  0.8535265001009626
  0.8540051815201665  0.2113794398225136  0.8456799362721470
  0.3751898842931699  0.9490535861743739  0.2426216514032899
  0.1022689182206642  0.2379632598662946  0.6464870254550079
  0.2239201062601894  0.2548888348561564  0.7949337221285444
  0.9537965971433409  0.8058891101316341  0.4209405668582630
  0.4887005591519735  0.9640502079372038  0.2147894558293980
 -0.0002672646706856  0.2272443513137710  0.2815809075685726
  0.9558806566925574  0.3027983186352312  0.2969457526601841
  0.9029596819768503  0.8835639628719643  0.4373775535507504
  0.9540602880635807  0.8666709741601194  0.4062813948680431
  0.0682121332911267  0.0861445484655079  0.8859264866561235
  0.5835851326842286  0.8698266200398592  0.1572821565749306
  0.5437486917235120  0.0088595499988140  0.3903684295995693
  0.0543267361180710  0.7367984484830126  0.5750278058510316
  0.6025283673035409  0.4396176437259397  0.4057519478539678
  0.7263650568699185  0.6245629706055373  0.3934029867757974
  0.8316301374508930  0.6401423867200403  0.3665868956770031
  0.7763579486181058  0.6087660179134270  0.3588427693485595
  0.5087403957127670  0.9385177719184187  0.7428453578908668
  0.9858457258224015  0.5932194488084001  0.2610713018049739
  0.8716783977698721  0.5177122971305572  0.3044628036087610
  0.1573337242584139  0.7016702764609569  0.9488569069853239
  0.2239254846813395  0.6971696836112571  0.9742545634597707
  0.5072047971031063  0.9058897692551511  0.6356096096598775
  0.8626737972545592  0.4094870725358113  0.2786780200009540
  0.9149853336133570  0.3940626225734445  0.2460710163694473
  0.8922761250893553  0.7463667014935530  0.2998687407935998
  0.9668913243460500  0.3790899459138008  0.2135114781851424
  0.1450888654001885  0.1547888458171620  0.7864458560532367
  0.5332103385584147  0.8691190805263752  0.2545622103839597
  0.1440010233445095  0.1255491479777556  0.6786589074047309
  0.9526893931123369  0.2722839730974043  0.1924720329008689
  0.7043949358285719  0.0338422960451813  0.0025884996359302
  0.6315841874180692  0.9542529660798886  0.8925392513906706
  0.7310634453046672  0.6844100983665411  0.3767959304936266
  0.4316488110069666  0.9494488258393504 -0.0033234985761722
  0.3811128786883788  0.6640403775220108  0.8022915517504773
  0.0935764214500027  0.5774782883843212  0.7976445375224255
  0.8352828823934059  0.7011033109900245  0.1206438644023718
  0.9314413511809482  0.5947521330905932  0.1296878194598620
  0.6856284354842714  0.4447360660874319  0.5342147332952896
  0.8836042855447330  0.6255572376063968  0.1043036139864188
  0.1788499309120855  0.7479332638134393  0.7257001102681596
  0.8297890604921818  0.6210618151531455  0.4238988649078322
  0.3224771048453922  0.7052396446127925  0.8914514819101129
  0.2908418882936175  0.6324938353566181  0.7461948711791613
  0.9246026316596117  0.5639142933471105  0.4827116922426393
  0.1234619888213028  0.6420080261794527  0.7415869545210848
  0.7806455245167263  0.6701433621975174  0.1116554921159878
  0.2418442472605015  0.5962731712047922  0.6781703916278866
  0.1819123986399175  0.9922188186347314  0.5126049687822914
  0.7255297732186707  0.7810463465795019  0.0011452525404351
  0.1065222024945511  0.1062992544158901  0.7820363994794016
  0.9087444652970283  0.3484429054559469  0.2046225198905527
  0.8395619530598860  0.7616524915564964  0.1032816750131634
  0.0755828495327271  0.1764258962491163  0.7013227505908526
  0.1470472422513640  0.8194838614961568  0.6477886980135410
  0.9434463819257917  0.1639512654825283  0.1663259635009535
  0.0026208834925547  0.2418112202823905  0.2193934585544859
  0.1096398882646575  0.7920109005313547  0.4177151139436647
  0.6857847215730146  0.8067743990692046  0.2106007348064361
  0.8877081351495554  0.2919445483600147  0.9715515588617841
  1.0008213190104569  0.3616796728670942  0.5918254910682768
  0.6826703148237624  0.8390390106222488  0.0857906965721959
  0.2975954123345185  0.5648593913288324  0.0341766224530591
  0.7672134779470331  0.5466478097518638  0.5445322746062280
  0.6166786814286633  0.3385868884375478  0.5167702217890073
  0.9793016120872629  0.7228496186913931  0.8823870811670285
 -0.0103570039868626  0.6795236912537443  0.8370378821968802
  0.4686169932593686  0.6721965852753613  0.4566668383069624
  0.5102647811393860  0.5928331043096546  0.4519793894294162
  0.5062119658255875  0.5481329255052316  0.3990063423671433
  0.5083599417097148  0.5357661490272552  0.4574470302409233
  0.8533701070841183  0.6101472141112048  0.7095428712667108
  0.9110702920933942  0.9913804729597365  0.4628326382195361
  0.3727794615159805  0.7092921867357013  0.8508193135922926
  0.2022027606481004  0.9865235736951601  0.5688694489635124
  0.1348990099818314  0.2301572950655618  0.9340081309042944
  0.7688572842891391  0.5319124144221042  0.2074294080482101
  0.8647269653994510  0.4237476210302398  0.2168301818559168
  0.1340333063406315  0.9444129348077126  0.4999411868026395
  0.9008472214724369  0.2873204370477952  0.2247362359977077
  0.0352939061518971  0.1568865093400739  0.8044527934294567
  0.1826848935316882  0.9314072447743970  0.5395953705205921
  0.8574742248463656  0.3635529427684921  0.2366469104927411
  0.9689241667584734  0.8385719531123724  0.4791551050160006
  0.8817130961124771  0.2729980323980093  0.7917467984544273
  0.8325763605547121  0.9809922937144370  0.9464880425579092
  0.7758211662886918  0.5610568980346049  0.7103834456783463
  0.2688693266796330  0.8997611478089719  0.9496621388762272
  0.6513188105618718  0.2609784788588546  0.6593035729300800
  0.3631671835862487  0.6843487558786477  0.3618132454931119
  0.9196258829055016  0.7024895999757688  0.7533309524440580
  0.6805542545476749  0.1855046179834133  0.3539717873831553
  0.8815412947739958  0.6743453422441680  0.6543251038501504
  0.9690044402303888  0.7082246592942945  0.7145202535280708
  0.8221092228365718  0.0628989503446185  0.3367918442150931
  0.6965217165817204  0.4313011975549278  0.5956407347181537
  0.7586796696303607  0.0587983203099301  0.5008983795561164
  0.7581939088106706  0.4246697509206420  0.6171838808137532
  0.4819589485356331  0.3694035989278023  0.4604380081330772
  0.9487100448096287  0.3865624558236270  0.7415288272556300
  0.0203494025630800  0.3346904759558828  0.7149433164110001
  0.9095266417529297  0.3369503963080778  0.7358505960866005
  0.5603823833396888  0.0237303964028995  0.0096922546029421
  0.9314197900775807  0.2477654565771930  0.6454673328365050
  0.8608111153818312  0.3005169842506010  0.6685820314872889
  0.8923353730936227  0.1982813068520168  0.6389951568131735
 -0.0003273175629626  0.7949504666105269  0.1534532598570063
  0.8588725276880086  0.2686244952905614  0.5618821907370114
  0.7478575402043123  0.2428110608235313  0.5326856195636940
  0.9781778893877856  0.4798404932633287  0.7913034028015981
  0.8997454965220855  0.3180514422715793  0.5651133033116520
  0.6327725457362506  0.2607484850791150  0.3708006015158484
  0.1477420330251979  0.6725126501741697  0.1245161629751846
  0.2965970022500904  0.8308847685171711  0.5303775212546512
  0.8805905124564861  0.3753435669881975  0.5542454435110484
  0.8801116142817907  0.1287286655411702  0.4524466292807576
  0.5745551294787420  0.1617658351081953  0.1512816685576932
  0.9381198850432670  0.4297532750924254  0.7859502119724748
  0.7690626185710917  0.4389341844822013  0.7833814008434576
  0.7240214734090431  0.1080725229905174  0.3418273648232747
  0.8487736402855198  0.7242028547032977  0.6714650974095904
  0.2708388235940959  0.8851522949225810  0.4527141999725869
  0.7375414767191837  0.2649033202684281  0.4081018080803664
  0.7881404194118252  0.2325492138564142  0.4357729103735040
  0.7890180144319090  0.3830216349714162  0.7996259768404345
  0.7341379407747536  0.2158071458091712  0.3637641027445004
  0.7302276682460884  0.3603690770822823  0.6708812351440638
  0.6696634674284895  0.3677703627906013  0.6484192461126659
  0.7047164497423568  0.3903511890031309  0.5452378207656051
  0.6802826488370635  0.3247849909994501  0.6048489800505592
  0.9926810140769287  0.6165879284630871  0.9779901894860168
  0.9186172533743435  0.0512928811578587  0.4459757837903872
  0.9437548457437587  0.5575407232529231  0.9156802511353952
  0.3253249860593647  0.8509128141095277  0.4747315421414946
  0.9841430580926455  0.5810994360356064  0.8138891313883065
  0.8404141659868534  0.3298664701871776  0.5467447995219321
  0.8889647214465086  0.4554616788943153  0.9325388244152721
  0.0452126031197782  0.7206451352171744  0.1346880337766997
  0.5684233889610572  0.6800455716086886  0.9758608009634617
  0.5896390970170141  0.3795804705134569  0.4276828641484879
  0.5820822156063437  0.1483418247098538  0.7093593148013060
  0.6865643195143895  0.2799287049715304  0.4423039186268597
  0.6901950472954683  0.3411979397169695  0.4252264886290659
  0.8674066709668243  0.5106925003011804  0.9156730545998213
  0.9279374129059150  0.5022061854052862  0.9354299497626390
  0.9808782672897236  0.6887190913930052  0.5748745920633697
  0.2192780071531159  0.9083819372628688  0.4881896965324281
  0.2713036733345003  0.8143830718807743  0.4635287230143735
  0.7718348859869792  0.6462306922661559  0.5614325943362712
  0.8463440098809797  0.5095961226004396  0.6877758931263706
  0.8963368159647492  0.5450725807966466  0.7547797094853861
  0.9276877907522880  0.7522767271070723  0.5299116947207162
  0.8479130743700656  0.5388581692810698  0.7932593377003131
  0.8484048945434230  0.2527322685601515  0.5060642898087578
  0.0489901445360491  0.4280142521938444  0.7668141280333387
  0.7398157054640045  0.3457548298797590  0.7319996573179189
  0.5803485627426149  0.3127922999920444  0.6810669855845455
  0.8023900357361990  0.1575527197561848  0.5285993698455544
  0.5907411896786566  0.2696049078152429  0.6368242569290428
  0.9125068440582990  0.0412962124484007  0.5149188609395773
  0.5286000849260337  0.2403257235122430  0.1687343300283874
  0.8256447779969422  0.0573892692170335  0.1017183030552841
  0.5571731891763898  0.5024705728161167  0.5387754529583965
  0.9387607480959820  0.6543989693919192  0.5117653998670504
  0.9431055968253340  0.6543415785542891  0.9433003875997291
  0.7025138673414544  0.2972653135962229  0.7283628022125269
  1.0105299526580478  0.4091645067930374  0.8678219959450558
  0.7047616060137918  0.1407098150998245  0.5146476017753112
  0.5065226636805547 -0.0409923902235824  0.1226088834689989
  0.8788026214603359  0.4373138825078814  0.7651912889371508
  0.1126112221546869  0.8691769613325151  0.3445880666780523
  0.9168974040422385  0.4567668692682297  0.6636226811047686
  0.8178272572709907  0.4162131541774807  0.6385215211517145
  0.9269628421450203  0.4136855287882942  0.6195795030008537
  0.7704736723602915  0.3807914838743924  0.5601321753668226
  0.1609843618908147  0.8095167946758899  0.2599036663289309
  0.3073161492349338  0.6706791301205959  0.2902366512854109
  0.0561267332899225  0.5488986412506616  0.6965867304174005
  0.2991746729235673  0.5799551149377326  0.2020261498008378
  0.8543956257206944  0.4416996986732846  0.5410970508842748
  0.9625785653239667  0.6077707493069752  0.6918541695706788
  0.9851955653424941  0.5714642260073413  0.6143345433325214
  0.3848124472978643  0.3639345694554704  0.1887581348714872
  0.9177662070387276  0.5971553103939978  0.5279871424929903
  0.4358473871922072  0.3474264715721949  0.1569273603306353
  0.6061735731621957  0.4820258767070841  0.4525291356811785
  0.2750576638573132  0.5856524262478037 -0.0276994498060517
  0.8024542036546307  0.0199183451757173  0.9018418730470711
  0.8764872380594868  0.1215516856756708  0.7581276826409536
  0.1604504566819817  0.5911275630962975 -0.0159523074240374
  1.0068805209636345  0.5541735436127195  0.9346385919021829
  0.7763959439419031  0.0741514333169222  0.1358856641082878
  0.8434202762929804  0.2239822865829905  0.7864089311559227
  0.2416873612269064  0.5334576081240735  0.2560572433275392
  0.8039570566498832  0.1447199047132595  0.6747824336225069
  0.3409672273040229  0.4565311400986135  0.1450689938787737
  0.7537796463256866  0.1083178474160408  0.6054475509614909
  0.2843581732344655  0.4114678479259197  0.1959022975399374
  0.6546002345793120  0.0673990577895967  0.5779933508210603
  0.3884093804260166  0.3794733676930875  0.1248362728417794
  0.6092051144194929  0.0510074354668683  0.3284594391738441
  0.7263592951916072  0.1074068744032859  0.8778598390001570
  0.8654993916575699  0.1956406064225046  0.9075482617201638
  0.9923905114603047  0.3023080959720874  0.8791607901914950
  0.7469306618334061  0.0197720923807289  0.7875054156326358
  0.7579862312512949  0.0047377516354568  0.8545486644427353
  0.3829328841356622  0.3297508817611768  0.0849660286763085
  0.8303635913616015  0.0007833451023824  0.8464540218150967
  0.8106912571335950  0.2936869258548223  0.7076653257762965
  0.6277774770902007  0.1786188531699637  0.2224856124780462
  0.7506587651285785  0.2729333031420409  0.5808865956654742
  0.1171265023799917  0.9161035798031824  0.3890673894069202
  0.3293144285890710  0.3487378794908642  0.1128747763940432
  0.7506689800419296  0.0064603641299387  0.5814791352771709
  0.8052685334564842  0.1742871904635200  0.7816880554625785
  0.4215817891348439  0.2110008068800778  0.0255294830583987
  0.2375619517162151  0.4218933058102299  1.0031254386791109
  0.2596824980969387  0.3641478966907431  0.0279054420789136
  0.8217042211063427  0.2518213101351627  0.6637932340795223
  0.6540964918770926  0.1661553810161393  0.5054761744030772
  0.7255072216002633  0.1414033674501022  0.4448147088859922
  0.8416909081318674  0.1625966290620447  0.5753932968975228
  0.8080020815465229  0.0274704775900898  0.5306135896869303
  0.1874371468674243  0.4878124501810232  0.0811974909059547
  0.0377873205939749  0.6110746874237215  0.1048995157273465
  0.4752403947504245  0.2258924077102754  0.0985261631368035
  0.8860061714074775  0.5309718221547352  0.5894268619397033
  0.9531999025828407  0.1918403042131865  0.6607267430255633
  0.5215672645661767  0.1627537561575415  0.0176920711940671
  0.8435290155309393  0.1927193252984407  0.6804446781152043
  0.5078547445426317  0.0394096255248232  0.0358723813617442
  0.7696312918187641  0.2148823611695955  0.5978276118296992
  0.4674063912805878  0.1473622717570795  0.1762645063507347
  0.7313985830891376  0.1628878501110442  0.5920016070611189
  0.5217393216739165  0.1473709370110502  0.0807749203803690
  0.7970159637786761  0.0532836855233425  0.8510738643305332
  0.8745382444620791  0.0905108527996477  0.6522619589212739
  0.6229015453804746  0.1188172006322861  0.2403286011443583
  0.8677097922277461  0.4382462061829246  0.1560050754228136
  0.1051586844118908  0.1366533641446105  0.8861823001809410
  0.9525375155673789  0.4792478818682779  0.5656341261615769
  0.3463897149904030  0.4222568235471034  0.9798629500536734
  0.8482451138214994  0.8501197049047069  0.4295503769162955
  0.8570090902779606  0.0349433105656259  0.9387063189493927
  0.9941280164972232  0.1277934706175646  0.9648984570565912
  0.9336622798029767  0.1461954224246539  0.8837984717080858
  0.9936558625654495  0.1373150604245877  0.9062923931471537
  0.3677900666167412  0.2453993132135854  0.0029161550945975
  0.9315557253357414  0.3103470503402127  0.8588147947391168
  0.9575442416736587  0.0862977022321737  0.9077599809348734
  0.3590975126512030  0.1205746440431078  0.0351263827539230
  0.4040605617562333  0.1029185429402517 -0.0032441055868867
  0.4091282808053349  0.0897760433823599  0.0584598332938320
  0.0009267303137017  0.8147300733400279  0.0926953371344988
  0.8505693093725566  0.0319103092256462  0.6935308188870808
  0.0485257628341905  0.7390189778010646  0.0728426833616945
  0.9654516957393191  0.2086694578419884  0.8272198776299250
  0.9752938316610413  0.1645900845923192  0.7833952423087555
  0.9271385045726624  0.1290792683474699  0.7178761309086499
  0.8912098983867203 -0.0064982926620909  0.8659161627703647
  0.9674469461372613  0.4931021461132802  0.7315399316008728
  0.8896863115717391  0.3931213955006023  0.7204832528711311
  1.0012548149286080  0.7931025396315174  0.3841423154202305
  0.5910465776843424  0.9306870647976052  0.3717254231448117
  0.7724278420371983  0.5787941808628585  0.2509863929139706
  0.0461500291041336  0.1327807064383617  0.0981175486620475
  0.3989187784745856  0.6266011350996402  0.5215561951755375
  0.8911783619088340  0.7487935750487082  0.0675265714873186
  0.9412412917885464  0.1346892058944582  0.0588495514725890
  0.1913071161616408  0.9273241306070774  0.8664350400968523
  0.3139219530038248  0.5664851090965277  0.5578642975438336