C  Cr Ni
 1.0000000000000000
    38.7782925608872873    0.0000000000000000    0.0000000000000000
     0.0000000000000000   38.7782925608872873    0.0000000000000000
     0.0000000000000000    0.0000000000000000   38.7782925608872873
 C   Cr  Ni 
 106 1596 3725
Direct
  0.5214151479083247  0.6501174576003849  0.9833482246566084
  0.3350858986264423 -0.0370026655747588  0.5407622397861983
  0.8488945665834592  0.9860864730975684  0.9008246721503785
  0.7430035481831249  0.0017859912156611 -0.0004976840984098
  0.1352107000586449  0.8307441098921784  0.5348522857168757
  0.1052170051212424  0.9177082239797766  0.5271260919013969
  0.3762530731180773  0.6677389918220602  0.9551014217893298
  0.5177531523920802  0.0288078487215234  0.9819107830209699
  0.3827011456167668 -0.0007674451756138  0.2552560780857038
  0.3605934535643135  0.3731238871920702  0.0787708777319888
  0.4006039248469667  0.7634034253598644  0.9710505456799146
 -0.0439954890037252  0.9460868130626480  0.6187076588718331
  0.4749706292424642  0.1677032909518180  0.8792944615389101
  0.0956100348825697  0.8102550684375597  0.4741538519961995
  0.8394025590082744  0.3380947265584895  0.0292217498651504
  0.6392155412961001  0.8706627516450410  0.4425501751993546
  1.0336417300036116  0.2849915555701673  0.5144693827533900
  0.7429692866504831  0.2784053544386175  0.0720448681877321
  0.3643782516481107  0.6394081474974359  0.0257162364901863
  0.9769504230280300  0.4223582991949305  0.5301212069493122
  0.1016097128870316 -0.0747524033404005  0.6250909351864715
  0.3932181929429792  0.1164122174598658  0.4464854792897452
  0.5785275733262034  0.9002668098940559  0.5454343406529452
  0.2644749712288872  0.6013449896666818  0.0225571253526032
  0.9149682906358644  1.0140109025371933  0.5632366824283626
  0.4888440212370571  0.1362563312269393  0.0374585628441894
  0.8492946374153941  0.9015997599391919  0.9575661449100376
  0.3231191829324429  0.9608346132964986  0.2382201553564496
  0.8183391413301779  0.9447614969465322  0.3186619667458131
  0.7199584176441267  0.6434550289466872  0.4890356174313354
  0.2214419739524492  0.9708728453510928  0.1817564417587403
  0.2763834777984729  0.8476505725787142  0.9492771079291226
  0.3262405625514962 -0.0087807733435786  0.3354946625935323
  0.8695444808262695  0.2985360932750591  0.5244415669502228
  0.5755132289649256  0.7813842380449215  0.9487837429505283
  0.1092129152683496  0.4032395292286129  0.9895148883448878
  0.4859739797826041  0.7877865159258796  0.5001680528082464
  0.3705967924091809  0.2483910566971544  0.5140843696646599
  0.7567563407380171 -0.0137358932666070  0.9116550485017756
  0.4025942306655208  0.6936864512436540  0.7074939775153898
  0.4631735691952238  0.9691953777474154  0.3443336236332539
  0.0264499959569937  0.7746460526843876  0.5798180736201199
  0.5545894153136539  0.7633926273126114  0.5061850195106465
  1.0112463762114994  0.4095881029530513  0.4394180284422016
  0.5794066605697819  0.8900170789380565  0.3989918278919588
  0.8388187870610844  0.9545140467815062  0.5727691718473391
  0.6600126842303446  0.9024646774706516  0.4429420531988216
 -0.0568849533645072  0.8202835170102563  0.8986374551578562
  0.1909774390163236  0.9486179434054097  0.4942752972454991
  1.0532670599477312  0.2120573196646160  0.5300267172044688
  0.4917128868751204  0.5951069055574998  0.5177246205979468
  0.5621837113372942  0.8333200627962186  0.4740663287642141
  0.4473009393718783  0.0279731819679425  0.2681538552438467
  0.5220195425777227  0.8141723946975580  0.5609507817562545
  0.0688356639766098  0.3816972424968486  0.0899830387827320
  0.3736087452609909  0.1402803626166302  0.9839952103815515
  0.8054624790175567  1.0246807355996843  0.9531766372701480
  0.4169379998942984  0.5519129265414919  0.8034934650772025
  0.1889342546542070  0.8805946915140633  0.5197403487222813
  0.3928007108954345  0.0236934144900611  0.3462321766258994
  0.4821288282329957  0.0954526186987692  0.8807140310925028
  0.4422060591472959  0.1837850608732314  0.4144870313880072
  0.6896187627900130  0.1666327877068534  0.4686944836935390
  0.0062842329224685  0.8005398863765051  0.4987436781916804
  0.1699779804376754  0.9428612967006511  0.5871330062440696
  0.3964701664006521  0.5769042670306614  0.6789562406367652
  0.1054138817024828 -0.0150321015833152  0.5063896568311949
  0.1893797625966926  0.8263228165199457  0.4720943709080541
  0.7455959001992717  0.9209442559245776  0.2936972250185372
  0.3692023576127887  0.9380454093159625  0.1129707124393995
  0.9453624358219450  0.9560256995236192  0.5414943534737328
  0.4307967633720152  0.6912506641352265  1.0050272361305486
  0.4069127879024758  0.2197420477336055  0.9770215885498488
  0.2646564048852050  0.9310595124440918  0.4834148111075500
  0.5790869254529408  0.2401679253613387  0.0209365115594672
  0.9485425573001040  0.0868555538731687  0.0387266106666001
  0.4972632116640310  0.1913021993506169  0.9739271661383786
  0.2779459675460399  0.8550061721770283  0.4916506418362343
  0.3113993116984586  0.7235387778621448  0.9895163781555399
  0.9074507991148991  0.0228842131070698  0.4856300333780846
  0.8551364079981706  0.0811669891669651  0.0691200815295261
  0.1840700663362233  0.3275315842949859  0.0301984916859615
  0.4042113593994170  0.3295503592477546  0.4154629737140628
  0.6697598596645770  0.8599330944268444  0.5384216358143226
  0.1454454486310826  0.2340246543370326  0.4362548602789274
 -0.0636163078086298  0.2988623779336417  0.4928258556834340
  0.8768885783364727  0.0016778637118404  0.9746527862997254
  1.0538243741013837  0.0676482656590900  0.5309888264421918
  0.2658876067144254  0.9213926857972614  0.5666718483439893
  0.5470507857504747  0.1665805595632605  0.8443447717108117
  0.4217984636901568  0.6729913630275246  0.8329680685086172
  0.5640909699389786  0.1548768968201438  0.9131509249051718
 -0.0408259287798247  0.8713205745001709  0.6385790874556585
  0.7670804391125635 -0.0062826386826587  0.2688960318137072
  0.5744169865792538  1.0310868923546193  0.3574199001351485
  0.1916778145182697  0.4140135771103642  0.0263109775364696
  0.0620917192287517  0.7368140251574873  0.5233447551455608
  0.3467138838640532  0.7986897819175476  1.0098529038876836
  0.9933135754801121  0.0278188417569050  0.5149220937673278
  0.8497254626973235  0.0794962710878802 -0.0285334034603738
  0.4615473750076420  0.3808871981794332  0.0571437308892396
  0.7414112595422108  0.0766113947221448 -0.0098988470813585
  0.0577838089088626  0.8651615863152552  0.4959502835510393
  0.0824302624056631  0.3005264912710744  0.4333289964551513
  0.4193801190805198  0.1614125681471551  0.9224846167210324
  0.5289313314422308  0.2291330682603770  0.8888994762009763
  0.4407948309317163  0.8570311895757656  0.9037712266991633
  0.3550231378586097  0.0312543672202371  0.8239738019053398
  0.3003577191203789  0.9262730766174208  0.8454197992103194
  0.4626897860196065  0.8004610045494928  0.9199736760322974
  0.3529419517905784  0.9630494963270922  0.9138235178969091
  0.0232458199066100  0.5988985710766631  0.7148133390994409
  0.0972801265992362  0.0861911509141558  0.6135833847913301
  0.3791238096843589  1.0039505266166147  0.9511050094927936
  0.8449972113343261  0.8228648000074517  0.3179181834478622
  0.9014852467862419  0.8685292944337805  0.2681039292771694
  0.1170390029825644  0.0918913741015418  0.8465065318164476
  0.1455590516898699  0.6491468084678946  1.0155099984140636
  0.2102865874370987  0.6666218174698118  0.6054017437012356
  0.0995089616959695  0.7460848623182577  0.9774863196216110
  0.1584315679200048  0.3667784337864594  0.5270527026376071
  0.3671855645020679  0.5848189293407878  0.7216478163226132
  0.5722473826952497  0.7177053219185741  0.0829519088167125
  0.8604592696621715  0.9335483883304817  0.9175421627246088
 -0.0194106369388444  0.0187355691957820  0.7193914509359256
  0.8850204000170314  0.1183109932589907  0.9878469360860160
  0.8423248997638076  0.7445136628637954  0.3964911186177874
  0.7502375162517642  0.9612133101308421  0.4182594270329488
  0.9703439858440505  0.2972711875401101  0.6491414112779279
  0.1535531037570639  0.5311976749972840  0.5088179583235003
  0.2051145598428396  0.8024614799160320  0.9999121451626122
  0.9902809258828066  0.0536520312254611  0.0424377606677224
  0.2088818942147913  0.4316614604457309  0.7094750020343503
  0.3160247259771841  0.6635802037135985  0.5853471590575605
  0.2387322364358123  0.9546045248819169  0.9876444082279822
  0.3018196750842875  0.3548938315102870  0.8063117339750692
  0.3405465887530610  0.9602062078345726  0.1854464962029349
  0.8986764589792495  0.8384499186019598  0.1597004487159705
  0.8724298856478584 -0.0065357788626673  0.0252919304986376
  0.0202612832704173  0.7433839757860263  0.7839149322289164
  0.1835693677561625  0.9603193664318379  0.9708984148426779
  0.1492531410747367  0.0199394670412574  0.9330864262619183
  0.2870065416357432  0.5322665819059845  0.7214537894128545
  0.4153751895857091  0.7972658072686356  0.0651042825980357
  0.5604245013837530  0.7958210107704682 -0.0006402520768791
  0.5202306241627568  0.7318709932877062  0.1191835839927741
  0.6707219891745171  0.6774116889976691  0.9543647578091149
  0.1370265596208875  0.4528212290499852  0.6265301722881403
  0.9750517682825135  0.4702771204395127  0.0715283202630816
  0.9957699180719776  0.5573258868391715  0.6777774559157612
  0.9225530953813729  0.4881678965372923  0.3319463710167766
  0.0417268872304617  1.0117228245456726  0.7398879668883936
  0.9324784522620089  0.5684807133911152  0.0255269432523812
  0.0951280491475739  0.5685950261484500  0.5976205553280137
  0.9822127005246413  0.5390799072201374  0.5097210911554911
  0.6017405859674917  0.8600564527627845  0.8419676945087538
  0.6768663300291580  0.0704768700998181  0.8112317917018289
  0.9502171844314550  0.2819666506666898 -0.0250319092589703
  0.9236348074022568  0.1892274404374420  0.9266727908993722
  0.6159931383658563  0.0361092270146398  0.0855123228466450
  0.7990100483056133  0.0747347980981923 -0.0395002851227509
  0.0128762151902804  0.9313096053759382  0.2895087984475250
  0.7861758017239112  0.0688398607454622  0.7897661718003423
  0.1091903594414473  0.8415751984264344  0.2349742513165487
  0.6489580799248668  0.9979331968963304  0.6646140324184207
  0.7757774733950450  0.0812695842323996  0.7299069777206392
  0.7073284070843249  0.9597735028389022  0.5784957990863678
  0.0456076301009721  0.6870140940028645  0.2557869410325109
  0.2031696856619024  0.6882625314062466  0.1947906486841649
  0.9830570633599197  0.1830665863516121  0.9510469700810824
  0.6986570828380535  0.9002981377298408  0.5357035222238229
  0.5358955389599906  0.9349358997641641  0.9738792897045579
  0.2132400580297585  0.6340036094403521  0.5003605893877575
  0.8652476030289538  0.4425642772415079  0.3819330395487584
  0.8740807436357925  0.5480666902775372  0.4106260753995037
  0.9927676104894293  0.2717197492319470  0.7711237862419262
  0.1172998692623257  0.5403487294520840  0.7196140535679728
  0.4128069401275745  0.1771195037276205  0.3759992795201170
  0.5481983424946981  0.9864282638594798  0.7456887876151793
  0.2046046122925321  0.5661923505932297  0.5797092052428078
  0.0780850154455770  0.5211468633697394  0.8206346412137199
  0.1293615931051596  0.7418984951752470  0.7668504963419193
  0.4900479673128871  0.9933088958541318  0.7259447506825079
  0.5153855800718615  0.4862802240725306  0.6379271513843759
  0.3022461798741803  0.7615114547085138  0.8770560636249151
  0.8360958115467687  0.6879070448709169  0.4106269097030436
  0.5989246328679163  0.8888556212703072  0.9476515356815435
  0.3757379373226833  0.9448863743451780  0.9749231957354042
  0.4612648843815904  0.7669256492930835  0.8139382544700247
  0.3891049967044635  0.7544001612767905  0.6287396949964406
  0.4210813541792682  0.7178555356989985  0.8096338431693354
  0.3725221089303486  0.6780125002038960  0.7442510387728338
  0.5683285805044624  0.0858696350982415  0.2288919627776187
  0.7898716458231956  0.7063775888754168  0.4460803066702955
  0.6833029077487909  0.6800392611991630  0.4767507277873614
  0.3996744472694269  0.7427981933789882  0.6898070795562262
  0.0629050094778619  0.6196466466822934  0.6149658397493657
  0.8249124993493822  0.5771917969644553  0.3837194003228486
  0.9806022352320073  0.5495175292540418  0.2192539640895995
  0.9904289717930966  0.6747089863136988  0.1838254476673843
  0.4098134032907377  0.7282133174066966  0.7483654046968740
  0.7312188288072250  0.7655180899021561  0.0629814072003341
  0.0069246652011397  0.7300624112012547  0.6130271922610240
  0.2626100668308959  0.3344091370465764  0.9065114051606363
  0.1358979552569732  0.0345932627406761  0.8662669371326417
  0.0262415872605712  0.0691714261446015  0.4230477019327529
  0.0425768967470403  0.7857257727736389  0.5339050123090279
  1.0552750423998936  0.9363040836011239  0.5910102677525773
  0.0586608893788126  0.7617195862584213  0.6839406051284886
  0.3392050922102128  0.3077615349099214  0.9958256917274597
  0.2269096972852213  0.3168343719998522 -0.0001159090381073
  0.0725951045083347  0.8822574067394231  0.6065729381838371
  0.3331041308596857  0.2842366244739460  0.8820722959497967
  0.2343264991742866  0.2398985704079881  0.8532254349161106
  0.8542617818515078  0.2115482387693799  0.8450186708501204
  0.3762152642552911  0.9495339504226274  0.2388264071978647
  0.1024889239562769  0.2378781715213502  0.6459829669858084
  0.2240999658162289  0.2544548115423377  0.7940533853875568
  0.0015462400431942  0.8446979590915810  0.4278773229071107
  0.4875231140638682  0.9642103992492341  0.2132636641095868
 -0.0000492829471664  0.2276422510371936  0.2814735018674424
  0.9556156675744072  0.3033425997476135  0.2969801868891911
  0.9021755624717376  0.8820455995249484  0.4367003949342403
  0.9525973112329699  0.8684628592733611  0.4031061518132021
  0.0682696290299881  0.0857038653162457  0.8857679849908170
  0.1982793460179937  0.3700059920508095  0.9984269201244971
  0.5444103976601966  0.0097489088920475  0.3905825981423749
  0.0574126191368227  0.7352385927705122  0.5751317333862760
  0.2685008921393728  0.9013131580282386  0.9501684451120640
  0.7257732693599734  0.6246103197073575  0.3933895507566074
  0.8309678796277631  0.6404219808505521  0.3664386186215814
  0.7758498281534846  0.6087779957633698  0.3589083545601580
  0.5091094009160329  0.9381510041208200  0.7426740657674001
  0.9855717270388956  0.5937075265889580  0.2614732761690507
  0.8713800571406441  0.5180089323038045  0.3046269972556649
  0.1574213641855348  0.6978032400217732  0.9501430927252627
  0.2211169608647605  0.6952887242445952  0.9750307989082091
  0.5075146600237156  0.9059504413514891  0.6351572735438752
  0.8625376861466240  0.4097589390285596  0.2786799964155101
  0.9144022858342000  0.3940889565180094  0.2462935001153642
  0.8941543085760272  0.7627030930119495  0.2359471152987452
  0.9664161865763997  0.3797338008189992  0.2131117411149853
  0.1450701766564707  0.1541005157627274  0.7857838392082837
  0.5328539599760146  0.8694650927515409  0.2541588812279584
  0.1438717816202141  0.1252697553077867  0.6782219074387319
  0.9529680434078804  0.2726357308627572  0.1923188827556853
  0.7074033814469242  0.0376186773451806  0.0029936406913177
  0.6312869242171146  0.9542103570100662  0.8917426549457985
  0.7302554809421540  0.6844780251470489  0.3769047293636075
  0.4315124007365431  0.9490053049437842 -0.0034307737776724
  0.3322562842797453  0.6613975823915770  0.8480874859946071
  0.0936347741972038  0.5770007365992463  0.7987287371588562
  0.5904340145373845  0.9315520289295061  0.3711892171632301
  0.9314229574876771  0.5953898624376515  0.1303902730838213
  0.1349561647182292  0.9463238345221453  0.4988714681191134
  0.8831328943012994  0.6252147401385629  0.1041606670264725
  0.1793546586791712  0.7473986440155582  0.7271954051630198
  0.8287134679581670  0.6210508329854352  0.4232051477749608
  0.3212048221136701  0.7037857476311292  0.8928610124693855
  0.2909678881134496  0.6321483992950175  0.7472396095289241
  0.9229424171127716  0.5647565781675777  0.4821645806645984
  0.1236207331495810  0.6413411919476395  0.7432876361160381
  0.7802531333531335  0.6704197262933592  0.1117419940691110
  0.2420286866236918  0.5956860768353580  0.6792527691314219
  0.1842239591962399  0.9922923302405143  0.5126949390738591
  0.7251425247576081  0.7811508593563381  0.0014040678328638
  0.1062831349515013  0.1055229453620282  0.7817556465202654
  0.9086859426423742  0.3482737356904371  0.2051267234086206
  0.8389157157181220  0.7620055889504260  0.1031990498756256
  0.0755205388383926  0.1759118551174813  0.7012529611120317
  0.1468625480594722  0.8185080200274685  0.6477874182862198
  0.9434491620469234  0.1650168221482450  0.1652689661779903
  0.0026481393312533  0.2426250396022137  0.2189645591940221
  0.8151393332813685  0.4219596174992835  0.0846751754152404
  0.8765925025149912  0.4914186311013372  0.9768417924595916
  0.8184272621071045  0.4806510313053821  0.0708112951310707
  0.1414519924458423  0.3491909408428894  0.8644901501818544
  0.2136673103055625  0.3283749433004275  0.9424067130556102
  0.8647573365369619  0.4233186614212429  0.2179563389198592
  0.9009071750943064  0.2873181933180001  0.2249313770078589
  0.0353464600246945  0.1563538069693191  0.8040937758923274
  0.1806693849954676  0.9287775703539884  0.5399433162782464
  0.8010421423039187  0.3324801304188015  0.2283294200931288
  0.9715743876665994  0.8357716494983852  0.4787392366250302
  0.8817966125960994  0.2729846611042455  0.7908703008301047
  0.8347044278527630  0.9812078783078285  0.9498541183577387
  0.2975994572689860  0.5642324703475372  0.0348429350450785
  0.6853484352117961  0.4448275718557061  0.5343853592577857
  0.7669475624960342  0.5466341381760429  0.5443296845606886
  0.6161026773375005  0.3387234287902309  0.5159721834142537
  0.9789816548664885  0.7244031715131868  0.8834551975561282
 -0.0103366153469103  0.6794069619175984  0.8377757445288306
  0.4681828504024693  0.6710463184982266  0.4571496974513811
  0.5113738951081497  0.5928943839473321  0.4494729092497028
  0.5064887488567512  0.5484626441870952  0.3989248760255345
  0.5081783504780254  0.5362022745558792  0.4578088045363000
  0.8534345504051351  0.6098563878278993  0.7094749920855199
  0.9107636909749406  0.9841115116057834  0.4569820744233373
  0.3726325219102328  0.7072585018138741  0.8503771410431183
  0.1989364312271457  0.9850677112829133  0.5703772273738896
  0.1345867281519003  0.2294499525571493  0.9342980369210174
  0.7685460706032683  0.5320331525678446  0.2077002290765993
  0.7760121635047986  0.5608367034363630  0.7101592465942677
  0.7719796642522105  0.5789037628692139  0.2510662740437232
  0.6225747904874847  0.1964629901813746  0.7149051086985720
  0.6335050137965041  0.2603774495407546  0.3705528528561425
  0.9196280849442507  0.7021307455882727  0.7540164532094968
  0.6811968772157367  0.1854282383129070  0.3536968829961623
  0.8975807982894847  0.7306510548425755  0.6302963974524683
  0.9687659838536908  0.7077730558833030  0.7151390565544553
  0.8220530309342596  0.0629798184657983  0.3370958306424935
  0.6963074888648997  0.4311071130964919  0.5956019478274027
  0.7589240163801073  0.0586171822041743  0.5013213182746458
  0.7582823154230328  0.4243826781965795  0.6167716602107933
  0.4826818146470173  0.3698614385154589  0.4617434074863459
  0.9487370865125593  0.3865379697102623  0.7411871496214993
  0.0204100641162208  0.3341366409474330  0.7151811162861244
  0.9093867748992278  0.3371979379482392  0.7347762665677993
  0.5605769157739060  0.0236849368411953  0.0092618339406109
  0.9315336367581278  0.2475205717184890  0.6449706971535005
  0.8598664898749625  0.2998533550850988  0.6685050539287741
  0.8926585673086750  0.1981510694605422  0.6383050799587983
 -0.0007577608578471  0.7946526733120786  0.1537673455827871
  0.8570982450772805  0.2681022193559059  0.5640154923869228
  0.7485919748867335  0.2420486848367268  0.5334420281984572
  0.9780641482204907  0.4796470588535696  0.7919403472541171
  0.0447953725116092  0.7210375999861179  0.1351630489237945
  0.8990845305286567  0.3187000811664080  0.5662482117600137
  0.1473036730034233  0.6736541407786165  0.1238027170786165
  0.2973057948076085  0.8316816820222787  0.5307131007729941
  0.8800605735938448  0.3770664146204959  0.5495697580472494
  0.8792297122279455  0.1311446523409301  0.4540294555820946
  0.5747292682976956  0.1609544582271902  0.1504566633856457
  0.9380311038886313  0.4297803652280949  0.7865616794560025
  0.7688584463692846  0.4389304656475236  0.7831922453808808
  0.7243759469548993  0.1079253846186122  0.3419169099195786
  0.8495383316940754  0.7240907312863185  0.6700208552708372
  0.2709300915045352  0.8850709276524790  0.4528719580509846
  0.7385312584589930  0.2646718033415701  0.4082797597805603
  0.7890514880497553  0.2324528500885965  0.4358114662520156
  0.7888364174400645  0.3831863757474555  0.7993070103401774
  0.7347923117478324  0.2157432652096582  0.3636119376901346
  0.7298098303545016  0.3603525523248619  0.6708853399939096
  0.6690641752226349  0.3680013388229024  0.6484958938849085
  0.7046715533095922  0.3902308338260081  0.5453739091542530
  0.6794012223432024  0.3240457911076932  0.6040848477389543
  0.9923539285483859  0.6162297517648411  0.9783352614481042
  0.9199650653198309  0.0524476610369193  0.4457139439673954
  0.9438209394327630  0.5576037942170250  0.9159838171874075
  0.3253121682856625  0.8515982041692687  0.4746801720682730
  0.9841046429111653  0.5810951364895648  0.8145212998943059
  0.8396800165064203  0.3321972759047180  0.5462464766612203
  0.3624911011720595  0.6850024915347291  0.3627737620971945
  0.8884631874904070  0.4554025298002730  0.9345372268348878
  0.2647618051396555  0.7930289501244051  0.3557545941302840
  0.2749219952743628  0.5848489712288339 -0.0268217923549730
  0.5817760975563510  0.1483179603897865  0.7089196246241687
  0.6872782020922736  0.2798135676445731  0.4419183680588826
  0.6907734780005541  0.3405107649508737  0.4249039836651104
  0.8661366113181627  0.5111399767700597  0.9152149190368342
  0.9286400538210918  0.5019047683138080  0.9355549466688931
  0.0332907966043809  0.6938774619000797  0.5351123942677749
  0.2191488554482310  0.9075521672246992  0.4878013666624599
  0.2700620557150041  0.8153882187327168  0.4635855974734684
  0.7720964309354342  0.6455189677058694  0.5614909372885614
  0.8463075060364033  0.5093166430160077  0.6875627799128757
  0.8961420357800335  0.5449230371361280  0.7553134403879863
  0.9291412639733637  0.7515195769158992  0.5305011107805364
  0.8478086707848836  0.5387435002745284  0.7933303459888242
  0.8485971946014768  0.2511176341537832  0.5059935750711023
  0.0490443677070779  0.4275070319403066  0.7674993307446032
  0.7394791174316364  0.3458894963049254  0.7319021780425803
  0.5798680936238414  0.3124979624998798  0.6806952982919868
  0.8022422424548715  0.1567906064079793  0.5296988495483917
  0.5891047423749559  0.2693834677884940  0.6365270080706726
  0.9151187583837628  0.0476459588557978  0.5257913558986269
  0.5668763787350327  0.6781733662079079  0.9755698664508965
  0.6505226492084102  0.2610254083333262  0.6592570881066234
  0.5570398113010238  0.5027506587569565  0.5386790624939242
  0.9385782469582106  0.6536742647876792  0.5121775386380722
  0.9425692753950738  0.6538212062837094  0.9439904337022805
  0.7020362239121488  0.2975998024500774  0.7281610448341489
  1.0104452146476983  0.4088733973237806  0.8684657454808462
  0.7050814642482123  0.1406245683010303  0.5152113756601155
  0.5043286077977243 -0.0392636054544839  0.1227857683323393
  0.8785840906747645  0.4373821694549952  0.7653154867608924
  0.1116577604719990  0.8707123774785240  0.3428305913402561
  0.9166448622221929  0.4561688775783615  0.6643784180897805
  0.8174358334171264  0.4163474330806571  0.6374947761515749
  0.9380863465898751  0.3994481693928046  0.6807892377526903
  0.7691575063432510  0.3810746853648133  0.5625522138668470
  0.1598716748447789  0.8098381815302271  0.2607365303814999
  0.3066212713340712  0.6712052181901799  0.2909804308221199
  0.0563146783028078  0.5483672851522055  0.6979242479029789
  0.2988315945501476  0.5805746242541600  0.2020850760928390
  0.8576103961785370  0.4384480115843205  0.5377580597024069
  0.9623241542709616  0.6073233035032867  0.6924514640950110
  0.9851045385850496  0.5709320585146083  0.6157565882590973
  0.3843528025808707  0.3639911209546761  0.1889738615133551
  0.9177166573494312  0.5958137739280664  0.5292685261218996
  0.4338102481820728  0.3331829388276444  0.2184542192938767
  0.6059367135503801  0.4823629334035526  0.4521872865318973
  0.5402704691397600  0.2335461519101557  0.5709101908450441
  0.7994417354813025  0.0158231943449748  0.9049576753263129
  0.9673931346239523  0.4929467849859043  0.7325778307911760
  0.1168744329665873  0.9176449274476423  0.3872851931808814
  1.0073865058258662  0.5538058590944804  0.9351588834352121
  0.7759802649049792  0.0741619113472823  0.1357407392666788
  0.8435666745344773  0.2241730641090139  0.7857790251322114
  0.2414451680430361  0.5341664687948496  0.2562037042857137
  0.8040779070010657  0.1441509793049158  0.6739295882267915
  0.3405380885541645  0.4565081942744885  0.1452444236700298
  0.7549998852151589  0.1071697660650853  0.6066859202909528
  0.2843644674373242  0.4120231064063978  0.1957842282168540
  0.6556225894995457  0.0672432821835861  0.5785937213483352
  0.3886915838453082  0.3789658763544654  0.1247255313134677
  0.6091847780391662  0.0515475028583578  0.3282360836474676
  0.7270541255600392  0.1072291797851582  0.8775927032996069
  0.8664122186311308  0.1963596850337800  0.9070823503486929
  0.9928989141559625  0.3022613985463498  0.8778807866453178
  0.7484276475496320  0.0196019802735574  0.7865393689042603
  0.7605754697392365  0.0038483510436522  0.8524843260558019
  0.3834153814434604  0.3291194010821453  0.0855503534472848
  0.8301819357704882 -0.0009301264558234  0.8535912451305033
  0.8102271108368416  0.2936919746191552  0.7075364991936504
  0.6279330209182817  0.1778825755977780  0.2216620376031729
  0.6231374043113117  0.1188536973054382  0.2395115271649521
  0.7504024754257784  0.2729445016200351  0.5808728314269617
  0.3301274490770845  0.3482215542823855  0.1147854916853811
  0.7513643230912507  0.0057323842469408  0.5821872502899109
  0.8051308134922158  0.1750652703110231  0.7804660334484322
  0.4223041860096217  0.2100749529720868  0.0256792336317346
  0.2384880034892822  0.4200348000597556  1.0029669091811160
  0.2593855724793293  0.3622605690515229  0.0263565896469752
  0.8213709350538061  0.2514974889868229  0.6635432310836061
  0.6545505116595021  0.1664164297992025  0.5055534131336994
  0.7257512706148935  0.1412384873791911  0.4447102057751891
  0.8427749011101618  0.1622080372729175  0.5747195781038763
  0.8091280420151135  0.0271010057936257  0.5312249576990243
  0.1873515677943760  0.4889392958537536  0.0802888763240050
  0.0378652275858760  0.6122646965148489  0.1054395139160789
  0.4751669376166143  0.2248130218136856  0.0985998445293641
  0.8862968347644606  0.5295161211157442  0.5895875089634258
  0.9534668448513722  0.1912290601662692  0.6598717282893146
  0.5244232979633383  0.1634621182037774  0.0152080301912513
  0.8434739133222311  0.1923509469494986  0.6796738584096741
  0.5083782261557974  0.0372554159363999  0.0375534183676484
  0.7693364096000731  0.2143732013182268  0.5976801630123548
  0.4673940613503800  0.1467767336761993  0.1762248292755306
  0.7320224718189239  0.1629667662444456  0.5928832335348673
  0.5211105769379913  0.1456517766865461  0.0795335120970519
  0.8358577212126165  0.1041247215554692  0.8574504739975135
  0.1624817167450014  0.5886340117410567 -0.0142554706939321
  0.8753000526998427  0.0898369801817996  0.6512354353812854
  0.8765733913541356  0.1220550853937898  0.7569866228771023
  0.8892781324342375  0.3933491422314432  0.7193042630713340
  0.9540322918385160  0.4780577237449447  0.5666857809654202
  0.3467291912568430  0.4208139924967238  0.9805725391800677
  0.8476521014004030  0.8494265439024132  0.4289112844033104
  0.8577608784890653  0.0356876122686397  0.9385874427064314
  0.9949219248242460  0.1279303134805524  0.9646792333621248
  0.9340535356345647  0.1463909234079517  0.8832604647126769
  0.9941932923901013  0.1371008171773477  0.9057036813484861
  0.3654198793503703  0.1821221664556656  0.0136466292777264
  0.9318038309264536  0.3103600544769462  0.8567315117622488
  0.9579343998073864  0.0861906881982272  0.9074831377572334
  0.3574629354451716  0.1234323841705910  0.0334141316604850
  0.3427571451109771  0.1017929184503463  0.9762985658873228
  0.4089446076070614  0.0888870318186453  0.0581294633268925
 -0.0000609100573707  0.8146624984227333  0.0931465248775145
  0.8512728844051202  0.0303230808039718  0.6962549867241518
  0.1036369573490807  0.7697547889847277  0.0838282703115030
  0.9657252798395383  0.2083491623044371  0.8264054221892082
  0.9753352991462525  0.1641223443279436  0.7827543604259916
  0.9273130732669923  0.1285890228842956  0.7172040487661170
  0.8903698938299875 -0.0071613990140877  0.8674988433901422
  0.1052949773621907  0.1360079558138131  0.8860781056854690
  0.8671979345133011  0.4381117571222465  0.1572026764913054
  1.0007908023396948  0.7948748085713868  0.3816069844012043
  0.6025527162763340  0.4396741154005205  0.4054883240640804
  0.8676182707106450  0.9681322846923244  0.1506503314982948
  0.0461612039962917  0.1332543809094930  0.0977125348409738
  0.3987370056516498  0.6268768599959229  0.5217086001412657
  0.8904970214995699  0.7488926784140317  0.0675820499192553
  0.9415505919381835  0.1363464529579746  0.0567536377297880
  0.1915419051671235  0.9270997779190767  0.8667075403613502
  0.3141254890582493  0.5669510360299687  0.5586555831325933