C  Cr Ni
 1.0000000000000000
    38.7782925608872873    0.0000000000000000    0.0000000000000000
     0.0000000000000000   38.7782925608872873    0.0000000000000000
     0.0000000000000000    0.0000000000000000   38.7782925608872873
 C   Cr  Ni 
 106 1596 3725
Direct
  0.3095447184215091  0.9212016557165533  0.1807251330458527
  0.5376777079721788  0.0938918390476399  0.1231626943245862
  0.7970582192723393  0.7757198747155399  0.5559036811181645
  0.7897726537044425  0.0855385395968687  0.9418432520080680
  0.9042470143775764  0.3161236342882682  0.9384247283681952
  0.0504168194327264  0.0101499770350882  0.4854081455042631
  0.2212185838533803  0.9701351502867964  0.1848402262896351
  0.9887014299060717  0.8844776936124285  0.9080389288197415
  0.9996582573110804  0.0941283462598034  0.4930332644810970
 -0.0903115157795652  0.8656325407002882  0.8682825168424257
  0.1635233275757053  0.5116695627934030  0.3808134540878595
  0.8441405874996072  0.4797014372631108  0.3903554315162631
  0.4682119465379542  0.1681321903050918  0.8791721596505783
  0.1534987950376457  0.9610291892962548  0.5546045178209141
  0.8108244894611447  0.1303725936697924  0.4847841640954996
  0.8549757715390389  0.5771596993742022  0.9668662234488499
  0.3073681332545848  1.0213527133455302  0.7633184223509896
  0.6219874640083102  0.3534955666496978  0.1226309458649140
  0.7644471745838565  0.2998235113466668  0.5466807655465840
  0.0848986936737152  0.4637621515265694  1.0407835374960130
  0.8849947460516813  0.9398945731233735  0.6206979687617299
  0.5103684524813491  0.2756138165830002  0.1716558934078780
  0.5747687122156151  0.8942078310332491  0.5504785571547086
  0.2618737976506948  0.5974859806619874  0.0229972384513719
  0.4614977785277736  0.3388424167066016  0.2510109343593970
  0.5548484013032657  0.3393377820895780  0.0476060270107048
  0.5183913840811709  0.0819153597637671  0.6714815194940796
  0.8846781993447430  0.3304152806709140  0.5272012395171105
  0.8471779499169523  0.8984110508978096  0.9739545729945805
  0.8544503437741194  0.6389686788447563  0.9966574812392636
  0.7209799879950042  0.6441094195027908  0.4895474073108243
  0.5950915203619058  0.5866525239237148  0.4439908436674587
  0.1048210913498248  0.4150392150473650  0.1582233945202565
  0.0958037909785283  0.7656564661215624  0.7756284484277228
  0.8062782178030412  0.0853234324438275  0.1084038099656685
  0.8143205943347579  0.7404174164837657  0.3630189136293004
  0.3862268466193447  0.6486535642170307  0.3538193077417267
  0.8677615064216128  0.2100001552407313  0.7131409510572161
  0.1378512943861272  0.0749551749100868  0.7709629534959452
  0.5581931082845520  0.5813584523040628  0.5453610000269317
  0.2938265584981670  0.4427268045689011  0.7638106723941129
  0.1076414438453856  0.4793381792148170  0.1326385598189002
  0.4028645346334345  0.6984381926230389  0.7142935391556978
  0.0140442112511196  0.4146126483491711  0.4354021145628790
  0.7298541871606860  1.0079655739088620  0.9630593770651623
  0.1349838044530793  0.9657888272093074  0.4793635802870449
  0.5425378159007372  0.7122048235485513  0.0448979940638439
 -0.0193449186805241  0.8491166307892162  0.9178170588219645
  0.0224741426936628  0.2795571411248842  0.0521948103872946
  0.3427251926681887  0.5495224084004801  0.5192712422553185
  0.0566148411847679  0.4794562037420529  0.2339871621193655
  0.5396229802593965  0.2009241530164756  0.9390424196216943
  0.8006865560411539 -0.0017771026979423  0.8966765361857800
  0.9293683332921440  0.0496665599382234  0.6309860693382289
  0.8082933685118627  0.7103171150863589  0.2537158453816437
  0.1718203833155836  0.6137907413692636  0.4076881623517761
  0.8815166239052723  0.9429747791340515  0.1431602605136690
  0.0139867416057148  0.3405774792425654  0.4626366535963440
  0.1911006179773040  0.8776411777028181  0.5227961350222082
  0.8424274090760735  0.4636650846553913  0.2246763903428716
  0.7403009626359307  0.0193555699053309  0.0512037805670605
  0.2407930638188174  0.6997474019428965  0.4713706816441562
  0.1956304843206626  0.2037586221061563  0.6488522407500396
 -0.0395136310282979  0.2961713384983721  0.7855570902272532
  0.6865828463108725  0.5282229934896260  0.0249501676140651
  0.4530016439012661  0.2630601683396173  0.3340670743158372
  0.3268989572395359  0.9498820315848745  0.2696328557319392
  0.5193517717344847  0.6501571360686909  0.9816353082990118
  0.1909916078427508  0.8483924358885202  0.4072091302169090
  0.4046488452576052  0.9673027726876140  1.0435904745233811
  0.0904734415968020  0.5214565542419204  0.6884913006432762
  0.4469911050722957  0.0826099376680101  0.9854621001649377
  0.3794155778236616  0.7720897963573247  0.0630187313159385
  0.2658094010023068  0.9300186004753661  0.4878064401842598
  0.1821923776542052  0.1294944384603283  0.7739307801421577
  0.3311932357318980  0.6325460323890760  0.0518898704022983
  0.6654368229610941  0.2628797874968661  0.1754673384241787
  0.2819092657038142  0.2840995478579699  0.0243138125788053
  0.8069651084310834  0.9719994578185328  0.6338167229122332
  1.0147215840219219  0.0806816941870200  0.2493997939188481
  0.6277031046239092  0.9344618857006852  0.5782025977476754
  0.8930033101034127  0.3038154371832965  0.7639870806555319
  0.4953645464884036  0.0174556831451765  0.0871466453818733
  0.6190094903173372  0.9206030686615458  0.4747676281190951
  0.1430658850348684  0.2844444777493009  0.4029393435964252
  0.9798758030797940  0.2649752996962814  0.2889385448553362
  0.8620098553779898  0.0457775767099782  0.9189635209985888
  0.7424086319585841  0.0923689092500918  0.5169043842113558
  0.6634435721929732  0.2818940498165007  0.3436208928852817
  0.5960015135281250  0.2000220979765992  0.8558932567657952
  0.6191131695998636  0.7591019568864561  0.4744368957904083
  0.3072041895342464  0.6410977873136685  0.5581216929082090
  0.7889105651295448  0.6291646600673934  0.5225176919482782
  0.6977948444628373  0.5781167051999562  0.0828239657498120
  0.8415231938992244  0.4483103976156886  0.0469048025678087
  0.5246332146917787  0.8061514685404645  0.7437192082847481
  0.8581231742280939  0.6509330824824550  0.1743782188502168
  0.8126260037597099  0.0008930798514477  0.1429429193538386
  0.7391334874190552  0.9649636047454047  0.1366961905534933
 -0.0250890675512423  0.7442120152711503  0.4974310006589629
  0.9890040138705793  0.3413510445754669  0.2038003519166341
  0.0806930865226914  0.8325956290435476  0.4332291819372315
  0.9226131911439569  0.8682866746917592  0.0253397142111865
  0.4187580350049556  0.1519518307343265  0.9240737480303189
  0.6844791200450551  0.0262533067929250  0.3966548205253183
  0.3468438042197172  0.2306392373684458  0.1958916088029657
  0.8551708621892128  0.9626482251354420  0.4560170658211873
  0.3786832407904178  1.0095023263451943  0.9494208564222645
  0.4461560905813249  0.9260415485806038  0.1177013774344318
  0.0662309498684679  0.0544587488815353  0.7785414187245909
  0.7826186815976650  0.7145862914189199  0.3896079322051480
  0.2659706150062069  0.5674034764541022  0.8041170504081053
  0.9378950599155217  0.5770401997334721  0.0249119389526163
  0.3397167018154251  0.9763283707062166  0.8503599829297946
  0.3184592663146447  0.5734969730949437  0.7650321820172481
 -0.0179923281039217  0.0157075643779278  0.7185680727854593
  0.2899421928428738  0.9383562213965614  0.7839300258299660
  0.3825803634380347  0.8607929348123354  0.8850019606341328
  0.3006338505539807  0.9261195249025790  0.8470731739287467
  0.4040825375366826  0.8038043766207122  0.9068126116309202
  0.0833984908575422  0.1305023932313379  0.6550308523931628
  0.8476774551101660  0.9009641294729880  0.2400679518580218
  0.1734334060091967  0.7087042981539758  1.0100865409880200
  0.0969359422795444  0.7467880644536493  0.9741980468634146
  0.2386198225415383  0.6066947285616177  0.6263190339351554
  0.1577829089916613  0.3644948366054623  0.5290087053570669
  0.3496895635972329  0.9639900915031776  0.9101184902340381
  0.0736846665235562  0.6062693606017336  0.6763988149232858
  0.8464083366648150  0.8824638653256058  0.0688353394717411
  0.1515138494283169  0.5286478615614936  0.5090855800084123
  0.2563588530327768  0.8285948483798272  1.0129140086730346
  0.3941490893353840  0.5359785403310939  0.6949838096016707
  0.5186008195277042  0.7335917132227772  0.1202063536556893
  0.7695041285577749  0.9869158493577161  0.9823800092834806
  0.8352238481135156  0.1285800009571821  0.0209911027960996
  0.9860016363673855  0.0554341979259170  0.0409795515563929
  0.2197435752212205  0.3879922485531025  0.6607749117748902
  0.3592100846347261  0.6066885687564866  0.6129172127568188
  0.2392616861928006  0.9557342154902810  0.9891987734660495
  0.2903769853231759  0.3657477829965056  0.7442061989087793
  0.3423310135658255  0.9604437990579979  0.1854306329516620
  0.8406646025292013  0.8105711093567081  0.1498093488567757
  0.2973604663467204  0.5216865837296129  0.7823122001691790
  0.4715787332850323  0.8264031107416686  0.0793027181952071
  0.5728713681053107  0.7845713922883711  0.0658712125768223
  0.5139726781141504  0.6862636570803572  0.0757894343089748
  0.6186666191754556  0.6607270684464812 -0.0003397016044340
  0.1346371805326520  0.4516400089097199  0.6265177761246845
  0.9768790407645299  0.4671631327781353  0.0705756915306527
  0.0454891292923232  0.5624325558081062  0.6366488256456614
  0.9249215492047513  0.4873401233525653  0.3310444437515781
  0.8449210400878202  0.8256436428111755  0.3170926191096072
  0.1157242391229505  0.0912744883067336  0.8480699928150186
  0.1050807062107040  0.5559284243714856  0.6573206560833388
  0.7913175018455654  0.7093495826995456  0.4507981051980257
  0.5900343823572396  0.8733144262875850  0.7809969895196155
  0.6853463955180424  0.0269830950635677  0.7657294357920591
  0.9399874722472671  0.2104879591717859  0.9826373124839495
  0.9364626276387681  0.1765009341713799  0.9318217746857801
  0.6133668091658827  0.0401340927956917  0.0879513888923111
  0.8394949786330470  0.0948138948461945  0.9150729199267157
  0.0120264415327253  0.9296934991423842  0.2917095333488349
  0.7850322464102444  0.0688764171083024  0.7878076969870597
  0.1060584397273036  0.8414195093756566  0.2366247406131797
  0.6755837889024977  0.0414593676120592  0.7031213732472400
  0.7810945968438003  0.0397979650350102  0.6822382777265116
  0.7125343990155018  0.9617683891983861  0.5781415881609983
  0.0996510528239684  0.7347439209522870  0.2054496370414059
  0.2024176222617606  0.6872160034091225  0.1944022672550144
  0.9943834225569393  0.1866912225038960  0.9495767857683853
  0.6965659303717818  0.9124872947143232  0.4727404046227144
  0.5847321803495784  0.9446599209184442  0.9371528654115409
  0.2203910276866271  0.6286876652384886  0.5058622975886279
  0.8749406065126070  0.5050278962545123  0.3620415849610611
  0.8750813796059268  0.5511109172406899  0.4104548555458425
  0.0191276484012059  0.7438184471368747  0.7824029032361638
  0.0228203247866288  0.6005575898270101  0.7160384105484405
  0.4189102817356892  0.1759115423517542  0.3795786735334029
  0.7816311526516564  0.6540090586935322  0.4071736941610977
  0.3512276023778368  0.7360421918857813  0.7341688881229227
  0.3622161822991668  0.6905589478075116  0.6887480075138687
  0.0645822356367622  0.6177562137773062  0.6171250906869733
  0.8251262042914631  0.5782783694186794  0.3810278473047173
  0.9310108916906070  0.5806158290742996  0.1899239988748035
  0.9864704884754510  0.6114803115782450  0.1994298520070865
  0.3605326107351193  0.7240999531286774  0.7945880577850241
  0.2039647384604282  0.5625642307813863  0.5787772754458405
  0.8338436455695502  0.7360793834304221 -0.0032843440763451
  0.9778728833769269  0.4887402182511115  0.4665719227100986
  0.5489154667174848  0.9860848436592482  0.7464275485003470
  0.0769945221078868  0.5217795599099138  0.8199042414971383
  0.1346442300785993  0.7388091448273784  0.7645763632147690
  0.4879838595060837  0.9934432428834379  0.7256462167398230
  0.5156731338048419  0.4871881938293560  0.6347710945261733
  0.2409836055411276  0.7697972407545736  0.8549305478750010
  0.8345296753839331  0.6843762334550550  0.4109440125853946
  0.6027665028379916  0.8881173806684468  0.9495671674463414
  0.3635403950000854  0.9562932919048337  0.9662284906953058
  0.4613534133894126  0.7681855207726773  0.8167662146014927
  0.3902243426055529  0.7556884955123644  0.6316881338758513
  0.4221088878180116  0.7136165813605843  0.8161087104767496
  0.6498593062822816  0.9918413958084645  0.2612280489793077
  0.8492452679816420  0.9319010567272866  0.1065074721222402
  0.1188092874850272  0.9770498282973858  0.8908794798675894
  0.0758872831780614  0.0412478397963199  0.8444665466192846
  0.0796616021793917  0.0380827958717036  0.4502930416618393
  0.0447821320423850  0.8225469164662209  0.5717104312934119
  0.0366586155707059  0.8666893684163509  0.6159282375281946
 -0.0086298838215031  0.8156997651205156  0.6121837086409395
  0.3361575034307941  0.3099775090505471  1.0029429720110905
  0.2671951527967182  0.3185784598646988  0.9844070658125682
  0.0866385749887916  0.8276261030869888  0.6245700125016740
  0.2725146183443227  0.2909162774773496  0.8610222860845046
  0.2344373198250457  0.2409348411717756  0.8516376299168451
  0.8541403901026844  0.2092399787420178  0.8483230329428711
  0.4286037015731096  0.9186309491243713  0.2668622955638247
  0.1629398167056085  0.2611053909315741  0.7708128860339175
  0.2238580157155799  0.2543851489697437  0.7926007931467633
  0.8959616424060177  0.8098341710465354  0.2825481411941596
  0.4782510394498197  0.9023679978212978  0.2310857568827594
  0.0111889892950315  0.2882413297454182  0.2597922961193871
  0.9066110163741020  0.3331933996549915  0.2650729480839135
  0.9040805065526447  0.8867511088365133  0.4379348927925886
  0.9538515032540821  0.8687365592902356  0.4068734315860098
  0.0647308926490073  0.0828377230843252  0.8863863014574568
  0.1856327518202978  0.9375879577245190  0.9764880881274108
  0.4901067122488274  0.9787472990509972  0.3839637381729566
  0.0575675197776744  0.7344683204070963  0.5731560722311770
  0.6043538805867450  0.4387061562698830  0.4041706735681859
  0.7253562145849334  0.6404203447601199  0.3311085578125996
  0.8268416636621231  0.5940324727958728  0.3212004348717756
  0.7770736451223179  0.6082972616123424  0.3589852702038341
  0.5681629763445400  0.9297192205710025  0.7651812519893971
  0.9893675044855524  0.6409490202076643  0.3052415651595314
  0.8725236472886436  0.5174030041134574  0.3029225029922161
  0.1591722507650306  0.7035354246028001  0.9522042195331994
  0.2212376073398117  0.6951995456311193  0.9739104209968322
  0.4657118936140547  0.8594956774592327  0.6342499538377718
  0.8657132757534445  0.4064913853463056  0.2766315593443536
  0.9168559051562989  0.3943726325089404  0.2458027142289984
  0.8933809196749893  0.7491514320902181  0.2968398172189096
  0.9550905889954453  0.3071937797214156  0.2954706329488261
  0.1238974264357312  0.2119775319063673  0.7670191379414918
  0.5322686617606059  0.8716626576199497  0.2548187045219913
  0.1720127467759891  0.2179819276395068  0.7273565645272116
  0.9538007116561579  0.2701119690817830  0.1893550453753418
  0.6057740095032771  1.0012111380754911  0.0432100839510866
  0.5710157897300927  0.9616946675707494  0.8733591793427651
  0.7286156567258053  0.7016737032601037  0.3159403607392482
  0.4194774223628490  0.9485076940596220 -0.0036333544690029
  0.3891841264720614  0.6664523637883593  0.8121411395759378
  0.0939355726691139  0.5771856934902436  0.7987359137261205
  0.8369185057449531  0.7661468169510931  0.1043038954676234
  0.9342410201774818  0.5975105008398430  0.1307195047320867
  0.7434765785138037  0.4365574944853661  0.5611489583189331
  0.8832035688774531  0.6294077111748384  0.1024555618202812
  0.1804633747194621  0.7470896553313334  0.7267223165641001
  0.8759805954681479  0.5946782713494081  0.4551016584947035
  0.3221355753323649  0.7053621652509983  0.8946773909830341
  0.2930758225378797  0.6307751184346899  0.7524601075620577
  0.9239761784554203  0.5660656124358927  0.4811165668886670
  0.0626691822533222  0.6490525069495084  0.7221603217446929
  0.7801987427513910  0.7186611533328917  0.1551335964996489
  0.2462056342564874  0.5939118346705885  0.6824384652805863
  0.1237726580667027  1.0010551792527451  0.5459705939740576
  0.7221880633820844  0.7834302450470968  0.0015717132590075
  0.1022619675638317  0.1050687332268872  0.7837694449675067
  0.8537234299698477  0.3171095152987554  0.1935173727897354
  0.8352302932587186  0.7220169130690922  0.0609404024243727
  0.0735781804829752  0.1734445659404969  0.6999605752756740
  0.1384754096764031  0.8617746444289298  0.6924724552670288
  0.9451910255541287  0.1603265565808429  0.1673658119314641
  0.9485430902367602  0.2089195793144923  0.2106784293722012
  0.2091873998707987  0.3314009967971479  0.9451332831850692
  0.2473487595464525  0.3745445747421254  0.9554274290129210
  0.1879815230374565  0.3863874622004437  0.9304845929257830
  0.0430441510346252  0.2765903409985594  0.7302630454295428
  0.0627119832233179  0.1874713543051549  0.6381045940693482
  0.6845729617522911  0.4459241071540322  0.5322017188130080
  0.6453955719571474  0.3957739701802911  0.5181394434676190
  0.9808484416718305  0.7198945861893362  0.8822642032395788
  0.9400568047855694  0.6724252476294368  0.8793397940272504
  0.4627379113510047  0.6239880572507843  0.4169585710316140
  0.5130256310371323  0.5932879943840287  0.4464510041560574
  0.5083280499511041  0.5471275562987777  0.3978316268964820
  0.5111647114839225  0.5343786512081998  0.4572395654628459
  0.8529459121905821  0.6100575867447939  0.7102131749149850
  0.9084111689308288  0.9459310538576781  0.4218982535447374
  0.3719316029597338  0.7094515983958565  0.8566168430681478
  0.1754656961536356  0.9807684961826932  0.5107540770847039
  0.1852471481445528  0.2362414797916483  0.8915711657358354
  0.8133969736644791  0.4535757391392733  0.1865421391112132
  0.8681775742645652  0.4215219015275626  0.2141469123392911
  0.1203685978267028  0.9386138355157508  0.5181214807757035
  0.9076220303781627  0.3504397940083630  0.2017287432735344
  0.0958595821706378  0.1479514488586244  0.8269159455830615
  0.1290535147431356  0.9240396376046230  0.5825003056982027
  0.8577322838435211  0.3618627203145260  0.2349862718359219
  0.9653613532672038  0.8437482996050265  0.4816465130189480
  0.8415503716165329  0.2226575535351388  0.7876986636730652
  0.8689083685717770 -0.0556238160235722  0.9778321777049132
  0.2468734175258102  0.5643616265219259  0.1320188568833024
  0.8262178394178125  0.5678465885497370  0.6726453395308915
  0.2626398631876939  0.9107553565474924  0.9485576713532712
  0.6727957580267331  0.2055748812842958  0.6753588639609837
  0.6322434945522942  0.2585589784326466  0.3737564506250544
  0.9201267818281844  0.7017834725726692  0.7547882184466150
  0.6809033036250289  0.1826608035459479  0.3547772654428216
  0.8840760576041713  0.6751525879156235  0.6542193248769276
  0.9040887536066934  0.6163107481213707  0.6707461038132698
  0.8213162722978918  0.0633735007467192  0.3401493717550390
  0.6951976560541345  0.4323694368455065  0.5943258190049741
  0.7660424989357206  0.0688317895985768  0.4378335846139289
  0.7570764330003489  0.4245849124740457  0.6171207165787416
  0.4827982269413964  0.3681018459918171  0.4625891659344327
  0.9492250529087736  0.3858926235788964  0.7403761002952813
  0.9729614673492299  0.3308844739990017  0.7534155881502244
  0.9107143042335487  0.3381481455545128  0.7327637474860974
  0.5470736146080464  0.0129272903759585  0.0777309900793866
  0.9224483381379143  0.2909292442660848  0.6894192877471506
  0.8592818190878510  0.3008650118150716  0.6686119445341676
  0.8504313656952084  0.3142134819828330  0.6095453667863313
 -0.0023057667075917  0.7947903452707555  0.1541936826335090
  0.8158633833992538  0.2171250556499726  0.5609603272750198
  0.7481948224344712  0.2489158104239581  0.5338706173434934
  0.9766037870065996  0.4787466569952579  0.7930790029764027
  0.0457646871196344  0.7217803122849659  0.1353496983763439
  0.9495749172724117  0.3544043245519256  0.6330281658710118
  0.1484241512947838  0.6748266565176404  0.1246206096196818
  0.2699980186000712  0.8149576409007006  0.4701277430042816
  0.8812510717046529  0.3741334052525876  0.5527535436416743
  0.8516446290009541  0.2581713978510118  0.5023354177692879
  0.5807110236623272  0.2069715084903904  0.1952610734201093
  0.9374434435405432  0.4299524048230711  0.7868734585343709
  0.7967689007072757  0.5046852134393774  0.7274741871713541
  0.7642023652681327  0.0347867370415247  0.3336872552050284
  0.9027947502788223  0.7316058272602426  0.6314752723819645
  0.2717129134517360  0.8834041085255445  0.4553626804954433
  0.7401167272309355  0.2632411484795156  0.4083825640567132
  0.7898147890503936  0.2342018645541681  0.4370949481376799
  0.7774809389643906  0.3955646602724240  0.7389457075164141
  0.7371243645797011  0.2149048945149865  0.3649687024633740
  0.7286827184814189  0.3615366899033097  0.6713251682870185
  0.6693320521929442  0.3696474894142502  0.6481542379602974
  0.7204343649484294  0.3772715283805826  0.6055397563399486
  0.6800010524750230  0.3269205545021560  0.6042713609598216
  0.0478520889351961  0.5899241991458831  0.0034639696361903
  0.9166656155845931  0.0055706382943700  0.4031047653138935
  0.9430771424041310  0.5585514129838520  0.9161994026564694
  0.3230484761169592  0.8512393054489691  0.4762088246401855
  0.9054318729765166  0.5315723510421495  0.8154516811002323
  0.8422275835246918  0.3246294903870935  0.5515608285859220
  0.3598996525636031  0.6887697502684892  0.3646320178205915
  0.8868547607549797  0.4239657213908701  0.8263181457677160
  0.2653741585172799  0.7937027919751790  0.3598011184285909
  0.1782046052608405  0.6474704877042674  0.9714208539316147
  0.6340637196707953  0.1559479133218918  0.6688002368767403
  0.6872822716594285  0.2778804719676112  0.4440096458402202
  0.6920501690680340  0.3420144765655747  0.4245292535919615
  0.8653349857806084  0.5105995279461948  0.9148031008057035
  0.9258444134356868  0.5020030300163111  0.9372432440030307
  0.9348719863985713  0.6824304115076139  0.6155379386373649
  0.2211050764967148  0.9044700647778161  0.4908979066368476
  0.2196685975684888  0.8563103937004466  0.4466194728911221
  0.8318114892365397  0.6524626104333613  0.5291579217838942
  0.8459128359075456  0.5111359304874281  0.6896342119097854
  0.8957524832619470  0.5454771895642663  0.7550554491999829
  0.9244726475364283  0.8171751220057074  0.5181344607926737
  0.8353583294264267  0.5539433174549921  0.7333754234183738
  0.8439582317245342  0.2115306658441106  0.4592436940463456
  0.9985083557285792  0.4214143511130341  0.8061321162684313
  0.7381683405372590  0.3468162072892408  0.7333591861297967
  0.6380462874404034  0.3067817398865343  0.7061471310778867
  0.8057523144751632  0.1603202401632679  0.5241199764103314
  0.5883968606527871  0.2699231044606344  0.6385298963474333
  0.8679803333575139  0.0716745522663279  0.4767201915262172
  0.5630632372891748  0.6783398839914747  0.9751185733411577
  0.6399669777765771  0.2759712542034417  0.5996832401651793
  0.5532098019022419  0.4984764980213185  0.4797922803413032
  0.9391527349306101  0.6526985324307251  0.5123678262176693
  0.8939097418695112  0.5501405628419140  0.9551258530446144
  0.6997940506839516  0.2979173753852004  0.7292330865567619
  1.0086088562236779  0.4098001241525590  0.8663003896176568
  0.7026988367562322  0.1372737103121866  0.5150757808637423
  0.5097098938376120  0.0648808199348959  0.0946784368318969
  0.9262420358035303  0.4424022939468383  0.7262130463858072
  0.1109679953410708  0.8700559140279370  0.3450946130209737
  0.8773992842397148  0.4085950007562806  0.6593994186095506
  0.8177276103425132  0.4170601661203956  0.6383928434011478
  0.8661333193226756  0.4216890151046072  0.6004225030829695
  0.7698819677616205  0.3829631911100202  0.5576658376511131
  0.2097177548322887  0.7783723337274689  0.2865834605586957
  0.2024198589714869  0.6716859557188918  0.2551346925889985
  0.9361302197831571  0.5658319346091361  0.6555414126689587
  0.2984036295118517  0.5803948306808961  0.2031364780420804
  0.8535156133588159  0.4391931125408946  0.5423454620853120
  0.9622174617702615  0.6082293431625072  0.6938625664483613
  0.9864512617875189  0.5711928573470272  0.6147496671665976
  0.3908204388111969  0.4092399886273362  0.2328749098429498
  0.9774535742228283  0.5846332253614598  0.5546660736544473
  0.4389802769750861  0.3446597411229202  0.1530965690018989
  0.6663608267135914  0.4510021494450630  0.4747390355021008
  0.5394147310010491  0.2335016343218676  0.5733614983880102
  0.8113580973963108  0.0400762912762246  0.9220339652537054
  0.9656236465892970  0.4922460570549256  0.7323129456434827
  0.0663003901524676  0.9468770960620815  0.3646892647614435
  1.0039815262967804  0.5504611832195232  0.9394084451191409
  0.7201995702339151  0.0313400723436331  0.1943730623104788
  0.8522506384688974  0.1752213266795142  0.7434149484610384
  0.2453869275679438  0.5488043524107035  0.1928895644972809
  0.8039731273122285  0.1431040485122575  0.6744274917552517
  0.3444343758042978  0.4524774547470997  0.1430107096747994
  0.7558673778381483  0.1101798270655594  0.6055889147681961
  0.2904993644114989  0.4225246536986716  0.1328300298450363
  0.6545013881326138  0.0986791482420556  0.5122969004894267
  0.3905152759444646  0.3752692934902719  0.1282958846619829
  0.5944307455017955  0.0062086605600615  0.5274532587106060
  0.7429541503862268  0.0509847459159855  0.8920042026021674
  0.9801382536851413  0.3446003054575121  0.9205325494437260
  0.9937612597869419  0.3006699720191738  0.8809459162993252
  0.7482698109205113  0.0195472629834143  0.7870639243093567
  0.7610490493412464  0.0040944848285874  0.8558420664919520
  0.3879150547456790  0.3307117699488307  0.0861102289068290
  0.8253800120879736 -0.0001634250717969  0.8502776995475112
  0.7880916707492247  0.3529887737361268  0.6921960146067969
  0.6305160539830822  0.1761536214213387  0.2228496725529145
  0.6240675173306305  0.1166884603331934  0.2403980393817021
  0.7512058969729125  0.2730099818524560  0.5867096544204047
  0.3353633528691249  0.3452531968830159  0.1200806320289387
  0.7652131646391725  0.0686126687048921  0.5591722658071804
  0.8033392911219794  0.1754103289652806  0.7803777826600911
  0.3790584617644369  0.2671434342030099  0.1056521031315059
  0.1886562995931423  0.4243576324147817  0.0376891111748335
  0.2425826854655149  0.3587737623078024  0.0206713797444414
  0.9440444094658375  0.2338443716870803  0.7047500025383353
  0.6586344277719048  0.1672807570118548  0.5029245752220930
  0.7167070228607273  0.1461247947305561  0.4512186435442634
  0.8560844323280802  0.1470054152370124  0.6318825143126938
  0.8114312483299401  0.0872405949982295  0.5127349301658433
  0.1906472632887925  0.4817371932357852  0.0799214567896226
  0.1415100744207443  0.5648938384156897  0.0978608504919719
  0.4779198056781589  0.2181707674971059  0.0951763492640941
  0.9526109720489960  0.4788769461186079  0.5657278050386296
  0.8932807951684834  0.2283311941807808  0.7497567126048599
  0.4707783139986874  0.1691846997103452  0.0558059519477669
  0.8414879142494429  0.1895894637858122  0.6773875449573082
  0.5212188394083671  0.1337992702739489  0.0836291521933417
  0.7717335966900779  0.2164473153909253  0.6002708830551612
  0.4706911467557798  0.1584662768088609  0.1144869901025667
  0.7320598107551380  0.1659891072670925  0.5926641110398666
  0.5675154414236490  0.0675893627299153  0.0610774152161616
  0.7847139344847487  0.0974816181494924  0.8922164965176687
  0.1849121381558740  0.5336465496070776  0.0017052829431410
  0.8265039151218072  0.0785658778695588  0.6907145705607630
  0.8633918195648280  0.1317498828842529  0.6941824892968628
  0.8875927145423818  0.3940782405158183  0.7203258082309707
  0.9424795943515056  0.4520200773396928  0.5109991058384580
  0.2374639997377587  0.4655212064935146  0.0458593241363581
  0.8480794412240021  0.7976848994831407  0.4397613412481569
  0.8731755333363425  0.0173511519271664  0.9588880809987576
  0.9955161932885231  0.1308591749346970  0.9646040313282794
  0.9359372014522276  0.1432983390183269  0.8850147999115440
  0.9924335842419831  0.1357147917657695  0.9069341120338773
  0.3697908495384454  0.2399559238469665  0.0030690734428247
  0.9298285705203192  0.3099823306993158  0.8603513920125432
  0.9465378065558084  0.1018903832241014  0.8391924763979264
  0.4159344365109038  0.1467545378582725  0.0409642625833974
  0.4044774478662128  0.1080422869246844 -0.0039891407938535
  0.4296731027431441  0.0502150057515500  0.0186415919965843
 -0.0029274379264387  0.8139755094409762  0.0938952264945806
  0.8197047062003920 -0.0067102566520393  0.6772715857324961
  0.0482583418729212  0.7389395571013671  0.0736490083921551
  0.9655870684659681  0.2073613784259410  0.8282551792249019
  0.9750255328062225  0.1618380726400982  0.7827868267844208
  0.9346618771090320  0.1133044454654964  0.7783285163569564
  0.9082760804197847  0.0516629237161288  0.8345935993985613
  0.1051412718214104  0.1349571162380397  0.8885827731027715
  0.8680990186614729  0.4396098761836843  0.1518756995890642
  0.9552335664757509  0.8085265762501320  0.4159374798681858
  0.5429311229505283  0.9646694644418451  0.3475303710896834
  0.7207148923655401  0.5950932778890454  0.2860398723147923
  0.9953017559232344  0.1450031930413542  0.1334398151720722
  0.3710851056756340  0.5618812478238560  0.5687360520044025
  0.8890696058564798  0.7551750002140902  0.0668937523948778
  0.8910663778315193  0.1437572196585061  0.0947486482393984
  0.1892001036618239  0.9262049294744905  0.8664820407049605
  0.3104465609631931  0.5099184094175802  0.5112952635813716