C  Cr Ni
 1.0000000000000000
    38.7782925608872873    0.0000000000000000    0.0000000000000000
     0.0000000000000000   38.7782925608872873    0.0000000000000000
     0.0000000000000000    0.0000000000000000   38.7782925608872873
 C   Cr  Ni 
 106 1596 3725
Direct
  0.3286508096829288 -0.0258498316958107  0.5546479969752982
  1.0057719017534683  0.8303986160673394  0.4821191756512778
  0.0797266617157777  0.8313462487551906  0.4346947105225439
  0.7960427880646642  0.0045327811123442  0.8941141410421781
  0.5688604986753971  0.2476167984255153  0.0227119346698410
  0.2782518795419687  0.9222208860809922  0.4808698951745219
  0.3664339963499075  0.7167684572885626  0.9905457262421236
  0.6522227597400584  0.1952288614451831  0.5231624050846129
  0.0901677073163684  0.5214430437111978  0.6881522168716762
  0.2764270459458844  1.0437321233977024  0.1208861228018783
  0.2165140222403587  0.9580191521926440  0.5212642142980847
  0.5210380689486671  0.6469268829267033  0.9832784942043218
  0.3847928348020598  0.0018271913846812  0.2631893466995885
  0.6808716471351582  0.3261114710813908  0.3995519325919469
  0.6885397898592429  0.5294511742580373  0.0281483993220088
  0.8824175906883983  0.2425114246382117  0.8903887919113043
  0.1967064872054564  0.2029644337967973  0.6505788944590208
  0.2399396582472231  0.7016738351119338  0.4705199966356442
  0.7420019623055453  0.0177848219310235  0.0524771615231302
  0.4416333944194314  0.5700160473006736  0.5491648892945048
  0.2026696298037360  0.8799626522518768  0.5216146301813318
  0.0201870354275222  0.3381914855708764  0.4606970224639476
  0.8800225655118885  0.9510988151204695  0.1541944941150711
  0.1691822419663656  0.6158428999503810  0.4057676593552699
  0.8662392632563064  0.0146090735053093  0.6665019559981251
  0.7786117544774631  0.0710865801310014  0.9371122593027209
  0.9879849654755446  0.8986711313387815  0.5454911165798405
  0.1826151956231270  0.3288202348886366  0.0320417400008330
  0.3301978790509214  0.9657687801804107  0.2416542675264548
  0.5206701798170692  0.0805222072267791  0.6726820816521685
  0.7437787671886058 -0.0315830380887153  0.5600121383046360
  0.3250643139149783 -0.0074242748615042  0.3381789009246072
  0.5558351112146088  0.3288147195652276  0.0423443906351799
  0.7225580157611998  0.6435858179680792  0.4880360888721669
  0.9759904275129072  0.8340465231298102  0.3944463320427206
  0.1420475518671530  0.8377622279022600  0.5188157041920854
  0.5616818148813367  0.9227942655138701  0.3373450653195086
  0.5273204860645125  0.2302072744860836  0.8870691503320906
  0.2690081729992660  0.3060156804041864  0.0135158119581040
  1.0135440736966586  0.8977077054037077  0.4543371233453290
  0.8304062579141431  0.9856830378868547  0.5266964195745264
  0.8508166235959076  0.0622576419997843  0.9585803373753006
  0.6035535254458558  0.8618580968366937  0.3942123158137438
  0.1434192405428187  0.2355311526026252  0.4369855072477436
  0.7859922157958981  0.9786368014418670  0.3346969601618261
  0.4909816766759539  0.7250590978593305  0.0819615678484013
  0.3295853785291785  0.0877730786100581  0.4273666508981456
  0.4027311371330901  0.6971900674323701  0.7160985585042516
  0.5497483621908735  0.1649006042412101  0.8458166338044595
  0.6647349796224740  0.8589561697678881  0.5426476270723872
  0.6119975144659031  0.0870099448407431  0.9395212620625041
  0.4933248915743904  0.1269174644587520  0.1055546748618218
  0.4670951657308563  0.7751637369939701  0.4753256969245958
  0.8058058709024424  0.0921013962051937  0.1091930443125784
  0.5266887295541396  0.8136750340077741  0.5641561646549483
  0.2627549284836349  0.6018232378305485  0.0243844650619847
  0.5773224739059566  0.9000531013877237  0.5477609393632663
  0.7705066110665454  0.9282164233886615  0.4069206354286102
  0.8766944274479787  0.9352313965737028  0.6343917065561745
  0.9439685224022215  0.9979731306683741  0.6340822273046897
  0.3596759719777387  0.6300961584366157  0.0267705645434446
  0.6717735272476631  0.2879487224985804  0.0466773489465464
  1.0338116493049960  0.2808525450674818  0.5169663565983134
  0.5520638063958556  0.7819776734790650  0.4322534458386623
  0.8864573496679719  0.1805516588730389  0.4790674953284568
  0.1527504607621277  0.9631344442551673  0.5583112102795895
  0.4733924694080147  0.1647320170289373  0.8798558566889504
  0.0720437542152512  0.9391190412897027  0.5172680484632840
  0.3933161562936017  0.6943588370546029  0.6369292348539208
  0.1160640873580371  0.3446068101695678  1.0025717800328868
  0.9579656686169633  0.0348875359376482  0.0641094319259048
  0.3539387290787123  0.9401787955590223  0.4380838137073125
  0.2178064338820548  0.9755557328855912  0.1801956290287808
  1.0511413573394948  1.0131795856214847  0.4875899987400746
  0.9041398397939405  0.3098815092227661  0.9386263075596242
  0.6272183616051012  0.9005645142696758  0.4593724810155399
  0.1360859855792168  0.8656621522437461  0.4493964718811724
  0.8808028358447522  0.9268182149958609  0.0830811543221472
  0.9036255369949233  1.0143818650216014  0.5488453574794304
  0.9158459475238765  0.9413334052540968  0.5713562595055073
  0.9524205001228380  0.3616029329559996  0.4886753320873591
  0.8793911236030598  0.3266477148235687  0.5261249564311872
  1.0160522951614310  0.4966602705969564  0.4289027921603009
  0.3435822856437148  0.5515194740217667  0.5111545160058225
  0.3156198631142261  0.6202512620745330  0.5504990052003013
  0.0725701836589077  0.4795022499097697  0.0549261417338500
  0.2969425565336166  0.6520430768832121  0.0727198776313357
  0.1491193753723013  0.2882830041751213  0.4984076501344329
  0.0197529319223852  0.2821684568275823  0.0502713247753505
 -0.0267406853993754  0.8295249402204374  0.9241624861628059
  0.6087273075657064  0.1754848564774580  0.9177200875285817
  0.1341122887618137  0.9675325625684330  0.4794896209402072
  0.7569646942133796  0.9885885378182568  0.9875775280612193
  1.0112760031189418  0.4092605002556608  0.4322615745329493
  0.8026343051086919  0.9479962282257425  0.3192628050679507
  0.8678785265448050  0.2116989211376862  0.7135557245062837
  0.5674172508810917  0.8584680007607335  0.4007117264201496
  0.1953512625732325  0.9118869616837103  0.3922472397133903
  0.7175377497084940  0.9239244570198116  0.2753694646663961
  0.4195575643893203  0.1534978357253948  0.9245199307364231
  0.7080819342178518  0.7561724144787727  0.2617623277104427
  0.3496359083579574  0.8125452421321968  0.4676404112091860
  0.8902366272189740  0.0440358415253621  0.1173786339924906
  0.9897993783928244  0.3424050503220874  0.2039129841625359
  0.0502470852002943  0.3799090567123976  0.5109991650237544
  0.8334995825558743 -0.0117746977983866  0.9602969709465830
  0.7799029243332197  0.9683816154211307  0.7705750834461653
  0.3187120307230145  0.8233971329595272  0.3686998452263672
  0.5831836483084119  0.7208235925837052  0.7501400617339240
  0.5577982891898789  0.5172472515257133  0.1957206713786107
  0.4737943256041811  0.7307115619531734  0.5028193270369977
  0.4065770230460908  0.6679004884743952  0.1011505311641924
  0.5572966595423261  0.0647216750619822  0.3663027988291918
  0.7089239083173645  0.2832149343767179  0.7901202585727961
  0.3745740396392696  0.1390319764578875  0.8094088411271477
  0.9968347774155101  0.4521197903166476  0.9124143866710809
  0.6432787734508862  0.8161137634978861  0.5286883970903478
  0.9574914285141815  0.4017923332212761  0.9073853686555380
  0.7031411860586357  0.3458971253448692  0.1267657949786463
  0.9873290299551405  0.4654962626811910  0.8520293586933776
  0.4183744638269495  0.9776024465044747  0.5349545056481799
  0.7275091010429477  0.0711298387094117  0.2361346507924703
  0.9272929183903816  0.3413223388674244  0.9702804598507079
  0.8186095533673154  0.3123277383987118  0.8778966788766321
  0.6528280500134400  0.5875542003243164  0.8664852298170971
  0.0278162825613004  0.3912224488630271  0.0496411477686875
  0.1562677134861581  0.7607135527072402  0.0491948075159967
  0.7005245573250464  0.8206799297055931  0.5534734159651171
  0.1668234846284527  0.2544824617012351  0.0978903998111061
  0.2423898298939751  0.5233174787610515  0.0264593694145012
  0.7543675990908995  0.5983279626281738  0.7866297617071766
  0.2484876139681687  0.0415993828971988  0.0796917142748158
  0.0865575427617326  0.5339428884139154  0.0851898781404998
  0.2510187733106637  0.0552734186872239  0.0158089834720255
  0.0336443083421276  0.5345319708146246  0.1833871882014267
  0.2056925827201613  0.1167413701274589  0.0994289011341195
  0.2557441956706761  0.1017624468647438  0.0633967342650477
  0.0660760672894483  0.5220116508627380  0.0258920110030482
  0.0825610399589361  0.4585335954197352  0.1654599370277103
  0.1645985584691934  0.2762031502484287  0.0309276996523760
  0.1591747657847060  0.4004232470374418  0.4726592613687007
  0.2715999366295559  0.3580416672573133  0.4489598612668664
  0.5227933444139679  0.2222780517432717 -0.0006766647489462
  0.4965626059774690  0.2719790286147261 -0.0252362038540976
  0.5306915794452166  0.0808077043433453  0.5321090257475555
  0.5093688745543186  0.1312466289272600  0.5176910949331917
  0.5244326004806548  0.1244022519673743  0.5793821107647072
  0.5748126828997142  0.1599442178730542  0.6491807526373530
  0.1575662243836786  0.8039740931481647  0.0959589796138413
  0.5513245024275039  0.2186001748857508  0.6336676228852376
  0.5625011719066628  0.2065873167041331  0.6924154692171498
  0.9583292670419965  0.1998998806949093  0.5111348601787200
  0.2704729066951015  0.7419124949723755  0.4833314138770198
  0.7215671174061237  0.6781936813836092  0.9131338110405589
  0.8645341209971371  0.9380482324002398  0.5811355296291092
  0.8454105329388638  0.3102785399111638  0.4906854555499982
  0.7444107983881811  0.6422101310772724  0.8324393154581110
  0.6454380453268456  0.5995460489639393  0.8055983612294292
  0.6349703585604868  0.6141356492620316  0.7452623176625987
  0.8951657231105576  0.2430086659685088  0.4110338540143240
  0.6062321224933679  0.5707369812368808  0.7054222523646888
  0.8697619358914466  0.1348743257171181  0.4690195922244813
  0.3600537879065672  0.0850021659663420  0.5342947591558903
  0.6963053816635764  0.3575122650174284  0.9408843802353338
  0.5964655950278329  0.3156824216243811  0.9158045244023396
  0.5799727804898095  0.3427017805701270  0.7906106398199015
  0.8518198555190628  0.9420452779304967  0.5195144398467159
  0.7107769205303763  0.4698115243379585  0.3190534219506878
  0.6469582725613535  0.3785004123635968  0.3283021820384326
  0.4465572647612452  0.1204195074550056  0.8932423473939732
  0.4777514705337056  0.0188510008851795  0.8687010052143153
  0.6947991363021249  0.3163319040918351  0.2531767943208213
  0.3952577613578532  0.0818723452157050  0.8285936321695255
  0.4065995442952728  0.0697517917474531  0.8921381309397208
  0.8402094707214203  0.1804369852124008  0.2944235237955639
  0.4433437876667298  0.4252361724838518  0.3034805903026278
  0.8973247506128036  0.2901934272066330  0.4510469101131311
  0.8553344378612338  0.8891071786473055  0.6372135037619141
  0.7979930885557531  0.3381384521658077  0.4586044588388531
  0.8282675290036270  0.4349083177944742  0.4785969782986182
  0.3929493545320211  0.3053200432487811  0.5073760766264935
  0.5251678145577967  0.1852493616174370  0.8030087941413196
  0.5133840902768009  0.6391218339529883  0.2595909186278046
  0.5147048765316583  0.6252661718062801  0.3197237568449320
  0.4629052528367101  0.1637441879253147  0.6663287421675229
  0.4234573557012615  0.1130494873328143  0.6617138123521623
  0.4130049131341594  0.1256320612117295  0.6016874224960197
  0.4317182453380680  0.9158815956733748  0.4952474888849569
  0.9776675569803185  0.1009136628850898  0.3962861411004569
  0.9841102355261006  0.1438254914998763  0.4328836366278065
  0.5744442273592135  0.6137859170277977  0.5196314026271470
  0.6382714032102340  0.1185814161637282  0.5538694041616704
  0.6573569504862611  0.7621678925560738  0.5478033182588342
  0.4730392581667403  0.7319769638457621  0.4424449779165505
  0.8930831768744717  0.9651629792342122  0.7568978641675883
  0.9642324549066806  0.9424273455364005  0.8397374443325075
  0.8674014635724694  0.9846200195757047  0.6282317664022873
  0.9224198544957567  0.9548626385932054  0.6544179747379949
  0.7113186978298767  0.4352270374216091  0.4425558758589633
  0.5942551032075257  0.5576049422390645  0.5351632773612294
  0.8106490649564504  0.9097255044247393  0.5676298123912381
  0.6169242714379355  0.5282287392125304  0.6616662575945396
  0.7268120231814656  0.5266414300418361  0.6437266983206554
  0.6753399456112953  0.1707074529781806  0.5616748816307308
  0.6167644774235700  0.5000769401835166  0.5574098018975511
  0.5191910582481676  0.2908453487546531  0.5487925396949271
  0.4185678463344905  0.0121640920020473  0.6408772279076644
  0.4434552644425023  0.0558105956532273  0.6803399294336495
  0.4873952090748018  0.2860029548420789  0.0782792009908696
  0.4359729220098263  0.3189951097900475  0.0595106659782228
  0.5558944166055817  0.0842671041907308  0.7682221266513455
  0.4480138279632624  0.3608623930933700  0.0970704374303534
  0.4974100411257671  0.1282528780331995  0.8511034641824115
  0.5028151864487527  0.3441050903563066  0.0607318234049279
  0.4001963331030318  0.3816176001282592  0.0619441736694715
  0.3987326488015097  0.4840521440420267  0.1532339834180350
  0.6303142141392816  0.2142973524497203  0.8841105218203037
  0.6532535357013755  0.0871733807153872  0.9715477238766906
  0.4014173834213360  0.4979481670940800  0.0939286679736228
  0.5258036527129790  0.0230070127240987  0.8301727590515758
  0.5595129847252660  0.9722146309579881  0.8134587687175363
  0.5378574030064048  0.0099575581499047  0.8918492991272308
  0.5275249850794668  0.0537021904639158  0.9389357741394072
  0.5759609345926457  0.0580033482010916  0.8952238275067462
  0.3515297609454832  0.5782046761239981  0.1076206393215513
  0.5956388127923469  0.3321472796577182  0.1547828596295416
  0.4542147444973125  0.5305890802297853  0.1015935185715236
  0.0211171581693100  0.0101661720984287  0.4448573682250844
  0.1662280833654404  0.9344289231025843  0.2315772772418843
  0.0051620448308735  0.8782214088280759  0.4984043769362922
  0.1313132528099531  0.4575479450147716  0.2995425617386079
  0.3689159580459870  0.2106165434415726  0.3534740730071344
  0.3725803136472729  0.2579542822641280  0.4006335907409397
  0.3742099458723960  0.2722429706076297  0.3376352224824730
  0.3251877200126385  0.3401369364167651  0.4172265360880690
  0.4251097847452637  0.2873300017904561  0.4054025918453026
  0.0447789540860599  0.7197232451710414  0.3618997526491138
  0.2357364761738759  0.4421052448314947  0.3941023811055525
  0.1900248840241985  0.5158395083118946  0.4158695988625778
  0.2933303057872295  0.4764731961705773  0.4052404731737057
  0.1338591201319706  0.5020516455924892  0.3430693115072615
  0.3636412812381533  0.1629214889266624  0.3068862507668370
  0.2409625796067933  0.5200065318529404  0.3165833405258286
  0.2440175827110599  0.5471701875594369  0.4247481564028700
  0.2460463178992450  0.5648063039065183  0.3598956042567047
  0.1389502896791701  0.5900517125508405  0.4356677835285447
  0.1440693300563112  0.6576291703874315  0.4153080248722251
  0.0472407984629642  0.7495578262188163  0.4695273542550725
  0.0481048561105771  0.8075169155725269  0.4629836472259772
  0.3155353598131259  0.1964293454886364  0.2857345349939157
  0.0441015724096974  0.8346923255805330  0.5164830490818773
  0.3597195441280392  0.2863269943019964  0.6118679922319231
  0.6865500460325319  0.4765793047088578  0.6392358391104351
  0.9612567790856709  0.0043594515817880  0.5462816586757214
  0.4178358719826586  0.2482823865367547  0.5270532201507301
  0.7400206079920557  0.3215158802019012  0.3932705253770712
  1.0221684393916712  0.9852105406746019  0.5746502881578883
  0.9180122475550877  0.9870814164024451  0.5921017101170605
  0.9813078796681343  0.9731268823966212  0.6140688386333769
  0.8142535941847706  0.7607584001809383  0.4847430923411511
  0.4731458662238788  0.1187944403361674  0.6188007516591217
  0.4810639965554142  0.1074434911708002  0.6849597219882640
  0.5484249782091822  0.1003221960609056  0.7079521862043381
  0.5857991032803589  0.1486009702393231  0.7087834625389233
  0.6199785436757045  0.0986934418389326  0.0724334139551208
  0.6977673970000348  0.0440541170719650  0.9403875529719428
  0.5874839578984040  0.1769223631828780  0.8124490250536966
  0.5779269925374592  0.1797609372623312  0.0909396800152407
  0.7065653864516411  0.3136920363827947  0.8971997729117008
  0.6757833087776213  0.2486232649995915  0.9513709793123605
  0.4816402928215490  0.2406237943218333  0.5505826440360523
  0.2569650058411791  0.7355019715412890  0.1434366671405383
  0.2086479617209703  0.8138995188585034  0.1662318884285441
  0.1395083581548807  0.5846688728984112  0.4963349925110132
  0.0286225633482853  0.4849215824699716  0.3770648717193655
  0.5355898999846888  0.1132329389540113  0.6388380857627669
  0.0294991296178038  0.5042180454246449  0.3064826627775996
  0.6618841857211801  0.2159073633773712  0.6151558199998681
  0.7720598514072743  0.8179031979663515  0.7375162324736230
  0.7826024075498739  0.7758296234288236  0.6925787590218548
  0.7834571976888994  0.6881788081351847  0.0485314752730734
  0.4950530711185808  0.4087865608865506  0.2676020246064855
  0.5227975116831542  0.5717100639599940  0.5134135847145798
  0.7608799603192252  0.8041614953023645  0.5706748617499361
  0.4764812267673086  0.7915353084711599  0.4259429190541116
  0.7484828431417780  0.8445663652560627  0.6142176714010062
  0.3822323378686256  0.8200929050480777  0.5041468648739659
  0.8023482321935326  0.8816127037940633  0.6809699255074971
  0.3287685463173050  0.9122508103046350  0.4705638767866920
  0.8636526948481836  0.9032586675008092  0.8092111491916558
  0.3850414638217724  0.9652006962148072  0.4087882062845394
  0.9591776177675252  0.9855971981321926  0.8863627001235551
  0.9157967856491828  0.0278218474017160  0.3463881094292324
 -0.0014460251012287  0.8288740871514528  0.8786224333722668
  0.9188783670001940  0.0715858414189208  0.3880648027302293
  0.8830826302030426  0.0865726254142123  0.3395730858992687
  0.6438766517229358  0.7055731453006866  0.5653464471868138
  0.8899353856004703  0.1490318678677602  0.3219307830674052
  0.8402660324818217  0.2120716371324597  0.4003826272761152
  0.6831535133130175  0.7340405897496303  0.6675032431640335
  0.7425169270911932  0.7260658733189188  0.6862985381254240
  0.7325286308086013  0.7697098599831504  0.7322080732043837
  0.5129111517885516  0.1677670764631284  0.9613783731229391
  0.3984028192528308  0.7410724597209037  0.0226957925460531
  0.5213238655072039  0.1802028844660293  0.8835965629461755
  0.3040765133361269  0.1897450158978549  0.8305327890944617
  0.5338065784620870  0.9203198321992120  0.5326235010421707
  0.5924187298709539  0.8613736054059122  0.4479608561742688
  0.9957911946195414  0.1481736648509565  0.3612070154995726
  0.3784592038409557  0.3156789209880501  0.9618663423167970
  0.1410671263574479  0.0212919296229336  0.6567430680991703
  0.1661304985929284  0.0665217515469638  0.6981928843593000
  0.5720320383564311  0.7345879401974956  0.6891716569141424
  0.2164810154490648  0.1021285872009185  0.7622678336114240
  0.1564669019136002  0.1099465591250702  0.7409359364247098
  0.8449340663405126  0.2753621652641310  0.3830347645483743
  0.2170683405644798  0.1328852557041575  0.8689014621125304
  0.2749322322932007  0.1269311058585510  0.8904408588348000
  0.2647955021146497  0.1701540077558222  0.9299539172259397
  0.4058867671975246  0.2553850369167687  0.9643560318553530
  0.1873745657117720  0.0395028760817309  0.8246197218209322
  0.4776681051635482  0.4358264312541626  0.6302386057818720
  0.6429832281216517  0.7132949791070136  0.7687700243865493
  0.7181687685626017  0.7202635482753780  0.9603073142185267
  0.5185614850927397  0.6848223090950576  0.3035684792675449
  0.6627191898191915  0.6875267592399217  0.8933299213528122
  0.2441245646288517  0.1967849985290339  0.8090503890357637
  0.5386351543070148  0.4263346380633439  0.6517795662600409
  0.5832948231626084  0.8087773051691350  0.4020535608735984
  0.6160666113398114  0.4217337046705844  0.9018488453282307
  0.5863509944083362  0.7921442990499830  0.4659175971277772
  0.5688426746635706  0.3863912350914485  0.8357888602741925
  0.1786247663341388  0.9947242426185207  0.2131265650687440
  0.2271682602021895  0.9423538086666744  0.1387862710484677
  0.2932748824606943  0.1422189648911974  0.5585285329634637
  0.7180849371558112  0.0604094949426025  0.0620203614018919
  0.3423820384492468  0.1784004781303619  0.6241584388629094
  0.3322026304916073  0.2216175900836286  0.6674223995625415
  0.4019643560809449  0.2024027249424090  0.7515603288386985
  0.3331880584486994  0.2522204577972303  0.7749745973659379
  0.6591414437611169  0.2823085019332056 -0.0021756423313264
  0.4792335889585955  0.3308555434383739  0.8685619783108677
  0.5576479929390177  0.4446352973654516  0.0466825415372531
  0.5266856058479824  0.3676885269498368  0.9393159182870287
  0.5049841174111485  0.4555732920369117  0.0828838851626163
  0.1762068404511019 -0.0027096722752740  0.4465841360722032
  0.2499915951201991  0.0222737400905857  0.6408860333616750
  0.4206111642794201  0.3090777946401228  0.7414805821394946
  0.4099285021196598  0.3229495051154570  0.6801907185542256
  0.2563491121324041  0.7539324561137624  0.0879279589950360
  0.9968988592795098  0.1963287459111962  0.4018511849960044
  0.2065279782349118  0.1150490688736465  0.7004487685263241
  0.2208455292518317  0.8959383192843797  0.0917067769991405
  0.7120313105913446 -0.0047013718367885  0.0834234670607319
  0.6681466716607600  0.0854334688267891  0.0358837826716069
  0.5537597530609298  0.4555722662128801  0.2140480970691033
  0.6577886344799563  0.4122273754997230  0.6946546442211301
  0.6965495916567171  0.4628090502707033  0.6997641658685749
  0.4551023133868172  0.5632114064565418  0.2064485025883021
  0.6479921833552587  0.4553451144150347  0.7387910934574450
  0.3568046853120602  0.6409015245731031  0.3180637184392575
  0.6976391779787240  0.4913194128384835  0.8060736637065014
  0.7361907088935833  0.5407706927265986  0.8102037406781978
  0.4070840326332470  0.6248952765768249  0.2832358318838397
  0.7717664521905663  0.5700282925973614  0.9103153570286110
  0.0814230766390270  0.9360766027155376  0.1079559684952024
  0.8367722134345932  0.5552336764596135  0.9924939150145121
  0.8210102234053934  0.6070119078470669  0.9757327144036184
  0.8710064576215031  0.7242050198898985  0.8993708563807262
  0.1546026432258551  0.7844316492469201  0.1543082585969931
  0.2085912770022077  0.7963754011936844  0.2245662619342787
  0.8706739550488370  0.6957921648629115  0.7928129378854279
  0.1603004889048643  0.8475092471943764  0.1405764174597036
  0.8344101082786942  0.7532474672507234  0.5469329353244694
  0.7646560825687247  0.7608772968355885  0.5213057468453486
  0.1630207336942305  0.8902255868967828  0.1848682791509451
  0.4306471892589162  0.3994895231282943  0.5626527727233824
  0.4538984251647835  0.5484113190406826  0.2667339557079890
  0.4116129326482023  0.6878494593002604  0.2651564458753979
  0.7446715318325661  0.6073041376790748  0.5222559643227882
  0.1188220590377253  0.9672884721488911  0.2049310015090465
  0.7109006082609364  0.6577707557960214  0.5360261768907488
  0.5831163536210522  0.2407853916476139  0.0723883853280927
  0.4946219481064848  0.3773109618776712  0.1630158711894334
  0.9026955287808350  0.7874629037977675  0.8416823835528582
  0.9330339410141818  0.8512685842348144  0.7868102593454246
  0.4473390720268467  0.4069664019388911  0.1372438580391529
  1.0209054138578717  0.8130544958750642  0.9402603187152564
  0.9300027319986871  0.7552256378056954  0.9672934014374072
  0.9433424117064673  0.8684144952945293  0.9055671558321293
  0.6094481123911442  0.5215893249446452  0.4958695669258867
  0.4523752483504979  0.5150694539528520  0.1613874507431100
  0.6973913315603573  0.5992216884988131  0.5616019732021258
  0.3504955497524821  0.5633955173883459  0.1694050873213163
  0.3527026184819876  0.6115174575186570  0.2104741028771376
  0.8444351580365835  0.6541344855337679  0.7531775005488949
  0.3582377257047346  0.6725154758500315  0.1946774514910148
  0.2560329484299657  0.7185683889134983  0.2045681278203179
  0.8127314629585990  0.7036031965858198  0.7701996606107113
  0.8654332253179795  0.3472282072744192  0.9449822038412649
  0.8824376748108334  0.8176154104883859  0.7187987164766098
  0.8752517796835436  0.8327272919037867  0.6566678743965333
  0.9765979920904508  0.9244997962278931  0.9038080367055490
  0.5086635729170103  0.3941856792271630  0.8130328034126175
  0.4584664701333203  0.3586079427022287  0.7459095890223056
  0.5624010380675969  0.5778782899416123  0.4102149468517761
  0.2171646840179959  0.8854011302253589  0.3193428631840819
  0.5589505583712577  0.3709354218443381  0.6658930580705372
  0.6281078949504122  0.3486457342806711  0.7508271113684117
  0.2690622864519536  0.8537920871184240  0.3444573612132816
  0.5103837276705951  0.3345460928249246  0.5971034582154321
  0.5688056349563451  0.3263195492452922  0.6194224146045646
  0.3145050499590040  0.7945858989219118  0.2613915975035413
  0.3656942274994918  0.7638401940219730  0.2856572758260915
  0.5123501442387104  0.2003518089527104  0.7347763515391936
  0.3656883372274884  0.7491492195328374  0.3456449904360542
  0.0519560663820498  0.7019874033399982  0.9687403255604616
  0.5951797689319568  0.3624409347673667  0.2595034856046520
  0.5581330158194781  0.4869941855952514  0.0912277654081368
  0.9557953785888014  0.3966619200326943  0.5249533319368531
  0.9964838283978736  0.4276981403841876  0.4808313994142023
  0.8089159597261490  0.5972021146353151  0.5456100267458766
  0.6792868132799065  0.9267681293157468  0.7476786206061049
  0.6694052168058452  0.9689986881507719  0.7912803368729638
  0.7420400509961471  0.9188259709201790  0.7673562654229515
  0.5563325521098594  0.5026837635967721  0.0327544360134299
  0.2724545043846741  0.9136072750742433  0.3295181008362835
  0.4393722173019896  0.7861465306649116  0.5203203208239279
  0.7070708348588813  0.4778607898872184  0.8671985358365238
  0.4522697176613480  0.1165160236961844  0.9547604773446792
  0.7689649374311158  1.0068267125977197  0.1519665790719163
  0.4714961804098979  0.1830558727241464  0.8324280109376817
  0.5677265298332907  0.2184379956039174  0.8537794439394678
  0.4848467392527238  0.1377401627134857  0.7910463042827799
  0.4453542754016672  0.0874375923748181  0.7883664471426801
  0.3951375366663112  0.0498250873832639  0.7208716032357633
  0.8801042727974571 -0.0041900099590798  0.2524542156845563
  0.2780127859800009  0.9500201929999944  0.4399096381802293
  0.2183301825113126  0.8696766445213723  0.3816779995416017
  0.5866014407907314  0.3587368839573516  0.9607498909025971
  0.8574183063484077  0.9987035946131850  0.5660357603608382
  0.7972397072339348  0.9648799377778212  0.5558592248000590
  0.3700486369491721  0.7942310361715679  0.3902028357861738
  0.6275732331241015  0.3781488028419035  0.8576379422871007
  0.5615614360186112  0.2372908911598173  0.7976708582221990
  0.7402480612312351  0.2403729584185972  0.2382706065601085
  0.4796895483292243  0.2706576324941328  0.6554574035916414
  0.4300262676593796  0.2342125177888451  0.5874852728878429
  0.7364172726758409  0.1936479298438027  0.1973231660600027
  0.4514279180940987  0.1754317476560049  0.6061203235645236
  0.3870024190548872  0.1905675838340216  0.5166077469774630
  0.7155074518553926  0.4627127555041922  0.9288946303260407
  0.2692319568068037  0.8644823097868438  0.1150731808377338
  0.5645574429230253  0.6356521016535993  0.6624263957405854
  0.5403973258870242  0.8053491272162536  0.6129615038472165
  0.6821194982222141  0.7632069947868467  0.7734848531956867
  0.9005456017944335  0.2728456464210535  0.2851322761112718
  0.8471639807169337  0.2879010358727410  0.3207096727288208
  0.2408480350317589  0.1067398226416562 -0.0020019069955953
  0.2441829105660293  0.0625013616972797  0.9542427883802399
  0.8204115885928223  0.5598749051137863  0.4433696703574781
  0.7240521810454739  0.6037794557592103  0.4564714118043050
  0.5870804912643153  0.9022714068779900  0.4982885203010272
  0.6186994624649715  0.9339001893143125  0.7274641914211477
  0.6423765533557941  0.9830547798125493  0.5525003879471503
  0.6320618423866494  0.7127791892051331  0.5081128565576845
  0.6879553658586163  0.7403322184530904  0.4579264945817219
  0.4903522571971429  0.8340291997136513  0.5373522884643600
  0.5596313694533980  0.9100187617244621  0.5933178508122574
  0.4870875441642088  0.9636341316552082  0.4431008505882706
  0.4544795540052298  0.4185376806423781  0.9575048109837112
  0.1308414691178988  0.0373503481619933  0.5977182369785443
  0.0756041094531036  0.0430917847456313  0.5193688957751259
  0.1828088298573292  0.1704477137407645  0.6844322355137924
  0.3144108329997984  0.1484129553373625  0.0152885070675875
  0.3230323642906945  0.8258919675532681  0.0461015386226971
  0.5418801723193031  0.5887478453757802  0.8860343412002171
  0.4786806528445650  0.8121595570076859  0.5938787001895581
  1.0357226634737742 -0.0046537946737192  0.1870165875810065
  0.4556848758832172  0.5240139387731941  0.7192350559334246
  0.1955779381932423  0.5745840377701031  0.3970809392842952
  0.3662131532922057  0.7951056134471376  0.0081435809112201
  0.5291312726005747  0.8491042724852295  0.6566603459644190
  0.8190397843230944  0.5155493112124634  0.4003432369518217
  0.2239728764457858  0.2239898343454727  0.6877214054001030
  0.2365955288260626  0.0758985805486875  0.8893194979899081
  0.9179866236210171  0.4115675105552863  0.4062199878680162