C  Cr Ni
 1.0000000000000000
    38.7782925608872873    0.0000000000000000    0.0000000000000000
     0.0000000000000000   38.7782925608872873    0.0000000000000000
     0.0000000000000000    0.0000000000000000   38.7782925608872873
 C   Cr  Ni 
 106 1596 3725
Direct
  0.3089999802115594  0.9213027240656784  0.1822024369549499
  0.5550825753121914  0.3390199893338548  0.0480931301830338
  0.5191243914036695  0.0815541364081072  0.6716950433244733
  0.1050937373780674  0.4479625118766786  0.2643075675673875
  0.1824759324485860  0.1298971021960251  0.7746325142763569
  0.2648911610469106  0.9306267317489840  0.4882338213826893
  0.3789265019377840  0.7717503281791058  0.0635003914403110
  0.4472543753479902  0.0827057542872690  0.9869278370677578
  0.0911455130568640  0.5212045713321984  0.6882357621592160
  0.4057375589107908  0.9678088573220647  1.0440373311095956
  0.1902026540087291  0.8421150632530201  0.4128406320707970
  0.5186518238296283  0.6534490092964816  0.9840123138004789
  0.3322338342980724 -0.0070685535656031  0.3207672650577125
  0.4533933650453468  0.2630517803113850  0.3344246250957517
  0.6867543031931279  0.5285349662849970  0.0274824788266965
 -0.0390664596264114  0.2964820500758143  0.7856992063378027
  0.1960516328824273  0.2034232733338435  0.6497850396527924
  0.2437826323167797  0.7721976467220005  0.4677172266173170
  0.7368429025730666  0.0186043447342348  0.0465601067895938
  0.8425567730484780  0.4637172043421640  0.2247986773502679
  0.1910596957822470  0.8779710215715520  0.5238776434873034
  0.0157832809322748  0.3448110800963344  0.4624171235179702
  0.8806289869957491  0.9430488866192760  0.1429987736393075
  0.1709196117738131  0.6142278315483166  0.4080540199994521
  0.8083241834355336  0.9723450787445034  0.6340971850279836
  0.8547796691627672  0.6380520874806987  0.9968118147743522
  0.8134259380913618  0.7405375432803247  0.3628824704232976
  0.8936297835259290  0.3045906234613159  0.7635329902162148
  0.2946298728032006  0.2455855162224605  0.2308332754447640
  0.5923922123996860  0.5861165660946397  0.4419620983819083
  0.9300258641377869  0.0499724778104211  0.6309921707318809
  0.6646963469888031  0.2628205546459839  0.1758504375192455
  0.8073842819065182  0.0861110656894715  0.1085464137977458
  0.3316630742767426  0.6329729008298608  0.0519980260779113
  0.2812678576558156  0.2841038782330348  0.0245664567329197
  0.0965469229584273  0.7657718422730031  0.7755669874123580
  0.8580692171413338  0.6500551444082138  0.1741203670654632
  0.5255196710845753  0.8066585718355083  0.7441917934539536
  0.8403146229508138  0.4486370437682320  0.0475568132756014
  0.6445364594341499  0.6539480126351392  0.1006930358568960
  0.7915544423121872  0.6323171240861417  0.5213253776469927
  0.3073407778098320  0.6405954887839491  0.5574747926059088
  0.6188659009669262  0.7626703117774590  0.4753700881876025
  0.5959993070362725  0.2007444220970230  0.8556641036141894
  0.7630344006950079  0.2382250088680326  0.3369985582802892
  0.7415700089043593  0.0925846659431722  0.5174943747238406
  0.8663353441105647  0.0487532561444402  0.9282354660569344
  0.9792418922104167  0.2652003248560651  0.2888022729794475
  0.1429037563870149  0.2838073482905543  0.4039675946659914
  0.6209594297323296  0.9207818379533457  0.4758045121653111
  0.7055562908441446  0.5993603604379515  0.5111245064944326
  0.1050242299888643  0.4161276264485178  0.1576631521911966
  0.5403890346232566  0.2022103822739580  0.9391114408407431
  0.6295561628405478  0.9287976401900579  0.5755995766267947
  0.6837729634458392  0.0262413868369953  0.3965410868374621
  0.2623142034195413  0.5975405598045284  0.0232615201744701
  0.5095427584356390  0.9517010617113231  0.5427509895315983
  0.4040588996383154  0.3066555469664126  0.2443114965333326
  0.8864489656152101  0.9405688160191226  0.6201843483033769
  0.0873286263628425  0.4632998538304359  1.0440961646182092
  0.7639371851977311  0.2995804332982936  0.5470513639568640
  0.6213279971369111  0.3529918427505324  0.1229216984305475
  0.3146085609137873  0.9576476002692106  0.8179986521167600
  0.8555251441669814  0.5771650253840984  0.9667590688453166
  0.8103067588514635  0.1302333182671049  0.4849286021692076
  0.1566702215691765  0.9601774638010263  0.5571352024038353
  0.4676087822661507  0.1680531637657920  0.8788515262181981
  0.8441677899007692  0.4793157735005257  0.3904722694630057
  0.1612531203136066  0.5092341776098140  0.3819068534534326
  0.9188915064894759  0.8219724695708719  0.8190373791077431
  1.0467658011686134  1.0114946227988271  0.5438305132884111
  0.9844673692454977  0.8862206679350152  0.9134121676580830
  0.2204615178658698  0.9695456901435837  0.1847020601621991
  0.0422863496176223  0.0256267670794066  0.4738325609801243
  0.9038143231982999  0.3162981073769767  0.9382502365599213
  0.5799328938317059  0.0339434014513520  0.0458089531233498
  1.0135969584065454  0.0814745658731226  0.2491903466620664
  0.7564004143857117  0.7558087562719322  0.1646640696345592
  0.4641854663076496  0.3392216107533724  0.2509289665634547
  0.8119726205739900  0.0005037395276207  0.1427273804757536
  0.9888098395483190  0.3415358859579790  0.2039255177027402
  0.8836312376317430  0.3286208900190551  0.5283939397790963
  0.4182938816200118  0.1512263561277649  0.9241036502618647
  0.3429982292316037  0.5496855679990307  0.5190808409459945
 -0.0222815780073314  0.8497479525906988  0.9166972669282426
  0.5417781080386436  0.7121231741623162  0.0444313622717643
  0.1031093543874209  0.9532698917703474  0.4807353316380613
  0.7199898766978143  1.0010754470436118  0.9498610266152374
  0.0171776968863337  0.4270283146906503  0.4448344778219050
  0.4034612668286942  0.6988361383769192  0.7143530643895105
  0.0247898029515392  0.5143326830944045  0.0342847816907385
  0.2943464847097471  0.4423828699383621  0.7639352092400622
  0.5583177639469831  0.5822955878574576  0.5439603839727243
  0.0204576805401970  0.2791273106631925  0.0514714040357174
  0.8679974152828666  0.2099890149631306  0.7124817494374611
  0.8472193595475170  0.8963533561423743  0.9736748633002037
  0.1385735161582489  0.0751066323293643  0.7712591296223551
 -0.0246805716688844  0.7450691458313760  0.4969183478063078
  0.8058754256897458 -0.0022695013373756  0.8953124297899899
  0.7964709395126771  0.7765502750412573  0.5555420725498370
  0.7378036545527474  0.9645176603867736  0.1363537606703981
  0.8544528262946441  0.0362028591082883  0.0095737108561104
  0.5281757978875593  0.0866936566449791  0.1097218145207683
  0.9831978961026085  0.7986320342560235  0.3689243467714783
  0.9226726432373495  0.8670259056785926  0.0254674895490039
  0.3850322988217044  0.6483741068933816  0.3536947400921585
  0.6363399588485065  0.5008173788289386  0.7817894429452238
  0.1543124840237559  0.7560472114818156  0.0511786735105514
  0.4527056468876709  0.4862270483716196  0.0569458816067476
  0.3009861593720707  0.6284406237011764  0.0143603224885712
  0.3189253894527957  0.8235115313871407  0.3698136349175773
  0.4594546959292947  0.5921172197758100  0.0844139959636640
  0.2775149165622088  0.7191491651043765  0.0429945330479241
  0.4758440668804613  0.7378113754781062  0.5006252446018280
  0.3355565871755637  0.7508013777532349  0.0561784472748598
  0.6847898600919194  0.5366509609721957  0.8485503473282479
  0.6689605956257892  0.5614891152328069  0.9893821991458308
  0.7117003760845502  0.5797617003680587  0.8878197976475657
  0.1563805934458915  0.7619644563723946  0.4446858311505064
  0.6905470843300935  0.8835108029882397  0.6991136971562307
  0.2071158348276961  0.8001629572052132  0.4491448373858489
  0.2305032982160344  0.8452082174102721  0.5050178624604724
  0.9759219187151711  0.1003021731323516  0.5693646353243973
  0.0537788024847089  0.8240631086160897  0.3975666137147742
  0.5654503192009385  0.5231104337455816  0.6988775939615993
  0.4159779739626120  0.7499032126208831  0.2504711417683525
  0.7091179304858101  0.2843193969510388  0.7907956871621481
  0.5773429291160075  0.4801730450012460  0.6562937596648337
  0.3755828304771357  0.1399598915221351  0.8109421578607442
  0.2431394493424908  0.5221739781538161  0.0271167228427341
  0.7640167717621877  0.5844823473428518  0.8487256593166006
  0.2596803188599161  0.1909247647494801  0.4611550150636831
  0.5375990511527209  0.4600964881569286  0.7577379831438120
  0.4007813824274417  0.5726775244252280  0.0142601908451488
  0.6942356903415691  0.5243474420576135  0.9097901556664322
  0.6343400870684466  0.5316226796583705  0.8868190641495872
  0.3529052399592051  0.5860868798458697  0.0500753234574646
  0.7254648384850556  0.4488860705706426  0.9899914743738406
  0.3583706082417383  0.6381724756969085  0.0923300976726111
  0.3683700776196299  0.2450158719571804  0.5664322129939594
  0.5813126524493168  0.7222341753224075  0.7484412242220236
  0.4109966609989019  0.6695474810211296  0.1014263891820564
  0.5220808453566981  0.2097432573624340 -0.0091392749299479
  0.4970956480372410  0.2703191783357374 -0.0178738698242391
  0.5311470769217677  0.0792806694810410  0.5313545109851687
  0.5077450898662438  0.1305301436254538  0.5199649368443301
  0.5223595704463924  0.1263250331035082  0.5801427551802145
  0.5740439939433835  0.1622795436410207  0.6502710914175601
  0.1550437547613602  0.8018734163322511  0.0956748426806066
  0.5506097701074338  0.2203873395742449  0.6343238886717715
  0.5618634122928763  0.2086612411319632  0.6931102711401990
  0.4688700850814927  0.1454614054150914  0.4039271009182868
  0.6271977592456914  0.5144430122259038  0.7216820708756114
  0.7915363930278145  0.8902124415650052  0.6187266221754321
  0.5147160645113692  0.6250118179540161  0.3186739144833023
  0.8478989184995637  0.3160917164324356  0.4912013364097307
  0.7441579706189370  0.6431816897144755  0.8329110494186565
  0.6446791854666138  0.6021143851092189  0.8044897765192344
  0.6348099619153966  0.6156440321346338  0.7430117439047108
  0.8955423127658890  0.2450494625089625  0.4164419084520881
  0.6057608449631667  0.5719859516763441  0.7048068780586415
  0.8918405967515479  0.1856070550602773  0.4326180176312604
  0.3595933180480389  0.0892751933098485  0.5335828013659542
  0.6953287975628570  0.3585243814574549  0.9405632104835024
  0.5968772781441268  0.3157113291627113  0.9150631633239835
  0.5795592210795500  0.3442025854382910  0.7909864589408421
  0.8540792227593170  0.9464929659546227  0.5168995627395705
  0.6554735442013585  0.4414187651003730  0.3085876163347765
  0.6482228744737036  0.3788512388188229  0.3288977582236874
  0.4479972469242467  0.1215158510227927  0.8944312279008859
  0.4785384308666541  0.0205177038328785  0.8684508656511110
  0.6945183752474968  0.3175795812104772  0.2536259951021113
  0.3957117969939562  0.0834035675816225  0.8289003538061295
  0.4074670072498467  0.0717181274679833  0.8920742107554931
  0.8385161330090558  0.1827127536363536  0.2952228140044248
  0.6421676377371627  0.8383896884824682  0.5275073387518312
  0.8996248328051244  0.2925247423027689  0.4578803554894744
  0.7211964934744493  0.6797200063659267  0.9134105503047941
  0.4615527586780697  0.1657364181412876  0.6670827667029032
  0.5240515171502401  0.1871902092938631  0.7959590010017994
  0.4219083346586600  0.1147955379261754  0.6618091495470924
  0.4119609286499548  0.1280860451879544  0.6013954302035140
  0.4298790474234336  0.9151309199882657  0.4946849390621693
  0.9854779309895507  0.0927221600517698  0.3854515650570263
  0.9905680208579866  0.1373675239240706  0.4245967551661439
  0.5769135315027594  0.6190381284875417  0.5175021409845548
  0.6346044245107629  0.1255984974024963  0.5582028669536712
  0.6627110215443240  0.7628436398851964  0.5495940764516085
  0.4727422231453423  0.7296808094164562  0.4436262463163343
  0.8928457084675072  0.9648741136654508  0.7542318896245437
  0.9552025362195691  0.9549914251585834  0.7735578898344084
  0.8621932027295979  0.9850691183663093  0.6267810060655490
  0.9240594499831369  0.9449715436410348  0.6550954587230968
  0.7117922893647968  0.4395797736529705  0.4403305248280948
  0.6007610580051973  0.5588291099779567  0.5348945365473977
  0.8108473284869216  0.9082548305812663  0.5642111550036509
  0.8280343700497130  0.4342206615574836  0.4817351982931680
  0.6163409416871696  0.5294698555568030  0.6603001409146683
  0.8646120547144676  0.9366678125500171  0.5741650778716844
  0.7961363114800186  0.3417138628163328  0.4592072730102816
  0.4567719857915060  0.2970006286204946  0.5332709010918042
  0.4647218585854911  0.6564650507168677  0.2923146445397248
  0.1971990926293358  0.5735519337151410  0.3992910655003092
  0.6962665312018819  0.8563808765980802  0.5931997469275557
  0.6187479273876425  0.4999577892231912  0.5575915885498633
  0.5186661787735941  0.2922160526455668  0.5480972600125869
  0.4165955616378664  0.0144155517894895  0.6398525793671594
  0.4431104479499725  0.0568799554868287  0.6790708592719295
  0.4877845756509077  0.2792105612279440  0.0671706625216277
  0.4413302222054430  0.3161683555826790  0.0570896848417406
  0.5562639747569369  0.0854575400675947  0.7675757336024325
  0.4469703923692601  0.3615815438246884  0.0944117764611516
  0.5058135647718291  0.0819842356284371  0.8104354505294913
  0.5031107729214480  0.3469451792798704  0.0595200749127522
  0.3970175774388262  0.3854366389535118  0.0617208627780142
  0.3985051766825262  0.4838639670410493  0.1523700288719911
  0.6969278381318104  0.2091054377381969  0.9046033477175492
  0.6373164607636794  0.0869978712186252  0.9595786623406907
  0.4007403626565480  0.4980188515868864  0.0936657246164202
  0.5267764633785322  0.0240925042431653  0.8290472959242577
  0.5888540004786768  0.0155736456484519  0.8503245590495466
  0.5378573731431816  0.0109701163172997  0.8927993328523275
  0.5311041361886968  0.0552709905688460  0.9375490376737707
  0.5779535975303173  0.0571389038030183  0.8926249689465819
  0.3526340500640571  0.5763930842699535  0.1093726712862233
  0.7034760644352309  0.3465488567938880  0.1257637842634107
  0.4560354363454253  0.5306305263304847  0.1012239800399137
  0.3594098413243101  0.2882294621975383  0.6138350515341696
  0.4553684752842635  0.5260139680121138  0.7171868917072886
  0.0084894681689752  0.8897244472673731  0.4826240453883583
  0.1356972742789416  0.4571220861836232  0.3026522860935009
  0.3695778553440813  0.2090608152931120  0.3537559845805585
  0.3734077920050224  0.2569880490782153  0.4008314019962992
  0.3730184589821260  0.2703462333927864  0.3375967827251308
  0.3263975833440161  0.3365892473670108  0.4177844658999171
  0.4253505730937766  0.2871479229202081  0.4078163503000810
  0.0465241308962057  0.7175430470123987  0.3614777744303252
  0.2367205779529277  0.4417341378318783  0.3947493555354086
  0.2471204782287852  0.4742810526348021  0.4438980657019800
  0.2926638840167290  0.4755357496804262  0.4050940570096012
  0.1328799765260470  0.5028662059436660  0.3414456371190459
  0.3651022517716698  0.1615859359829286  0.3097499976132224
  0.1878672565331604  0.4871456298632925  0.3068066240465528
  0.2464617141513345  0.5449384917518694  0.4257805630388368
  0.2462708909051310  0.5641223210303938  0.3612980613182320
  0.1402498563855340  0.5897256808030725  0.4375200165011927
  0.1458841856348432  0.6564769295153972  0.4158595250361016
  0.0516412839129624  0.7493468325200703  0.4689344163941051
  0.0558466264153235  0.8067124207403750  0.4611180787351819
  0.3164179428802966  0.1912949918529676  0.2855593749458916
  0.0390315633783655  0.8415082683074508  0.5051292183087638
  1.0162562432198476  0.9974419914942004  0.5058925024172367
  0.4950375088030655  0.5754456867739898  0.7224753578450968
  0.9594900157341695  0.9576497634643637  0.4996735805014231
  0.8406953232956234  0.2173884221272142  0.4013861788045621
  0.7538890289186966  0.3804945147806985  0.3651151638832443
  1.0242768608332711  0.9810131545375929  0.5738786847020825
  0.9171382172743228  0.9727899378117323  0.5887490374739607
  0.9761543907225576  0.9797001593516745  0.6129383890346970
  0.8311374836660305  0.7608049509897690  0.4816435844504304
  0.4712666678541721  0.1217655059818117  0.6189520960904926
  0.4809925862561164  0.1096873365973692  0.6838021246010779
  0.5474921220031251  0.1013148110573184  0.7068227719305893
  0.5852502446665760  0.1503406778817621  0.7091145129169865
  0.6140890498798997  0.0602479574700260  0.0213860593652110
  0.7118120640665844  0.0128496512333352  0.0020569690202760
  0.5877817406713782  0.1781580603400294  0.8112587452158277
  0.5783850243097908  0.1760515399998857  0.0887679995484903
  0.7292972451465377  0.2559693964573465  0.9225109989425070
  0.6747124960758187  0.2509355984852610  0.9519693721271435
  0.4810279755547186  0.2417182601548404  0.5512744228242933
  0.2560552126109958  0.7337432328156063  0.1439269817347867
  0.2068937213538496  0.8117949991486404  0.1655183476324291
  0.5578824825218858  0.5169006092280809  0.1957677448242618
  0.7905841055685343  0.9249476899050660  0.7244962787805287
  0.6520419895030407  0.5888237047694260  0.8657543077224060
  0.2739803864572382  0.7385481162274918  0.4866561595900728
  0.9588550701071312  0.1974790128861886  0.5025176286731173
  0.8870651671028745  0.1522669598093595  0.3250485182368188
  0.6830466277614692  0.7338263693617847  0.6683998066034643
  0.7426813282078965  0.7260836889406153  0.6882149978667312
  0.7317217819950729  0.7705920475026892  0.7327690894603490
  0.7714767310097661  0.8185632786024690  0.7378780148893161
  0.4168316314427723  0.2509091037492877  0.5273580857282942
  0.7824673859387429  0.7762291638210167  0.6934290018951785
  0.7820465427831386  0.6994101342257303  0.9874899478034299
  0.5454163134728547  0.3775170773296631  0.2930596472882512
  0.5187958427395758  0.5770215274588483  0.5106009493556772
  0.7585940623291849  0.8046671933474107  0.5666581789632582
  0.4743335609039905  0.7908408626622089  0.4308299318806955
  0.7533837455658230  0.8448949672268012  0.6141459770418385
  0.3798757687198048  0.8836462230943198  0.4862550125061769
  0.8041342957058635  0.8826047030931213  0.6789663145707513
  0.3303042051584806  0.9124811661079583  0.4634176705024373
  0.8638605841601336  0.9039182999885019  0.8112462220561761
  0.3848699414519938  0.9639573129138626  0.4102565207326662
  0.9566882642118428  0.9916250174432335  0.8820154943268829
  0.9190346180931518  0.0195263190335068  0.3359488205624585
  0.9701353733730069  0.9719033856182985  0.9478483103400600
  0.9237916027533158  0.0620904187547346  0.3765392186567483
  0.8774812082863725  0.0928735395773080  0.3463548351359734
  0.6444430250553592  0.7083670775821587  0.5680682757969775
  0.5070641561971159  0.1648414402201082  0.9560803647172503
  0.1672284813453297  0.9299298098795608  0.2327481728147093
  0.4542758848556105  0.5480472961457247  0.2673216424881313
  0.3036659357157492  0.1904844618304553  0.8318432311963144
  0.5313025645502232  0.8639401194953433  0.4883175557067405
  0.5815106554621513  0.8552467068936894  0.4484522154283176
  0.9939813987928618  0.1514555024053557  0.3620716980724101
  0.3780386233149397  0.3208378977008470  0.9550411584498748
  0.1401974039803575  0.0218036960091967  0.6558108013680815
  0.1664231712444769  0.0660926685270343  0.6953404357672912
  0.5716906827308842  0.7364129581424601  0.6863101003862181
  0.2201403457411729  0.1012371032292900  0.7619964493055559
  0.1554472005381384  0.1096975930573820  0.7390483559131735
  0.9017737551696783  0.3045053256551515  0.3942056905715983
  0.2171704044635515  0.1334612290319220  0.8709673847135221
  0.2747481473847969  0.1268640233187908  0.8910890108657730
  0.2628058000918511  0.1697541259614299  0.9308819224414240
  0.3618734194502319  0.2113460406922137  0.9597477945993534
  0.1884284080040050  0.0386293176291825  0.8285173081253244
  0.4773593120561593  0.4379045233178320  0.6286746971342410
  0.6415745682284394  0.7146716187403536  0.7674152199078739
  0.7153258202778606  0.7228342840901204  0.9583905643655581
  0.5186823949323121  0.6852920505697485  0.3029064016874052
  0.6619096720634913  0.6889779479166349  0.8925521492388127
  0.2455386629208454  0.1981724592523003  0.8098153045770914
  0.5378413741647523  0.4298120929060530  0.6508064629384233
  0.5802091680716888  0.8089204967195203  0.4032280299084702
  0.6161737583787770  0.4224272768281223  0.9017266656832853
  0.5778943562461633  0.7927974979661006  0.4619952894025073
  0.5680108028407975  0.3874869869033518  0.8356630016006910
  0.1708188001763485  0.9497337023526691  0.1665207813754278
  0.2243276819312280  0.9412333140823727  0.1390678553565524
  0.2915641621332647  0.1425997672390574  0.5569082137818554
  0.7273036740970552  0.1219401146081717  0.0436371457415321
  0.3024801887203035  0.1292561895355877  0.6184311888182095
  0.3316503780054098  0.2227728522924413  0.6697863041132377
  0.4022542903521387  0.2037317060015114  0.7521455429412998
  0.3926935007043411  0.2468743922391956  0.7982962694744359
  0.6606680688887399  0.2852976754097666  0.0016039957092054
  0.4786069888130615  0.3324494598431912  0.8701797741062351
  0.5552543232275016  0.4440062409453825  0.0437577442070529
  0.5265330225723195  0.3704911964027539  0.9376758235698985
  0.5035854003993857  0.4563287692980806  0.0805158758240156
  0.1823525625225008  0.0408604996283381  0.4896447269149328
  0.2504527447648806  0.0218884135565309  0.6389973828941522
  0.4209576154007548  0.3105406881088869  0.7424131275136604
  0.4103962628139072  0.3245018075946873  0.6807287141587705
  0.2539368831193446  0.7523072772454052  0.0857396014021748
  0.9977708568388142  0.1980879583246829  0.4042029999895222
  0.2062173586181517  0.1156546060124244  0.6985957630093992
  0.2197436881068226  0.8940224827592894  0.0903905088476670
  0.7129043406153424 -0.0039864523636856  0.0829451071476274
  0.4311286543460323  0.4003134602337658  0.5626222474508105
  0.5461186501634641  0.0081092157028526  0.3931021739692865
  0.6578609748861123  0.4130434191935179  0.6941883452723641
  0.6971358512343940  0.4634455628419891  0.6998706642879717
  0.4552332852339712  0.5630938458234511  0.2043948757787685
  0.6476390574622145  0.4570325020366118  0.7393062162940783
  0.4086873618063732  0.6254573077679652  0.2824978710269718
  0.6966567765335526  0.4926134381032415  0.8053570416804101
  0.7351430160392649  0.5417131181352633  0.8103760116288271
  0.3572195669423565  0.6567550475413249  0.2567880178323521
  0.7702541519460361  0.5708640991840254  0.9082511288250114
  0.1126284143868392  0.9172082035711097  0.1578489760908176
  0.8309770671825080  0.5456995110208943  0.9951251486999543
  0.8182566008722605  0.6076040942090304  0.9763915796124434
  0.8714682486916415  0.7247362601816071  0.8998996112664069
  0.1537861243359903  0.7820390779040973  0.1564016505724007
  0.2081319438111692  0.7941127388227677  0.2262041077442717
  0.8710698911331332  0.6961990368699416  0.7940052145673550
  0.1582695822469334  0.8441267525348194  0.1408717603434441
  0.8366776625169754  0.7484258875564507  0.5493140048673399
  0.7780209390761378  0.7619397175097804  0.5104205733410528
  0.1611589520874555  0.8893350488992749  0.1859266186809688
  0.8350767688100651  0.1352443675340206  0.2538355430927932
  0.3629431065223586  0.1300467938224424  0.2040295573292659
  0.4110822356182635  0.6877578895141498  0.2654817975613410
  0.7523770229768584  0.6025177749063316  0.5253755472490980
  0.1238038305367904  0.9587434662501608  0.2011743805906356
  0.7113101615882638  0.6519214575793613  0.5342951444498900
  0.5837081512192260  0.2342264796625954  0.0732275413304341
  0.4935111050907227  0.3747239206499284  0.1585958705834942
  0.9015487096663701  0.7867568879612994  0.8478268183564011
  0.8912206002805102  0.8024770690384895  0.7817095786969742
  0.4458901706895871  0.4069502925427195  0.1350398399177494
  1.0103217833091820  0.8116408693739631  0.9340750859285597
  0.9411974821088095  0.8188007931083066  0.9379349434017177
  0.9328708824461461  0.8776583201616925  0.9058558284227514
  0.6132397822057674  0.5232983967910427  0.4951975891318723
  0.4532586968515167  0.5142636924828522  0.1608566846933361
  0.6986550060730912  0.5972984142284840  0.5627374415173337
  0.3504252568796586  0.5615689350301574  0.1708923655052266
  0.3532305371705268  0.6104005389788413  0.2138013655803555
  0.8446691755084551  0.6544284101810758  0.7544787146444761
  0.3580125335381696  0.6719261679310310  0.1969427066846591
  0.2551649512169700  0.7173848149272427  0.2054848428352757
  0.8121849449248850  0.7037431743833694  0.7715448172103722
  0.8467181363087753  0.4029445215510830  0.9236624155890866
  0.8825307891947852  0.8178933655212165  0.7203034491300946
  0.8762660224271380  0.8367606464785513  0.6593545330899055
  0.5536150363874245  0.4537920058845692  0.2132320783422235
  0.5081205456441124  0.3954979704359114  0.8128148701609311
  0.4586492964446712  0.3584682973607566  0.7467009912558504
  0.5596388879957008  0.5769092512381641  0.4070149791345071
  0.2178012483553110  0.8835092079356182  0.3205531768838872
  0.5586604672712118  0.3725938262938073  0.6648067951962905
  0.6187903647862291  0.3637041483860005  0.6886091043220689
  0.2691992960258991  0.8530146150720570  0.3459857277632391
  0.5112451770561285  0.3361575714165889  0.5969703460899093
  0.5692825890668315  0.3280961967232744  0.6194225528037852
  0.3155780728386308  0.7935007413577446  0.2619030205236766
  0.3665604765788941  0.7639662149236262  0.2866640407016673
  0.5120380214729027  0.2019424339648943  0.7347539560363840
  0.3662274651550457  0.7485773269841034  0.3484135093139529
  0.9977583320440456  0.7220361028512039  1.0014931646547316
  0.5951967988096450  0.3617988969151922  0.2591131293780035
  0.5578251295910880  0.4869147267298600  0.0911685486704429
  0.8873719720400477  0.4116232526296464  0.5028954992338859
  0.9873059936238114  0.4265958864943120  0.4878469466356348
  0.8064018221854207  0.6070757981853583  0.4809932949578626
  0.6808080882665635  0.9277090238093353  0.7448429048258705
  0.6698248784789973  0.9709791273892319  0.7885663521453569
  0.7306201085071496  0.9638002967494287  0.8095240557302358
  0.5582973766861768  0.5021617014193994  0.0330662624753128
  0.2732241932164595  0.9120507599547161  0.3318281689279710
  0.4347911772792062  0.7882601824292290  0.5216478697726729
  0.7176134883131874  0.4340085749739475  0.8227446609244534
  0.4552726248563933  0.1205203277948425  0.9556278461871781
  0.7627583028077511  1.0071027795248892  0.1470303903725139
  0.4755307832973131  0.1846660054822854  0.8327424238906536
  0.5483945874520664  0.1767993210892017  0.8516401295010220
  0.4852952451098446  0.1378904208046162  0.7907893659596392
  0.4453373939611486  0.0890197377642695  0.7884858109907313
  0.4335645209792030  0.1017386166176871  0.7245677367958857
  0.8671118133848802  0.0008818286810520  0.2628531090699826
  0.2798126751749158  0.9470842264293302  0.4417917189386727
  0.2735042533871476  0.8995791249063645  0.3957347842215260
  0.6032212019482998  0.3012036881989593  0.9750324997232622
  0.8600608514293021  1.0009286698957636  0.5622100595684975
  0.8051493367741315  0.9655674418902176  0.5475549174782001
  0.3696773752069259  0.7931046215398714  0.3937343543333528
  0.6781767814373081  0.3857080251245956  0.8182980989633224
  0.5991042433485190  0.2874870661243447  0.8077123412025959
  0.6931948966692558  0.2718872562360222  0.2147498237434751
  0.4794972880116502  0.2722388908249658  0.6564764522764860
  0.4288502132323065  0.2368335892675808  0.5882622560137143
  0.7364926173819568  0.1943327117959168  0.1958250457662116
  0.4504439220636375  0.1778998120635834  0.6070666489178087
  0.3820841985452045  0.2034591883300345  0.5270656684176961
  0.7155231222599080  0.4636804070451738  0.9281033093524398
  0.2671768596759455  0.8613074193611168  0.1143445697546613
  0.5047836447563729  0.7690628389501706 -0.0061171603267107
  0.5427649692024950  0.8110664268087023  0.6100033072295128
  0.6818395895248929  0.7650839082846623  0.7735601283472162
  0.8979875877185303  0.2742248452485436  0.2864711576793411
  0.8480601215672184  0.2893437223976398  0.3203643161106842
  0.2250223108167533  0.1192559333842825  0.9350658413205269
  0.2429188164789445  0.0613874044860568  0.9560957363094156
  0.8230657663331725  0.5599032860721713  0.4448262849806128
  0.7274731240765473  0.6100876029255277  0.4628370594725347
  0.5858597326146482  0.8929671691292022  0.4977411070650134
  0.6600560248185704  0.9566539687518928  0.6183520947916223
  0.6446276794558677  0.9724301077507448  0.5513772794621173
  0.6377650251487701  0.7253150109484636  0.5048509183157294
  0.7382352266945905  0.7165201308497098  0.4838133225056532
  0.4779758930654977  0.8281218745137486  0.5325761328814530
  0.5571373674859263  0.9136057760926261  0.5975367493672957
  0.5398414470620667  0.9264823292939208  0.4694356345710045
  0.4532611915456153  0.4217336463177903  0.9570252569892543
  0.1306008512648587  0.0368023779913077  0.5942684855728294
  0.0744391060524932  0.0341873540947617  0.5108671888128522
  0.1442896660948524  0.1224076032550405  0.6767577350527326
  0.4801698135547804  0.3033639948768813  0.7632926237597091
  0.2621168575645623  0.8217106996622515  0.0732125362265509
  0.5413389938882560  0.5901954325904983  0.8852752929443429
  0.5031228311564557  0.7601571874586941  0.6071971301591643
  1.0272125329491042 -0.0013311769608678  0.2003457406084012
  0.6872348994136616  0.4768403239349495  0.6400047463213392
  0.3959325572635485  0.7404322916964932  0.0232956089395783
  0.3656583852880497  0.7941418124888723  0.0159923708785331
  0.5296590402026541  0.8525060311014699  0.6512770902419782
  0.7666827933395012  0.5200588001697725  0.4395290650038052
  0.2235190541824277  0.2242249284956288  0.6872963587252928
  0.2342347156752751  0.0763413118313738  0.8929329960564141
  0.9194590069590156  0.4119285872920705  0.4083659946912429