Cr N  Ni
 1.0000000000000000
    21.4602285044590673    0.0000000000000000    0.0000000000000000
     0.0000000000000000   21.4602285044590673    0.0000000000000000
     0.0000000000000000    0.0000000000000000   21.4602285044590673
 Cr  N   Ni 
 259  86 605
Direct
  0.0708122246149057 -0.0092546359239375  0.9116171058675878
  0.8186869931787573  0.6595404599044155  0.4870597492589769
  0.4061699537536861  0.4092860517036312  0.1618448177270076
 -0.0052361367764360  0.4940646962704803  0.3206743603652689
  0.4928350469209737 -0.0106629853772721  0.8276278133580171
  0.0773807941580879  0.9073855042308798  0.1574427937344731
  0.8261069323015946  0.2477094507364935  0.0827889854309332
  0.4833801696808941  0.3286310658315156 -0.0042354915802427
  0.9044225091209798  0.5811005661157609  0.3199039647585266
  0.5752664064801157  0.4952537250458752  0.0806643115301854
  0.9088134313079620  0.4989209495327770  0.5745607474879452
  0.1578237918253979 -0.0133644667703977  0.6575673560193500
  0.0768241918515968  0.5753370577784004  0.6527819536405388
  0.4002475022609359  0.3228333519272660  0.4047136452555728
  0.5737209612647650  0.3303008731238552  0.0829186403345155
  0.7404417341913726  0.4080272105207163  0.3202238364352162
  0.2417229725804466  0.1606697407839132  0.0842093133173680
 -0.0084540408285089  0.6688620087142920  0.3240958993011013
 -0.0066979236337207  0.5742905524659517  0.7454496016635903
  0.9128720222830530  0.5716778056833599  0.6581106353054390
  0.9044793258125118  0.5752496068960959  0.8350079178791663
  0.1599198925943328  0.7437039346332256  0.9092598783009131
 -0.0089378419554045  0.5746092994495541  0.9210613019053838
  0.7362924804250723  0.0727021772915139 -0.0009909295282789
  0.0739819750633600  0.7494624723302608  0.4903792767208348
  0.8173648214814204  0.9051667658548139  0.7475391339177763
 -0.0065199548811705  0.6583819334137028  0.4923496986103822
  0.9078476940635359  0.9056731692207736  0.8363927350725594
  0.9075517468086544  0.7404986580663584 -0.0061596318132442
 -0.0062880901311805  0.7438654134222865  0.7446068173181726
 -0.0094573164512493  0.6602312575792498  0.1579578780212524
  0.9055696918670766  0.7410616552681717  0.8300205604324461
  0.3292439062635522  0.3225845061380022  0.8237682452180753
  0.5800212815594645  0.3279412604934516  0.9052126670777592
  0.5726038942196371  0.1547470445457771  0.0828935592054335
  0.2497763803344458  0.9065868928411108  0.1586534789094668
  0.4890712512722003  0.4107490591377352  0.4075097105150513
  0.5727342153572249  0.5828330176945807  0.3214647874828778
  0.8222328578704635  0.1696818938601369  0.6576011638408713
  0.5729449427043458  0.5007746252589713  0.4081961718666018
  0.2438551905542390 -0.0131588218287194  0.9111508608088122
  0.5723074666288285  0.4961333163900333  0.7478233754997595
  0.2439883444375838  0.7428207520530221  0.3250169418334413
  0.3333033609780589  0.7348920229292720  0.7428010652979719
  0.5702355037070954  0.2394364150176289 -0.0062769587059183
  0.6540020956651338  0.6587260334668132  0.8290590365788338
  0.4104734193917462  0.1593076290422634  0.4067397655302712
  0.4090331217481882  0.5750380472806333 -0.0091700107412998
  0.5697050651710134  0.0655588743152508 -0.0040680248676360
  0.4927048618541995  0.2428331061059969  0.5821746863229119
  0.0737512532867102  0.4101147731513350  0.1590489088856797
  0.4107372230993293  0.0766166229301924  0.6597235932793570
 -0.0093035622742428  0.8191689884837554  0.1572853735650436
  0.1575994427378222  0.9039157006730300  0.2465405498824592
  0.4897126458470228  0.2431671439705807  0.2411863718450347
  0.2441288498884059  0.7422829198491827 -0.0018772118296894
  0.2445495597608809  0.7458470395441660  0.1599203926633316
  0.1570385129507180  0.6510039058107863 -0.0044274525215630
  0.0793861292761140  0.5745475712076683  0.8287495220560755
  0.5707088248986287  0.4954103211249417  0.5709034757616938
  0.6535374559810578 -0.0115459598018439  0.1600801763804972
  0.1600438086093881  0.8166013337768674  0.4900918982635327
  0.3346885311980147  0.7395577970974379  0.9114533501082710
  0.5695916649632851  0.4054781338235625  0.6586336197496389
  0.6593404623172247  0.3161925964061106  0.6592455840559809
  0.4097853962558962  0.8235549060348815  0.2418727324588824
  0.1556914440143135  0.2335609793820722  0.9134762818393140
  0.1564883665705828  0.0717359419271626  0.0774393147555030
  0.9054450892109041  0.9080592727070821  0.6597751805977093
  0.8172137200287496  0.6599662724151915  0.6624567826201908
  0.8216303957448697  0.5762654966290282  0.9054593841255549
  0.4949499470920403  0.0757717736281818  0.7471966485400204
  0.9114027364687842  0.2414108810764617  0.8286139983820855
  0.7395205975954021  0.2422099655938615  0.6584505796402303
  0.0012690705658439  0.0755304250030907  0.7433813985754896
  0.0748735945205732  0.1586207613983592  0.4012444443563840
  0.9055616683568589  0.4094761935392610  0.4835180969266087
  0.9157206508685612  0.0753698436906049 -0.0038900989501612
  0.2379992203805495  0.0783131756660264  0.6601231132392028
  0.0690150220556047  0.7421177320310736 -0.0061509333150985
  0.9066654488072293  0.3233177424964414  0.5714275423422231
  0.1538550819338139  0.1583700403971809 -0.0109008111963553
  0.9078453647010447  0.6669537908713989  0.7480099614103931
  0.7369641734341831  0.1566344077819204  0.0824421439895449
  0.9032086805718832  0.3285832375531872  0.4068427644286230
  0.9095630926215862  0.6575334997094924  0.5747502842138630
  0.1583615301095988  0.9056534017039335  0.5780015376468743
  0.9066701287278930  0.9075347303205603 -0.0071770759204933
  0.9097099364586639  0.4098424013454662  0.6600615890907682
  0.8210041697474759  0.9030246645919348  0.2476242883300197
 -0.0078460559052722  0.8171186933348724  0.6590479067300562
  0.8250350665202402  0.0717016227429732  0.0856216559498620
  0.7375643244170694  0.9048268339568922  0.3262919562357628
  0.1570024694293745 -0.0068169718575665  0.4917747570180412
  0.6531476051919997  0.1582739519264347  0.3207859935317707
  0.9086677200524581  0.1684928826419628  0.7433708030310638
  0.1582234447964485  0.9080604305194397  0.0717455456435608
  0.1515208236798525  0.3256020880027451  0.8239226548377675
  0.1509357433803830  0.4046991483149663  0.7414173618132769
 -0.0138663017553434  0.1586497074772582  0.4916404435387213
  0.9091675140166927  0.4912168621869395  0.7446008826772905
  0.8236624224035628  0.9071454966321102  0.5691798020128468
  0.1535685122984192  0.1592490145747043  0.8265528868923203
  0.8262662471531412  0.4878919084859335 -0.0049362506007592
 -0.0062054056670827 -0.0063210281727279  0.1582637486987793
  0.9102582573509652  0.4075036200289062  0.8342163218096557
  0.9069291595403020  0.4052612168735106  0.3228727319602211
  0.9113412275039091  0.0746060436722076  0.6535452494526655
  0.3154382628372922  0.4077909554127674  0.4073804114544424
  0.8212660253540360  0.6618355301935144  0.1581803690590371
 -0.0067229654436698  0.4096403937202291  0.4122354159932702
  0.8201311480597586  0.7500064906611850  0.5690367175527121
  0.2324438739615799  0.1585114777659113  0.4081198792313074
  0.9060082338636313  0.8224057831736270  0.4062613022814320
  0.1565290182834905  0.0768579710165449  0.2413971118321722
  0.7407958510831868  0.4937688734634371  0.7521861526627944
  0.7368361538658352  0.5797868481281663  0.4898774214653552
  0.9167089337178790  0.1573315862773392  0.0797101197222232
  0.0650218619206012  0.0754794691347669  0.6572766636325791
 -0.0100328500669872 -0.0113658531211197  0.3317384433848592
  0.8221985167347698 -0.0104624039469352  0.3314879518725188
 -0.0093837137401017  0.9073088177618374  0.5692464410537740
  0.9097615534529300  0.4101762428746650  0.1586975560040556
  0.8238073226178101  0.9031477527983782  0.0701554774451005
  0.1594859164078737  0.9025192427654595  0.4024547596499689
  0.9063012603390906  0.7494203204880008  0.4902736965278803
  0.9081316970906476  0.4921442449971057  0.4118379077085715
 -0.0063680269204355  0.9058448859507801  0.7457347167119011
  0.4915119267250391  0.3246591909751019  0.8184612425498600
  0.5748928904098800  0.4960199756150818  0.2330118552960658
  0.3274308910519976 -0.0118796562498276  0.6574809742362396
  0.9134119339422835  0.0762001928352315  0.8314931351110429
  0.6620402667423949  0.1552116486499882 -0.0016858056871167
  0.8273724083953178  0.1620156859109947  0.3215942703755955
  0.6618180704479223  0.2404362249570930  0.0846897875736701
  0.1564098555333182  0.3260325360476521  0.3191544952451968
  0.2456960028278427  0.7387764158368287  0.8240763255979648
  0.9159304596985086  0.1562099991880264  0.4073981454869751
  0.6533328134498230  0.6568711001935450  0.6615921484057860
  0.1550659878381880  0.3254525969979549  0.0022413477276913
  0.7404309535154417  0.4055888777841418  0.4909883101431600
  0.6473614378025063  0.0764850154620439  0.7451325498906649
  0.8231522429772982  0.0740571256967601  0.5606841986348949
  0.0717216316496491  0.0674407798736607  0.4912171360207510
  0.7370718479276266  0.8224544171820962  0.7503230857295594
  0.8264930686871350  0.1595140209869883 -0.0061535913495031
  0.1568111456761890  0.1625085480618698  0.6590584324741846
 -0.0103758260332514  0.9027330961079253  0.2470221105665948
  0.8264021108730752 -0.0208236175126975 -0.0075283556210978
  0.8235776676665523 -0.0086454193036454  0.1575557087271876
  0.7368453904408849  0.0737804425284359  0.8270251956662392
 -0.0087454489779952  0.3285986957180959  0.3186644365615277
  0.9069367492742659 -0.0117023067092209  0.4065620892404765
  0.2375916629729294  0.3244517919750788  0.9128136839776742
  0.7325240886677179  0.0749091472174043  0.6520675322333014
  0.8223317600068629  0.0779697797690019  0.7384912013098990
  0.6539683953206692 -0.0119129149877283  0.3248464251719939
  0.7412797256218502  0.4930210678227043  0.0794231451597779
  0.7397388620437459  0.2440597643954207  0.8260631271095150
  0.7415971207933371  0.5783132168228555  0.3224960187895199
  0.7355644078280054  0.9072361411529618  0.4818911453841974
  0.2387964540842760  0.4939186367879722  0.5753472627178451
  0.1533401472502435  0.6591898563745541  0.1595525709911340
  0.7393049477424432  0.7421934764667906  0.1580011520362676
  0.3263325760409709  0.6606169787058178  0.4896536862723280
  0.4915924083191556  0.1535078845470053  0.4943110066539757
  0.5803886073001110  0.8223072292189841  0.5714711810637624
  0.7394388757022042  0.4242436041380210 -0.0055582675543737
  0.4912897936561557  0.9067733860586926  0.9111080129906064
  0.4080394508197875  0.4991988765706475  0.4061682973245554
  0.6597948962502834  0.3261722013328246  0.4920179347417317
  0.0750052001897776  0.7417122937089236  0.3235913606299128
  0.0852013875802925  0.4951307087505548  0.4076700900226061
  0.2402959011948912  0.5730005540607289  0.1616395942477717
  0.8236607852175083  0.0761366201561101  0.9115832791999809
  0.5719193123350707  0.4077211739384052  0.4960257092195810
  0.5744760975007545  0.4085410726576486  0.3203301037547467
  0.6585267452281826  0.3316966489368828 -0.0053280779358609
  0.4906939786687181  0.3282977721177450  0.4949329467779087
  0.1585011751003521  0.4937133763073231  0.3234197032027159
  0.5743804034700143  0.7407073390208513  0.1582982706702802
  0.2396733843059464  0.4090019761942831  0.1608886200445339
  0.8252712140302254  0.1598507281126838  0.4975432488378299
  0.7442803084018025  0.4059771296330370  0.6601915940244548
  0.6554179526546717  0.1564238150393325  0.1605534276225542
  0.7440905430678051  0.2472278820014429 -0.0054809240432646
  0.4186279409679723  0.8243972209948481  0.7440405415815414
  0.7381167767121010  0.7422550960387522  0.3231910321802288
  0.4962673476467482  0.9104966035406780  0.5734886507676873
  0.1657253895261917  0.5764542383086564  0.7379817850060950
  0.1660971380673549  0.6631301118756305  0.4918936154614033
  0.7404035181374715  0.1579152027504273  0.4092621064518249
  0.4915460358981685  0.7393103531815830  0.9114123261779409
  0.3307550234818664  0.4993141336547942  0.8272676700919536
  0.3238894869708658  0.0724893037771726  0.4077751717550104
  0.1619458928856314  0.1587335716263829  0.4922312392817136
  0.7297464475324322  0.9084807460640145  0.6587755262646475
  0.8214835545065239  0.8149723117346640  0.1600438536138351
  0.4085194658367349  0.3225476976817978  0.9103868378065587
  0.2407628796492862  0.3208633758773755  0.7362735254703446
  0.4924001603760894  0.7348592949592501  0.5734809449693948
  0.1589662826402267  0.3257901979265107  0.4963134297695951
  0.1524117826067702  0.4925901302873136 -0.0036653980981156
  0.6550473123937700  0.4922358647112124  0.6601724268815160
  0.3252965835408801  0.9061337574691074  0.7418562754974518
  0.3264813007518076  0.1636133698646466  0.8256985549076120
  0.7362620725154687  0.5826987257843338  0.6616445247803061
  0.8231695156419374 -0.0050957271227818  0.6549632360972149
  0.3228047827907413  0.4960333867421967  0.3156157384427284
  0.8228734423171028  0.6625800455271725 -0.0065436507927906
  0.4967725431236851  0.0719502394399653  0.4066437557533926
  0.4091846006448783  0.6640239413509431  0.0779878852534160
  0.3238203647506293  0.1591401681317224  0.3161455721848738
  0.2389208229800453  0.4935777203897911  0.9103503308897686
  0.0633707071035799  0.3254237608931372  0.9134451347544250
  0.6456892487035206  0.9068850852692133  0.5723485391485017
  0.1578279184344428  0.7411803381044810  0.7365759879766399
  0.4890568444274898  0.9050313953063137  0.0792640683392676
  0.6540678027541883  0.9054355432895035  0.9069979305129133
  0.2410141771042182  0.4096135987056551  0.8265368719903577
  0.4114957336985200  0.4947849415919394  0.5735899127391633
  0.6541984384098165  0.8173358001368350 -0.0069982352613457
  0.5731107064984540  0.4961385084515258  0.9099663592234395
  0.5751093639780120  0.5777552784331953  0.1595243520348440
  0.6538429972828741  0.9053323414029949  0.0812678307114712
  0.7326232479840865  0.8158760405409002  0.5749264974311663
  0.4917523792614458  0.7389379019802932  0.7431943312416232
  0.2314543652879351  0.4966597509110663  0.4064146310691927
  0.3281283693240800 -0.0113485688769688  0.8327502710298719
  0.2424468403718791  0.5819779619585280 -0.0047700658448748
  0.1557689272750055  0.8326955512941362  0.8282307913827066
  0.8224328017827464  0.9043774888595085  0.9096746593539099
  0.6549359887679680  0.6581077391905917  0.4880502359590507
  0.2457273580604618  0.7408580086485227  0.6497550671275182
  0.4095415088540950  0.9059087007477385  0.1589372256184900
  0.3268358536526503  0.9006996432386676  0.5737360000035355
  0.5721504521077658  0.0729071490892807  0.1614709363543245
  0.3240144565826552  0.0785417334703114  0.7416575437345122
  0.3261571009154419  0.3276460553025373  0.0017571560002986
  0.4110552874649559  0.8249573528334709  0.0769819382454668
  0.3221427425166150  0.0740003458927555  0.5679247156574750
  0.2425540112074197  0.4984236648706491  0.7375424424087338
  0.4900300829821936  0.2357657264538795  0.4058026928347374
  0.3217603698495779  0.2481272197168623  0.4068549717242049
  0.3288412830114734  0.4076003379641094  0.7344897836603012
  0.4057491731484926  0.8234505875148894  0.5730247526684487
  0.3278694921118549  0.4931410753042104 -0.0055373169900258
  0.1558204527442378  0.2479897334266278  0.0788466337711911
  0.2474287481788940  0.3250197956812200  0.4060951656904388
  0.4938194564352137  0.0751795145644413  0.5726601351769481
  0.4918775176207372  0.7404729947916283  0.4052180488941998
  0.5719261407249701  0.7407993801203127  0.3251317081963083
  0.3269618432443883  0.1581875551691309 -0.0046123917722214
  0.4080396540924960  0.6615860764408685  0.2423198561581555
  0.3259782041976981 -0.0182964158587545  0.3217873326901849
  0.3260350966984034  0.0715163694534770  0.2336089826532615
  0.4926000879020427  0.9047548044652517  0.4041235244436486
  0.8318631413046671  0.3332520698890716 -0.0054590947404796
  0.0751494094875296  0.3255584310764924  0.4071446045312143
  0.3253250023727781  0.4918697685761982  0.5752865016173235
  0.2384139149787077  0.4098888658122458  0.7333716061935998
  0.5715638163515395  0.1503200443753790 -0.0088610652364861
  0.8231234705924856  0.5752338388792093 -0.0068685574361788
  0.1531781207164201  0.1597086505553961  0.0767896348789633
  0.1586622841239426 -0.0102248644647048  0.4045207817263828
  0.4097155687376711  0.5779154303541303  0.0773127778708506
 -0.0072875065289045 -0.0060982301919896  0.2457409717853024
  0.7333769254232486  0.0745969380713263  0.9132064839684928
  0.2400500274177135  0.4937440047058426 -0.0021154684964112
  0.3252400124547100 -0.0086004628231626  0.7458556103703782
  0.8275813053974898  0.1599617852635656  0.0852874385402495
  0.2452510367093060  0.7400671428084815  0.7352472331089464
  0.3227713592849652  0.0689600034730812  0.3190379987484214
  0.8276065627825927  0.0674276119305055 -0.0008783426707664
  0.9907322480978035  0.9055885081679965  0.1564435687567786
 -0.0114881491250636  0.3218424263108557  0.4069882193627664
  0.1555397256325287  0.7398975514178734 -0.0023657843505962
  0.0801687166534051  0.5745891446201663  0.7401354374381077
  0.6570417065690899  0.4027067479154746  0.6616040036561592
  0.9147036319048930  0.0803477647711772  0.7416871997561983
  0.4941702753004301  0.3276058372476535  0.9051346184041879
  0.1643635998747456  0.9070982407155358  0.1593311775732873
  0.7330346561153863  0.8197489872724388  0.6640174435920193
  0.4923891954943829  0.2398332241781314  0.4954245934300839
  0.3282497336031175  0.1616300255038313  0.0819884111901745
  0.4120969023416894  0.0699936625836919  0.4086881342104345
  0.9100971971292935  0.4047853376612040  0.7491341431940768
  0.5783167274488005  0.4125425821719785  0.4094717419651641
  0.4893931509814586  0.3221397731218307  0.4045811081028099
  0.4018382934312129  0.4112801467057329  0.4072521306607569
  0.1486631453574457  0.3231989407622147  0.9143970950223507
  0.8184181174789379  0.6631371631240925  0.5746512119416345
  0.6545575700938918  0.9046539273670673 -0.0062496898593835
 -0.0958041718086873  0.4927455026792604  0.3223359653870557
 -0.0934965027794172  0.6617486619749694  0.4848504543717148
  0.8298291602932518  0.1595910764027111  0.4104669031345505
  0.8206520429350345 -0.0066097847991112  0.2453725313103855
  0.5709359158608324  0.2432029504544104  0.0844312657582807
  0.7404746535050918  0.1596182669727065  0.3195943309739496
 -0.0019691871400894  0.4965137294495007  0.4105454499699049
  0.7336433184307214  0.9058636277071829  0.5680371072382437
  0.7384325167239754  0.4923088355094877  0.4899448799959986
  0.0740638322181422  0.1559334871636929  0.4888453255119780
 -0.0974249738260825  0.5784007145667316  0.7473693420192590
  0.1508439107853393  0.0744774991770907  0.6596891803663940
  0.2492442030964618  0.7442336176878990  0.9117990392431041
  0.8259564879644044  0.0745059981498971  0.8256943772444491
  0.3183605803193008  0.4991301982822070  0.4026285225012325
  0.8219337593465771  0.0835623300780267  0.6470098881146324
  0.8199086148654198  0.9023120075720432  0.1579183408831669
  0.5704939322612191  0.3329613358590225 -0.0050062895689307
  0.3202431376895294  0.1613373884850557  0.4083810057646989
  0.1543998403780175  0.7449057464573327  0.8224106697638232
  0.2403618591880102  0.5000062839908572  0.8241628103459642
  0.9058022801495605  0.9056780290826714  0.7499448639750534
  0.6535347805900846  0.1588571768497954  0.4091593529396433
  0.2411364202970136  0.6594698727505515  0.1616763237343090
  0.3264993304392090 -0.0131266940180167  0.5680797835525045
  0.2393369156553261  0.3184519322609238  0.8234589125642136
  0.0808217826514269  0.6614446753071596  0.4925498310155612
  0.4975475758072873  0.0742173255874072  0.6601550735529372
  0.6585657057674472  0.2424466669341102 -0.0081926787075796
  0.3318951682066763  0.4117414430683149  0.8223799252178903
  0.3270803692537429  0.0711853545591195 -0.0022668677635284
  0.9078284250315303  0.6614823688823752  0.6610812215931925
  0.3242754213292187  0.0822442554965645  0.6534661616571559
  0.9928710356899251  0.5748089964516859  0.8355132615945019
  0.1575562517237621 -0.0083336148153881  0.9085278536000060
  0.3243822056793401  0.0780832798287773  0.8291913880992827
  0.1617054160955198  0.3257034175813601  0.4077463653786895
  0.4932469630963877  0.8231622201585312  0.5736644572799516
  0.7438035416268137  0.4953359146525697  0.6642897824865541
  0.8337719814199889  0.2465949287378741 -0.0082034150810533
  0.9934672823221240  0.5835688062794284  0.3183784725454927
  0.7458518308802268  0.3379990984243025 -0.0063976132817535
  0.7322558451329727  0.0753857977545017  0.7386597547001963
  0.5671654926066619  0.4948383844857911  0.6595488818899863
  0.1581396334445847  0.9036782571020305  0.4911019491828821
  0.5743033846559223  0.4966409905505412  0.3196634954067443
  0.9100716089885651  0.3217535892970238  0.6574065793487092
  0.9937803596541832  0.9048051365864275  0.6564645681891941
  0.3233344579759321  0.3230355857191209  0.9156200111863465
  0.9101032398390565  0.4120454541744468  0.5705911718201053
  0.8179994453568212  0.9078156151013819  0.6584152260622455
  0.3317428959448690  0.8206483844018320  0.7442178875035838
  0.2386317201766489  0.4934976479649019  0.2413240072291148
  0.4093177285408534  0.2406999037446227  0.8239962677403097
  0.5730255087836198  0.0735680272593713  0.8273266978459981
  0.3220932246253858  0.3255818806626791  0.3213253873812543
  0.4046265025543095  0.4110216436281109  0.3182614769845369
  0.3229193921282959  0.3254073942234703  0.4928735556767112
  0.2401460014506105  0.3230503031524782  0.5756613705015283
  0.4092189165614441  0.4072817153418450  0.6584131034681665
  0.4913202497899917  0.4164786898041212  0.9113578440841630
  0.4080412212678756  0.4117229323643512 -0.0037819041100795
  0.4085871094570337  0.3240166226522453  0.5770225124395982
  0.2434589994105656  0.5841343209158401  0.8274168631039573
  0.4076820649288579  0.4075553428223364  0.4961810216752874
  0.4160807456988840  0.4098623629361340  0.8258979774503633
  0.3244760152883973  0.4104785396850898  0.0795089398821856
  0.3276615539494013  0.9055423987298850  0.0770658938153625
  0.4966210911774123  0.5770958521777269  0.0781089090485825
  0.4060438947307436  0.4908017131853393  0.0794734378412150
  0.3229061750921336  0.4921138165600252  0.1623168803685542
  0.4123885059545983  0.7401266920031337  0.8275176673290592
  0.4101283556391065  0.9058289409934325 -0.0059861822586823
  0.3234568431020871  0.2431011954671987  0.5750729527393422
  0.3276219229235722  0.8236279710930855  0.1589432672432539
  0.3230372306185480  0.1598909787749248  0.4959421263770465
  0.4084754633364910  0.2441951525993776  0.1628392574525520
  0.4103817664412839  0.6578257942784115  0.9114604965240435
  0.0760806647768655  0.4867648941185210  0.7409390141049427
  0.2436325703610178  0.8313720358640722  0.9094489706468316
  0.4100362771650037  0.1595365056944623  0.7424437600266727
  0.4102895202824459 -0.0128766703094247  0.0790021144385328
  0.3282134096832943  0.8242662669835772 -0.0052861120616677
  0.3251008731975892  0.2409808959107243  0.7423328750271548
  0.4927519610800011  0.0721900299986725  0.2412479365774493
  0.2358083840980930  0.0759702425598209  0.3213085011104883
  0.4102299197985125  0.9046963066620606  0.3231240212729643
  0.3273951346859830  0.5770105499358897  0.9127165343901859
  0.4085610029045483  0.5783837631669891  0.4899893115187799
  0.4092673406144737  0.4946192501730313  0.7427137132162206
  0.4093016367866609  0.4950561624358233  0.9118274801598588
  0.4898105287750551  0.4081343149734226  0.5752046972038741
  0.4146794015299451 -0.0107808498727129  0.5744092408343874
  0.5724880772069603  0.1585399473729886  0.9046648846310092
  0.2384877853095077  0.8303501480624909  0.7429071931989797
  0.4893721164197626  0.4124380821841074  0.0790206500387044
  0.4896705634084225  0.3288272971692769  0.1620963095603614
  0.6582009798978279  0.3290567433494629  0.1614878877925127
  0.0757686179291649  0.8249972235965611  0.7424582679169821
  0.6639382515570559  0.4088683361917552  0.4057448221044345
  0.5733975687529297  0.2423789926915341  0.3213442953807097
  0.1579673000874936  0.8282297984660593 -0.0055213681376329
  0.3286636486441039  0.6589859361181614  0.6558704557202564
  0.4081502635416612  0.1583545080553314  0.5751337412814228
  0.4119067011622962  0.6584100514584430  0.7433775458488425
  0.4093377938240401  0.7409100563004021  0.4891242759876013
  0.3261375412238939  0.7413846239976535  0.4062673349381650
  0.4084624912143847  0.6604372509463404  0.4063136700465644
  0.4092381785765742  0.7419859280315657  0.3245807931543105
  0.2417816629202267  0.6627448379357587  0.4067836104564014
  0.2440428179165224  0.8238314573461026  0.5747405555834126
  0.4085773317032635  0.6601535133988247  0.5728049252964100
  0.3239215830564038  0.5781259694539248  0.2419409315617655
  0.4074456324157727  0.5777031214895985  0.1637868851157696
  0.3226079808932000  0.4946966029150074  0.4895380623428075
  0.5733303656829213  0.2415466948773676  0.1685426064939387
  0.3255565107887836  0.5809015371688505  0.5721594118911345
  0.3291147024135916  0.4960558990985348  0.6618320446004577
  0.4101069352204835  0.5785642011149059  0.6578796214796028
  0.4070738339660021  0.3285938944153274  0.0802521453447461
  0.4075689491743339  0.5787768294991916  0.3222479776551240
  0.3255215199827042  0.2353945796798335  0.9134077921284590
  0.3231597488315545  0.5849771058270415  0.4059283583931357
  0.4090998881965773  0.2418875243764242  0.6582142655725906
  0.4079802872507503  0.2417205306949721 -0.0041101134076249
  0.4110516758559605  0.5765020078024276  0.8273228428941989
  0.5733475967351250  0.0740024664425483  0.4910299047920487
  0.4904722680907915  0.0713176073864626  0.0798362489118869
  0.4129043999063656  0.1569277443588493  0.0810638539531052
  0.6542390513962378 -0.0077747813521220 -0.0036217711836332
  0.4143934809292448  0.0752845459338288  0.8257995911392982
  0.3268398924650097  0.9035649994713000  0.4049732376042838
  0.4109444726374328  0.7400190905392411  0.6579192730147801
  0.3262989932265130 -0.0142133637767952 -0.0041900366611930
  0.3289631647590985  0.8242921000194833  0.8315998520932600
  0.4855724934139969  0.1563353009780506 -0.0056997998927703
  0.4107677416433504  0.8236871572338613  0.9115095300842223
  0.4103748433163317  0.8236409174485919  0.4060122660232099
  0.4900451125927488 -0.0122975508078348 -0.0053094098300661
  0.4147234352982501 -0.0104889684890640  0.7430248701293916
  0.5718139258215893 -0.0106277479410255  0.0792496414925870
  0.4120968213377727  0.9061698984320450  0.6582057918648222
  0.3249803671425024  0.0740694901615735  0.9130371738022789
  0.4116604352723339  0.9072454654604696  0.8284010093182611
  0.4119032311432892 -0.0111553878841759  0.9096107571950927
  0.4934175651272011 -0.0106358010414584  0.4910042557738003
  0.4943800849864748 -0.0138734991986716  0.6594447420536378
  0.5736310934247559  0.6587015895716402  0.4055404972267470
  0.4130669295302071  0.0730770696854434  0.3187663639773901
  0.1604534738398837  0.6584963412604455  0.6563444433422663
  0.5725305416389082  0.0721320481809736  0.3225816645630939
  0.5735951171421498  0.6581577965279145  0.5739539494781826
  0.4112849099195521  0.9059276693952415  0.4894606871506668
  0.2451606388055557  0.7432487672697168  0.4909278860981918
  0.4097885937496061 -0.0133290471583207  0.2408926190479473
  0.5728397944420882  0.6582648361884396  0.7452986004587356
 -0.0083811794129242  0.0799198687830799  0.2439845200903468
  0.5735056238359776  0.6589682490657516  0.9110544020454201
  0.5821136917786689  0.0765971267455800  0.6562349954108362
  0.2399962760272670  0.4052650514420736 -0.0032889166963100
  0.4097841652948033  0.1583327980968686  0.9088998036909134
  0.4921558922334594 -0.0127056903931522  0.3231336452061818
  0.5729324935655125  0.9073009460411041  0.4870793405589693
  0.4845915966868824  0.2453222560492181  0.0795065372208188
  0.4918962149368514  0.6589423613165681  0.8287891469875668
  0.8226256396351407  0.5743495698125438  0.5762704727942599
  0.3268392031942191  0.9039110545856610  0.2409739022755388
  0.7394573357828921  0.4106204001800053  0.8273962579217190
  0.4909623267161629  0.1567233902990377  0.1621454905879200
  0.6553737131875584  0.5766005526385269  0.7459554266971803
  0.5729707873256281  0.1563537084522497  0.2426896566228988
  0.1578245625998138 -0.0042911006838501  0.1603593375567303
  0.4894723274208372  0.3266835169215784  0.3179609934173854
  0.2399530935050623  0.2417050544344665  0.3213331504831260
  0.3254272207532583  0.1599839202883463  0.1671177810708932
  0.2395428902655466  0.4101514191074619  0.3221327518362485
  0.3262457743974501 -0.0126912895803347  0.1598898412261488
  0.4099854334755862 -0.0165588735348052  0.4057202186140494
  0.6564833747591078  0.1580476444684384  0.4943602257031500
  0.4099984502646786  0.1590474756104292  0.2413204681334931
  0.4921021174464879  0.2423068456505988  0.7417213745088298
  0.0676525141251932  0.1587369771717021  0.0786170442815163
  0.4108536217797034  0.0717615942260929  0.1630691836492483
  0.4029386414147463  0.2429316499676393  0.4922873957450856
  0.4896875059843737  0.2385893399579866  0.9095223453970651
  0.4107166066209340  0.7416098301473839 -0.0055673877827647
  0.5741041136732021  0.2429599602029372  0.8246844476014192
  0.3269547731844595  0.7429083257673117  0.0768969961991442
  0.2419960851456247  0.9061850669897646  0.6567763652077464
  0.3219190629976519  0.5752427245075266  0.0795242638677374
  0.5749866063607905  0.4185489761606625 -0.0051710132398827
  0.3245001351528276  0.1669270315743340  0.6577278970139270
  0.4898290162016160  0.4110976254722579  0.2400198826153192
  0.3290390053378607  0.6622773056764502  0.1604774162695684