Cr N  Ni
 1.0000000000000000
    21.1263495499902021    0.0000000000000000    0.0000000000000000
     0.0000000000000000   21.1263495499902021    0.0000000000000000
     0.0000000000000000    0.0000000000000000   21.1263495499902021
 Cr  N   Ni 
 259  86 605
Direct
  0.0046722492675038  0.0795614399645729  0.0861651441355398
  0.3296691855345746  0.5002080471911682  0.4985996963660373
  0.7458879581494360  0.4225317701150315  0.0027052182948401
  0.6608256542736726  0.1642178035158986  0.4990055517469317
  0.7490460576550113  0.3351226758543823  0.0916878281747746
  0.2391646488042604  0.4161631610545738  0.3378125299539353
  0.6653564228844084  0.4204442920225042  0.4179418682427907
  0.3258793980314971  0.6713451546619024  0.1699306915267849
  0.2500875693160617  0.8262688521426804  0.9203702897527234
  0.5801877855113248  0.3300290355061558  0.2570327215692915
  0.7472673879225564  0.4169555388385687  0.1795721567279671
  0.6648683853677176  0.3301867211590830  0.3274164938632023
  0.7486143762516637  0.0070159381727792  0.7484640192463344
  0.9188380409336347  0.5005937251459575  0.2639917792961204
  0.2458946135527244  0.9153018916589087  0.3377913524422794
  0.2464423241604547  0.5022894218171785  0.0843838903306709
  0.0751259552480084  0.5032510464801979  0.0887439129074733
  0.9280347970004282  0.6655684658845963  0.7441227198731561
  0.7394911279727447  0.2441459502046428 -0.0018866204960348
  0.4075290003449535  0.5840186532289289  0.8297151912380861
  0.5841906522882035  0.1578687525961704  0.0870366991408286
  0.4973738409593619  0.6749669310117028  0.8318665367304935
  0.4926649162948368  0.5830969805231105  0.7418562787202806
  0.4939415835472871  0.8344032021528777  0.5006352828632923
  0.5705663524918327  0.5823327659243878  0.6630888314446759
  0.6652988448099975  0.4895438520873271  0.6630378124884155
  0.4989389715456641  0.7482654368481221  0.9126285232948311
  0.2430101769845249  0.4181183146805190  0.8285893815296527
  0.6693105740798093  0.8347248336279128  0.3322671026935671
  0.9126377903939337  0.0853119972904123  0.8290807734517736
  0.6637320915225630  0.4089512828506281  0.7409814624617852
  0.7435996491548502  0.9197727074638123  0.3352067329383144
  0.0835041457883383  0.5872566309585909  0.1728908152259002
  0.1647933309137062  0.4156340738253999  0.4191280543546360
  0.2496852796554477  0.1682559239385697  0.7429127392485808
  0.5058407441928142  0.8297258480016574  0.8380331636498233
  0.4130491140715969  0.8259822292231384  0.7409520410399120
  0.3293559797627698  0.8239889364719183  0.1708651902052506
  0.6600053383830221  0.8438540018888471  0.6639713501312843
  0.6594123702368720  0.9148681948910978  0.5782853394894201
  0.8282226490790352  0.0729243275799031  0.0869656870293130
  0.6621195475025815  0.0964023687783172  0.7457338568133020
  0.0046471419177527  0.0076477667245582  0.8276774923732156
  0.4114515984793394  0.7500975632954283  0.5008856938745773
  0.6632839823164470  0.3207873263542787  0.8279735977506961
  0.7461155889422267  0.4087999583226541  0.8306956660980195
  0.4949596732679594  0.1668603442750579  0.4983257325371012
  0.5861950815019054  0.7512710012824119  0.0043898036430195
  0.9058086857194524  0.8306632552872865  0.9213262480078528
  0.7436215021851179  0.8360597020137517  0.5771202345099520
  0.8276068709172829  0.0045073405329319  0.1725326835574414
  0.8313848943368577  0.9209320258363879  0.4094653085785815
  0.9216960025545187 -0.0059072170904768  0.7537057088302461
  0.0882994561231632  0.2519044000030772  0.0025806782572706
  0.7524838221236884  0.8360649643338551  0.7570601062679934
  0.6582352312453833  0.6671150664123835  0.6625010355229856
  0.2479237171246318  0.7392247735019859  0.8270924044828619
  0.8222280208098020  0.9167996110386355  0.0826744041620129
  0.6632922981763714  0.7573000918517949  0.5745652525327086
  0.6615024537586732  0.0077792678981806  0.4909615757341070
  0.0901714468751767  0.1668027760928826  0.2544474709132608
  0.7484129626328302  0.7539619685559978  0.6644226218060149
  0.3306222074811199  0.5054146645669022  0.8286707042442829
  0.9143770562630558  0.6778797564983862  0.0879542794756097
  0.5781628674412743  0.9221601874604518  0.3354156261583791
  0.3297437075734445  0.0019435687889019  0.4995081975459005
  0.1664934755226514  0.5932511953184186  0.0861128154038978
  0.7504137375623098  0.6675253296038570  0.5748315930191309
  0.7434852988010405  0.4910962707274511  0.7429192685526129
  0.7465886666406886  0.6731701720370143  0.2535318188227404
  0.1653113364382229  0.3406149394497716 -0.0010667256115130
  0.3333177844804948  0.5066061206082799  0.1673638461006391
  0.3303629490299484  0.3291559999585237  0.8269810292801539
  0.0840148938686761  0.4941794034663321  0.9139938209201872
  0.6644172224272650  0.4946788658754852  0.4965022485022188
  0.5773069615900239  0.0860142212773199  0.4976729704808774
  0.7475490148136247  0.4979921894209561  0.2560584771281680
  0.7491249543060465  0.6736130258457182  0.7568907444237724
  0.4131987202966509  0.8322417321663449  0.5808436254605172
  0.6589411372630349  0.5883183989554420  0.2550819232266427
  0.1647661323175642  0.3312149187708359  0.1724067135880614
  0.3305102520230973  0.6675996313687199 -0.0018052056111926
  0.5812912326042220  0.7456780832729719  0.3368912498902131
  0.3334228462012457  0.0837209394342271  0.9154043378133565
  0.4136096762104822  0.1690135463366844  0.5788353146525290
  0.4941086583601592  0.1632590398589861  0.3342720662030948
  0.2473072204187476  0.2477685522043778  0.3364861133170427
  0.2608704819457367  0.2511227507518732 -0.0003552015464579
  0.3294155515774777  0.0824899359137844  0.0912218212616964
  0.1694119009739886  0.0838269495354432  0.0876121946034849
  0.5027385955253382  0.6675336392939789  0.1689198497324683
  0.6654326917249681  0.6650935715890305  0.4874456414009520
  0.4173960853410253  0.4149002116310758  0.3459659301313894
  0.5741656906827783  0.0048519017268078  0.5791076358887001
  0.5696386318485983  0.7498216144464839  0.6624740263068509
  0.4157707224883663  0.5834948298861933  0.1696847296563437
  0.4110795974108962  0.4128056477427920  0.6593924552433017
  0.3304435757311334  0.6656386184652259  0.6613624756667396
  0.4217791888557178  0.9183577459550391  0.3350552598266138
  0.3242459912880627  0.4129427023938165  0.2529274046896113
  0.5018496277924260  0.4139409002518689  0.2582431302359651
  0.3293819810962583  0.4150760732943065  0.4303504904178819
  0.1675212513151902  0.0025611012691799  0.4990875184803116
  0.4069079505625037  0.4169661473159313  0.1677148560576384
  0.5742037347639959  0.0015652579470225  0.7475549790387628
  0.4953461402092943  0.5864024483848351  0.4205739022016202
  0.4917045356542726  0.3372218786881816 -0.0060580532553332
  0.4943421607893277  0.0819507001409924  0.9153226764397167
  0.6678943552477138  0.0826626678479287  0.9152879072249186
  0.2398279068982501  0.5022911371714065  0.2546860678269541
  0.4171036506248964  0.9155919675028306  0.0030540240013544
  0.4184658829676994  0.9152145908860186  0.1700763161730633
  0.4140942929882527  0.7585612105871358  0.1697348487933009
  0.5739677044667598  0.3278185987747764  0.4173668641049925
  0.4914855646604637  0.8330343567829585  0.3376722744150299
  0.1682130026655183  0.8315611177756110  0.6602798469760913
  0.2464663095128127  0.5849026032686588  0.3394428859929289
  0.4161375286418371  0.5086048742441983  0.2543701966304820
  0.4979273927712605  0.6706604017370461  0.3375538851571287
  0.4034504958421172  0.3318790670985978  0.0870409017365681
  0.4189180492811880  0.9187193398767086  0.8338609471571398
  0.6609201904390246  0.5841999530840328  0.9202835794602908
  0.6564773850092305  0.4996108075339193  0.8335109945771370
  0.4183690986019640  0.0021035722872662  0.7488593234224581
  0.7447653362421160  0.5105617913467432  0.0865373870867868
  0.9180999710712533  0.0873988771999367  0.6552869805555113
  0.4979608912362729  0.0703852483489545  0.0879887566912267
  0.9257738312187077  0.3318873241541138  0.4175746053060753
  0.4937909786124153  0.1630487597479376  0.1783709246943900
  0.8379973321982821  0.6690350260899101  0.6635819890590146
  0.4970968809807241  0.5858880921020186  0.9193225771023715
  0.4993663144308986  0.8422830100778121  0.0036698509678092
  0.4941938481148277  0.2488811255767592  0.9063690130632835
  0.1650008296627070  0.5848161432493392  0.4185284639871308
  0.3306508934624506  0.9154027525051347  0.2528300722348766
  0.4186472832160358  0.4160194843482315  0.8292937106214914
  0.4988402570228389  0.5939186042515788  0.0844509274508885
  0.4971003150414868  0.3289741764207675  0.1756386164680427
  0.2489340742047205  0.4166304140374010  0.6606617181760550
  0.4979045512310594  0.4140380143737792  0.4197628715801597
  0.0869434641046060  0.0012675188603297  0.9141421254235537
  0.6640382181314289  0.8352145667885108  0.8429202784509541
  0.1666810033608122  0.9122145775157150  0.0850576349682780
  0.5852204956237612  0.5832922589931978  0.8337465325195451
  0.4129243217553393  0.7408225911297870  0.8323929543997444
  0.4134045568039509  0.9178711979180483  0.6536645033290128
  0.4104033481172686  0.7482798588339836  0.0009249418648419
  0.2469528363550028  0.8318400996508203  0.4188065639163395
  0.0862079092036497  0.5825150828749006  0.6606836998305174
  0.6621391891828446  0.0917508908178193  0.5802920029820752
  0.2468995712905036  0.9140510360153052  0.0083003407208341
  0.3310564198306816  0.9171683341254296  0.4264247085724736
  0.3274884841423206  0.0912802685362108  0.7437085554414911
  0.5828637359403368  0.2461509083028796 -0.0042983010186015
  0.4917997909729299  0.2444758121955180  0.0849545573275657
  0.8345726819113677  0.4120390478869780  0.5875521415566727
  0.5698183824621492  0.4131342797083171  0.8287861451094874
  0.4929991273154039  0.5833880913170801  0.5791851905163575
  0.0873819384832079  0.9121228663610709  0.0055564268909055
  0.4997394595983395  0.5093853255660139  0.1683108652653813
  0.4135055431784330  0.1763247393164509  0.7448248017894910
  0.6577654224332434  0.5832347352385244  0.7534045560671354
  0.4942423494094989  0.4218219285628819  0.0816514546139188
  0.5837169433757425  0.3365672665587321  0.0883878427294573
  0.6639391402717683  0.3286902512893028  0.5030937526836297
  0.9085604477765503  0.9143048716572264 -0.0057916934541362
  0.3255020924154009  0.9148932249096998  0.7425642313880768
  0.1676052807258073  0.3396782347686220  0.8287368874000796
  0.2492826001508754  0.9150682242339075  0.8278331972631231
  0.0026695506985493  0.1678054744602180  0.4972814046251402
  0.3285873191153645  0.5051148864996798  0.3428931844325745
  0.0845449027138979  0.5855542869693446  0.3368920610868227
  0.1673259652400226  0.2509999556664229  0.9142401843222863
  0.5908905668886664  0.5044593118850392  0.2569718994217526
  0.9162870604338343  0.5890922649730389  0.1762456663916754
  0.5789515874889729  0.4060692369886540  0.6626313489575876
  0.8229787263718839  0.1600994047643418 -0.0002035177752691
  0.3312340766988681  0.9118328597533688  0.0773766943461965
  0.1725471615013996  0.5841292789565882  0.9139022133589538
  0.0857042184975839  0.6651194773463551  0.0881458576651236
  0.8348395771231030  0.7505501026925833  0.5790048278917619
  0.9185396791851570  0.2503279726452134  0.8293246000183628
  0.8340813073935726  0.8365312618069851  0.4983562868247611
  0.8372802949758164  0.8357355356082696  0.6725957002856523
  0.8294780148452831  0.8309291569801144  0.3257727061354911
  0.8328505422102236  0.0138359658089854  0.4964156256413281
 -0.0005749278521239  0.9113591502071625  0.0829505680083848
  0.7404886431559496  0.8372736076931586  0.4146618242522054
  0.9179512744943373  0.5839534449611837  0.3358221959622795
  0.9128303775238452  0.9189486322110578  0.3339146056413607
 -0.0084754176620027  0.8342603172298165  0.8272568323823914
  0.0836631202603269  0.8225935406086443  0.9181148813470019
  0.9180968492854984  0.5895607427566107 -0.0008332094620377
  0.0019426566720244  0.2538968001703600  0.9088204851481186
  0.7466300063185122  0.0848751213980022  0.3334360787257391
  0.2414441912931729  0.9132739081728882  0.1674983763643843
  0.8386284543316852  0.3374308986613751  0.0040511812838936
  0.9171455725625948  0.1722669199987351  0.7446351744510922
  0.9162146608048528  0.2524524499432536  0.0009507653254207
  0.8312011902655886  0.3188953316020168  0.8275614644566407
  0.1678470536137392  0.2499434886164746  0.7395086417428347
  0.0029543930873333  0.3442146232923971  0.0016250701328771
  0.1623246012712677  0.5030740915590310  0.1745953867638504
  0.9127880223275041  0.1661725414205389  0.2536419196144355
  0.2478374620670549  0.2489140346670584  0.4997804659935492
  0.0853917422700271  0.4155601945311491  0.6598697916445252
  0.3352115114379371  0.4156737552841645  0.0831586246661662
  0.0023526725029625  0.1689594439974840  0.0042953742353548
  0.0016733329858024  0.0795015714961779  0.2592244293699835
  0.2491760976803978  0.0035900445374626  0.9173892602259339
  0.8345387586632806  0.4176012509023702  0.4120878557473273
  0.9217489494769767  0.5884056169623421  0.8334452409846134
  0.8380482074304346  0.5826845131509064  0.7436182173916955
  0.8344388673873665  0.5754425276463517  0.5794737355353896
  0.0847904800837338  0.0867369021949850  0.6609901282823714
  0.9216899566169005  0.4103452409966667  0.8290091975421684
  0.9266519719643560  0.5003570826574659  0.9160703302530607
  0.9189828768145639  0.5007216733813865  0.0881183729560641
  0.2449272972379517  0.0830833599219073  0.0020994585197803
  0.9152265245759128  0.9133817065395115  0.1719342070375904
  0.0021990189875787 -0.0042765862710304  0.1702520952054961
  0.8328107139261894  0.3272778970548986  0.5039956166179930
  0.0944057858649028  0.9149996676556578  0.1679381404357371
 -0.0092487116909544  0.9182153607402395  0.9064312870731271
  0.8319719764175524  0.2405647072790577  0.4156219526035264
 -0.0017693724509432  0.0832077025717784  0.9085885418912865
  0.0850747867815142  0.5012287186981048  0.2536531724923297
  0.0014185106855749  0.8192129323122771  0.1699917077339039
  0.2487236281843868  0.0842585095615021  0.3354377303149753
  0.9239373529941880  0.5013922951526861  0.7384588832043056
  0.7467571671613729  0.1677110135196067  0.7457481380300928
  0.0024142303149002  0.0053536447176281  0.4995433028297941
  0.7397013426741884  0.1581941550335647  0.0866294260792778
  0.9105904489235636  0.0764634770103657  0.0033302190779503
  0.8325900717437038  0.1641623583374949  0.1787488338839948
  0.9216087944759516  0.4115791289659905  0.6524732605196016
  0.0806230415007786  0.9188117433769458  0.8237261299905719
 -0.0028551941910001  0.5896662286580296  0.9177887822783016
  0.2416641835616748  0.0028158315368925  0.7409292020659090
  0.8330887669134364  0.2463581147731391  0.5783466820880663
  0.0876452940308742  0.7406035959437257  0.8284341155625303
  0.9189697211032776  0.4118681049858046  0.1740347668285984
  0.8375551102369386  0.2539590728182785  0.0931509266573690
  0.0884585184134587  0.9156254794887903  0.3366908707253873
  0.8303537978690945  0.4051230276334520  0.7410465989128067
  0.1645776483751335  0.8297367330410262  0.8253813747162067
  0.8928618498757666  0.9052946756938378  0.8300912935158787
  0.0026656733482102  0.8288081383708251  0.4993881953243526
  0.8370807329967388  0.5053801197236519  0.4958704247478796
  0.8348521055859924  0.7438692724585414  0.4147682002218537
  0.8333790462721978  0.4990214888278644  0.8407796477698939
  0.8369988453033257  0.7582511832035014  0.7521779653157066
  0.7440537078250659  0.5878397990429439  0.8420430876125772
  0.0040100000255975  0.6664824503796162  0.4977676414118621
  0.2464502099175416  0.8316583025088712  0.5804136420693878
  0.8338931547191109  0.9279971616880824  0.5856204463003576
  0.7506006473260363  0.5763751428279955  0.6581933926901081
  0.0028434610099041  0.2567493986254153  0.2538438171456476
  0.0845368690516522  0.7494173088052511  0.3368232048935820
  0.8343825855637248  0.4049549938668295  0.8360865755878498
  0.7462108262584015  0.5828983431817784  0.7509779789350531
  0.2450782100485683  0.0038949498416769  0.8294685925530271
  0.4169242300548229  0.0908965670637813  0.7460206521235039
  0.4981454117843632  0.7534930032991377  0.0019735834929525
  0.7482882895790156  0.2464333249964757  0.0921679327486332
  1.0006005073468309  0.9151136495189396  0.3371942321162752
  0.9148119417444380  0.0817155207960752  0.7408432493001289
  0.7489026027460263  0.6656595224331938  0.6655460897706089
  1.0044236116693406  0.9169137598350576  0.5070982112890801
  0.4169298489552492  0.9132204072874567  0.7421730397128833
  0.8358603949271098  0.4178474565728417  0.5011934170795257
  0.4916954870727043  0.2458728251463219 -0.0074338168339866
  0.4131949797960306  0.4138719317913553  0.2576289691725813
  0.0817669558504134  0.9126800976000711  0.9147886425004890
  1.0017026598196523  0.1694585814179836  0.2560574566989646
  0.6592073885432322  0.5775588527258174  0.6619950930861856
  0.9095701705961420  0.9080356192481269  0.0826380333439755
  0.4914926361568127  0.3333695929128382  0.0851309389274264
  1.0014687490195662  0.0826623460749363  0.1722531896468909
  0.0776606800958977  0.8276023823030700  0.8231757536408809
  0.1760701843176986  0.2533272336605416  0.0043070572076485
  0.5807542923020094  0.2464514898008076  0.0876681351272435
  0.5799523934535601  0.8344836319114117  0.3340524635565449
  0.9231707769707862  0.4088305206765170  0.7391459744475600
  0.6629284353807142  0.8362989619135556  0.7569216086115370
  0.8378552725118920  0.8388400210063885  0.5861165312805983
  0.8342790073945427  0.4933237082568173  0.7448916354972832
  0.3312316894644264  0.4169660347593783  0.8287714470528351
  0.5795960147228069  0.3379217346609502 -0.0041435381669985
  0.3322638892574368  0.5061953955434161  0.0772353955038199
  0.4981994451887046  0.4187067596737890  0.1692162074652888
  0.3263647021581569  0.5057598325154203  0.2548611966072059
  0.8348013842657466  0.5894739620667936  0.8400426814415062
  0.8413036174812221  0.6722169675929536  0.7548793263449813
  0.8303950252085152  0.9276704813326504  0.4975909576779180
  0.7437965019082625  0.4978961132884304  0.8374341400160520
  0.5042084445614038  0.5089764496198348  0.0767723101344618
  0.3291435339432677  0.0027874905177504  0.7423787584528643
  0.1588441829307526  0.5051264390047469  0.0832513489253829
  0.8320001951144232  0.8310459919891788  0.4109991195396305
  0.9770897315138360  0.9255300780058415  0.8135412736760645
  0.0866391428053622  0.0872830224642895  0.9098830530370170
  0.8371285233226282  0.3275951795283167  0.4133608020107882
  0.8415907328834827  0.6620611394189926  0.5744413247997150
  0.6638919772427118  0.0027109338786201  0.5781743498435842
  0.7498250861678146  0.4247616054859488  0.0919546329861398
  0.6598251549831931  0.6667729676229472  0.5718330723599441
  1.0032165077281499  0.0817846566966117 -0.0016608241467509
  0.8307979131401191  0.1607389900422839  0.0913527592604746
  0.9977023503356064  0.9105527142815413 -0.0039822778049274
  0.9148394761033535  0.4997332087414273  0.1775795464250801
  0.5808832264929656  0.0809674105500943  0.9163159121499482
  0.2506163323489142  0.8249148845119163  0.8286540152199764
  0.6557509260089759  0.7559692557228953  0.6651125455557556
  0.3341705032318661  0.9172271147455723  0.3402067722038293
  0.6625111810789496  0.3306493472044354  0.4154190585563944
  0.9068501963258599  0.0804183276900657  0.9149816829139852
  0.6610405249563922  0.0086429102782653  0.7519036577342025
  1.0029978574944685  0.2586596985158490  0.0005330122595892
  0.2481040868445001  0.4134220788393423  0.0807371099516182
 -0.0865950995857332  0.1647910274654598  0.0017991029931106
  0.0850256485504333  0.5814130480215980  0.9138028021372772
  0.4931843595288516  0.1552968370905827  0.0902883398406667
  0.9918197374761127  0.8243489805022562  0.9163405314927762
  0.2533087987190203  0.9150044908274756  0.9205289996269168
  0.8467926894062757  0.8499624241930944  0.7687682625862496
  0.8254081455029606  0.9154239337742428  0.1711836734007808
  0.8279273203968629  0.2496900398674356 -0.0012116430427338
  1.0070739118630561  0.9058984440580325  0.1700864004837486
  0.3302299409383508  0.9144486472774709  0.1644281355969277
  0.6557448109700910  0.4076767176703530  0.8327763077650427
 -0.0857690313359933  0.5910609582952470  0.0880652087608821
  0.4140729763127792  0.6713520640055611  0.1718889007565833
  0.3330199898259659  0.0834601117021585  0.0033457530721641
  0.9258648671590460  0.5000453139903301  0.8273858450468611
  0.7494720627428377  0.3353689310917831 -0.0011689710812438
  0.7491615772970379  0.8442490987947596  0.6679885365931939
  0.5050946554681366  0.5061258836567714  0.2581099887973299
  0.5748026228868660  0.4922778727834722  0.6601893569725305
  0.9151875885685247  0.5002439757998322  0.0010290524080418
  0.4961520881290283  0.5846796731157147  0.8307138382879630
  0.4198336455227182  0.8284600316108928  0.8316034391981593
  0.7473511894921481  0.5854377397349565  0.2551517784224130
  0.1662453552898030  0.2518417148868106  0.8264888983926378
  0.3268194501544048  0.4134769244540529  0.3441167587699882
  0.8341138933983087  0.3328394670576065  0.3279060163834166
  0.9185394740455659  0.2491326287436046  0.3357681065022545
  0.3288251820298728  0.3261155108843671  0.3374206366168071
  0.2494379302553395  0.1668554154492297  0.0875118613456885
  0.9179400185035667  0.2525418229586542  0.1727717427193599
  0.9206571211157218  0.1655526388330531  0.0926423818675129
  0.3291944273492994  0.8315646535256273  0.6605114814437039
  0.2508829586212338  0.0898568112709787  0.8300571798521152
  0.9148282732371805 -0.0005816857792029  0.0866666090214930
  0.9170660813395665  0.1657147226619862  0.4171605551582955
  0.1674548114951807  0.1667810354621811  0.1705644924843158
  0.8328211468752362  0.1661873176632690  0.4979158150304913
  0.5788018262777266  0.1700562398904598  0.7460570237536718
  0.9181000602961302  0.2477999159864648  0.4973000612910225
  0.8210737530051380  0.0834498917726245  0.9150053724433613
  0.9186346683218630  0.1675002374371744  0.5782345251139296
  0.2479201477441095  0.2492628537700232  0.1720786067582008
  0.7451245183623951 -0.0006961944444502  0.9186236469949848
  0.1664041748040058  0.7462836583334949  0.0857686776662136
  0.9161311902832057  0.9229222324686229  0.6633909795658880
  0.2472870165718787  0.1659831345740251  0.2540586154286932
  0.8262327797755054  0.0874468772655886  0.7477989658307292
  0.1587776542276710  0.0011317189397176  0.8265149573817734
  0.3404049257588536  0.9159863230842917  0.9187026494017499
  0.8308755679874871  0.0025967047840488  0.3342931946437172
  0.9153029405263717 -0.0002002012344455  0.2534920146075149
  0.6633609916313910  0.7516432104998196  0.4180990285059400
  0.0855207372856463  0.4163469293727675  0.3363512577101078
  0.8320670661897253  0.1670101825070558  0.6622486448497100
  0.7489650386480398  0.7526572841729682  0.4960283891935209
  0.6627191139006555  0.9162565359793736  0.0867799199835373
  0.8266435313158329  0.0023492216742949  0.8306678948083600
  0.7428716982835577  0.8319188955457405  0.9239385953555675
  0.9181461472123218  0.9209246137372065  0.5003384857019589
  0.3301802756630601  0.2484042083795590  0.0893594010838427
  0.9198095751419630  0.5002634039361771  0.4149750132739727
  0.9190927484336339  0.3278240683941936  0.5789583192537551
  0.7477936780045416  0.4086415885759179  0.6603448542122410
  0.0027500305721603  0.3331800110380192  0.8281187362849149
  0.0041746046429061  0.4154277095989029  0.5801238865600997
  0.2480584528123416  0.0007877997091174  0.4183802378533382
  0.1678177054614378 -0.0004429099049983  0.3357654553096604
  0.2476452950813241  0.0837374346886833  0.1700677820700882
  0.3284292935897228  0.0025674521370415  0.1698790528809715
  0.8329582366424620  0.4170030249970875  0.9235474241805045
  0.8262666818361978  0.5871267769291162  0.0876396017746170
  0.8275082216228191  0.5024247045040973  0.0046919927003053
  0.0009142661845083  0.7392624921335746  0.9156338054619745
  0.1656790742691369  0.3312720293224243  0.3368657956824035
  0.9121376859350202  0.0799629557286534  0.1709063238626538
  0.7461481700918930  0.0877748842752380  0.4956934724071397
  0.8315762778666248  0.0865616633893954  0.4135760463256931
  0.8331280106500530  0.0878019057729867  0.5801771035564399
  0.7473912318131486  0.0881436747986300  0.6635340680339951
  0.8309281883858368  0.1691128847682418  0.8298518328429748
  0.1662179647766914  0.0868385776049451  0.7424795464981342
  0.0002079968667682  0.1679771027200445  0.8276557701982146
  0.1683974758812479  0.1648532153426052  0.8279958946740595
  0.8318829232403123  0.2481551973289013  0.9111730015300370
  0.4151753693978704  0.4155683415671621  0.4991494705629682
  0.9191029090313765  0.3352121933390068  0.0885837375303853
  0.9170944988511036  0.3330265639408913  0.9143656450489260
  0.1663145978957291  0.0024488969098417  0.6606424028505953
  0.8347582964201352  0.3350529014893431  0.1741665824639463
  0.1668968273176947  0.1675532665181358  0.4989183199348243
  0.9188992586207084  0.3333067280480392  0.2545228030743075
  0.8337032985844766  0.4179360688792105  0.2544705586949004
  0.2481539068850548  0.0865533383177318  0.6604469508253428
  0.1676540585560399  0.9172194652933239  0.5803315783006127
  0.0017905782772040  0.2491160932153428  0.7442883256309041
  0.2488718532024090  0.0841815446107450  0.4992460430272781
  0.0022136422548693  0.2483222360314405  0.5790467685511372
  0.9235104704352914  0.4151941464513003  0.4989185168228134
  0.6616306228048832  0.7505166110585065  0.9215920438535772
  0.7453247757885771  0.5871603375217777  0.1672451530359709
  0.7461561255036852  0.7496234587357246  0.1696108919977053
  0.1647350428623068  0.4161073045068830  0.2531769606666152
  0.3296378005465637  0.5924928441018875  0.2545597734889651
  0.2458926940543274  0.3314556389248536  0.2537634929546578
  0.6639558058230742  0.7499808224738306  0.2520125723018068
  0.7491876543764423  0.6671415431683015  0.4164199918603144
  0.7446678743738093  0.8332586931228152  0.0867159334817501
  0.5775263285509076  0.4999118042322612  0.9166153459037939
  0.5777280281747290  0.6685180479541166  0.4200716825997628
  0.8314672993466343  0.5860640328866824  0.9267826272397582
  0.7459358701377312  0.7493851645759992  0.3356046861779114
  0.9214927540316056  0.8317974666766530  0.4171280635077244
  0.0839688532219148  0.3326573960734235  0.4179006842033143
  0.8296396267323261  0.6681163179521934  0.1708533833553493
  0.2481495300288185  0.1661466856785349  0.4175602693476680
  0.6635163387481566  0.6693928944335904  0.1695028430984953
  0.7458915751586337  0.5014841030003645  0.9249661653782756
  0.1664316732342366  0.2490501716925569  0.2542599420443238
  0.2478453951934342  0.5832589885295399  0.4993844893432017
  0.3299573985309175  0.4155413427253594  0.5785190235800518
  0.0899437203184462  0.0831045176798433  0.1702404280361394
  0.1664973336540805  0.2499622073093252  0.5802665026373703
  0.3306279720901341  0.7505668536433412  0.4194762424597174
  0.7490705587226703  0.4943441589494634  0.5789211795349257
  0.6641118763085562  0.5873782472624572  0.0861072781341403
  0.7475504441438262  0.3278648455848059  0.5806176317850189
  0.4141425696677686  0.9171507750148291  0.5017254087912988
  0.2480365167350926  0.3343719193158409  0.7435055394305823
  0.1669867253509120  0.3339303501780184  0.6614851383781963
  0.5859702493388393  0.4168535254748484  0.1732690683575471
  0.7481607823855744  0.5835403832344921  0.3423252348442118
  0.2452837302698987  0.4162561052922103  0.4998266177273752
  0.6637749206040469  0.5803043492741731  0.4188030667217219
  0.6642825063503965  0.4995843070483544  0.3383264711030133
  0.0838208225532279  0.4159735666289852  0.4982955145415183
  0.7501050400023309  0.5795061701839097  0.4952225705455400
  0.8265595526001297  0.5021542253550342  0.1714530458203524
  0.7407692054031721  0.7493698192824944  0.8396801413298789
  0.0865152862880843  0.8320480384867361  0.5813029118327689
  0.0844757688514366  0.1671574695177156  0.5795754076120527
  0.4953408511579247  0.9188147646943257  0.4191563425958181
  0.6638109442104153 -0.0015047049465421  0.0020005067168824
  0.8294162889318869  0.6773010379660420  0.8440749267830883
  0.3287617865284846  0.2474393911689620  0.2544422699744924
  0.6605824133237636  0.9211932759752027  0.4159753989811671
  0.7418327564765552  0.9208719355265564  0.4964426178611719
  0.3311645587638618  0.0859110945369714  0.5789713389946203
  0.6616221797797777  0.8368835131727913  0.4967554232531718
  0.0021522337224910  0.0832964711748926  0.4181573781290105
  0.0791165826956123  0.2506717752443769  0.8284925418473955
  0.6625053378452480  0.9219172657598863  0.7519401001791091
  0.3295565656080200  0.2473378334416673  0.4181193825604615
  0.8323330066156596  0.0088399009270247  0.6634419017001014
  0.2481791914172649  0.1679871900971416  0.5791110505245847
  0.4126828220113484  0.0835479041060401  0.3349604757331639
  0.2476770328348232  0.3332234540161627  0.5796963358243701
  0.9172626648388466  0.2466829419933019  0.6597841274685520
  0.0856834735506630  0.3332460898811327  0.7434699640172713
  0.7433239718604704  0.9161902661038077  0.0033110153555414
  0.7462384059825646  0.2462182227650416  0.8292247134857458
  0.2487582433593446  0.2504356325179907  0.6613453886476998
  0.6632093293945159  0.8334191991454947  0.1692405562576615
  0.6621671431047332  0.9184613656253539  0.2527888624427554
  0.7452369025151259  0.8328300558635893  0.2517606090043093
  0.5804540695783728  0.8338467551611931  0.2465347917033543
  0.2539817729824790  0.2494996329814857  0.8289907898497763
  0.7445018318764129  0.0812319032068239  0.1722530933634453