Cr  N Ni 
 1.0000000000000000
    21.1263552261419498    0.0000000000000000    0.0000000000000000
     0.0000000000000000   21.1263552261419498    0.0000000000000000
     0.0000000000000000    0.0000000000000000   21.1263552261419498
 Cr  N   Ni 
 259  86 605
Direct
  0.8321076746014610  0.3338890591484414  0.1655314312610326
  0.7396525542735666  0.0039015880145354  0.4133524178159501
  0.5046595239751341  0.1641287721827568  0.0064352119793605
  0.4132296494611779  0.2528319449914382  0.0067218054975925
  0.3298689118854107  0.9964331292664406  0.8362935519868498
  0.4105018712145220  0.3352311168360350  0.7493469363483654
  0.4131642381540576  0.9052166062664055  0.6670665726028753
  0.6648233277161577  0.6635476542543922  0.0048236083225507
  0.1643834362847719  0.9171373960168631  0.2485969835486034
  0.6640982265404053  0.7580534876312182  0.9161861481353381
  0.8348754510109961  0.0898335015731485  0.5836350620942152
  0.0821613648808684  0.9192907101915948  0.1672366782655832
  0.8326038352945629  0.9121528491978809  0.9171132139693229
  0.3354749337629895  0.4996868583300537  0.3315215675160038
  0.3298806090854360  0.8357473534851765  0.1688636887353692
  0.4151251764965088  0.0870286472921229  0.8381311313630762
  0.2452271354657814  0.1636601418943536  0.9278244714924306
  0.1634345804387854  0.7587778133391476  0.9206560414010720
  0.4156769885938049  0.0790517033776549  0.6630725382540980
  0.4116116743110391  0.9970416981694094  0.5744507140274778
  0.4921941373416810  0.8418070287754257  0.4974289528826529
  0.8312265230993056  0.9189310384048207  0.4160877609688017
  0.4930732526363953  0.9107269217994989  0.4103349434248817
  0.4945120617168832  0.4165348018169738  0.2485450389505784
  0.4114570327988794  0.1645064698161595  0.2475837402112851
  0.4931258153882414  0.6706371741204250  0.6631766095952167
  0.8359041181542334  0.0871310277833644  0.9212169842924469
  0.7500952481959713  0.9156020038625573  0.1687475131836128
  0.4146399546788870  0.8375076549359483  0.9199114631372848
  0.7472977806083653  0.0011693614100752  0.9203063338142818
  0.1610663111904497  0.7602341002924508  0.7514449608954633
  0.1545357940180389  0.9991007340586207  0.8353399515143081
  0.6709926505992209  0.8377103595582138  0.5040347762996273
  0.4132274107184505  0.6661888549700090  0.2472488598782626
  0.2419581662076822  0.3421029553308151  0.7476591620906856
  0.5835753231812730  0.8343036794351693  0.7508735877549370
  0.8342396844754377  0.8412390427669465  0.1676749464018720
  0.9862687691725401  0.7531732676523232  0.9213976845115692
  0.7460603870766456  0.7542383487281723  0.1691446943436167
  0.3301087652811277  0.2494353991304607  0.4123617867354830
  0.0806758315283631  0.8374564199120292  0.0870170140316262
  0.1667101524695585  0.0826558445621081  0.2484412612051017
  0.0033571454894072  0.3354794291481704  0.1681442436061745
  0.9160855872641376  0.8383319712588880  0.7487657649626209
  0.7517786606497641  0.8345761168503826  0.4126338091717560
  0.9124500687447477  0.2456587834945567  0.1653384808823533
  0.6662687172552108  0.9261581034502069  0.4108717643592771
  0.1645464467053777  0.5836157825175965  0.7403976808373579
  0.4153746309040616  0.1575552319854576  0.7534688683692551
  0.3264350755150449  0.5019762012353481  0.6546443402268636
  0.5881568744858220  0.3304533914258965  0.7519332214996692
  0.2489085671170870  0.5032352197018476  0.4219257357865179
  0.0793054413943093  0.8467373895678679  0.9209213787873003
  0.1632792683680181  0.5855706576214248  0.5785408016836447
  0.8372727980884258  0.3325573081425639  0.3200322829681067
  0.6658644639242445  0.9949372105169990  0.9984592068643958
  0.8355811240514572  0.3325719927717269  0.6674471866481295
  0.2404742469219485  0.2541099631013474  0.8397744910173078
  0.8390754917206479  0.3346763699681208  0.4969677379113100
  0.8381219704171975  0.0847538881505386  0.7490663694161207
  0.0726550969359163  0.9170907621688373  0.6645485752438278
  0.9246954637196073  0.3320422771094831  0.9193556704895297
  0.2530660898561272  0.4180734618833005  0.4941917216682520
  0.9152792486371014  0.2401507757350720  0.0048298783516711
  0.2482978041768757  0.4891841386830832  0.9203704047841336
  0.4100055335197293  0.4190927649915901  0.8369744837112154
  0.5806799328398073  0.3308955802099781  0.5859054857207120
  0.5788521001093931  0.5814847502398066  0.3278311632535589
  0.8346252034731000  0.0914999783690353  0.4112351543088156
  0.5795236108074007  0.8361784639366017  0.2472757201241492
  0.6675749759096126  0.1624302305165497  0.8290981188267635
  0.4038532687871035  0.7511375880782983  0.4981409798148553
  0.7447240908920988  0.0008965315773856  0.5868518994547259
  0.7488805037423522  0.3319122537501126  0.5839961217919031
  0.5791887919040006  0.2404146197877577  0.3276252597629148
  0.4875311189298813  0.3322084665426150  0.3281000036239402
  0.7468256216620296  0.2426038872977710  0.3225184200008283
  0.9165230968042256  0.5006942873558370  0.0916676163371165
  0.2482999497202532  0.4960258316489199  0.2451871674384919
  0.4122008428114008  0.1647071302841682  0.0929071376434600
  0.5737911704799883  0.4158483167302142  0.4938769395158198
  0.5829664509955574  0.1699118709620614  0.5824618805467111
  0.0816331270715461  0.7492394414986132  0.4969969381678129
  0.7566011926373372  0.6629756479059800  0.5803827063278441
  0.7518202311548533  0.0012234156330504  0.7424788392260102
  0.9169986778702415  0.4161179558817390  0.0062388067220500
  0.3300940500951409  0.4125561574886822  0.0874552355222670
  0.9165970941616075  0.3329734838124439  0.0968722724116963
  0.5813795336544175  0.5021287492567705  0.0963376918767745
  0.1636086998578204  0.6720144963740244  0.0142106204380777
  0.8377960542979829  0.2410263202051910  0.7528025318329908
  0.1617301496588010  0.5833683102895776  0.0950218322293121
  0.8279946342379600  0.3330364880995271  0.0149453135667467
  0.2455421865944049  0.5887579465581946  0.3349599731373911
  0.3168075058153748  0.7501005160937213  0.4119799597833686
  0.5734409533022575  0.1628789983671904  0.9236166317623676
  0.5859710765086656  0.4184624398451477  0.8374966356463233
  0.4954467435718045  0.4979685526829459  0.0100980439544604
  0.1625655154068503  0.5761137220593130  0.9186193480627389
  0.7496651272022720  0.5776896819899593  0.1698639307433745
  0.6613465873248419  0.0726130941735005  0.9206145147605884
  0.2504864406151894  0.5801616672549860  0.0088607355829570
  0.1603089152838326  0.4128410694126838  0.9222951731698289
  0.8327366950041527  0.0809424238168504  0.0869948622143200
  0.4134963573368904  0.9982813042615797  0.7491354545731040
  0.0742955986454331  0.6671609870985403  0.9231537765861048
  0.6688901672756834  0.6692283957260403  0.6726760092156695
  0.3406620541186796  0.7573294167923728  0.9200296172076952
  0.6621400776203463  0.3304574094439921  0.4962365039235086
  0.7519119116835559  0.6558533444924655  0.4110748543811454
  0.3307835332529804  0.6693173335847109  0.6557170466040169
  0.4993305753204570  0.3323733912545629  0.6591939529450489
  0.6726903367260131  0.0844482807786049  0.5848119069608917
  0.2445524438466701  0.7507814925419045  0.3292977048690529
  0.3334770220092635  0.6701147910153263  0.0089616906900112
  0.4941387524455893  0.1715201883846312  0.4957480968094693
  0.8375096612768086  0.2441176734181797  0.4103222504063673
  0.1585071527831163  0.5846575327307439  0.2466354596934107
  0.6594259372432143  0.0015667478483481  0.8351921934863836
  0.9179102900407516  0.3328345583007970  0.4103725284914370
  0.4104287060063424  0.8349559834978680  0.2468495547066309
  0.5815729846201637  0.5843247045311162  0.1687610188534438
  0.9957706422706366  0.3317005505980109  0.4988589711019507
  0.4245207059099501  0.5835245824549157  0.0074476364101242
  0.4969760449272194  0.3314903856257744  0.8365206188955033
  0.2474825224947042  0.6698006763308512  0.7478755616723518
  0.0900944792758814  0.3310894349869931  0.4087591876374104
  0.4180973180976130  0.5081624063999287  0.7500925953581566
  0.5815705557082277  0.5965205059207412  0.8331653469780151
  0.8352145954603842  0.4260776178805874  0.4137709115632298
  0.5828724003554066  0.8384996688632986  0.5916233702618238
  0.5800141788813712  0.6649248403231275  0.5773873899546332
  0.5799244358821936  0.5055980584478782  0.7458846374611257
  0.1706978635342211  0.3299852075697507  0.4946445025738846
  0.5767355344958689  0.3301113135463181  0.4127330031200376
  0.9253998369272868  0.8314231875885544  0.4174864037449094
  0.7521236148258680  0.1576873185746995  0.9207946221898179
  0.7483273329713847  0.3324455566108155  0.0925508242027119
  0.5815194808774728  0.8364991662043728  0.9165843229771568
  0.7558767709665548  0.5837072148142832  0.4959446494697179
  0.4153661048700494  0.1635395406679211  0.9163820285173953
  0.5802282449918058  0.7436553052209565  0.4999514920561758
  0.3314110452006284  0.7621678539321759  0.7480286714725771
  0.5785429520100448  0.5897697737868215  0.4950357298314042
  0.4992252582959585  0.7566912830460606  0.9175396877251889
  0.4108058038656143  0.4178919232057435  0.4955673001464100
  0.5800193921091243  0.5014665714915710  0.5844156500227113
  0.4913373006773749  0.7502031575678577  0.4092236123636938
  0.6746722834416160  0.5038799667695379  0.8358939116320675
  0.4962487521859876  0.9997505756915296  0.1698076534780127
  0.7499540646001488  0.3307087696311144  0.7564488038237238
  0.8362866998609415  0.4217185577301755  0.7561508197499499
  0.2413822999160156  0.1627986745099398  0.7518087056420151
  0.6680598974819303  0.6691681749728617  0.8293371347258246
  0.7511261475834895  0.9085715446571473  0.8335356926822697
  0.4148186519491179  0.5837719935811836  0.1698135661785896
  0.8379583964808872  0.6651331451451959  0.1690917153745088
  0.5746273679405087  0.8383310655436601  0.4116041419921335
  0.2511308144151142  0.6700993516012628  0.9171284083032711
  0.2494585246671507  0.5832650821408365  0.8281943374962079
  0.4945180949608061  0.5078894194310142  0.8368766874993857
  0.3203763710160248  0.4910387520397548  0.8319962236718493
  0.6696705384096008  0.6561386769753353  0.4943805853596888
  0.7532102974603330  0.4235869682867039  0.4915999265643674
  0.7492602572984776  0.3348098217464440  0.9241804610225139
  0.4952835841484435  0.9958468754024650  0.5019326169655856
  0.5770780822501895  0.3300593676180575  0.9295376552931846
  0.4099272153325597  0.7558216092506025  0.0070913140780217
  0.6720784271168587  0.5032991894464084  0.0054476495024401
  0.5816172186588572  0.9952623132617365  0.5833966831818486
  0.8337478663832931  0.5878431761483539  0.7520187552193763
  0.7467337459261302  0.3325867641765602  0.2320636900713660
  0.0005097519910624  0.2473048480294252  0.2575185009389971
  0.5794713447690703  0.3301945761901396  0.2381161247395583
  0.9221451056310075  0.6626600410115373  0.4137821004892210
  0.5045722028256832  0.9967037322510116  0.8323226255607519
  0.6639809097727372  0.7540810435027444  0.0938099512423465
  0.5763239146372762  0.4191502261976174  0.3256816958444678
  0.4262797045721834  0.6712064902254981  0.9193801252402378
  0.2480191041769084  0.8453225445172015  0.9220892326708886
  0.3283199498427045  0.5879140231473322  0.7481530905480733
  0.4959680937633020  0.0838176783060594  0.5826505994773833
  0.4113480433669567  0.5849433699522301  0.4972754907332265
  0.4950555706093134  0.0867716415758640  0.4064685870642650
  0.1630788978008705  0.9998738551141233  0.5015972894607555
  0.6640779817940801  0.8407224080807211  0.0023110556909645
  0.5809537866123146  0.5904540451503727  0.0052299985421125
  0.4954225697437377  0.0002722267198807  0.3237785772452728
  0.6645478694265551  0.2485125374146662  0.9256653596693079
  0.6624622709805998  0.3316726916501995  0.1647284772519055
  0.4140104012039999  0.0753016052325876  0.0040446873394124
  0.7422692540915928  0.3335863262627873  0.4075848852226373
  0.8418829034563249  0.2426167094385418  0.9217863990564346
  0.6588223973465230  0.4210587646185009  0.5831904170072760
  0.6652303431060569  0.7466065976952315  0.4073675382746634
  0.3454470306658977  0.5746856617424527  0.9084418135370673
  0.2473345067532746  0.9086702259405705  0.6632117021269597
  0.2486120763370556  0.3313617645530260  0.2477758885209926
  0.7563760865122678  0.7463669777889766  0.5025920655422856
  0.0804605613725347  0.2478141747285486  0.8375139771652643
  0.0775646350831519  0.4214673864642206  0.4967149282907787
  0.2488004749181227  0.1661766217246998  0.5738633872615202
  0.0784851153538798  0.9160253662092219  0.8345057494902538
  0.9968642288225258  0.4164497785960953  0.7535856740677691
  0.7492468632487670  0.9168539204899543  0.6703734841024034
  0.2460190454325311  0.7537695228254681  0.1674916535543537
  0.9963218311576487  0.9173071949847718  0.9197178936750469
  0.9149056949228238  0.6631726888590442  0.7489550527639580
  0.2454628454755939  0.1640950197863521  0.0836761757095203
  0.2574994109536446  0.9989457338755592  0.4106771616749176
  0.0826921341589746  0.4147342681573837  0.0051690741591808
  0.0009622683163194  0.0838204010270703  0.5810879709921073
  0.0000020399350021  0.5854789943521357  0.4136710344746109
  0.1659043934638738  0.6713823848659659  0.8333288705588541
  0.9167891727613625  0.0013919885988516  0.2464261570874406
  0.2468252665898478  0.0821418691129303  0.6660677265193300
  0.9163852385556447  0.5001945547031122  0.9160128731133288
  0.9998030927612910  0.8321997454399932  0.4999899084130597
  0.9279648946769233  0.3311364967750837  0.7531015661317358
  0.0846478892710981  0.0006809933902966  0.4120820408838909
  0.8328407040003956  0.8374774796489014  0.3266940578819960
  0.9146782446342927  0.0000057615296272  0.4147584319456006
  0.8345999599997630  0.5016913317401127  0.8370645292107735
  0.1559009491143163  0.0022951377830115  0.6653858703548483
  0.9139029962714691  0.5904489039220338  0.0035125554049600
  0.4103107118336823  0.2505961670456566  0.6618864068062283
  0.9999312729959176  0.6679340957672406  0.1674926974264892
  0.8393361447060055  0.4204185571460195  0.5786418993051776
  0.9131165629642716  0.2456594972394623  0.3253800710874690
  0.0790580689518139  0.6705388675431122  0.0860848771350225
  0.2483161614159578  0.9979127072661952  0.7514864739769119
  0.6608634974698536  0.6680333059519576  0.1697588388576533
  0.0739560222350635  0.6666641301837293  0.7434867241948933
  0.9156631857536190  0.7485765640944096  0.6600430743902013
  0.0723738644294394  0.5802050134443582  0.8353119411202444
  0.2442687755957005  0.2568216791419840  0.6610397227782574
  0.9249969780610330  0.0010014618322441  0.9194650494633131
  0.1477971747886294  0.2492044420133240  0.7522088628097299
  0.3284945170593757  0.9996667908107921  0.1666222983218772
  0.2438577681028974  0.4964660065839738  0.7442104914057666
  0.0022477691914806  0.4231338507074814  0.4119647284182407
  0.9984268845185802  0.3329966466818831  0.3211235229077359
  0.8371781338671116  0.0010301368379548  0.6751893722002059
  0.0823314124774265  0.1655136512410735  0.4108078051787150
  0.8338645887035386  0.9138658878002722  0.5856019885291335
  0.1580071262946208  0.4082672993837463  0.7500713626174145
  0.0804890273328467  0.7573873543572726  0.8295227759162620
  0.4140585315695560  0.2444929340643949  0.8417825421762958
  0.9985943446876903  0.5859344848350521  0.5800314051021656
  0.0018701986471637  0.1588903253585642  0.1663888016179379
  0.3272351886000149  0.3295635310342895  0.0056406314234091
  0.0832762281269518  0.2463417962432119  0.0034445670233234
  0.7543034618051800  0.5116670095378656  0.5819227219810614
  0.1670557239997611  0.2477435045364763  0.2482943586917899
  0.0739381207569517  0.1657506285149997  0.5822099690835314
  0.0744606465521142  0.5849869898523501  0.0043021158030241
  0.0781721390247641  0.1627410969838583  0.7517446186924605
  0.9151381634050417  0.7532842967516545  0.0028798673599306
  0.1590610873428421  0.5028563775167151  0.3294149895402853
  0.4144798182032925  0.1639055423491942  0.0049399441259977
  0.8394715856831562  0.4233962189722170  0.6687211982008127
  0.2520651574775745  0.7600667251527643  0.9205177838721602
  0.8258920563988965  0.0063043313445308  0.4131060354104258
  0.1600257461762315  0.5777594870565065  0.8290041403855554
  0.4177244583790028  0.9903705253330807  0.6611517056512800
  0.9200728284636205  0.3271041043077958  0.0094380153105227
  0.2454569046030936  0.5855106386851210  0.2468203189505836
  0.7447144980619739  0.3267750770501870  0.6717092659151618
  0.2547704493048668  0.5773690805349700  0.9184187434852287
  0.1569300570157648  0.4943924404766847  0.7423437192106330
  0.0041168006345410  0.3322344049790354  0.4086552622629608
  0.3363294180741157  0.6759197532246034  0.7434401602298368
  0.8317072062495254  0.3370320170328346  0.4071675528789381
  0.0834429439921193  0.3301909704045466  0.5009494232847762
  0.5865603925008621  0.5102100467160988  0.8360248831187127
  0.7495894869258564  0.3288870342498068  0.4955343301148316
  0.5842485417829250  0.5008794151085951  0.0081418133678907
  0.3394529564857668  0.5787367353770719  0.0035573571977335
  0.8397937235928280  0.8315985865485871  0.4185968757899986
  0.6695687720009444  0.7468420781188031  0.5005116674709860
  0.8358810242846094  0.7541467406103016  0.1677688517880656
  0.3318737422197286  0.4988187769159970  0.7417648619929037
  0.9219737731238719  0.8325674615842895  0.3290657535221924
  0.2438786447389560  0.1664804606418020  0.8417714372429983
  0.9130228956946701  0.7510963607031549  0.7486775213055452
  0.4181329545064149  0.9981010340790429  0.8377205265762396
  0.8373819635330221  0.9991288718517305  0.9193726357417474
  0.8338931769767034  0.0022974140949102  0.5867732333125132
  0.7556392929015494  0.7423901741034751  0.4124070634411230
  0.4036989836925307  0.5152853228012836  0.8474106322951965
  0.6635688835144461  0.0000805532563926  0.0845382934573609
  0.5776136527759471  0.7466879804190235  0.4072497068508278
  0.6677172446619143  0.6686889006674953  0.9158275776563068
  0.5719232157867616  0.3256851550427304  0.5004272816158214
  0.6612874257419203  0.1595167663614663  0.9194687805020151
  0.5864181813485527  0.3277814780193546  0.8413195019572015
  0.6628880099713550  0.3383188398306811  0.9302999918577781
  0.7484454938608313  0.2424863190343454  0.4107143745119388
  0.9132105238995109  0.5038660071039592  0.0039319601354537
  0.8377398269542228  0.3348159865010590  0.9257507086181319
  0.5806884489165308  0.8368347087679471  0.5042861553227306
  0.1669260609152290  0.4200716363933862  0.4976629394696406
  0.2410423708948501  0.9950755873401480  0.8397663206029707
  0.5771031164450385  0.5045683381507438  0.4965981950062000
  0.5795651748967922  0.6691480796556343  0.6675732211162825
  0.2371616913655781  0.2547142560420442  0.7507129667537865
  0.6691083979366979  0.7531378876965299  0.0063825288742481
  0.1626012554811187  0.6688280311923214  0.9249361585167787
  0.4943896511463122  0.9978458753574172  0.4113288270692876
  0.8421521259204672  0.3259289299557896  0.5822698104980893
  0.1602124330669731  0.1674964579404813  0.5758597282250135
  0.7490910879741006  0.4245390026546743  0.5834833191460832
  0.5871208782765793  0.4186429737028641  0.7468275950014130
  0.7472527761615982  0.9951436962514022  0.8301273202262008
  0.2469448336193377  0.4961687748382967  0.3347977706287124
  0.7488664377601584  0.6646523254778469  0.1689414886759614
  0.0720750331553208  0.6687690641128332  0.8318274712343713
  0.1609771672324169  0.5798321543717265  0.0091721686382176
  0.4936199415726812  0.0852219482625310  0.4948691097798020
  0.4958157807570248  0.7541356416137208  0.0061211463023540
  0.7476438574403126  0.3345763581512508  0.3175076366666639
  0.9995183165073520  0.0003667266630613  0.4140204949706136
  0.5007147717813075  0.3309509037368471  0.7464665983941795
  0.4111085604839022  0.3402984459646775  0.6589399932431169
  0.4019934245465937  0.7486793375768180  0.4092648823906614
  0.2448766337499511  0.9953842797834902  0.6620953010032389
  0.6642803697099456  0.8391539540080315  0.4110821771665679
  0.2444405067202279  0.1692776238958033  0.6619729929337481
  0.4058464609527211  0.3322370318495044  0.8430866264935942
  0.6698357026660482  0.6664833496585175  0.5844593826225137
  0.4188861360420573  0.1641261725779196  0.6603919217037939
  0.1589398500206032  0.9122769356756245  0.6633549203668179
  0.3407441283048515  0.6667364216342136  0.9179360915899807
  0.8400133967773009  0.3303729190683078  0.7573736888647717
  0.1728168889325868  0.9978689212392090  0.4147940737259110
  0.5850288390020798  0.0823263115211480  0.5862317222251727
  0.4122339892546890  0.2449226387887702  0.7526199125377228
  0.4973510235324904  0.4206739077988210  0.8440837032869812
  0.6624382246736188  0.4200406954219841  0.4934395336392776
  0.1608552675197182  0.6740955342573577  0.7393725668110536
  0.5764666541147744  0.3295363993859081  0.3250364119670697
  0.4897655430793524  0.7514090110755323  0.5003205957448610
  0.0728977275181320  0.7596221935854399  0.9205046234151782
  0.0010746934713287  0.2472993482929709  0.1694866829766885
  0.7538729391394987  0.2456885951312692  0.9225277220344179
  0.7489224293667605  0.2462032045198715  0.0118331050590205
  0.7486982794115798  0.1615678332087056  0.0868472448309590
  0.6633650372370843  0.2450711105863409  0.0892085814534672
  0.6746681407236340  0.3309939474476803  0.8346858044170874
  0.8339782189703566  0.7502155643306577  0.5835544284461005
  0.8372483670361442  0.6629766744818448  0.3311562220647785
  0.9200945882597781  0.5833295793307126  0.3307676967224693
  0.9210791819869046  0.7450512954245527  0.3302741446322836
  0.7483186540740897  0.2444027426751068  0.1654798059153335
  0.8358228061738728  0.7492703915711028  0.2550608031005365
  0.8337844411372716  0.0002094688727825  0.0073379456343867
  0.9190599524266675  0.0847133475165834  0.6668987899511807
  0.6639753226627509  0.1627609046162475  0.1674283485633175
  0.0012598898640464  0.5013451709630548  0.3303591752782653
  0.7500112057994772  0.9155359652768522  0.0005475373312873
  0.9953650062631632  0.5844790241730679  0.7487125676962885
  0.7490449022853276  0.0813654697543460  0.0041920912510413
  0.6665001066437423  0.9994416894704899  0.6688809726743585
  0.8355930276012664  0.5831162701319388  0.2491796583950413
  0.4947720767690449  0.9169557907122545  0.2480844143627451
  0.7464244782335467  0.1574875524052674  0.4118253612031872
  0.9195862220146827  0.5023295450284544  0.5806801102735685
  0.6602332514662467  0.2455922388725843  0.4110406211803727
  0.6629370976396537  0.2454868315082095  0.2443343661899602
  0.6636036626771559  0.1632764440577846  0.3270990368435170
  0.8346444230000865  0.1631545179447870  0.4973382558988246
  0.8357722925363855  0.3313667111595091  0.8407343690355843
  0.6667671463930552  0.2463832986962347  0.7508605734277679
  0.9194505500476188  0.1650462170972975  0.7517993688556099
  0.8325569222337553  0.1620053795231179  0.1663498406018935
  0.7483614571840009  0.0843675757800268  0.4998692568056787
  0.0884853788287129  0.2475272039426035  0.1677724273193296
  0.9179036823217358  0.9158272069403902  0.6660818280751889
  0.9172403356956669  0.8335297567909136  0.5827858769059439
  0.7504754911019370  0.1639101434026531  0.5845043896753357
  0.9176386218239873  0.5847301792467400  0.1680696182890296
  0.6637962436630623  0.6635963734287162  0.3292225145694443
  0.8355512078059348  0.5018243117656516  0.3298703639048955
  0.5012456037150272  0.9152818238713227  0.7498391938598373
  0.4103580102221259  0.8347633911178937  0.5796166722033984
  0.8379765555581818  0.5826681512011740  0.4126357523027995
  0.9200462574101564  0.5016391701850184  0.4119450896412751
  0.8341180336923041  0.9144822914333933  0.7494131738328255
  0.9170837704504745  0.5853453140420208  0.6655342813392403
  0.4991968949005721  0.8352464254244033  0.6674265712542338
  0.8331037184049700  0.5852678908174355  0.0864324341820200
  0.5843961736905381  0.0004395767643236  0.4117186073541060
  0.6642339105132219  0.8366686301902124  0.3240879731037869
  0.4057603054720294  0.9985783261241397  0.4123616172111079
  0.8384106006861579  0.5032883889521360  0.4966771430325632
  0.4121010919565927  0.4144817213066779  0.1675911861006735
  0.5785235993512602  0.9166650550561750  0.1693406717170874
  0.8376516018715505  0.5847326407460697  0.5819400463227277
  0.6665722391474749  0.1654049679387545  0.6685504380123781
  0.8329509515625662  0.1616306213152074  0.0060978504450304
  0.9213591605349351  0.0005982429159139  0.5832496707181669
  0.6624631298775089  0.1636751417926119  0.0081472230364183
  0.7482317929684555  0.1624550888714320  0.2459042614089079
  0.6654932658799607  0.3314952344410077  0.0164173470065627
  0.8367433040185295  0.1644691865391619  0.6684261874294730
  0.6657376532232462  0.2474177229455056  0.5834376435055864
  0.0014682332784247  0.2468259323101328  0.7529431485907360
  0.5805703610490619  0.8360837980281254  0.0879558600415570
  0.8343241257032733  0.8343818677949550  0.8340533268732414
  0.7489170724662022  0.9202289986695057  0.3295484150865984
  0.6640156781480866  0.9185348783905675  0.2480181676705943
  0.7506124021157817  0.7532483252020599  0.8349588095204383
  0.7557974400564532  0.6694783845390222  0.9185132148438371
  0.6659872186668168  0.8344294789847370  0.8332933020312276
  0.7509431127382821  0.7504666012664672  0.6665750039719958
  0.7558442150451838  0.7539236287289911  0.0014083605799809
  0.4936484812552695  0.6626862819748109  0.4961836168975283
  0.9192328218765009  0.5837444170056137  0.4968630926235423
  0.6670700310388992  0.0012161683622060  0.5003942390065423
  0.1639346203380864  0.6681785341409870  0.6540671065192134
  0.8336862899828481  0.6683486517394005  0.0024860914961096
  0.6627421736048756  0.0832733075397353  0.4115532354688263
  0.9993543786899473  0.4199648034888950  0.5804062101049138
  0.8336072589921183  0.4192502461404959  0.2458070769520306
  0.9122760037599136  0.6674090558735153  0.9202378668205055
  0.8340501358505495  0.7523305864038133  0.0807148703200507
  0.8319248122701841  0.0024863708538101  0.5004532351384600
  0.4999942316914414  0.8354120757418901  0.8338638325753780
  0.9174936266496893  0.5026297238851116  0.7532949218421513
  0.9196825582128068  0.4203767988951245  0.4953996599159742
  0.5762503241528453  0.9972290931804323  0.0864073245937071
  0.9192772311221660  0.6656932756585392  0.2493052970568294
  0.7485588109682615  0.0001065924090826  0.2468231095512713
  0.6637226499739147  0.0017366863468569  0.3272879226729400
  0.9157636479573207  0.6680503452454745  0.0860454843986184
  0.9255374544697872  0.4184489547502841  0.6686464148497795
  0.5777925055386500  0.0812312004540029  0.1680064984987026
  0.7492578760529587  0.0804952348984272  0.1660410402686382
  0.9992250537013538  0.7498725061877636  0.5809156417099148
  0.0011057893940074  0.0820058789551025  0.9200537484410658
  0.6647174541647188  0.7511158730819942  0.2491461332776307
  0.6641900189021208  0.9993704027399212  0.1703984319540754
  0.9183240117667798  0.4165898422131101  0.8373685285410269
  0.9160909164137054  0.0008645013819338  0.0859959224674071
  0.7498561508730047  0.8337312087557284  0.9183752370193812
  0.7499171225699429  0.5857814383529987  0.0029848551750700
  0.5788123224523457  0.9180985943055145  0.3281268593839201
  0.5830193457156778  0.9154797343572593  0.8341382351287226
  0.7525702666709069  0.0840652091104803  0.8332416874635479
  0.4983483726533476  0.9169267306048160  0.9181261610810765
  0.2495683390889613  0.4096276048849107  0.3306253590943170
  0.8318806526966750  0.4221782936389897  0.9217639955759218
  0.9999244878978176  0.0008426907460161  0.3259539169835873
  0.8365091386527743  0.2403187950890699  0.5827444980419590
  0.0073547202155535  0.8341455666476723  0.3307673797353808
  0.9974475994181474  0.6667464350434285  0.6628521196814008
  0.5801444687057918  0.6657465852905288  0.2495854778553895
  0.9193123221024216  0.2478864653511140  0.6675974623438962
  0.9997082298281106  0.1630133217496932  0.3291905612683626
  0.9169577848890669  0.9166894827444830  0.4990140383534261
  0.6681377242981890  0.9179266550343127  0.5863143690378643
  0.8269349277794255  0.7505598749963341  0.7493716909247542
  0.4915958344981457  0.4250764711164853  0.7453677527148881
  0.7509734437267328  0.5811315246774509  0.3298271146157900
  0.3205744051128036  0.3326442022349597  0.8369642302053018
  0.8372958376866191  0.6639735988271948  0.4975820686535379
  0.2454786178849233  0.7500443562411506  0.4972332843025093
  0.7498687820997353  0.8360262195360462  0.0854453373208742
  0.5846645840896614  0.2411424291739964  0.8373766458447056
  0.9170618454151405  0.6666855439017025  0.5810326306851488
  0.2482899180944397  0.6701382515293975  0.0879720716587687
  0.6673025952272166  0.8358570573947576  0.6693428209906932
  0.4987456554476765  0.6657018310055069  0.0078470155722756
  0.9167508527262132  0.0825992342875165  0.3291189810672214
  0.7523185019621412  0.5866619530070687  0.8344034958088095
  0.4963240883018353  0.4146292543203051  0.0890678157382687
  0.7524851211006742  0.1628856708336708  0.7513328909543390
  0.6632397406667602  0.0852399197488578  0.0868826218825125
  0.6664203975006118  0.4192841215256785  0.0900185874508050
  0.7511585154094425  0.6681532294182330  0.7517353750088274
  0.9186382145248094  0.5016697210430411  0.2483798159013161
  0.6686449833746306  0.7533315544173755  0.7506689573874948
  0.9166780107588856  0.1652224098706289  0.4119226437220181
  0.7515183149449501  0.8352127291307867  0.5854256543959248
  0.9171579064801625  0.4186546493771684  0.3271985207723274
  0.7487540694179605  0.8362076692492753  0.2488448068261576
  0.8332518813916558  0.6659451417250125  0.6651633085726690