Cr N  Ni
 1.0000000000000000
    21.4567155652087607    0.0000000000000000    0.0000000000000000
     0.0000000000000000   21.4567155652087607    0.0000000000000000
     0.0000000000000000    0.0000000000000000   21.4567155652087607
 Cr  N   Ni 
 259  86 605
Direct
  0.8238889597572513  0.8296401233364631 -0.0002425279683630
  0.1576831516114829  0.3962902852435673  0.2423699645164042
  0.6599194751339867  0.2391749662327490  0.0760604458858450
  0.7436930862168504  0.0719542206464363  0.6561355956655334
  0.7442789371898990  0.1576976831898767  0.4073664540636244
  0.2344859852058897  0.4003058260881358  0.1553658524180406
  0.7427045562912324  0.1623267983674156  0.5665556979129341
  0.7414093053849281  0.1635423874223661  0.9155360685294395
  0.5732744416645428  0.0751062870262837  0.8310906213275355
  0.7449940831069726  0.2492568619427225  0.8249890504713721
  0.7450846109056575  0.1585257195796354  0.7410560400135874
  0.6600269464656701 -0.0061261798344432  0.3235368098879062
  0.7399584879013050 -0.0095554021132964  0.7402821279979774
  0.2359983469496058  0.5699828404262489  0.6597902904444343
  0.8267419482862642  0.8287265987947863  0.8235831574258914
  0.3254215338478905  0.5806593225678441  0.0688198398501614
  0.4087677901303525  0.7502564417329930  0.4912649417284162
  0.4924359587716888  0.9166831397014907  0.9112208275214352
  0.5782735544594640  0.7436862696274854  0.4824622385407487
  0.7401328419915292  0.8281917604695215  0.2427094236189666
  0.1568171495946553  0.7431912231853148  0.2395122412051187
  0.5767336915490985  0.6612892477830411  0.5748026950801681
  0.5760393518126294  0.4870651750164495  0.5793595870613104
  0.2378770167647143  0.6594439901212238  0.5721166825391427
  0.8329573958538106  0.4061302920033049  0.9112298402476406
  0.2403530214465585  0.7450552486162596  0.1462510541580593
  0.2390051504261188  0.6549256839530128  0.4113693721292585
  0.5813477730959807  0.4062928787296072  0.1570766187836797
  0.7451829195508687 -0.0134727422549852  0.5664607578639429
  0.6594132467853780  0.0748163134860681  0.0774286503463570
 -0.0197916174213165  0.2390160909193907  0.0764539107235745
  0.7410585664559786  0.0766515031378308  0.8252420128502573
  0.0744712124533342  0.6597965489071163  0.0632976975620645
  0.5730688144815428  0.7470291244108239  0.6586236868545636
  0.8351496229727007  0.7440982537618976  0.5727305735770221
  0.4933916263038167  0.7399675885972719  0.9094200579721875
  0.5008071466832720  0.9094471901925201  0.4049323551602480
  0.2359507670875261  0.6653923338546676  0.7473823864810789
  0.0730349805805426  0.0773455695359439 -0.0077674834398785
  0.4985222949578259  0.9094038320758110  0.2444216551165265
  0.3247576907360945  0.2427822743657394  0.5733179477587612
  0.4114311240519809  0.6587770480240903  0.2320200090284641
  0.1457048849115787  0.2376872632192970  0.7424040723958140
  0.6613984807784307  0.0750595142443586  0.2445143356265210
  0.4005144566348944  0.8294076838930745  0.9101585975101995
  0.6511128051801535  0.7426514151274349  0.9096204597742488
  0.4914975988704587  0.8296157506402798  0.8227615587215511
  0.2375956672242129  0.1467507742760268  0.7439905892823981
  0.4071670144022930  0.4929701467367976  0.9112031193711860
  0.3268841979509013  0.0694277135932029  0.5758203726570689
  0.4030114113185503  0.6621169553108487  0.5795732935433990
  0.2372262098726129  0.1508148742577778  0.5759916431929136
  0.3250111057800730  0.2335710783862991  0.7448460429861359
  0.5830607102460215  0.9105511120162560  0.1584417214130993
  0.2400751363517432  0.2404407568087916  0.3331426834778371
  0.5837901552197505  0.2378210642418108  0.1597741051806262
  0.3251150184776287  0.0779839015306613  0.4075024226918523
  0.7436036850075077  0.8363392184909070  0.5707095430836986
  0.2400058076545933  0.3233515180513716  0.4083824422264298
  0.6613502753767820  0.7444528612005948  0.5746762020890158
  0.2388388132202943  0.2403678119645650  0.1585822819965368
  0.7432846313017573  0.7447914781568417  0.4829724170006134
  0.7478908681141692  0.7457222220354616  0.6612858352876172
  0.7452697273727595  0.8989130556441952  0.6574175418993349
  0.2393043570561526  0.3304040646368641  0.0711403905298420
  0.3250224504769702  0.4071626100814019  0.4070688767188750
  0.3167325683889558  0.0732758944412638  0.9110183941742622
  0.3177357801422919  0.4068040436580913  0.5741797408017428
  0.6545371449503632  0.3205190813542826  0.6560075604730419
  0.4089737303262735  0.1595795290598770  0.9101537900459868
  0.4082541353820034  0.9119797584618333  0.1500237117254084
  0.3206706450216412  0.4090809398102239  0.7477677689168452
  0.2329114381410112  0.3229543394434229  0.7422550820280998
  0.4121654380315902  0.9108420660521707  0.4968029495395266
  0.4889961677289367  0.5770162400481575  0.0728247915634539
  0.8295906340421357  0.3221392628864247  0.6561252679490430
  0.3246166351350405  0.7439383553450485  0.0634685609260667
  0.2440150715155896  0.6514639183593798  0.2376478287368267
  0.7453029254320592  0.4066168469707153  0.8208351313503390
  0.4135875854853587  0.1576788683028499  0.5735798547572201
  0.4912089811101423  0.6582792729541692  0.8358737819423934
  0.5741203286709957  0.4020778084446884  0.4982481244571889
  0.6606239446840951  0.6631997626017977  0.1603863381381889
  0.3197920410848610  0.8282993071453356  0.6556752798936587
  0.3215971884405163  0.7388190739698816  0.7475783100779305
  0.4081925139304366  0.3221912669369550  0.9094706881845603
  0.0779002944774884  0.5727052626678900  0.6590712610511588
  0.2412882648607898  0.1504797932093314  0.2404908917247703
  0.4103781076474159  0.7462988102327534  0.3202697796953475
  0.1568016639295753  0.7443944662384108  0.9114143826575207
  0.2387071557391151  0.5762909637912286  0.8362289915121485
  0.5754919770308112  0.4928452493403157  0.9095339562281780
  0.4117463343479112  0.6579031467432327  0.4061054997009795
  0.7370031587900592 -0.0108983315552340  0.9144144274062322
  0.8141197412396576  0.4889872677342252  0.1580489995760893
  0.8240435553438561  0.3997745174634136  0.4090093802003427
  0.2406537543471096  0.0746836821999053 -0.0078977119199704
  0.9035953351684075  0.6639433114245222  0.2462239977197699
  0.7438839498765843  0.4150397780847446  0.6586964683303095
  0.3233084431301091  0.4040459274509636  0.0697568750450438
  0.3245374266825337  0.9108011150099460  0.2406007669471051
 -0.0116901088742785  0.4870808887987458  0.1539095956205599
  0.4936830927752778  0.0746359310730961  0.0748956873865769
  0.3261796142400776  0.9088053549504066  0.4084032685827987
  0.6629284734951753  0.5762422402333834  0.0764363775358466
  0.4166244343594462  0.7409740874706719  0.1554236722311986
  0.3337461255189960  0.7443127157963511  0.2385151514275751
  0.6573912660451660  0.7446262609418669  0.7497611052357985
  0.4049814010715281  0.4968688617569259  0.7456045685980988
  0.3244983153882196  0.4031113934925730  0.2467241744445790
  0.6580083165095716  0.6615397686440900  0.3242298582089668
  0.4973866775844974  0.4051873523079115  0.7440499547014371
 -0.0096000860292369  0.4848251212639506  0.6546913194423597
  0.4096781154048561  0.5705737987328328  0.3185144943858323
  0.4032762639077492  0.5736900152781975  0.6686337720212313
  0.3251165054308601  0.2410302785054330  0.0728657654213246
  0.4088983259374516  0.3199604250190433  0.7447320001052414
  0.7429361778188600  0.2432988284949171  0.6574362778852102
  0.4888528994573745  0.7486073755561119  0.7492839418234598
  0.4945476317985430  0.8261153908557535 -0.0018663973369307
  0.6629884148759742  0.5777001406218740  0.5767443984678924
  0.5719556004381088  0.4093755802986884  0.8321651183292653
  0.2397781466889902  0.9122285424840523  0.3228710135652279
  0.7429901231388333  0.4971278814097509  0.9106088873917230
  0.3282116976521921  0.4969999782564414  0.1560176706287015
  0.2404920073879813  0.7429937820960889  0.3246808467014148
  0.7405849251928084  0.4901195712542609  0.2412817265456006
  0.4060467374011424  0.4885203023268743  0.5765322756013123
  0.4066405360284773 -0.0147211582524847  0.9115004803406692
  0.2391297664355803  0.2431363280323292  0.4826093136967410
  0.4083106026210993  0.4063235100118546  0.1572223736181679
  0.2373570343339102  0.9121928395375921  0.4985386862670014
  0.4071592291159982  0.4818772664215694  0.4070338287286059
 -0.0084505986344334  0.7445178042207201  0.7435794877101477
  0.4946827501499713  0.3176866715463009  0.6542207556237973
  0.2396917733554019  0.5710966678539363  0.4916820432824165
  0.4086486967486099  0.3150076562974989  0.5755804551397105
  0.4049812725920667  0.5733331732693971  0.4929544266809118
  0.4908530586305441  0.4060577504481772  0.2460461340365817
  0.5784346235443913  0.5786014289601593  0.4872701322094314
  0.5791754688765006  0.4917287530212185  0.4025853642853403
  0.6594024334748684  0.4052600196300266  0.9102079393179868
  0.5758309381816800  0.5758790581091966 -0.0143127182398305
  0.5812754431444795  0.4048641680989292  0.3259873407322337
  0.6608099449843318  0.5746855119350643  0.7437882547905793
  0.4939256550718842  0.4022844247259226  0.5775856078636602
  0.4910673730430605  0.5763751965536480  0.7412420488979506
  0.6655578987501780  0.4055816414438672  0.0740261199112582
  0.4908170599318322  0.4077906802419480  0.0685683099059028
  0.2405767180467978  0.8281383329855471  0.2400170370536479
  0.3244885032818145  0.4917349765480927 -0.0190913441724855
  0.4940916644484145  0.0764606537796379  0.2432889042494526
  0.7337791469559199  0.4918377711212615  0.4074493588461325
  0.4090968370616895  0.2388858266394676  0.3263218969048090
  0.3252915311084550  0.0789837452263399  0.2413941767139260
  0.5741953968738329  0.1593298154448001  0.9099709274275207
  0.6596423827547813  0.9106307271155129  0.4055870819042388
  0.4084429929983045  0.9126882606066181  0.3236933901735224
  0.4969325421112358  0.2393753868525126  0.0716131777839463
  0.5751156669387131  0.8363577966713843  0.5709133993146697
  0.5738227487089762 -0.0135322177799837  0.7418020490423509
  0.7416018045536350  0.0752849058913246  0.4786081345078039
  0.3216696011133899  0.8281398855009018  0.8326153495587593
  0.2408656687046979  0.3262037452972348  0.2438533767024940
  0.9068205971172650  0.0760411369703128  0.3222979099112027
  0.5736962500989019  0.0734168333400878  0.6567128885042310
  0.0787570157116708  0.3222846582158198  0.7415694627261200
  0.2388729146801705  0.2397539959120344 -0.0165593013618189
  0.1625473883255779  0.4877698500079807  0.1538951222996822
 -0.0105227412512909  0.3227171580461262  0.8302584356547577
  0.1556142613285720  0.4900654933463451 -0.0101639380917155
 -0.0085090016325455  0.1571454082424885  0.8267114978031774
  0.1607544747118353  0.4854494357591257  0.3295549373843509
  0.7401823231161981  0.6510098770898329  0.9095109898467539
  0.9077225901461040  0.4887153872091223  0.4165956644866828
  0.3195052725199166  0.9141713841966533  0.7413519087888254
  0.7337789182776959  0.8274764492550607  0.9131396079860169
  0.1554496424956683  0.8237205076916631  0.6576445898009536
  0.0754239794826674  0.4914842741611306  0.9135400437085593
  0.0754218036657524  0.7475685136533319  0.1536381765429697
 -0.0081101956801352  0.6607113008658568  0.6582938691497860
  0.0690946662887274  0.7436948476811917  0.3312788157275337
  0.9058583527487079  0.5749351581111755 -0.0087931597476344
  0.0683465172059806  0.7397238940568706  0.4916182646917077
  0.0683203722729592  0.6576840579395740  0.2416328255090479
  0.1535010968402512  0.4074556611692701  0.5734464913585946
  0.1443128989261589  0.6593064804796059  0.6584055084834385
  0.2382756048445504  0.9116499299856078 -0.0087618783950278
  0.0808873291292232  0.6608653763456660  0.7453680408178601
  0.5756019550425271  0.1588338079059990  0.4053963460733842
  0.0720207235744974  0.4911474254502420  0.0633319586106761
  0.5738191143630861  0.1598375354773188  0.5714908750489636
 -0.0100128869614754  0.3241688839539139  0.6544612887014437
  0.4078711829998792  0.0722832405562050  0.8209017955815651
  0.5758641796960264  0.3153687399231600  0.4048510495766423
  0.2412753890212069  0.8256058030647444  0.4071092276216108
  0.9100958295654406 -0.0075864116573823  0.5730577698122634
  0.0708626838850749  0.3222754859899132  0.2426217347648591
  0.9042758991896943  0.9080878194442744  0.1592925429734889
  0.2377700271420078  0.2399451264074716  0.8338847642766373
  0.1505819321643165  0.9116214269543945  0.2365125920590091
  0.9039349970579033  0.9131868809627958  0.3239223103380512
  0.8216896835018623 -0.0078071705167100 -0.0003375705014761
  0.0723812271688561  0.9135906192783759  0.4920766898115594
  0.8150638327326921  0.4891136498666480  0.3218787488839143
  0.8243397997814809 -0.0072158657960396  0.3245432102120707
  0.9104832038734585  0.1581295906650550  0.7407345154927297
  0.9014121955918418  0.5739101562585115  0.6582633537071502
  0.9057575413130584  0.2403132500465584  0.3238799893236140
  0.0709746019307135  0.1573461201035286  0.2414340931943201
  0.1575550098651050  0.0780747293859071  0.4077109345499351
  0.9062203098374774  0.5746993700984654  0.1536787275517959
  0.0721780424926571  0.2413203004044121  0.4923468649304147
  0.8279671841107092  0.9083712869232803  0.9141571392156651
  0.0746766425736006  0.9107343490387739 -0.0089160817852993
 -0.0098654413398210  0.4961712322818137  0.8288108761502553
 -0.0107923090980172  0.8270182431952747  0.6552053161961749
  0.8122095296610736  0.6606436237114113  0.1580589899218522
  0.9046149358884613  0.3992866851322495  0.3254206014114029
  0.1528248685549594  0.2385245056940426  0.0736750792750719
  0.8269320256012810  0.7431176210437609  0.7362490063012898
  0.4082678232562593  0.2385123430984095  0.1621394067549663
 -0.0166467814891439  0.0768573536301337  0.4061917077544469
 -0.0084446204030543  0.9175959746554976  0.7425591381070150
 -0.0089703692842885  0.5704754127282700  0.7470883860945733
  0.1563613398029457  0.9140400325580409  0.7491383262870641
  0.3226650629872730  0.0746392703601183  0.0728309576338119
  0.8251885737920464  0.7349769360104562  0.9101123942921275
  0.7416761173603862  0.4903439105496278  0.0752488812952668
  0.8998509815966395  0.7498471194254296  0.1597166256709184
  0.9080800686691847  0.2411695965143947  0.4912989105637623
  0.1483473345293737  0.2405238415796625  0.5746475623864598
  0.2440881685982723  0.9150495940075056  0.6585714620122717
 -0.0119914065517239  0.8395270576235280  0.1577474462041256
  0.0712512392145059  0.3250266894510973  0.0722152843581962
  0.0719615872132694  0.1500517978586622  0.0753349860887711
 -0.0072880923782269  0.6581724752687265  0.8363823936966159
  0.0714196907007511  0.3212865143297359  0.4105288439862744
  0.0709207091762776  0.0747496204412749  0.4949633860826858
  0.3241427270616820  0.9126897461618491  0.5854056721628191
 -0.0058613781026978  0.8268528308660327  0.8314435959885573
  0.0690893378564995  0.4871817923343081  0.2407515242354387
  0.1505326650039653  0.9112999534345066  0.4094217069137114
  0.9055955397144810  0.4884310945912564  0.2398911798728998
 -0.0093744142306313  0.4874943125895119  0.3272207482881866
  0.0736958152433133  0.2397563874124206  0.6570474503845480
  0.9064478557470534  0.5787229065940939  0.3297759864367236
  0.2413266864152071  0.9116090842062281  0.1483015705596108
 -0.0136767789546629  0.6630754609366124  0.1521306870761999
  0.0708641688148289  0.0753179976168573  0.6585257803041542
  0.9144073290772253 -0.0061462117231827  0.9082699526925946
  0.8340406558540364  0.5748740301556202  0.5729573964742170
  0.9082829032853255  0.9068896748913429 -0.0050325788249134
  0.8291549292060837 -0.0079834848275651  0.8211684913605228
 -0.0178934187182125  0.8277808313319001  0.4892919122268540
 -0.0093178576590225 -0.0069708126825030  0.1592613073440712
  0.8223144879241817  0.3200815432039310  0.1587109822391604
  0.0713940236265357  0.3217201782407129  0.9090594562135705
  0.0715937433501260  0.0751194694867729  0.8266053387795208
  0.3246403432393448  0.4934836680391344  0.0676291453836579
  0.4905100737426096  0.6625405045893390  0.7500633146753476
  0.9037324601115000  0.5768662018469468  0.2424569030018472
  0.9004381312167591  0.4844609003468206  0.1517161699815882
  0.5810044434990634  0.4085308191365292  0.2420449203916724
  0.9914440457054157  0.6577471901526796  0.7489061333695473
  0.4967016609030231  0.3153960853123479  0.7423637265544272
  0.5724919916617383  0.0729018778397696  0.5687527185557140
 -0.0120059265120756  0.4104742010656530  0.8283772937915992
 -0.0967542390023607  0.4876904957436552  0.3282222494233276
  0.6573209863038665  0.4051990108410938  0.8216226097151242
  0.6612469033237435  0.7445208032575369  0.6646361110264196
  0.2407439471378576  0.6506456437024811  0.3258512490846596
  0.7460909509271489  0.0742480356214272  0.5645111183415453
  0.7417624568120406  0.3303954755234674  0.6549045503233787
  0.2374732531653459  0.9174823380087618  0.2337244282604957
  0.1476677715850195  0.9144257639512479  0.3227713284803923
  0.7435727870701526  0.1584559393024922  0.6540480688639788
  0.0708150027739111  0.0771868004333380  0.4067366208284975
  0.4936914389506306  0.4118028660737230  0.1569487335713747
  0.2325410561734908  0.4089572719412672  0.7459540210484419
  0.5756772256214199  0.4906190332286114  0.4909209022046532
  0.5756777234751252  0.4018036358212664  0.4120814792369812
  0.0746497543874994  0.6587911704560605  0.1499134462152689
  0.7496176401166499  0.7474148570972007  0.5708842288116309
  0.5739733824610167  0.0744296578204279  0.7446926806814486
  0.4109822222744391  0.2399541824286381  0.0735139665950292
  0.2458285234381204  0.7411589583245746  0.2350879432981360
 -0.1027158016671191  0.6626870033104423  0.1531265097889082
  0.3301422802794828  0.7430159796767053  0.1489514118292868
  0.7362746647713059  0.7377581093769064  0.9132675212694288
  0.2339684389984395  0.2327270687150050  0.7450963164445893
  0.4038430949873827  0.5750193950841084  0.5823308008364655
  0.9932827022524986  0.8319079284227999  0.7431960121020745
  0.0697130613728457  0.8267293352605763  0.4918166548033570
 -0.0101850203019541  0.5718477027361260  0.6546016617486533
  0.0758459754097512  0.4910646983008832  0.3314755699973174
  0.7475089788643717  0.4079668105133808  0.9097139340070574
  0.8284358367799043  0.7385257986284187  0.8213404979483491
  0.3249514210171221  0.9101794805943844  0.4989776300325002
  0.5728576414776596  0.7499590496407949  0.5683799058485770
  0.8186675018451874  0.4897454449566860  0.4131518293916256
  0.0752501075874856  0.4872138730959800  0.1503553846203764
  0.8267670942430844 -0.0040183312290494  0.9102552101836747
  0.2382991481437112  0.5772553338175185  0.7494360452366648
  0.5791172094332006  0.4058055481758640  0.0674656926110209
  0.7390940134599721  0.0776546065244978  0.9158062434649027
  0.3215286819914025  0.8265675140723364  0.7440337288217826
  0.9917479453351223  0.3225543021559592  0.7411167045162954
  0.0696108729097834  0.7485459490106222  0.2449791572121325
 -0.0893171353001036 -0.0055596967485327 -0.0027506600022464
  0.4156454861517035  0.6595520712350524  0.3177692726698197
  0.5754703911831650  0.5782190895019576  0.0746273195914166
  0.2404488856730842  0.7405969007515026  0.4139655570181868
  0.7436457244356663 -0.0161843557458270  0.6531782730115434
  0.7490568226103396  0.5733356150767670  0.5749140119766680
  0.5754488084042781  0.5750000497184892  0.5782942391198291
  0.0656573902487014  0.2376909674520007  0.0741145193319565
  0.1538377531319688  0.5708095231106742  0.4908469365834920
  0.1560195550476417  0.9104531934310350  0.6621246491200019
  0.4970750684272247  0.2373203278741478  0.1609733211039643
  0.2386750260332835  0.2410012324384523  0.0704973577179858
  0.4859405493483400  0.7505428488971854  0.6633896236487016
  0.3267502595241422  0.1552559307027582  0.5746666401727628
 -0.0137691875015089  0.7534013405796735  0.1521829538061797
  0.2376834994834515  0.9149260492157245  0.4111414291534644
  0.3211343536584589  0.3202920072487138  0.7432773788585589
  0.4090587143464510  0.5681590155393823  0.4054788332374372
  0.8255749576309090  0.8221905841463331  0.9128087545729923
  0.1561115375692567  0.6544099939514409  0.2391333267127723
  0.2403566688335599  0.2379728442720642  0.2461227137095804
  0.4971554791844510  0.9101859801505481  0.1552178877986790
  0.3207014708490877  0.4075967700134738  0.1597269167936629
  0.2330506416491392  0.6593245877718683  0.6586028723749945
  0.4959254544647674  0.4915407921022157  0.7458462359373970
  0.4061938174856465  0.0724831522478604  0.9086880325688446
  0.1617947039661685  0.4844038897196445  0.2420058015130261
  0.4902110026218686  0.8284208961900886  0.9106108103145586
  0.4089094103463267  0.4085980752249049  0.7477960486779460
  0.7432216724294992  0.1647659407748130  0.8278234620995366
  0.4110975116257582  0.9122371719253476  0.2369110195354554
  0.4080166068415719  0.6644150040153303  0.4932331455845201
  0.4151289731510229  0.9113594034534155  0.4102042743855345
  0.7392084473656132 -0.0121138175026887  0.8261117303271518
  0.4052658050950913  0.4010730633046449  0.5733560277680992
  0.2354579128213721  0.2407389081911652  0.5712212227234499
  0.7431881987157692  0.3199387831340444  0.2410065316989636
  0.8261124417912595  0.2402416300397449  0.4079284531696278
 -0.0116464897305634  0.2404583435147073  0.2421776711151257
  0.4084000077720524  0.4055580861869866  0.3235309940188599
  0.8236333443217632  0.0755817905407526  0.0792558211727076
  0.2382738929013646 -0.0078120373707871  0.9101958130864687
  0.9060768128877386  0.1571443108826900  0.0781585705604090
  0.9074073107981118  0.1594508946385982  0.4067204570557194
  0.8275224202195776  0.1585421845487677  0.4889847417892777
  0.8278732238844256  0.2396298323310483  0.5726989292936328
  0.9053190609820616  0.3221503234575719  0.0754762453017297
  0.9099306125688703 -0.0074285124719159  0.7423045341815910
  0.8239454341661285  0.1582209671129162  0.1601141107683790
  0.9065221182038911  0.0751390537521636  0.1602462406103395
  0.8241471571093063  0.2394075266084274  0.2424860711715060
  0.8254197789368900  0.9106204054470634  0.4059078555840346
  0.8292233748494732  0.9099832593076818  0.5717211160737675
  0.9103407745340845  0.1592976325704894  0.9084383007394955
  0.8299896324402427  0.0832203157845169  0.9081971029709154
  0.8278952058410715  0.0754826178672291  0.4066121711603530
  0.9074850921985558 -0.0069843499425127  0.4066831122155117
  0.9058623608504907  0.1583507568325552  0.2423433979550015
  0.8273630877231218 -0.0077159878458902  0.4884808110134380
  0.8331907045830639  0.0753518121870602  0.5730910742009313
  0.9089542401747058  0.0756595488480103  0.4897282425177191
  0.1556052760801047  0.0746180188730156  0.9104645654214694
  0.8316747613911813 -0.0075944194931479  0.6580588305790576
 -0.0087133815257497  0.1570089802521558  0.6571392845396276
  0.8269422775170129  0.0746738943083842  0.7410984682156821
  0.9102778599033637  0.1590163888677445  0.5734200758367647
  0.9059632681803580  0.2405830441517668  0.1600837213951098
  0.9106052789599953  0.0765395636087866  0.8237842909252754
  0.9074558395310023  0.0805360021270556 -0.0052310193337808
  0.9051673985023418 -0.0071252978455922  0.2407040574141333
  0.6601286042907939  0.6612398646411968  0.4887466788383726
  0.8256869196855248  0.3212675926067083  0.4907400558299992
  0.8260181667170856  0.4048733596363259  0.5744304698536636
 -0.0116092956654766  0.2410153441395653  0.4076915051422591
  0.9074466673420029  0.4034675377991165  0.4918318801369629
  0.7440788230070247  0.3237564343374310  0.7442503847507864
  0.8259633048813644  0.4081574657207618  0.7408562298565543
 -0.0081651190628675  0.2356576593434912  0.7413123670845476
  0.9070885859696532  0.4075653615709415  0.6563774473424145
  0.8269017166061265  0.3234137478371060  0.8252562953779067
  0.7450555607086580  0.3191857351658884  0.9119950202043026
  0.9044918288392041  0.3250071389838384  0.7406429371077065
  0.9017296545886910  0.4094755571715591  0.8262589867909762
  0.8233126579232721  0.4924743804680036 -0.0078847543698276
  0.1534867547829752  0.0755105409461986  0.5745780701739961
  0.8197022720958939  0.5755158816643299  0.0753070755228018
  0.8252301293118792  0.2400204220580070  0.0777294068068190
  0.8240421967226473  0.0749988698859402  0.2427311995549507
  0.8230761787542220 -0.0076274471801505  0.1602588442949296
  0.2394863761051719  0.0741868893602976  0.8277758874386506
  0.1528314925317802  0.0748968392897924  0.7434985148548989
  0.6585221289042051  0.2397363280752240  0.7411416249085754
  0.9097488278794775  0.2406506987057136  0.6567584114344422
  0.8319838617511529  0.1588227140842641  0.8220017688007776
  0.8270630661372514  0.2392128547310305  0.9093129574310540
  0.9068212907574736  0.3211163172740796  0.9097433744731259
  0.1530263655812068  0.1539724398618588  0.6580921556971048
  0.8261053671784436  0.3215946740443171 -0.0062076444682095
  0.8229595682175452  0.4051009974788536  0.0758851256685303
  0.2391807905708157 -0.0050456359111032  0.7448494676255282
  0.9062276763568651  0.4057469852977833 -0.0068046703536284
 -0.0109363860420377  0.4904756027290303 -0.0091238471031627
  0.8214925891211442  0.4041578040512119  0.2419091325225199
 -0.0110557104390882  0.4035931606808085  0.2421165120271223
  0.9058373390484886  0.3987703910141109  0.1583569370353954
  0.8233500180326573  0.3206342528393261  0.3253276318548158
  0.8324079242026009  0.1573603620257552  0.6577578793444998
  0.8285201013044843  0.2419290023990068  0.7405949807174090
  0.2397137585968606  0.0769529038639423  0.4908341352542977
  0.2386811545887159  0.3224690344926699  0.9099851176405799
  0.9037301357775747  0.8294176379638529  0.2430920692815469
  0.6597193242871534  0.4910210946090445  0.6593050036358414
  0.0718155643900420  0.4002082710430342  0.3260960244030612
  0.7413422867102327  0.1581729244258720  0.0779092242248144
  0.6594587577154517  0.7443551625499909  0.2418193335004167
  0.6585539229325664  0.5740295389506558  0.9085654864647185
  0.7408245847689835  0.6609914198001929  0.4065456952832343
  0.0715837772430567  0.5740792193462031  0.1529662845703013
  0.1550892987901326  0.3213852456315701  0.3276923046491684
  0.5786778405394416  0.6607217901088003  0.2405352752045256
  0.5776633832348810  0.6648241318633628  0.0757447718356768
  0.7392385201695744  0.7432995948919303 -0.0007558135436569
  0.4131728756651766  0.4926059952029415  0.0707271081042746
  0.3260830561453356  0.3189740602551677  0.1589115633882912
  0.7390980438544018  0.6600410248944764  0.0754207575427064
  0.3246857242622867  0.2383476440758829  0.9088238725033593
  0.6589111524481521  0.7436322898508141  0.0779369323303634
  0.7400113113205828  0.7447825799791410  0.3246476513646439
  0.1543955721869925  0.4049219672076100  0.0708249113160484
  0.7415956696245380  0.5743745830728293  0.8255756260068019
  0.7417837770714637  0.4032840791212817  0.3251485110310630
  0.5798826085071404  0.5778992600063241  0.1617611031363491
  0.6633275673407880  0.4899459724327610  0.4932230165613647
  0.7406577286114604  0.5749651379324217 -0.0067393747639142
  0.4905560315230785  0.5754438687275062  0.5768718012221719
  0.6605236867217884  0.5777093628532696  0.2419489448386586
  0.7438635139822772  0.4913066057461788  0.7424848216164180
  0.3244609558940643  0.3226757582097972  0.4884982219439607
  0.7417576616029181  0.4040373763006671  0.1580888910947567
  0.6591192621836586  0.5777353668254571  0.4056912211577742
  0.1543104889798436  0.3235481114173684  0.4904609876123753
  0.7393199118716227  0.5773910877383042  0.3239502014817653
  0.2410068605655618  0.4034529287458464  0.3269264325746187
  0.1541579042897248  0.2403264661684910  0.4085248180510106
  0.6616134081858858  0.4917035438223302  0.3242856128445645
  0.7402438372636704  0.5770253327590875  0.4868661532113328
  0.6601124089017066  0.4941631597329626  0.8266771837255313
  0.2410271875997409  0.0785148450487964  0.3257307012638300
  0.6607636293920782  0.6558698660229124  0.6616951510273702
  0.7459450758845541  0.6600827557854025  0.5735045119791314
  0.6563768035495368  0.8276137109667696  0.8259199184380266
  0.7414840284407200  0.9108236128330129  0.3242582664221660
  0.1544542338659318  0.3229786022128215 -0.0103543639119016
  0.6541679640192477 -0.0102771175660570  0.6570979839237546
  0.7400939889961240 -0.0076660580286966  0.0790876874461748
  0.1557920766060249  0.1584028400498082  0.3252890384131177
  0.7420425630117757  0.8278689533067140  0.4057983444217413
  0.6573564355100724  0.9085708364624495  0.7418740980197246
  0.6595915235407063  0.8290942260738456  0.4881243741526914
  0.3293204262471138  0.2389512017790956  0.2434369776673107
  0.0707070576434867  0.1641697867005386  0.4086250321569799
  0.1508890047665516  0.2406810273049580  0.2426675878856340
  0.1551674976591724  0.1566009776209986  0.1583715104639365
  0.6521767905693667 -0.0088303409352775  0.8261460465479653
  0.7433539139615104  0.8270977708193040  0.7427870135670847
  0.5756196700230821  0.9108683559162374  0.4875324193636781
  0.7436540215753105  0.9097498782492712  0.4865143245443078
  0.9049804183044240  0.3216274339937364  0.2423217811882433
  0.6566564156928141  0.8269540368325499 -0.0050406407018387
  0.1564448254617010  0.1561531739336695 -0.0093886238444424
  0.8216351181608094  0.8282327013556485  0.1593537885905547
  0.1540809699453400  0.1546576609623188  0.8276516787553644
  0.6584729786737872  0.8269270314988281  0.1600479315839501
  0.7381121846226876  0.7427745677080632  0.8224617127741118
  0.7405303254199466  0.7453714444847431  0.1592572738471225
  0.6588010201709444  0.9096619377001339  0.0771193550765539
  0.5780070009666431  0.5764608135260699  0.6654209055695219
  0.7393605388651208  0.9091933084722875 -0.0042634940303543